*HEADING
Normalized cross-passage space-truss torsion benchmark
*NODE
1,-1.200000000000e+00,0.000000000000e+00,0.000000000000e+00
2,1.200000000000e+00,0.000000000000e+00,0.000000000000e+00
3,-1.200000000000e+00,0.000000000000e+00,2.000000000000e+00
4,1.200000000000e+00,0.000000000000e+00,2.000000000000e+00
5,-1.200000000000e+00,1.000000000000e+01,0.000000000000e+00
6,1.200000000000e+00,1.000000000000e+01,0.000000000000e+00
7,-1.200000000000e+00,1.000000000000e+01,2.000000000000e+00
8,1.200000000000e+00,1.000000000000e+01,2.000000000000e+00
9,-1.200000000000e+00,2.000000000000e+01,0.000000000000e+00
10,1.200000000000e+00,2.000000000000e+01,0.000000000000e+00
11,-1.200000000000e+00,2.000000000000e+01,2.000000000000e+00
12,1.200000000000e+00,2.000000000000e+01,2.000000000000e+00
13,-1.200000000000e+00,3.000000000000e+01,0.000000000000e+00
14,1.200000000000e+00,3.000000000000e+01,0.000000000000e+00
15,-1.200000000000e+00,3.000000000000e+01,2.000000000000e+00
16,1.200000000000e+00,3.000000000000e+01,2.000000000000e+00
17,-1.200000000000e+00,4.000000000000e+01,0.000000000000e+00
18,1.200000000000e+00,4.000000000000e+01,0.000000000000e+00
19,-1.200000000000e+00,4.000000000000e+01,2.000000000000e+00
20,1.200000000000e+00,4.000000000000e+01,2.000000000000e+00
21,-1.200000000000e+00,5.000000000000e+01,0.000000000000e+00
22,1.200000000000e+00,5.000000000000e+01,0.000000000000e+00
23,-1.200000000000e+00,5.000000000000e+01,2.000000000000e+00
24,1.200000000000e+00,5.000000000000e+01,2.000000000000e+00
25,-1.200000000000e+00,1.250000000000e+00,-5.740251485476e-02
26,-1.200000000000e+00,2.500000000000e+00,-1.060660171780e-01
27,-1.200000000000e+00,3.750000000000e+00,-1.385819298767e-01
28,-1.200000000000e+00,5.000000000000e+00,-1.500000000000e-01
29,-1.200000000000e+00,6.250000000000e+00,-1.385819298767e-01
30,-1.200000000000e+00,7.500000000000e+00,-1.060660171780e-01
31,-1.200000000000e+00,8.750000000000e+00,-5.740251485476e-02
32,1.200000000000e+00,1.250000000000e+00,5.740251485476e-02
33,1.200000000000e+00,2.500000000000e+00,1.060660171780e-01
34,1.200000000000e+00,3.750000000000e+00,1.385819298767e-01
35,1.200000000000e+00,5.000000000000e+00,1.500000000000e-01
36,1.200000000000e+00,6.250000000000e+00,1.385819298767e-01
37,1.200000000000e+00,7.500000000000e+00,1.060660171780e-01
38,1.200000000000e+00,8.750000000000e+00,5.740251485476e-02
39,-1.200000000000e+00,1.250000000000e+00,1.942597485145e+00
40,-1.200000000000e+00,2.500000000000e+00,1.893933982822e+00
41,-1.200000000000e+00,3.750000000000e+00,1.861418070123e+00
42,-1.200000000000e+00,5.000000000000e+00,1.850000000000e+00
43,-1.200000000000e+00,6.250000000000e+00,1.861418070123e+00
44,-1.200000000000e+00,7.500000000000e+00,1.893933982822e+00
45,-1.200000000000e+00,8.750000000000e+00,1.942597485145e+00
46,1.200000000000e+00,1.250000000000e+00,2.057402514855e+00
47,1.200000000000e+00,2.500000000000e+00,2.106066017178e+00
48,1.200000000000e+00,3.750000000000e+00,2.138581929877e+00
49,1.200000000000e+00,5.000000000000e+00,2.150000000000e+00
50,1.200000000000e+00,6.250000000000e+00,2.138581929877e+00
51,1.200000000000e+00,7.500000000000e+00,2.106066017178e+00
52,1.200000000000e+00,8.750000000000e+00,2.057402514855e+00
53,-1.200000000000e+00,1.250000000000e+01,-1.060660171780e-01
54,-1.200000000000e+00,1.500000000000e+01,-1.500000000000e-01
55,-1.200000000000e+00,1.750000000000e+01,-1.060660171780e-01
56,1.200000000000e+00,1.250000000000e+01,1.060660171780e-01
57,1.200000000000e+00,1.500000000000e+01,1.500000000000e-01
58,1.200000000000e+00,1.750000000000e+01,1.060660171780e-01
59,-1.200000000000e+00,1.250000000000e+01,1.893933982822e+00
60,-1.200000000000e+00,1.500000000000e+01,1.850000000000e+00
61,-1.200000000000e+00,1.750000000000e+01,1.893933982822e+00
62,1.200000000000e+00,1.250000000000e+01,2.106066017178e+00
63,1.200000000000e+00,1.500000000000e+01,2.150000000000e+00
64,1.200000000000e+00,1.750000000000e+01,2.106066017178e+00
65,-1.200000000000e+00,2.500000000000e+01,-1.500000000000e-01
66,1.200000000000e+00,2.500000000000e+01,1.500000000000e-01
67,-1.200000000000e+00,2.500000000000e+01,1.850000000000e+00
68,1.200000000000e+00,2.500000000000e+01,2.150000000000e+00
69,-1.200000000000e+00,3.250000000000e+01,-1.060660171780e-01
70,-1.200000000000e+00,3.500000000000e+01,-1.500000000000e-01
71,-1.200000000000e+00,3.750000000000e+01,-1.060660171780e-01
72,1.200000000000e+00,3.250000000000e+01,1.060660171780e-01
73,1.200000000000e+00,3.500000000000e+01,1.500000000000e-01
74,1.200000000000e+00,3.750000000000e+01,1.060660171780e-01
75,-1.200000000000e+00,3.250000000000e+01,1.893933982822e+00
76,-1.200000000000e+00,3.500000000000e+01,1.850000000000e+00
77,-1.200000000000e+00,3.750000000000e+01,1.893933982822e+00
78,1.200000000000e+00,3.250000000000e+01,2.106066017178e+00
79,1.200000000000e+00,3.500000000000e+01,2.150000000000e+00
80,1.200000000000e+00,3.750000000000e+01,2.106066017178e+00
81,-1.200000000000e+00,4.250000000000e+01,-1.060660171780e-01
82,-1.200000000000e+00,4.500000000000e+01,-1.500000000000e-01
83,-1.200000000000e+00,4.750000000000e+01,-1.060660171780e-01
84,1.200000000000e+00,4.250000000000e+01,1.060660171780e-01
85,1.200000000000e+00,4.500000000000e+01,1.500000000000e-01
86,1.200000000000e+00,4.750000000000e+01,1.060660171780e-01
87,-1.200000000000e+00,4.250000000000e+01,1.893933982822e+00
88,-1.200000000000e+00,4.500000000000e+01,1.850000000000e+00
89,-1.200000000000e+00,4.750000000000e+01,1.893933982822e+00
90,1.200000000000e+00,4.250000000000e+01,2.106066017178e+00
91,1.200000000000e+00,4.500000000000e+01,2.150000000000e+00
92,1.200000000000e+00,4.750000000000e+01,2.106066017178e+00
93,0.000000000000e+00,-3.600000000000e-02,0.000000000000e+00
94,0.000000000000e+00,3.600000000000e-02,2.000000000000e+00
95,-1.200000000000e+00,3.000000000000e-02,1.000000000000e+00
96,1.200000000000e+00,-3.000000000000e-02,1.000000000000e+00
97,-9.000000000000e-01,9.986223396435e+00,0.000000000000e+00
98,-6.000000000000e-01,9.974544155877e+00,0.000000000000e+00
99,-3.000000000000e-01,9.966740336830e+00,0.000000000000e+00
100,0.000000000000e+00,9.964000000000e+00,0.000000000000e+00
101,3.000000000000e-01,9.966740336830e+00,0.000000000000e+00
102,6.000000000000e-01,9.974544155877e+00,0.000000000000e+00
103,9.000000000000e-01,9.986223396435e+00,0.000000000000e+00
104,-9.000000000000e-01,1.001377660357e+01,2.000000000000e+00
105,-6.000000000000e-01,1.002545584412e+01,2.000000000000e+00
106,-3.000000000000e-01,1.003325966317e+01,2.000000000000e+00
107,0.000000000000e+00,1.003600000000e+01,2.000000000000e+00
108,3.000000000000e-01,1.003325966317e+01,2.000000000000e+00
109,6.000000000000e-01,1.002545584412e+01,2.000000000000e+00
110,9.000000000000e-01,1.001377660357e+01,2.000000000000e+00
111,-1.200000000000e+00,1.001148050297e+01,2.500000000000e-01
112,-1.200000000000e+00,1.002121320344e+01,5.000000000000e-01
113,-1.200000000000e+00,1.002771638598e+01,7.500000000000e-01
114,-1.200000000000e+00,1.003000000000e+01,1.000000000000e+00
115,-1.200000000000e+00,1.002771638598e+01,1.250000000000e+00
116,-1.200000000000e+00,1.002121320344e+01,1.500000000000e+00
117,-1.200000000000e+00,1.001148050297e+01,1.750000000000e+00
118,1.200000000000e+00,9.988519497029e+00,2.500000000000e-01
119,1.200000000000e+00,9.978786796564e+00,5.000000000000e-01
120,1.200000000000e+00,9.972283614025e+00,7.500000000000e-01
121,1.200000000000e+00,9.970000000000e+00,1.000000000000e+00
122,1.200000000000e+00,9.972283614025e+00,1.250000000000e+00
123,1.200000000000e+00,9.978786796564e+00,1.500000000000e+00
124,1.200000000000e+00,9.988519497029e+00,1.750000000000e+00
125,0.000000000000e+00,1.996400000000e+01,0.000000000000e+00
126,0.000000000000e+00,2.003600000000e+01,2.000000000000e+00
127,-1.200000000000e+00,2.003000000000e+01,1.000000000000e+00
128,1.200000000000e+00,1.997000000000e+01,1.000000000000e+00
129,-6.000000000000e-01,3.997454415588e+01,0.000000000000e+00
130,0.000000000000e+00,3.996400000000e+01,0.000000000000e+00
131,6.000000000000e-01,3.997454415588e+01,0.000000000000e+00
132,-6.000000000000e-01,4.002545584412e+01,2.000000000000e+00
133,0.000000000000e+00,4.003600000000e+01,2.000000000000e+00
134,6.000000000000e-01,4.002545584412e+01,2.000000000000e+00
135,-1.200000000000e+00,4.002121320344e+01,5.000000000000e-01
136,-1.200000000000e+00,4.003000000000e+01,1.000000000000e+00
137,-1.200000000000e+00,4.002121320344e+01,1.500000000000e+00
138,1.200000000000e+00,3.997878679656e+01,5.000000000000e-01
139,1.200000000000e+00,3.997000000000e+01,1.000000000000e+00
140,1.200000000000e+00,3.997878679656e+01,1.500000000000e+00
141,-1.200000000000e+00,1.261480502971e+00,1.925974851452e-01
142,-1.200000000000e+00,2.521213203436e+00,3.939339828220e-01
143,-1.200000000000e+00,3.777716385975e+00,6.114180701233e-01
144,-1.200000000000e+00,5.030000000000e+00,8.500000000000e-01
145,-1.200000000000e+00,6.277716385975e+00,1.111418070123e+00
146,-1.200000000000e+00,7.521213203436e+00,1.393933982822e+00
147,-1.200000000000e+00,8.761480502971e+00,1.692597485145e+00
148,-1.200000000000e+00,1.261480502971e+00,1.807402514855e+00
149,-1.200000000000e+00,2.521213203436e+00,1.606066017178e+00
150,-1.200000000000e+00,3.777716385975e+00,1.388581929877e+00
151,-1.200000000000e+00,5.030000000000e+00,1.150000000000e+00
152,-1.200000000000e+00,6.277716385975e+00,8.885819298767e-01
153,-1.200000000000e+00,7.521213203436e+00,6.060660171780e-01
154,-1.200000000000e+00,8.761480502971e+00,3.074025148548e-01
155,1.200000000000e+00,1.261480502971e+00,1.925974851452e-01
156,1.200000000000e+00,2.521213203436e+00,3.939339828220e-01
157,1.200000000000e+00,3.777716385975e+00,6.114180701233e-01
158,1.200000000000e+00,5.030000000000e+00,8.500000000000e-01
159,1.200000000000e+00,6.277716385975e+00,1.111418070123e+00
160,1.200000000000e+00,7.521213203436e+00,1.393933982822e+00
161,1.200000000000e+00,8.761480502971e+00,1.692597485145e+00
162,1.200000000000e+00,1.261480502971e+00,1.807402514855e+00
163,1.200000000000e+00,2.521213203436e+00,1.606066017178e+00
164,1.200000000000e+00,3.777716385975e+00,1.388581929877e+00
165,1.200000000000e+00,5.030000000000e+00,1.150000000000e+00
166,1.200000000000e+00,6.277716385975e+00,8.885819298767e-01
167,1.200000000000e+00,7.521213203436e+00,6.060660171780e-01
168,1.200000000000e+00,8.761480502971e+00,3.074025148548e-01
169,-8.425974851452e-01,1.236223396435e+00,0.000000000000e+00
170,-4.939339828220e-01,2.474544155877e+00,0.000000000000e+00
171,-1.614180701233e-01,3.716740336830e+00,0.000000000000e+00
172,1.500000000000e-01,4.964000000000e+00,0.000000000000e+00
173,4.385819298767e-01,6.216740336830e+00,0.000000000000e+00
174,7.060660171780e-01,7.474544155877e+00,0.000000000000e+00
175,9.574025148548e-01,8.736223396435e+00,0.000000000000e+00
176,8.425974851452e-01,1.236223396435e+00,0.000000000000e+00
177,4.939339828220e-01,2.474544155877e+00,0.000000000000e+00
178,1.614180701233e-01,3.716740336830e+00,0.000000000000e+00
179,-1.500000000000e-01,4.964000000000e+00,0.000000000000e+00
180,-4.385819298767e-01,6.216740336830e+00,0.000000000000e+00
181,-7.060660171780e-01,7.474544155877e+00,0.000000000000e+00
182,-9.574025148548e-01,8.736223396435e+00,0.000000000000e+00
183,-8.425974851452e-01,1.236223396435e+00,2.000000000000e+00
184,-4.939339828220e-01,2.474544155877e+00,2.000000000000e+00
185,-1.614180701233e-01,3.716740336830e+00,2.000000000000e+00
186,1.500000000000e-01,4.964000000000e+00,2.000000000000e+00
187,4.385819298767e-01,6.216740336830e+00,2.000000000000e+00
188,7.060660171780e-01,7.474544155877e+00,2.000000000000e+00
189,9.574025148548e-01,8.736223396435e+00,2.000000000000e+00
190,8.425974851452e-01,1.236223396435e+00,2.000000000000e+00
191,4.939339828220e-01,2.474544155877e+00,2.000000000000e+00
192,1.614180701233e-01,3.716740336830e+00,2.000000000000e+00
193,-1.500000000000e-01,4.964000000000e+00,2.000000000000e+00
194,-4.385819298767e-01,6.216740336830e+00,2.000000000000e+00
195,-7.060660171780e-01,7.474544155877e+00,2.000000000000e+00
196,-9.574025148548e-01,8.736223396435e+00,2.000000000000e+00
197,-1.200000000000e+00,1.126148050297e+01,1.925974851452e-01
198,-1.200000000000e+00,1.252121320344e+01,3.939339828220e-01
199,-1.200000000000e+00,1.377771638598e+01,6.114180701233e-01
200,-1.200000000000e+00,1.503000000000e+01,8.500000000000e-01
201,-1.200000000000e+00,1.627771638598e+01,1.111418070123e+00
202,-1.200000000000e+00,1.752121320344e+01,1.393933982822e+00
203,-1.200000000000e+00,1.876148050297e+01,1.692597485145e+00
204,-1.200000000000e+00,1.126148050297e+01,1.807402514855e+00
205,-1.200000000000e+00,1.252121320344e+01,1.606066017178e+00
206,-1.200000000000e+00,1.377771638598e+01,1.388581929877e+00
207,-1.200000000000e+00,1.503000000000e+01,1.150000000000e+00
208,-1.200000000000e+00,1.627771638598e+01,8.885819298767e-01
209,-1.200000000000e+00,1.752121320344e+01,6.060660171780e-01
210,-1.200000000000e+00,1.876148050297e+01,3.074025148548e-01
211,1.200000000000e+00,1.126148050297e+01,1.925974851452e-01
212,1.200000000000e+00,1.252121320344e+01,3.939339828220e-01
213,1.200000000000e+00,1.377771638598e+01,6.114180701233e-01
214,1.200000000000e+00,1.503000000000e+01,8.500000000000e-01
215,1.200000000000e+00,1.627771638598e+01,1.111418070123e+00
216,1.200000000000e+00,1.752121320344e+01,1.393933982822e+00
217,1.200000000000e+00,1.876148050297e+01,1.692597485145e+00
218,1.200000000000e+00,1.126148050297e+01,1.807402514855e+00
219,1.200000000000e+00,1.252121320344e+01,1.606066017178e+00
220,1.200000000000e+00,1.377771638598e+01,1.388581929877e+00
221,1.200000000000e+00,1.503000000000e+01,1.150000000000e+00
222,1.200000000000e+00,1.627771638598e+01,8.885819298767e-01
223,1.200000000000e+00,1.752121320344e+01,6.060660171780e-01
224,1.200000000000e+00,1.876148050297e+01,3.074025148548e-01
225,-8.425974851452e-01,1.123622339643e+01,0.000000000000e+00
226,-4.939339828220e-01,1.247454415588e+01,0.000000000000e+00
227,-1.614180701233e-01,1.371674033683e+01,0.000000000000e+00
228,1.500000000000e-01,1.496400000000e+01,0.000000000000e+00
229,4.385819298767e-01,1.621674033683e+01,0.000000000000e+00
230,7.060660171780e-01,1.747454415588e+01,0.000000000000e+00
231,9.574025148548e-01,1.873622339643e+01,0.000000000000e+00
232,8.425974851452e-01,1.123622339643e+01,0.000000000000e+00
233,4.939339828220e-01,1.247454415588e+01,0.000000000000e+00
234,1.614180701233e-01,1.371674033683e+01,0.000000000000e+00
235,-1.500000000000e-01,1.496400000000e+01,0.000000000000e+00
236,-4.385819298767e-01,1.621674033683e+01,0.000000000000e+00
237,-7.060660171780e-01,1.747454415588e+01,0.000000000000e+00
238,-9.574025148548e-01,1.873622339643e+01,0.000000000000e+00
239,-8.425974851452e-01,1.123622339643e+01,2.000000000000e+00
240,-4.939339828220e-01,1.247454415588e+01,2.000000000000e+00
241,-1.614180701233e-01,1.371674033683e+01,2.000000000000e+00
242,1.500000000000e-01,1.496400000000e+01,2.000000000000e+00
243,4.385819298767e-01,1.621674033683e+01,2.000000000000e+00
244,7.060660171780e-01,1.747454415588e+01,2.000000000000e+00
245,9.574025148548e-01,1.873622339643e+01,2.000000000000e+00
246,8.425974851452e-01,1.123622339643e+01,2.000000000000e+00
247,4.939339828220e-01,1.247454415588e+01,2.000000000000e+00
248,1.614180701233e-01,1.371674033683e+01,2.000000000000e+00
249,-1.500000000000e-01,1.496400000000e+01,2.000000000000e+00
250,-4.385819298767e-01,1.621674033683e+01,2.000000000000e+00
251,-7.060660171780e-01,1.747454415588e+01,2.000000000000e+00
252,-9.574025148548e-01,1.873622339643e+01,2.000000000000e+00
253,-1.200000000000e+00,3.503000000000e+01,8.500000000000e-01
254,-1.200000000000e+00,3.503000000000e+01,1.150000000000e+00
255,1.200000000000e+00,3.503000000000e+01,8.500000000000e-01
256,1.200000000000e+00,3.503000000000e+01,1.150000000000e+00
257,1.500000000000e-01,3.496400000000e+01,0.000000000000e+00
258,-1.500000000000e-01,3.496400000000e+01,0.000000000000e+00
259,1.500000000000e-01,3.496400000000e+01,2.000000000000e+00
260,-1.500000000000e-01,3.496400000000e+01,2.000000000000e+00
261,-1.200000000000e+00,4.503000000000e+01,8.500000000000e-01
262,-1.200000000000e+00,4.503000000000e+01,1.150000000000e+00
263,1.200000000000e+00,4.503000000000e+01,8.500000000000e-01
264,1.200000000000e+00,4.503000000000e+01,1.150000000000e+00
265,1.500000000000e-01,4.496400000000e+01,0.000000000000e+00
266,-1.500000000000e-01,4.496400000000e+01,0.000000000000e+00
267,1.500000000000e-01,4.496400000000e+01,2.000000000000e+00
268,-1.500000000000e-01,4.496400000000e+01,2.000000000000e+00
*ELEMENT,TYPE=B31,ELSET=ALL
1,1,25
2,25,26
3,26,27
4,27,28
5,28,29
6,29,30
7,30,31
8,31,5
9,2,32
10,32,33
11,33,34
12,34,35
13,35,36
14,36,37
15,37,38
16,38,6
17,3,39
18,39,40
19,40,41
20,41,42
21,42,43
22,43,44
23,44,45
24,45,7
25,4,46
26,46,47
27,47,48
28,48,49
29,49,50
30,50,51
31,51,52
32,52,8
33,5,53
34,53,54
35,54,55
36,55,9
37,6,56
38,56,57
39,57,58
40,58,10
41,7,59
42,59,60
43,60,61
44,61,11
45,8,62
46,62,63
47,63,64
48,64,12
49,9,65
50,65,13
51,10,66
52,66,14
53,11,67
54,67,15
55,12,68
56,68,16
57,13,69
58,69,70
59,70,71
60,71,17
61,14,72
62,72,73
63,73,74
64,74,18
65,15,75
66,75,76
67,76,77
68,77,19
69,16,78
70,78,79
71,79,80
72,80,20
73,17,81
74,81,82
75,82,83
76,83,21
77,18,84
78,84,85
79,85,86
80,86,22
81,19,87
82,87,88
83,88,89
84,89,23
85,20,90
86,90,91
87,91,92
88,92,24
89,1,93
90,93,2
91,3,94
92,94,4
93,1,95
94,95,3
95,2,96
96,96,4
97,5,97
98,97,98
99,98,99
100,99,100
101,100,101
102,101,102
103,102,103
104,103,6
105,7,104
106,104,105
107,105,106
108,106,107
109,107,108
110,108,109
111,109,110
112,110,8
113,5,111
114,111,112
115,112,113
116,113,114
117,114,115
118,115,116
119,116,117
120,117,7
121,6,118
122,118,119
123,119,120
124,120,121
125,121,122
126,122,123
127,123,124
128,124,8
129,9,125
130,125,10
131,11,126
132,126,12
133,9,127
134,127,11
135,10,128
136,128,12
137,13,14
138,15,16
139,13,15
140,14,16
141,17,129
142,129,130
143,130,131
144,131,18
145,19,132
146,132,133
147,133,134
148,134,20
149,17,135
150,135,136
151,136,137
152,137,19
153,18,138
154,138,139
155,139,140
156,140,20
157,21,22
158,23,24
159,21,23
160,22,24
161,1,141
162,141,142
163,142,143
164,143,144
165,144,145
166,145,146
167,146,147
168,147,7
169,3,148
170,148,149
171,149,150
172,150,151
173,151,152
174,152,153
175,153,154
176,154,5
177,2,155
178,155,156
179,156,157
180,157,158
181,158,159
182,159,160
183,160,161
184,161,8
185,4,162
186,162,163
187,163,164
188,164,165
189,165,166
190,166,167
191,167,168
192,168,6
193,1,169
194,169,170
195,170,171
196,171,172
197,172,173
198,173,174
199,174,175
200,175,6
201,2,176
202,176,177
203,177,178
204,178,179
205,179,180
206,180,181
207,181,182
208,182,5
209,3,183
210,183,184
211,184,185
212,185,186
213,186,187
214,187,188
215,188,189
216,189,8
217,4,190
218,190,191
219,191,192
220,192,193
221,193,194
222,194,195
223,195,196
224,196,7
225,5,197
226,197,198
227,198,199
228,199,200
229,200,201
230,201,202
231,202,203
232,203,11
233,7,204
234,204,205
235,205,206
236,206,207
237,207,208
238,208,209
239,209,210
240,210,9
241,6,211
242,211,212
243,212,213
244,213,214
245,214,215
246,215,216
247,216,217
248,217,12
249,8,218
250,218,219
251,219,220
252,220,221
253,221,222
254,222,223
255,223,224
256,224,10
257,5,225
258,225,226
259,226,227
260,227,228
261,228,229
262,229,230
263,230,231
264,231,10
265,6,232
266,232,233
267,233,234
268,234,235
269,235,236
270,236,237
271,237,238
272,238,9
273,7,239
274,239,240
275,240,241
276,241,242
277,242,243
278,243,244
279,244,245
280,245,12
281,8,246
282,246,247
283,247,248
284,248,249
285,249,250
286,250,251
287,251,252
288,252,11
289,9,15
290,11,13
291,10,16
292,12,14
293,9,14
294,10,13
295,11,16
296,12,15
297,13,253
298,253,19
299,15,254
300,254,17
301,14,255
302,255,20
303,16,256
304,256,18
305,13,257
306,257,18
307,14,258
308,258,17
309,15,259
310,259,20
311,16,260
312,260,19
313,17,261
314,261,23
315,19,262
316,262,21
317,18,263
318,263,24
319,20,264
320,264,22
321,17,265
322,265,22
323,18,266
324,266,21
325,19,267
326,267,24
327,20,268
328,268,23
*NSET,NSET=NALL,GENERATE
1,268,1
*NSET,NSET=LEFT
1,2,3,4
*NSET,NSET=RIGHT
21,22,23,24
*MATERIAL,NAME=STEEL
*ELASTIC
2.100000000000e+11,0.300000000000
*BEAM SECTION,ELSET=ALL,MATERIAL=STEEL,SECTION=RECT
6.000000000000e-02,4.000000000000e-02
0.371390676354,0.557086014531,0.742781352708
*BOUNDARY
LEFT,1,6,0.0
*STEP
*STATIC
*BOUNDARY
21,1,1,5.000000000000e-03
21,2,2,0.0
21,3,3,-6.000000000000e-03
*BOUNDARY
22,1,1,5.000000000000e-03
22,2,2,0.0
22,3,3,6.000000000000e-03
*BOUNDARY
23,1,1,-5.000000000000e-03
23,2,2,0.0
23,3,3,-6.000000000000e-03
*BOUNDARY
24,1,1,-5.000000000000e-03
24,2,2,0.0
24,3,3,6.000000000000e-03
*NODE FILE,NSET=NALL
U
*NODE PRINT,NSET=NALL
U
*NODE PRINT,NSET=RIGHT
RF
*EL PRINT,ELSET=ALL,TOTALS=YES
ELSE
*END STEP
