*HEADING
Normalized cross-passage space-truss torsion benchmark
*NODE
1,-1.200000000000e+00,0.000000000000e+00,0.000000000000e+00
2,1.200000000000e+00,0.000000000000e+00,0.000000000000e+00
3,-1.200000000000e+00,0.000000000000e+00,2.000000000000e+00
4,1.200000000000e+00,0.000000000000e+00,2.000000000000e+00
5,-1.200000000000e+00,1.000000000000e+01,0.000000000000e+00
6,1.200000000000e+00,1.000000000000e+01,0.000000000000e+00
7,-1.200000000000e+00,1.000000000000e+01,2.000000000000e+00
8,1.200000000000e+00,1.000000000000e+01,2.000000000000e+00
9,-1.200000000000e+00,2.000000000000e+01,0.000000000000e+00
10,1.200000000000e+00,2.000000000000e+01,0.000000000000e+00
11,-1.200000000000e+00,2.000000000000e+01,2.000000000000e+00
12,1.200000000000e+00,2.000000000000e+01,2.000000000000e+00
13,-1.200000000000e+00,3.000000000000e+01,0.000000000000e+00
14,1.200000000000e+00,3.000000000000e+01,0.000000000000e+00
15,-1.200000000000e+00,3.000000000000e+01,2.000000000000e+00
16,1.200000000000e+00,3.000000000000e+01,2.000000000000e+00
17,-1.200000000000e+00,4.000000000000e+01,0.000000000000e+00
18,1.200000000000e+00,4.000000000000e+01,0.000000000000e+00
19,-1.200000000000e+00,4.000000000000e+01,2.000000000000e+00
20,1.200000000000e+00,4.000000000000e+01,2.000000000000e+00
21,-1.200000000000e+00,5.000000000000e+01,0.000000000000e+00
22,1.200000000000e+00,5.000000000000e+01,0.000000000000e+00
23,-1.200000000000e+00,5.000000000000e+01,2.000000000000e+00
24,1.200000000000e+00,5.000000000000e+01,2.000000000000e+00
25,-1.200000000000e+00,5.000000000000e+00,-1.500000000000e-01
26,1.200000000000e+00,5.000000000000e+00,1.500000000000e-01
27,-1.200000000000e+00,5.000000000000e+00,1.850000000000e+00
28,1.200000000000e+00,5.000000000000e+00,2.150000000000e+00
29,-1.200000000000e+00,1.500000000000e+01,-1.500000000000e-01
30,1.200000000000e+00,1.500000000000e+01,1.500000000000e-01
31,-1.200000000000e+00,1.500000000000e+01,1.850000000000e+00
32,1.200000000000e+00,1.500000000000e+01,2.150000000000e+00
33,-1.200000000000e+00,3.125000000000e+01,-5.740251485476e-02
34,-1.200000000000e+00,3.250000000000e+01,-1.060660171780e-01
35,-1.200000000000e+00,3.375000000000e+01,-1.385819298767e-01
36,-1.200000000000e+00,3.500000000000e+01,-1.500000000000e-01
37,-1.200000000000e+00,3.625000000000e+01,-1.385819298767e-01
38,-1.200000000000e+00,3.750000000000e+01,-1.060660171780e-01
39,-1.200000000000e+00,3.875000000000e+01,-5.740251485476e-02
40,1.200000000000e+00,3.125000000000e+01,5.740251485476e-02
41,1.200000000000e+00,3.250000000000e+01,1.060660171780e-01
42,1.200000000000e+00,3.375000000000e+01,1.385819298767e-01
43,1.200000000000e+00,3.500000000000e+01,1.500000000000e-01
44,1.200000000000e+00,3.625000000000e+01,1.385819298767e-01
45,1.200000000000e+00,3.750000000000e+01,1.060660171780e-01
46,1.200000000000e+00,3.875000000000e+01,5.740251485476e-02
47,-1.200000000000e+00,3.125000000000e+01,1.942597485145e+00
48,-1.200000000000e+00,3.250000000000e+01,1.893933982822e+00
49,-1.200000000000e+00,3.375000000000e+01,1.861418070123e+00
50,-1.200000000000e+00,3.500000000000e+01,1.850000000000e+00
51,-1.200000000000e+00,3.625000000000e+01,1.861418070123e+00
52,-1.200000000000e+00,3.750000000000e+01,1.893933982822e+00
53,-1.200000000000e+00,3.875000000000e+01,1.942597485145e+00
54,1.200000000000e+00,3.125000000000e+01,2.057402514855e+00
55,1.200000000000e+00,3.250000000000e+01,2.106066017178e+00
56,1.200000000000e+00,3.375000000000e+01,2.138581929877e+00
57,1.200000000000e+00,3.500000000000e+01,2.150000000000e+00
58,1.200000000000e+00,3.625000000000e+01,2.138581929877e+00
59,1.200000000000e+00,3.750000000000e+01,2.106066017178e+00
60,1.200000000000e+00,3.875000000000e+01,2.057402514855e+00
61,-1.200000000000e+00,4.500000000000e+01,-1.500000000000e-01
62,1.200000000000e+00,4.500000000000e+01,1.500000000000e-01
63,-1.200000000000e+00,4.500000000000e+01,1.850000000000e+00
64,1.200000000000e+00,4.500000000000e+01,2.150000000000e+00
65,0.000000000000e+00,-3.600000000000e-02,0.000000000000e+00
66,0.000000000000e+00,3.600000000000e-02,2.000000000000e+00
67,-1.200000000000e+00,3.000000000000e-02,1.000000000000e+00
68,1.200000000000e+00,-3.000000000000e-02,1.000000000000e+00
69,0.000000000000e+00,9.964000000000e+00,0.000000000000e+00
70,0.000000000000e+00,1.003600000000e+01,2.000000000000e+00
71,-1.200000000000e+00,1.003000000000e+01,1.000000000000e+00
72,1.200000000000e+00,9.970000000000e+00,1.000000000000e+00
73,0.000000000000e+00,1.996400000000e+01,0.000000000000e+00
74,0.000000000000e+00,2.003600000000e+01,2.000000000000e+00
75,-1.200000000000e+00,2.003000000000e+01,1.000000000000e+00
76,1.200000000000e+00,1.997000000000e+01,1.000000000000e+00
77,0.000000000000e+00,2.996400000000e+01,0.000000000000e+00
78,0.000000000000e+00,3.003600000000e+01,2.000000000000e+00
79,-1.200000000000e+00,3.003000000000e+01,1.000000000000e+00
80,1.200000000000e+00,2.997000000000e+01,1.000000000000e+00
81,0.000000000000e+00,3.996400000000e+01,0.000000000000e+00
82,0.000000000000e+00,4.003600000000e+01,2.000000000000e+00
83,-1.200000000000e+00,4.003000000000e+01,1.000000000000e+00
84,1.200000000000e+00,3.997000000000e+01,1.000000000000e+00
85,0.000000000000e+00,4.996400000000e+01,0.000000000000e+00
86,0.000000000000e+00,5.003600000000e+01,2.000000000000e+00
87,-1.200000000000e+00,5.003000000000e+01,1.000000000000e+00
88,1.200000000000e+00,4.997000000000e+01,1.000000000000e+00
89,-1.200000000000e+00,5.030000000000e+00,8.500000000000e-01
90,-1.200000000000e+00,5.030000000000e+00,1.150000000000e+00
91,1.200000000000e+00,5.030000000000e+00,8.500000000000e-01
92,1.200000000000e+00,5.030000000000e+00,1.150000000000e+00
93,1.500000000000e-01,4.964000000000e+00,0.000000000000e+00
94,-1.500000000000e-01,4.964000000000e+00,0.000000000000e+00
95,1.500000000000e-01,4.964000000000e+00,2.000000000000e+00
96,-1.500000000000e-01,4.964000000000e+00,2.000000000000e+00
97,-1.200000000000e+00,1.503000000000e+01,8.500000000000e-01
98,-1.200000000000e+00,1.503000000000e+01,1.150000000000e+00
99,1.200000000000e+00,1.503000000000e+01,8.500000000000e-01
100,1.200000000000e+00,1.503000000000e+01,1.150000000000e+00
101,1.500000000000e-01,1.496400000000e+01,0.000000000000e+00
102,-1.500000000000e-01,1.496400000000e+01,0.000000000000e+00
103,1.500000000000e-01,1.496400000000e+01,2.000000000000e+00
104,-1.500000000000e-01,1.496400000000e+01,2.000000000000e+00
105,-1.200000000000e+00,2.252121320344e+01,3.939339828220e-01
106,-1.200000000000e+00,2.503000000000e+01,8.500000000000e-01
107,-1.200000000000e+00,2.752121320344e+01,1.393933982822e+00
108,-1.200000000000e+00,2.252121320344e+01,1.606066017178e+00
109,-1.200000000000e+00,2.503000000000e+01,1.150000000000e+00
110,-1.200000000000e+00,2.752121320344e+01,6.060660171780e-01
111,1.200000000000e+00,2.252121320344e+01,3.939339828220e-01
112,1.200000000000e+00,2.503000000000e+01,8.500000000000e-01
113,1.200000000000e+00,2.752121320344e+01,1.393933982822e+00
114,1.200000000000e+00,2.252121320344e+01,1.606066017178e+00
115,1.200000000000e+00,2.503000000000e+01,1.150000000000e+00
116,1.200000000000e+00,2.752121320344e+01,6.060660171780e-01
117,-4.939339828220e-01,2.247454415588e+01,0.000000000000e+00
118,1.500000000000e-01,2.496400000000e+01,0.000000000000e+00
119,7.060660171780e-01,2.747454415588e+01,0.000000000000e+00
120,4.939339828220e-01,2.247454415588e+01,0.000000000000e+00
121,-1.500000000000e-01,2.496400000000e+01,0.000000000000e+00
122,-7.060660171780e-01,2.747454415588e+01,0.000000000000e+00
123,-4.939339828220e-01,2.247454415588e+01,2.000000000000e+00
124,1.500000000000e-01,2.496400000000e+01,2.000000000000e+00
125,7.060660171780e-01,2.747454415588e+01,2.000000000000e+00
126,4.939339828220e-01,2.247454415588e+01,2.000000000000e+00
127,-1.500000000000e-01,2.496400000000e+01,2.000000000000e+00
128,-7.060660171780e-01,2.747454415588e+01,2.000000000000e+00
129,-1.200000000000e+00,3.126148050297e+01,1.925974851452e-01
130,-1.200000000000e+00,3.252121320344e+01,3.939339828220e-01
131,-1.200000000000e+00,3.377771638598e+01,6.114180701233e-01
132,-1.200000000000e+00,3.503000000000e+01,8.500000000000e-01
133,-1.200000000000e+00,3.627771638598e+01,1.111418070123e+00
134,-1.200000000000e+00,3.752121320344e+01,1.393933982822e+00
135,-1.200000000000e+00,3.876148050297e+01,1.692597485145e+00
136,-1.200000000000e+00,3.126148050297e+01,1.807402514855e+00
137,-1.200000000000e+00,3.252121320344e+01,1.606066017178e+00
138,-1.200000000000e+00,3.377771638598e+01,1.388581929877e+00
139,-1.200000000000e+00,3.503000000000e+01,1.150000000000e+00
140,-1.200000000000e+00,3.627771638598e+01,8.885819298767e-01
141,-1.200000000000e+00,3.752121320344e+01,6.060660171780e-01
142,-1.200000000000e+00,3.876148050297e+01,3.074025148548e-01
143,1.200000000000e+00,3.126148050297e+01,1.925974851452e-01
144,1.200000000000e+00,3.252121320344e+01,3.939339828220e-01
145,1.200000000000e+00,3.377771638598e+01,6.114180701233e-01
146,1.200000000000e+00,3.503000000000e+01,8.500000000000e-01
147,1.200000000000e+00,3.627771638598e+01,1.111418070123e+00
148,1.200000000000e+00,3.752121320344e+01,1.393933982822e+00
149,1.200000000000e+00,3.876148050297e+01,1.692597485145e+00
150,1.200000000000e+00,3.126148050297e+01,1.807402514855e+00
151,1.200000000000e+00,3.252121320344e+01,1.606066017178e+00
152,1.200000000000e+00,3.377771638598e+01,1.388581929877e+00
153,1.200000000000e+00,3.503000000000e+01,1.150000000000e+00
154,1.200000000000e+00,3.627771638598e+01,8.885819298767e-01
155,1.200000000000e+00,3.752121320344e+01,6.060660171780e-01
156,1.200000000000e+00,3.876148050297e+01,3.074025148548e-01
157,-8.425974851452e-01,3.123622339643e+01,0.000000000000e+00
158,-4.939339828220e-01,3.247454415588e+01,0.000000000000e+00
159,-1.614180701233e-01,3.371674033683e+01,0.000000000000e+00
160,1.500000000000e-01,3.496400000000e+01,0.000000000000e+00
161,4.385819298767e-01,3.621674033683e+01,0.000000000000e+00
162,7.060660171780e-01,3.747454415588e+01,0.000000000000e+00
163,9.574025148548e-01,3.873622339643e+01,0.000000000000e+00
164,8.425974851452e-01,3.123622339643e+01,0.000000000000e+00
165,4.939339828220e-01,3.247454415588e+01,0.000000000000e+00
166,1.614180701233e-01,3.371674033683e+01,0.000000000000e+00
167,-1.500000000000e-01,3.496400000000e+01,0.000000000000e+00
168,-4.385819298767e-01,3.621674033683e+01,0.000000000000e+00
169,-7.060660171780e-01,3.747454415588e+01,0.000000000000e+00
170,-9.574025148548e-01,3.873622339643e+01,0.000000000000e+00
171,-8.425974851452e-01,3.123622339643e+01,2.000000000000e+00
172,-4.939339828220e-01,3.247454415588e+01,2.000000000000e+00
173,-1.614180701233e-01,3.371674033683e+01,2.000000000000e+00
174,1.500000000000e-01,3.496400000000e+01,2.000000000000e+00
175,4.385819298767e-01,3.621674033683e+01,2.000000000000e+00
176,7.060660171780e-01,3.747454415588e+01,2.000000000000e+00
177,9.574025148548e-01,3.873622339643e+01,2.000000000000e+00
178,8.425974851452e-01,3.123622339643e+01,2.000000000000e+00
179,4.939339828220e-01,3.247454415588e+01,2.000000000000e+00
180,1.614180701233e-01,3.371674033683e+01,2.000000000000e+00
181,-1.500000000000e-01,3.496400000000e+01,2.000000000000e+00
182,-4.385819298767e-01,3.621674033683e+01,2.000000000000e+00
183,-7.060660171780e-01,3.747454415588e+01,2.000000000000e+00
184,-9.574025148548e-01,3.873622339643e+01,2.000000000000e+00
185,-1.200000000000e+00,4.252121320344e+01,3.939339828220e-01
186,-1.200000000000e+00,4.503000000000e+01,8.500000000000e-01
187,-1.200000000000e+00,4.752121320344e+01,1.393933982822e+00
188,-1.200000000000e+00,4.252121320344e+01,1.606066017178e+00
189,-1.200000000000e+00,4.503000000000e+01,1.150000000000e+00
190,-1.200000000000e+00,4.752121320344e+01,6.060660171780e-01
191,1.200000000000e+00,4.252121320344e+01,3.939339828220e-01
192,1.200000000000e+00,4.503000000000e+01,8.500000000000e-01
193,1.200000000000e+00,4.752121320344e+01,1.393933982822e+00
194,1.200000000000e+00,4.252121320344e+01,1.606066017178e+00
195,1.200000000000e+00,4.503000000000e+01,1.150000000000e+00
196,1.200000000000e+00,4.752121320344e+01,6.060660171780e-01
197,-4.939339828220e-01,4.247454415588e+01,0.000000000000e+00
198,1.500000000000e-01,4.496400000000e+01,0.000000000000e+00
199,7.060660171780e-01,4.747454415588e+01,0.000000000000e+00
200,4.939339828220e-01,4.247454415588e+01,0.000000000000e+00
201,-1.500000000000e-01,4.496400000000e+01,0.000000000000e+00
202,-7.060660171780e-01,4.747454415588e+01,0.000000000000e+00
203,-4.939339828220e-01,4.247454415588e+01,2.000000000000e+00
204,1.500000000000e-01,4.496400000000e+01,2.000000000000e+00
205,7.060660171780e-01,4.747454415588e+01,2.000000000000e+00
206,4.939339828220e-01,4.247454415588e+01,2.000000000000e+00
207,-1.500000000000e-01,4.496400000000e+01,2.000000000000e+00
208,-7.060660171780e-01,4.747454415588e+01,2.000000000000e+00
*ELEMENT,TYPE=B31,ELSET=ALL
1,1,25
2,25,5
3,2,26
4,26,6
5,3,27
6,27,7
7,4,28
8,28,8
9,5,29
10,29,9
11,6,30
12,30,10
13,7,31
14,31,11
15,8,32
16,32,12
17,9,13
18,10,14
19,11,15
20,12,16
21,13,33
22,33,34
23,34,35
24,35,36
25,36,37
26,37,38
27,38,39
28,39,17
29,14,40
30,40,41
31,41,42
32,42,43
33,43,44
34,44,45
35,45,46
36,46,18
37,15,47
38,47,48
39,48,49
40,49,50
41,50,51
42,51,52
43,52,53
44,53,19
45,16,54
46,54,55
47,55,56
48,56,57
49,57,58
50,58,59
51,59,60
52,60,20
53,17,61
54,61,21
55,18,62
56,62,22
57,19,63
58,63,23
59,20,64
60,64,24
61,1,65
62,65,2
63,3,66
64,66,4
65,1,67
66,67,3
67,2,68
68,68,4
69,5,69
70,69,6
71,7,70
72,70,8
73,5,71
74,71,7
75,6,72
76,72,8
77,9,73
78,73,10
79,11,74
80,74,12
81,9,75
82,75,11
83,10,76
84,76,12
85,13,77
86,77,14
87,15,78
88,78,16
89,13,79
90,79,15
91,14,80
92,80,16
93,17,81
94,81,18
95,19,82
96,82,20
97,17,83
98,83,19
99,18,84
100,84,20
101,21,85
102,85,22
103,23,86
104,86,24
105,21,87
106,87,23
107,22,88
108,88,24
109,1,89
110,89,7
111,3,90
112,90,5
113,2,91
114,91,8
115,4,92
116,92,6
117,1,93
118,93,6
119,2,94
120,94,5
121,3,95
122,95,8
123,4,96
124,96,7
125,5,97
126,97,11
127,7,98
128,98,9
129,6,99
130,99,12
131,8,100
132,100,10
133,5,101
134,101,10
135,6,102
136,102,9
137,7,103
138,103,12
139,8,104
140,104,11
141,9,105
142,105,106
143,106,107
144,107,15
145,11,108
146,108,109
147,109,110
148,110,13
149,10,111
150,111,112
151,112,113
152,113,16
153,12,114
154,114,115
155,115,116
156,116,14
157,9,117
158,117,118
159,118,119
160,119,14
161,10,120
162,120,121
163,121,122
164,122,13
165,11,123
166,123,124
167,124,125
168,125,16
169,12,126
170,126,127
171,127,128
172,128,15
173,13,129
174,129,130
175,130,131
176,131,132
177,132,133
178,133,134
179,134,135
180,135,19
181,15,136
182,136,137
183,137,138
184,138,139
185,139,140
186,140,141
187,141,142
188,142,17
189,14,143
190,143,144
191,144,145
192,145,146
193,146,147
194,147,148
195,148,149
196,149,20
197,16,150
198,150,151
199,151,152
200,152,153
201,153,154
202,154,155
203,155,156
204,156,18
205,13,157
206,157,158
207,158,159
208,159,160
209,160,161
210,161,162
211,162,163
212,163,18
213,14,164
214,164,165
215,165,166
216,166,167
217,167,168
218,168,169
219,169,170
220,170,17
221,15,171
222,171,172
223,172,173
224,173,174
225,174,175
226,175,176
227,176,177
228,177,20
229,16,178
230,178,179
231,179,180
232,180,181
233,181,182
234,182,183
235,183,184
236,184,19
237,17,185
238,185,186
239,186,187
240,187,23
241,19,188
242,188,189
243,189,190
244,190,21
245,18,191
246,191,192
247,192,193
248,193,24
249,20,194
250,194,195
251,195,196
252,196,22
253,17,197
254,197,198
255,198,199
256,199,22
257,18,200
258,200,201
259,201,202
260,202,21
261,19,203
262,203,204
263,204,205
264,205,24
265,20,206
266,206,207
267,207,208
268,208,23
*NSET,NSET=NALL,GENERATE
1,208,1
*NSET,NSET=LEFT
1,2,3,4
*NSET,NSET=RIGHT
21,22,23,24
*MATERIAL,NAME=STEEL
*ELASTIC
2.100000000000e+11,0.300000000000
*BEAM SECTION,ELSET=ALL,MATERIAL=STEEL,SECTION=RECT
6.000000000000e-02,4.000000000000e-02
0.371390676354,0.557086014531,0.742781352708
*BOUNDARY
LEFT,1,6,0.0
*STEP
*STATIC
*BOUNDARY
21,1,1,5.000000000000e-03
21,2,2,0.0
21,3,3,-6.000000000000e-03
*BOUNDARY
22,1,1,5.000000000000e-03
22,2,2,0.0
22,3,3,6.000000000000e-03
*BOUNDARY
23,1,1,-5.000000000000e-03
23,2,2,0.0
23,3,3,-6.000000000000e-03
*BOUNDARY
24,1,1,-5.000000000000e-03
24,2,2,0.0
24,3,3,6.000000000000e-03
*NODE FILE,NSET=NALL
U
*NODE PRINT,NSET=NALL
U
*NODE PRINT,NSET=RIGHT
RF
*EL PRINT,ELSET=ALL,TOTALS=YES
ELSE
*END STEP
