*HEADING
Normalized cross-passage space-truss torsion benchmark
*NODE
1,-1.200000000000e+00,0.000000000000e+00,0.000000000000e+00
2,1.200000000000e+00,0.000000000000e+00,0.000000000000e+00
3,-1.200000000000e+00,0.000000000000e+00,2.000000000000e+00
4,1.200000000000e+00,0.000000000000e+00,2.000000000000e+00
5,-1.200000000000e+00,1.000000000000e+01,0.000000000000e+00
6,1.200000000000e+00,1.000000000000e+01,0.000000000000e+00
7,-1.200000000000e+00,1.000000000000e+01,2.000000000000e+00
8,1.200000000000e+00,1.000000000000e+01,2.000000000000e+00
9,-1.200000000000e+00,2.000000000000e+01,0.000000000000e+00
10,1.200000000000e+00,2.000000000000e+01,0.000000000000e+00
11,-1.200000000000e+00,2.000000000000e+01,2.000000000000e+00
12,1.200000000000e+00,2.000000000000e+01,2.000000000000e+00
13,-1.200000000000e+00,3.000000000000e+01,0.000000000000e+00
14,1.200000000000e+00,3.000000000000e+01,0.000000000000e+00
15,-1.200000000000e+00,3.000000000000e+01,2.000000000000e+00
16,1.200000000000e+00,3.000000000000e+01,2.000000000000e+00
17,-1.200000000000e+00,4.000000000000e+01,0.000000000000e+00
18,1.200000000000e+00,4.000000000000e+01,0.000000000000e+00
19,-1.200000000000e+00,4.000000000000e+01,2.000000000000e+00
20,1.200000000000e+00,4.000000000000e+01,2.000000000000e+00
21,-1.200000000000e+00,5.000000000000e+01,0.000000000000e+00
22,1.200000000000e+00,5.000000000000e+01,0.000000000000e+00
23,-1.200000000000e+00,5.000000000000e+01,2.000000000000e+00
24,1.200000000000e+00,5.000000000000e+01,2.000000000000e+00
25,-1.200000000000e+00,2.500000000000e+01,-1.500000000000e-01
26,1.200000000000e+00,2.500000000000e+01,1.500000000000e-01
27,-1.200000000000e+00,2.500000000000e+01,1.850000000000e+00
28,1.200000000000e+00,2.500000000000e+01,2.150000000000e+00
29,-1.200000000000e+00,3.500000000000e+01,-1.500000000000e-01
30,1.200000000000e+00,3.500000000000e+01,1.500000000000e-01
31,-1.200000000000e+00,3.500000000000e+01,1.850000000000e+00
32,1.200000000000e+00,3.500000000000e+01,2.150000000000e+00
33,0.000000000000e+00,9.964000000000e+00,0.000000000000e+00
34,0.000000000000e+00,1.003600000000e+01,2.000000000000e+00
35,-1.200000000000e+00,1.003000000000e+01,1.000000000000e+00
36,1.200000000000e+00,9.970000000000e+00,1.000000000000e+00
37,-9.000000000000e-01,1.998622339643e+01,0.000000000000e+00
38,-6.000000000000e-01,1.997454415588e+01,0.000000000000e+00
39,-3.000000000000e-01,1.996674033683e+01,0.000000000000e+00
40,0.000000000000e+00,1.996400000000e+01,0.000000000000e+00
41,3.000000000000e-01,1.996674033683e+01,0.000000000000e+00
42,6.000000000000e-01,1.997454415588e+01,0.000000000000e+00
43,9.000000000000e-01,1.998622339643e+01,0.000000000000e+00
44,-9.000000000000e-01,2.001377660357e+01,2.000000000000e+00
45,-6.000000000000e-01,2.002545584412e+01,2.000000000000e+00
46,-3.000000000000e-01,2.003325966317e+01,2.000000000000e+00
47,0.000000000000e+00,2.003600000000e+01,2.000000000000e+00
48,3.000000000000e-01,2.003325966317e+01,2.000000000000e+00
49,6.000000000000e-01,2.002545584412e+01,2.000000000000e+00
50,9.000000000000e-01,2.001377660357e+01,2.000000000000e+00
51,-1.200000000000e+00,2.001148050297e+01,2.500000000000e-01
52,-1.200000000000e+00,2.002121320344e+01,5.000000000000e-01
53,-1.200000000000e+00,2.002771638598e+01,7.500000000000e-01
54,-1.200000000000e+00,2.003000000000e+01,1.000000000000e+00
55,-1.200000000000e+00,2.002771638598e+01,1.250000000000e+00
56,-1.200000000000e+00,2.002121320344e+01,1.500000000000e+00
57,-1.200000000000e+00,2.001148050297e+01,1.750000000000e+00
58,1.200000000000e+00,1.998851949703e+01,2.500000000000e-01
59,1.200000000000e+00,1.997878679656e+01,5.000000000000e-01
60,1.200000000000e+00,1.997228361402e+01,7.500000000000e-01
61,1.200000000000e+00,1.997000000000e+01,1.000000000000e+00
62,1.200000000000e+00,1.997228361402e+01,1.250000000000e+00
63,1.200000000000e+00,1.997878679656e+01,1.500000000000e+00
64,1.200000000000e+00,1.998851949703e+01,1.750000000000e+00
65,-6.000000000000e-01,2.997454415588e+01,0.000000000000e+00
66,0.000000000000e+00,2.996400000000e+01,0.000000000000e+00
67,6.000000000000e-01,2.997454415588e+01,0.000000000000e+00
68,-6.000000000000e-01,3.002545584412e+01,2.000000000000e+00
69,0.000000000000e+00,3.003600000000e+01,2.000000000000e+00
70,6.000000000000e-01,3.002545584412e+01,2.000000000000e+00
71,-1.200000000000e+00,3.002121320344e+01,5.000000000000e-01
72,-1.200000000000e+00,3.003000000000e+01,1.000000000000e+00
73,-1.200000000000e+00,3.002121320344e+01,1.500000000000e+00
74,1.200000000000e+00,2.997878679656e+01,5.000000000000e-01
75,1.200000000000e+00,2.997000000000e+01,1.000000000000e+00
76,1.200000000000e+00,2.997878679656e+01,1.500000000000e+00
77,-6.000000000000e-01,3.997454415588e+01,0.000000000000e+00
78,0.000000000000e+00,3.996400000000e+01,0.000000000000e+00
79,6.000000000000e-01,3.997454415588e+01,0.000000000000e+00
80,-6.000000000000e-01,4.002545584412e+01,2.000000000000e+00
81,0.000000000000e+00,4.003600000000e+01,2.000000000000e+00
82,6.000000000000e-01,4.002545584412e+01,2.000000000000e+00
83,-1.200000000000e+00,4.002121320344e+01,5.000000000000e-01
84,-1.200000000000e+00,4.003000000000e+01,1.000000000000e+00
85,-1.200000000000e+00,4.002121320344e+01,1.500000000000e+00
86,1.200000000000e+00,3.997878679656e+01,5.000000000000e-01
87,1.200000000000e+00,3.997000000000e+01,1.000000000000e+00
88,1.200000000000e+00,3.997878679656e+01,1.500000000000e+00
89,0.000000000000e+00,4.996400000000e+01,0.000000000000e+00
90,0.000000000000e+00,5.003600000000e+01,2.000000000000e+00
91,-1.200000000000e+00,5.003000000000e+01,1.000000000000e+00
92,1.200000000000e+00,4.997000000000e+01,1.000000000000e+00
93,-1.200000000000e+00,5.030000000000e+00,8.500000000000e-01
94,-1.200000000000e+00,5.030000000000e+00,1.150000000000e+00
95,1.200000000000e+00,5.030000000000e+00,8.500000000000e-01
96,1.200000000000e+00,5.030000000000e+00,1.150000000000e+00
97,1.500000000000e-01,4.964000000000e+00,0.000000000000e+00
98,-1.500000000000e-01,4.964000000000e+00,0.000000000000e+00
99,1.500000000000e-01,4.964000000000e+00,2.000000000000e+00
100,-1.500000000000e-01,4.964000000000e+00,2.000000000000e+00
101,-1.200000000000e+00,1.503000000000e+01,8.500000000000e-01
102,-1.200000000000e+00,1.503000000000e+01,1.150000000000e+00
103,1.200000000000e+00,1.503000000000e+01,8.500000000000e-01
104,1.200000000000e+00,1.503000000000e+01,1.150000000000e+00
105,1.500000000000e-01,1.496400000000e+01,0.000000000000e+00
106,-1.500000000000e-01,1.496400000000e+01,0.000000000000e+00
107,1.500000000000e-01,1.496400000000e+01,2.000000000000e+00
108,-1.500000000000e-01,1.496400000000e+01,2.000000000000e+00
109,-1.200000000000e+00,2.126148050297e+01,1.925974851452e-01
110,-1.200000000000e+00,2.252121320344e+01,3.939339828220e-01
111,-1.200000000000e+00,2.377771638598e+01,6.114180701233e-01
112,-1.200000000000e+00,2.503000000000e+01,8.500000000000e-01
113,-1.200000000000e+00,2.627771638598e+01,1.111418070123e+00
114,-1.200000000000e+00,2.752121320344e+01,1.393933982822e+00
115,-1.200000000000e+00,2.876148050297e+01,1.692597485145e+00
116,-1.200000000000e+00,2.126148050297e+01,1.807402514855e+00
117,-1.200000000000e+00,2.252121320344e+01,1.606066017178e+00
118,-1.200000000000e+00,2.377771638598e+01,1.388581929877e+00
119,-1.200000000000e+00,2.503000000000e+01,1.150000000000e+00
120,-1.200000000000e+00,2.627771638598e+01,8.885819298767e-01
121,-1.200000000000e+00,2.752121320344e+01,6.060660171780e-01
122,-1.200000000000e+00,2.876148050297e+01,3.074025148548e-01
123,1.200000000000e+00,2.126148050297e+01,1.925974851452e-01
124,1.200000000000e+00,2.252121320344e+01,3.939339828220e-01
125,1.200000000000e+00,2.377771638598e+01,6.114180701233e-01
126,1.200000000000e+00,2.503000000000e+01,8.500000000000e-01
127,1.200000000000e+00,2.627771638598e+01,1.111418070123e+00
128,1.200000000000e+00,2.752121320344e+01,1.393933982822e+00
129,1.200000000000e+00,2.876148050297e+01,1.692597485145e+00
130,1.200000000000e+00,2.126148050297e+01,1.807402514855e+00
131,1.200000000000e+00,2.252121320344e+01,1.606066017178e+00
132,1.200000000000e+00,2.377771638598e+01,1.388581929877e+00
133,1.200000000000e+00,2.503000000000e+01,1.150000000000e+00
134,1.200000000000e+00,2.627771638598e+01,8.885819298767e-01
135,1.200000000000e+00,2.752121320344e+01,6.060660171780e-01
136,1.200000000000e+00,2.876148050297e+01,3.074025148548e-01
137,-8.425974851452e-01,2.123622339643e+01,0.000000000000e+00
138,-4.939339828220e-01,2.247454415588e+01,0.000000000000e+00
139,-1.614180701233e-01,2.371674033683e+01,0.000000000000e+00
140,1.500000000000e-01,2.496400000000e+01,0.000000000000e+00
141,4.385819298767e-01,2.621674033683e+01,0.000000000000e+00
142,7.060660171780e-01,2.747454415588e+01,0.000000000000e+00
143,9.574025148548e-01,2.873622339643e+01,0.000000000000e+00
144,8.425974851452e-01,2.123622339643e+01,0.000000000000e+00
145,4.939339828220e-01,2.247454415588e+01,0.000000000000e+00
146,1.614180701233e-01,2.371674033683e+01,0.000000000000e+00
147,-1.500000000000e-01,2.496400000000e+01,0.000000000000e+00
148,-4.385819298767e-01,2.621674033683e+01,0.000000000000e+00
149,-7.060660171780e-01,2.747454415588e+01,0.000000000000e+00
150,-9.574025148548e-01,2.873622339643e+01,0.000000000000e+00
151,-8.425974851452e-01,2.123622339643e+01,2.000000000000e+00
152,-4.939339828220e-01,2.247454415588e+01,2.000000000000e+00
153,-1.614180701233e-01,2.371674033683e+01,2.000000000000e+00
154,1.500000000000e-01,2.496400000000e+01,2.000000000000e+00
155,4.385819298767e-01,2.621674033683e+01,2.000000000000e+00
156,7.060660171780e-01,2.747454415588e+01,2.000000000000e+00
157,9.574025148548e-01,2.873622339643e+01,2.000000000000e+00
158,8.425974851452e-01,2.123622339643e+01,2.000000000000e+00
159,4.939339828220e-01,2.247454415588e+01,2.000000000000e+00
160,1.614180701233e-01,2.371674033683e+01,2.000000000000e+00
161,-1.500000000000e-01,2.496400000000e+01,2.000000000000e+00
162,-4.385819298767e-01,2.621674033683e+01,2.000000000000e+00
163,-7.060660171780e-01,2.747454415588e+01,2.000000000000e+00
164,-9.574025148548e-01,2.873622339643e+01,2.000000000000e+00
165,-1.200000000000e+00,3.126148050297e+01,1.925974851452e-01
166,-1.200000000000e+00,3.252121320344e+01,3.939339828220e-01
167,-1.200000000000e+00,3.377771638598e+01,6.114180701233e-01
168,-1.200000000000e+00,3.503000000000e+01,8.500000000000e-01
169,-1.200000000000e+00,3.627771638598e+01,1.111418070123e+00
170,-1.200000000000e+00,3.752121320344e+01,1.393933982822e+00
171,-1.200000000000e+00,3.876148050297e+01,1.692597485145e+00
172,-1.200000000000e+00,3.126148050297e+01,1.807402514855e+00
173,-1.200000000000e+00,3.252121320344e+01,1.606066017178e+00
174,-1.200000000000e+00,3.377771638598e+01,1.388581929877e+00
175,-1.200000000000e+00,3.503000000000e+01,1.150000000000e+00
176,-1.200000000000e+00,3.627771638598e+01,8.885819298767e-01
177,-1.200000000000e+00,3.752121320344e+01,6.060660171780e-01
178,-1.200000000000e+00,3.876148050297e+01,3.074025148548e-01
179,1.200000000000e+00,3.126148050297e+01,1.925974851452e-01
180,1.200000000000e+00,3.252121320344e+01,3.939339828220e-01
181,1.200000000000e+00,3.377771638598e+01,6.114180701233e-01
182,1.200000000000e+00,3.503000000000e+01,8.500000000000e-01
183,1.200000000000e+00,3.627771638598e+01,1.111418070123e+00
184,1.200000000000e+00,3.752121320344e+01,1.393933982822e+00
185,1.200000000000e+00,3.876148050297e+01,1.692597485145e+00
186,1.200000000000e+00,3.126148050297e+01,1.807402514855e+00
187,1.200000000000e+00,3.252121320344e+01,1.606066017178e+00
188,1.200000000000e+00,3.377771638598e+01,1.388581929877e+00
189,1.200000000000e+00,3.503000000000e+01,1.150000000000e+00
190,1.200000000000e+00,3.627771638598e+01,8.885819298767e-01
191,1.200000000000e+00,3.752121320344e+01,6.060660171780e-01
192,1.200000000000e+00,3.876148050297e+01,3.074025148548e-01
193,-8.425974851452e-01,3.123622339643e+01,0.000000000000e+00
194,-4.939339828220e-01,3.247454415588e+01,0.000000000000e+00
195,-1.614180701233e-01,3.371674033683e+01,0.000000000000e+00
196,1.500000000000e-01,3.496400000000e+01,0.000000000000e+00
197,4.385819298767e-01,3.621674033683e+01,0.000000000000e+00
198,7.060660171780e-01,3.747454415588e+01,0.000000000000e+00
199,9.574025148548e-01,3.873622339643e+01,0.000000000000e+00
200,8.425974851452e-01,3.123622339643e+01,0.000000000000e+00
201,4.939339828220e-01,3.247454415588e+01,0.000000000000e+00
202,1.614180701233e-01,3.371674033683e+01,0.000000000000e+00
203,-1.500000000000e-01,3.496400000000e+01,0.000000000000e+00
204,-4.385819298767e-01,3.621674033683e+01,0.000000000000e+00
205,-7.060660171780e-01,3.747454415588e+01,0.000000000000e+00
206,-9.574025148548e-01,3.873622339643e+01,0.000000000000e+00
207,-8.425974851452e-01,3.123622339643e+01,2.000000000000e+00
208,-4.939339828220e-01,3.247454415588e+01,2.000000000000e+00
209,-1.614180701233e-01,3.371674033683e+01,2.000000000000e+00
210,1.500000000000e-01,3.496400000000e+01,2.000000000000e+00
211,4.385819298767e-01,3.621674033683e+01,2.000000000000e+00
212,7.060660171780e-01,3.747454415588e+01,2.000000000000e+00
213,9.574025148548e-01,3.873622339643e+01,2.000000000000e+00
214,8.425974851452e-01,3.123622339643e+01,2.000000000000e+00
215,4.939339828220e-01,3.247454415588e+01,2.000000000000e+00
216,1.614180701233e-01,3.371674033683e+01,2.000000000000e+00
217,-1.500000000000e-01,3.496400000000e+01,2.000000000000e+00
218,-4.385819298767e-01,3.621674033683e+01,2.000000000000e+00
219,-7.060660171780e-01,3.747454415588e+01,2.000000000000e+00
220,-9.574025148548e-01,3.873622339643e+01,2.000000000000e+00
221,-1.200000000000e+00,4.126148050297e+01,1.925974851452e-01
222,-1.200000000000e+00,4.252121320344e+01,3.939339828220e-01
223,-1.200000000000e+00,4.377771638598e+01,6.114180701233e-01
224,-1.200000000000e+00,4.503000000000e+01,8.500000000000e-01
225,-1.200000000000e+00,4.627771638598e+01,1.111418070123e+00
226,-1.200000000000e+00,4.752121320344e+01,1.393933982822e+00
227,-1.200000000000e+00,4.876148050297e+01,1.692597485145e+00
228,-1.200000000000e+00,4.126148050297e+01,1.807402514855e+00
229,-1.200000000000e+00,4.252121320344e+01,1.606066017178e+00
230,-1.200000000000e+00,4.377771638598e+01,1.388581929877e+00
231,-1.200000000000e+00,4.503000000000e+01,1.150000000000e+00
232,-1.200000000000e+00,4.627771638598e+01,8.885819298767e-01
233,-1.200000000000e+00,4.752121320344e+01,6.060660171780e-01
234,-1.200000000000e+00,4.876148050297e+01,3.074025148548e-01
235,1.200000000000e+00,4.126148050297e+01,1.925974851452e-01
236,1.200000000000e+00,4.252121320344e+01,3.939339828220e-01
237,1.200000000000e+00,4.377771638598e+01,6.114180701233e-01
238,1.200000000000e+00,4.503000000000e+01,8.500000000000e-01
239,1.200000000000e+00,4.627771638598e+01,1.111418070123e+00
240,1.200000000000e+00,4.752121320344e+01,1.393933982822e+00
241,1.200000000000e+00,4.876148050297e+01,1.692597485145e+00
242,1.200000000000e+00,4.126148050297e+01,1.807402514855e+00
243,1.200000000000e+00,4.252121320344e+01,1.606066017178e+00
244,1.200000000000e+00,4.377771638598e+01,1.388581929877e+00
245,1.200000000000e+00,4.503000000000e+01,1.150000000000e+00
246,1.200000000000e+00,4.627771638598e+01,8.885819298767e-01
247,1.200000000000e+00,4.752121320344e+01,6.060660171780e-01
248,1.200000000000e+00,4.876148050297e+01,3.074025148548e-01
249,-8.425974851452e-01,4.123622339643e+01,0.000000000000e+00
250,-4.939339828220e-01,4.247454415588e+01,0.000000000000e+00
251,-1.614180701233e-01,4.371674033683e+01,0.000000000000e+00
252,1.500000000000e-01,4.496400000000e+01,0.000000000000e+00
253,4.385819298767e-01,4.621674033683e+01,0.000000000000e+00
254,7.060660171780e-01,4.747454415588e+01,0.000000000000e+00
255,9.574025148548e-01,4.873622339643e+01,0.000000000000e+00
256,8.425974851452e-01,4.123622339643e+01,0.000000000000e+00
257,4.939339828220e-01,4.247454415588e+01,0.000000000000e+00
258,1.614180701233e-01,4.371674033683e+01,0.000000000000e+00
259,-1.500000000000e-01,4.496400000000e+01,0.000000000000e+00
260,-4.385819298767e-01,4.621674033683e+01,0.000000000000e+00
261,-7.060660171780e-01,4.747454415588e+01,0.000000000000e+00
262,-9.574025148548e-01,4.873622339643e+01,0.000000000000e+00
263,-8.425974851452e-01,4.123622339643e+01,2.000000000000e+00
264,-4.939339828220e-01,4.247454415588e+01,2.000000000000e+00
265,-1.614180701233e-01,4.371674033683e+01,2.000000000000e+00
266,1.500000000000e-01,4.496400000000e+01,2.000000000000e+00
267,4.385819298767e-01,4.621674033683e+01,2.000000000000e+00
268,7.060660171780e-01,4.747454415588e+01,2.000000000000e+00
269,9.574025148548e-01,4.873622339643e+01,2.000000000000e+00
270,8.425974851452e-01,4.123622339643e+01,2.000000000000e+00
271,4.939339828220e-01,4.247454415588e+01,2.000000000000e+00
272,1.614180701233e-01,4.371674033683e+01,2.000000000000e+00
273,-1.500000000000e-01,4.496400000000e+01,2.000000000000e+00
274,-4.385819298767e-01,4.621674033683e+01,2.000000000000e+00
275,-7.060660171780e-01,4.747454415588e+01,2.000000000000e+00
276,-9.574025148548e-01,4.873622339643e+01,2.000000000000e+00
*ELEMENT,TYPE=B31,ELSET=ALL
1,1,5
2,2,6
3,3,7
4,4,8
5,5,9
6,6,10
7,7,11
8,8,12
9,9,25
10,25,13
11,10,26
12,26,14
13,11,27
14,27,15
15,12,28
16,28,16
17,13,29
18,29,17
19,14,30
20,30,18
21,15,31
22,31,19
23,16,32
24,32,20
25,17,21
26,18,22
27,19,23
28,20,24
29,1,2
30,3,4
31,1,3
32,2,4
33,5,33
34,33,6
35,7,34
36,34,8
37,5,35
38,35,7
39,6,36
40,36,8
41,9,37
42,37,38
43,38,39
44,39,40
45,40,41
46,41,42
47,42,43
48,43,10
49,11,44
50,44,45
51,45,46
52,46,47
53,47,48
54,48,49
55,49,50
56,50,12
57,9,51
58,51,52
59,52,53
60,53,54
61,54,55
62,55,56
63,56,57
64,57,11
65,10,58
66,58,59
67,59,60
68,60,61
69,61,62
70,62,63
71,63,64
72,64,12
73,13,65
74,65,66
75,66,67
76,67,14
77,15,68
78,68,69
79,69,70
80,70,16
81,13,71
82,71,72
83,72,73
84,73,15
85,14,74
86,74,75
87,75,76
88,76,16
89,17,77
90,77,78
91,78,79
92,79,18
93,19,80
94,80,81
95,81,82
96,82,20
97,17,83
98,83,84
99,84,85
100,85,19
101,18,86
102,86,87
103,87,88
104,88,20
105,21,89
106,89,22
107,23,90
108,90,24
109,21,91
110,91,23
111,22,92
112,92,24
113,1,93
114,93,7
115,3,94
116,94,5
117,2,95
118,95,8
119,4,96
120,96,6
121,1,97
122,97,6
123,2,98
124,98,5
125,3,99
126,99,8
127,4,100
128,100,7
129,5,101
130,101,11
131,7,102
132,102,9
133,6,103
134,103,12
135,8,104
136,104,10
137,5,105
138,105,10
139,6,106
140,106,9
141,7,107
142,107,12
143,8,108
144,108,11
145,9,109
146,109,110
147,110,111
148,111,112
149,112,113
150,113,114
151,114,115
152,115,15
153,11,116
154,116,117
155,117,118
156,118,119
157,119,120
158,120,121
159,121,122
160,122,13
161,10,123
162,123,124
163,124,125
164,125,126
165,126,127
166,127,128
167,128,129
168,129,16
169,12,130
170,130,131
171,131,132
172,132,133
173,133,134
174,134,135
175,135,136
176,136,14
177,9,137
178,137,138
179,138,139
180,139,140
181,140,141
182,141,142
183,142,143
184,143,14
185,10,144
186,144,145
187,145,146
188,146,147
189,147,148
190,148,149
191,149,150
192,150,13
193,11,151
194,151,152
195,152,153
196,153,154
197,154,155
198,155,156
199,156,157
200,157,16
201,12,158
202,158,159
203,159,160
204,160,161
205,161,162
206,162,163
207,163,164
208,164,15
209,13,165
210,165,166
211,166,167
212,167,168
213,168,169
214,169,170
215,170,171
216,171,19
217,15,172
218,172,173
219,173,174
220,174,175
221,175,176
222,176,177
223,177,178
224,178,17
225,14,179
226,179,180
227,180,181
228,181,182
229,182,183
230,183,184
231,184,185
232,185,20
233,16,186
234,186,187
235,187,188
236,188,189
237,189,190
238,190,191
239,191,192
240,192,18
241,13,193
242,193,194
243,194,195
244,195,196
245,196,197
246,197,198
247,198,199
248,199,18
249,14,200
250,200,201
251,201,202
252,202,203
253,203,204
254,204,205
255,205,206
256,206,17
257,15,207
258,207,208
259,208,209
260,209,210
261,210,211
262,211,212
263,212,213
264,213,20
265,16,214
266,214,215
267,215,216
268,216,217
269,217,218
270,218,219
271,219,220
272,220,19
273,17,221
274,221,222
275,222,223
276,223,224
277,224,225
278,225,226
279,226,227
280,227,23
281,19,228
282,228,229
283,229,230
284,230,231
285,231,232
286,232,233
287,233,234
288,234,21
289,18,235
290,235,236
291,236,237
292,237,238
293,238,239
294,239,240
295,240,241
296,241,24
297,20,242
298,242,243
299,243,244
300,244,245
301,245,246
302,246,247
303,247,248
304,248,22
305,17,249
306,249,250
307,250,251
308,251,252
309,252,253
310,253,254
311,254,255
312,255,22
313,18,256
314,256,257
315,257,258
316,258,259
317,259,260
318,260,261
319,261,262
320,262,21
321,19,263
322,263,264
323,264,265
324,265,266
325,266,267
326,267,268
327,268,269
328,269,24
329,20,270
330,270,271
331,271,272
332,272,273
333,273,274
334,274,275
335,275,276
336,276,23
*NSET,NSET=NALL,GENERATE
1,276,1
*NSET,NSET=LEFT
1,2,3,4
*NSET,NSET=RIGHT
21,22,23,24
*MATERIAL,NAME=STEEL
*ELASTIC
2.100000000000e+11,0.300000000000
*BEAM SECTION,ELSET=ALL,MATERIAL=STEEL,SECTION=RECT
6.000000000000e-02,4.000000000000e-02
0.371390676354,0.557086014531,0.742781352708
*BOUNDARY
LEFT,1,6,0.0
*STEP
*STATIC
*BOUNDARY
21,1,1,5.000000000000e-03
21,2,2,0.0
21,3,3,-6.000000000000e-03
*BOUNDARY
22,1,1,5.000000000000e-03
22,2,2,0.0
22,3,3,6.000000000000e-03
*BOUNDARY
23,1,1,-5.000000000000e-03
23,2,2,0.0
23,3,3,-6.000000000000e-03
*BOUNDARY
24,1,1,-5.000000000000e-03
24,2,2,0.0
24,3,3,6.000000000000e-03
*NODE FILE,NSET=NALL
U
*NODE PRINT,NSET=NALL
U
*NODE PRINT,NSET=RIGHT
RF
*EL PRINT,ELSET=ALL,TOTALS=YES
ELSE
*END STEP
