*HEADING
Normalized cross-passage space-truss torsion benchmark
*NODE
1,-1.200000000000e+00,0.000000000000e+00,0.000000000000e+00
2,1.200000000000e+00,0.000000000000e+00,0.000000000000e+00
3,-1.200000000000e+00,0.000000000000e+00,2.000000000000e+00
4,1.200000000000e+00,0.000000000000e+00,2.000000000000e+00
5,-1.200000000000e+00,1.000000000000e+01,0.000000000000e+00
6,1.200000000000e+00,1.000000000000e+01,0.000000000000e+00
7,-1.200000000000e+00,1.000000000000e+01,2.000000000000e+00
8,1.200000000000e+00,1.000000000000e+01,2.000000000000e+00
9,-1.200000000000e+00,2.000000000000e+01,0.000000000000e+00
10,1.200000000000e+00,2.000000000000e+01,0.000000000000e+00
11,-1.200000000000e+00,2.000000000000e+01,2.000000000000e+00
12,1.200000000000e+00,2.000000000000e+01,2.000000000000e+00
13,-1.200000000000e+00,3.000000000000e+01,0.000000000000e+00
14,1.200000000000e+00,3.000000000000e+01,0.000000000000e+00
15,-1.200000000000e+00,3.000000000000e+01,2.000000000000e+00
16,1.200000000000e+00,3.000000000000e+01,2.000000000000e+00
17,-1.200000000000e+00,4.000000000000e+01,0.000000000000e+00
18,1.200000000000e+00,4.000000000000e+01,0.000000000000e+00
19,-1.200000000000e+00,4.000000000000e+01,2.000000000000e+00
20,1.200000000000e+00,4.000000000000e+01,2.000000000000e+00
21,-1.200000000000e+00,5.000000000000e+01,0.000000000000e+00
22,1.200000000000e+00,5.000000000000e+01,0.000000000000e+00
23,-1.200000000000e+00,5.000000000000e+01,2.000000000000e+00
24,1.200000000000e+00,5.000000000000e+01,2.000000000000e+00
25,-1.200000000000e+00,5.000000000000e+00,-1.500000000000e-01
26,1.200000000000e+00,5.000000000000e+00,1.500000000000e-01
27,-1.200000000000e+00,5.000000000000e+00,1.850000000000e+00
28,1.200000000000e+00,5.000000000000e+00,2.150000000000e+00
29,-1.200000000000e+00,1.500000000000e+01,-1.500000000000e-01
30,1.200000000000e+00,1.500000000000e+01,1.500000000000e-01
31,-1.200000000000e+00,1.500000000000e+01,1.850000000000e+00
32,1.200000000000e+00,1.500000000000e+01,2.150000000000e+00
33,-1.200000000000e+00,3.125000000000e+01,-5.740251485476e-02
34,-1.200000000000e+00,3.250000000000e+01,-1.060660171780e-01
35,-1.200000000000e+00,3.375000000000e+01,-1.385819298767e-01
36,-1.200000000000e+00,3.500000000000e+01,-1.500000000000e-01
37,-1.200000000000e+00,3.625000000000e+01,-1.385819298767e-01
38,-1.200000000000e+00,3.750000000000e+01,-1.060660171780e-01
39,-1.200000000000e+00,3.875000000000e+01,-5.740251485476e-02
40,1.200000000000e+00,3.125000000000e+01,5.740251485476e-02
41,1.200000000000e+00,3.250000000000e+01,1.060660171780e-01
42,1.200000000000e+00,3.375000000000e+01,1.385819298767e-01
43,1.200000000000e+00,3.500000000000e+01,1.500000000000e-01
44,1.200000000000e+00,3.625000000000e+01,1.385819298767e-01
45,1.200000000000e+00,3.750000000000e+01,1.060660171780e-01
46,1.200000000000e+00,3.875000000000e+01,5.740251485476e-02
47,-1.200000000000e+00,3.125000000000e+01,1.942597485145e+00
48,-1.200000000000e+00,3.250000000000e+01,1.893933982822e+00
49,-1.200000000000e+00,3.375000000000e+01,1.861418070123e+00
50,-1.200000000000e+00,3.500000000000e+01,1.850000000000e+00
51,-1.200000000000e+00,3.625000000000e+01,1.861418070123e+00
52,-1.200000000000e+00,3.750000000000e+01,1.893933982822e+00
53,-1.200000000000e+00,3.875000000000e+01,1.942597485145e+00
54,1.200000000000e+00,3.125000000000e+01,2.057402514855e+00
55,1.200000000000e+00,3.250000000000e+01,2.106066017178e+00
56,1.200000000000e+00,3.375000000000e+01,2.138581929877e+00
57,1.200000000000e+00,3.500000000000e+01,2.150000000000e+00
58,1.200000000000e+00,3.625000000000e+01,2.138581929877e+00
59,1.200000000000e+00,3.750000000000e+01,2.106066017178e+00
60,1.200000000000e+00,3.875000000000e+01,2.057402514855e+00
61,-1.200000000000e+00,4.250000000000e+01,-1.060660171780e-01
62,-1.200000000000e+00,4.500000000000e+01,-1.500000000000e-01
63,-1.200000000000e+00,4.750000000000e+01,-1.060660171780e-01
64,1.200000000000e+00,4.250000000000e+01,1.060660171780e-01
65,1.200000000000e+00,4.500000000000e+01,1.500000000000e-01
66,1.200000000000e+00,4.750000000000e+01,1.060660171780e-01
67,-1.200000000000e+00,4.250000000000e+01,1.893933982822e+00
68,-1.200000000000e+00,4.500000000000e+01,1.850000000000e+00
69,-1.200000000000e+00,4.750000000000e+01,1.893933982822e+00
70,1.200000000000e+00,4.250000000000e+01,2.106066017178e+00
71,1.200000000000e+00,4.500000000000e+01,2.150000000000e+00
72,1.200000000000e+00,4.750000000000e+01,2.106066017178e+00
73,0.000000000000e+00,-3.600000000000e-02,0.000000000000e+00
74,0.000000000000e+00,3.600000000000e-02,2.000000000000e+00
75,-1.200000000000e+00,3.000000000000e-02,1.000000000000e+00
76,1.200000000000e+00,-3.000000000000e-02,1.000000000000e+00
77,0.000000000000e+00,9.964000000000e+00,0.000000000000e+00
78,0.000000000000e+00,1.003600000000e+01,2.000000000000e+00
79,-1.200000000000e+00,1.003000000000e+01,1.000000000000e+00
80,1.200000000000e+00,9.970000000000e+00,1.000000000000e+00
81,0.000000000000e+00,1.996400000000e+01,0.000000000000e+00
82,0.000000000000e+00,2.003600000000e+01,2.000000000000e+00
83,-1.200000000000e+00,2.003000000000e+01,1.000000000000e+00
84,1.200000000000e+00,1.997000000000e+01,1.000000000000e+00
85,0.000000000000e+00,2.996400000000e+01,0.000000000000e+00
86,0.000000000000e+00,3.003600000000e+01,2.000000000000e+00
87,-1.200000000000e+00,3.003000000000e+01,1.000000000000e+00
88,1.200000000000e+00,2.997000000000e+01,1.000000000000e+00
89,0.000000000000e+00,3.996400000000e+01,0.000000000000e+00
90,0.000000000000e+00,4.003600000000e+01,2.000000000000e+00
91,-1.200000000000e+00,4.003000000000e+01,1.000000000000e+00
92,1.200000000000e+00,3.997000000000e+01,1.000000000000e+00
93,0.000000000000e+00,4.996400000000e+01,0.000000000000e+00
94,0.000000000000e+00,5.003600000000e+01,2.000000000000e+00
95,-1.200000000000e+00,5.003000000000e+01,1.000000000000e+00
96,1.200000000000e+00,4.997000000000e+01,1.000000000000e+00
97,-1.200000000000e+00,5.030000000000e+00,8.500000000000e-01
98,-1.200000000000e+00,5.030000000000e+00,1.150000000000e+00
99,1.200000000000e+00,5.030000000000e+00,8.500000000000e-01
100,1.200000000000e+00,5.030000000000e+00,1.150000000000e+00
101,1.500000000000e-01,4.964000000000e+00,0.000000000000e+00
102,-1.500000000000e-01,4.964000000000e+00,0.000000000000e+00
103,1.500000000000e-01,4.964000000000e+00,2.000000000000e+00
104,-1.500000000000e-01,4.964000000000e+00,2.000000000000e+00
105,-1.200000000000e+00,1.503000000000e+01,8.500000000000e-01
106,-1.200000000000e+00,1.503000000000e+01,1.150000000000e+00
107,1.200000000000e+00,1.503000000000e+01,8.500000000000e-01
108,1.200000000000e+00,1.503000000000e+01,1.150000000000e+00
109,1.500000000000e-01,1.496400000000e+01,0.000000000000e+00
110,-1.500000000000e-01,1.496400000000e+01,0.000000000000e+00
111,1.500000000000e-01,1.496400000000e+01,2.000000000000e+00
112,-1.500000000000e-01,1.496400000000e+01,2.000000000000e+00
113,-1.200000000000e+00,2.252121320344e+01,3.939339828220e-01
114,-1.200000000000e+00,2.503000000000e+01,8.500000000000e-01
115,-1.200000000000e+00,2.752121320344e+01,1.393933982822e+00
116,-1.200000000000e+00,2.252121320344e+01,1.606066017178e+00
117,-1.200000000000e+00,2.503000000000e+01,1.150000000000e+00
118,-1.200000000000e+00,2.752121320344e+01,6.060660171780e-01
119,1.200000000000e+00,2.252121320344e+01,3.939339828220e-01
120,1.200000000000e+00,2.503000000000e+01,8.500000000000e-01
121,1.200000000000e+00,2.752121320344e+01,1.393933982822e+00
122,1.200000000000e+00,2.252121320344e+01,1.606066017178e+00
123,1.200000000000e+00,2.503000000000e+01,1.150000000000e+00
124,1.200000000000e+00,2.752121320344e+01,6.060660171780e-01
125,-4.939339828220e-01,2.247454415588e+01,0.000000000000e+00
126,1.500000000000e-01,2.496400000000e+01,0.000000000000e+00
127,7.060660171780e-01,2.747454415588e+01,0.000000000000e+00
128,4.939339828220e-01,2.247454415588e+01,0.000000000000e+00
129,-1.500000000000e-01,2.496400000000e+01,0.000000000000e+00
130,-7.060660171780e-01,2.747454415588e+01,0.000000000000e+00
131,-4.939339828220e-01,2.247454415588e+01,2.000000000000e+00
132,1.500000000000e-01,2.496400000000e+01,2.000000000000e+00
133,7.060660171780e-01,2.747454415588e+01,2.000000000000e+00
134,4.939339828220e-01,2.247454415588e+01,2.000000000000e+00
135,-1.500000000000e-01,2.496400000000e+01,2.000000000000e+00
136,-7.060660171780e-01,2.747454415588e+01,2.000000000000e+00
137,-1.200000000000e+00,3.126148050297e+01,1.925974851452e-01
138,-1.200000000000e+00,3.252121320344e+01,3.939339828220e-01
139,-1.200000000000e+00,3.377771638598e+01,6.114180701233e-01
140,-1.200000000000e+00,3.503000000000e+01,8.500000000000e-01
141,-1.200000000000e+00,3.627771638598e+01,1.111418070123e+00
142,-1.200000000000e+00,3.752121320344e+01,1.393933982822e+00
143,-1.200000000000e+00,3.876148050297e+01,1.692597485145e+00
144,-1.200000000000e+00,3.126148050297e+01,1.807402514855e+00
145,-1.200000000000e+00,3.252121320344e+01,1.606066017178e+00
146,-1.200000000000e+00,3.377771638598e+01,1.388581929877e+00
147,-1.200000000000e+00,3.503000000000e+01,1.150000000000e+00
148,-1.200000000000e+00,3.627771638598e+01,8.885819298767e-01
149,-1.200000000000e+00,3.752121320344e+01,6.060660171780e-01
150,-1.200000000000e+00,3.876148050297e+01,3.074025148548e-01
151,1.200000000000e+00,3.126148050297e+01,1.925974851452e-01
152,1.200000000000e+00,3.252121320344e+01,3.939339828220e-01
153,1.200000000000e+00,3.377771638598e+01,6.114180701233e-01
154,1.200000000000e+00,3.503000000000e+01,8.500000000000e-01
155,1.200000000000e+00,3.627771638598e+01,1.111418070123e+00
156,1.200000000000e+00,3.752121320344e+01,1.393933982822e+00
157,1.200000000000e+00,3.876148050297e+01,1.692597485145e+00
158,1.200000000000e+00,3.126148050297e+01,1.807402514855e+00
159,1.200000000000e+00,3.252121320344e+01,1.606066017178e+00
160,1.200000000000e+00,3.377771638598e+01,1.388581929877e+00
161,1.200000000000e+00,3.503000000000e+01,1.150000000000e+00
162,1.200000000000e+00,3.627771638598e+01,8.885819298767e-01
163,1.200000000000e+00,3.752121320344e+01,6.060660171780e-01
164,1.200000000000e+00,3.876148050297e+01,3.074025148548e-01
165,-8.425974851452e-01,3.123622339643e+01,0.000000000000e+00
166,-4.939339828220e-01,3.247454415588e+01,0.000000000000e+00
167,-1.614180701233e-01,3.371674033683e+01,0.000000000000e+00
168,1.500000000000e-01,3.496400000000e+01,0.000000000000e+00
169,4.385819298767e-01,3.621674033683e+01,0.000000000000e+00
170,7.060660171780e-01,3.747454415588e+01,0.000000000000e+00
171,9.574025148548e-01,3.873622339643e+01,0.000000000000e+00
172,8.425974851452e-01,3.123622339643e+01,0.000000000000e+00
173,4.939339828220e-01,3.247454415588e+01,0.000000000000e+00
174,1.614180701233e-01,3.371674033683e+01,0.000000000000e+00
175,-1.500000000000e-01,3.496400000000e+01,0.000000000000e+00
176,-4.385819298767e-01,3.621674033683e+01,0.000000000000e+00
177,-7.060660171780e-01,3.747454415588e+01,0.000000000000e+00
178,-9.574025148548e-01,3.873622339643e+01,0.000000000000e+00
179,-8.425974851452e-01,3.123622339643e+01,2.000000000000e+00
180,-4.939339828220e-01,3.247454415588e+01,2.000000000000e+00
181,-1.614180701233e-01,3.371674033683e+01,2.000000000000e+00
182,1.500000000000e-01,3.496400000000e+01,2.000000000000e+00
183,4.385819298767e-01,3.621674033683e+01,2.000000000000e+00
184,7.060660171780e-01,3.747454415588e+01,2.000000000000e+00
185,9.574025148548e-01,3.873622339643e+01,2.000000000000e+00
186,8.425974851452e-01,3.123622339643e+01,2.000000000000e+00
187,4.939339828220e-01,3.247454415588e+01,2.000000000000e+00
188,1.614180701233e-01,3.371674033683e+01,2.000000000000e+00
189,-1.500000000000e-01,3.496400000000e+01,2.000000000000e+00
190,-4.385819298767e-01,3.621674033683e+01,2.000000000000e+00
191,-7.060660171780e-01,3.747454415588e+01,2.000000000000e+00
192,-9.574025148548e-01,3.873622339643e+01,2.000000000000e+00
193,-1.200000000000e+00,4.252121320344e+01,3.939339828220e-01
194,-1.200000000000e+00,4.503000000000e+01,8.500000000000e-01
195,-1.200000000000e+00,4.752121320344e+01,1.393933982822e+00
196,-1.200000000000e+00,4.252121320344e+01,1.606066017178e+00
197,-1.200000000000e+00,4.503000000000e+01,1.150000000000e+00
198,-1.200000000000e+00,4.752121320344e+01,6.060660171780e-01
199,1.200000000000e+00,4.252121320344e+01,3.939339828220e-01
200,1.200000000000e+00,4.503000000000e+01,8.500000000000e-01
201,1.200000000000e+00,4.752121320344e+01,1.393933982822e+00
202,1.200000000000e+00,4.252121320344e+01,1.606066017178e+00
203,1.200000000000e+00,4.503000000000e+01,1.150000000000e+00
204,1.200000000000e+00,4.752121320344e+01,6.060660171780e-01
205,-4.939339828220e-01,4.247454415588e+01,0.000000000000e+00
206,1.500000000000e-01,4.496400000000e+01,0.000000000000e+00
207,7.060660171780e-01,4.747454415588e+01,0.000000000000e+00
208,4.939339828220e-01,4.247454415588e+01,0.000000000000e+00
209,-1.500000000000e-01,4.496400000000e+01,0.000000000000e+00
210,-7.060660171780e-01,4.747454415588e+01,0.000000000000e+00
211,-4.939339828220e-01,4.247454415588e+01,2.000000000000e+00
212,1.500000000000e-01,4.496400000000e+01,2.000000000000e+00
213,7.060660171780e-01,4.747454415588e+01,2.000000000000e+00
214,4.939339828220e-01,4.247454415588e+01,2.000000000000e+00
215,-1.500000000000e-01,4.496400000000e+01,2.000000000000e+00
216,-7.060660171780e-01,4.747454415588e+01,2.000000000000e+00
*ELEMENT,TYPE=B31,ELSET=ALL
1,1,25
2,25,5
3,2,26
4,26,6
5,3,27
6,27,7
7,4,28
8,28,8
9,5,29
10,29,9
11,6,30
12,30,10
13,7,31
14,31,11
15,8,32
16,32,12
17,9,13
18,10,14
19,11,15
20,12,16
21,13,33
22,33,34
23,34,35
24,35,36
25,36,37
26,37,38
27,38,39
28,39,17
29,14,40
30,40,41
31,41,42
32,42,43
33,43,44
34,44,45
35,45,46
36,46,18
37,15,47
38,47,48
39,48,49
40,49,50
41,50,51
42,51,52
43,52,53
44,53,19
45,16,54
46,54,55
47,55,56
48,56,57
49,57,58
50,58,59
51,59,60
52,60,20
53,17,61
54,61,62
55,62,63
56,63,21
57,18,64
58,64,65
59,65,66
60,66,22
61,19,67
62,67,68
63,68,69
64,69,23
65,20,70
66,70,71
67,71,72
68,72,24
69,1,73
70,73,2
71,3,74
72,74,4
73,1,75
74,75,3
75,2,76
76,76,4
77,5,77
78,77,6
79,7,78
80,78,8
81,5,79
82,79,7
83,6,80
84,80,8
85,9,81
86,81,10
87,11,82
88,82,12
89,9,83
90,83,11
91,10,84
92,84,12
93,13,85
94,85,14
95,15,86
96,86,16
97,13,87
98,87,15
99,14,88
100,88,16
101,17,89
102,89,18
103,19,90
104,90,20
105,17,91
106,91,19
107,18,92
108,92,20
109,21,93
110,93,22
111,23,94
112,94,24
113,21,95
114,95,23
115,22,96
116,96,24
117,1,97
118,97,7
119,3,98
120,98,5
121,2,99
122,99,8
123,4,100
124,100,6
125,1,101
126,101,6
127,2,102
128,102,5
129,3,103
130,103,8
131,4,104
132,104,7
133,5,105
134,105,11
135,7,106
136,106,9
137,6,107
138,107,12
139,8,108
140,108,10
141,5,109
142,109,10
143,6,110
144,110,9
145,7,111
146,111,12
147,8,112
148,112,11
149,9,113
150,113,114
151,114,115
152,115,15
153,11,116
154,116,117
155,117,118
156,118,13
157,10,119
158,119,120
159,120,121
160,121,16
161,12,122
162,122,123
163,123,124
164,124,14
165,9,125
166,125,126
167,126,127
168,127,14
169,10,128
170,128,129
171,129,130
172,130,13
173,11,131
174,131,132
175,132,133
176,133,16
177,12,134
178,134,135
179,135,136
180,136,15
181,13,137
182,137,138
183,138,139
184,139,140
185,140,141
186,141,142
187,142,143
188,143,19
189,15,144
190,144,145
191,145,146
192,146,147
193,147,148
194,148,149
195,149,150
196,150,17
197,14,151
198,151,152
199,152,153
200,153,154
201,154,155
202,155,156
203,156,157
204,157,20
205,16,158
206,158,159
207,159,160
208,160,161
209,161,162
210,162,163
211,163,164
212,164,18
213,13,165
214,165,166
215,166,167
216,167,168
217,168,169
218,169,170
219,170,171
220,171,18
221,14,172
222,172,173
223,173,174
224,174,175
225,175,176
226,176,177
227,177,178
228,178,17
229,15,179
230,179,180
231,180,181
232,181,182
233,182,183
234,183,184
235,184,185
236,185,20
237,16,186
238,186,187
239,187,188
240,188,189
241,189,190
242,190,191
243,191,192
244,192,19
245,17,193
246,193,194
247,194,195
248,195,23
249,19,196
250,196,197
251,197,198
252,198,21
253,18,199
254,199,200
255,200,201
256,201,24
257,20,202
258,202,203
259,203,204
260,204,22
261,17,205
262,205,206
263,206,207
264,207,22
265,18,208
266,208,209
267,209,210
268,210,21
269,19,211
270,211,212
271,212,213
272,213,24
273,20,214
274,214,215
275,215,216
276,216,23
*NSET,NSET=NALL,GENERATE
1,216,1
*NSET,NSET=LEFT
1,2,3,4
*NSET,NSET=RIGHT
21,22,23,24
*MATERIAL,NAME=STEEL
*ELASTIC
2.100000000000e+11,0.300000000000
*BEAM SECTION,ELSET=ALL,MATERIAL=STEEL,SECTION=RECT
6.000000000000e-02,4.000000000000e-02
0.371390676354,0.557086014531,0.742781352708
*BOUNDARY
LEFT,1,6,0.0
*STEP
*STATIC
*BOUNDARY
21,1,1,5.000000000000e-03
21,2,2,0.0
21,3,3,-6.000000000000e-03
*BOUNDARY
22,1,1,5.000000000000e-03
22,2,2,0.0
22,3,3,6.000000000000e-03
*BOUNDARY
23,1,1,-5.000000000000e-03
23,2,2,0.0
23,3,3,-6.000000000000e-03
*BOUNDARY
24,1,1,-5.000000000000e-03
24,2,2,0.0
24,3,3,6.000000000000e-03
*NODE FILE,NSET=NALL
U
*NODE PRINT,NSET=NALL
U
*NODE PRINT,NSET=RIGHT
RF
*EL PRINT,ELSET=ALL,TOTALS=YES
ELSE
*END STEP
