*HEADING
Normalized cross-passage space-truss torsion benchmark
*NODE
1,-1.200000000000e+00,0.000000000000e+00,0.000000000000e+00
2,1.200000000000e+00,0.000000000000e+00,0.000000000000e+00
3,-1.200000000000e+00,0.000000000000e+00,2.000000000000e+00
4,1.200000000000e+00,0.000000000000e+00,2.000000000000e+00
5,-1.200000000000e+00,1.000000000000e+01,0.000000000000e+00
6,1.200000000000e+00,1.000000000000e+01,0.000000000000e+00
7,-1.200000000000e+00,1.000000000000e+01,2.000000000000e+00
8,1.200000000000e+00,1.000000000000e+01,2.000000000000e+00
9,-1.200000000000e+00,2.000000000000e+01,0.000000000000e+00
10,1.200000000000e+00,2.000000000000e+01,0.000000000000e+00
11,-1.200000000000e+00,2.000000000000e+01,2.000000000000e+00
12,1.200000000000e+00,2.000000000000e+01,2.000000000000e+00
13,-1.200000000000e+00,3.000000000000e+01,0.000000000000e+00
14,1.200000000000e+00,3.000000000000e+01,0.000000000000e+00
15,-1.200000000000e+00,3.000000000000e+01,2.000000000000e+00
16,1.200000000000e+00,3.000000000000e+01,2.000000000000e+00
17,-1.200000000000e+00,4.000000000000e+01,0.000000000000e+00
18,1.200000000000e+00,4.000000000000e+01,0.000000000000e+00
19,-1.200000000000e+00,4.000000000000e+01,2.000000000000e+00
20,1.200000000000e+00,4.000000000000e+01,2.000000000000e+00
21,-1.200000000000e+00,5.000000000000e+01,0.000000000000e+00
22,1.200000000000e+00,5.000000000000e+01,0.000000000000e+00
23,-1.200000000000e+00,5.000000000000e+01,2.000000000000e+00
24,1.200000000000e+00,5.000000000000e+01,2.000000000000e+00
25,-1.200000000000e+00,1.250000000000e+00,-5.740251485476e-02
26,-1.200000000000e+00,2.500000000000e+00,-1.060660171780e-01
27,-1.200000000000e+00,3.750000000000e+00,-1.385819298767e-01
28,-1.200000000000e+00,5.000000000000e+00,-1.500000000000e-01
29,-1.200000000000e+00,6.250000000000e+00,-1.385819298767e-01
30,-1.200000000000e+00,7.500000000000e+00,-1.060660171780e-01
31,-1.200000000000e+00,8.750000000000e+00,-5.740251485476e-02
32,1.200000000000e+00,1.250000000000e+00,5.740251485476e-02
33,1.200000000000e+00,2.500000000000e+00,1.060660171780e-01
34,1.200000000000e+00,3.750000000000e+00,1.385819298767e-01
35,1.200000000000e+00,5.000000000000e+00,1.500000000000e-01
36,1.200000000000e+00,6.250000000000e+00,1.385819298767e-01
37,1.200000000000e+00,7.500000000000e+00,1.060660171780e-01
38,1.200000000000e+00,8.750000000000e+00,5.740251485476e-02
39,-1.200000000000e+00,1.250000000000e+00,1.942597485145e+00
40,-1.200000000000e+00,2.500000000000e+00,1.893933982822e+00
41,-1.200000000000e+00,3.750000000000e+00,1.861418070123e+00
42,-1.200000000000e+00,5.000000000000e+00,1.850000000000e+00
43,-1.200000000000e+00,6.250000000000e+00,1.861418070123e+00
44,-1.200000000000e+00,7.500000000000e+00,1.893933982822e+00
45,-1.200000000000e+00,8.750000000000e+00,1.942597485145e+00
46,1.200000000000e+00,1.250000000000e+00,2.057402514855e+00
47,1.200000000000e+00,2.500000000000e+00,2.106066017178e+00
48,1.200000000000e+00,3.750000000000e+00,2.138581929877e+00
49,1.200000000000e+00,5.000000000000e+00,2.150000000000e+00
50,1.200000000000e+00,6.250000000000e+00,2.138581929877e+00
51,1.200000000000e+00,7.500000000000e+00,2.106066017178e+00
52,1.200000000000e+00,8.750000000000e+00,2.057402514855e+00
53,-1.200000000000e+00,2.250000000000e+01,-1.060660171780e-01
54,-1.200000000000e+00,2.500000000000e+01,-1.500000000000e-01
55,-1.200000000000e+00,2.750000000000e+01,-1.060660171780e-01
56,1.200000000000e+00,2.250000000000e+01,1.060660171780e-01
57,1.200000000000e+00,2.500000000000e+01,1.500000000000e-01
58,1.200000000000e+00,2.750000000000e+01,1.060660171780e-01
59,-1.200000000000e+00,2.250000000000e+01,1.893933982822e+00
60,-1.200000000000e+00,2.500000000000e+01,1.850000000000e+00
61,-1.200000000000e+00,2.750000000000e+01,1.893933982822e+00
62,1.200000000000e+00,2.250000000000e+01,2.106066017178e+00
63,1.200000000000e+00,2.500000000000e+01,2.150000000000e+00
64,1.200000000000e+00,2.750000000000e+01,2.106066017178e+00
65,-1.200000000000e+00,4.500000000000e+01,-1.500000000000e-01
66,1.200000000000e+00,4.500000000000e+01,1.500000000000e-01
67,-1.200000000000e+00,4.500000000000e+01,1.850000000000e+00
68,1.200000000000e+00,4.500000000000e+01,2.150000000000e+00
69,0.000000000000e+00,-3.600000000000e-02,0.000000000000e+00
70,0.000000000000e+00,3.600000000000e-02,2.000000000000e+00
71,-1.200000000000e+00,3.000000000000e-02,1.000000000000e+00
72,1.200000000000e+00,-3.000000000000e-02,1.000000000000e+00
73,0.000000000000e+00,9.964000000000e+00,0.000000000000e+00
74,0.000000000000e+00,1.003600000000e+01,2.000000000000e+00
75,-1.200000000000e+00,1.003000000000e+01,1.000000000000e+00
76,1.200000000000e+00,9.970000000000e+00,1.000000000000e+00
77,0.000000000000e+00,1.996400000000e+01,0.000000000000e+00
78,0.000000000000e+00,2.003600000000e+01,2.000000000000e+00
79,-1.200000000000e+00,2.003000000000e+01,1.000000000000e+00
80,1.200000000000e+00,1.997000000000e+01,1.000000000000e+00
81,0.000000000000e+00,2.996400000000e+01,0.000000000000e+00
82,0.000000000000e+00,3.003600000000e+01,2.000000000000e+00
83,-1.200000000000e+00,3.003000000000e+01,1.000000000000e+00
84,1.200000000000e+00,2.997000000000e+01,1.000000000000e+00
85,-6.000000000000e-01,4.997454415588e+01,0.000000000000e+00
86,0.000000000000e+00,4.996400000000e+01,0.000000000000e+00
87,6.000000000000e-01,4.997454415588e+01,0.000000000000e+00
88,-6.000000000000e-01,5.002545584412e+01,2.000000000000e+00
89,0.000000000000e+00,5.003600000000e+01,2.000000000000e+00
90,6.000000000000e-01,5.002545584412e+01,2.000000000000e+00
91,-1.200000000000e+00,5.002121320344e+01,5.000000000000e-01
92,-1.200000000000e+00,5.003000000000e+01,1.000000000000e+00
93,-1.200000000000e+00,5.002121320344e+01,1.500000000000e+00
94,1.200000000000e+00,4.997878679656e+01,5.000000000000e-01
95,1.200000000000e+00,4.997000000000e+01,1.000000000000e+00
96,1.200000000000e+00,4.997878679656e+01,1.500000000000e+00
97,-1.200000000000e+00,1.261480502971e+00,1.925974851452e-01
98,-1.200000000000e+00,2.521213203436e+00,3.939339828220e-01
99,-1.200000000000e+00,3.777716385975e+00,6.114180701233e-01
100,-1.200000000000e+00,5.030000000000e+00,8.500000000000e-01
101,-1.200000000000e+00,6.277716385975e+00,1.111418070123e+00
102,-1.200000000000e+00,7.521213203436e+00,1.393933982822e+00
103,-1.200000000000e+00,8.761480502971e+00,1.692597485145e+00
104,-1.200000000000e+00,1.261480502971e+00,1.807402514855e+00
105,-1.200000000000e+00,2.521213203436e+00,1.606066017178e+00
106,-1.200000000000e+00,3.777716385975e+00,1.388581929877e+00
107,-1.200000000000e+00,5.030000000000e+00,1.150000000000e+00
108,-1.200000000000e+00,6.277716385975e+00,8.885819298767e-01
109,-1.200000000000e+00,7.521213203436e+00,6.060660171780e-01
110,-1.200000000000e+00,8.761480502971e+00,3.074025148548e-01
111,1.200000000000e+00,1.261480502971e+00,1.925974851452e-01
112,1.200000000000e+00,2.521213203436e+00,3.939339828220e-01
113,1.200000000000e+00,3.777716385975e+00,6.114180701233e-01
114,1.200000000000e+00,5.030000000000e+00,8.500000000000e-01
115,1.200000000000e+00,6.277716385975e+00,1.111418070123e+00
116,1.200000000000e+00,7.521213203436e+00,1.393933982822e+00
117,1.200000000000e+00,8.761480502971e+00,1.692597485145e+00
118,1.200000000000e+00,1.261480502971e+00,1.807402514855e+00
119,1.200000000000e+00,2.521213203436e+00,1.606066017178e+00
120,1.200000000000e+00,3.777716385975e+00,1.388581929877e+00
121,1.200000000000e+00,5.030000000000e+00,1.150000000000e+00
122,1.200000000000e+00,6.277716385975e+00,8.885819298767e-01
123,1.200000000000e+00,7.521213203436e+00,6.060660171780e-01
124,1.200000000000e+00,8.761480502971e+00,3.074025148548e-01
125,-8.425974851452e-01,1.236223396435e+00,0.000000000000e+00
126,-4.939339828220e-01,2.474544155877e+00,0.000000000000e+00
127,-1.614180701233e-01,3.716740336830e+00,0.000000000000e+00
128,1.500000000000e-01,4.964000000000e+00,0.000000000000e+00
129,4.385819298767e-01,6.216740336830e+00,0.000000000000e+00
130,7.060660171780e-01,7.474544155877e+00,0.000000000000e+00
131,9.574025148548e-01,8.736223396435e+00,0.000000000000e+00
132,8.425974851452e-01,1.236223396435e+00,0.000000000000e+00
133,4.939339828220e-01,2.474544155877e+00,0.000000000000e+00
134,1.614180701233e-01,3.716740336830e+00,0.000000000000e+00
135,-1.500000000000e-01,4.964000000000e+00,0.000000000000e+00
136,-4.385819298767e-01,6.216740336830e+00,0.000000000000e+00
137,-7.060660171780e-01,7.474544155877e+00,0.000000000000e+00
138,-9.574025148548e-01,8.736223396435e+00,0.000000000000e+00
139,-8.425974851452e-01,1.236223396435e+00,2.000000000000e+00
140,-4.939339828220e-01,2.474544155877e+00,2.000000000000e+00
141,-1.614180701233e-01,3.716740336830e+00,2.000000000000e+00
142,1.500000000000e-01,4.964000000000e+00,2.000000000000e+00
143,4.385819298767e-01,6.216740336830e+00,2.000000000000e+00
144,7.060660171780e-01,7.474544155877e+00,2.000000000000e+00
145,9.574025148548e-01,8.736223396435e+00,2.000000000000e+00
146,8.425974851452e-01,1.236223396435e+00,2.000000000000e+00
147,4.939339828220e-01,2.474544155877e+00,2.000000000000e+00
148,1.614180701233e-01,3.716740336830e+00,2.000000000000e+00
149,-1.500000000000e-01,4.964000000000e+00,2.000000000000e+00
150,-4.385819298767e-01,6.216740336830e+00,2.000000000000e+00
151,-7.060660171780e-01,7.474544155877e+00,2.000000000000e+00
152,-9.574025148548e-01,8.736223396435e+00,2.000000000000e+00
153,-1.200000000000e+00,1.126148050297e+01,1.925974851452e-01
154,-1.200000000000e+00,1.252121320344e+01,3.939339828220e-01
155,-1.200000000000e+00,1.377771638598e+01,6.114180701233e-01
156,-1.200000000000e+00,1.503000000000e+01,8.500000000000e-01
157,-1.200000000000e+00,1.627771638598e+01,1.111418070123e+00
158,-1.200000000000e+00,1.752121320344e+01,1.393933982822e+00
159,-1.200000000000e+00,1.876148050297e+01,1.692597485145e+00
160,-1.200000000000e+00,1.126148050297e+01,1.807402514855e+00
161,-1.200000000000e+00,1.252121320344e+01,1.606066017178e+00
162,-1.200000000000e+00,1.377771638598e+01,1.388581929877e+00
163,-1.200000000000e+00,1.503000000000e+01,1.150000000000e+00
164,-1.200000000000e+00,1.627771638598e+01,8.885819298767e-01
165,-1.200000000000e+00,1.752121320344e+01,6.060660171780e-01
166,-1.200000000000e+00,1.876148050297e+01,3.074025148548e-01
167,1.200000000000e+00,1.126148050297e+01,1.925974851452e-01
168,1.200000000000e+00,1.252121320344e+01,3.939339828220e-01
169,1.200000000000e+00,1.377771638598e+01,6.114180701233e-01
170,1.200000000000e+00,1.503000000000e+01,8.500000000000e-01
171,1.200000000000e+00,1.627771638598e+01,1.111418070123e+00
172,1.200000000000e+00,1.752121320344e+01,1.393933982822e+00
173,1.200000000000e+00,1.876148050297e+01,1.692597485145e+00
174,1.200000000000e+00,1.126148050297e+01,1.807402514855e+00
175,1.200000000000e+00,1.252121320344e+01,1.606066017178e+00
176,1.200000000000e+00,1.377771638598e+01,1.388581929877e+00
177,1.200000000000e+00,1.503000000000e+01,1.150000000000e+00
178,1.200000000000e+00,1.627771638598e+01,8.885819298767e-01
179,1.200000000000e+00,1.752121320344e+01,6.060660171780e-01
180,1.200000000000e+00,1.876148050297e+01,3.074025148548e-01
181,-8.425974851452e-01,1.123622339643e+01,0.000000000000e+00
182,-4.939339828220e-01,1.247454415588e+01,0.000000000000e+00
183,-1.614180701233e-01,1.371674033683e+01,0.000000000000e+00
184,1.500000000000e-01,1.496400000000e+01,0.000000000000e+00
185,4.385819298767e-01,1.621674033683e+01,0.000000000000e+00
186,7.060660171780e-01,1.747454415588e+01,0.000000000000e+00
187,9.574025148548e-01,1.873622339643e+01,0.000000000000e+00
188,8.425974851452e-01,1.123622339643e+01,0.000000000000e+00
189,4.939339828220e-01,1.247454415588e+01,0.000000000000e+00
190,1.614180701233e-01,1.371674033683e+01,0.000000000000e+00
191,-1.500000000000e-01,1.496400000000e+01,0.000000000000e+00
192,-4.385819298767e-01,1.621674033683e+01,0.000000000000e+00
193,-7.060660171780e-01,1.747454415588e+01,0.000000000000e+00
194,-9.574025148548e-01,1.873622339643e+01,0.000000000000e+00
195,-8.425974851452e-01,1.123622339643e+01,2.000000000000e+00
196,-4.939339828220e-01,1.247454415588e+01,2.000000000000e+00
197,-1.614180701233e-01,1.371674033683e+01,2.000000000000e+00
198,1.500000000000e-01,1.496400000000e+01,2.000000000000e+00
199,4.385819298767e-01,1.621674033683e+01,2.000000000000e+00
200,7.060660171780e-01,1.747454415588e+01,2.000000000000e+00
201,9.574025148548e-01,1.873622339643e+01,2.000000000000e+00
202,8.425974851452e-01,1.123622339643e+01,2.000000000000e+00
203,4.939339828220e-01,1.247454415588e+01,2.000000000000e+00
204,1.614180701233e-01,1.371674033683e+01,2.000000000000e+00
205,-1.500000000000e-01,1.496400000000e+01,2.000000000000e+00
206,-4.385819298767e-01,1.621674033683e+01,2.000000000000e+00
207,-7.060660171780e-01,1.747454415588e+01,2.000000000000e+00
208,-9.574025148548e-01,1.873622339643e+01,2.000000000000e+00
*ELEMENT,TYPE=B31,ELSET=ALL
1,1,25
2,25,26
3,26,27
4,27,28
5,28,29
6,29,30
7,30,31
8,31,5
9,2,32
10,32,33
11,33,34
12,34,35
13,35,36
14,36,37
15,37,38
16,38,6
17,3,39
18,39,40
19,40,41
20,41,42
21,42,43
22,43,44
23,44,45
24,45,7
25,4,46
26,46,47
27,47,48
28,48,49
29,49,50
30,50,51
31,51,52
32,52,8
33,5,9
34,6,10
35,7,11
36,8,12
37,9,53
38,53,54
39,54,55
40,55,13
41,10,56
42,56,57
43,57,58
44,58,14
45,11,59
46,59,60
47,60,61
48,61,15
49,12,62
50,62,63
51,63,64
52,64,16
53,13,17
54,14,18
55,15,19
56,16,20
57,17,65
58,65,21
59,18,66
60,66,22
61,19,67
62,67,23
63,20,68
64,68,24
65,1,69
66,69,2
67,3,70
68,70,4
69,1,71
70,71,3
71,2,72
72,72,4
73,5,73
74,73,6
75,7,74
76,74,8
77,5,75
78,75,7
79,6,76
80,76,8
81,9,77
82,77,10
83,11,78
84,78,12
85,9,79
86,79,11
87,10,80
88,80,12
89,13,81
90,81,14
91,15,82
92,82,16
93,13,83
94,83,15
95,14,84
96,84,16
97,17,18
98,19,20
99,17,19
100,18,20
101,21,85
102,85,86
103,86,87
104,87,22
105,23,88
106,88,89
107,89,90
108,90,24
109,21,91
110,91,92
111,92,93
112,93,23
113,22,94
114,94,95
115,95,96
116,96,24
117,1,97
118,97,98
119,98,99
120,99,100
121,100,101
122,101,102
123,102,103
124,103,7
125,3,104
126,104,105
127,105,106
128,106,107
129,107,108
130,108,109
131,109,110
132,110,5
133,2,111
134,111,112
135,112,113
136,113,114
137,114,115
138,115,116
139,116,117
140,117,8
141,4,118
142,118,119
143,119,120
144,120,121
145,121,122
146,122,123
147,123,124
148,124,6
149,1,125
150,125,126
151,126,127
152,127,128
153,128,129
154,129,130
155,130,131
156,131,6
157,2,132
158,132,133
159,133,134
160,134,135
161,135,136
162,136,137
163,137,138
164,138,5
165,3,139
166,139,140
167,140,141
168,141,142
169,142,143
170,143,144
171,144,145
172,145,8
173,4,146
174,146,147
175,147,148
176,148,149
177,149,150
178,150,151
179,151,152
180,152,7
181,5,153
182,153,154
183,154,155
184,155,156
185,156,157
186,157,158
187,158,159
188,159,11
189,7,160
190,160,161
191,161,162
192,162,163
193,163,164
194,164,165
195,165,166
196,166,9
197,6,167
198,167,168
199,168,169
200,169,170
201,170,171
202,171,172
203,172,173
204,173,12
205,8,174
206,174,175
207,175,176
208,176,177
209,177,178
210,178,179
211,179,180
212,180,10
213,5,181
214,181,182
215,182,183
216,183,184
217,184,185
218,185,186
219,186,187
220,187,10
221,6,188
222,188,189
223,189,190
224,190,191
225,191,192
226,192,193
227,193,194
228,194,9
229,7,195
230,195,196
231,196,197
232,197,198
233,198,199
234,199,200
235,200,201
236,201,12
237,8,202
238,202,203
239,203,204
240,204,205
241,205,206
242,206,207
243,207,208
244,208,11
245,9,15
246,11,13
247,10,16
248,12,14
249,9,14
250,10,13
251,11,16
252,12,15
253,13,19
254,15,17
255,14,20
256,16,18
257,13,18
258,14,17
259,15,20
260,16,19
261,17,23
262,19,21
263,18,24
264,20,22
265,17,22
266,18,21
267,19,24
268,20,23
*NSET,NSET=NALL,GENERATE
1,208,1
*NSET,NSET=LEFT
1,2,3,4
*NSET,NSET=RIGHT
21,22,23,24
*MATERIAL,NAME=STEEL
*ELASTIC
2.100000000000e+11,0.300000000000
*BEAM SECTION,ELSET=ALL,MATERIAL=STEEL,SECTION=RECT
6.000000000000e-02,4.000000000000e-02
0.371390676354,0.557086014531,0.742781352708
*BOUNDARY
LEFT,1,6,0.0
*STEP
*STATIC
*BOUNDARY
21,1,1,5.000000000000e-03
21,2,2,0.0
21,3,3,-6.000000000000e-03
*BOUNDARY
22,1,1,5.000000000000e-03
22,2,2,0.0
22,3,3,6.000000000000e-03
*BOUNDARY
23,1,1,-5.000000000000e-03
23,2,2,0.0
23,3,3,-6.000000000000e-03
*BOUNDARY
24,1,1,-5.000000000000e-03
24,2,2,0.0
24,3,3,6.000000000000e-03
*NODE FILE,NSET=NALL
U
*NODE PRINT,NSET=NALL
U
*NODE PRINT,NSET=RIGHT
RF
*EL PRINT,ELSET=ALL,TOTALS=YES
ELSE
*END STEP
