*HEADING
Normalized cross-passage space-truss torsion benchmark
*NODE
1,-1.200000000000e+00,0.000000000000e+00,0.000000000000e+00
2,1.200000000000e+00,0.000000000000e+00,0.000000000000e+00
3,-1.200000000000e+00,0.000000000000e+00,2.000000000000e+00
4,1.200000000000e+00,0.000000000000e+00,2.000000000000e+00
5,-1.200000000000e+00,1.000000000000e+01,0.000000000000e+00
6,1.200000000000e+00,1.000000000000e+01,0.000000000000e+00
7,-1.200000000000e+00,1.000000000000e+01,2.000000000000e+00
8,1.200000000000e+00,1.000000000000e+01,2.000000000000e+00
9,-1.200000000000e+00,2.000000000000e+01,0.000000000000e+00
10,1.200000000000e+00,2.000000000000e+01,0.000000000000e+00
11,-1.200000000000e+00,2.000000000000e+01,2.000000000000e+00
12,1.200000000000e+00,2.000000000000e+01,2.000000000000e+00
13,-1.200000000000e+00,3.000000000000e+01,0.000000000000e+00
14,1.200000000000e+00,3.000000000000e+01,0.000000000000e+00
15,-1.200000000000e+00,3.000000000000e+01,2.000000000000e+00
16,1.200000000000e+00,3.000000000000e+01,2.000000000000e+00
17,-1.200000000000e+00,4.000000000000e+01,0.000000000000e+00
18,1.200000000000e+00,4.000000000000e+01,0.000000000000e+00
19,-1.200000000000e+00,4.000000000000e+01,2.000000000000e+00
20,1.200000000000e+00,4.000000000000e+01,2.000000000000e+00
21,-1.200000000000e+00,5.000000000000e+01,0.000000000000e+00
22,1.200000000000e+00,5.000000000000e+01,0.000000000000e+00
23,-1.200000000000e+00,5.000000000000e+01,2.000000000000e+00
24,1.200000000000e+00,5.000000000000e+01,2.000000000000e+00
25,-1.200000000000e+00,5.000000000000e+00,-1.500000000000e-01
26,1.200000000000e+00,5.000000000000e+00,1.500000000000e-01
27,-1.200000000000e+00,5.000000000000e+00,1.850000000000e+00
28,1.200000000000e+00,5.000000000000e+00,2.150000000000e+00
29,-1.200000000000e+00,1.500000000000e+01,-1.500000000000e-01
30,1.200000000000e+00,1.500000000000e+01,1.500000000000e-01
31,-1.200000000000e+00,1.500000000000e+01,1.850000000000e+00
32,1.200000000000e+00,1.500000000000e+01,2.150000000000e+00
33,-1.200000000000e+00,3.250000000000e+01,-1.060660171780e-01
34,-1.200000000000e+00,3.500000000000e+01,-1.500000000000e-01
35,-1.200000000000e+00,3.750000000000e+01,-1.060660171780e-01
36,1.200000000000e+00,3.250000000000e+01,1.060660171780e-01
37,1.200000000000e+00,3.500000000000e+01,1.500000000000e-01
38,1.200000000000e+00,3.750000000000e+01,1.060660171780e-01
39,-1.200000000000e+00,3.250000000000e+01,1.893933982822e+00
40,-1.200000000000e+00,3.500000000000e+01,1.850000000000e+00
41,-1.200000000000e+00,3.750000000000e+01,1.893933982822e+00
42,1.200000000000e+00,3.250000000000e+01,2.106066017178e+00
43,1.200000000000e+00,3.500000000000e+01,2.150000000000e+00
44,1.200000000000e+00,3.750000000000e+01,2.106066017178e+00
45,0.000000000000e+00,-3.600000000000e-02,0.000000000000e+00
46,0.000000000000e+00,3.600000000000e-02,2.000000000000e+00
47,-1.200000000000e+00,3.000000000000e-02,1.000000000000e+00
48,1.200000000000e+00,-3.000000000000e-02,1.000000000000e+00
49,0.000000000000e+00,9.964000000000e+00,0.000000000000e+00
50,0.000000000000e+00,1.003600000000e+01,2.000000000000e+00
51,-1.200000000000e+00,1.003000000000e+01,1.000000000000e+00
52,1.200000000000e+00,9.970000000000e+00,1.000000000000e+00
53,0.000000000000e+00,1.996400000000e+01,0.000000000000e+00
54,0.000000000000e+00,2.003600000000e+01,2.000000000000e+00
55,-1.200000000000e+00,2.003000000000e+01,1.000000000000e+00
56,1.200000000000e+00,1.997000000000e+01,1.000000000000e+00
57,0.000000000000e+00,2.996400000000e+01,0.000000000000e+00
58,0.000000000000e+00,3.003600000000e+01,2.000000000000e+00
59,-1.200000000000e+00,3.003000000000e+01,1.000000000000e+00
60,1.200000000000e+00,2.997000000000e+01,1.000000000000e+00
61,0.000000000000e+00,3.996400000000e+01,0.000000000000e+00
62,0.000000000000e+00,4.003600000000e+01,2.000000000000e+00
63,-1.200000000000e+00,4.003000000000e+01,1.000000000000e+00
64,1.200000000000e+00,3.997000000000e+01,1.000000000000e+00
65,0.000000000000e+00,4.996400000000e+01,0.000000000000e+00
66,0.000000000000e+00,5.003600000000e+01,2.000000000000e+00
67,-1.200000000000e+00,5.003000000000e+01,1.000000000000e+00
68,1.200000000000e+00,4.997000000000e+01,1.000000000000e+00
69,-1.200000000000e+00,5.030000000000e+00,8.500000000000e-01
70,-1.200000000000e+00,5.030000000000e+00,1.150000000000e+00
71,1.200000000000e+00,5.030000000000e+00,8.500000000000e-01
72,1.200000000000e+00,5.030000000000e+00,1.150000000000e+00
73,1.500000000000e-01,4.964000000000e+00,0.000000000000e+00
74,-1.500000000000e-01,4.964000000000e+00,0.000000000000e+00
75,1.500000000000e-01,4.964000000000e+00,2.000000000000e+00
76,-1.500000000000e-01,4.964000000000e+00,2.000000000000e+00
77,-1.200000000000e+00,1.503000000000e+01,8.500000000000e-01
78,-1.200000000000e+00,1.503000000000e+01,1.150000000000e+00
79,1.200000000000e+00,1.503000000000e+01,8.500000000000e-01
80,1.200000000000e+00,1.503000000000e+01,1.150000000000e+00
81,1.500000000000e-01,1.496400000000e+01,0.000000000000e+00
82,-1.500000000000e-01,1.496400000000e+01,0.000000000000e+00
83,1.500000000000e-01,1.496400000000e+01,2.000000000000e+00
84,-1.500000000000e-01,1.496400000000e+01,2.000000000000e+00
85,-1.200000000000e+00,2.252121320344e+01,3.939339828220e-01
86,-1.200000000000e+00,2.503000000000e+01,8.500000000000e-01
87,-1.200000000000e+00,2.752121320344e+01,1.393933982822e+00
88,-1.200000000000e+00,2.252121320344e+01,1.606066017178e+00
89,-1.200000000000e+00,2.503000000000e+01,1.150000000000e+00
90,-1.200000000000e+00,2.752121320344e+01,6.060660171780e-01
91,1.200000000000e+00,2.252121320344e+01,3.939339828220e-01
92,1.200000000000e+00,2.503000000000e+01,8.500000000000e-01
93,1.200000000000e+00,2.752121320344e+01,1.393933982822e+00
94,1.200000000000e+00,2.252121320344e+01,1.606066017178e+00
95,1.200000000000e+00,2.503000000000e+01,1.150000000000e+00
96,1.200000000000e+00,2.752121320344e+01,6.060660171780e-01
97,-4.939339828220e-01,2.247454415588e+01,0.000000000000e+00
98,1.500000000000e-01,2.496400000000e+01,0.000000000000e+00
99,7.060660171780e-01,2.747454415588e+01,0.000000000000e+00
100,4.939339828220e-01,2.247454415588e+01,0.000000000000e+00
101,-1.500000000000e-01,2.496400000000e+01,0.000000000000e+00
102,-7.060660171780e-01,2.747454415588e+01,0.000000000000e+00
103,-4.939339828220e-01,2.247454415588e+01,2.000000000000e+00
104,1.500000000000e-01,2.496400000000e+01,2.000000000000e+00
105,7.060660171780e-01,2.747454415588e+01,2.000000000000e+00
106,4.939339828220e-01,2.247454415588e+01,2.000000000000e+00
107,-1.500000000000e-01,2.496400000000e+01,2.000000000000e+00
108,-7.060660171780e-01,2.747454415588e+01,2.000000000000e+00
109,-1.200000000000e+00,3.252121320344e+01,3.939339828220e-01
110,-1.200000000000e+00,3.503000000000e+01,8.500000000000e-01
111,-1.200000000000e+00,3.752121320344e+01,1.393933982822e+00
112,-1.200000000000e+00,3.252121320344e+01,1.606066017178e+00
113,-1.200000000000e+00,3.503000000000e+01,1.150000000000e+00
114,-1.200000000000e+00,3.752121320344e+01,6.060660171780e-01
115,1.200000000000e+00,3.252121320344e+01,3.939339828220e-01
116,1.200000000000e+00,3.503000000000e+01,8.500000000000e-01
117,1.200000000000e+00,3.752121320344e+01,1.393933982822e+00
118,1.200000000000e+00,3.252121320344e+01,1.606066017178e+00
119,1.200000000000e+00,3.503000000000e+01,1.150000000000e+00
120,1.200000000000e+00,3.752121320344e+01,6.060660171780e-01
121,-4.939339828220e-01,3.247454415588e+01,0.000000000000e+00
122,1.500000000000e-01,3.496400000000e+01,0.000000000000e+00
123,7.060660171780e-01,3.747454415588e+01,0.000000000000e+00
124,4.939339828220e-01,3.247454415588e+01,0.000000000000e+00
125,-1.500000000000e-01,3.496400000000e+01,0.000000000000e+00
126,-7.060660171780e-01,3.747454415588e+01,0.000000000000e+00
127,-4.939339828220e-01,3.247454415588e+01,2.000000000000e+00
128,1.500000000000e-01,3.496400000000e+01,2.000000000000e+00
129,7.060660171780e-01,3.747454415588e+01,2.000000000000e+00
130,4.939339828220e-01,3.247454415588e+01,2.000000000000e+00
131,-1.500000000000e-01,3.496400000000e+01,2.000000000000e+00
132,-7.060660171780e-01,3.747454415588e+01,2.000000000000e+00
133,-1.200000000000e+00,4.252121320344e+01,3.939339828220e-01
134,-1.200000000000e+00,4.503000000000e+01,8.500000000000e-01
135,-1.200000000000e+00,4.752121320344e+01,1.393933982822e+00
136,-1.200000000000e+00,4.252121320344e+01,1.606066017178e+00
137,-1.200000000000e+00,4.503000000000e+01,1.150000000000e+00
138,-1.200000000000e+00,4.752121320344e+01,6.060660171780e-01
139,1.200000000000e+00,4.252121320344e+01,3.939339828220e-01
140,1.200000000000e+00,4.503000000000e+01,8.500000000000e-01
141,1.200000000000e+00,4.752121320344e+01,1.393933982822e+00
142,1.200000000000e+00,4.252121320344e+01,1.606066017178e+00
143,1.200000000000e+00,4.503000000000e+01,1.150000000000e+00
144,1.200000000000e+00,4.752121320344e+01,6.060660171780e-01
145,-4.939339828220e-01,4.247454415588e+01,0.000000000000e+00
146,1.500000000000e-01,4.496400000000e+01,0.000000000000e+00
147,7.060660171780e-01,4.747454415588e+01,0.000000000000e+00
148,4.939339828220e-01,4.247454415588e+01,0.000000000000e+00
149,-1.500000000000e-01,4.496400000000e+01,0.000000000000e+00
150,-7.060660171780e-01,4.747454415588e+01,0.000000000000e+00
151,-4.939339828220e-01,4.247454415588e+01,2.000000000000e+00
152,1.500000000000e-01,4.496400000000e+01,2.000000000000e+00
153,7.060660171780e-01,4.747454415588e+01,2.000000000000e+00
154,4.939339828220e-01,4.247454415588e+01,2.000000000000e+00
155,-1.500000000000e-01,4.496400000000e+01,2.000000000000e+00
156,-7.060660171780e-01,4.747454415588e+01,2.000000000000e+00
*ELEMENT,TYPE=B31,ELSET=ALL
1,1,25
2,25,5
3,2,26
4,26,6
5,3,27
6,27,7
7,4,28
8,28,8
9,5,29
10,29,9
11,6,30
12,30,10
13,7,31
14,31,11
15,8,32
16,32,12
17,9,13
18,10,14
19,11,15
20,12,16
21,13,33
22,33,34
23,34,35
24,35,17
25,14,36
26,36,37
27,37,38
28,38,18
29,15,39
30,39,40
31,40,41
32,41,19
33,16,42
34,42,43
35,43,44
36,44,20
37,17,21
38,18,22
39,19,23
40,20,24
41,1,45
42,45,2
43,3,46
44,46,4
45,1,47
46,47,3
47,2,48
48,48,4
49,5,49
50,49,6
51,7,50
52,50,8
53,5,51
54,51,7
55,6,52
56,52,8
57,9,53
58,53,10
59,11,54
60,54,12
61,9,55
62,55,11
63,10,56
64,56,12
65,13,57
66,57,14
67,15,58
68,58,16
69,13,59
70,59,15
71,14,60
72,60,16
73,17,61
74,61,18
75,19,62
76,62,20
77,17,63
78,63,19
79,18,64
80,64,20
81,21,65
82,65,22
83,23,66
84,66,24
85,21,67
86,67,23
87,22,68
88,68,24
89,1,69
90,69,7
91,3,70
92,70,5
93,2,71
94,71,8
95,4,72
96,72,6
97,1,73
98,73,6
99,2,74
100,74,5
101,3,75
102,75,8
103,4,76
104,76,7
105,5,77
106,77,11
107,7,78
108,78,9
109,6,79
110,79,12
111,8,80
112,80,10
113,5,81
114,81,10
115,6,82
116,82,9
117,7,83
118,83,12
119,8,84
120,84,11
121,9,85
122,85,86
123,86,87
124,87,15
125,11,88
126,88,89
127,89,90
128,90,13
129,10,91
130,91,92
131,92,93
132,93,16
133,12,94
134,94,95
135,95,96
136,96,14
137,9,97
138,97,98
139,98,99
140,99,14
141,10,100
142,100,101
143,101,102
144,102,13
145,11,103
146,103,104
147,104,105
148,105,16
149,12,106
150,106,107
151,107,108
152,108,15
153,13,109
154,109,110
155,110,111
156,111,19
157,15,112
158,112,113
159,113,114
160,114,17
161,14,115
162,115,116
163,116,117
164,117,20
165,16,118
166,118,119
167,119,120
168,120,18
169,13,121
170,121,122
171,122,123
172,123,18
173,14,124
174,124,125
175,125,126
176,126,17
177,15,127
178,127,128
179,128,129
180,129,20
181,16,130
182,130,131
183,131,132
184,132,19
185,17,133
186,133,134
187,134,135
188,135,23
189,19,136
190,136,137
191,137,138
192,138,21
193,18,139
194,139,140
195,140,141
196,141,24
197,20,142
198,142,143
199,143,144
200,144,22
201,17,145
202,145,146
203,146,147
204,147,22
205,18,148
206,148,149
207,149,150
208,150,21
209,19,151
210,151,152
211,152,153
212,153,24
213,20,154
214,154,155
215,155,156
216,156,23
*NSET,NSET=NALL,GENERATE
1,156,1
*NSET,NSET=LEFT
1,2,3,4
*NSET,NSET=RIGHT
21,22,23,24
*MATERIAL,NAME=STEEL
*ELASTIC
2.100000000000e+11,0.300000000000
*BEAM SECTION,ELSET=ALL,MATERIAL=STEEL,SECTION=RECT
6.000000000000e-02,4.000000000000e-02
0.371390676354,0.557086014531,0.742781352708
*BOUNDARY
LEFT,1,6,0.0
*STEP
*STATIC
*BOUNDARY
21,1,1,5.000000000000e-03
21,2,2,0.0
21,3,3,-6.000000000000e-03
*BOUNDARY
22,1,1,5.000000000000e-03
22,2,2,0.0
22,3,3,6.000000000000e-03
*BOUNDARY
23,1,1,-5.000000000000e-03
23,2,2,0.0
23,3,3,-6.000000000000e-03
*BOUNDARY
24,1,1,-5.000000000000e-03
24,2,2,0.0
24,3,3,6.000000000000e-03
*NODE FILE,NSET=NALL
U
*NODE PRINT,NSET=NALL
U
*NODE PRINT,NSET=RIGHT
RF
*EL PRINT,ELSET=ALL,TOTALS=YES
ELSE
*END STEP
