*HEADING
Normalized cross-passage space-truss torsion benchmark
*NODE
1,-1.200000000000e+00,0.000000000000e+00,0.000000000000e+00
2,1.200000000000e+00,0.000000000000e+00,0.000000000000e+00
3,-1.200000000000e+00,0.000000000000e+00,2.000000000000e+00
4,1.200000000000e+00,0.000000000000e+00,2.000000000000e+00
5,-1.200000000000e+00,1.000000000000e+01,0.000000000000e+00
6,1.200000000000e+00,1.000000000000e+01,0.000000000000e+00
7,-1.200000000000e+00,1.000000000000e+01,2.000000000000e+00
8,1.200000000000e+00,1.000000000000e+01,2.000000000000e+00
9,-1.200000000000e+00,2.000000000000e+01,0.000000000000e+00
10,1.200000000000e+00,2.000000000000e+01,0.000000000000e+00
11,-1.200000000000e+00,2.000000000000e+01,2.000000000000e+00
12,1.200000000000e+00,2.000000000000e+01,2.000000000000e+00
13,-1.200000000000e+00,3.000000000000e+01,0.000000000000e+00
14,1.200000000000e+00,3.000000000000e+01,0.000000000000e+00
15,-1.200000000000e+00,3.000000000000e+01,2.000000000000e+00
16,1.200000000000e+00,3.000000000000e+01,2.000000000000e+00
17,-1.200000000000e+00,4.000000000000e+01,0.000000000000e+00
18,1.200000000000e+00,4.000000000000e+01,0.000000000000e+00
19,-1.200000000000e+00,4.000000000000e+01,2.000000000000e+00
20,1.200000000000e+00,4.000000000000e+01,2.000000000000e+00
21,-1.200000000000e+00,5.000000000000e+01,0.000000000000e+00
22,1.200000000000e+00,5.000000000000e+01,0.000000000000e+00
23,-1.200000000000e+00,5.000000000000e+01,2.000000000000e+00
24,1.200000000000e+00,5.000000000000e+01,2.000000000000e+00
25,-1.200000000000e+00,2.500000000000e+00,-1.060660171780e-01
26,-1.200000000000e+00,5.000000000000e+00,-1.500000000000e-01
27,-1.200000000000e+00,7.500000000000e+00,-1.060660171780e-01
28,1.200000000000e+00,2.500000000000e+00,1.060660171780e-01
29,1.200000000000e+00,5.000000000000e+00,1.500000000000e-01
30,1.200000000000e+00,7.500000000000e+00,1.060660171780e-01
31,-1.200000000000e+00,2.500000000000e+00,1.893933982822e+00
32,-1.200000000000e+00,5.000000000000e+00,1.850000000000e+00
33,-1.200000000000e+00,7.500000000000e+00,1.893933982822e+00
34,1.200000000000e+00,2.500000000000e+00,2.106066017178e+00
35,1.200000000000e+00,5.000000000000e+00,2.150000000000e+00
36,1.200000000000e+00,7.500000000000e+00,2.106066017178e+00
37,-1.200000000000e+00,2.250000000000e+01,-1.060660171780e-01
38,-1.200000000000e+00,2.500000000000e+01,-1.500000000000e-01
39,-1.200000000000e+00,2.750000000000e+01,-1.060660171780e-01
40,1.200000000000e+00,2.250000000000e+01,1.060660171780e-01
41,1.200000000000e+00,2.500000000000e+01,1.500000000000e-01
42,1.200000000000e+00,2.750000000000e+01,1.060660171780e-01
43,-1.200000000000e+00,2.250000000000e+01,1.893933982822e+00
44,-1.200000000000e+00,2.500000000000e+01,1.850000000000e+00
45,-1.200000000000e+00,2.750000000000e+01,1.893933982822e+00
46,1.200000000000e+00,2.250000000000e+01,2.106066017178e+00
47,1.200000000000e+00,2.500000000000e+01,2.150000000000e+00
48,1.200000000000e+00,2.750000000000e+01,2.106066017178e+00
49,-1.200000000000e+00,4.500000000000e+01,-1.500000000000e-01
50,1.200000000000e+00,4.500000000000e+01,1.500000000000e-01
51,-1.200000000000e+00,4.500000000000e+01,1.850000000000e+00
52,1.200000000000e+00,4.500000000000e+01,2.150000000000e+00
53,0.000000000000e+00,-3.600000000000e-02,0.000000000000e+00
54,0.000000000000e+00,3.600000000000e-02,2.000000000000e+00
55,-1.200000000000e+00,3.000000000000e-02,1.000000000000e+00
56,1.200000000000e+00,-3.000000000000e-02,1.000000000000e+00
57,0.000000000000e+00,1.996400000000e+01,0.000000000000e+00
58,0.000000000000e+00,2.003600000000e+01,2.000000000000e+00
59,-1.200000000000e+00,2.003000000000e+01,1.000000000000e+00
60,1.200000000000e+00,1.997000000000e+01,1.000000000000e+00
61,0.000000000000e+00,2.996400000000e+01,0.000000000000e+00
62,0.000000000000e+00,3.003600000000e+01,2.000000000000e+00
63,-1.200000000000e+00,3.003000000000e+01,1.000000000000e+00
64,1.200000000000e+00,2.997000000000e+01,1.000000000000e+00
65,-6.000000000000e-01,4.997454415588e+01,0.000000000000e+00
66,0.000000000000e+00,4.996400000000e+01,0.000000000000e+00
67,6.000000000000e-01,4.997454415588e+01,0.000000000000e+00
68,-6.000000000000e-01,5.002545584412e+01,2.000000000000e+00
69,0.000000000000e+00,5.003600000000e+01,2.000000000000e+00
70,6.000000000000e-01,5.002545584412e+01,2.000000000000e+00
71,-1.200000000000e+00,5.002121320344e+01,5.000000000000e-01
72,-1.200000000000e+00,5.003000000000e+01,1.000000000000e+00
73,-1.200000000000e+00,5.002121320344e+01,1.500000000000e+00
74,1.200000000000e+00,4.997878679656e+01,5.000000000000e-01
75,1.200000000000e+00,4.997000000000e+01,1.000000000000e+00
76,1.200000000000e+00,4.997878679656e+01,1.500000000000e+00
77,-1.200000000000e+00,1.261480502971e+00,1.925974851452e-01
78,-1.200000000000e+00,2.521213203436e+00,3.939339828220e-01
79,-1.200000000000e+00,3.777716385975e+00,6.114180701233e-01
80,-1.200000000000e+00,5.030000000000e+00,8.500000000000e-01
81,-1.200000000000e+00,6.277716385975e+00,1.111418070123e+00
82,-1.200000000000e+00,7.521213203436e+00,1.393933982822e+00
83,-1.200000000000e+00,8.761480502971e+00,1.692597485145e+00
84,-1.200000000000e+00,1.261480502971e+00,1.807402514855e+00
85,-1.200000000000e+00,2.521213203436e+00,1.606066017178e+00
86,-1.200000000000e+00,3.777716385975e+00,1.388581929877e+00
87,-1.200000000000e+00,5.030000000000e+00,1.150000000000e+00
88,-1.200000000000e+00,6.277716385975e+00,8.885819298767e-01
89,-1.200000000000e+00,7.521213203436e+00,6.060660171780e-01
90,-1.200000000000e+00,8.761480502971e+00,3.074025148548e-01
91,1.200000000000e+00,1.261480502971e+00,1.925974851452e-01
92,1.200000000000e+00,2.521213203436e+00,3.939339828220e-01
93,1.200000000000e+00,3.777716385975e+00,6.114180701233e-01
94,1.200000000000e+00,5.030000000000e+00,8.500000000000e-01
95,1.200000000000e+00,6.277716385975e+00,1.111418070123e+00
96,1.200000000000e+00,7.521213203436e+00,1.393933982822e+00
97,1.200000000000e+00,8.761480502971e+00,1.692597485145e+00
98,1.200000000000e+00,1.261480502971e+00,1.807402514855e+00
99,1.200000000000e+00,2.521213203436e+00,1.606066017178e+00
100,1.200000000000e+00,3.777716385975e+00,1.388581929877e+00
101,1.200000000000e+00,5.030000000000e+00,1.150000000000e+00
102,1.200000000000e+00,6.277716385975e+00,8.885819298767e-01
103,1.200000000000e+00,7.521213203436e+00,6.060660171780e-01
104,1.200000000000e+00,8.761480502971e+00,3.074025148548e-01
105,-8.425974851452e-01,1.236223396435e+00,0.000000000000e+00
106,-4.939339828220e-01,2.474544155877e+00,0.000000000000e+00
107,-1.614180701233e-01,3.716740336830e+00,0.000000000000e+00
108,1.500000000000e-01,4.964000000000e+00,0.000000000000e+00
109,4.385819298767e-01,6.216740336830e+00,0.000000000000e+00
110,7.060660171780e-01,7.474544155877e+00,0.000000000000e+00
111,9.574025148548e-01,8.736223396435e+00,0.000000000000e+00
112,8.425974851452e-01,1.236223396435e+00,0.000000000000e+00
113,4.939339828220e-01,2.474544155877e+00,0.000000000000e+00
114,1.614180701233e-01,3.716740336830e+00,0.000000000000e+00
115,-1.500000000000e-01,4.964000000000e+00,0.000000000000e+00
116,-4.385819298767e-01,6.216740336830e+00,0.000000000000e+00
117,-7.060660171780e-01,7.474544155877e+00,0.000000000000e+00
118,-9.574025148548e-01,8.736223396435e+00,0.000000000000e+00
119,-8.425974851452e-01,1.236223396435e+00,2.000000000000e+00
120,-4.939339828220e-01,2.474544155877e+00,2.000000000000e+00
121,-1.614180701233e-01,3.716740336830e+00,2.000000000000e+00
122,1.500000000000e-01,4.964000000000e+00,2.000000000000e+00
123,4.385819298767e-01,6.216740336830e+00,2.000000000000e+00
124,7.060660171780e-01,7.474544155877e+00,2.000000000000e+00
125,9.574025148548e-01,8.736223396435e+00,2.000000000000e+00
126,8.425974851452e-01,1.236223396435e+00,2.000000000000e+00
127,4.939339828220e-01,2.474544155877e+00,2.000000000000e+00
128,1.614180701233e-01,3.716740336830e+00,2.000000000000e+00
129,-1.500000000000e-01,4.964000000000e+00,2.000000000000e+00
130,-4.385819298767e-01,6.216740336830e+00,2.000000000000e+00
131,-7.060660171780e-01,7.474544155877e+00,2.000000000000e+00
132,-9.574025148548e-01,8.736223396435e+00,2.000000000000e+00
133,-1.200000000000e+00,1.126148050297e+01,1.925974851452e-01
134,-1.200000000000e+00,1.252121320344e+01,3.939339828220e-01
135,-1.200000000000e+00,1.377771638598e+01,6.114180701233e-01
136,-1.200000000000e+00,1.503000000000e+01,8.500000000000e-01
137,-1.200000000000e+00,1.627771638598e+01,1.111418070123e+00
138,-1.200000000000e+00,1.752121320344e+01,1.393933982822e+00
139,-1.200000000000e+00,1.876148050297e+01,1.692597485145e+00
140,-1.200000000000e+00,1.126148050297e+01,1.807402514855e+00
141,-1.200000000000e+00,1.252121320344e+01,1.606066017178e+00
142,-1.200000000000e+00,1.377771638598e+01,1.388581929877e+00
143,-1.200000000000e+00,1.503000000000e+01,1.150000000000e+00
144,-1.200000000000e+00,1.627771638598e+01,8.885819298767e-01
145,-1.200000000000e+00,1.752121320344e+01,6.060660171780e-01
146,-1.200000000000e+00,1.876148050297e+01,3.074025148548e-01
147,1.200000000000e+00,1.126148050297e+01,1.925974851452e-01
148,1.200000000000e+00,1.252121320344e+01,3.939339828220e-01
149,1.200000000000e+00,1.377771638598e+01,6.114180701233e-01
150,1.200000000000e+00,1.503000000000e+01,8.500000000000e-01
151,1.200000000000e+00,1.627771638598e+01,1.111418070123e+00
152,1.200000000000e+00,1.752121320344e+01,1.393933982822e+00
153,1.200000000000e+00,1.876148050297e+01,1.692597485145e+00
154,1.200000000000e+00,1.126148050297e+01,1.807402514855e+00
155,1.200000000000e+00,1.252121320344e+01,1.606066017178e+00
156,1.200000000000e+00,1.377771638598e+01,1.388581929877e+00
157,1.200000000000e+00,1.503000000000e+01,1.150000000000e+00
158,1.200000000000e+00,1.627771638598e+01,8.885819298767e-01
159,1.200000000000e+00,1.752121320344e+01,6.060660171780e-01
160,1.200000000000e+00,1.876148050297e+01,3.074025148548e-01
161,-8.425974851452e-01,1.123622339643e+01,0.000000000000e+00
162,-4.939339828220e-01,1.247454415588e+01,0.000000000000e+00
163,-1.614180701233e-01,1.371674033683e+01,0.000000000000e+00
164,1.500000000000e-01,1.496400000000e+01,0.000000000000e+00
165,4.385819298767e-01,1.621674033683e+01,0.000000000000e+00
166,7.060660171780e-01,1.747454415588e+01,0.000000000000e+00
167,9.574025148548e-01,1.873622339643e+01,0.000000000000e+00
168,8.425974851452e-01,1.123622339643e+01,0.000000000000e+00
169,4.939339828220e-01,1.247454415588e+01,0.000000000000e+00
170,1.614180701233e-01,1.371674033683e+01,0.000000000000e+00
171,-1.500000000000e-01,1.496400000000e+01,0.000000000000e+00
172,-4.385819298767e-01,1.621674033683e+01,0.000000000000e+00
173,-7.060660171780e-01,1.747454415588e+01,0.000000000000e+00
174,-9.574025148548e-01,1.873622339643e+01,0.000000000000e+00
175,-8.425974851452e-01,1.123622339643e+01,2.000000000000e+00
176,-4.939339828220e-01,1.247454415588e+01,2.000000000000e+00
177,-1.614180701233e-01,1.371674033683e+01,2.000000000000e+00
178,1.500000000000e-01,1.496400000000e+01,2.000000000000e+00
179,4.385819298767e-01,1.621674033683e+01,2.000000000000e+00
180,7.060660171780e-01,1.747454415588e+01,2.000000000000e+00
181,9.574025148548e-01,1.873622339643e+01,2.000000000000e+00
182,8.425974851452e-01,1.123622339643e+01,2.000000000000e+00
183,4.939339828220e-01,1.247454415588e+01,2.000000000000e+00
184,1.614180701233e-01,1.371674033683e+01,2.000000000000e+00
185,-1.500000000000e-01,1.496400000000e+01,2.000000000000e+00
186,-4.385819298767e-01,1.621674033683e+01,2.000000000000e+00
187,-7.060660171780e-01,1.747454415588e+01,2.000000000000e+00
188,-9.574025148548e-01,1.873622339643e+01,2.000000000000e+00
*ELEMENT,TYPE=B31,ELSET=ALL
1,1,25
2,25,26
3,26,27
4,27,5
5,2,28
6,28,29
7,29,30
8,30,6
9,3,31
10,31,32
11,32,33
12,33,7
13,4,34
14,34,35
15,35,36
16,36,8
17,5,9
18,6,10
19,7,11
20,8,12
21,9,37
22,37,38
23,38,39
24,39,13
25,10,40
26,40,41
27,41,42
28,42,14
29,11,43
30,43,44
31,44,45
32,45,15
33,12,46
34,46,47
35,47,48
36,48,16
37,13,17
38,14,18
39,15,19
40,16,20
41,17,49
42,49,21
43,18,50
44,50,22
45,19,51
46,51,23
47,20,52
48,52,24
49,1,53
50,53,2
51,3,54
52,54,4
53,1,55
54,55,3
55,2,56
56,56,4
57,5,6
58,7,8
59,5,7
60,6,8
61,9,57
62,57,10
63,11,58
64,58,12
65,9,59
66,59,11
67,10,60
68,60,12
69,13,61
70,61,14
71,15,62
72,62,16
73,13,63
74,63,15
75,14,64
76,64,16
77,17,18
78,19,20
79,17,19
80,18,20
81,21,65
82,65,66
83,66,67
84,67,22
85,23,68
86,68,69
87,69,70
88,70,24
89,21,71
90,71,72
91,72,73
92,73,23
93,22,74
94,74,75
95,75,76
96,76,24
97,1,77
98,77,78
99,78,79
100,79,80
101,80,81
102,81,82
103,82,83
104,83,7
105,3,84
106,84,85
107,85,86
108,86,87
109,87,88
110,88,89
111,89,90
112,90,5
113,2,91
114,91,92
115,92,93
116,93,94
117,94,95
118,95,96
119,96,97
120,97,8
121,4,98
122,98,99
123,99,100
124,100,101
125,101,102
126,102,103
127,103,104
128,104,6
129,1,105
130,105,106
131,106,107
132,107,108
133,108,109
134,109,110
135,110,111
136,111,6
137,2,112
138,112,113
139,113,114
140,114,115
141,115,116
142,116,117
143,117,118
144,118,5
145,3,119
146,119,120
147,120,121
148,121,122
149,122,123
150,123,124
151,124,125
152,125,8
153,4,126
154,126,127
155,127,128
156,128,129
157,129,130
158,130,131
159,131,132
160,132,7
161,5,133
162,133,134
163,134,135
164,135,136
165,136,137
166,137,138
167,138,139
168,139,11
169,7,140
170,140,141
171,141,142
172,142,143
173,143,144
174,144,145
175,145,146
176,146,9
177,6,147
178,147,148
179,148,149
180,149,150
181,150,151
182,151,152
183,152,153
184,153,12
185,8,154
186,154,155
187,155,156
188,156,157
189,157,158
190,158,159
191,159,160
192,160,10
193,5,161
194,161,162
195,162,163
196,163,164
197,164,165
198,165,166
199,166,167
200,167,10
201,6,168
202,168,169
203,169,170
204,170,171
205,171,172
206,172,173
207,173,174
208,174,9
209,7,175
210,175,176
211,176,177
212,177,178
213,178,179
214,179,180
215,180,181
216,181,12
217,8,182
218,182,183
219,183,184
220,184,185
221,185,186
222,186,187
223,187,188
224,188,11
225,9,15
226,11,13
227,10,16
228,12,14
229,9,14
230,10,13
231,11,16
232,12,15
233,13,19
234,15,17
235,14,20
236,16,18
237,13,18
238,14,17
239,15,20
240,16,19
241,17,23
242,19,21
243,18,24
244,20,22
245,17,22
246,18,21
247,19,24
248,20,23
*NSET,NSET=NALL,GENERATE
1,188,1
*NSET,NSET=LEFT
1,2,3,4
*NSET,NSET=RIGHT
21,22,23,24
*MATERIAL,NAME=STEEL
*ELASTIC
2.100000000000e+11,0.300000000000
*BEAM SECTION,ELSET=ALL,MATERIAL=STEEL,SECTION=RECT
6.000000000000e-02,4.000000000000e-02
0.371390676354,0.557086014531,0.742781352708
*BOUNDARY
LEFT,1,6,0.0
*STEP
*STATIC
*BOUNDARY
21,1,1,5.000000000000e-03
21,2,2,0.0
21,3,3,-6.000000000000e-03
*BOUNDARY
22,1,1,5.000000000000e-03
22,2,2,0.0
22,3,3,6.000000000000e-03
*BOUNDARY
23,1,1,-5.000000000000e-03
23,2,2,0.0
23,3,3,-6.000000000000e-03
*BOUNDARY
24,1,1,-5.000000000000e-03
24,2,2,0.0
24,3,3,6.000000000000e-03
*NODE FILE,NSET=NALL
U
*NODE PRINT,NSET=NALL
U
*NODE PRINT,NSET=RIGHT
RF
*EL PRINT,ELSET=ALL,TOTALS=YES
ELSE
*END STEP
