*HEADING
T10 S-LIN t10_s-lin_rev1 conforming C3D8 frozen T
units: mm, N, s, MPa, t. Illustrative steel, not a coupon card.
beam=T10 case=S-LIN job=t10_s-lin_rev1 type=C3D8
E=210000.0 nu=0.3 fy=235.0 load=-5000.0 N on TIP_TOP
*NODE, NSET=NALL
1, 0, -10, 0
2, 55.8877145789, -10, 2.23550858316
3, 55.8877145789, 0, 2.23550858316
4, 0, 0, 0
5, 0, -10, 36
6, 55.8877145789, -10, 37.7884068665
7, 55.8877145789, 0, 37.7884068665
8, 0, 0, 36
9, 0, -10, 72
10, 55.8877145789, -10, 73.3413051499
11, 55.8877145789, 0, 73.3413051499
12, 0, 0, 72
13, 0, -10, 108
14, 55.8877145789, -10, 108.894203433
15, 55.8877145789, 0, 108.894203433
16, 0, 0, 108
17, 0, -10, 144
18, 55.8877145789, -10, 144.447101717
19, 55.8877145789, 0, 144.447101717
20, 0, 0, 144
21, 0, -10, 180
22, 55.8877145789, -10, 180
23, 55.8877145789, 0, 180
24, 0, 0, 180
25, 55.8877145789, 10, 2.23550858316
26, 0, 10, 0
27, 55.8877145789, 10, 37.7884068665
28, 0, 10, 36
29, 55.8877145789, 10, 73.3413051499
30, 0, 10, 72
31, 55.8877145789, 10, 108.894203433
32, 0, 10, 108
33, 55.8877145789, 10, 144.447101717
34, 0, 10, 144
35, 55.8877145789, 10, 180
36, 0, 10, 180
37, 0, -70, 180
38, 55.8877145789, -72.6546664425, 180
39, 55.8877145789, -56.9909998319, 180
40, 0, -55, 180
41, 0, -70, 190
42, 55.8877145789, -72.6546664425, 190
43, 55.8877145789, -56.9909998319, 190
44, 0, -55, 190
45, 0, -70, 200
46, 55.8877145789, -72.6546664425, 200
47, 55.8877145789, -56.9909998319, 200
48, 0, -55, 200
49, 55.8877145789, -41.3273332212, 180
50, 0, -40, 180
51, 55.8877145789, -41.3273332212, 190
52, 0, -40, 190
53, 55.8877145789, -41.3273332212, 200
54, 0, -40, 200
55, 55.8877145789, -25.6636666106, 180
56, 0, -25, 180
57, 55.8877145789, -25.6636666106, 190
58, 0, -25, 190
59, 55.8877145789, -25.6636666106, 200
60, 0, -25, 200
61, 55.8877145789, -10, 190
62, 0, -10, 190
63, 55.8877145789, -10, 200
64, 0, -10, 200
65, 55.8877145789, 0, 190
66, 0, 0, 190
67, 55.8877145789, 0, 200
68, 0, 0, 200
69, 55.8877145789, 10, 190
70, 0, 10, 190
71, 55.8877145789, 10, 200
72, 0, 10, 200
73, 55.8877145789, 50.4815439245, 180
74, 0, 51.25, 180
75, 55.8877145789, 50.4815439245, 190
76, 0, 51.25, 190
77, 55.8877145789, 50.4815439245, 200
78, 0, 51.25, 200
79, 55.8877145789, 90.9630878491, 180
80, 0, 92.5, 180
81, 55.8877145789, 90.9630878491, 190
82, 0, 92.5, 190
83, 55.8877145789, 90.9630878491, 200
84, 0, 92.5, 200
85, 55.8877145789, 131.444631774, 180
86, 0, 133.75, 180
87, 55.8877145789, 131.444631774, 190
88, 0, 133.75, 190
89, 55.8877145789, 131.444631774, 200
90, 0, 133.75, 200
91, 55.8877145789, 171.926175698, 180
92, 0, 175, 180
93, 55.8877145789, 171.926175698, 190
94, 0, 175, 190
95, 55.8877145789, 171.926175698, 200
96, 0, 175, 200
97, 122.764710493, -10, 4.91058841972
98, 122.764710493, 0, 4.91058841972
99, 122.764710493, -10, 39.9284707358
100, 122.764710493, 0, 39.9284707358
101, 122.764710493, -10, 74.9463530518
102, 122.764710493, 0, 74.9463530518
103, 122.764710493, -10, 109.964235368
104, 122.764710493, 0, 109.964235368
105, 122.764710493, -10, 144.982117684
106, 122.764710493, 0, 144.982117684
107, 122.764710493, -10, 180
108, 122.764710493, 0, 180
109, 122.764710493, 10, 4.91058841972
110, 122.764710493, 10, 39.9284707358
111, 122.764710493, 10, 74.9463530518
112, 122.764710493, 10, 109.964235368
113, 122.764710493, 10, 144.982117684
114, 122.764710493, 10, 180
115, 122.764710493, -75.8313237484, 180
116, 122.764710493, -59.3734928113, 180
117, 122.764710493, -75.8313237484, 190
118, 122.764710493, -59.3734928113, 190
119, 122.764710493, -75.8313237484, 200
120, 122.764710493, -59.3734928113, 200
121, 122.764710493, -42.9156618742, 180
122, 122.764710493, -42.9156618742, 190
123, 122.764710493, -42.9156618742, 200
124, 122.764710493, -26.4578309371, 180
125, 122.764710493, -26.4578309371, 190
126, 122.764710493, -26.4578309371, 200
127, 122.764710493, -10, 190
128, 122.764710493, -10, 200
129, 122.764710493, 0, 190
130, 122.764710493, 0, 200
131, 122.764710493, 10, 190
132, 122.764710493, 10, 200
133, 122.764710493, 49.5619852307, 180
134, 122.764710493, 49.5619852307, 190
135, 122.764710493, 49.5619852307, 200
136, 122.764710493, 89.1239704614, 180
137, 122.764710493, 89.1239704614, 190
138, 122.764710493, 89.1239704614, 200
139, 122.764710493, 128.685955692, 180
140, 122.764710493, 128.685955692, 190
141, 122.764710493, 128.685955692, 200
142, 122.764710493, 168.247940923, 180
143, 122.764710493, 168.247940923, 190
144, 122.764710493, 168.247940923, 200
145, 183.265526521, -10, 7.33062106084
146, 183.265526521, 0, 7.33062106084
147, 183.265526521, -10, 41.8644968487
148, 183.265526521, 0, 41.8644968487
149, 183.265526521, -10, 76.3983726365
150, 183.265526521, 0, 76.3983726365
151, 183.265526521, -10, 110.932248424
152, 183.265526521, 0, 110.932248424
153, 183.265526521, -10, 145.466124212
154, 183.265526521, 0, 145.466124212
155, 183.265526521, -10, 180
156, 183.265526521, 0, 180
157, 183.265526521, 10, 7.33062106084
158, 183.265526521, 10, 41.8644968487
159, 183.265526521, 10, 76.3983726365
160, 183.265526521, 10, 110.932248424
161, 183.265526521, 10, 145.466124212
162, 183.265526521, 10, 180
163, 183.265526521, -78.7051125097, 180
164, 183.265526521, -61.5288343823, 180
165, 183.265526521, -78.7051125097, 190
166, 183.265526521, -61.5288343823, 190
167, 183.265526521, -78.7051125097, 200
168, 183.265526521, -61.5288343823, 200
169, 183.265526521, -44.3525562549, 180
170, 183.265526521, -44.3525562549, 190
171, 183.265526521, -44.3525562549, 200
172, 183.265526521, -27.1762781274, 180
173, 183.265526521, -27.1762781274, 190
174, 183.265526521, -27.1762781274, 200
175, 183.265526521, -10, 190
176, 183.265526521, -10, 200
177, 183.265526521, 0, 190
178, 183.265526521, 0, 200
179, 183.265526521, 10, 190
180, 183.265526521, 10, 200
181, 183.265526521, 48.7300990103, 180
182, 183.265526521, 48.7300990103, 190
183, 183.265526521, 48.7300990103, 200
184, 183.265526521, 87.4601980207, 180
185, 183.265526521, 87.4601980207, 190
186, 183.265526521, 87.4601980207, 200
187, 183.265526521, 126.190297031, 180
188, 183.265526521, 126.190297031, 190
189, 183.265526521, 126.190297031, 200
190, 183.265526521, 164.920396041, 180
191, 183.265526521, 164.920396041, 190
192, 183.265526521, 164.920396041, 200
193, 243.282612949, -10, 9.73130451794
194, 243.282612949, 0, 9.73130451794
195, 243.282612949, -10, 43.7850436144
196, 243.282612949, 0, 43.7850436144
197, 243.282612949, -10, 77.8387827108
198, 243.282612949, 0, 77.8387827108
199, 243.282612949, -10, 111.892521807
200, 243.282612949, 0, 111.892521807
201, 243.282612949, -10, 145.946260904
202, 243.282612949, 0, 145.946260904
203, 243.282612949, -10, 180
204, 243.282612949, 0, 180
205, 243.282612949, 10, 9.73130451794
206, 243.282612949, 10, 43.7850436144
207, 243.282612949, 10, 77.8387827108
208, 243.282612949, 10, 111.892521807
209, 243.282612949, 10, 145.946260904
210, 243.282612949, 10, 180
211, 243.282612949, -81.5559241151, 180
212, 243.282612949, -63.6669430863, 180
213, 243.282612949, -81.5559241151, 190
214, 243.282612949, -63.6669430863, 190
215, 243.282612949, -81.5559241151, 200
216, 243.282612949, -63.6669430863, 200
217, 243.282612949, -45.7779620575, 180
218, 243.282612949, -45.7779620575, 190
219, 243.282612949, -45.7779620575, 200
220, 243.282612949, -27.8889810288, 180
221, 243.282612949, -27.8889810288, 190
222, 243.282612949, -27.8889810288, 200
223, 243.282612949, -10, 190
224, 243.282612949, -10, 200
225, 243.282612949, 0, 190
226, 243.282612949, 0, 200
227, 243.282612949, 10, 190
228, 243.282612949, 10, 200
229, 243.282612949, 47.904864072, 180
230, 243.282612949, 47.904864072, 190
231, 243.282612949, 47.904864072, 200
232, 243.282612949, 85.8097281439, 180
233, 243.282612949, 85.8097281439, 190
234, 243.282612949, 85.8097281439, 200
235, 243.282612949, 123.714592216, 180
236, 243.282612949, 123.714592216, 190
237, 243.282612949, 123.714592216, 200
238, 243.282612949, 161.619456288, 180
239, 243.282612949, 161.619456288, 190
240, 243.282612949, 161.619456288, 200
241, 302.823658842, -10, 12.1129463537
242, 302.823658842, 0, 12.1129463537
243, 302.823658842, -10, 45.6903570829
244, 302.823658842, 0, 45.6903570829
245, 302.823658842, -10, 79.2677678122
246, 302.823658842, 0, 79.2677678122
247, 302.823658842, -10, 112.845178541
248, 302.823658842, 0, 112.845178541
249, 302.823658842, -10, 146.422589271
250, 302.823658842, 0, 146.422589271
251, 302.823658842, -10, 180
252, 302.823658842, 0, 180
253, 302.823658842, 10, 12.1129463537
254, 302.823658842, 10, 45.6903570829
255, 302.823658842, 10, 79.2677678122
256, 302.823658842, 10, 112.845178541
257, 302.823658842, 10, 146.422589271
258, 302.823658842, 10, 180
259, 302.823658842, -84.384123795, 180
260, 302.823658842, -65.7880928462, 180
261, 302.823658842, -84.384123795, 190
262, 302.823658842, -65.7880928462, 190
263, 302.823658842, -84.384123795, 200
264, 302.823658842, -65.7880928462, 200
265, 302.823658842, -47.1920618975, 180
266, 302.823658842, -47.1920618975, 190
267, 302.823658842, -47.1920618975, 200
268, 302.823658842, -28.5960309487, 180
269, 302.823658842, -28.5960309487, 190
270, 302.823658842, -28.5960309487, 200
271, 302.823658842, -10, 190
272, 302.823658842, -10, 200
273, 302.823658842, 0, 190
274, 302.823658842, 0, 200
275, 302.823658842, 10, 190
276, 302.823658842, 10, 200
277, 302.823658842, 47.0861746909, 180
278, 302.823658842, 47.0861746909, 190
279, 302.823658842, 47.0861746909, 200
280, 302.823658842, 84.1723493819, 180
281, 302.823658842, 84.1723493819, 190
282, 302.823658842, 84.1723493819, 200
283, 302.823658842, 121.258524073, 180
284, 302.823658842, 121.258524073, 190
285, 302.823658842, 121.258524073, 200
286, 302.823658842, 158.344698764, 180
287, 302.823658842, 158.344698764, 190
288, 302.823658842, 158.344698764, 200
289, 361.896171143, -10, 14.4758468457
290, 361.896171143, 0, 14.4758468457
291, 361.896171143, -10, 47.5806774766
292, 361.896171143, 0, 47.5806774766
293, 361.896171143, -10, 80.6855081074
294, 361.896171143, 0, 80.6855081074
295, 361.896171143, -10, 113.790338738
296, 361.896171143, 0, 113.790338738
297, 361.896171143, -10, 146.895169369
298, 361.896171143, 0, 146.895169369
299, 361.896171143, -10, 180
300, 361.896171143, 0, 180
301, 361.896171143, 10, 14.4758468457
302, 361.896171143, 10, 47.5806774766
303, 361.896171143, 10, 80.6855081074
304, 361.896171143, 10, 113.790338738
305, 361.896171143, 10, 146.895169369
306, 361.896171143, 10, 180
307, 361.896171143, -87.1900681293, 180
308, 361.896171143, -67.892551097, 180
309, 361.896171143, -87.1900681293, 190
310, 361.896171143, -67.892551097, 190
311, 361.896171143, -87.1900681293, 200
312, 361.896171143, -67.892551097, 200
313, 361.896171143, -48.5950340646, 180
314, 361.896171143, -48.5950340646, 190
315, 361.896171143, -48.5950340646, 200
316, 361.896171143, -29.2975170323, 180
317, 361.896171143, -29.2975170323, 190
318, 361.896171143, -29.2975170323, 200
319, 361.896171143, -10, 190
320, 361.896171143, -10, 200
321, 361.896171143, 0, 190
322, 361.896171143, 0, 200
323, 361.896171143, 10, 190
324, 361.896171143, 10, 200
325, 361.896171143, 46.2739276468, 180
326, 361.896171143, 46.2739276468, 190
327, 361.896171143, 46.2739276468, 200
328, 361.896171143, 82.5478552936, 180
329, 361.896171143, 82.5478552936, 190
330, 361.896171143, 82.5478552936, 200
331, 361.896171143, 118.82178294, 180
332, 361.896171143, 118.82178294, 190
333, 361.896171143, 118.82178294, 200
334, 361.896171143, 155.095710587, 180
335, 361.896171143, 155.095710587, 190
336, 361.896171143, 155.095710587, 200
337, 420.507480385, -10, 16.8202992154
338, 420.507480385, 0, 16.8202992154
339, 420.507480385, -10, 49.4562393723
340, 420.507480385, 0, 49.4562393723
341, 420.507480385, -10, 82.0921795292
342, 420.507480385, 0, 82.0921795292
343, 420.507480385, -10, 114.728119686
344, 420.507480385, 0, 114.728119686
345, 420.507480385, -10, 147.364059843
346, 420.507480385, 0, 147.364059843
347, 420.507480385, -10, 180
348, 420.507480385, 0, 180
349, 420.507480385, 10, 16.8202992154
350, 420.507480385, 10, 49.4562393723
351, 420.507480385, 10, 82.0921795292
352, 420.507480385, 10, 114.728119686
353, 420.507480385, 10, 147.364059843
354, 420.507480385, 10, 180
355, 420.507480385, -89.9741053183, 180
356, 420.507480385, -69.9805789887, 180
357, 420.507480385, -89.9741053183, 190
358, 420.507480385, -69.9805789887, 190
359, 420.507480385, -89.9741053183, 200
360, 420.507480385, -69.9805789887, 200
361, 420.507480385, -49.9870526591, 180
362, 420.507480385, -49.9870526591, 190
363, 420.507480385, -49.9870526591, 200
364, 420.507480385, -29.9935263296, 180
365, 420.507480385, -29.9935263296, 190
366, 420.507480385, -29.9935263296, 200
367, 420.507480385, -10, 190
368, 420.507480385, -10, 200
369, 420.507480385, 0, 190
370, 420.507480385, 0, 200
371, 420.507480385, 10, 190
372, 420.507480385, 10, 200
373, 420.507480385, 45.4680221447, 180
374, 420.507480385, 45.4680221447, 190
375, 420.507480385, 45.4680221447, 200
376, 420.507480385, 80.9360442894, 180
377, 420.507480385, 80.9360442894, 190
378, 420.507480385, 80.9360442894, 200
379, 420.507480385, 116.404066434, 180
380, 420.507480385, 116.404066434, 190
381, 420.507480385, 116.404066434, 200
382, 420.507480385, 151.872088579, 180
383, 420.507480385, 151.872088579, 190
384, 420.507480385, 151.872088579, 200
385, 478.664746178, -10, 19.1465898471
386, 478.664746178, 0, 19.1465898471
387, 478.664746178, -10, 51.3172718777
388, 478.664746178, 0, 51.3172718777
389, 478.664746178, -10, 83.4879539083
390, 478.664746178, 0, 83.4879539083
391, 478.664746178, -10, 115.658635939
392, 478.664746178, 0, 115.658635939
393, 478.664746178, -10, 147.829317969
394, 478.664746178, 0, 147.829317969
395, 478.664746178, -10, 180
396, 478.664746178, 0, 180
397, 478.664746178, 10, 19.1465898471
398, 478.664746178, 10, 51.3172718777
399, 478.664746178, 10, 83.4879539083
400, 478.664746178, 10, 115.658635939
401, 478.664746178, 10, 147.829317969
402, 478.664746178, 10, 180
403, 478.664746178, -92.7365754435, 180
404, 478.664746178, -72.0524315826, 180
405, 478.664746178, -92.7365754435, 190
406, 478.664746178, -72.0524315826, 190
407, 478.664746178, -92.7365754435, 200
408, 478.664746178, -72.0524315826, 200
409, 478.664746178, -51.3682877217, 180
410, 478.664746178, -51.3682877217, 190
411, 478.664746178, -51.3682877217, 200
412, 478.664746178, -30.6841438609, 180
413, 478.664746178, -30.6841438609, 190
414, 478.664746178, -30.6841438609, 200
415, 478.664746178, -10, 190
416, 478.664746178, -10, 200
417, 478.664746178, 0, 190
418, 478.664746178, 0, 200
419, 478.664746178, 10, 190
420, 478.664746178, 10, 200
421, 478.664746178, 44.66835974, 180
422, 478.664746178, 44.66835974, 190
423, 478.664746178, 44.66835974, 200
424, 478.664746178, 79.3367194801, 180
425, 478.664746178, 79.3367194801, 190
426, 478.664746178, 79.3367194801, 200
427, 478.664746178, 114.00507922, 180
428, 478.664746178, 114.00507922, 190
429, 478.664746178, 114.00507922, 200
430, 478.664746178, 148.67343896, 180
431, 478.664746178, 148.67343896, 190
432, 478.664746178, 148.67343896, 200
433, 536.374962493, -10, 21.4549984997
434, 536.374962493, 0, 21.4549984997
435, 536.374962493, -10, 53.1639987998
436, 536.374962493, 0, 53.1639987998
437, 536.374962493, -10, 84.8729990998
438, 536.374962493, 0, 84.8729990998
439, 536.374962493, -10, 116.5819994
440, 536.374962493, 0, 116.5819994
441, 536.374962493, -10, 148.2909997
442, 536.374962493, 0, 148.2909997
443, 536.374962493, -10, 180
444, 536.374962493, 0, 180
445, 536.374962493, 10, 21.4549984997
446, 536.374962493, 10, 53.1639987998
447, 536.374962493, 10, 84.8729990998
448, 536.374962493, 10, 116.5819994
449, 536.374962493, 10, 148.2909997
450, 536.374962493, 10, 180
451, 536.374962493, -95.4778107184, 180
452, 536.374962493, -74.1083580388, 180
453, 536.374962493, -95.4778107184, 190
454, 536.374962493, -74.1083580388, 190
455, 536.374962493, -95.4778107184, 200
456, 536.374962493, -74.1083580388, 200
457, 536.374962493, -52.7389053592, 180
458, 536.374962493, -52.7389053592, 190
459, 536.374962493, -52.7389053592, 200
460, 536.374962493, -31.3694526796, 180
461, 536.374962493, -31.3694526796, 190
462, 536.374962493, -31.3694526796, 200
463, 536.374962493, -10, 190
464, 536.374962493, -10, 200
465, 536.374962493, 0, 190
466, 536.374962493, 0, 200
467, 536.374962493, 10, 190
468, 536.374962493, 10, 200
469, 536.374962493, 43.8748442657, 180
470, 536.374962493, 43.8748442657, 190
471, 536.374962493, 43.8748442657, 200
472, 536.374962493, 77.7496885315, 180
473, 536.374962493, 77.7496885315, 190
474, 536.374962493, 77.7496885315, 200
475, 536.374962493, 111.624532797, 180
476, 536.374962493, 111.624532797, 190
477, 536.374962493, 111.624532797, 200
478, 536.374962493, 145.499377063, 180
479, 536.374962493, 145.499377063, 190
480, 536.374962493, 145.499377063, 200
481, 593.644962728, -10, 23.7457985091
482, 593.644962728, 0, 23.7457985091
483, 593.644962728, -10, 54.9966388073
484, 593.644962728, 0, 54.9966388073
485, 593.644962728, -10, 86.2474791055
486, 593.644962728, 0, 86.2474791055
487, 593.644962728, -10, 117.498319404
488, 593.644962728, 0, 117.498319404
489, 593.644962728, -10, 148.749159702
490, 593.644962728, 0, 148.749159702
491, 593.644962728, -10, 180
492, 593.644962728, 0, 180
493, 593.644962728, 10, 23.7457985091
494, 593.644962728, 10, 54.9966388073
495, 593.644962728, 10, 86.2474791055
496, 593.644962728, 10, 117.498319404
497, 593.644962728, 10, 148.749159702
498, 593.644962728, 10, 180
499, 593.644962728, -98.1981357296, 180
500, 593.644962728, -76.1486017972, 180
501, 593.644962728, -98.1981357296, 190
502, 593.644962728, -76.1486017972, 190
503, 593.644962728, -98.1981357296, 200
504, 593.644962728, -76.1486017972, 200
505, 593.644962728, -54.0990678648, 180
506, 593.644962728, -54.0990678648, 190
507, 593.644962728, -54.0990678648, 200
508, 593.644962728, -32.0495339324, 180
509, 593.644962728, -32.0495339324, 190
510, 593.644962728, -32.0495339324, 200
511, 593.644962728, -10, 190
512, 593.644962728, -10, 200
513, 593.644962728, 0, 190
514, 593.644962728, 0, 200
515, 593.644962728, 10, 190
516, 593.644962728, 10, 200
517, 593.644962728, 43.0873817625, 180
518, 593.644962728, 43.0873817625, 190
519, 593.644962728, 43.0873817625, 200
520, 593.644962728, 76.174763525, 180
521, 593.644962728, 76.174763525, 190
522, 593.644962728, 76.174763525, 200
523, 593.644962728, 109.262145287, 180
524, 593.644962728, 109.262145287, 190
525, 593.644962728, 109.262145287, 200
526, 593.644962728, 142.34952705, 180
527, 593.644962728, 142.34952705, 190
528, 593.644962728, 142.34952705, 200
529, 650.481424599, -10, 26.019256984
530, 650.481424599, 0, 26.019256984
531, 650.481424599, -10, 56.8154055872
532, 650.481424599, 0, 56.8154055872
533, 650.481424599, -10, 87.6115541904
534, 650.481424599, 0, 87.6115541904
535, 650.481424599, -10, 118.407702794
536, 650.481424599, 0, 118.407702794
537, 650.481424599, -10, 149.203851397
538, 650.481424599, 0, 149.203851397
539, 650.481424599, -10, 180
540, 650.481424599, 0, 180
541, 650.481424599, 10, 26.019256984
542, 650.481424599, 10, 56.8154055872
543, 650.481424599, 10, 87.6115541904
544, 650.481424599, 10, 118.407702794
545, 650.481424599, 10, 149.203851397
546, 650.481424599, 10, 180
547, 650.481424599, -100.897867668, 180
548, 650.481424599, -78.1734007514, 180
549, 650.481424599, -100.897867668, 190
550, 650.481424599, -78.1734007514, 190
551, 650.481424599, -100.897867668, 200
552, 650.481424599, -78.1734007514, 200
553, 650.481424599, -55.4489338342, 180
554, 650.481424599, -55.4489338342, 190
555, 650.481424599, -55.4489338342, 200
556, 650.481424599, -32.7244669171, 180
557, 650.481424599, -32.7244669171, 190
558, 650.481424599, -32.7244669171, 200
559, 650.481424599, -10, 190
560, 650.481424599, -10, 200
561, 650.481424599, 0, 190
562, 650.481424599, 0, 200
563, 650.481424599, 10, 190
564, 650.481424599, 10, 200
565, 650.481424599, 42.3058804118, 180
566, 650.481424599, 42.3058804118, 190
567, 650.481424599, 42.3058804118, 200
568, 650.481424599, 74.6117608235, 180
569, 650.481424599, 74.6117608235, 190
570, 650.481424599, 74.6117608235, 200
571, 650.481424599, 106.917641235, 180
572, 650.481424599, 106.917641235, 190
573, 650.481424599, 106.917641235, 200
574, 650.481424599, 139.223521647, 180
575, 650.481424599, 139.223521647, 190
576, 650.481424599, 139.223521647, 200
577, 706.890874835, -10, 28.2756349934
578, 706.890874835, 0, 28.2756349934
579, 706.890874835, -10, 58.6205079947
580, 706.890874835, 0, 58.6205079947
581, 706.890874835, -10, 88.965380996
582, 706.890874835, 0, 88.965380996
583, 706.890874835, -10, 119.310253997
584, 706.890874835, 0, 119.310253997
585, 706.890874835, -10, 149.655126999
586, 706.890874835, 0, 149.655126999
587, 706.890874835, -10, 180
588, 706.890874835, 0, 180
589, 706.890874835, 10, 28.2756349934
590, 706.890874835, 10, 58.6205079947
591, 706.890874835, 10, 88.965380996
592, 706.890874835, 10, 119.310253997
593, 706.890874835, 10, 149.655126999
594, 706.890874835, 10, 180
595, 706.890874835, -103.577316555, 180
596, 706.890874835, -80.182987416, 180
597, 706.890874835, -103.577316555, 190
598, 706.890874835, -80.182987416, 190
599, 706.890874835, -103.577316555, 200
600, 706.890874835, -80.182987416, 200
601, 706.890874835, -56.7886582773, 180
602, 706.890874835, -56.7886582773, 190
603, 706.890874835, -56.7886582773, 200
604, 706.890874835, -33.3943291387, 180
605, 706.890874835, -33.3943291387, 190
606, 706.890874835, -33.3943291387, 200
607, 706.890874835, -10, 190
608, 706.890874835, -10, 200
609, 706.890874835, 0, 190
610, 706.890874835, 0, 200
611, 706.890874835, 10, 190
612, 706.890874835, 10, 200
613, 706.890874835, 41.530250471, 180
614, 706.890874835, 41.530250471, 190
615, 706.890874835, 41.530250471, 200
616, 706.890874835, 73.060500942, 180
617, 706.890874835, 73.060500942, 190
618, 706.890874835, 73.060500942, 200
619, 706.890874835, 104.590751413, 180
620, 706.890874835, 104.590751413, 190
621, 706.890874835, 104.590751413, 200
622, 706.890874835, 136.121001884, 180
623, 706.890874835, 136.121001884, 190
624, 706.890874835, 136.121001884, 200
625, 762.879693698, -10, 30.5151877479
626, 762.879693698, 0, 30.5151877479
627, 762.879693698, -10, 60.4121501983
628, 762.879693698, 0, 60.4121501983
629, 762.879693698, -10, 90.3091126488
630, 762.879693698, 0, 90.3091126488
631, 762.879693698, -10, 120.206075099
632, 762.879693698, 0, 120.206075099
633, 762.879693698, -10, 150.10303755
634, 762.879693698, 0, 150.10303755
635, 762.879693698, -10, 180
636, 762.879693698, 0, 180
637, 762.879693698, 10, 30.5151877479
638, 762.879693698, 10, 60.4121501983
639, 762.879693698, 10, 90.3091126488
640, 762.879693698, 10, 120.206075099
641, 762.879693698, 10, 150.10303755
642, 762.879693698, 10, 180
643, 762.879693698, -106.236785451, 180
644, 762.879693698, -82.177589088, 180
645, 762.879693698, -106.236785451, 190
646, 762.879693698, -82.177589088, 190
647, 762.879693698, -106.236785451, 200
648, 762.879693698, -82.177589088, 200
649, 762.879693698, -58.1183927253, 180
650, 762.879693698, -58.1183927253, 190
651, 762.879693698, -58.1183927253, 200
652, 762.879693698, -34.0591963627, 180
653, 762.879693698, -34.0591963627, 190
654, 762.879693698, -34.0591963627, 200
655, 762.879693698, -10, 190
656, 762.879693698, -10, 200
657, 762.879693698, 0, 190
658, 762.879693698, 0, 200
659, 762.879693698, 10, 190
660, 762.879693698, 10, 200
661, 762.879693698, 40.7604042117, 180
662, 762.879693698, 40.7604042117, 190
663, 762.879693698, 40.7604042117, 200
664, 762.879693698, 71.5208084233, 180
665, 762.879693698, 71.5208084233, 190
666, 762.879693698, 71.5208084233, 200
667, 762.879693698, 102.281212635, 180
668, 762.879693698, 102.281212635, 190
669, 762.879693698, 102.281212635, 200
670, 762.879693698, 133.041616847, 180
671, 762.879693698, 133.041616847, 190
672, 762.879693698, 133.041616847, 200
673, 818.454119339, -10, 32.7381647735
674, 818.454119339, 0, 32.7381647735
675, 818.454119339, -10, 62.1905318188
676, 818.454119339, 0, 62.1905318188
677, 818.454119339, -10, 91.6428988641
678, 818.454119339, 0, 91.6428988641
679, 818.454119339, -10, 121.095265909
680, 818.454119339, 0, 121.095265909
681, 818.454119339, -10, 150.547632955
682, 818.454119339, 0, 150.547632955
683, 818.454119339, -10, 180
684, 818.454119339, 0, 180
685, 818.454119339, 10, 32.7381647735
686, 818.454119339, 10, 62.1905318188
687, 818.454119339, 10, 91.6428988641
688, 818.454119339, 10, 121.095265909
689, 818.454119339, 10, 150.547632955
690, 818.454119339, 10, 180
691, 818.454119339, -108.876570669, 180
692, 818.454119339, -84.1574280014, 180
693, 818.454119339, -108.876570669, 190
694, 818.454119339, -84.1574280014, 190
695, 818.454119339, -108.876570669, 200
696, 818.454119339, -84.1574280014, 200
697, 818.454119339, -59.4382853343, 180
698, 818.454119339, -59.4382853343, 190
699, 818.454119339, -59.4382853343, 200
700, 818.454119339, -34.7191426671, 180
701, 818.454119339, -34.7191426671, 190
702, 818.454119339, -34.7191426671, 200
703, 818.454119339, -10, 190
704, 818.454119339, -10, 200
705, 818.454119339, 0, 190
706, 818.454119339, 0, 200
707, 818.454119339, 10, 190
708, 818.454119339, 10, 200
709, 818.454119339, 39.9962558591, 180
710, 818.454119339, 39.9962558591, 190
711, 818.454119339, 39.9962558591, 200
712, 818.454119339, 69.9925117182, 180
713, 818.454119339, 69.9925117182, 190
714, 818.454119339, 69.9925117182, 200
715, 818.454119339, 99.9887675773, 180
716, 818.454119339, 99.9887675773, 190
717, 818.454119339, 99.9887675773, 200
718, 818.454119339, 129.985023436, 180
719, 818.454119339, 129.985023436, 190
720, 818.454119339, 129.985023436, 200
721, 873.62025199, -10, 34.9448100796
722, 873.62025199, 0, 34.9448100796
723, 873.62025199, -10, 63.9558480637
724, 873.62025199, 0, 63.9558480637
725, 873.62025199, -10, 92.9668860478
726, 873.62025199, 0, 92.9668860478
727, 873.62025199, -10, 121.977924032
728, 873.62025199, 0, 121.977924032
729, 873.62025199, -10, 150.988962016
730, 873.62025199, 0, 150.988962016
731, 873.62025199, -10, 180
732, 873.62025199, 0, 180
733, 873.62025199, 10, 34.9448100796
734, 873.62025199, 10, 63.9558480637
735, 873.62025199, 10, 92.9668860478
736, 873.62025199, 10, 121.977924032
737, 873.62025199, 10, 150.988962016
738, 873.62025199, 10, 180
739, 873.62025199, -111.49696197, 180
740, 873.62025199, -86.1227214772, 180
741, 873.62025199, -111.49696197, 190
742, 873.62025199, -86.1227214772, 190
743, 873.62025199, -111.49696197, 200
744, 873.62025199, -86.1227214772, 200
745, 873.62025199, -60.7484809848, 180
746, 873.62025199, -60.7484809848, 190
747, 873.62025199, -60.7484809848, 200
748, 873.62025199, -35.3742404924, 180
749, 873.62025199, -35.3742404924, 190
750, 873.62025199, -35.3742404924, 200
751, 873.62025199, -10, 190
752, 873.62025199, -10, 200
753, 873.62025199, 0, 190
754, 873.62025199, 0, 200
755, 873.62025199, 10, 190
756, 873.62025199, 10, 200
757, 873.62025199, 39.2377215351, 180
758, 873.62025199, 39.2377215351, 190
759, 873.62025199, 39.2377215351, 200
760, 873.62025199, 68.4754430703, 180
761, 873.62025199, 68.4754430703, 190
762, 873.62025199, 68.4754430703, 200
763, 873.62025199, 97.7131646054, 180
764, 873.62025199, 97.7131646054, 190
765, 873.62025199, 97.7131646054, 200
766, 873.62025199, 126.950886141, 180
767, 873.62025199, 126.950886141, 190
768, 873.62025199, 126.950886141, 200
769, 928.384058007, -10, 37.1353623203
770, 928.384058007, 0, 37.1353623203
771, 928.384058007, -10, 65.7082898562
772, 928.384058007, 0, 65.7082898562
773, 928.384058007, -10, 94.2812173922
774, 928.384058007, 0, 94.2812173922
775, 928.384058007, -10, 122.854144928
776, 928.384058007, 0, 122.854144928
777, 928.384058007, -10, 151.427072464
778, 928.384058007, 0, 151.427072464
779, 928.384058007, -10, 180
780, 928.384058007, 0, 180
781, 928.384058007, 10, 37.1353623203
782, 928.384058007, 10, 65.7082898562
783, 928.384058007, 10, 94.2812173922
784, 928.384058007, 10, 122.854144928
785, 928.384058007, 10, 151.427072464
786, 928.384058007, 10, 180
787, 928.384058007, -114.098242755, 180
788, 928.384058007, -88.0736820665, 180
789, 928.384058007, -114.098242755, 190
790, 928.384058007, -88.0736820665, 190
791, 928.384058007, -114.098242755, 200
792, 928.384058007, -88.0736820665, 200
793, 928.384058007, -62.0491213777, 180
794, 928.384058007, -62.0491213777, 190
795, 928.384058007, -62.0491213777, 200
796, 928.384058007, -36.0245606888, 180
797, 928.384058007, -36.0245606888, 190
798, 928.384058007, -36.0245606888, 200
799, 928.384058007, -10, 190
800, 928.384058007, -10, 200
801, 928.384058007, 0, 190
802, 928.384058007, 0, 200
803, 928.384058007, 10, 190
804, 928.384058007, 10, 200
805, 928.384058007, 38.4847192024, 180
806, 928.384058007, 38.4847192024, 190
807, 928.384058007, 38.4847192024, 200
808, 928.384058007, 66.9694384048, 180
809, 928.384058007, 66.9694384048, 190
810, 928.384058007, 66.9694384048, 200
811, 928.384058007, 95.4541576072, 180
812, 928.384058007, 95.4541576072, 190
813, 928.384058007, 95.4541576072, 200
814, 928.384058007, 123.93887681, 180
815, 928.384058007, 123.93887681, 190
816, 928.384058007, 123.93887681, 200
817, 982.751373757, -10, 39.3100549503
818, 982.751373757, 0, 39.3100549503
819, 982.751373757, -10, 67.4480439602
820, 982.751373757, 0, 67.4480439602
821, 982.751373757, -10, 95.5860329702
822, 982.751373757, 0, 95.5860329702
823, 982.751373757, -10, 123.72402198
824, 982.751373757, 0, 123.72402198
825, 982.751373757, -10, 151.86201099
826, 982.751373757, 0, 151.86201099
827, 982.751373757, -10, 180
828, 982.751373757, 0, 180
829, 982.751373757, 10, 39.3100549503
830, 982.751373757, 10, 67.4480439602
831, 982.751373757, 10, 95.5860329702
832, 982.751373757, 10, 123.72402198
833, 982.751373757, 10, 151.86201099
834, 982.751373757, 10, 180
835, 982.751373757, -116.680690253, 180
836, 982.751373757, -90.0105176901, 180
837, 982.751373757, -116.680690253, 190
838, 982.751373757, -90.0105176901, 190
839, 982.751373757, -116.680690253, 200
840, 982.751373757, -90.0105176901, 200
841, 982.751373757, -63.3403451267, 180
842, 982.751373757, -63.3403451267, 190
843, 982.751373757, -63.3403451267, 200
844, 982.751373757, -36.6701725634, 180
845, 982.751373757, -36.6701725634, 190
846, 982.751373757, -36.6701725634, 200
847, 982.751373757, -10, 190
848, 982.751373757, -10, 200
849, 982.751373757, 0, 190
850, 982.751373757, 0, 200
851, 982.751373757, 10, 190
852, 982.751373757, 10, 200
853, 982.751373757, 37.7371686108, 180
854, 982.751373757, 37.7371686108, 190
855, 982.751373757, 37.7371686108, 200
856, 982.751373757, 65.4743372217, 180
857, 982.751373757, 65.4743372217, 190
858, 982.751373757, 65.4743372217, 200
859, 982.751373757, 93.2115058325, 180
860, 982.751373757, 93.2115058325, 190
861, 982.751373757, 93.2115058325, 200
862, 982.751373757, 120.948674443, 180
863, 982.751373757, 120.948674443, 190
864, 982.751373757, 120.948674443, 200
865, 1036.72790937, -10, 41.4691163749
866, 1036.72790937, 0, 41.4691163749
867, 1036.72790937, -10, 69.1752931
868, 1036.72790937, 0, 69.1752931
869, 1036.72790937, -10, 96.881469825
870, 1036.72790937, 0, 96.881469825
871, 1036.72790937, -10, 124.58764655
872, 1036.72790937, 0, 124.58764655
873, 1036.72790937, -10, 152.293823275
874, 1036.72790937, 0, 152.293823275
875, 1036.72790937, -10, 180
876, 1036.72790937, 0, 180
877, 1036.72790937, 10, 41.4691163749
878, 1036.72790937, 10, 69.1752931
879, 1036.72790937, 10, 96.881469825
880, 1036.72790937, 10, 124.58764655
881, 1036.72790937, 10, 152.293823275
882, 1036.72790937, 10, 180
883, 1036.72790937, -119.244575695, 180
884, 1036.72790937, -91.9334317714, 180
885, 1036.72790937, -119.244575695, 190
886, 1036.72790937, -91.9334317714, 190
887, 1036.72790937, -119.244575695, 200
888, 1036.72790937, -91.9334317714, 200
889, 1036.72790937, -64.6222878476, 180
890, 1036.72790937, -64.6222878476, 190
891, 1036.72790937, -64.6222878476, 200
892, 1036.72790937, -37.3111439238, 180
893, 1036.72790937, -37.3111439238, 190
894, 1036.72790937, -37.3111439238, 200
895, 1036.72790937, -10, 190
896, 1036.72790937, -10, 200
897, 1036.72790937, 0, 190
898, 1036.72790937, 0, 200
899, 1036.72790937, 10, 190
900, 1036.72790937, 10, 200
901, 1036.72790937, 36.9949912461, 180
902, 1036.72790937, 36.9949912461, 190
903, 1036.72790937, 36.9949912461, 200
904, 1036.72790937, 63.9899824922, 180
905, 1036.72790937, 63.9899824922, 190
906, 1036.72790937, 63.9899824922, 200
907, 1036.72790937, 90.9849737383, 180
908, 1036.72790937, 90.9849737383, 190
909, 1036.72790937, 90.9849737383, 200
910, 1036.72790937, 117.979964984, 180
911, 1036.72790937, 117.979964984, 190
912, 1036.72790937, 117.979964984, 200
913, 1090.31925237, -10, 43.612770095
914, 1090.31925237, 0, 43.612770095
915, 1090.31925237, -10, 70.890216076
916, 1090.31925237, 0, 70.890216076
917, 1090.31925237, -10, 98.167662057
918, 1090.31925237, 0, 98.167662057
919, 1090.31925237, -10, 125.445108038
920, 1090.31925237, 0, 125.445108038
921, 1090.31925237, -10, 152.722554019
922, 1090.31925237, 0, 152.722554019
923, 1090.31925237, -10, 180
924, 1090.31925237, 0, 180
925, 1090.31925237, 10, 43.612770095
926, 1090.31925237, 10, 70.890216076
927, 1090.31925237, 10, 98.167662057
928, 1090.31925237, 10, 125.445108038
929, 1090.31925237, 10, 152.722554019
930, 1090.31925237, 10, 180
931, 1090.31925237, -121.790164488, 180
932, 1090.31925237, -93.8426233658, 180
933, 1090.31925237, -121.790164488, 190
934, 1090.31925237, -93.8426233658, 190
935, 1090.31925237, -121.790164488, 200
936, 1090.31925237, -93.8426233658, 200
937, 1090.31925237, -65.8950822439, 180
938, 1090.31925237, -65.8950822439, 190
939, 1090.31925237, -65.8950822439, 200
940, 1090.31925237, -37.9475411219, 180
941, 1090.31925237, -37.9475411219, 190
942, 1090.31925237, -37.9475411219, 200
943, 1090.31925237, -10, 190
944, 1090.31925237, -10, 200
945, 1090.31925237, 0, 190
946, 1090.31925237, 0, 200
947, 1090.31925237, 10, 190
948, 1090.31925237, 10, 200
949, 1090.31925237, 36.2581102798, 180
950, 1090.31925237, 36.2581102798, 190
951, 1090.31925237, 36.2581102798, 200
952, 1090.31925237, 62.5162205597, 180
953, 1090.31925237, 62.5162205597, 190
954, 1090.31925237, 62.5162205597, 200
955, 1090.31925237, 88.7743308395, 180
956, 1090.31925237, 88.7743308395, 190
957, 1090.31925237, 88.7743308395, 200
958, 1090.31925237, 115.032441119, 180
959, 1090.31925237, 115.032441119, 190
960, 1090.31925237, 115.032441119, 200
961, 1143.53087115, -10, 45.741234846
962, 1143.53087115, 0, 45.741234846
963, 1143.53087115, -10, 72.5929878768
964, 1143.53087115, 0, 72.5929878768
965, 1143.53087115, -10, 99.4447409076
966, 1143.53087115, 0, 99.4447409076
967, 1143.53087115, -10, 126.296493938
968, 1143.53087115, 0, 126.296493938
969, 1143.53087115, -10, 153.148246969
970, 1143.53087115, 0, 153.148246969
971, 1143.53087115, -10, 180
972, 1143.53087115, 0, 180
973, 1143.53087115, 10, 45.741234846
974, 1143.53087115, 10, 72.5929878768
975, 1143.53087115, 10, 99.4447409076
976, 1143.53087115, 10, 126.296493938
977, 1143.53087115, 10, 153.148246969
978, 1143.53087115, 10, 180
979, 1143.53087115, -124.31771638, 180
980, 1143.53087115, -95.7382872847, 180
981, 1143.53087115, -124.31771638, 190
982, 1143.53087115, -95.7382872847, 190
983, 1143.53087115, -124.31771638, 200
984, 1143.53087115, -95.7382872847, 200
985, 1143.53087115, -67.1588581898, 180
986, 1143.53087115, -67.1588581898, 190
987, 1143.53087115, -67.1588581898, 200
988, 1143.53087115, -38.5794290949, 180
989, 1143.53087115, -38.5794290949, 190
990, 1143.53087115, -38.5794290949, 200
991, 1143.53087115, -10, 190
992, 1143.53087115, -10, 200
993, 1143.53087115, 0, 190
994, 1143.53087115, 0, 200
995, 1143.53087115, 10, 190
996, 1143.53087115, 10, 200
997, 1143.53087115, 35.5264505217, 180
998, 1143.53087115, 35.5264505217, 190
999, 1143.53087115, 35.5264505217, 200
1000, 1143.53087115, 61.0529010434, 180
1001, 1143.53087115, 61.0529010434, 190
1002, 1143.53087115, 61.0529010434, 200
1003, 1143.53087115, 86.5793515651, 180
1004, 1143.53087115, 86.5793515651, 190
1005, 1143.53087115, 86.5793515651, 200
1006, 1143.53087115, 112.105802087, 180
1007, 1143.53087115, 112.105802087, 190
1008, 1143.53087115, 112.105802087, 200
1009, 1196.36811832, -10, 47.854724733
1010, 1196.36811832, 0, 47.854724733
1011, 1196.36811832, -10, 74.2837797864
1012, 1196.36811832, 0, 74.2837797864
1013, 1196.36811832, -10, 100.71283484
1014, 1196.36811832, 0, 100.71283484
1015, 1196.36811832, -10, 127.141889893
1016, 1196.36811832, 0, 127.141889893
1017, 1196.36811832, -10, 153.570944947
1018, 1196.36811832, 0, 153.570944947
1019, 1196.36811832, -10, 180
1020, 1196.36811832, 0, 180
1021, 1196.36811832, 10, 47.854724733
1022, 1196.36811832, 10, 74.2837797864
1023, 1196.36811832, 10, 100.71283484
1024, 1196.36811832, 10, 127.141889893
1025, 1196.36811832, 10, 153.570944947
1026, 1196.36811832, 10, 180
1027, 1196.36811832, -126.82748562, 180
1028, 1196.36811832, -97.6206142153, 180
1029, 1196.36811832, -126.82748562, 190
1030, 1196.36811832, -97.6206142153, 190
1031, 1196.36811832, -126.82748562, 200
1032, 1196.36811832, -97.6206142153, 200
1033, 1196.36811832, -68.4137428102, 180
1034, 1196.36811832, -68.4137428102, 190
1035, 1196.36811832, -68.4137428102, 200
1036, 1196.36811832, -39.2068714051, 180
1037, 1196.36811832, -39.2068714051, 190
1038, 1196.36811832, -39.2068714051, 200
1039, 1196.36811832, -10, 190
1040, 1196.36811832, -10, 200
1041, 1196.36811832, 0, 190
1042, 1196.36811832, 0, 200
1043, 1196.36811832, 10, 190
1044, 1196.36811832, 10, 200
1045, 1196.36811832, 34.799938373, 180
1046, 1196.36811832, 34.799938373, 190
1047, 1196.36811832, 34.799938373, 200
1048, 1196.36811832, 59.5998767461, 180
1049, 1196.36811832, 59.5998767461, 190
1050, 1196.36811832, 59.5998767461, 200
1051, 1196.36811832, 84.3998151191, 180
1052, 1196.36811832, 84.3998151191, 190
1053, 1196.36811832, 84.3998151191, 200
1054, 1196.36811832, 109.199753492, 180
1055, 1196.36811832, 109.199753492, 190
1056, 1196.36811832, 109.199753492, 200
1057, 1248.83623401, -10, 49.9534493606
1058, 1248.83623401, 0, 49.9534493606
1059, 1248.83623401, -10, 75.9627594884
1060, 1248.83623401, 0, 75.9627594884
1061, 1248.83623401, -10, 101.972069616
1062, 1248.83623401, 0, 101.972069616
1063, 1248.83623401, -10, 127.981379744
1064, 1248.83623401, 0, 127.981379744
1065, 1248.83623401, -10, 153.990689872
1066, 1248.83623401, 0, 153.990689872
1067, 1248.83623401, -10, 180
1068, 1248.83623401, 0, 180
1069, 1248.83623401, 10, 49.9534493606
1070, 1248.83623401, 10, 75.9627594884
1071, 1248.83623401, 10, 101.972069616
1072, 1248.83623401, 10, 127.981379744
1073, 1248.83623401, 10, 153.990689872
1074, 1248.83623401, 10, 180
1075, 1248.83623401, -129.319721116, 180
1076, 1248.83623401, -99.4897908367, 180
1077, 1248.83623401, -129.319721116, 190
1078, 1248.83623401, -99.4897908367, 190
1079, 1248.83623401, -129.319721116, 200
1080, 1248.83623401, -99.4897908367, 200
1081, 1248.83623401, -69.6598605578, 180
1082, 1248.83623401, -69.6598605578, 190
1083, 1248.83623401, -69.6598605578, 200
1084, 1248.83623401, -39.8299302789, 180
1085, 1248.83623401, -39.8299302789, 190
1086, 1248.83623401, -39.8299302789, 200
1087, 1248.83623401, -10, 190
1088, 1248.83623401, -10, 200
1089, 1248.83623401, 0, 190
1090, 1248.83623401, 0, 200
1091, 1248.83623401, 10, 190
1092, 1248.83623401, 10, 200
1093, 1248.83623401, 34.0785017823, 180
1094, 1248.83623401, 34.0785017823, 190
1095, 1248.83623401, 34.0785017823, 200
1096, 1248.83623401, 58.1570035646, 180
1097, 1248.83623401, 58.1570035646, 190
1098, 1248.83623401, 58.1570035646, 200
1099, 1248.83623401, 82.2355053469, 180
1100, 1248.83623401, 82.2355053469, 190
1101, 1248.83623401, 82.2355053469, 200
1102, 1248.83623401, 106.314007129, 180
1103, 1248.83623401, 106.314007129, 190
1104, 1248.83623401, 106.314007129, 200
1105, 1300.94034895, -10, 52.0376139579
1106, 1300.94034895, 0, 52.0376139579
1107, 1300.94034895, -10, 77.6300911663
1108, 1300.94034895, 0, 77.6300911663
1109, 1300.94034895, -10, 103.222568375
1110, 1300.94034895, 0, 103.222568375
1111, 1300.94034895, -10, 128.815045583
1112, 1300.94034895, 0, 128.815045583
1113, 1300.94034895, -10, 154.407522792
1114, 1300.94034895, 0, 154.407522792
1115, 1300.94034895, -10, 180
1116, 1300.94034895, 0, 180
1117, 1300.94034895, 10, 52.0376139579
1118, 1300.94034895, 10, 77.6300911663
1119, 1300.94034895, 10, 103.222568375
1120, 1300.94034895, 10, 128.815045583
1121, 1300.94034895, 10, 154.407522792
1122, 1300.94034895, 10, 180
1123, 1300.94034895, -131.794666575, 180
1124, 1300.94034895, -101.345999931, 180
1125, 1300.94034895, -131.794666575, 190
1126, 1300.94034895, -101.345999931, 190
1127, 1300.94034895, -131.794666575, 200
1128, 1300.94034895, -101.345999931, 200
1129, 1300.94034895, -70.8973332875, 180
1130, 1300.94034895, -70.8973332875, 190
1131, 1300.94034895, -70.8973332875, 200
1132, 1300.94034895, -40.4486666438, 180
1133, 1300.94034895, -40.4486666438, 190
1134, 1300.94034895, -40.4486666438, 200
1135, 1300.94034895, -10, 190
1136, 1300.94034895, -10, 200
1137, 1300.94034895, 0, 190
1138, 1300.94034895, 0, 200
1139, 1300.94034895, 10, 190
1140, 1300.94034895, 10, 200
1141, 1300.94034895, 33.362070202, 180
1142, 1300.94034895, 33.362070202, 190
1143, 1300.94034895, 33.362070202, 200
1144, 1300.94034895, 56.7241404039, 180
1145, 1300.94034895, 56.7241404039, 190
1146, 1300.94034895, 56.7241404039, 200
1147, 1300.94034895, 80.0862106059, 180
1148, 1300.94034895, 80.0862106059, 190
1149, 1300.94034895, 80.0862106059, 200
1150, 1300.94034895, 103.448280808, 180
1151, 1300.94034895, 103.448280808, 190
1152, 1300.94034895, 103.448280808, 200
1153, 1352.6854875, -10, 54.1074195002
1154, 1352.6854875, 0, 54.1074195002
1155, 1352.6854875, -10, 79.2859356001
1156, 1352.6854875, 0, 79.2859356001
1157, 1352.6854875, -10, 104.4644517
1158, 1352.6854875, 0, 104.4644517
1159, 1352.6854875, -10, 129.6429678
1160, 1352.6854875, 0, 129.6429678
1161, 1352.6854875, -10, 154.8214839
1162, 1352.6854875, 0, 154.8214839
1163, 1352.6854875, -10, 180
1164, 1352.6854875, 0, 180
1165, 1352.6854875, 10, 54.1074195002
1166, 1352.6854875, 10, 79.2859356001
1167, 1352.6854875, 10, 104.4644517
1168, 1352.6854875, 10, 129.6429678
1169, 1352.6854875, 10, 154.8214839
1170, 1352.6854875, 10, 180
1171, 1352.6854875, -134.252560656, 180
1172, 1352.6854875, -103.189420492, 180
1173, 1352.6854875, -134.252560656, 190
1174, 1352.6854875, -103.189420492, 190
1175, 1352.6854875, -134.252560656, 200
1176, 1352.6854875, -103.189420492, 200
1177, 1352.6854875, -72.1262803282, 180
1178, 1352.6854875, -72.1262803282, 190
1179, 1352.6854875, -72.1262803282, 200
1180, 1352.6854875, -41.0631401641, 180
1181, 1352.6854875, -41.0631401641, 190
1182, 1352.6854875, -41.0631401641, 200
1183, 1352.6854875, -10, 190
1184, 1352.6854875, -10, 200
1185, 1352.6854875, 0, 190
1186, 1352.6854875, 0, 200
1187, 1352.6854875, 10, 190
1188, 1352.6854875, 10, 200
1189, 1352.6854875, 32.6505745468, 180
1190, 1352.6854875, 32.6505745468, 190
1191, 1352.6854875, 32.6505745468, 200
1192, 1352.6854875, 55.3011490936, 180
1193, 1352.6854875, 55.3011490936, 190
1194, 1352.6854875, 55.3011490936, 200
1195, 1352.6854875, 77.9517236404, 180
1196, 1352.6854875, 77.9517236404, 190
1197, 1352.6854875, 77.9517236404, 200
1198, 1352.6854875, 100.602298187, 180
1199, 1352.6854875, 100.602298187, 190
1200, 1352.6854875, 100.602298187, 200
1201, 1404.07657063, -10, 56.1630628251
1202, 1404.07657063, 0, 56.1630628251
1203, 1404.07657063, -10, 80.9304502601
1204, 1404.07657063, 0, 80.9304502601
1205, 1404.07657063, -10, 105.697837695
1206, 1404.07657063, 0, 105.697837695
1207, 1404.07657063, -10, 130.46522513
1208, 1404.07657063, 0, 130.46522513
1209, 1404.07657063, -10, 155.232612565
1210, 1404.07657063, 0, 155.232612565
1211, 1404.07657063, -10, 180
1212, 1404.07657063, 0, 180
1213, 1404.07657063, 10, 56.1630628251
1214, 1404.07657063, 10, 80.9304502601
1215, 1404.07657063, 10, 105.697837695
1216, 1404.07657063, 10, 130.46522513
1217, 1404.07657063, 10, 155.232612565
1218, 1404.07657063, 10, 180
1219, 1404.07657063, -136.693637105, 180
1220, 1404.07657063, -105.020227829, 180
1221, 1404.07657063, -136.693637105, 190
1222, 1404.07657063, -105.020227829, 190
1223, 1404.07657063, -136.693637105, 200
1224, 1404.07657063, -105.020227829, 200
1225, 1404.07657063, -73.3468185524, 180
1226, 1404.07657063, -73.3468185524, 190
1227, 1404.07657063, -73.3468185524, 200
1228, 1404.07657063, -41.6734092762, 180
1229, 1404.07657063, -41.6734092762, 190
1230, 1404.07657063, -41.6734092762, 200
1231, 1404.07657063, -10, 190
1232, 1404.07657063, -10, 200
1233, 1404.07657063, 0, 190
1234, 1404.07657063, 0, 200
1235, 1404.07657063, 10, 190
1236, 1404.07657063, 10, 200
1237, 1404.07657063, 31.9439471539, 180
1238, 1404.07657063, 31.9439471539, 190
1239, 1404.07657063, 31.9439471539, 200
1240, 1404.07657063, 53.8878943078, 180
1241, 1404.07657063, 53.8878943078, 190
1242, 1404.07657063, 53.8878943078, 200
1243, 1404.07657063, 75.8318414616, 180
1244, 1404.07657063, 75.8318414616, 190
1245, 1404.07657063, 75.8318414616, 200
1246, 1404.07657063, 97.7757886155, 180
1247, 1404.07657063, 97.7757886155, 190
1248, 1404.07657063, 97.7757886155, 200
1249, 1455.11841865, -10, 58.2047367459
1250, 1455.11841865, 0, 58.2047367459
1251, 1455.11841865, -10, 82.5637893967
1252, 1455.11841865, 0, 82.5637893967
1253, 1455.11841865, -10, 106.922842048
1254, 1455.11841865, 0, 106.922842048
1255, 1455.11841865, -10, 131.281894698
1256, 1455.11841865, 0, 131.281894698
1257, 1455.11841865, -10, 155.640947349
1258, 1455.11841865, 0, 155.640947349
1259, 1455.11841865, -10, 180
1260, 1455.11841865, 0, 180
1261, 1455.11841865, 10, 58.2047367459
1262, 1455.11841865, 10, 82.5637893967
1263, 1455.11841865, 10, 106.922842048
1264, 1455.11841865, 10, 131.281894698
1265, 1455.11841865, 10, 155.640947349
1266, 1455.11841865, 10, 180
1267, 1455.11841865, -139.118124886, 180
1268, 1455.11841865, -106.838593664, 180
1269, 1455.11841865, -139.118124886, 190
1270, 1455.11841865, -106.838593664, 190
1271, 1455.11841865, -139.118124886, 200
1272, 1455.11841865, -106.838593664, 200
1273, 1455.11841865, -74.5590624429, 180
1274, 1455.11841865, -74.5590624429, 190
1275, 1455.11841865, -74.5590624429, 200
1276, 1455.11841865, -42.2795312214, 180
1277, 1455.11841865, -42.2795312214, 190
1278, 1455.11841865, -42.2795312214, 200
1279, 1455.11841865, -10, 190
1280, 1455.11841865, -10, 200
1281, 1455.11841865, 0, 190
1282, 1455.11841865, 0, 200
1283, 1455.11841865, 10, 190
1284, 1455.11841865, 10, 200
1285, 1455.11841865, 31.2421217436, 180
1286, 1455.11841865, 31.2421217436, 190
1287, 1455.11841865, 31.2421217436, 200
1288, 1455.11841865, 52.4842434872, 180
1289, 1455.11841865, 52.4842434872, 190
1290, 1455.11841865, 52.4842434872, 200
1291, 1455.11841865, 73.7263652308, 180
1292, 1455.11841865, 73.7263652308, 190
1293, 1455.11841865, 73.7263652308, 200
1294, 1455.11841865, 94.9684869744, 180
1295, 1455.11841865, 94.9684869744, 190
1296, 1455.11841865, 94.9684869744, 200
1297, 1505.81575402, -10, 60.2326301607
1298, 1505.81575402, 0, 60.2326301607
1299, 1505.81575402, -10, 84.1861041285
1300, 1505.81575402, 0, 84.1861041285
1301, 1505.81575402, -10, 108.139578096
1302, 1505.81575402, 0, 108.139578096
1303, 1505.81575402, -10, 132.093052064
1304, 1505.81575402, 0, 132.093052064
1305, 1505.81575402, -10, 156.046526032
1306, 1505.81575402, 0, 156.046526032
1307, 1505.81575402, -10, 180
1308, 1505.81575402, 0, 180
1309, 1505.81575402, 10, 60.2326301607
1310, 1505.81575402, 10, 84.1861041285
1311, 1505.81575402, 10, 108.139578096
1312, 1505.81575402, 10, 132.093052064
1313, 1505.81575402, 10, 156.046526032
1314, 1505.81575402, 10, 180
1315, 1505.81575402, -141.526248316, 180
1316, 1505.81575402, -108.644686237, 180
1317, 1505.81575402, -141.526248316, 190
1318, 1505.81575402, -108.644686237, 190
1319, 1505.81575402, -141.526248316, 200
1320, 1505.81575402, -108.644686237, 200
1321, 1505.81575402, -75.7631241579, 180
1322, 1505.81575402, -75.7631241579, 190
1323, 1505.81575402, -75.7631241579, 200
1324, 1505.81575402, -42.881562079, 180
1325, 1505.81575402, -42.881562079, 190
1326, 1505.81575402, -42.881562079, 200
1327, 1505.81575402, -10, 190
1328, 1505.81575402, -10, 200
1329, 1505.81575402, 0, 190
1330, 1505.81575402, 0, 200
1331, 1505.81575402, 10, 190
1332, 1505.81575402, 10, 200
1333, 1505.81575402, 30.5450333823, 180
1334, 1505.81575402, 30.5450333823, 190
1335, 1505.81575402, 30.5450333823, 200
1336, 1505.81575402, 51.0900667645, 180
1337, 1505.81575402, 51.0900667645, 190
1338, 1505.81575402, 51.0900667645, 200
1339, 1505.81575402, 71.6351001468, 180
1340, 1505.81575402, 71.6351001468, 190
1341, 1505.81575402, 71.6351001468, 200
1342, 1505.81575402, 92.1801335291, 180
1343, 1505.81575402, 92.1801335291, 190
1344, 1505.81575402, 92.1801335291, 200
1345, 1556.17320393, -10, 62.2469281573
1346, 1556.17320393, 0, 62.2469281573
1347, 1556.17320393, -10, 85.7975425258
1348, 1556.17320393, 0, 85.7975425258
1349, 1556.17320393, -10, 109.348156894
1350, 1556.17320393, 0, 109.348156894
1351, 1556.17320393, -10, 132.898771263
1352, 1556.17320393, 0, 132.898771263
1353, 1556.17320393, -10, 156.449385631
1354, 1556.17320393, 0, 156.449385631
1355, 1556.17320393, -10, 180
1356, 1556.17320393, 0, 180
1357, 1556.17320393, 10, 62.2469281573
1358, 1556.17320393, 10, 85.7975425258
1359, 1556.17320393, 10, 109.348156894
1360, 1556.17320393, 10, 132.898771263
1361, 1556.17320393, 10, 156.449385631
1362, 1556.17320393, 10, 180
1363, 1556.17320393, -143.918227187, 180
1364, 1556.17320393, -110.43867039, 180
1365, 1556.17320393, -143.918227187, 190
1366, 1556.17320393, -110.43867039, 190
1367, 1556.17320393, -143.918227187, 200
1368, 1556.17320393, -110.43867039, 200
1369, 1556.17320393, -76.9591135934, 180
1370, 1556.17320393, -76.9591135934, 190
1371, 1556.17320393, -76.9591135934, 200
1372, 1556.17320393, -43.4795567967, 180
1373, 1556.17320393, -43.4795567967, 190
1374, 1556.17320393, -43.4795567967, 200
1375, 1556.17320393, -10, 190
1376, 1556.17320393, -10, 200
1377, 1556.17320393, 0, 190
1378, 1556.17320393, 0, 200
1379, 1556.17320393, 10, 190
1380, 1556.17320393, 10, 200
1381, 1556.17320393, 29.8526184459, 180
1382, 1556.17320393, 29.8526184459, 190
1383, 1556.17320393, 29.8526184459, 200
1384, 1556.17320393, 49.7052368919, 180
1385, 1556.17320393, 49.7052368919, 190
1386, 1556.17320393, 49.7052368919, 200
1387, 1556.17320393, 69.5578553378, 180
1388, 1556.17320393, 69.5578553378, 190
1389, 1556.17320393, 69.5578553378, 200
1390, 1556.17320393, 89.4104737837, 180
1391, 1556.17320393, 89.4104737837, 190
1392, 1556.17320393, 89.4104737837, 200
1393, 1606.19530289, -10, 64.2478121155
1394, 1606.19530289, 0, 64.2478121155
1395, 1606.19530289, -10, 87.3982496924
1396, 1606.19530289, 0, 87.3982496924
1397, 1606.19530289, -10, 110.548687269
1398, 1606.19530289, 0, 110.548687269
1399, 1606.19530289, -10, 133.699124846
1400, 1606.19530289, 0, 133.699124846
1401, 1606.19530289, -10, 156.849562423
1402, 1606.19530289, 0, 156.849562423
1403, 1606.19530289, -10, 180
1404, 1606.19530289, 0, 180
1405, 1606.19530289, 10, 64.2478121155
1406, 1606.19530289, 10, 87.3982496924
1407, 1606.19530289, 10, 110.548687269
1408, 1606.19530289, 10, 133.699124846
1409, 1606.19530289, 10, 156.849562423
1410, 1606.19530289, 10, 180
1411, 1606.19530289, -146.294276887, 180
1412, 1606.19530289, -112.220707665, 180
1413, 1606.19530289, -146.294276887, 190
1414, 1606.19530289, -112.220707665, 190
1415, 1606.19530289, -146.294276887, 200
1416, 1606.19530289, -112.220707665, 200
1417, 1606.19530289, -78.1471384436, 180
1418, 1606.19530289, -78.1471384436, 190
1419, 1606.19530289, -78.1471384436, 200
1420, 1606.19530289, -44.0735692218, 180
1421, 1606.19530289, -44.0735692218, 190
1422, 1606.19530289, -44.0735692218, 200
1423, 1606.19530289, -10, 190
1424, 1606.19530289, -10, 200
1425, 1606.19530289, 0, 190
1426, 1606.19530289, 0, 200
1427, 1606.19530289, 10, 190
1428, 1606.19530289, 10, 200
1429, 1606.19530289, 29.1648145853, 180
1430, 1606.19530289, 29.1648145853, 190
1431, 1606.19530289, 29.1648145853, 200
1432, 1606.19530289, 48.3296291706, 180
1433, 1606.19530289, 48.3296291706, 190
1434, 1606.19530289, 48.3296291706, 200
1435, 1606.19530289, 67.4944437559, 180
1436, 1606.19530289, 67.4944437559, 190
1437, 1606.19530289, 67.4944437559, 200
1438, 1606.19530289, 86.6592583411, 180
1439, 1606.19530289, 86.6592583411, 190
1440, 1606.19530289, 86.6592583411, 200
1441, 1655.88649514, -10, 66.2354598056
1442, 1655.88649514, 0, 66.2354598056
1443, 1655.88649514, -10, 88.9883678445
1444, 1655.88649514, 0, 88.9883678445
1445, 1655.88649514, -10, 111.741275883
1446, 1655.88649514, 0, 111.741275883
1447, 1655.88649514, -10, 134.494183922
1448, 1655.88649514, 0, 134.494183922
1449, 1655.88649514, -10, 157.247091961
1450, 1655.88649514, 0, 157.247091961
1451, 1655.88649514, -10, 180
1452, 1655.88649514, 0, 180
1453, 1655.88649514, 10, 66.2354598056
1454, 1655.88649514, 10, 88.9883678445
1455, 1655.88649514, 10, 111.741275883
1456, 1655.88649514, 10, 134.494183922
1457, 1655.88649514, 10, 157.247091961
1458, 1655.88649514, 10, 180
1459, 1655.88649514, -148.654608519, 180
1460, 1655.88649514, -113.990956389, 180
1461, 1655.88649514, -148.654608519, 190
1462, 1655.88649514, -113.990956389, 190
1463, 1655.88649514, -148.654608519, 200
1464, 1655.88649514, -113.990956389, 200
1465, 1655.88649514, -79.3273042596, 180
1466, 1655.88649514, -79.3273042596, 190
1467, 1655.88649514, -79.3273042596, 200
1468, 1655.88649514, -44.6636521298, 180
1469, 1655.88649514, -44.6636521298, 190
1470, 1655.88649514, -44.6636521298, 200
1471, 1655.88649514, -10, 190
1472, 1655.88649514, -10, 200
1473, 1655.88649514, 0, 190
1474, 1655.88649514, 0, 200
1475, 1655.88649514, 10, 190
1476, 1655.88649514, 10, 200
1477, 1655.88649514, 28.4815606918, 180
1478, 1655.88649514, 28.4815606918, 190
1479, 1655.88649514, 28.4815606918, 200
1480, 1655.88649514, 46.9631213836, 180
1481, 1655.88649514, 46.9631213836, 190
1482, 1655.88649514, 46.9631213836, 200
1483, 1655.88649514, 65.4446820755, 180
1484, 1655.88649514, 65.4446820755, 190
1485, 1655.88649514, 65.4446820755, 200
1486, 1655.88649514, 83.9262427673, 180
1487, 1655.88649514, 83.9262427673, 190
1488, 1655.88649514, 83.9262427673, 200
1489, 1705.25113708, -10, 68.2100454832
1490, 1705.25113708, 0, 68.2100454832
1491, 1705.25113708, -10, 90.5680363866
1492, 1705.25113708, 0, 90.5680363866
1493, 1705.25113708, -10, 112.92602729
1494, 1705.25113708, 0, 112.92602729
1495, 1705.25113708, -10, 135.284018193
1496, 1705.25113708, 0, 135.284018193
1497, 1705.25113708, -10, 157.642009097
1498, 1705.25113708, 0, 157.642009097
1499, 1705.25113708, -10, 180
1500, 1705.25113708, 0, 180
1501, 1705.25113708, 10, 68.2100454832
1502, 1705.25113708, 10, 90.5680363866
1503, 1705.25113708, 10, 112.92602729
1504, 1705.25113708, 10, 135.284018193
1505, 1705.25113708, 10, 157.642009097
1506, 1705.25113708, 10, 180
1507, 1705.25113708, -150.999429011, 180
1508, 1705.25113708, -115.749571758, 180
1509, 1705.25113708, -150.999429011, 190
1510, 1705.25113708, -115.749571758, 190
1511, 1705.25113708, -150.999429011, 200
1512, 1705.25113708, -115.749571758, 200
1513, 1705.25113708, -80.4997145057, 180
1514, 1705.25113708, -80.4997145057, 190
1515, 1705.25113708, -80.4997145057, 200
1516, 1705.25113708, -45.2498572528, 180
1517, 1705.25113708, -45.2498572528, 190
1518, 1705.25113708, -45.2498572528, 200
1519, 1705.25113708, -10, 190
1520, 1705.25113708, -10, 200
1521, 1705.25113708, 0, 190
1522, 1705.25113708, 0, 200
1523, 1705.25113708, 10, 190
1524, 1705.25113708, 10, 200
1525, 1705.25113708, 27.8027968651, 180
1526, 1705.25113708, 27.8027968651, 190
1527, 1705.25113708, 27.8027968651, 200
1528, 1705.25113708, 45.6055937303, 180
1529, 1705.25113708, 45.6055937303, 190
1530, 1705.25113708, 45.6055937303, 200
1531, 1705.25113708, 63.4083905954, 180
1532, 1705.25113708, 63.4083905954, 190
1533, 1705.25113708, 63.4083905954, 200
1534, 1705.25113708, 81.2111874606, 180
1535, 1705.25113708, 81.2111874606, 190
1536, 1705.25113708, 81.2111874606, 200
1537, 1754.29349954, -10, 70.1717399818
1538, 1754.29349954, 0, 70.1717399818
1539, 1754.29349954, -10, 92.1373919854
1540, 1754.29349954, 0, 92.1373919854
1541, 1754.29349954, -10, 114.103043989
1542, 1754.29349954, 0, 114.103043989
1543, 1754.29349954, -10, 136.068695993
1544, 1754.29349954, 0, 136.068695993
1545, 1754.29349954, -10, 158.034347996
1546, 1754.29349954, 0, 158.034347996
1547, 1754.29349954, -10, 180
1548, 1754.29349954, 0, 180
1549, 1754.29349954, 10, 70.1717399818
1550, 1754.29349954, 10, 92.1373919854
1551, 1754.29349954, 10, 114.103043989
1552, 1754.29349954, 10, 136.068695993
1553, 1754.29349954, 10, 158.034347996
1554, 1754.29349954, 10, 180
1555, 1754.29349954, -153.328941228, 180
1556, 1754.29349954, -117.496705921, 180
1557, 1754.29349954, -153.328941228, 190
1558, 1754.29349954, -117.496705921, 190
1559, 1754.29349954, -153.328941228, 200
1560, 1754.29349954, -117.496705921, 200
1561, 1754.29349954, -81.6644706142, 180
1562, 1754.29349954, -81.6644706142, 190
1563, 1754.29349954, -81.6644706142, 200
1564, 1754.29349954, -45.8322353071, 180
1565, 1754.29349954, -45.8322353071, 190
1566, 1754.29349954, -45.8322353071, 200
1567, 1754.29349954, -10, 190
1568, 1754.29349954, -10, 200
1569, 1754.29349954, 0, 190
1570, 1754.29349954, 0, 200
1571, 1754.29349954, 10, 190
1572, 1754.29349954, 10, 200
1573, 1754.29349954, 27.1284643813, 180
1574, 1754.29349954, 27.1284643813, 190
1575, 1754.29349954, 27.1284643813, 200
1576, 1754.29349954, 44.2569287625, 180
1577, 1754.29349954, 44.2569287625, 190
1578, 1754.29349954, 44.2569287625, 200
1579, 1754.29349954, 61.3853931438, 180
1580, 1754.29349954, 61.3853931438, 190
1581, 1754.29349954, 61.3853931438, 200
1582, 1754.29349954, 78.513857525, 180
1583, 1754.29349954, 78.513857525, 190
1584, 1754.29349954, 78.513857525, 200
1585, 1803.01777004, -10, 72.1207108015
1586, 1803.01777004, 0, 72.1207108015
1587, 1803.01777004, -10, 93.6965686412
1588, 1803.01777004, 0, 93.6965686412
1589, 1803.01777004, -10, 115.272426481
1590, 1803.01777004, 0, 115.272426481
1591, 1803.01777004, -10, 136.848284321
1592, 1803.01777004, 0, 136.848284321
1593, 1803.01777004, -10, 158.42414216
1594, 1803.01777004, 0, 158.42414216
1595, 1803.01777004, -10, 180
1596, 1803.01777004, 0, 180
1597, 1803.01777004, 10, 72.1207108015
1598, 1803.01777004, 10, 93.6965686412
1599, 1803.01777004, 10, 115.272426481
1600, 1803.01777004, 10, 136.848284321
1601, 1803.01777004, 10, 158.42414216
1602, 1803.01777004, 10, 180
1603, 1803.01777004, -155.643344077, 180
1604, 1803.01777004, -119.232508058, 180
1605, 1803.01777004, -155.643344077, 190
1606, 1803.01777004, -119.232508058, 190
1607, 1803.01777004, -155.643344077, 200
1608, 1803.01777004, -119.232508058, 200
1609, 1803.01777004, -82.8216720384, 180
1610, 1803.01777004, -82.8216720384, 190
1611, 1803.01777004, -82.8216720384, 200
1612, 1803.01777004, -46.4108360192, 180
1613, 1803.01777004, -46.4108360192, 190
1614, 1803.01777004, -46.4108360192, 200
1615, 1803.01777004, -10, 190
1616, 1803.01777004, -10, 200
1617, 1803.01777004, 0, 190
1618, 1803.01777004, 0, 200
1619, 1803.01777004, 10, 190
1620, 1803.01777004, 10, 200
1621, 1803.01777004, 26.458505662, 180
1622, 1803.01777004, 26.458505662, 190
1623, 1803.01777004, 26.458505662, 200
1624, 1803.01777004, 42.917011324, 180
1625, 1803.01777004, 42.917011324, 190
1626, 1803.01777004, 42.917011324, 200
1627, 1803.01777004, 59.3755169859, 180
1628, 1803.01777004, 59.3755169859, 190
1629, 1803.01777004, 59.3755169859, 200
1630, 1803.01777004, 75.8340226479, 180
1631, 1803.01777004, 75.8340226479, 190
1632, 1803.01777004, 75.8340226479, 200
1633, 1851.42805489, -10, 74.0571221956
1634, 1851.42805489, 0, 74.0571221956
1635, 1851.42805489, -10, 95.2456977565
1636, 1851.42805489, 0, 95.2456977565
1637, 1851.42805489, -10, 116.434273317
1638, 1851.42805489, 0, 116.434273317
1639, 1851.42805489, -10, 137.622848878
1640, 1851.42805489, 0, 137.622848878
1641, 1851.42805489, -10, 158.811424439
1642, 1851.42805489, 0, 158.811424439
1643, 1851.42805489, -10, 180
1644, 1851.42805489, 0, 180
1645, 1851.42805489, 10, 74.0571221956
1646, 1851.42805489, 10, 95.2456977565
1647, 1851.42805489, 10, 116.434273317
1648, 1851.42805489, 10, 137.622848878
1649, 1851.42805489, 10, 158.811424439
1650, 1851.42805489, 10, 180
1651, 1851.42805489, -157.942832607, 180
1652, 1851.42805489, -120.957124455, 180
1653, 1851.42805489, -157.942832607, 190
1654, 1851.42805489, -120.957124455, 190
1655, 1851.42805489, -157.942832607, 200
1656, 1851.42805489, -120.957124455, 200
1657, 1851.42805489, -83.9714163036, 180
1658, 1851.42805489, -83.9714163036, 190
1659, 1851.42805489, -83.9714163036, 200
1660, 1851.42805489, -46.9857081518, 180
1661, 1851.42805489, -46.9857081518, 190
1662, 1851.42805489, -46.9857081518, 200
1663, 1851.42805489, -10, 190
1664, 1851.42805489, -10, 200
1665, 1851.42805489, 0, 190
1666, 1851.42805489, 0, 200
1667, 1851.42805489, 10, 190
1668, 1851.42805489, 10, 200
1669, 1851.42805489, 25.7928642453, 180
1670, 1851.42805489, 25.7928642453, 190
1671, 1851.42805489, 25.7928642453, 200
1672, 1851.42805489, 41.5857284905, 180
1673, 1851.42805489, 41.5857284905, 190
1674, 1851.42805489, 41.5857284905, 200
1675, 1851.42805489, 57.3785927358, 180
1676, 1851.42805489, 57.3785927358, 190
1677, 1851.42805489, 57.3785927358, 200
1678, 1851.42805489, 73.1714569811, 180
1679, 1851.42805489, 73.1714569811, 190
1680, 1851.42805489, 73.1714569811, 200
1681, 1899.52838134, -10, 75.9811352536
1682, 1899.52838134, 0, 75.9811352536
1683, 1899.52838134, -10, 96.7849082029
1684, 1899.52838134, 0, 96.7849082029
1685, 1899.52838134, -10, 117.588681152
1686, 1899.52838134, 0, 117.588681152
1687, 1899.52838134, -10, 138.392454101
1688, 1899.52838134, 0, 138.392454101
1689, 1899.52838134, -10, 159.196227051
1690, 1899.52838134, 0, 159.196227051
1691, 1899.52838134, -10, 180
1692, 1899.52838134, 0, 180
1693, 1899.52838134, 10, 75.9811352536
1694, 1899.52838134, 10, 96.7849082029
1695, 1899.52838134, 10, 117.588681152
1696, 1899.52838134, 10, 138.392454101
1697, 1899.52838134, 10, 159.196227051
1698, 1899.52838134, 10, 180
1699, 1899.52838134, -160.227598114, 180
1700, 1899.52838134, -122.670698585, 180
1701, 1899.52838134, -160.227598114, 190
1702, 1899.52838134, -122.670698585, 190
1703, 1899.52838134, -160.227598114, 200
1704, 1899.52838134, -122.670698585, 200
1705, 1899.52838134, -85.1137990568, 180
1706, 1899.52838134, -85.1137990568, 190
1707, 1899.52838134, -85.1137990568, 200
1708, 1899.52838134, -47.5568995284, 180
1709, 1899.52838134, -47.5568995284, 190
1710, 1899.52838134, -47.5568995284, 200
1711, 1899.52838134, -10, 190
1712, 1899.52838134, -10, 200
1713, 1899.52838134, 0, 190
1714, 1899.52838134, 0, 200
1715, 1899.52838134, 10, 190
1716, 1899.52838134, 10, 200
1717, 1899.52838134, 25.1314847566, 180
1718, 1899.52838134, 25.1314847566, 190
1719, 1899.52838134, 25.1314847566, 200
1720, 1899.52838134, 40.2629695131, 180
1721, 1899.52838134, 40.2629695131, 190
1722, 1899.52838134, 40.2629695131, 200
1723, 1899.52838134, 55.3944542697, 180
1724, 1899.52838134, 55.3944542697, 190
1725, 1899.52838134, 55.3944542697, 200
1726, 1899.52838134, 70.5259390262, 180
1727, 1899.52838134, 70.5259390262, 190
1728, 1899.52838134, 70.5259390262, 200
1729, 1947.32269957, -10, 77.8929079826
1730, 1947.32269957, 0, 77.8929079826
1731, 1947.32269957, -10, 98.3143263861
1732, 1947.32269957, 0, 98.3143263861
1733, 1947.32269957, -10, 118.73574479
1734, 1947.32269957, 0, 118.73574479
1735, 1947.32269957, -10, 139.157163193
1736, 1947.32269957, 0, 139.157163193
1737, 1947.32269957, -10, 159.578581597
1738, 1947.32269957, 0, 159.578581597
1739, 1947.32269957, -10, 180
1740, 1947.32269957, 0, 180
1741, 1947.32269957, 10, 77.8929079826
1742, 1947.32269957, 10, 98.3143263861
1743, 1947.32269957, 10, 118.73574479
1744, 1947.32269957, 10, 139.157163193
1745, 1947.32269957, 10, 159.578581597
1746, 1947.32269957, 10, 180
1747, 1947.32269957, -162.497828229, 180
1748, 1947.32269957, -124.373371172, 180
1749, 1947.32269957, -162.497828229, 190
1750, 1947.32269957, -124.373371172, 190
1751, 1947.32269957, -162.497828229, 200
1752, 1947.32269957, -124.373371172, 200
1753, 1947.32269957, -86.2489141147, 180
1754, 1947.32269957, -86.2489141147, 190
1755, 1947.32269957, -86.2489141147, 200
1756, 1947.32269957, -48.1244570573, 180
1757, 1947.32269957, -48.1244570573, 190
1758, 1947.32269957, -48.1244570573, 200
1759, 1947.32269957, -10, 190
1760, 1947.32269957, -10, 200
1761, 1947.32269957, 0, 190
1762, 1947.32269957, 0, 200
1763, 1947.32269957, 10, 190
1764, 1947.32269957, 10, 200
1765, 1947.32269957, 24.474312881, 180
1766, 1947.32269957, 24.474312881, 190
1767, 1947.32269957, 24.474312881, 200
1768, 1947.32269957, 38.9486257619, 180
1769, 1947.32269957, 38.9486257619, 190
1770, 1947.32269957, 38.9486257619, 200
1771, 1947.32269957, 53.4229386429, 180
1772, 1947.32269957, 53.4229386429, 190
1773, 1947.32269957, 53.4229386429, 200
1774, 1947.32269957, 67.8972515239, 180
1775, 1947.32269957, 67.8972515239, 190
1776, 1947.32269957, 67.8972515239, 200
1777, 2000, -10, 80
1778, 2000, 0, 80
1779, 2000, -10, 100
1780, 2000, 0, 100
1781, 2000, -10, 120
1782, 2000, 0, 120
1783, 2000, -10, 140
1784, 2000, 0, 140
1785, 2000, -10, 160
1786, 2000, 0, 160
1787, 2000, -10, 180
1788, 2000, 0, 180
1789, 2000, 10, 80
1790, 2000, 10, 100
1791, 2000, 10, 120
1792, 2000, 10, 140
1793, 2000, 10, 160
1794, 2000, 10, 180
1795, 2000, -165, 180
1796, 2000, -126.25, 180
1797, 2000, -165, 190
1798, 2000, -126.25, 190
1799, 2000, -165, 200
1800, 2000, -126.25, 200
1801, 2000, -87.5, 180
1802, 2000, -87.5, 190
1803, 2000, -87.5, 200
1804, 2000, -48.75, 180
1805, 2000, -48.75, 190
1806, 2000, -48.75, 200
1807, 2000, -10, 190
1808, 2000, -10, 200
1809, 2000, 0, 190
1810, 2000, 0, 200
1811, 2000, 10, 190
1812, 2000, 10, 200
1813, 2000, 23.75, 180
1814, 2000, 23.75, 190
1815, 2000, 23.75, 200
1816, 2000, 37.5, 180
1817, 2000, 37.5, 190
1818, 2000, 37.5, 200
1819, 2000, 51.25, 180
1820, 2000, 51.25, 190
1821, 2000, 51.25, 200
1822, 2000, 65, 180
1823, 2000, 65, 190
1824, 2000, 65, 200
*ELEMENT, TYPE=C3D8, ELSET=EALL
1, 1, 2, 3, 4, 5, 6, 7, 8
2, 5, 6, 7, 8, 9, 10, 11, 12
3, 9, 10, 11, 12, 13, 14, 15, 16
4, 13, 14, 15, 16, 17, 18, 19, 20
5, 17, 18, 19, 20, 21, 22, 23, 24
6, 4, 3, 25, 26, 8, 7, 27, 28
7, 8, 7, 27, 28, 12, 11, 29, 30
8, 12, 11, 29, 30, 16, 15, 31, 32
9, 16, 15, 31, 32, 20, 19, 33, 34
10, 20, 19, 33, 34, 24, 23, 35, 36
11, 37, 38, 39, 40, 41, 42, 43, 44
12, 41, 42, 43, 44, 45, 46, 47, 48
13, 40, 39, 49, 50, 44, 43, 51, 52
14, 44, 43, 51, 52, 48, 47, 53, 54
15, 50, 49, 55, 56, 52, 51, 57, 58
16, 52, 51, 57, 58, 54, 53, 59, 60
17, 56, 55, 22, 21, 58, 57, 61, 62
18, 58, 57, 61, 62, 60, 59, 63, 64
19, 21, 22, 23, 24, 62, 61, 65, 66
20, 62, 61, 65, 66, 64, 63, 67, 68
21, 24, 23, 35, 36, 66, 65, 69, 70
22, 66, 65, 69, 70, 68, 67, 71, 72
23, 36, 35, 73, 74, 70, 69, 75, 76
24, 70, 69, 75, 76, 72, 71, 77, 78
25, 74, 73, 79, 80, 76, 75, 81, 82
26, 76, 75, 81, 82, 78, 77, 83, 84
27, 80, 79, 85, 86, 82, 81, 87, 88
28, 82, 81, 87, 88, 84, 83, 89, 90
29, 86, 85, 91, 92, 88, 87, 93, 94
30, 88, 87, 93, 94, 90, 89, 95, 96
31, 2, 97, 98, 3, 6, 99, 100, 7
32, 6, 99, 100, 7, 10, 101, 102, 11
33, 10, 101, 102, 11, 14, 103, 104, 15
34, 14, 103, 104, 15, 18, 105, 106, 19
35, 18, 105, 106, 19, 22, 107, 108, 23
36, 3, 98, 109, 25, 7, 100, 110, 27
37, 7, 100, 110, 27, 11, 102, 111, 29
38, 11, 102, 111, 29, 15, 104, 112, 31
39, 15, 104, 112, 31, 19, 106, 113, 33
40, 19, 106, 113, 33, 23, 108, 114, 35
41, 38, 115, 116, 39, 42, 117, 118, 43
42, 42, 117, 118, 43, 46, 119, 120, 47
43, 39, 116, 121, 49, 43, 118, 122, 51
44, 43, 118, 122, 51, 47, 120, 123, 53
45, 49, 121, 124, 55, 51, 122, 125, 57
46, 51, 122, 125, 57, 53, 123, 126, 59
47, 55, 124, 107, 22, 57, 125, 127, 61
48, 57, 125, 127, 61, 59, 126, 128, 63
49, 22, 107, 108, 23, 61, 127, 129, 65
50, 61, 127, 129, 65, 63, 128, 130, 67
51, 23, 108, 114, 35, 65, 129, 131, 69
52, 65, 129, 131, 69, 67, 130, 132, 71
53, 35, 114, 133, 73, 69, 131, 134, 75
54, 69, 131, 134, 75, 71, 132, 135, 77
55, 73, 133, 136, 79, 75, 134, 137, 81
56, 75, 134, 137, 81, 77, 135, 138, 83
57, 79, 136, 139, 85, 81, 137, 140, 87
58, 81, 137, 140, 87, 83, 138, 141, 89
59, 85, 139, 142, 91, 87, 140, 143, 93
60, 87, 140, 143, 93, 89, 141, 144, 95
61, 97, 145, 146, 98, 99, 147, 148, 100
62, 99, 147, 148, 100, 101, 149, 150, 102
63, 101, 149, 150, 102, 103, 151, 152, 104
64, 103, 151, 152, 104, 105, 153, 154, 106
65, 105, 153, 154, 106, 107, 155, 156, 108
66, 98, 146, 157, 109, 100, 148, 158, 110
67, 100, 148, 158, 110, 102, 150, 159, 111
68, 102, 150, 159, 111, 104, 152, 160, 112
69, 104, 152, 160, 112, 106, 154, 161, 113
70, 106, 154, 161, 113, 108, 156, 162, 114
71, 115, 163, 164, 116, 117, 165, 166, 118
72, 117, 165, 166, 118, 119, 167, 168, 120
73, 116, 164, 169, 121, 118, 166, 170, 122
74, 118, 166, 170, 122, 120, 168, 171, 123
75, 121, 169, 172, 124, 122, 170, 173, 125
76, 122, 170, 173, 125, 123, 171, 174, 126
77, 124, 172, 155, 107, 125, 173, 175, 127
78, 125, 173, 175, 127, 126, 174, 176, 128
79, 107, 155, 156, 108, 127, 175, 177, 129
80, 127, 175, 177, 129, 128, 176, 178, 130
81, 108, 156, 162, 114, 129, 177, 179, 131
82, 129, 177, 179, 131, 130, 178, 180, 132
83, 114, 162, 181, 133, 131, 179, 182, 134
84, 131, 179, 182, 134, 132, 180, 183, 135
85, 133, 181, 184, 136, 134, 182, 185, 137
86, 134, 182, 185, 137, 135, 183, 186, 138
87, 136, 184, 187, 139, 137, 185, 188, 140
88, 137, 185, 188, 140, 138, 186, 189, 141
89, 139, 187, 190, 142, 140, 188, 191, 143
90, 140, 188, 191, 143, 141, 189, 192, 144
91, 145, 193, 194, 146, 147, 195, 196, 148
92, 147, 195, 196, 148, 149, 197, 198, 150
93, 149, 197, 198, 150, 151, 199, 200, 152
94, 151, 199, 200, 152, 153, 201, 202, 154
95, 153, 201, 202, 154, 155, 203, 204, 156
96, 146, 194, 205, 157, 148, 196, 206, 158
97, 148, 196, 206, 158, 150, 198, 207, 159
98, 150, 198, 207, 159, 152, 200, 208, 160
99, 152, 200, 208, 160, 154, 202, 209, 161
100, 154, 202, 209, 161, 156, 204, 210, 162
101, 163, 211, 212, 164, 165, 213, 214, 166
102, 165, 213, 214, 166, 167, 215, 216, 168
103, 164, 212, 217, 169, 166, 214, 218, 170
104, 166, 214, 218, 170, 168, 216, 219, 171
105, 169, 217, 220, 172, 170, 218, 221, 173
106, 170, 218, 221, 173, 171, 219, 222, 174
107, 172, 220, 203, 155, 173, 221, 223, 175
108, 173, 221, 223, 175, 174, 222, 224, 176
109, 155, 203, 204, 156, 175, 223, 225, 177
110, 175, 223, 225, 177, 176, 224, 226, 178
111, 156, 204, 210, 162, 177, 225, 227, 179
112, 177, 225, 227, 179, 178, 226, 228, 180
113, 162, 210, 229, 181, 179, 227, 230, 182
114, 179, 227, 230, 182, 180, 228, 231, 183
115, 181, 229, 232, 184, 182, 230, 233, 185
116, 182, 230, 233, 185, 183, 231, 234, 186
117, 184, 232, 235, 187, 185, 233, 236, 188
118, 185, 233, 236, 188, 186, 234, 237, 189
119, 187, 235, 238, 190, 188, 236, 239, 191
120, 188, 236, 239, 191, 189, 237, 240, 192
121, 193, 241, 242, 194, 195, 243, 244, 196
122, 195, 243, 244, 196, 197, 245, 246, 198
123, 197, 245, 246, 198, 199, 247, 248, 200
124, 199, 247, 248, 200, 201, 249, 250, 202
125, 201, 249, 250, 202, 203, 251, 252, 204
126, 194, 242, 253, 205, 196, 244, 254, 206
127, 196, 244, 254, 206, 198, 246, 255, 207
128, 198, 246, 255, 207, 200, 248, 256, 208
129, 200, 248, 256, 208, 202, 250, 257, 209
130, 202, 250, 257, 209, 204, 252, 258, 210
131, 211, 259, 260, 212, 213, 261, 262, 214
132, 213, 261, 262, 214, 215, 263, 264, 216
133, 212, 260, 265, 217, 214, 262, 266, 218
134, 214, 262, 266, 218, 216, 264, 267, 219
135, 217, 265, 268, 220, 218, 266, 269, 221
136, 218, 266, 269, 221, 219, 267, 270, 222
137, 220, 268, 251, 203, 221, 269, 271, 223
138, 221, 269, 271, 223, 222, 270, 272, 224
139, 203, 251, 252, 204, 223, 271, 273, 225
140, 223, 271, 273, 225, 224, 272, 274, 226
141, 204, 252, 258, 210, 225, 273, 275, 227
142, 225, 273, 275, 227, 226, 274, 276, 228
143, 210, 258, 277, 229, 227, 275, 278, 230
144, 227, 275, 278, 230, 228, 276, 279, 231
145, 229, 277, 280, 232, 230, 278, 281, 233
146, 230, 278, 281, 233, 231, 279, 282, 234
147, 232, 280, 283, 235, 233, 281, 284, 236
148, 233, 281, 284, 236, 234, 282, 285, 237
149, 235, 283, 286, 238, 236, 284, 287, 239
150, 236, 284, 287, 239, 237, 285, 288, 240
151, 241, 289, 290, 242, 243, 291, 292, 244
152, 243, 291, 292, 244, 245, 293, 294, 246
153, 245, 293, 294, 246, 247, 295, 296, 248
154, 247, 295, 296, 248, 249, 297, 298, 250
155, 249, 297, 298, 250, 251, 299, 300, 252
156, 242, 290, 301, 253, 244, 292, 302, 254
157, 244, 292, 302, 254, 246, 294, 303, 255
158, 246, 294, 303, 255, 248, 296, 304, 256
159, 248, 296, 304, 256, 250, 298, 305, 257
160, 250, 298, 305, 257, 252, 300, 306, 258
161, 259, 307, 308, 260, 261, 309, 310, 262
162, 261, 309, 310, 262, 263, 311, 312, 264
163, 260, 308, 313, 265, 262, 310, 314, 266
164, 262, 310, 314, 266, 264, 312, 315, 267
165, 265, 313, 316, 268, 266, 314, 317, 269
166, 266, 314, 317, 269, 267, 315, 318, 270
167, 268, 316, 299, 251, 269, 317, 319, 271
168, 269, 317, 319, 271, 270, 318, 320, 272
169, 251, 299, 300, 252, 271, 319, 321, 273
170, 271, 319, 321, 273, 272, 320, 322, 274
171, 252, 300, 306, 258, 273, 321, 323, 275
172, 273, 321, 323, 275, 274, 322, 324, 276
173, 258, 306, 325, 277, 275, 323, 326, 278
174, 275, 323, 326, 278, 276, 324, 327, 279
175, 277, 325, 328, 280, 278, 326, 329, 281
176, 278, 326, 329, 281, 279, 327, 330, 282
177, 280, 328, 331, 283, 281, 329, 332, 284
178, 281, 329, 332, 284, 282, 330, 333, 285
179, 283, 331, 334, 286, 284, 332, 335, 287
180, 284, 332, 335, 287, 285, 333, 336, 288
181, 289, 337, 338, 290, 291, 339, 340, 292
182, 291, 339, 340, 292, 293, 341, 342, 294
183, 293, 341, 342, 294, 295, 343, 344, 296
184, 295, 343, 344, 296, 297, 345, 346, 298
185, 297, 345, 346, 298, 299, 347, 348, 300
186, 290, 338, 349, 301, 292, 340, 350, 302
187, 292, 340, 350, 302, 294, 342, 351, 303
188, 294, 342, 351, 303, 296, 344, 352, 304
189, 296, 344, 352, 304, 298, 346, 353, 305
190, 298, 346, 353, 305, 300, 348, 354, 306
191, 307, 355, 356, 308, 309, 357, 358, 310
192, 309, 357, 358, 310, 311, 359, 360, 312
193, 308, 356, 361, 313, 310, 358, 362, 314
194, 310, 358, 362, 314, 312, 360, 363, 315
195, 313, 361, 364, 316, 314, 362, 365, 317
196, 314, 362, 365, 317, 315, 363, 366, 318
197, 316, 364, 347, 299, 317, 365, 367, 319
198, 317, 365, 367, 319, 318, 366, 368, 320
199, 299, 347, 348, 300, 319, 367, 369, 321
200, 319, 367, 369, 321, 320, 368, 370, 322
201, 300, 348, 354, 306, 321, 369, 371, 323
202, 321, 369, 371, 323, 322, 370, 372, 324
203, 306, 354, 373, 325, 323, 371, 374, 326
204, 323, 371, 374, 326, 324, 372, 375, 327
205, 325, 373, 376, 328, 326, 374, 377, 329
206, 326, 374, 377, 329, 327, 375, 378, 330
207, 328, 376, 379, 331, 329, 377, 380, 332
208, 329, 377, 380, 332, 330, 378, 381, 333
209, 331, 379, 382, 334, 332, 380, 383, 335
210, 332, 380, 383, 335, 333, 381, 384, 336
211, 337, 385, 386, 338, 339, 387, 388, 340
212, 339, 387, 388, 340, 341, 389, 390, 342
213, 341, 389, 390, 342, 343, 391, 392, 344
214, 343, 391, 392, 344, 345, 393, 394, 346
215, 345, 393, 394, 346, 347, 395, 396, 348
216, 338, 386, 397, 349, 340, 388, 398, 350
217, 340, 388, 398, 350, 342, 390, 399, 351
218, 342, 390, 399, 351, 344, 392, 400, 352
219, 344, 392, 400, 352, 346, 394, 401, 353
220, 346, 394, 401, 353, 348, 396, 402, 354
221, 355, 403, 404, 356, 357, 405, 406, 358
222, 357, 405, 406, 358, 359, 407, 408, 360
223, 356, 404, 409, 361, 358, 406, 410, 362
224, 358, 406, 410, 362, 360, 408, 411, 363
225, 361, 409, 412, 364, 362, 410, 413, 365
226, 362, 410, 413, 365, 363, 411, 414, 366
227, 364, 412, 395, 347, 365, 413, 415, 367
228, 365, 413, 415, 367, 366, 414, 416, 368
229, 347, 395, 396, 348, 367, 415, 417, 369
230, 367, 415, 417, 369, 368, 416, 418, 370
231, 348, 396, 402, 354, 369, 417, 419, 371
232, 369, 417, 419, 371, 370, 418, 420, 372
233, 354, 402, 421, 373, 371, 419, 422, 374
234, 371, 419, 422, 374, 372, 420, 423, 375
235, 373, 421, 424, 376, 374, 422, 425, 377
236, 374, 422, 425, 377, 375, 423, 426, 378
237, 376, 424, 427, 379, 377, 425, 428, 380
238, 377, 425, 428, 380, 378, 426, 429, 381
239, 379, 427, 430, 382, 380, 428, 431, 383
240, 380, 428, 431, 383, 381, 429, 432, 384
241, 385, 433, 434, 386, 387, 435, 436, 388
242, 387, 435, 436, 388, 389, 437, 438, 390
243, 389, 437, 438, 390, 391, 439, 440, 392
244, 391, 439, 440, 392, 393, 441, 442, 394
245, 393, 441, 442, 394, 395, 443, 444, 396
246, 386, 434, 445, 397, 388, 436, 446, 398
247, 388, 436, 446, 398, 390, 438, 447, 399
248, 390, 438, 447, 399, 392, 440, 448, 400
249, 392, 440, 448, 400, 394, 442, 449, 401
250, 394, 442, 449, 401, 396, 444, 450, 402
251, 403, 451, 452, 404, 405, 453, 454, 406
252, 405, 453, 454, 406, 407, 455, 456, 408
253, 404, 452, 457, 409, 406, 454, 458, 410
254, 406, 454, 458, 410, 408, 456, 459, 411
255, 409, 457, 460, 412, 410, 458, 461, 413
256, 410, 458, 461, 413, 411, 459, 462, 414
257, 412, 460, 443, 395, 413, 461, 463, 415
258, 413, 461, 463, 415, 414, 462, 464, 416
259, 395, 443, 444, 396, 415, 463, 465, 417
260, 415, 463, 465, 417, 416, 464, 466, 418
261, 396, 444, 450, 402, 417, 465, 467, 419
262, 417, 465, 467, 419, 418, 466, 468, 420
263, 402, 450, 469, 421, 419, 467, 470, 422
264, 419, 467, 470, 422, 420, 468, 471, 423
265, 421, 469, 472, 424, 422, 470, 473, 425
266, 422, 470, 473, 425, 423, 471, 474, 426
267, 424, 472, 475, 427, 425, 473, 476, 428
268, 425, 473, 476, 428, 426, 474, 477, 429
269, 427, 475, 478, 430, 428, 476, 479, 431
270, 428, 476, 479, 431, 429, 477, 480, 432
271, 433, 481, 482, 434, 435, 483, 484, 436
272, 435, 483, 484, 436, 437, 485, 486, 438
273, 437, 485, 486, 438, 439, 487, 488, 440
274, 439, 487, 488, 440, 441, 489, 490, 442
275, 441, 489, 490, 442, 443, 491, 492, 444
276, 434, 482, 493, 445, 436, 484, 494, 446
277, 436, 484, 494, 446, 438, 486, 495, 447
278, 438, 486, 495, 447, 440, 488, 496, 448
279, 440, 488, 496, 448, 442, 490, 497, 449
280, 442, 490, 497, 449, 444, 492, 498, 450
281, 451, 499, 500, 452, 453, 501, 502, 454
282, 453, 501, 502, 454, 455, 503, 504, 456
283, 452, 500, 505, 457, 454, 502, 506, 458
284, 454, 502, 506, 458, 456, 504, 507, 459
285, 457, 505, 508, 460, 458, 506, 509, 461
286, 458, 506, 509, 461, 459, 507, 510, 462
287, 460, 508, 491, 443, 461, 509, 511, 463
288, 461, 509, 511, 463, 462, 510, 512, 464
289, 443, 491, 492, 444, 463, 511, 513, 465
290, 463, 511, 513, 465, 464, 512, 514, 466
291, 444, 492, 498, 450, 465, 513, 515, 467
292, 465, 513, 515, 467, 466, 514, 516, 468
293, 450, 498, 517, 469, 467, 515, 518, 470
294, 467, 515, 518, 470, 468, 516, 519, 471
295, 469, 517, 520, 472, 470, 518, 521, 473
296, 470, 518, 521, 473, 471, 519, 522, 474
297, 472, 520, 523, 475, 473, 521, 524, 476
298, 473, 521, 524, 476, 474, 522, 525, 477
299, 475, 523, 526, 478, 476, 524, 527, 479
300, 476, 524, 527, 479, 477, 525, 528, 480
301, 481, 529, 530, 482, 483, 531, 532, 484
302, 483, 531, 532, 484, 485, 533, 534, 486
303, 485, 533, 534, 486, 487, 535, 536, 488
304, 487, 535, 536, 488, 489, 537, 538, 490
305, 489, 537, 538, 490, 491, 539, 540, 492
306, 482, 530, 541, 493, 484, 532, 542, 494
307, 484, 532, 542, 494, 486, 534, 543, 495
308, 486, 534, 543, 495, 488, 536, 544, 496
309, 488, 536, 544, 496, 490, 538, 545, 497
310, 490, 538, 545, 497, 492, 540, 546, 498
311, 499, 547, 548, 500, 501, 549, 550, 502
312, 501, 549, 550, 502, 503, 551, 552, 504
313, 500, 548, 553, 505, 502, 550, 554, 506
314, 502, 550, 554, 506, 504, 552, 555, 507
315, 505, 553, 556, 508, 506, 554, 557, 509
316, 506, 554, 557, 509, 507, 555, 558, 510
317, 508, 556, 539, 491, 509, 557, 559, 511
318, 509, 557, 559, 511, 510, 558, 560, 512
319, 491, 539, 540, 492, 511, 559, 561, 513
320, 511, 559, 561, 513, 512, 560, 562, 514
321, 492, 540, 546, 498, 513, 561, 563, 515
322, 513, 561, 563, 515, 514, 562, 564, 516
323, 498, 546, 565, 517, 515, 563, 566, 518
324, 515, 563, 566, 518, 516, 564, 567, 519
325, 517, 565, 568, 520, 518, 566, 569, 521
326, 518, 566, 569, 521, 519, 567, 570, 522
327, 520, 568, 571, 523, 521, 569, 572, 524
328, 521, 569, 572, 524, 522, 570, 573, 525
329, 523, 571, 574, 526, 524, 572, 575, 527
330, 524, 572, 575, 527, 525, 573, 576, 528
331, 529, 577, 578, 530, 531, 579, 580, 532
332, 531, 579, 580, 532, 533, 581, 582, 534
333, 533, 581, 582, 534, 535, 583, 584, 536
334, 535, 583, 584, 536, 537, 585, 586, 538
335, 537, 585, 586, 538, 539, 587, 588, 540
336, 530, 578, 589, 541, 532, 580, 590, 542
337, 532, 580, 590, 542, 534, 582, 591, 543
338, 534, 582, 591, 543, 536, 584, 592, 544
339, 536, 584, 592, 544, 538, 586, 593, 545
340, 538, 586, 593, 545, 540, 588, 594, 546
341, 547, 595, 596, 548, 549, 597, 598, 550
342, 549, 597, 598, 550, 551, 599, 600, 552
343, 548, 596, 601, 553, 550, 598, 602, 554
344, 550, 598, 602, 554, 552, 600, 603, 555
345, 553, 601, 604, 556, 554, 602, 605, 557
346, 554, 602, 605, 557, 555, 603, 606, 558
347, 556, 604, 587, 539, 557, 605, 607, 559
348, 557, 605, 607, 559, 558, 606, 608, 560
349, 539, 587, 588, 540, 559, 607, 609, 561
350, 559, 607, 609, 561, 560, 608, 610, 562
351, 540, 588, 594, 546, 561, 609, 611, 563
352, 561, 609, 611, 563, 562, 610, 612, 564
353, 546, 594, 613, 565, 563, 611, 614, 566
354, 563, 611, 614, 566, 564, 612, 615, 567
355, 565, 613, 616, 568, 566, 614, 617, 569
356, 566, 614, 617, 569, 567, 615, 618, 570
357, 568, 616, 619, 571, 569, 617, 620, 572
358, 569, 617, 620, 572, 570, 618, 621, 573
359, 571, 619, 622, 574, 572, 620, 623, 575
360, 572, 620, 623, 575, 573, 621, 624, 576
361, 577, 625, 626, 578, 579, 627, 628, 580
362, 579, 627, 628, 580, 581, 629, 630, 582
363, 581, 629, 630, 582, 583, 631, 632, 584
364, 583, 631, 632, 584, 585, 633, 634, 586
365, 585, 633, 634, 586, 587, 635, 636, 588
366, 578, 626, 637, 589, 580, 628, 638, 590
367, 580, 628, 638, 590, 582, 630, 639, 591
368, 582, 630, 639, 591, 584, 632, 640, 592
369, 584, 632, 640, 592, 586, 634, 641, 593
370, 586, 634, 641, 593, 588, 636, 642, 594
371, 595, 643, 644, 596, 597, 645, 646, 598
372, 597, 645, 646, 598, 599, 647, 648, 600
373, 596, 644, 649, 601, 598, 646, 650, 602
374, 598, 646, 650, 602, 600, 648, 651, 603
375, 601, 649, 652, 604, 602, 650, 653, 605
376, 602, 650, 653, 605, 603, 651, 654, 606
377, 604, 652, 635, 587, 605, 653, 655, 607
378, 605, 653, 655, 607, 606, 654, 656, 608
379, 587, 635, 636, 588, 607, 655, 657, 609
380, 607, 655, 657, 609, 608, 656, 658, 610
381, 588, 636, 642, 594, 609, 657, 659, 611
382, 609, 657, 659, 611, 610, 658, 660, 612
383, 594, 642, 661, 613, 611, 659, 662, 614
384, 611, 659, 662, 614, 612, 660, 663, 615
385, 613, 661, 664, 616, 614, 662, 665, 617
386, 614, 662, 665, 617, 615, 663, 666, 618
387, 616, 664, 667, 619, 617, 665, 668, 620
388, 617, 665, 668, 620, 618, 666, 669, 621
389, 619, 667, 670, 622, 620, 668, 671, 623
390, 620, 668, 671, 623, 621, 669, 672, 624
391, 625, 673, 674, 626, 627, 675, 676, 628
392, 627, 675, 676, 628, 629, 677, 678, 630
393, 629, 677, 678, 630, 631, 679, 680, 632
394, 631, 679, 680, 632, 633, 681, 682, 634
395, 633, 681, 682, 634, 635, 683, 684, 636
396, 626, 674, 685, 637, 628, 676, 686, 638
397, 628, 676, 686, 638, 630, 678, 687, 639
398, 630, 678, 687, 639, 632, 680, 688, 640
399, 632, 680, 688, 640, 634, 682, 689, 641
400, 634, 682, 689, 641, 636, 684, 690, 642
401, 643, 691, 692, 644, 645, 693, 694, 646
402, 645, 693, 694, 646, 647, 695, 696, 648
403, 644, 692, 697, 649, 646, 694, 698, 650
404, 646, 694, 698, 650, 648, 696, 699, 651
405, 649, 697, 700, 652, 650, 698, 701, 653
406, 650, 698, 701, 653, 651, 699, 702, 654
407, 652, 700, 683, 635, 653, 701, 703, 655
408, 653, 701, 703, 655, 654, 702, 704, 656
409, 635, 683, 684, 636, 655, 703, 705, 657
410, 655, 703, 705, 657, 656, 704, 706, 658
411, 636, 684, 690, 642, 657, 705, 707, 659
412, 657, 705, 707, 659, 658, 706, 708, 660
413, 642, 690, 709, 661, 659, 707, 710, 662
414, 659, 707, 710, 662, 660, 708, 711, 663
415, 661, 709, 712, 664, 662, 710, 713, 665
416, 662, 710, 713, 665, 663, 711, 714, 666
417, 664, 712, 715, 667, 665, 713, 716, 668
418, 665, 713, 716, 668, 666, 714, 717, 669
419, 667, 715, 718, 670, 668, 716, 719, 671
420, 668, 716, 719, 671, 669, 717, 720, 672
421, 673, 721, 722, 674, 675, 723, 724, 676
422, 675, 723, 724, 676, 677, 725, 726, 678
423, 677, 725, 726, 678, 679, 727, 728, 680
424, 679, 727, 728, 680, 681, 729, 730, 682
425, 681, 729, 730, 682, 683, 731, 732, 684
426, 674, 722, 733, 685, 676, 724, 734, 686
427, 676, 724, 734, 686, 678, 726, 735, 687
428, 678, 726, 735, 687, 680, 728, 736, 688
429, 680, 728, 736, 688, 682, 730, 737, 689
430, 682, 730, 737, 689, 684, 732, 738, 690
431, 691, 739, 740, 692, 693, 741, 742, 694
432, 693, 741, 742, 694, 695, 743, 744, 696
433, 692, 740, 745, 697, 694, 742, 746, 698
434, 694, 742, 746, 698, 696, 744, 747, 699
435, 697, 745, 748, 700, 698, 746, 749, 701
436, 698, 746, 749, 701, 699, 747, 750, 702
437, 700, 748, 731, 683, 701, 749, 751, 703
438, 701, 749, 751, 703, 702, 750, 752, 704
439, 683, 731, 732, 684, 703, 751, 753, 705
440, 703, 751, 753, 705, 704, 752, 754, 706
441, 684, 732, 738, 690, 705, 753, 755, 707
442, 705, 753, 755, 707, 706, 754, 756, 708
443, 690, 738, 757, 709, 707, 755, 758, 710
444, 707, 755, 758, 710, 708, 756, 759, 711
445, 709, 757, 760, 712, 710, 758, 761, 713
446, 710, 758, 761, 713, 711, 759, 762, 714
447, 712, 760, 763, 715, 713, 761, 764, 716
448, 713, 761, 764, 716, 714, 762, 765, 717
449, 715, 763, 766, 718, 716, 764, 767, 719
450, 716, 764, 767, 719, 717, 765, 768, 720
451, 721, 769, 770, 722, 723, 771, 772, 724
452, 723, 771, 772, 724, 725, 773, 774, 726
453, 725, 773, 774, 726, 727, 775, 776, 728
454, 727, 775, 776, 728, 729, 777, 778, 730
455, 729, 777, 778, 730, 731, 779, 780, 732
456, 722, 770, 781, 733, 724, 772, 782, 734
457, 724, 772, 782, 734, 726, 774, 783, 735
458, 726, 774, 783, 735, 728, 776, 784, 736
459, 728, 776, 784, 736, 730, 778, 785, 737
460, 730, 778, 785, 737, 732, 780, 786, 738
461, 739, 787, 788, 740, 741, 789, 790, 742
462, 741, 789, 790, 742, 743, 791, 792, 744
463, 740, 788, 793, 745, 742, 790, 794, 746
464, 742, 790, 794, 746, 744, 792, 795, 747
465, 745, 793, 796, 748, 746, 794, 797, 749
466, 746, 794, 797, 749, 747, 795, 798, 750
467, 748, 796, 779, 731, 749, 797, 799, 751
468, 749, 797, 799, 751, 750, 798, 800, 752
469, 731, 779, 780, 732, 751, 799, 801, 753
470, 751, 799, 801, 753, 752, 800, 802, 754
471, 732, 780, 786, 738, 753, 801, 803, 755
472, 753, 801, 803, 755, 754, 802, 804, 756
473, 738, 786, 805, 757, 755, 803, 806, 758
474, 755, 803, 806, 758, 756, 804, 807, 759
475, 757, 805, 808, 760, 758, 806, 809, 761
476, 758, 806, 809, 761, 759, 807, 810, 762
477, 760, 808, 811, 763, 761, 809, 812, 764
478, 761, 809, 812, 764, 762, 810, 813, 765
479, 763, 811, 814, 766, 764, 812, 815, 767
480, 764, 812, 815, 767, 765, 813, 816, 768
481, 769, 817, 818, 770, 771, 819, 820, 772
482, 771, 819, 820, 772, 773, 821, 822, 774
483, 773, 821, 822, 774, 775, 823, 824, 776
484, 775, 823, 824, 776, 777, 825, 826, 778
485, 777, 825, 826, 778, 779, 827, 828, 780
486, 770, 818, 829, 781, 772, 820, 830, 782
487, 772, 820, 830, 782, 774, 822, 831, 783
488, 774, 822, 831, 783, 776, 824, 832, 784
489, 776, 824, 832, 784, 778, 826, 833, 785
490, 778, 826, 833, 785, 780, 828, 834, 786
491, 787, 835, 836, 788, 789, 837, 838, 790
492, 789, 837, 838, 790, 791, 839, 840, 792
493, 788, 836, 841, 793, 790, 838, 842, 794
494, 790, 838, 842, 794, 792, 840, 843, 795
495, 793, 841, 844, 796, 794, 842, 845, 797
496, 794, 842, 845, 797, 795, 843, 846, 798
497, 796, 844, 827, 779, 797, 845, 847, 799
498, 797, 845, 847, 799, 798, 846, 848, 800
499, 779, 827, 828, 780, 799, 847, 849, 801
500, 799, 847, 849, 801, 800, 848, 850, 802
501, 780, 828, 834, 786, 801, 849, 851, 803
502, 801, 849, 851, 803, 802, 850, 852, 804
503, 786, 834, 853, 805, 803, 851, 854, 806
504, 803, 851, 854, 806, 804, 852, 855, 807
505, 805, 853, 856, 808, 806, 854, 857, 809
506, 806, 854, 857, 809, 807, 855, 858, 810
507, 808, 856, 859, 811, 809, 857, 860, 812
508, 809, 857, 860, 812, 810, 858, 861, 813
509, 811, 859, 862, 814, 812, 860, 863, 815
510, 812, 860, 863, 815, 813, 861, 864, 816
511, 817, 865, 866, 818, 819, 867, 868, 820
512, 819, 867, 868, 820, 821, 869, 870, 822
513, 821, 869, 870, 822, 823, 871, 872, 824
514, 823, 871, 872, 824, 825, 873, 874, 826
515, 825, 873, 874, 826, 827, 875, 876, 828
516, 818, 866, 877, 829, 820, 868, 878, 830
517, 820, 868, 878, 830, 822, 870, 879, 831
518, 822, 870, 879, 831, 824, 872, 880, 832
519, 824, 872, 880, 832, 826, 874, 881, 833
520, 826, 874, 881, 833, 828, 876, 882, 834
521, 835, 883, 884, 836, 837, 885, 886, 838
522, 837, 885, 886, 838, 839, 887, 888, 840
523, 836, 884, 889, 841, 838, 886, 890, 842
524, 838, 886, 890, 842, 840, 888, 891, 843
525, 841, 889, 892, 844, 842, 890, 893, 845
526, 842, 890, 893, 845, 843, 891, 894, 846
527, 844, 892, 875, 827, 845, 893, 895, 847
528, 845, 893, 895, 847, 846, 894, 896, 848
529, 827, 875, 876, 828, 847, 895, 897, 849
530, 847, 895, 897, 849, 848, 896, 898, 850
531, 828, 876, 882, 834, 849, 897, 899, 851
532, 849, 897, 899, 851, 850, 898, 900, 852
533, 834, 882, 901, 853, 851, 899, 902, 854
534, 851, 899, 902, 854, 852, 900, 903, 855
535, 853, 901, 904, 856, 854, 902, 905, 857
536, 854, 902, 905, 857, 855, 903, 906, 858
537, 856, 904, 907, 859, 857, 905, 908, 860
538, 857, 905, 908, 860, 858, 906, 909, 861
539, 859, 907, 910, 862, 860, 908, 911, 863
540, 860, 908, 911, 863, 861, 909, 912, 864
541, 865, 913, 914, 866, 867, 915, 916, 868
542, 867, 915, 916, 868, 869, 917, 918, 870
543, 869, 917, 918, 870, 871, 919, 920, 872
544, 871, 919, 920, 872, 873, 921, 922, 874
545, 873, 921, 922, 874, 875, 923, 924, 876
546, 866, 914, 925, 877, 868, 916, 926, 878
547, 868, 916, 926, 878, 870, 918, 927, 879
548, 870, 918, 927, 879, 872, 920, 928, 880
549, 872, 920, 928, 880, 874, 922, 929, 881
550, 874, 922, 929, 881, 876, 924, 930, 882
551, 883, 931, 932, 884, 885, 933, 934, 886
552, 885, 933, 934, 886, 887, 935, 936, 888
553, 884, 932, 937, 889, 886, 934, 938, 890
554, 886, 934, 938, 890, 888, 936, 939, 891
555, 889, 937, 940, 892, 890, 938, 941, 893
556, 890, 938, 941, 893, 891, 939, 942, 894
557, 892, 940, 923, 875, 893, 941, 943, 895
558, 893, 941, 943, 895, 894, 942, 944, 896
559, 875, 923, 924, 876, 895, 943, 945, 897
560, 895, 943, 945, 897, 896, 944, 946, 898
561, 876, 924, 930, 882, 897, 945, 947, 899
562, 897, 945, 947, 899, 898, 946, 948, 900
563, 882, 930, 949, 901, 899, 947, 950, 902
564, 899, 947, 950, 902, 900, 948, 951, 903
565, 901, 949, 952, 904, 902, 950, 953, 905
566, 902, 950, 953, 905, 903, 951, 954, 906
567, 904, 952, 955, 907, 905, 953, 956, 908
568, 905, 953, 956, 908, 906, 954, 957, 909
569, 907, 955, 958, 910, 908, 956, 959, 911
570, 908, 956, 959, 911, 909, 957, 960, 912
571, 913, 961, 962, 914, 915, 963, 964, 916
572, 915, 963, 964, 916, 917, 965, 966, 918
573, 917, 965, 966, 918, 919, 967, 968, 920
574, 919, 967, 968, 920, 921, 969, 970, 922
575, 921, 969, 970, 922, 923, 971, 972, 924
576, 914, 962, 973, 925, 916, 964, 974, 926
577, 916, 964, 974, 926, 918, 966, 975, 927
578, 918, 966, 975, 927, 920, 968, 976, 928
579, 920, 968, 976, 928, 922, 970, 977, 929
580, 922, 970, 977, 929, 924, 972, 978, 930
581, 931, 979, 980, 932, 933, 981, 982, 934
582, 933, 981, 982, 934, 935, 983, 984, 936
583, 932, 980, 985, 937, 934, 982, 986, 938
584, 934, 982, 986, 938, 936, 984, 987, 939
585, 937, 985, 988, 940, 938, 986, 989, 941
586, 938, 986, 989, 941, 939, 987, 990, 942
587, 940, 988, 971, 923, 941, 989, 991, 943
588, 941, 989, 991, 943, 942, 990, 992, 944
589, 923, 971, 972, 924, 943, 991, 993, 945
590, 943, 991, 993, 945, 944, 992, 994, 946
591, 924, 972, 978, 930, 945, 993, 995, 947
592, 945, 993, 995, 947, 946, 994, 996, 948
593, 930, 978, 997, 949, 947, 995, 998, 950
594, 947, 995, 998, 950, 948, 996, 999, 951
595, 949, 997, 1000, 952, 950, 998, 1001, 953
596, 950, 998, 1001, 953, 951, 999, 1002, 954
597, 952, 1000, 1003, 955, 953, 1001, 1004, 956
598, 953, 1001, 1004, 956, 954, 1002, 1005, 957
599, 955, 1003, 1006, 958, 956, 1004, 1007, 959
600, 956, 1004, 1007, 959, 957, 1005, 1008, 960
601, 961, 1009, 1010, 962, 963, 1011, 1012, 964
602, 963, 1011, 1012, 964, 965, 1013, 1014, 966
603, 965, 1013, 1014, 966, 967, 1015, 1016, 968
604, 967, 1015, 1016, 968, 969, 1017, 1018, 970
605, 969, 1017, 1018, 970, 971, 1019, 1020, 972
606, 962, 1010, 1021, 973, 964, 1012, 1022, 974
607, 964, 1012, 1022, 974, 966, 1014, 1023, 975
608, 966, 1014, 1023, 975, 968, 1016, 1024, 976
609, 968, 1016, 1024, 976, 970, 1018, 1025, 977
610, 970, 1018, 1025, 977, 972, 1020, 1026, 978
611, 979, 1027, 1028, 980, 981, 1029, 1030, 982
612, 981, 1029, 1030, 982, 983, 1031, 1032, 984
613, 980, 1028, 1033, 985, 982, 1030, 1034, 986
614, 982, 1030, 1034, 986, 984, 1032, 1035, 987
615, 985, 1033, 1036, 988, 986, 1034, 1037, 989
616, 986, 1034, 1037, 989, 987, 1035, 1038, 990
617, 988, 1036, 1019, 971, 989, 1037, 1039, 991
618, 989, 1037, 1039, 991, 990, 1038, 1040, 992
619, 971, 1019, 1020, 972, 991, 1039, 1041, 993
620, 991, 1039, 1041, 993, 992, 1040, 1042, 994
621, 972, 1020, 1026, 978, 993, 1041, 1043, 995
622, 993, 1041, 1043, 995, 994, 1042, 1044, 996
623, 978, 1026, 1045, 997, 995, 1043, 1046, 998
624, 995, 1043, 1046, 998, 996, 1044, 1047, 999
625, 997, 1045, 1048, 1000, 998, 1046, 1049, 1001
626, 998, 1046, 1049, 1001, 999, 1047, 1050, 1002
627, 1000, 1048, 1051, 1003, 1001, 1049, 1052, 1004
628, 1001, 1049, 1052, 1004, 1002, 1050, 1053, 1005
629, 1003, 1051, 1054, 1006, 1004, 1052, 1055, 1007
630, 1004, 1052, 1055, 1007, 1005, 1053, 1056, 1008
631, 1009, 1057, 1058, 1010, 1011, 1059, 1060, 1012
632, 1011, 1059, 1060, 1012, 1013, 1061, 1062, 1014
633, 1013, 1061, 1062, 1014, 1015, 1063, 1064, 1016
634, 1015, 1063, 1064, 1016, 1017, 1065, 1066, 1018
635, 1017, 1065, 1066, 1018, 1019, 1067, 1068, 1020
636, 1010, 1058, 1069, 1021, 1012, 1060, 1070, 1022
637, 1012, 1060, 1070, 1022, 1014, 1062, 1071, 1023
638, 1014, 1062, 1071, 1023, 1016, 1064, 1072, 1024
639, 1016, 1064, 1072, 1024, 1018, 1066, 1073, 1025
640, 1018, 1066, 1073, 1025, 1020, 1068, 1074, 1026
641, 1027, 1075, 1076, 1028, 1029, 1077, 1078, 1030
642, 1029, 1077, 1078, 1030, 1031, 1079, 1080, 1032
643, 1028, 1076, 1081, 1033, 1030, 1078, 1082, 1034
644, 1030, 1078, 1082, 1034, 1032, 1080, 1083, 1035
645, 1033, 1081, 1084, 1036, 1034, 1082, 1085, 1037
646, 1034, 1082, 1085, 1037, 1035, 1083, 1086, 1038
647, 1036, 1084, 1067, 1019, 1037, 1085, 1087, 1039
648, 1037, 1085, 1087, 1039, 1038, 1086, 1088, 1040
649, 1019, 1067, 1068, 1020, 1039, 1087, 1089, 1041
650, 1039, 1087, 1089, 1041, 1040, 1088, 1090, 1042
651, 1020, 1068, 1074, 1026, 1041, 1089, 1091, 1043
652, 1041, 1089, 1091, 1043, 1042, 1090, 1092, 1044
653, 1026, 1074, 1093, 1045, 1043, 1091, 1094, 1046
654, 1043, 1091, 1094, 1046, 1044, 1092, 1095, 1047
655, 1045, 1093, 1096, 1048, 1046, 1094, 1097, 1049
656, 1046, 1094, 1097, 1049, 1047, 1095, 1098, 1050
657, 1048, 1096, 1099, 1051, 1049, 1097, 1100, 1052
658, 1049, 1097, 1100, 1052, 1050, 1098, 1101, 1053
659, 1051, 1099, 1102, 1054, 1052, 1100, 1103, 1055
660, 1052, 1100, 1103, 1055, 1053, 1101, 1104, 1056
661, 1057, 1105, 1106, 1058, 1059, 1107, 1108, 1060
662, 1059, 1107, 1108, 1060, 1061, 1109, 1110, 1062
663, 1061, 1109, 1110, 1062, 1063, 1111, 1112, 1064
664, 1063, 1111, 1112, 1064, 1065, 1113, 1114, 1066
665, 1065, 1113, 1114, 1066, 1067, 1115, 1116, 1068
666, 1058, 1106, 1117, 1069, 1060, 1108, 1118, 1070
667, 1060, 1108, 1118, 1070, 1062, 1110, 1119, 1071
668, 1062, 1110, 1119, 1071, 1064, 1112, 1120, 1072
669, 1064, 1112, 1120, 1072, 1066, 1114, 1121, 1073
670, 1066, 1114, 1121, 1073, 1068, 1116, 1122, 1074
671, 1075, 1123, 1124, 1076, 1077, 1125, 1126, 1078
672, 1077, 1125, 1126, 1078, 1079, 1127, 1128, 1080
673, 1076, 1124, 1129, 1081, 1078, 1126, 1130, 1082
674, 1078, 1126, 1130, 1082, 1080, 1128, 1131, 1083
675, 1081, 1129, 1132, 1084, 1082, 1130, 1133, 1085
676, 1082, 1130, 1133, 1085, 1083, 1131, 1134, 1086
677, 1084, 1132, 1115, 1067, 1085, 1133, 1135, 1087
678, 1085, 1133, 1135, 1087, 1086, 1134, 1136, 1088
679, 1067, 1115, 1116, 1068, 1087, 1135, 1137, 1089
680, 1087, 1135, 1137, 1089, 1088, 1136, 1138, 1090
681, 1068, 1116, 1122, 1074, 1089, 1137, 1139, 1091
682, 1089, 1137, 1139, 1091, 1090, 1138, 1140, 1092
683, 1074, 1122, 1141, 1093, 1091, 1139, 1142, 1094
684, 1091, 1139, 1142, 1094, 1092, 1140, 1143, 1095
685, 1093, 1141, 1144, 1096, 1094, 1142, 1145, 1097
686, 1094, 1142, 1145, 1097, 1095, 1143, 1146, 1098
687, 1096, 1144, 1147, 1099, 1097, 1145, 1148, 1100
688, 1097, 1145, 1148, 1100, 1098, 1146, 1149, 1101
689, 1099, 1147, 1150, 1102, 1100, 1148, 1151, 1103
690, 1100, 1148, 1151, 1103, 1101, 1149, 1152, 1104
691, 1105, 1153, 1154, 1106, 1107, 1155, 1156, 1108
692, 1107, 1155, 1156, 1108, 1109, 1157, 1158, 1110
693, 1109, 1157, 1158, 1110, 1111, 1159, 1160, 1112
694, 1111, 1159, 1160, 1112, 1113, 1161, 1162, 1114
695, 1113, 1161, 1162, 1114, 1115, 1163, 1164, 1116
696, 1106, 1154, 1165, 1117, 1108, 1156, 1166, 1118
697, 1108, 1156, 1166, 1118, 1110, 1158, 1167, 1119
698, 1110, 1158, 1167, 1119, 1112, 1160, 1168, 1120
699, 1112, 1160, 1168, 1120, 1114, 1162, 1169, 1121
700, 1114, 1162, 1169, 1121, 1116, 1164, 1170, 1122
701, 1123, 1171, 1172, 1124, 1125, 1173, 1174, 1126
702, 1125, 1173, 1174, 1126, 1127, 1175, 1176, 1128
703, 1124, 1172, 1177, 1129, 1126, 1174, 1178, 1130
704, 1126, 1174, 1178, 1130, 1128, 1176, 1179, 1131
705, 1129, 1177, 1180, 1132, 1130, 1178, 1181, 1133
706, 1130, 1178, 1181, 1133, 1131, 1179, 1182, 1134
707, 1132, 1180, 1163, 1115, 1133, 1181, 1183, 1135
708, 1133, 1181, 1183, 1135, 1134, 1182, 1184, 1136
709, 1115, 1163, 1164, 1116, 1135, 1183, 1185, 1137
710, 1135, 1183, 1185, 1137, 1136, 1184, 1186, 1138
711, 1116, 1164, 1170, 1122, 1137, 1185, 1187, 1139
712, 1137, 1185, 1187, 1139, 1138, 1186, 1188, 1140
713, 1122, 1170, 1189, 1141, 1139, 1187, 1190, 1142
714, 1139, 1187, 1190, 1142, 1140, 1188, 1191, 1143
715, 1141, 1189, 1192, 1144, 1142, 1190, 1193, 1145
716, 1142, 1190, 1193, 1145, 1143, 1191, 1194, 1146
717, 1144, 1192, 1195, 1147, 1145, 1193, 1196, 1148
718, 1145, 1193, 1196, 1148, 1146, 1194, 1197, 1149
719, 1147, 1195, 1198, 1150, 1148, 1196, 1199, 1151
720, 1148, 1196, 1199, 1151, 1149, 1197, 1200, 1152
721, 1153, 1201, 1202, 1154, 1155, 1203, 1204, 1156
722, 1155, 1203, 1204, 1156, 1157, 1205, 1206, 1158
723, 1157, 1205, 1206, 1158, 1159, 1207, 1208, 1160
724, 1159, 1207, 1208, 1160, 1161, 1209, 1210, 1162
725, 1161, 1209, 1210, 1162, 1163, 1211, 1212, 1164
726, 1154, 1202, 1213, 1165, 1156, 1204, 1214, 1166
727, 1156, 1204, 1214, 1166, 1158, 1206, 1215, 1167
728, 1158, 1206, 1215, 1167, 1160, 1208, 1216, 1168
729, 1160, 1208, 1216, 1168, 1162, 1210, 1217, 1169
730, 1162, 1210, 1217, 1169, 1164, 1212, 1218, 1170
731, 1171, 1219, 1220, 1172, 1173, 1221, 1222, 1174
732, 1173, 1221, 1222, 1174, 1175, 1223, 1224, 1176
733, 1172, 1220, 1225, 1177, 1174, 1222, 1226, 1178
734, 1174, 1222, 1226, 1178, 1176, 1224, 1227, 1179
735, 1177, 1225, 1228, 1180, 1178, 1226, 1229, 1181
736, 1178, 1226, 1229, 1181, 1179, 1227, 1230, 1182
737, 1180, 1228, 1211, 1163, 1181, 1229, 1231, 1183
738, 1181, 1229, 1231, 1183, 1182, 1230, 1232, 1184
739, 1163, 1211, 1212, 1164, 1183, 1231, 1233, 1185
740, 1183, 1231, 1233, 1185, 1184, 1232, 1234, 1186
741, 1164, 1212, 1218, 1170, 1185, 1233, 1235, 1187
742, 1185, 1233, 1235, 1187, 1186, 1234, 1236, 1188
743, 1170, 1218, 1237, 1189, 1187, 1235, 1238, 1190
744, 1187, 1235, 1238, 1190, 1188, 1236, 1239, 1191
745, 1189, 1237, 1240, 1192, 1190, 1238, 1241, 1193
746, 1190, 1238, 1241, 1193, 1191, 1239, 1242, 1194
747, 1192, 1240, 1243, 1195, 1193, 1241, 1244, 1196
748, 1193, 1241, 1244, 1196, 1194, 1242, 1245, 1197
749, 1195, 1243, 1246, 1198, 1196, 1244, 1247, 1199
750, 1196, 1244, 1247, 1199, 1197, 1245, 1248, 1200
751, 1201, 1249, 1250, 1202, 1203, 1251, 1252, 1204
752, 1203, 1251, 1252, 1204, 1205, 1253, 1254, 1206
753, 1205, 1253, 1254, 1206, 1207, 1255, 1256, 1208
754, 1207, 1255, 1256, 1208, 1209, 1257, 1258, 1210
755, 1209, 1257, 1258, 1210, 1211, 1259, 1260, 1212
756, 1202, 1250, 1261, 1213, 1204, 1252, 1262, 1214
757, 1204, 1252, 1262, 1214, 1206, 1254, 1263, 1215
758, 1206, 1254, 1263, 1215, 1208, 1256, 1264, 1216
759, 1208, 1256, 1264, 1216, 1210, 1258, 1265, 1217
760, 1210, 1258, 1265, 1217, 1212, 1260, 1266, 1218
761, 1219, 1267, 1268, 1220, 1221, 1269, 1270, 1222
762, 1221, 1269, 1270, 1222, 1223, 1271, 1272, 1224
763, 1220, 1268, 1273, 1225, 1222, 1270, 1274, 1226
764, 1222, 1270, 1274, 1226, 1224, 1272, 1275, 1227
765, 1225, 1273, 1276, 1228, 1226, 1274, 1277, 1229
766, 1226, 1274, 1277, 1229, 1227, 1275, 1278, 1230
767, 1228, 1276, 1259, 1211, 1229, 1277, 1279, 1231
768, 1229, 1277, 1279, 1231, 1230, 1278, 1280, 1232
769, 1211, 1259, 1260, 1212, 1231, 1279, 1281, 1233
770, 1231, 1279, 1281, 1233, 1232, 1280, 1282, 1234
771, 1212, 1260, 1266, 1218, 1233, 1281, 1283, 1235
772, 1233, 1281, 1283, 1235, 1234, 1282, 1284, 1236
773, 1218, 1266, 1285, 1237, 1235, 1283, 1286, 1238
774, 1235, 1283, 1286, 1238, 1236, 1284, 1287, 1239
775, 1237, 1285, 1288, 1240, 1238, 1286, 1289, 1241
776, 1238, 1286, 1289, 1241, 1239, 1287, 1290, 1242
777, 1240, 1288, 1291, 1243, 1241, 1289, 1292, 1244
778, 1241, 1289, 1292, 1244, 1242, 1290, 1293, 1245
779, 1243, 1291, 1294, 1246, 1244, 1292, 1295, 1247
780, 1244, 1292, 1295, 1247, 1245, 1293, 1296, 1248
781, 1249, 1297, 1298, 1250, 1251, 1299, 1300, 1252
782, 1251, 1299, 1300, 1252, 1253, 1301, 1302, 1254
783, 1253, 1301, 1302, 1254, 1255, 1303, 1304, 1256
784, 1255, 1303, 1304, 1256, 1257, 1305, 1306, 1258
785, 1257, 1305, 1306, 1258, 1259, 1307, 1308, 1260
786, 1250, 1298, 1309, 1261, 1252, 1300, 1310, 1262
787, 1252, 1300, 1310, 1262, 1254, 1302, 1311, 1263
788, 1254, 1302, 1311, 1263, 1256, 1304, 1312, 1264
789, 1256, 1304, 1312, 1264, 1258, 1306, 1313, 1265
790, 1258, 1306, 1313, 1265, 1260, 1308, 1314, 1266
791, 1267, 1315, 1316, 1268, 1269, 1317, 1318, 1270
792, 1269, 1317, 1318, 1270, 1271, 1319, 1320, 1272
793, 1268, 1316, 1321, 1273, 1270, 1318, 1322, 1274
794, 1270, 1318, 1322, 1274, 1272, 1320, 1323, 1275
795, 1273, 1321, 1324, 1276, 1274, 1322, 1325, 1277
796, 1274, 1322, 1325, 1277, 1275, 1323, 1326, 1278
797, 1276, 1324, 1307, 1259, 1277, 1325, 1327, 1279
798, 1277, 1325, 1327, 1279, 1278, 1326, 1328, 1280
799, 1259, 1307, 1308, 1260, 1279, 1327, 1329, 1281
800, 1279, 1327, 1329, 1281, 1280, 1328, 1330, 1282
801, 1260, 1308, 1314, 1266, 1281, 1329, 1331, 1283
802, 1281, 1329, 1331, 1283, 1282, 1330, 1332, 1284
803, 1266, 1314, 1333, 1285, 1283, 1331, 1334, 1286
804, 1283, 1331, 1334, 1286, 1284, 1332, 1335, 1287
805, 1285, 1333, 1336, 1288, 1286, 1334, 1337, 1289
806, 1286, 1334, 1337, 1289, 1287, 1335, 1338, 1290
807, 1288, 1336, 1339, 1291, 1289, 1337, 1340, 1292
808, 1289, 1337, 1340, 1292, 1290, 1338, 1341, 1293
809, 1291, 1339, 1342, 1294, 1292, 1340, 1343, 1295
810, 1292, 1340, 1343, 1295, 1293, 1341, 1344, 1296
811, 1297, 1345, 1346, 1298, 1299, 1347, 1348, 1300
812, 1299, 1347, 1348, 1300, 1301, 1349, 1350, 1302
813, 1301, 1349, 1350, 1302, 1303, 1351, 1352, 1304
814, 1303, 1351, 1352, 1304, 1305, 1353, 1354, 1306
815, 1305, 1353, 1354, 1306, 1307, 1355, 1356, 1308
816, 1298, 1346, 1357, 1309, 1300, 1348, 1358, 1310
817, 1300, 1348, 1358, 1310, 1302, 1350, 1359, 1311
818, 1302, 1350, 1359, 1311, 1304, 1352, 1360, 1312
819, 1304, 1352, 1360, 1312, 1306, 1354, 1361, 1313
820, 1306, 1354, 1361, 1313, 1308, 1356, 1362, 1314
821, 1315, 1363, 1364, 1316, 1317, 1365, 1366, 1318
822, 1317, 1365, 1366, 1318, 1319, 1367, 1368, 1320
823, 1316, 1364, 1369, 1321, 1318, 1366, 1370, 1322
824, 1318, 1366, 1370, 1322, 1320, 1368, 1371, 1323
825, 1321, 1369, 1372, 1324, 1322, 1370, 1373, 1325
826, 1322, 1370, 1373, 1325, 1323, 1371, 1374, 1326
827, 1324, 1372, 1355, 1307, 1325, 1373, 1375, 1327
828, 1325, 1373, 1375, 1327, 1326, 1374, 1376, 1328
829, 1307, 1355, 1356, 1308, 1327, 1375, 1377, 1329
830, 1327, 1375, 1377, 1329, 1328, 1376, 1378, 1330
831, 1308, 1356, 1362, 1314, 1329, 1377, 1379, 1331
832, 1329, 1377, 1379, 1331, 1330, 1378, 1380, 1332
833, 1314, 1362, 1381, 1333, 1331, 1379, 1382, 1334
834, 1331, 1379, 1382, 1334, 1332, 1380, 1383, 1335
835, 1333, 1381, 1384, 1336, 1334, 1382, 1385, 1337
836, 1334, 1382, 1385, 1337, 1335, 1383, 1386, 1338
837, 1336, 1384, 1387, 1339, 1337, 1385, 1388, 1340
838, 1337, 1385, 1388, 1340, 1338, 1386, 1389, 1341
839, 1339, 1387, 1390, 1342, 1340, 1388, 1391, 1343
840, 1340, 1388, 1391, 1343, 1341, 1389, 1392, 1344
841, 1345, 1393, 1394, 1346, 1347, 1395, 1396, 1348
842, 1347, 1395, 1396, 1348, 1349, 1397, 1398, 1350
843, 1349, 1397, 1398, 1350, 1351, 1399, 1400, 1352
844, 1351, 1399, 1400, 1352, 1353, 1401, 1402, 1354
845, 1353, 1401, 1402, 1354, 1355, 1403, 1404, 1356
846, 1346, 1394, 1405, 1357, 1348, 1396, 1406, 1358
847, 1348, 1396, 1406, 1358, 1350, 1398, 1407, 1359
848, 1350, 1398, 1407, 1359, 1352, 1400, 1408, 1360
849, 1352, 1400, 1408, 1360, 1354, 1402, 1409, 1361
850, 1354, 1402, 1409, 1361, 1356, 1404, 1410, 1362
851, 1363, 1411, 1412, 1364, 1365, 1413, 1414, 1366
852, 1365, 1413, 1414, 1366, 1367, 1415, 1416, 1368
853, 1364, 1412, 1417, 1369, 1366, 1414, 1418, 1370
854, 1366, 1414, 1418, 1370, 1368, 1416, 1419, 1371
855, 1369, 1417, 1420, 1372, 1370, 1418, 1421, 1373
856, 1370, 1418, 1421, 1373, 1371, 1419, 1422, 1374
857, 1372, 1420, 1403, 1355, 1373, 1421, 1423, 1375
858, 1373, 1421, 1423, 1375, 1374, 1422, 1424, 1376
859, 1355, 1403, 1404, 1356, 1375, 1423, 1425, 1377
860, 1375, 1423, 1425, 1377, 1376, 1424, 1426, 1378
861, 1356, 1404, 1410, 1362, 1377, 1425, 1427, 1379
862, 1377, 1425, 1427, 1379, 1378, 1426, 1428, 1380
863, 1362, 1410, 1429, 1381, 1379, 1427, 1430, 1382
864, 1379, 1427, 1430, 1382, 1380, 1428, 1431, 1383
865, 1381, 1429, 1432, 1384, 1382, 1430, 1433, 1385
866, 1382, 1430, 1433, 1385, 1383, 1431, 1434, 1386
867, 1384, 1432, 1435, 1387, 1385, 1433, 1436, 1388
868, 1385, 1433, 1436, 1388, 1386, 1434, 1437, 1389
869, 1387, 1435, 1438, 1390, 1388, 1436, 1439, 1391
870, 1388, 1436, 1439, 1391, 1389, 1437, 1440, 1392
871, 1393, 1441, 1442, 1394, 1395, 1443, 1444, 1396
872, 1395, 1443, 1444, 1396, 1397, 1445, 1446, 1398
873, 1397, 1445, 1446, 1398, 1399, 1447, 1448, 1400
874, 1399, 1447, 1448, 1400, 1401, 1449, 1450, 1402
875, 1401, 1449, 1450, 1402, 1403, 1451, 1452, 1404
876, 1394, 1442, 1453, 1405, 1396, 1444, 1454, 1406
877, 1396, 1444, 1454, 1406, 1398, 1446, 1455, 1407
878, 1398, 1446, 1455, 1407, 1400, 1448, 1456, 1408
879, 1400, 1448, 1456, 1408, 1402, 1450, 1457, 1409
880, 1402, 1450, 1457, 1409, 1404, 1452, 1458, 1410
881, 1411, 1459, 1460, 1412, 1413, 1461, 1462, 1414
882, 1413, 1461, 1462, 1414, 1415, 1463, 1464, 1416
883, 1412, 1460, 1465, 1417, 1414, 1462, 1466, 1418
884, 1414, 1462, 1466, 1418, 1416, 1464, 1467, 1419
885, 1417, 1465, 1468, 1420, 1418, 1466, 1469, 1421
886, 1418, 1466, 1469, 1421, 1419, 1467, 1470, 1422
887, 1420, 1468, 1451, 1403, 1421, 1469, 1471, 1423
888, 1421, 1469, 1471, 1423, 1422, 1470, 1472, 1424
889, 1403, 1451, 1452, 1404, 1423, 1471, 1473, 1425
890, 1423, 1471, 1473, 1425, 1424, 1472, 1474, 1426
891, 1404, 1452, 1458, 1410, 1425, 1473, 1475, 1427
892, 1425, 1473, 1475, 1427, 1426, 1474, 1476, 1428
893, 1410, 1458, 1477, 1429, 1427, 1475, 1478, 1430
894, 1427, 1475, 1478, 1430, 1428, 1476, 1479, 1431
895, 1429, 1477, 1480, 1432, 1430, 1478, 1481, 1433
896, 1430, 1478, 1481, 1433, 1431, 1479, 1482, 1434
897, 1432, 1480, 1483, 1435, 1433, 1481, 1484, 1436
898, 1433, 1481, 1484, 1436, 1434, 1482, 1485, 1437
899, 1435, 1483, 1486, 1438, 1436, 1484, 1487, 1439
900, 1436, 1484, 1487, 1439, 1437, 1485, 1488, 1440
901, 1441, 1489, 1490, 1442, 1443, 1491, 1492, 1444
902, 1443, 1491, 1492, 1444, 1445, 1493, 1494, 1446
903, 1445, 1493, 1494, 1446, 1447, 1495, 1496, 1448
904, 1447, 1495, 1496, 1448, 1449, 1497, 1498, 1450
905, 1449, 1497, 1498, 1450, 1451, 1499, 1500, 1452
906, 1442, 1490, 1501, 1453, 1444, 1492, 1502, 1454
907, 1444, 1492, 1502, 1454, 1446, 1494, 1503, 1455
908, 1446, 1494, 1503, 1455, 1448, 1496, 1504, 1456
909, 1448, 1496, 1504, 1456, 1450, 1498, 1505, 1457
910, 1450, 1498, 1505, 1457, 1452, 1500, 1506, 1458
911, 1459, 1507, 1508, 1460, 1461, 1509, 1510, 1462
912, 1461, 1509, 1510, 1462, 1463, 1511, 1512, 1464
913, 1460, 1508, 1513, 1465, 1462, 1510, 1514, 1466
914, 1462, 1510, 1514, 1466, 1464, 1512, 1515, 1467
915, 1465, 1513, 1516, 1468, 1466, 1514, 1517, 1469
916, 1466, 1514, 1517, 1469, 1467, 1515, 1518, 1470
917, 1468, 1516, 1499, 1451, 1469, 1517, 1519, 1471
918, 1469, 1517, 1519, 1471, 1470, 1518, 1520, 1472
919, 1451, 1499, 1500, 1452, 1471, 1519, 1521, 1473
920, 1471, 1519, 1521, 1473, 1472, 1520, 1522, 1474
921, 1452, 1500, 1506, 1458, 1473, 1521, 1523, 1475
922, 1473, 1521, 1523, 1475, 1474, 1522, 1524, 1476
923, 1458, 1506, 1525, 1477, 1475, 1523, 1526, 1478
924, 1475, 1523, 1526, 1478, 1476, 1524, 1527, 1479
925, 1477, 1525, 1528, 1480, 1478, 1526, 1529, 1481
926, 1478, 1526, 1529, 1481, 1479, 1527, 1530, 1482
927, 1480, 1528, 1531, 1483, 1481, 1529, 1532, 1484
928, 1481, 1529, 1532, 1484, 1482, 1530, 1533, 1485
929, 1483, 1531, 1534, 1486, 1484, 1532, 1535, 1487
930, 1484, 1532, 1535, 1487, 1485, 1533, 1536, 1488
931, 1489, 1537, 1538, 1490, 1491, 1539, 1540, 1492
932, 1491, 1539, 1540, 1492, 1493, 1541, 1542, 1494
933, 1493, 1541, 1542, 1494, 1495, 1543, 1544, 1496
934, 1495, 1543, 1544, 1496, 1497, 1545, 1546, 1498
935, 1497, 1545, 1546, 1498, 1499, 1547, 1548, 1500
936, 1490, 1538, 1549, 1501, 1492, 1540, 1550, 1502
937, 1492, 1540, 1550, 1502, 1494, 1542, 1551, 1503
938, 1494, 1542, 1551, 1503, 1496, 1544, 1552, 1504
939, 1496, 1544, 1552, 1504, 1498, 1546, 1553, 1505
940, 1498, 1546, 1553, 1505, 1500, 1548, 1554, 1506
941, 1507, 1555, 1556, 1508, 1509, 1557, 1558, 1510
942, 1509, 1557, 1558, 1510, 1511, 1559, 1560, 1512
943, 1508, 1556, 1561, 1513, 1510, 1558, 1562, 1514
944, 1510, 1558, 1562, 1514, 1512, 1560, 1563, 1515
945, 1513, 1561, 1564, 1516, 1514, 1562, 1565, 1517
946, 1514, 1562, 1565, 1517, 1515, 1563, 1566, 1518
947, 1516, 1564, 1547, 1499, 1517, 1565, 1567, 1519
948, 1517, 1565, 1567, 1519, 1518, 1566, 1568, 1520
949, 1499, 1547, 1548, 1500, 1519, 1567, 1569, 1521
950, 1519, 1567, 1569, 1521, 1520, 1568, 1570, 1522
951, 1500, 1548, 1554, 1506, 1521, 1569, 1571, 1523
952, 1521, 1569, 1571, 1523, 1522, 1570, 1572, 1524
953, 1506, 1554, 1573, 1525, 1523, 1571, 1574, 1526
954, 1523, 1571, 1574, 1526, 1524, 1572, 1575, 1527
955, 1525, 1573, 1576, 1528, 1526, 1574, 1577, 1529
956, 1526, 1574, 1577, 1529, 1527, 1575, 1578, 1530
957, 1528, 1576, 1579, 1531, 1529, 1577, 1580, 1532
958, 1529, 1577, 1580, 1532, 1530, 1578, 1581, 1533
959, 1531, 1579, 1582, 1534, 1532, 1580, 1583, 1535
960, 1532, 1580, 1583, 1535, 1533, 1581, 1584, 1536
961, 1537, 1585, 1586, 1538, 1539, 1587, 1588, 1540
962, 1539, 1587, 1588, 1540, 1541, 1589, 1590, 1542
963, 1541, 1589, 1590, 1542, 1543, 1591, 1592, 1544
964, 1543, 1591, 1592, 1544, 1545, 1593, 1594, 1546
965, 1545, 1593, 1594, 1546, 1547, 1595, 1596, 1548
966, 1538, 1586, 1597, 1549, 1540, 1588, 1598, 1550
967, 1540, 1588, 1598, 1550, 1542, 1590, 1599, 1551
968, 1542, 1590, 1599, 1551, 1544, 1592, 1600, 1552
969, 1544, 1592, 1600, 1552, 1546, 1594, 1601, 1553
970, 1546, 1594, 1601, 1553, 1548, 1596, 1602, 1554
971, 1555, 1603, 1604, 1556, 1557, 1605, 1606, 1558
972, 1557, 1605, 1606, 1558, 1559, 1607, 1608, 1560
973, 1556, 1604, 1609, 1561, 1558, 1606, 1610, 1562
974, 1558, 1606, 1610, 1562, 1560, 1608, 1611, 1563
975, 1561, 1609, 1612, 1564, 1562, 1610, 1613, 1565
976, 1562, 1610, 1613, 1565, 1563, 1611, 1614, 1566
977, 1564, 1612, 1595, 1547, 1565, 1613, 1615, 1567
978, 1565, 1613, 1615, 1567, 1566, 1614, 1616, 1568
979, 1547, 1595, 1596, 1548, 1567, 1615, 1617, 1569
980, 1567, 1615, 1617, 1569, 1568, 1616, 1618, 1570
981, 1548, 1596, 1602, 1554, 1569, 1617, 1619, 1571
982, 1569, 1617, 1619, 1571, 1570, 1618, 1620, 1572
983, 1554, 1602, 1621, 1573, 1571, 1619, 1622, 1574
984, 1571, 1619, 1622, 1574, 1572, 1620, 1623, 1575
985, 1573, 1621, 1624, 1576, 1574, 1622, 1625, 1577
986, 1574, 1622, 1625, 1577, 1575, 1623, 1626, 1578
987, 1576, 1624, 1627, 1579, 1577, 1625, 1628, 1580
988, 1577, 1625, 1628, 1580, 1578, 1626, 1629, 1581
989, 1579, 1627, 1630, 1582, 1580, 1628, 1631, 1583
990, 1580, 1628, 1631, 1583, 1581, 1629, 1632, 1584
991, 1585, 1633, 1634, 1586, 1587, 1635, 1636, 1588
992, 1587, 1635, 1636, 1588, 1589, 1637, 1638, 1590
993, 1589, 1637, 1638, 1590, 1591, 1639, 1640, 1592
994, 1591, 1639, 1640, 1592, 1593, 1641, 1642, 1594
995, 1593, 1641, 1642, 1594, 1595, 1643, 1644, 1596
996, 1586, 1634, 1645, 1597, 1588, 1636, 1646, 1598
997, 1588, 1636, 1646, 1598, 1590, 1638, 1647, 1599
998, 1590, 1638, 1647, 1599, 1592, 1640, 1648, 1600
999, 1592, 1640, 1648, 1600, 1594, 1642, 1649, 1601
1000, 1594, 1642, 1649, 1601, 1596, 1644, 1650, 1602
1001, 1603, 1651, 1652, 1604, 1605, 1653, 1654, 1606
1002, 1605, 1653, 1654, 1606, 1607, 1655, 1656, 1608
1003, 1604, 1652, 1657, 1609, 1606, 1654, 1658, 1610
1004, 1606, 1654, 1658, 1610, 1608, 1656, 1659, 1611
1005, 1609, 1657, 1660, 1612, 1610, 1658, 1661, 1613
1006, 1610, 1658, 1661, 1613, 1611, 1659, 1662, 1614
1007, 1612, 1660, 1643, 1595, 1613, 1661, 1663, 1615
1008, 1613, 1661, 1663, 1615, 1614, 1662, 1664, 1616
1009, 1595, 1643, 1644, 1596, 1615, 1663, 1665, 1617
1010, 1615, 1663, 1665, 1617, 1616, 1664, 1666, 1618
1011, 1596, 1644, 1650, 1602, 1617, 1665, 1667, 1619
1012, 1617, 1665, 1667, 1619, 1618, 1666, 1668, 1620
1013, 1602, 1650, 1669, 1621, 1619, 1667, 1670, 1622
1014, 1619, 1667, 1670, 1622, 1620, 1668, 1671, 1623
1015, 1621, 1669, 1672, 1624, 1622, 1670, 1673, 1625
1016, 1622, 1670, 1673, 1625, 1623, 1671, 1674, 1626
1017, 1624, 1672, 1675, 1627, 1625, 1673, 1676, 1628
1018, 1625, 1673, 1676, 1628, 1626, 1674, 1677, 1629
1019, 1627, 1675, 1678, 1630, 1628, 1676, 1679, 1631
1020, 1628, 1676, 1679, 1631, 1629, 1677, 1680, 1632
1021, 1633, 1681, 1682, 1634, 1635, 1683, 1684, 1636
1022, 1635, 1683, 1684, 1636, 1637, 1685, 1686, 1638
1023, 1637, 1685, 1686, 1638, 1639, 1687, 1688, 1640
1024, 1639, 1687, 1688, 1640, 1641, 1689, 1690, 1642
1025, 1641, 1689, 1690, 1642, 1643, 1691, 1692, 1644
1026, 1634, 1682, 1693, 1645, 1636, 1684, 1694, 1646
1027, 1636, 1684, 1694, 1646, 1638, 1686, 1695, 1647
1028, 1638, 1686, 1695, 1647, 1640, 1688, 1696, 1648
1029, 1640, 1688, 1696, 1648, 1642, 1690, 1697, 1649
1030, 1642, 1690, 1697, 1649, 1644, 1692, 1698, 1650
1031, 1651, 1699, 1700, 1652, 1653, 1701, 1702, 1654
1032, 1653, 1701, 1702, 1654, 1655, 1703, 1704, 1656
1033, 1652, 1700, 1705, 1657, 1654, 1702, 1706, 1658
1034, 1654, 1702, 1706, 1658, 1656, 1704, 1707, 1659
1035, 1657, 1705, 1708, 1660, 1658, 1706, 1709, 1661
1036, 1658, 1706, 1709, 1661, 1659, 1707, 1710, 1662
1037, 1660, 1708, 1691, 1643, 1661, 1709, 1711, 1663
1038, 1661, 1709, 1711, 1663, 1662, 1710, 1712, 1664
1039, 1643, 1691, 1692, 1644, 1663, 1711, 1713, 1665
1040, 1663, 1711, 1713, 1665, 1664, 1712, 1714, 1666
1041, 1644, 1692, 1698, 1650, 1665, 1713, 1715, 1667
1042, 1665, 1713, 1715, 1667, 1666, 1714, 1716, 1668
1043, 1650, 1698, 1717, 1669, 1667, 1715, 1718, 1670
1044, 1667, 1715, 1718, 1670, 1668, 1716, 1719, 1671
1045, 1669, 1717, 1720, 1672, 1670, 1718, 1721, 1673
1046, 1670, 1718, 1721, 1673, 1671, 1719, 1722, 1674
1047, 1672, 1720, 1723, 1675, 1673, 1721, 1724, 1676
1048, 1673, 1721, 1724, 1676, 1674, 1722, 1725, 1677
1049, 1675, 1723, 1726, 1678, 1676, 1724, 1727, 1679
1050, 1676, 1724, 1727, 1679, 1677, 1725, 1728, 1680
1051, 1681, 1729, 1730, 1682, 1683, 1731, 1732, 1684
1052, 1683, 1731, 1732, 1684, 1685, 1733, 1734, 1686
1053, 1685, 1733, 1734, 1686, 1687, 1735, 1736, 1688
1054, 1687, 1735, 1736, 1688, 1689, 1737, 1738, 1690
1055, 1689, 1737, 1738, 1690, 1691, 1739, 1740, 1692
1056, 1682, 1730, 1741, 1693, 1684, 1732, 1742, 1694
1057, 1684, 1732, 1742, 1694, 1686, 1734, 1743, 1695
1058, 1686, 1734, 1743, 1695, 1688, 1736, 1744, 1696
1059, 1688, 1736, 1744, 1696, 1690, 1738, 1745, 1697
1060, 1690, 1738, 1745, 1697, 1692, 1740, 1746, 1698
1061, 1699, 1747, 1748, 1700, 1701, 1749, 1750, 1702
1062, 1701, 1749, 1750, 1702, 1703, 1751, 1752, 1704
1063, 1700, 1748, 1753, 1705, 1702, 1750, 1754, 1706
1064, 1702, 1750, 1754, 1706, 1704, 1752, 1755, 1707
1065, 1705, 1753, 1756, 1708, 1706, 1754, 1757, 1709
1066, 1706, 1754, 1757, 1709, 1707, 1755, 1758, 1710
1067, 1708, 1756, 1739, 1691, 1709, 1757, 1759, 1711
1068, 1709, 1757, 1759, 1711, 1710, 1758, 1760, 1712
1069, 1691, 1739, 1740, 1692, 1711, 1759, 1761, 1713
1070, 1711, 1759, 1761, 1713, 1712, 1760, 1762, 1714
1071, 1692, 1740, 1746, 1698, 1713, 1761, 1763, 1715
1072, 1713, 1761, 1763, 1715, 1714, 1762, 1764, 1716
1073, 1698, 1746, 1765, 1717, 1715, 1763, 1766, 1718
1074, 1715, 1763, 1766, 1718, 1716, 1764, 1767, 1719
1075, 1717, 1765, 1768, 1720, 1718, 1766, 1769, 1721
1076, 1718, 1766, 1769, 1721, 1719, 1767, 1770, 1722
1077, 1720, 1768, 1771, 1723, 1721, 1769, 1772, 1724
1078, 1721, 1769, 1772, 1724, 1722, 1770, 1773, 1725
1079, 1723, 1771, 1774, 1726, 1724, 1772, 1775, 1727
1080, 1724, 1772, 1775, 1727, 1725, 1773, 1776, 1728
1081, 1729, 1777, 1778, 1730, 1731, 1779, 1780, 1732
1082, 1731, 1779, 1780, 1732, 1733, 1781, 1782, 1734
1083, 1733, 1781, 1782, 1734, 1735, 1783, 1784, 1736
1084, 1735, 1783, 1784, 1736, 1737, 1785, 1786, 1738
1085, 1737, 1785, 1786, 1738, 1739, 1787, 1788, 1740
1086, 1730, 1778, 1789, 1741, 1732, 1780, 1790, 1742
1087, 1732, 1780, 1790, 1742, 1734, 1782, 1791, 1743
1088, 1734, 1782, 1791, 1743, 1736, 1784, 1792, 1744
1089, 1736, 1784, 1792, 1744, 1738, 1786, 1793, 1745
1090, 1738, 1786, 1793, 1745, 1740, 1788, 1794, 1746
1091, 1747, 1795, 1796, 1748, 1749, 1797, 1798, 1750
1092, 1749, 1797, 1798, 1750, 1751, 1799, 1800, 1752
1093, 1748, 1796, 1801, 1753, 1750, 1798, 1802, 1754
1094, 1750, 1798, 1802, 1754, 1752, 1800, 1803, 1755
1095, 1753, 1801, 1804, 1756, 1754, 1802, 1805, 1757
1096, 1754, 1802, 1805, 1757, 1755, 1803, 1806, 1758
1097, 1756, 1804, 1787, 1739, 1757, 1805, 1807, 1759
1098, 1757, 1805, 1807, 1759, 1758, 1806, 1808, 1760
1099, 1739, 1787, 1788, 1740, 1759, 1807, 1809, 1761
1100, 1759, 1807, 1809, 1761, 1760, 1808, 1810, 1762
1101, 1740, 1788, 1794, 1746, 1761, 1809, 1811, 1763
1102, 1761, 1809, 1811, 1763, 1762, 1810, 1812, 1764
1103, 1746, 1794, 1813, 1765, 1763, 1811, 1814, 1766
1104, 1763, 1811, 1814, 1766, 1764, 1812, 1815, 1767
1105, 1765, 1813, 1816, 1768, 1766, 1814, 1817, 1769
1106, 1766, 1814, 1817, 1769, 1767, 1815, 1818, 1770
1107, 1768, 1816, 1819, 1771, 1769, 1817, 1820, 1772
1108, 1769, 1817, 1820, 1772, 1770, 1818, 1821, 1773
1109, 1771, 1819, 1822, 1774, 1772, 1820, 1823, 1775
1110, 1772, 1820, 1823, 1775, 1773, 1821, 1824, 1776
*NSET, NSET=CLAMP
1, 4, 5, 8, 9, 12, 13, 16, 17, 20, 21, 24, 26, 28, 30, 32
34, 36, 37, 40, 41, 44, 45, 48, 50, 52, 54, 56, 58, 60, 62, 64
66, 68, 70, 72, 74, 76, 78, 80, 82, 84, 86, 88, 90, 92, 94, 96
*NSET, NSET=TIP_TOP
1799, 1800, 1803, 1806, 1808, 1810, 1812, 1815, 1818, 1821, 1824
*NSET, NSET=TIP_FLANGE
1799, 1800, 1803, 1806, 1808, 1810, 1812, 1815, 1818, 1821, 1824
*MATERIAL, NAME=STEEL
*ELASTIC
210000, 0.3
*SOLID SECTION, ELSET=EALL, MATERIAL=STEEL
*BOUNDARY
CLAMP, 1, 3, 0.0
*STEP
*STATIC
*CLOAD
1799, 3, -454.545454545
1800, 3, -454.545454545
1803, 3, -454.545454545
1806, 3, -454.545454545
1808, 3, -454.545454545
1810, 3, -454.545454545
1812, 3, -454.545454545
1815, 3, -454.545454545
1818, 3, -454.545454545
1821, 3, -454.545454545
1824, 3, -454.545454545
*NODE FILE
U
*EL FILE
S, ENER
*NODE PRINT, NSET=TIP_TOP
U
*NODE PRINT, NSET=CLAMP
RF
*EL PRINT, ELSET=EALL
ELSE
*ENERGY PRINT
*END STEP
