*HEADING
T02 S-LIN t02_slin_nx14 conforming C3D8 frozen T
units: mm, N, s, MPa, t. Illustrative steel, not a coupon card.
beam=T02 case=S-LIN job=t02_slin_nx14 type=C3D8
E=210000.0 nu=0.3 fy=235.0 load=-5000.0 N on TIP_TOP
*NODE, NSET=NALL
1, 0, -10, 0
2, 142.857142857, -10, 22.0408163265
3, 142.857142857, 0, 22.0408163265
4, 0, 0, 0
5, 0, -10, 48
6, 142.857142857, -10, 65.6326530612
7, 142.857142857, 0, 65.6326530612
8, 0, 0, 48
9, 0, -10, 96
10, 142.857142857, -10, 109.224489796
11, 142.857142857, 0, 109.224489796
12, 0, 0, 96
13, 0, -10, 144
14, 142.857142857, -10, 152.816326531
15, 142.857142857, 0, 152.816326531
16, 0, 0, 144
17, 0, -10, 192
18, 142.857142857, -10, 196.408163265
19, 142.857142857, 0, 196.408163265
20, 0, 0, 192
21, 0, -10, 240
22, 142.857142857, -10, 240
23, 142.857142857, 0, 240
24, 0, 0, 240
25, 142.857142857, 10, 22.0408163265
26, 0, 10, 0
27, 142.857142857, 10, 65.6326530612
28, 0, 10, 48
29, 142.857142857, 10, 109.224489796
30, 0, 10, 96
31, 142.857142857, 10, 152.816326531
32, 0, 10, 144
33, 142.857142857, 10, 196.408163265
34, 0, 10, 192
35, 142.857142857, 10, 240
36, 0, 10, 240
37, 0, -120, 240
38, 142.857142857, -120, 240
39, 142.857142857, -92.5, 240
40, 0, -92.5, 240
41, 0, -120, 250
42, 142.857142857, -120, 250
43, 142.857142857, -92.5, 250
44, 0, -92.5, 250
45, 0, -120, 260
46, 142.857142857, -120, 260
47, 142.857142857, -92.5, 260
48, 0, -92.5, 260
49, 142.857142857, -65, 240
50, 0, -65, 240
51, 142.857142857, -65, 250
52, 0, -65, 250
53, 142.857142857, -65, 260
54, 0, -65, 260
55, 142.857142857, -37.5, 240
56, 0, -37.5, 240
57, 142.857142857, -37.5, 250
58, 0, -37.5, 250
59, 142.857142857, -37.5, 260
60, 0, -37.5, 260
61, 142.857142857, -10, 250
62, 0, -10, 250
63, 142.857142857, -10, 260
64, 0, -10, 260
65, 142.857142857, 0, 250
66, 0, 0, 250
67, 142.857142857, 0, 260
68, 0, 0, 260
69, 142.857142857, 10, 250
70, 0, 10, 250
71, 142.857142857, 10, 260
72, 0, 10, 260
73, 142.857142857, 37.5, 240
74, 0, 37.5, 240
75, 142.857142857, 37.5, 250
76, 0, 37.5, 250
77, 142.857142857, 37.5, 260
78, 0, 37.5, 260
79, 142.857142857, 65, 240
80, 0, 65, 240
81, 142.857142857, 65, 250
82, 0, 65, 250
83, 142.857142857, 65, 260
84, 0, 65, 260
85, 142.857142857, 92.5, 240
86, 0, 92.5, 240
87, 142.857142857, 92.5, 250
88, 0, 92.5, 250
89, 142.857142857, 92.5, 260
90, 0, 92.5, 260
91, 142.857142857, 120, 240
92, 0, 120, 240
93, 142.857142857, 120, 250
94, 0, 120, 250
95, 142.857142857, 120, 260
96, 0, 120, 260
97, 285.714285714, -10, 42.4489795918
98, 285.714285714, 0, 42.4489795918
99, 285.714285714, -10, 81.9591836735
100, 285.714285714, 0, 81.9591836735
101, 285.714285714, -10, 121.469387755
102, 285.714285714, 0, 121.469387755
103, 285.714285714, -10, 160.979591837
104, 285.714285714, 0, 160.979591837
105, 285.714285714, -10, 200.489795918
106, 285.714285714, 0, 200.489795918
107, 285.714285714, -10, 240
108, 285.714285714, 0, 240
109, 285.714285714, 10, 42.4489795918
110, 285.714285714, 10, 81.9591836735
111, 285.714285714, 10, 121.469387755
112, 285.714285714, 10, 160.979591837
113, 285.714285714, 10, 200.489795918
114, 285.714285714, 10, 240
115, 285.714285714, -120, 240
116, 285.714285714, -92.5, 240
117, 285.714285714, -120, 250
118, 285.714285714, -92.5, 250
119, 285.714285714, -120, 260
120, 285.714285714, -92.5, 260
121, 285.714285714, -65, 240
122, 285.714285714, -65, 250
123, 285.714285714, -65, 260
124, 285.714285714, -37.5, 240
125, 285.714285714, -37.5, 250
126, 285.714285714, -37.5, 260
127, 285.714285714, -10, 250
128, 285.714285714, -10, 260
129, 285.714285714, 0, 250
130, 285.714285714, 0, 260
131, 285.714285714, 10, 250
132, 285.714285714, 10, 260
133, 285.714285714, 37.5, 240
134, 285.714285714, 37.5, 250
135, 285.714285714, 37.5, 260
136, 285.714285714, 65, 240
137, 285.714285714, 65, 250
138, 285.714285714, 65, 260
139, 285.714285714, 92.5, 240
140, 285.714285714, 92.5, 250
141, 285.714285714, 92.5, 260
142, 285.714285714, 120, 240
143, 285.714285714, 120, 250
144, 285.714285714, 120, 260
145, 428.571428571, -10, 61.2244897959
146, 428.571428571, 0, 61.2244897959
147, 428.571428571, -10, 96.9795918367
148, 428.571428571, 0, 96.9795918367
149, 428.571428571, -10, 132.734693878
150, 428.571428571, 0, 132.734693878
151, 428.571428571, -10, 168.489795918
152, 428.571428571, 0, 168.489795918
153, 428.571428571, -10, 204.244897959
154, 428.571428571, 0, 204.244897959
155, 428.571428571, -10, 240
156, 428.571428571, 0, 240
157, 428.571428571, 10, 61.2244897959
158, 428.571428571, 10, 96.9795918367
159, 428.571428571, 10, 132.734693878
160, 428.571428571, 10, 168.489795918
161, 428.571428571, 10, 204.244897959
162, 428.571428571, 10, 240
163, 428.571428571, -120, 240
164, 428.571428571, -92.5, 240
165, 428.571428571, -120, 250
166, 428.571428571, -92.5, 250
167, 428.571428571, -120, 260
168, 428.571428571, -92.5, 260
169, 428.571428571, -65, 240
170, 428.571428571, -65, 250
171, 428.571428571, -65, 260
172, 428.571428571, -37.5, 240
173, 428.571428571, -37.5, 250
174, 428.571428571, -37.5, 260
175, 428.571428571, -10, 250
176, 428.571428571, -10, 260
177, 428.571428571, 0, 250
178, 428.571428571, 0, 260
179, 428.571428571, 10, 250
180, 428.571428571, 10, 260
181, 428.571428571, 37.5, 240
182, 428.571428571, 37.5, 250
183, 428.571428571, 37.5, 260
184, 428.571428571, 65, 240
185, 428.571428571, 65, 250
186, 428.571428571, 65, 260
187, 428.571428571, 92.5, 240
188, 428.571428571, 92.5, 250
189, 428.571428571, 92.5, 260
190, 428.571428571, 120, 240
191, 428.571428571, 120, 250
192, 428.571428571, 120, 260
193, 571.428571429, -10, 78.3673469388
194, 571.428571429, 0, 78.3673469388
195, 571.428571429, -10, 110.693877551
196, 571.428571429, 0, 110.693877551
197, 571.428571429, -10, 143.020408163
198, 571.428571429, 0, 143.020408163
199, 571.428571429, -10, 175.346938776
200, 571.428571429, 0, 175.346938776
201, 571.428571429, -10, 207.673469388
202, 571.428571429, 0, 207.673469388
203, 571.428571429, -10, 240
204, 571.428571429, 0, 240
205, 571.428571429, 10, 78.3673469388
206, 571.428571429, 10, 110.693877551
207, 571.428571429, 10, 143.020408163
208, 571.428571429, 10, 175.346938776
209, 571.428571429, 10, 207.673469388
210, 571.428571429, 10, 240
211, 571.428571429, -120, 240
212, 571.428571429, -92.5, 240
213, 571.428571429, -120, 250
214, 571.428571429, -92.5, 250
215, 571.428571429, -120, 260
216, 571.428571429, -92.5, 260
217, 571.428571429, -65, 240
218, 571.428571429, -65, 250
219, 571.428571429, -65, 260
220, 571.428571429, -37.5, 240
221, 571.428571429, -37.5, 250
222, 571.428571429, -37.5, 260
223, 571.428571429, -10, 250
224, 571.428571429, -10, 260
225, 571.428571429, 0, 250
226, 571.428571429, 0, 260
227, 571.428571429, 10, 250
228, 571.428571429, 10, 260
229, 571.428571429, 37.5, 240
230, 571.428571429, 37.5, 250
231, 571.428571429, 37.5, 260
232, 571.428571429, 65, 240
233, 571.428571429, 65, 250
234, 571.428571429, 65, 260
235, 571.428571429, 92.5, 240
236, 571.428571429, 92.5, 250
237, 571.428571429, 92.5, 260
238, 571.428571429, 120, 240
239, 571.428571429, 120, 250
240, 571.428571429, 120, 260
241, 714.285714286, -10, 93.8775510204
242, 714.285714286, 0, 93.8775510204
243, 714.285714286, -10, 123.102040816
244, 714.285714286, 0, 123.102040816
245, 714.285714286, -10, 152.326530612
246, 714.285714286, 0, 152.326530612
247, 714.285714286, -10, 181.551020408
248, 714.285714286, 0, 181.551020408
249, 714.285714286, -10, 210.775510204
250, 714.285714286, 0, 210.775510204
251, 714.285714286, -10, 240
252, 714.285714286, 0, 240
253, 714.285714286, 10, 93.8775510204
254, 714.285714286, 10, 123.102040816
255, 714.285714286, 10, 152.326530612
256, 714.285714286, 10, 181.551020408
257, 714.285714286, 10, 210.775510204
258, 714.285714286, 10, 240
259, 714.285714286, -120, 240
260, 714.285714286, -92.5, 240
261, 714.285714286, -120, 250
262, 714.285714286, -92.5, 250
263, 714.285714286, -120, 260
264, 714.285714286, -92.5, 260
265, 714.285714286, -65, 240
266, 714.285714286, -65, 250
267, 714.285714286, -65, 260
268, 714.285714286, -37.5, 240
269, 714.285714286, -37.5, 250
270, 714.285714286, -37.5, 260
271, 714.285714286, -10, 250
272, 714.285714286, -10, 260
273, 714.285714286, 0, 250
274, 714.285714286, 0, 260
275, 714.285714286, 10, 250
276, 714.285714286, 10, 260
277, 714.285714286, 37.5, 240
278, 714.285714286, 37.5, 250
279, 714.285714286, 37.5, 260
280, 714.285714286, 65, 240
281, 714.285714286, 65, 250
282, 714.285714286, 65, 260
283, 714.285714286, 92.5, 240
284, 714.285714286, 92.5, 250
285, 714.285714286, 92.5, 260
286, 714.285714286, 120, 240
287, 714.285714286, 120, 250
288, 714.285714286, 120, 260
289, 857.142857143, -10, 107.755102041
290, 857.142857143, 0, 107.755102041
291, 857.142857143, -10, 134.204081633
292, 857.142857143, 0, 134.204081633
293, 857.142857143, -10, 160.653061224
294, 857.142857143, 0, 160.653061224
295, 857.142857143, -10, 187.102040816
296, 857.142857143, 0, 187.102040816
297, 857.142857143, -10, 213.551020408
298, 857.142857143, 0, 213.551020408
299, 857.142857143, -10, 240
300, 857.142857143, 0, 240
301, 857.142857143, 10, 107.755102041
302, 857.142857143, 10, 134.204081633
303, 857.142857143, 10, 160.653061224
304, 857.142857143, 10, 187.102040816
305, 857.142857143, 10, 213.551020408
306, 857.142857143, 10, 240
307, 857.142857143, -120, 240
308, 857.142857143, -92.5, 240
309, 857.142857143, -120, 250
310, 857.142857143, -92.5, 250
311, 857.142857143, -120, 260
312, 857.142857143, -92.5, 260
313, 857.142857143, -65, 240
314, 857.142857143, -65, 250
315, 857.142857143, -65, 260
316, 857.142857143, -37.5, 240
317, 857.142857143, -37.5, 250
318, 857.142857143, -37.5, 260
319, 857.142857143, -10, 250
320, 857.142857143, -10, 260
321, 857.142857143, 0, 250
322, 857.142857143, 0, 260
323, 857.142857143, 10, 250
324, 857.142857143, 10, 260
325, 857.142857143, 37.5, 240
326, 857.142857143, 37.5, 250
327, 857.142857143, 37.5, 260
328, 857.142857143, 65, 240
329, 857.142857143, 65, 250
330, 857.142857143, 65, 260
331, 857.142857143, 92.5, 240
332, 857.142857143, 92.5, 250
333, 857.142857143, 92.5, 260
334, 857.142857143, 120, 240
335, 857.142857143, 120, 250
336, 857.142857143, 120, 260
337, 1000, -10, 120
338, 1000, 0, 120
339, 1000, -10, 144
340, 1000, 0, 144
341, 1000, -10, 168
342, 1000, 0, 168
343, 1000, -10, 192
344, 1000, 0, 192
345, 1000, -10, 216
346, 1000, 0, 216
347, 1000, -10, 240
348, 1000, 0, 240
349, 1000, 10, 120
350, 1000, 10, 144
351, 1000, 10, 168
352, 1000, 10, 192
353, 1000, 10, 216
354, 1000, 10, 240
355, 1000, -120, 240
356, 1000, -92.5, 240
357, 1000, -120, 250
358, 1000, -92.5, 250
359, 1000, -120, 260
360, 1000, -92.5, 260
361, 1000, -65, 240
362, 1000, -65, 250
363, 1000, -65, 260
364, 1000, -37.5, 240
365, 1000, -37.5, 250
366, 1000, -37.5, 260
367, 1000, -10, 250
368, 1000, -10, 260
369, 1000, 0, 250
370, 1000, 0, 260
371, 1000, 10, 250
372, 1000, 10, 260
373, 1000, 37.5, 240
374, 1000, 37.5, 250
375, 1000, 37.5, 260
376, 1000, 65, 240
377, 1000, 65, 250
378, 1000, 65, 260
379, 1000, 92.5, 240
380, 1000, 92.5, 250
381, 1000, 92.5, 260
382, 1000, 120, 240
383, 1000, 120, 250
384, 1000, 120, 260
385, 1142.85714286, -10, 130.612244898
386, 1142.85714286, 0, 130.612244898
387, 1142.85714286, -10, 152.489795918
388, 1142.85714286, 0, 152.489795918
389, 1142.85714286, -10, 174.367346939
390, 1142.85714286, 0, 174.367346939
391, 1142.85714286, -10, 196.244897959
392, 1142.85714286, 0, 196.244897959
393, 1142.85714286, -10, 218.12244898
394, 1142.85714286, 0, 218.12244898
395, 1142.85714286, -10, 240
396, 1142.85714286, 0, 240
397, 1142.85714286, 10, 130.612244898
398, 1142.85714286, 10, 152.489795918
399, 1142.85714286, 10, 174.367346939
400, 1142.85714286, 10, 196.244897959
401, 1142.85714286, 10, 218.12244898
402, 1142.85714286, 10, 240
403, 1142.85714286, -120, 240
404, 1142.85714286, -92.5, 240
405, 1142.85714286, -120, 250
406, 1142.85714286, -92.5, 250
407, 1142.85714286, -120, 260
408, 1142.85714286, -92.5, 260
409, 1142.85714286, -65, 240
410, 1142.85714286, -65, 250
411, 1142.85714286, -65, 260
412, 1142.85714286, -37.5, 240
413, 1142.85714286, -37.5, 250
414, 1142.85714286, -37.5, 260
415, 1142.85714286, -10, 250
416, 1142.85714286, -10, 260
417, 1142.85714286, 0, 250
418, 1142.85714286, 0, 260
419, 1142.85714286, 10, 250
420, 1142.85714286, 10, 260
421, 1142.85714286, 37.5, 240
422, 1142.85714286, 37.5, 250
423, 1142.85714286, 37.5, 260
424, 1142.85714286, 65, 240
425, 1142.85714286, 65, 250
426, 1142.85714286, 65, 260
427, 1142.85714286, 92.5, 240
428, 1142.85714286, 92.5, 250
429, 1142.85714286, 92.5, 260
430, 1142.85714286, 120, 240
431, 1142.85714286, 120, 250
432, 1142.85714286, 120, 260
433, 1285.71428571, -10, 139.591836735
434, 1285.71428571, 0, 139.591836735
435, 1285.71428571, -10, 159.673469388
436, 1285.71428571, 0, 159.673469388
437, 1285.71428571, -10, 179.755102041
438, 1285.71428571, 0, 179.755102041
439, 1285.71428571, -10, 199.836734694
440, 1285.71428571, 0, 199.836734694
441, 1285.71428571, -10, 219.918367347
442, 1285.71428571, 0, 219.918367347
443, 1285.71428571, -10, 240
444, 1285.71428571, 0, 240
445, 1285.71428571, 10, 139.591836735
446, 1285.71428571, 10, 159.673469388
447, 1285.71428571, 10, 179.755102041
448, 1285.71428571, 10, 199.836734694
449, 1285.71428571, 10, 219.918367347
450, 1285.71428571, 10, 240
451, 1285.71428571, -120, 240
452, 1285.71428571, -92.5, 240
453, 1285.71428571, -120, 250
454, 1285.71428571, -92.5, 250
455, 1285.71428571, -120, 260
456, 1285.71428571, -92.5, 260
457, 1285.71428571, -65, 240
458, 1285.71428571, -65, 250
459, 1285.71428571, -65, 260
460, 1285.71428571, -37.5, 240
461, 1285.71428571, -37.5, 250
462, 1285.71428571, -37.5, 260
463, 1285.71428571, -10, 250
464, 1285.71428571, -10, 260
465, 1285.71428571, 0, 250
466, 1285.71428571, 0, 260
467, 1285.71428571, 10, 250
468, 1285.71428571, 10, 260
469, 1285.71428571, 37.5, 240
470, 1285.71428571, 37.5, 250
471, 1285.71428571, 37.5, 260
472, 1285.71428571, 65, 240
473, 1285.71428571, 65, 250
474, 1285.71428571, 65, 260
475, 1285.71428571, 92.5, 240
476, 1285.71428571, 92.5, 250
477, 1285.71428571, 92.5, 260
478, 1285.71428571, 120, 240
479, 1285.71428571, 120, 250
480, 1285.71428571, 120, 260
481, 1428.57142857, -10, 146.93877551
482, 1428.57142857, 0, 146.93877551
483, 1428.57142857, -10, 165.551020408
484, 1428.57142857, 0, 165.551020408
485, 1428.57142857, -10, 184.163265306
486, 1428.57142857, 0, 184.163265306
487, 1428.57142857, -10, 202.775510204
488, 1428.57142857, 0, 202.775510204
489, 1428.57142857, -10, 221.387755102
490, 1428.57142857, 0, 221.387755102
491, 1428.57142857, -10, 240
492, 1428.57142857, 0, 240
493, 1428.57142857, 10, 146.93877551
494, 1428.57142857, 10, 165.551020408
495, 1428.57142857, 10, 184.163265306
496, 1428.57142857, 10, 202.775510204
497, 1428.57142857, 10, 221.387755102
498, 1428.57142857, 10, 240
499, 1428.57142857, -120, 240
500, 1428.57142857, -92.5, 240
501, 1428.57142857, -120, 250
502, 1428.57142857, -92.5, 250
503, 1428.57142857, -120, 260
504, 1428.57142857, -92.5, 260
505, 1428.57142857, -65, 240
506, 1428.57142857, -65, 250
507, 1428.57142857, -65, 260
508, 1428.57142857, -37.5, 240
509, 1428.57142857, -37.5, 250
510, 1428.57142857, -37.5, 260
511, 1428.57142857, -10, 250
512, 1428.57142857, -10, 260
513, 1428.57142857, 0, 250
514, 1428.57142857, 0, 260
515, 1428.57142857, 10, 250
516, 1428.57142857, 10, 260
517, 1428.57142857, 37.5, 240
518, 1428.57142857, 37.5, 250
519, 1428.57142857, 37.5, 260
520, 1428.57142857, 65, 240
521, 1428.57142857, 65, 250
522, 1428.57142857, 65, 260
523, 1428.57142857, 92.5, 240
524, 1428.57142857, 92.5, 250
525, 1428.57142857, 92.5, 260
526, 1428.57142857, 120, 240
527, 1428.57142857, 120, 250
528, 1428.57142857, 120, 260
529, 1571.42857143, -10, 152.653061224
530, 1571.42857143, 0, 152.653061224
531, 1571.42857143, -10, 170.12244898
532, 1571.42857143, 0, 170.12244898
533, 1571.42857143, -10, 187.591836735
534, 1571.42857143, 0, 187.591836735
535, 1571.42857143, -10, 205.06122449
536, 1571.42857143, 0, 205.06122449
537, 1571.42857143, -10, 222.530612245
538, 1571.42857143, 0, 222.530612245
539, 1571.42857143, -10, 240
540, 1571.42857143, 0, 240
541, 1571.42857143, 10, 152.653061224
542, 1571.42857143, 10, 170.12244898
543, 1571.42857143, 10, 187.591836735
544, 1571.42857143, 10, 205.06122449
545, 1571.42857143, 10, 222.530612245
546, 1571.42857143, 10, 240
547, 1571.42857143, -120, 240
548, 1571.42857143, -92.5, 240
549, 1571.42857143, -120, 250
550, 1571.42857143, -92.5, 250
551, 1571.42857143, -120, 260
552, 1571.42857143, -92.5, 260
553, 1571.42857143, -65, 240
554, 1571.42857143, -65, 250
555, 1571.42857143, -65, 260
556, 1571.42857143, -37.5, 240
557, 1571.42857143, -37.5, 250
558, 1571.42857143, -37.5, 260
559, 1571.42857143, -10, 250
560, 1571.42857143, -10, 260
561, 1571.42857143, 0, 250
562, 1571.42857143, 0, 260
563, 1571.42857143, 10, 250
564, 1571.42857143, 10, 260
565, 1571.42857143, 37.5, 240
566, 1571.42857143, 37.5, 250
567, 1571.42857143, 37.5, 260
568, 1571.42857143, 65, 240
569, 1571.42857143, 65, 250
570, 1571.42857143, 65, 260
571, 1571.42857143, 92.5, 240
572, 1571.42857143, 92.5, 250
573, 1571.42857143, 92.5, 260
574, 1571.42857143, 120, 240
575, 1571.42857143, 120, 250
576, 1571.42857143, 120, 260
577, 1714.28571429, -10, 156.734693878
578, 1714.28571429, 0, 156.734693878
579, 1714.28571429, -10, 173.387755102
580, 1714.28571429, 0, 173.387755102
581, 1714.28571429, -10, 190.040816327
582, 1714.28571429, 0, 190.040816327
583, 1714.28571429, -10, 206.693877551
584, 1714.28571429, 0, 206.693877551
585, 1714.28571429, -10, 223.346938776
586, 1714.28571429, 0, 223.346938776
587, 1714.28571429, -10, 240
588, 1714.28571429, 0, 240
589, 1714.28571429, 10, 156.734693878
590, 1714.28571429, 10, 173.387755102
591, 1714.28571429, 10, 190.040816327
592, 1714.28571429, 10, 206.693877551
593, 1714.28571429, 10, 223.346938776
594, 1714.28571429, 10, 240
595, 1714.28571429, -120, 240
596, 1714.28571429, -92.5, 240
597, 1714.28571429, -120, 250
598, 1714.28571429, -92.5, 250
599, 1714.28571429, -120, 260
600, 1714.28571429, -92.5, 260
601, 1714.28571429, -65, 240
602, 1714.28571429, -65, 250
603, 1714.28571429, -65, 260
604, 1714.28571429, -37.5, 240
605, 1714.28571429, -37.5, 250
606, 1714.28571429, -37.5, 260
607, 1714.28571429, -10, 250
608, 1714.28571429, -10, 260
609, 1714.28571429, 0, 250
610, 1714.28571429, 0, 260
611, 1714.28571429, 10, 250
612, 1714.28571429, 10, 260
613, 1714.28571429, 37.5, 240
614, 1714.28571429, 37.5, 250
615, 1714.28571429, 37.5, 260
616, 1714.28571429, 65, 240
617, 1714.28571429, 65, 250
618, 1714.28571429, 65, 260
619, 1714.28571429, 92.5, 240
620, 1714.28571429, 92.5, 250
621, 1714.28571429, 92.5, 260
622, 1714.28571429, 120, 240
623, 1714.28571429, 120, 250
624, 1714.28571429, 120, 260
625, 1857.14285714, -10, 159.183673469
626, 1857.14285714, 0, 159.183673469
627, 1857.14285714, -10, 175.346938776
628, 1857.14285714, 0, 175.346938776
629, 1857.14285714, -10, 191.510204082
630, 1857.14285714, 0, 191.510204082
631, 1857.14285714, -10, 207.673469388
632, 1857.14285714, 0, 207.673469388
633, 1857.14285714, -10, 223.836734694
634, 1857.14285714, 0, 223.836734694
635, 1857.14285714, -10, 240
636, 1857.14285714, 0, 240
637, 1857.14285714, 10, 159.183673469
638, 1857.14285714, 10, 175.346938776
639, 1857.14285714, 10, 191.510204082
640, 1857.14285714, 10, 207.673469388
641, 1857.14285714, 10, 223.836734694
642, 1857.14285714, 10, 240
643, 1857.14285714, -120, 240
644, 1857.14285714, -92.5, 240
645, 1857.14285714, -120, 250
646, 1857.14285714, -92.5, 250
647, 1857.14285714, -120, 260
648, 1857.14285714, -92.5, 260
649, 1857.14285714, -65, 240
650, 1857.14285714, -65, 250
651, 1857.14285714, -65, 260
652, 1857.14285714, -37.5, 240
653, 1857.14285714, -37.5, 250
654, 1857.14285714, -37.5, 260
655, 1857.14285714, -10, 250
656, 1857.14285714, -10, 260
657, 1857.14285714, 0, 250
658, 1857.14285714, 0, 260
659, 1857.14285714, 10, 250
660, 1857.14285714, 10, 260
661, 1857.14285714, 37.5, 240
662, 1857.14285714, 37.5, 250
663, 1857.14285714, 37.5, 260
664, 1857.14285714, 65, 240
665, 1857.14285714, 65, 250
666, 1857.14285714, 65, 260
667, 1857.14285714, 92.5, 240
668, 1857.14285714, 92.5, 250
669, 1857.14285714, 92.5, 260
670, 1857.14285714, 120, 240
671, 1857.14285714, 120, 250
672, 1857.14285714, 120, 260
673, 2000, -10, 160
674, 2000, 0, 160
675, 2000, -10, 176
676, 2000, 0, 176
677, 2000, -10, 192
678, 2000, 0, 192
679, 2000, -10, 208
680, 2000, 0, 208
681, 2000, -10, 224
682, 2000, 0, 224
683, 2000, -10, 240
684, 2000, 0, 240
685, 2000, 10, 160
686, 2000, 10, 176
687, 2000, 10, 192
688, 2000, 10, 208
689, 2000, 10, 224
690, 2000, 10, 240
691, 2000, -120, 240
692, 2000, -92.5, 240
693, 2000, -120, 250
694, 2000, -92.5, 250
695, 2000, -120, 260
696, 2000, -92.5, 260
697, 2000, -65, 240
698, 2000, -65, 250
699, 2000, -65, 260
700, 2000, -37.5, 240
701, 2000, -37.5, 250
702, 2000, -37.5, 260
703, 2000, -10, 250
704, 2000, -10, 260
705, 2000, 0, 250
706, 2000, 0, 260
707, 2000, 10, 250
708, 2000, 10, 260
709, 2000, 37.5, 240
710, 2000, 37.5, 250
711, 2000, 37.5, 260
712, 2000, 65, 240
713, 2000, 65, 250
714, 2000, 65, 260
715, 2000, 92.5, 240
716, 2000, 92.5, 250
717, 2000, 92.5, 260
718, 2000, 120, 240
719, 2000, 120, 250
720, 2000, 120, 260
*ELEMENT, TYPE=C3D8, ELSET=EALL
1, 1, 2, 3, 4, 5, 6, 7, 8
2, 5, 6, 7, 8, 9, 10, 11, 12
3, 9, 10, 11, 12, 13, 14, 15, 16
4, 13, 14, 15, 16, 17, 18, 19, 20
5, 17, 18, 19, 20, 21, 22, 23, 24
6, 4, 3, 25, 26, 8, 7, 27, 28
7, 8, 7, 27, 28, 12, 11, 29, 30
8, 12, 11, 29, 30, 16, 15, 31, 32
9, 16, 15, 31, 32, 20, 19, 33, 34
10, 20, 19, 33, 34, 24, 23, 35, 36
11, 37, 38, 39, 40, 41, 42, 43, 44
12, 41, 42, 43, 44, 45, 46, 47, 48
13, 40, 39, 49, 50, 44, 43, 51, 52
14, 44, 43, 51, 52, 48, 47, 53, 54
15, 50, 49, 55, 56, 52, 51, 57, 58
16, 52, 51, 57, 58, 54, 53, 59, 60
17, 56, 55, 22, 21, 58, 57, 61, 62
18, 58, 57, 61, 62, 60, 59, 63, 64
19, 21, 22, 23, 24, 62, 61, 65, 66
20, 62, 61, 65, 66, 64, 63, 67, 68
21, 24, 23, 35, 36, 66, 65, 69, 70
22, 66, 65, 69, 70, 68, 67, 71, 72
23, 36, 35, 73, 74, 70, 69, 75, 76
24, 70, 69, 75, 76, 72, 71, 77, 78
25, 74, 73, 79, 80, 76, 75, 81, 82
26, 76, 75, 81, 82, 78, 77, 83, 84
27, 80, 79, 85, 86, 82, 81, 87, 88
28, 82, 81, 87, 88, 84, 83, 89, 90
29, 86, 85, 91, 92, 88, 87, 93, 94
30, 88, 87, 93, 94, 90, 89, 95, 96
31, 2, 97, 98, 3, 6, 99, 100, 7
32, 6, 99, 100, 7, 10, 101, 102, 11
33, 10, 101, 102, 11, 14, 103, 104, 15
34, 14, 103, 104, 15, 18, 105, 106, 19
35, 18, 105, 106, 19, 22, 107, 108, 23
36, 3, 98, 109, 25, 7, 100, 110, 27
37, 7, 100, 110, 27, 11, 102, 111, 29
38, 11, 102, 111, 29, 15, 104, 112, 31
39, 15, 104, 112, 31, 19, 106, 113, 33
40, 19, 106, 113, 33, 23, 108, 114, 35
41, 38, 115, 116, 39, 42, 117, 118, 43
42, 42, 117, 118, 43, 46, 119, 120, 47
43, 39, 116, 121, 49, 43, 118, 122, 51
44, 43, 118, 122, 51, 47, 120, 123, 53
45, 49, 121, 124, 55, 51, 122, 125, 57
46, 51, 122, 125, 57, 53, 123, 126, 59
47, 55, 124, 107, 22, 57, 125, 127, 61
48, 57, 125, 127, 61, 59, 126, 128, 63
49, 22, 107, 108, 23, 61, 127, 129, 65
50, 61, 127, 129, 65, 63, 128, 130, 67
51, 23, 108, 114, 35, 65, 129, 131, 69
52, 65, 129, 131, 69, 67, 130, 132, 71
53, 35, 114, 133, 73, 69, 131, 134, 75
54, 69, 131, 134, 75, 71, 132, 135, 77
55, 73, 133, 136, 79, 75, 134, 137, 81
56, 75, 134, 137, 81, 77, 135, 138, 83
57, 79, 136, 139, 85, 81, 137, 140, 87
58, 81, 137, 140, 87, 83, 138, 141, 89
59, 85, 139, 142, 91, 87, 140, 143, 93
60, 87, 140, 143, 93, 89, 141, 144, 95
61, 97, 145, 146, 98, 99, 147, 148, 100
62, 99, 147, 148, 100, 101, 149, 150, 102
63, 101, 149, 150, 102, 103, 151, 152, 104
64, 103, 151, 152, 104, 105, 153, 154, 106
65, 105, 153, 154, 106, 107, 155, 156, 108
66, 98, 146, 157, 109, 100, 148, 158, 110
67, 100, 148, 158, 110, 102, 150, 159, 111
68, 102, 150, 159, 111, 104, 152, 160, 112
69, 104, 152, 160, 112, 106, 154, 161, 113
70, 106, 154, 161, 113, 108, 156, 162, 114
71, 115, 163, 164, 116, 117, 165, 166, 118
72, 117, 165, 166, 118, 119, 167, 168, 120
73, 116, 164, 169, 121, 118, 166, 170, 122
74, 118, 166, 170, 122, 120, 168, 171, 123
75, 121, 169, 172, 124, 122, 170, 173, 125
76, 122, 170, 173, 125, 123, 171, 174, 126
77, 124, 172, 155, 107, 125, 173, 175, 127
78, 125, 173, 175, 127, 126, 174, 176, 128
79, 107, 155, 156, 108, 127, 175, 177, 129
80, 127, 175, 177, 129, 128, 176, 178, 130
81, 108, 156, 162, 114, 129, 177, 179, 131
82, 129, 177, 179, 131, 130, 178, 180, 132
83, 114, 162, 181, 133, 131, 179, 182, 134
84, 131, 179, 182, 134, 132, 180, 183, 135
85, 133, 181, 184, 136, 134, 182, 185, 137
86, 134, 182, 185, 137, 135, 183, 186, 138
87, 136, 184, 187, 139, 137, 185, 188, 140
88, 137, 185, 188, 140, 138, 186, 189, 141
89, 139, 187, 190, 142, 140, 188, 191, 143
90, 140, 188, 191, 143, 141, 189, 192, 144
91, 145, 193, 194, 146, 147, 195, 196, 148
92, 147, 195, 196, 148, 149, 197, 198, 150
93, 149, 197, 198, 150, 151, 199, 200, 152
94, 151, 199, 200, 152, 153, 201, 202, 154
95, 153, 201, 202, 154, 155, 203, 204, 156
96, 146, 194, 205, 157, 148, 196, 206, 158
97, 148, 196, 206, 158, 150, 198, 207, 159
98, 150, 198, 207, 159, 152, 200, 208, 160
99, 152, 200, 208, 160, 154, 202, 209, 161
100, 154, 202, 209, 161, 156, 204, 210, 162
101, 163, 211, 212, 164, 165, 213, 214, 166
102, 165, 213, 214, 166, 167, 215, 216, 168
103, 164, 212, 217, 169, 166, 214, 218, 170
104, 166, 214, 218, 170, 168, 216, 219, 171
105, 169, 217, 220, 172, 170, 218, 221, 173
106, 170, 218, 221, 173, 171, 219, 222, 174
107, 172, 220, 203, 155, 173, 221, 223, 175
108, 173, 221, 223, 175, 174, 222, 224, 176
109, 155, 203, 204, 156, 175, 223, 225, 177
110, 175, 223, 225, 177, 176, 224, 226, 178
111, 156, 204, 210, 162, 177, 225, 227, 179
112, 177, 225, 227, 179, 178, 226, 228, 180
113, 162, 210, 229, 181, 179, 227, 230, 182
114, 179, 227, 230, 182, 180, 228, 231, 183
115, 181, 229, 232, 184, 182, 230, 233, 185
116, 182, 230, 233, 185, 183, 231, 234, 186
117, 184, 232, 235, 187, 185, 233, 236, 188
118, 185, 233, 236, 188, 186, 234, 237, 189
119, 187, 235, 238, 190, 188, 236, 239, 191
120, 188, 236, 239, 191, 189, 237, 240, 192
121, 193, 241, 242, 194, 195, 243, 244, 196
122, 195, 243, 244, 196, 197, 245, 246, 198
123, 197, 245, 246, 198, 199, 247, 248, 200
124, 199, 247, 248, 200, 201, 249, 250, 202
125, 201, 249, 250, 202, 203, 251, 252, 204
126, 194, 242, 253, 205, 196, 244, 254, 206
127, 196, 244, 254, 206, 198, 246, 255, 207
128, 198, 246, 255, 207, 200, 248, 256, 208
129, 200, 248, 256, 208, 202, 250, 257, 209
130, 202, 250, 257, 209, 204, 252, 258, 210
131, 211, 259, 260, 212, 213, 261, 262, 214
132, 213, 261, 262, 214, 215, 263, 264, 216
133, 212, 260, 265, 217, 214, 262, 266, 218
134, 214, 262, 266, 218, 216, 264, 267, 219
135, 217, 265, 268, 220, 218, 266, 269, 221
136, 218, 266, 269, 221, 219, 267, 270, 222
137, 220, 268, 251, 203, 221, 269, 271, 223
138, 221, 269, 271, 223, 222, 270, 272, 224
139, 203, 251, 252, 204, 223, 271, 273, 225
140, 223, 271, 273, 225, 224, 272, 274, 226
141, 204, 252, 258, 210, 225, 273, 275, 227
142, 225, 273, 275, 227, 226, 274, 276, 228
143, 210, 258, 277, 229, 227, 275, 278, 230
144, 227, 275, 278, 230, 228, 276, 279, 231
145, 229, 277, 280, 232, 230, 278, 281, 233
146, 230, 278, 281, 233, 231, 279, 282, 234
147, 232, 280, 283, 235, 233, 281, 284, 236
148, 233, 281, 284, 236, 234, 282, 285, 237
149, 235, 283, 286, 238, 236, 284, 287, 239
150, 236, 284, 287, 239, 237, 285, 288, 240
151, 241, 289, 290, 242, 243, 291, 292, 244
152, 243, 291, 292, 244, 245, 293, 294, 246
153, 245, 293, 294, 246, 247, 295, 296, 248
154, 247, 295, 296, 248, 249, 297, 298, 250
155, 249, 297, 298, 250, 251, 299, 300, 252
156, 242, 290, 301, 253, 244, 292, 302, 254
157, 244, 292, 302, 254, 246, 294, 303, 255
158, 246, 294, 303, 255, 248, 296, 304, 256
159, 248, 296, 304, 256, 250, 298, 305, 257
160, 250, 298, 305, 257, 252, 300, 306, 258
161, 259, 307, 308, 260, 261, 309, 310, 262
162, 261, 309, 310, 262, 263, 311, 312, 264
163, 260, 308, 313, 265, 262, 310, 314, 266
164, 262, 310, 314, 266, 264, 312, 315, 267
165, 265, 313, 316, 268, 266, 314, 317, 269
166, 266, 314, 317, 269, 267, 315, 318, 270
167, 268, 316, 299, 251, 269, 317, 319, 271
168, 269, 317, 319, 271, 270, 318, 320, 272
169, 251, 299, 300, 252, 271, 319, 321, 273
170, 271, 319, 321, 273, 272, 320, 322, 274
171, 252, 300, 306, 258, 273, 321, 323, 275
172, 273, 321, 323, 275, 274, 322, 324, 276
173, 258, 306, 325, 277, 275, 323, 326, 278
174, 275, 323, 326, 278, 276, 324, 327, 279
175, 277, 325, 328, 280, 278, 326, 329, 281
176, 278, 326, 329, 281, 279, 327, 330, 282
177, 280, 328, 331, 283, 281, 329, 332, 284
178, 281, 329, 332, 284, 282, 330, 333, 285
179, 283, 331, 334, 286, 284, 332, 335, 287
180, 284, 332, 335, 287, 285, 333, 336, 288
181, 289, 337, 338, 290, 291, 339, 340, 292
182, 291, 339, 340, 292, 293, 341, 342, 294
183, 293, 341, 342, 294, 295, 343, 344, 296
184, 295, 343, 344, 296, 297, 345, 346, 298
185, 297, 345, 346, 298, 299, 347, 348, 300
186, 290, 338, 349, 301, 292, 340, 350, 302
187, 292, 340, 350, 302, 294, 342, 351, 303
188, 294, 342, 351, 303, 296, 344, 352, 304
189, 296, 344, 352, 304, 298, 346, 353, 305
190, 298, 346, 353, 305, 300, 348, 354, 306
191, 307, 355, 356, 308, 309, 357, 358, 310
192, 309, 357, 358, 310, 311, 359, 360, 312
193, 308, 356, 361, 313, 310, 358, 362, 314
194, 310, 358, 362, 314, 312, 360, 363, 315
195, 313, 361, 364, 316, 314, 362, 365, 317
196, 314, 362, 365, 317, 315, 363, 366, 318
197, 316, 364, 347, 299, 317, 365, 367, 319
198, 317, 365, 367, 319, 318, 366, 368, 320
199, 299, 347, 348, 300, 319, 367, 369, 321
200, 319, 367, 369, 321, 320, 368, 370, 322
201, 300, 348, 354, 306, 321, 369, 371, 323
202, 321, 369, 371, 323, 322, 370, 372, 324
203, 306, 354, 373, 325, 323, 371, 374, 326
204, 323, 371, 374, 326, 324, 372, 375, 327
205, 325, 373, 376, 328, 326, 374, 377, 329
206, 326, 374, 377, 329, 327, 375, 378, 330
207, 328, 376, 379, 331, 329, 377, 380, 332
208, 329, 377, 380, 332, 330, 378, 381, 333
209, 331, 379, 382, 334, 332, 380, 383, 335
210, 332, 380, 383, 335, 333, 381, 384, 336
211, 337, 385, 386, 338, 339, 387, 388, 340
212, 339, 387, 388, 340, 341, 389, 390, 342
213, 341, 389, 390, 342, 343, 391, 392, 344
214, 343, 391, 392, 344, 345, 393, 394, 346
215, 345, 393, 394, 346, 347, 395, 396, 348
216, 338, 386, 397, 349, 340, 388, 398, 350
217, 340, 388, 398, 350, 342, 390, 399, 351
218, 342, 390, 399, 351, 344, 392, 400, 352
219, 344, 392, 400, 352, 346, 394, 401, 353
220, 346, 394, 401, 353, 348, 396, 402, 354
221, 355, 403, 404, 356, 357, 405, 406, 358
222, 357, 405, 406, 358, 359, 407, 408, 360
223, 356, 404, 409, 361, 358, 406, 410, 362
224, 358, 406, 410, 362, 360, 408, 411, 363
225, 361, 409, 412, 364, 362, 410, 413, 365
226, 362, 410, 413, 365, 363, 411, 414, 366
227, 364, 412, 395, 347, 365, 413, 415, 367
228, 365, 413, 415, 367, 366, 414, 416, 368
229, 347, 395, 396, 348, 367, 415, 417, 369
230, 367, 415, 417, 369, 368, 416, 418, 370
231, 348, 396, 402, 354, 369, 417, 419, 371
232, 369, 417, 419, 371, 370, 418, 420, 372
233, 354, 402, 421, 373, 371, 419, 422, 374
234, 371, 419, 422, 374, 372, 420, 423, 375
235, 373, 421, 424, 376, 374, 422, 425, 377
236, 374, 422, 425, 377, 375, 423, 426, 378
237, 376, 424, 427, 379, 377, 425, 428, 380
238, 377, 425, 428, 380, 378, 426, 429, 381
239, 379, 427, 430, 382, 380, 428, 431, 383
240, 380, 428, 431, 383, 381, 429, 432, 384
241, 385, 433, 434, 386, 387, 435, 436, 388
242, 387, 435, 436, 388, 389, 437, 438, 390
243, 389, 437, 438, 390, 391, 439, 440, 392
244, 391, 439, 440, 392, 393, 441, 442, 394
245, 393, 441, 442, 394, 395, 443, 444, 396
246, 386, 434, 445, 397, 388, 436, 446, 398
247, 388, 436, 446, 398, 390, 438, 447, 399
248, 390, 438, 447, 399, 392, 440, 448, 400
249, 392, 440, 448, 400, 394, 442, 449, 401
250, 394, 442, 449, 401, 396, 444, 450, 402
251, 403, 451, 452, 404, 405, 453, 454, 406
252, 405, 453, 454, 406, 407, 455, 456, 408
253, 404, 452, 457, 409, 406, 454, 458, 410
254, 406, 454, 458, 410, 408, 456, 459, 411
255, 409, 457, 460, 412, 410, 458, 461, 413
256, 410, 458, 461, 413, 411, 459, 462, 414
257, 412, 460, 443, 395, 413, 461, 463, 415
258, 413, 461, 463, 415, 414, 462, 464, 416
259, 395, 443, 444, 396, 415, 463, 465, 417
260, 415, 463, 465, 417, 416, 464, 466, 418
261, 396, 444, 450, 402, 417, 465, 467, 419
262, 417, 465, 467, 419, 418, 466, 468, 420
263, 402, 450, 469, 421, 419, 467, 470, 422
264, 419, 467, 470, 422, 420, 468, 471, 423
265, 421, 469, 472, 424, 422, 470, 473, 425
266, 422, 470, 473, 425, 423, 471, 474, 426
267, 424, 472, 475, 427, 425, 473, 476, 428
268, 425, 473, 476, 428, 426, 474, 477, 429
269, 427, 475, 478, 430, 428, 476, 479, 431
270, 428, 476, 479, 431, 429, 477, 480, 432
271, 433, 481, 482, 434, 435, 483, 484, 436
272, 435, 483, 484, 436, 437, 485, 486, 438
273, 437, 485, 486, 438, 439, 487, 488, 440
274, 439, 487, 488, 440, 441, 489, 490, 442
275, 441, 489, 490, 442, 443, 491, 492, 444
276, 434, 482, 493, 445, 436, 484, 494, 446
277, 436, 484, 494, 446, 438, 486, 495, 447
278, 438, 486, 495, 447, 440, 488, 496, 448
279, 440, 488, 496, 448, 442, 490, 497, 449
280, 442, 490, 497, 449, 444, 492, 498, 450
281, 451, 499, 500, 452, 453, 501, 502, 454
282, 453, 501, 502, 454, 455, 503, 504, 456
283, 452, 500, 505, 457, 454, 502, 506, 458
284, 454, 502, 506, 458, 456, 504, 507, 459
285, 457, 505, 508, 460, 458, 506, 509, 461
286, 458, 506, 509, 461, 459, 507, 510, 462
287, 460, 508, 491, 443, 461, 509, 511, 463
288, 461, 509, 511, 463, 462, 510, 512, 464
289, 443, 491, 492, 444, 463, 511, 513, 465
290, 463, 511, 513, 465, 464, 512, 514, 466
291, 444, 492, 498, 450, 465, 513, 515, 467
292, 465, 513, 515, 467, 466, 514, 516, 468
293, 450, 498, 517, 469, 467, 515, 518, 470
294, 467, 515, 518, 470, 468, 516, 519, 471
295, 469, 517, 520, 472, 470, 518, 521, 473
296, 470, 518, 521, 473, 471, 519, 522, 474
297, 472, 520, 523, 475, 473, 521, 524, 476
298, 473, 521, 524, 476, 474, 522, 525, 477
299, 475, 523, 526, 478, 476, 524, 527, 479
300, 476, 524, 527, 479, 477, 525, 528, 480
301, 481, 529, 530, 482, 483, 531, 532, 484
302, 483, 531, 532, 484, 485, 533, 534, 486
303, 485, 533, 534, 486, 487, 535, 536, 488
304, 487, 535, 536, 488, 489, 537, 538, 490
305, 489, 537, 538, 490, 491, 539, 540, 492
306, 482, 530, 541, 493, 484, 532, 542, 494
307, 484, 532, 542, 494, 486, 534, 543, 495
308, 486, 534, 543, 495, 488, 536, 544, 496
309, 488, 536, 544, 496, 490, 538, 545, 497
310, 490, 538, 545, 497, 492, 540, 546, 498
311, 499, 547, 548, 500, 501, 549, 550, 502
312, 501, 549, 550, 502, 503, 551, 552, 504
313, 500, 548, 553, 505, 502, 550, 554, 506
314, 502, 550, 554, 506, 504, 552, 555, 507
315, 505, 553, 556, 508, 506, 554, 557, 509
316, 506, 554, 557, 509, 507, 555, 558, 510
317, 508, 556, 539, 491, 509, 557, 559, 511
318, 509, 557, 559, 511, 510, 558, 560, 512
319, 491, 539, 540, 492, 511, 559, 561, 513
320, 511, 559, 561, 513, 512, 560, 562, 514
321, 492, 540, 546, 498, 513, 561, 563, 515
322, 513, 561, 563, 515, 514, 562, 564, 516
323, 498, 546, 565, 517, 515, 563, 566, 518
324, 515, 563, 566, 518, 516, 564, 567, 519
325, 517, 565, 568, 520, 518, 566, 569, 521
326, 518, 566, 569, 521, 519, 567, 570, 522
327, 520, 568, 571, 523, 521, 569, 572, 524
328, 521, 569, 572, 524, 522, 570, 573, 525
329, 523, 571, 574, 526, 524, 572, 575, 527
330, 524, 572, 575, 527, 525, 573, 576, 528
331, 529, 577, 578, 530, 531, 579, 580, 532
332, 531, 579, 580, 532, 533, 581, 582, 534
333, 533, 581, 582, 534, 535, 583, 584, 536
334, 535, 583, 584, 536, 537, 585, 586, 538
335, 537, 585, 586, 538, 539, 587, 588, 540
336, 530, 578, 589, 541, 532, 580, 590, 542
337, 532, 580, 590, 542, 534, 582, 591, 543
338, 534, 582, 591, 543, 536, 584, 592, 544
339, 536, 584, 592, 544, 538, 586, 593, 545
340, 538, 586, 593, 545, 540, 588, 594, 546
341, 547, 595, 596, 548, 549, 597, 598, 550
342, 549, 597, 598, 550, 551, 599, 600, 552
343, 548, 596, 601, 553, 550, 598, 602, 554
344, 550, 598, 602, 554, 552, 600, 603, 555
345, 553, 601, 604, 556, 554, 602, 605, 557
346, 554, 602, 605, 557, 555, 603, 606, 558
347, 556, 604, 587, 539, 557, 605, 607, 559
348, 557, 605, 607, 559, 558, 606, 608, 560
349, 539, 587, 588, 540, 559, 607, 609, 561
350, 559, 607, 609, 561, 560, 608, 610, 562
351, 540, 588, 594, 546, 561, 609, 611, 563
352, 561, 609, 611, 563, 562, 610, 612, 564
353, 546, 594, 613, 565, 563, 611, 614, 566
354, 563, 611, 614, 566, 564, 612, 615, 567
355, 565, 613, 616, 568, 566, 614, 617, 569
356, 566, 614, 617, 569, 567, 615, 618, 570
357, 568, 616, 619, 571, 569, 617, 620, 572
358, 569, 617, 620, 572, 570, 618, 621, 573
359, 571, 619, 622, 574, 572, 620, 623, 575
360, 572, 620, 623, 575, 573, 621, 624, 576
361, 577, 625, 626, 578, 579, 627, 628, 580
362, 579, 627, 628, 580, 581, 629, 630, 582
363, 581, 629, 630, 582, 583, 631, 632, 584
364, 583, 631, 632, 584, 585, 633, 634, 586
365, 585, 633, 634, 586, 587, 635, 636, 588
366, 578, 626, 637, 589, 580, 628, 638, 590
367, 580, 628, 638, 590, 582, 630, 639, 591
368, 582, 630, 639, 591, 584, 632, 640, 592
369, 584, 632, 640, 592, 586, 634, 641, 593
370, 586, 634, 641, 593, 588, 636, 642, 594
371, 595, 643, 644, 596, 597, 645, 646, 598
372, 597, 645, 646, 598, 599, 647, 648, 600
373, 596, 644, 649, 601, 598, 646, 650, 602
374, 598, 646, 650, 602, 600, 648, 651, 603
375, 601, 649, 652, 604, 602, 650, 653, 605
376, 602, 650, 653, 605, 603, 651, 654, 606
377, 604, 652, 635, 587, 605, 653, 655, 607
378, 605, 653, 655, 607, 606, 654, 656, 608
379, 587, 635, 636, 588, 607, 655, 657, 609
380, 607, 655, 657, 609, 608, 656, 658, 610
381, 588, 636, 642, 594, 609, 657, 659, 611
382, 609, 657, 659, 611, 610, 658, 660, 612
383, 594, 642, 661, 613, 611, 659, 662, 614
384, 611, 659, 662, 614, 612, 660, 663, 615
385, 613, 661, 664, 616, 614, 662, 665, 617
386, 614, 662, 665, 617, 615, 663, 666, 618
387, 616, 664, 667, 619, 617, 665, 668, 620
388, 617, 665, 668, 620, 618, 666, 669, 621
389, 619, 667, 670, 622, 620, 668, 671, 623
390, 620, 668, 671, 623, 621, 669, 672, 624
391, 625, 673, 674, 626, 627, 675, 676, 628
392, 627, 675, 676, 628, 629, 677, 678, 630
393, 629, 677, 678, 630, 631, 679, 680, 632
394, 631, 679, 680, 632, 633, 681, 682, 634
395, 633, 681, 682, 634, 635, 683, 684, 636
396, 626, 674, 685, 637, 628, 676, 686, 638
397, 628, 676, 686, 638, 630, 678, 687, 639
398, 630, 678, 687, 639, 632, 680, 688, 640
399, 632, 680, 688, 640, 634, 682, 689, 641
400, 634, 682, 689, 641, 636, 684, 690, 642
401, 643, 691, 692, 644, 645, 693, 694, 646
402, 645, 693, 694, 646, 647, 695, 696, 648
403, 644, 692, 697, 649, 646, 694, 698, 650
404, 646, 694, 698, 650, 648, 696, 699, 651
405, 649, 697, 700, 652, 650, 698, 701, 653
406, 650, 698, 701, 653, 651, 699, 702, 654
407, 652, 700, 683, 635, 653, 701, 703, 655
408, 653, 701, 703, 655, 654, 702, 704, 656
409, 635, 683, 684, 636, 655, 703, 705, 657
410, 655, 703, 705, 657, 656, 704, 706, 658
411, 636, 684, 690, 642, 657, 705, 707, 659
412, 657, 705, 707, 659, 658, 706, 708, 660
413, 642, 690, 709, 661, 659, 707, 710, 662
414, 659, 707, 710, 662, 660, 708, 711, 663
415, 661, 709, 712, 664, 662, 710, 713, 665
416, 662, 710, 713, 665, 663, 711, 714, 666
417, 664, 712, 715, 667, 665, 713, 716, 668
418, 665, 713, 716, 668, 666, 714, 717, 669
419, 667, 715, 718, 670, 668, 716, 719, 671
420, 668, 716, 719, 671, 669, 717, 720, 672
*NSET, NSET=CLAMP
1, 4, 5, 8, 9, 12, 13, 16, 17, 20, 21, 24, 26, 28, 30, 32
34, 36, 37, 40, 41, 44, 45, 48, 50, 52, 54, 56, 58, 60, 62, 64
66, 68, 70, 72, 74, 76, 78, 80, 82, 84, 86, 88, 90, 92, 94, 96
*NSET, NSET=TIP_TOP
695, 696, 699, 702, 704, 706, 708, 711, 714, 717, 720
*NSET, NSET=TIP_FLANGE
695, 696, 699, 702, 704, 706, 708, 711, 714, 717, 720
*MATERIAL, NAME=STEEL
*ELASTIC
210000, 0.3
*SOLID SECTION, ELSET=EALL, MATERIAL=STEEL
*BOUNDARY
CLAMP, 1, 3, 0.0
*STEP
*STATIC
*CLOAD
695, 3, -454.545454545
696, 3, -454.545454545
699, 3, -454.545454545
702, 3, -454.545454545
704, 3, -454.545454545
706, 3, -454.545454545
708, 3, -454.545454545
711, 3, -454.545454545
714, 3, -454.545454545
717, 3, -454.545454545
720, 3, -454.545454545
*NODE FILE
U
*EL FILE
S, ENER
*NODE PRINT, NSET=TIP_TOP
U
*NODE PRINT, NSET=CLAMP
RF
*EL PRINT, ELSET=EALL
ELSE
*ENERGY PRINT
*END STEP
