*HEADING
Normalized cross-passage space-truss torsion benchmark
*NODE
1,-1.200000000000e+00,0.000000000000e+00,0.000000000000e+00
2,1.200000000000e+00,0.000000000000e+00,0.000000000000e+00
3,-1.200000000000e+00,0.000000000000e+00,2.000000000000e+00
4,1.200000000000e+00,0.000000000000e+00,2.000000000000e+00
5,-1.200000000000e+00,1.000000000000e+01,0.000000000000e+00
6,1.200000000000e+00,1.000000000000e+01,0.000000000000e+00
7,-1.200000000000e+00,1.000000000000e+01,2.000000000000e+00
8,1.200000000000e+00,1.000000000000e+01,2.000000000000e+00
9,-1.200000000000e+00,2.000000000000e+01,0.000000000000e+00
10,1.200000000000e+00,2.000000000000e+01,0.000000000000e+00
11,-1.200000000000e+00,2.000000000000e+01,2.000000000000e+00
12,1.200000000000e+00,2.000000000000e+01,2.000000000000e+00
13,-1.200000000000e+00,3.000000000000e+01,0.000000000000e+00
14,1.200000000000e+00,3.000000000000e+01,0.000000000000e+00
15,-1.200000000000e+00,3.000000000000e+01,2.000000000000e+00
16,1.200000000000e+00,3.000000000000e+01,2.000000000000e+00
17,-1.200000000000e+00,4.000000000000e+01,0.000000000000e+00
18,1.200000000000e+00,4.000000000000e+01,0.000000000000e+00
19,-1.200000000000e+00,4.000000000000e+01,2.000000000000e+00
20,1.200000000000e+00,4.000000000000e+01,2.000000000000e+00
21,-1.200000000000e+00,5.000000000000e+01,0.000000000000e+00
22,1.200000000000e+00,5.000000000000e+01,0.000000000000e+00
23,-1.200000000000e+00,5.000000000000e+01,2.000000000000e+00
24,1.200000000000e+00,5.000000000000e+01,2.000000000000e+00
25,-1.200000000000e+00,5.000000000000e+00,-1.500000000000e-01
26,1.200000000000e+00,5.000000000000e+00,1.500000000000e-01
27,-1.200000000000e+00,5.000000000000e+00,1.850000000000e+00
28,1.200000000000e+00,5.000000000000e+00,2.150000000000e+00
29,-1.200000000000e+00,1.500000000000e+01,-1.500000000000e-01
30,1.200000000000e+00,1.500000000000e+01,1.500000000000e-01
31,-1.200000000000e+00,1.500000000000e+01,1.850000000000e+00
32,1.200000000000e+00,1.500000000000e+01,2.150000000000e+00
33,-1.200000000000e+00,2.500000000000e+01,-1.500000000000e-01
34,1.200000000000e+00,2.500000000000e+01,1.500000000000e-01
35,-1.200000000000e+00,2.500000000000e+01,1.850000000000e+00
36,1.200000000000e+00,2.500000000000e+01,2.150000000000e+00
37,-1.200000000000e+00,3.500000000000e+01,-1.500000000000e-01
38,1.200000000000e+00,3.500000000000e+01,1.500000000000e-01
39,-1.200000000000e+00,3.500000000000e+01,1.850000000000e+00
40,1.200000000000e+00,3.500000000000e+01,2.150000000000e+00
41,-1.200000000000e+00,4.500000000000e+01,-1.500000000000e-01
42,1.200000000000e+00,4.500000000000e+01,1.500000000000e-01
43,-1.200000000000e+00,4.500000000000e+01,1.850000000000e+00
44,1.200000000000e+00,4.500000000000e+01,2.150000000000e+00
45,0.000000000000e+00,-3.600000000000e-02,0.000000000000e+00
46,0.000000000000e+00,3.600000000000e-02,2.000000000000e+00
47,-1.200000000000e+00,3.000000000000e-02,1.000000000000e+00
48,1.200000000000e+00,-3.000000000000e-02,1.000000000000e+00
49,0.000000000000e+00,9.964000000000e+00,0.000000000000e+00
50,0.000000000000e+00,1.003600000000e+01,2.000000000000e+00
51,-1.200000000000e+00,1.003000000000e+01,1.000000000000e+00
52,1.200000000000e+00,9.970000000000e+00,1.000000000000e+00
53,-6.000000000000e-01,1.997454415588e+01,0.000000000000e+00
54,0.000000000000e+00,1.996400000000e+01,0.000000000000e+00
55,6.000000000000e-01,1.997454415588e+01,0.000000000000e+00
56,-6.000000000000e-01,2.002545584412e+01,2.000000000000e+00
57,0.000000000000e+00,2.003600000000e+01,2.000000000000e+00
58,6.000000000000e-01,2.002545584412e+01,2.000000000000e+00
59,-1.200000000000e+00,2.002121320344e+01,5.000000000000e-01
60,-1.200000000000e+00,2.003000000000e+01,1.000000000000e+00
61,-1.200000000000e+00,2.002121320344e+01,1.500000000000e+00
62,1.200000000000e+00,1.997878679656e+01,5.000000000000e-01
63,1.200000000000e+00,1.997000000000e+01,1.000000000000e+00
64,1.200000000000e+00,1.997878679656e+01,1.500000000000e+00
65,0.000000000000e+00,2.996400000000e+01,0.000000000000e+00
66,0.000000000000e+00,3.003600000000e+01,2.000000000000e+00
67,-1.200000000000e+00,3.003000000000e+01,1.000000000000e+00
68,1.200000000000e+00,2.997000000000e+01,1.000000000000e+00
69,-6.000000000000e-01,3.997454415588e+01,0.000000000000e+00
70,0.000000000000e+00,3.996400000000e+01,0.000000000000e+00
71,6.000000000000e-01,3.997454415588e+01,0.000000000000e+00
72,-6.000000000000e-01,4.002545584412e+01,2.000000000000e+00
73,0.000000000000e+00,4.003600000000e+01,2.000000000000e+00
74,6.000000000000e-01,4.002545584412e+01,2.000000000000e+00
75,-1.200000000000e+00,4.002121320344e+01,5.000000000000e-01
76,-1.200000000000e+00,4.003000000000e+01,1.000000000000e+00
77,-1.200000000000e+00,4.002121320344e+01,1.500000000000e+00
78,1.200000000000e+00,3.997878679656e+01,5.000000000000e-01
79,1.200000000000e+00,3.997000000000e+01,1.000000000000e+00
80,1.200000000000e+00,3.997878679656e+01,1.500000000000e+00
81,0.000000000000e+00,4.996400000000e+01,0.000000000000e+00
82,0.000000000000e+00,5.003600000000e+01,2.000000000000e+00
83,-1.200000000000e+00,5.003000000000e+01,1.000000000000e+00
84,1.200000000000e+00,4.997000000000e+01,1.000000000000e+00
85,-1.200000000000e+00,5.030000000000e+00,8.500000000000e-01
86,-1.200000000000e+00,5.030000000000e+00,1.150000000000e+00
87,1.200000000000e+00,5.030000000000e+00,8.500000000000e-01
88,1.200000000000e+00,5.030000000000e+00,1.150000000000e+00
89,1.500000000000e-01,4.964000000000e+00,0.000000000000e+00
90,-1.500000000000e-01,4.964000000000e+00,0.000000000000e+00
91,1.500000000000e-01,4.964000000000e+00,2.000000000000e+00
92,-1.500000000000e-01,4.964000000000e+00,2.000000000000e+00
93,-1.200000000000e+00,1.503000000000e+01,8.500000000000e-01
94,-1.200000000000e+00,1.503000000000e+01,1.150000000000e+00
95,1.200000000000e+00,1.503000000000e+01,8.500000000000e-01
96,1.200000000000e+00,1.503000000000e+01,1.150000000000e+00
97,1.500000000000e-01,1.496400000000e+01,0.000000000000e+00
98,-1.500000000000e-01,1.496400000000e+01,0.000000000000e+00
99,1.500000000000e-01,1.496400000000e+01,2.000000000000e+00
100,-1.500000000000e-01,1.496400000000e+01,2.000000000000e+00
101,-1.200000000000e+00,2.252121320344e+01,3.939339828220e-01
102,-1.200000000000e+00,2.503000000000e+01,8.500000000000e-01
103,-1.200000000000e+00,2.752121320344e+01,1.393933982822e+00
104,-1.200000000000e+00,2.252121320344e+01,1.606066017178e+00
105,-1.200000000000e+00,2.503000000000e+01,1.150000000000e+00
106,-1.200000000000e+00,2.752121320344e+01,6.060660171780e-01
107,1.200000000000e+00,2.252121320344e+01,3.939339828220e-01
108,1.200000000000e+00,2.503000000000e+01,8.500000000000e-01
109,1.200000000000e+00,2.752121320344e+01,1.393933982822e+00
110,1.200000000000e+00,2.252121320344e+01,1.606066017178e+00
111,1.200000000000e+00,2.503000000000e+01,1.150000000000e+00
112,1.200000000000e+00,2.752121320344e+01,6.060660171780e-01
113,-4.939339828220e-01,2.247454415588e+01,0.000000000000e+00
114,1.500000000000e-01,2.496400000000e+01,0.000000000000e+00
115,7.060660171780e-01,2.747454415588e+01,0.000000000000e+00
116,4.939339828220e-01,2.247454415588e+01,0.000000000000e+00
117,-1.500000000000e-01,2.496400000000e+01,0.000000000000e+00
118,-7.060660171780e-01,2.747454415588e+01,0.000000000000e+00
119,-4.939339828220e-01,2.247454415588e+01,2.000000000000e+00
120,1.500000000000e-01,2.496400000000e+01,2.000000000000e+00
121,7.060660171780e-01,2.747454415588e+01,2.000000000000e+00
122,4.939339828220e-01,2.247454415588e+01,2.000000000000e+00
123,-1.500000000000e-01,2.496400000000e+01,2.000000000000e+00
124,-7.060660171780e-01,2.747454415588e+01,2.000000000000e+00
125,-1.200000000000e+00,3.503000000000e+01,8.500000000000e-01
126,-1.200000000000e+00,3.503000000000e+01,1.150000000000e+00
127,1.200000000000e+00,3.503000000000e+01,8.500000000000e-01
128,1.200000000000e+00,3.503000000000e+01,1.150000000000e+00
129,1.500000000000e-01,3.496400000000e+01,0.000000000000e+00
130,-1.500000000000e-01,3.496400000000e+01,0.000000000000e+00
131,1.500000000000e-01,3.496400000000e+01,2.000000000000e+00
132,-1.500000000000e-01,3.496400000000e+01,2.000000000000e+00
133,-1.200000000000e+00,4.503000000000e+01,8.500000000000e-01
134,-1.200000000000e+00,4.503000000000e+01,1.150000000000e+00
135,1.200000000000e+00,4.503000000000e+01,8.500000000000e-01
136,1.200000000000e+00,4.503000000000e+01,1.150000000000e+00
137,1.500000000000e-01,4.496400000000e+01,0.000000000000e+00
138,-1.500000000000e-01,4.496400000000e+01,0.000000000000e+00
139,1.500000000000e-01,4.496400000000e+01,2.000000000000e+00
140,-1.500000000000e-01,4.496400000000e+01,2.000000000000e+00
*ELEMENT,TYPE=B31,ELSET=ALL
1,1,25
2,25,5
3,2,26
4,26,6
5,3,27
6,27,7
7,4,28
8,28,8
9,5,29
10,29,9
11,6,30
12,30,10
13,7,31
14,31,11
15,8,32
16,32,12
17,9,33
18,33,13
19,10,34
20,34,14
21,11,35
22,35,15
23,12,36
24,36,16
25,13,37
26,37,17
27,14,38
28,38,18
29,15,39
30,39,19
31,16,40
32,40,20
33,17,41
34,41,21
35,18,42
36,42,22
37,19,43
38,43,23
39,20,44
40,44,24
41,1,45
42,45,2
43,3,46
44,46,4
45,1,47
46,47,3
47,2,48
48,48,4
49,5,49
50,49,6
51,7,50
52,50,8
53,5,51
54,51,7
55,6,52
56,52,8
57,9,53
58,53,54
59,54,55
60,55,10
61,11,56
62,56,57
63,57,58
64,58,12
65,9,59
66,59,60
67,60,61
68,61,11
69,10,62
70,62,63
71,63,64
72,64,12
73,13,65
74,65,14
75,15,66
76,66,16
77,13,67
78,67,15
79,14,68
80,68,16
81,17,69
82,69,70
83,70,71
84,71,18
85,19,72
86,72,73
87,73,74
88,74,20
89,17,75
90,75,76
91,76,77
92,77,19
93,18,78
94,78,79
95,79,80
96,80,20
97,21,81
98,81,22
99,23,82
100,82,24
101,21,83
102,83,23
103,22,84
104,84,24
105,1,85
106,85,7
107,3,86
108,86,5
109,2,87
110,87,8
111,4,88
112,88,6
113,1,89
114,89,6
115,2,90
116,90,5
117,3,91
118,91,8
119,4,92
120,92,7
121,5,93
122,93,11
123,7,94
124,94,9
125,6,95
126,95,12
127,8,96
128,96,10
129,5,97
130,97,10
131,6,98
132,98,9
133,7,99
134,99,12
135,8,100
136,100,11
137,9,101
138,101,102
139,102,103
140,103,15
141,11,104
142,104,105
143,105,106
144,106,13
145,10,107
146,107,108
147,108,109
148,109,16
149,12,110
150,110,111
151,111,112
152,112,14
153,9,113
154,113,114
155,114,115
156,115,14
157,10,116
158,116,117
159,117,118
160,118,13
161,11,119
162,119,120
163,120,121
164,121,16
165,12,122
166,122,123
167,123,124
168,124,15
169,13,125
170,125,19
171,15,126
172,126,17
173,14,127
174,127,20
175,16,128
176,128,18
177,13,129
178,129,18
179,14,130
180,130,17
181,15,131
182,131,20
183,16,132
184,132,19
185,17,133
186,133,23
187,19,134
188,134,21
189,18,135
190,135,24
191,20,136
192,136,22
193,17,137
194,137,22
195,18,138
196,138,21
197,19,139
198,139,24
199,20,140
200,140,23
*NSET,NSET=NALL,GENERATE
1,140,1
*NSET,NSET=LEFT
1,2,3,4
*NSET,NSET=RIGHT
21,22,23,24
*MATERIAL,NAME=STEEL
*ELASTIC
2.100000000000e+11,0.300000000000
*BEAM SECTION,ELSET=ALL,MATERIAL=STEEL,SECTION=RECT
6.000000000000e-02,4.000000000000e-02
0.371390676354,0.557086014531,0.742781352708
*BOUNDARY
LEFT,1,6,0.0
*STEP
*STATIC
*BOUNDARY
21,1,1,5.000000000000e-03
21,2,2,0.0
21,3,3,-6.000000000000e-03
*BOUNDARY
22,1,1,5.000000000000e-03
22,2,2,0.0
22,3,3,6.000000000000e-03
*BOUNDARY
23,1,1,-5.000000000000e-03
23,2,2,0.0
23,3,3,-6.000000000000e-03
*BOUNDARY
24,1,1,-5.000000000000e-03
24,2,2,0.0
24,3,3,6.000000000000e-03
*NODE FILE,NSET=NALL
U
*NODE PRINT,NSET=NALL
U
*NODE PRINT,NSET=RIGHT
RF
*EL PRINT,ELSET=ALL,TOTALS=YES
ELSE
*END STEP
