*HEADING
Normalized cross-passage space-truss torsion benchmark
*NODE
1,-1.200000000000e+00,0.000000000000e+00,0.000000000000e+00
2,1.200000000000e+00,0.000000000000e+00,0.000000000000e+00
3,-1.200000000000e+00,0.000000000000e+00,2.000000000000e+00
4,1.200000000000e+00,0.000000000000e+00,2.000000000000e+00
5,-1.200000000000e+00,1.000000000000e+01,0.000000000000e+00
6,1.200000000000e+00,1.000000000000e+01,0.000000000000e+00
7,-1.200000000000e+00,1.000000000000e+01,2.000000000000e+00
8,1.200000000000e+00,1.000000000000e+01,2.000000000000e+00
9,-1.200000000000e+00,2.000000000000e+01,0.000000000000e+00
10,1.200000000000e+00,2.000000000000e+01,0.000000000000e+00
11,-1.200000000000e+00,2.000000000000e+01,2.000000000000e+00
12,1.200000000000e+00,2.000000000000e+01,2.000000000000e+00
13,-1.200000000000e+00,3.000000000000e+01,0.000000000000e+00
14,1.200000000000e+00,3.000000000000e+01,0.000000000000e+00
15,-1.200000000000e+00,3.000000000000e+01,2.000000000000e+00
16,1.200000000000e+00,3.000000000000e+01,2.000000000000e+00
17,-1.200000000000e+00,4.000000000000e+01,0.000000000000e+00
18,1.200000000000e+00,4.000000000000e+01,0.000000000000e+00
19,-1.200000000000e+00,4.000000000000e+01,2.000000000000e+00
20,1.200000000000e+00,4.000000000000e+01,2.000000000000e+00
21,-1.200000000000e+00,5.000000000000e+01,0.000000000000e+00
22,1.200000000000e+00,5.000000000000e+01,0.000000000000e+00
23,-1.200000000000e+00,5.000000000000e+01,2.000000000000e+00
24,1.200000000000e+00,5.000000000000e+01,2.000000000000e+00
25,-1.200000000000e+00,2.500000000000e+00,-1.060660171780e-01
26,-1.200000000000e+00,5.000000000000e+00,-1.500000000000e-01
27,-1.200000000000e+00,7.500000000000e+00,-1.060660171780e-01
28,1.200000000000e+00,2.500000000000e+00,1.060660171780e-01
29,1.200000000000e+00,5.000000000000e+00,1.500000000000e-01
30,1.200000000000e+00,7.500000000000e+00,1.060660171780e-01
31,-1.200000000000e+00,2.500000000000e+00,1.893933982822e+00
32,-1.200000000000e+00,5.000000000000e+00,1.850000000000e+00
33,-1.200000000000e+00,7.500000000000e+00,1.893933982822e+00
34,1.200000000000e+00,2.500000000000e+00,2.106066017178e+00
35,1.200000000000e+00,5.000000000000e+00,2.150000000000e+00
36,1.200000000000e+00,7.500000000000e+00,2.106066017178e+00
37,-1.200000000000e+00,1.500000000000e+01,-1.500000000000e-01
38,1.200000000000e+00,1.500000000000e+01,1.500000000000e-01
39,-1.200000000000e+00,1.500000000000e+01,1.850000000000e+00
40,1.200000000000e+00,1.500000000000e+01,2.150000000000e+00
41,-1.200000000000e+00,4.250000000000e+01,-1.060660171780e-01
42,-1.200000000000e+00,4.500000000000e+01,-1.500000000000e-01
43,-1.200000000000e+00,4.750000000000e+01,-1.060660171780e-01
44,1.200000000000e+00,4.250000000000e+01,1.060660171780e-01
45,1.200000000000e+00,4.500000000000e+01,1.500000000000e-01
46,1.200000000000e+00,4.750000000000e+01,1.060660171780e-01
47,-1.200000000000e+00,4.250000000000e+01,1.893933982822e+00
48,-1.200000000000e+00,4.500000000000e+01,1.850000000000e+00
49,-1.200000000000e+00,4.750000000000e+01,1.893933982822e+00
50,1.200000000000e+00,4.250000000000e+01,2.106066017178e+00
51,1.200000000000e+00,4.500000000000e+01,2.150000000000e+00
52,1.200000000000e+00,4.750000000000e+01,2.106066017178e+00
53,-6.000000000000e-01,-2.545584412272e-02,0.000000000000e+00
54,0.000000000000e+00,-3.600000000000e-02,0.000000000000e+00
55,6.000000000000e-01,-2.545584412272e-02,0.000000000000e+00
56,-6.000000000000e-01,2.545584412272e-02,2.000000000000e+00
57,0.000000000000e+00,3.600000000000e-02,2.000000000000e+00
58,6.000000000000e-01,2.545584412272e-02,2.000000000000e+00
59,-1.200000000000e+00,2.121320343560e-02,5.000000000000e-01
60,-1.200000000000e+00,3.000000000000e-02,1.000000000000e+00
61,-1.200000000000e+00,2.121320343560e-02,1.500000000000e+00
62,1.200000000000e+00,-2.121320343560e-02,5.000000000000e-01
63,1.200000000000e+00,-3.000000000000e-02,1.000000000000e+00
64,1.200000000000e+00,-2.121320343560e-02,1.500000000000e+00
65,-6.000000000000e-01,9.974544155877e+00,0.000000000000e+00
66,0.000000000000e+00,9.964000000000e+00,0.000000000000e+00
67,6.000000000000e-01,9.974544155877e+00,0.000000000000e+00
68,-6.000000000000e-01,1.002545584412e+01,2.000000000000e+00
69,0.000000000000e+00,1.003600000000e+01,2.000000000000e+00
70,6.000000000000e-01,1.002545584412e+01,2.000000000000e+00
71,-1.200000000000e+00,1.002121320344e+01,5.000000000000e-01
72,-1.200000000000e+00,1.003000000000e+01,1.000000000000e+00
73,-1.200000000000e+00,1.002121320344e+01,1.500000000000e+00
74,1.200000000000e+00,9.978786796564e+00,5.000000000000e-01
75,1.200000000000e+00,9.970000000000e+00,1.000000000000e+00
76,1.200000000000e+00,9.978786796564e+00,1.500000000000e+00
77,0.000000000000e+00,1.996400000000e+01,0.000000000000e+00
78,0.000000000000e+00,2.003600000000e+01,2.000000000000e+00
79,-1.200000000000e+00,2.003000000000e+01,1.000000000000e+00
80,1.200000000000e+00,1.997000000000e+01,1.000000000000e+00
81,-6.000000000000e-01,2.997454415588e+01,0.000000000000e+00
82,0.000000000000e+00,2.996400000000e+01,0.000000000000e+00
83,6.000000000000e-01,2.997454415588e+01,0.000000000000e+00
84,-6.000000000000e-01,3.002545584412e+01,2.000000000000e+00
85,0.000000000000e+00,3.003600000000e+01,2.000000000000e+00
86,6.000000000000e-01,3.002545584412e+01,2.000000000000e+00
87,-1.200000000000e+00,3.002121320344e+01,5.000000000000e-01
88,-1.200000000000e+00,3.003000000000e+01,1.000000000000e+00
89,-1.200000000000e+00,3.002121320344e+01,1.500000000000e+00
90,1.200000000000e+00,2.997878679656e+01,5.000000000000e-01
91,1.200000000000e+00,2.997000000000e+01,1.000000000000e+00
92,1.200000000000e+00,2.997878679656e+01,1.500000000000e+00
93,0.000000000000e+00,3.996400000000e+01,0.000000000000e+00
94,0.000000000000e+00,4.003600000000e+01,2.000000000000e+00
95,-1.200000000000e+00,4.003000000000e+01,1.000000000000e+00
96,1.200000000000e+00,3.997000000000e+01,1.000000000000e+00
97,-6.000000000000e-01,4.997454415588e+01,0.000000000000e+00
98,0.000000000000e+00,4.996400000000e+01,0.000000000000e+00
99,6.000000000000e-01,4.997454415588e+01,0.000000000000e+00
100,-6.000000000000e-01,5.002545584412e+01,2.000000000000e+00
101,0.000000000000e+00,5.003600000000e+01,2.000000000000e+00
102,6.000000000000e-01,5.002545584412e+01,2.000000000000e+00
103,-1.200000000000e+00,5.002121320344e+01,5.000000000000e-01
104,-1.200000000000e+00,5.003000000000e+01,1.000000000000e+00
105,-1.200000000000e+00,5.002121320344e+01,1.500000000000e+00
106,1.200000000000e+00,4.997878679656e+01,5.000000000000e-01
107,1.200000000000e+00,4.997000000000e+01,1.000000000000e+00
108,1.200000000000e+00,4.997878679656e+01,1.500000000000e+00
109,-1.200000000000e+00,1.261480502971e+00,1.925974851452e-01
110,-1.200000000000e+00,2.521213203436e+00,3.939339828220e-01
111,-1.200000000000e+00,3.777716385975e+00,6.114180701233e-01
112,-1.200000000000e+00,5.030000000000e+00,8.500000000000e-01
113,-1.200000000000e+00,6.277716385975e+00,1.111418070123e+00
114,-1.200000000000e+00,7.521213203436e+00,1.393933982822e+00
115,-1.200000000000e+00,8.761480502971e+00,1.692597485145e+00
116,-1.200000000000e+00,1.261480502971e+00,1.807402514855e+00
117,-1.200000000000e+00,2.521213203436e+00,1.606066017178e+00
118,-1.200000000000e+00,3.777716385975e+00,1.388581929877e+00
119,-1.200000000000e+00,5.030000000000e+00,1.150000000000e+00
120,-1.200000000000e+00,6.277716385975e+00,8.885819298767e-01
121,-1.200000000000e+00,7.521213203436e+00,6.060660171780e-01
122,-1.200000000000e+00,8.761480502971e+00,3.074025148548e-01
123,1.200000000000e+00,1.261480502971e+00,1.925974851452e-01
124,1.200000000000e+00,2.521213203436e+00,3.939339828220e-01
125,1.200000000000e+00,3.777716385975e+00,6.114180701233e-01
126,1.200000000000e+00,5.030000000000e+00,8.500000000000e-01
127,1.200000000000e+00,6.277716385975e+00,1.111418070123e+00
128,1.200000000000e+00,7.521213203436e+00,1.393933982822e+00
129,1.200000000000e+00,8.761480502971e+00,1.692597485145e+00
130,1.200000000000e+00,1.261480502971e+00,1.807402514855e+00
131,1.200000000000e+00,2.521213203436e+00,1.606066017178e+00
132,1.200000000000e+00,3.777716385975e+00,1.388581929877e+00
133,1.200000000000e+00,5.030000000000e+00,1.150000000000e+00
134,1.200000000000e+00,6.277716385975e+00,8.885819298767e-01
135,1.200000000000e+00,7.521213203436e+00,6.060660171780e-01
136,1.200000000000e+00,8.761480502971e+00,3.074025148548e-01
137,-8.425974851452e-01,1.236223396435e+00,0.000000000000e+00
138,-4.939339828220e-01,2.474544155877e+00,0.000000000000e+00
139,-1.614180701233e-01,3.716740336830e+00,0.000000000000e+00
140,1.500000000000e-01,4.964000000000e+00,0.000000000000e+00
141,4.385819298767e-01,6.216740336830e+00,0.000000000000e+00
142,7.060660171780e-01,7.474544155877e+00,0.000000000000e+00
143,9.574025148548e-01,8.736223396435e+00,0.000000000000e+00
144,8.425974851452e-01,1.236223396435e+00,0.000000000000e+00
145,4.939339828220e-01,2.474544155877e+00,0.000000000000e+00
146,1.614180701233e-01,3.716740336830e+00,0.000000000000e+00
147,-1.500000000000e-01,4.964000000000e+00,0.000000000000e+00
148,-4.385819298767e-01,6.216740336830e+00,0.000000000000e+00
149,-7.060660171780e-01,7.474544155877e+00,0.000000000000e+00
150,-9.574025148548e-01,8.736223396435e+00,0.000000000000e+00
151,-8.425974851452e-01,1.236223396435e+00,2.000000000000e+00
152,-4.939339828220e-01,2.474544155877e+00,2.000000000000e+00
153,-1.614180701233e-01,3.716740336830e+00,2.000000000000e+00
154,1.500000000000e-01,4.964000000000e+00,2.000000000000e+00
155,4.385819298767e-01,6.216740336830e+00,2.000000000000e+00
156,7.060660171780e-01,7.474544155877e+00,2.000000000000e+00
157,9.574025148548e-01,8.736223396435e+00,2.000000000000e+00
158,8.425974851452e-01,1.236223396435e+00,2.000000000000e+00
159,4.939339828220e-01,2.474544155877e+00,2.000000000000e+00
160,1.614180701233e-01,3.716740336830e+00,2.000000000000e+00
161,-1.500000000000e-01,4.964000000000e+00,2.000000000000e+00
162,-4.385819298767e-01,6.216740336830e+00,2.000000000000e+00
163,-7.060660171780e-01,7.474544155877e+00,2.000000000000e+00
164,-9.574025148548e-01,8.736223396435e+00,2.000000000000e+00
165,-1.200000000000e+00,1.503000000000e+01,8.500000000000e-01
166,-1.200000000000e+00,1.503000000000e+01,1.150000000000e+00
167,1.200000000000e+00,1.503000000000e+01,8.500000000000e-01
168,1.200000000000e+00,1.503000000000e+01,1.150000000000e+00
169,1.500000000000e-01,1.496400000000e+01,0.000000000000e+00
170,-1.500000000000e-01,1.496400000000e+01,0.000000000000e+00
171,1.500000000000e-01,1.496400000000e+01,2.000000000000e+00
172,-1.500000000000e-01,1.496400000000e+01,2.000000000000e+00
173,-1.200000000000e+00,2.503000000000e+01,8.500000000000e-01
174,-1.200000000000e+00,2.503000000000e+01,1.150000000000e+00
175,1.200000000000e+00,2.503000000000e+01,8.500000000000e-01
176,1.200000000000e+00,2.503000000000e+01,1.150000000000e+00
177,1.500000000000e-01,2.496400000000e+01,0.000000000000e+00
178,-1.500000000000e-01,2.496400000000e+01,0.000000000000e+00
179,1.500000000000e-01,2.496400000000e+01,2.000000000000e+00
180,-1.500000000000e-01,2.496400000000e+01,2.000000000000e+00
181,-1.200000000000e+00,3.252121320344e+01,3.939339828220e-01
182,-1.200000000000e+00,3.503000000000e+01,8.500000000000e-01
183,-1.200000000000e+00,3.752121320344e+01,1.393933982822e+00
184,-1.200000000000e+00,3.252121320344e+01,1.606066017178e+00
185,-1.200000000000e+00,3.503000000000e+01,1.150000000000e+00
186,-1.200000000000e+00,3.752121320344e+01,6.060660171780e-01
187,1.200000000000e+00,3.252121320344e+01,3.939339828220e-01
188,1.200000000000e+00,3.503000000000e+01,8.500000000000e-01
189,1.200000000000e+00,3.752121320344e+01,1.393933982822e+00
190,1.200000000000e+00,3.252121320344e+01,1.606066017178e+00
191,1.200000000000e+00,3.503000000000e+01,1.150000000000e+00
192,1.200000000000e+00,3.752121320344e+01,6.060660171780e-01
193,-4.939339828220e-01,3.247454415588e+01,0.000000000000e+00
194,1.500000000000e-01,3.496400000000e+01,0.000000000000e+00
195,7.060660171780e-01,3.747454415588e+01,0.000000000000e+00
196,4.939339828220e-01,3.247454415588e+01,0.000000000000e+00
197,-1.500000000000e-01,3.496400000000e+01,0.000000000000e+00
198,-7.060660171780e-01,3.747454415588e+01,0.000000000000e+00
199,-4.939339828220e-01,3.247454415588e+01,2.000000000000e+00
200,1.500000000000e-01,3.496400000000e+01,2.000000000000e+00
201,7.060660171780e-01,3.747454415588e+01,2.000000000000e+00
202,4.939339828220e-01,3.247454415588e+01,2.000000000000e+00
203,-1.500000000000e-01,3.496400000000e+01,2.000000000000e+00
204,-7.060660171780e-01,3.747454415588e+01,2.000000000000e+00
*ELEMENT,TYPE=B31,ELSET=ALL
1,1,25
2,25,26
3,26,27
4,27,5
5,2,28
6,28,29
7,29,30
8,30,6
9,3,31
10,31,32
11,32,33
12,33,7
13,4,34
14,34,35
15,35,36
16,36,8
17,5,37
18,37,9
19,6,38
20,38,10
21,7,39
22,39,11
23,8,40
24,40,12
25,9,13
26,10,14
27,11,15
28,12,16
29,13,17
30,14,18
31,15,19
32,16,20
33,17,41
34,41,42
35,42,43
36,43,21
37,18,44
38,44,45
39,45,46
40,46,22
41,19,47
42,47,48
43,48,49
44,49,23
45,20,50
46,50,51
47,51,52
48,52,24
49,1,53
50,53,54
51,54,55
52,55,2
53,3,56
54,56,57
55,57,58
56,58,4
57,1,59
58,59,60
59,60,61
60,61,3
61,2,62
62,62,63
63,63,64
64,64,4
65,5,65
66,65,66
67,66,67
68,67,6
69,7,68
70,68,69
71,69,70
72,70,8
73,5,71
74,71,72
75,72,73
76,73,7
77,6,74
78,74,75
79,75,76
80,76,8
81,9,77
82,77,10
83,11,78
84,78,12
85,9,79
86,79,11
87,10,80
88,80,12
89,13,81
90,81,82
91,82,83
92,83,14
93,15,84
94,84,85
95,85,86
96,86,16
97,13,87
98,87,88
99,88,89
100,89,15
101,14,90
102,90,91
103,91,92
104,92,16
105,17,93
106,93,18
107,19,94
108,94,20
109,17,95
110,95,19
111,18,96
112,96,20
113,21,97
114,97,98
115,98,99
116,99,22
117,23,100
118,100,101
119,101,102
120,102,24
121,21,103
122,103,104
123,104,105
124,105,23
125,22,106
126,106,107
127,107,108
128,108,24
129,1,109
130,109,110
131,110,111
132,111,112
133,112,113
134,113,114
135,114,115
136,115,7
137,3,116
138,116,117
139,117,118
140,118,119
141,119,120
142,120,121
143,121,122
144,122,5
145,2,123
146,123,124
147,124,125
148,125,126
149,126,127
150,127,128
151,128,129
152,129,8
153,4,130
154,130,131
155,131,132
156,132,133
157,133,134
158,134,135
159,135,136
160,136,6
161,1,137
162,137,138
163,138,139
164,139,140
165,140,141
166,141,142
167,142,143
168,143,6
169,2,144
170,144,145
171,145,146
172,146,147
173,147,148
174,148,149
175,149,150
176,150,5
177,3,151
178,151,152
179,152,153
180,153,154
181,154,155
182,155,156
183,156,157
184,157,8
185,4,158
186,158,159
187,159,160
188,160,161
189,161,162
190,162,163
191,163,164
192,164,7
193,5,165
194,165,11
195,7,166
196,166,9
197,6,167
198,167,12
199,8,168
200,168,10
201,5,169
202,169,10
203,6,170
204,170,9
205,7,171
206,171,12
207,8,172
208,172,11
209,9,173
210,173,15
211,11,174
212,174,13
213,10,175
214,175,16
215,12,176
216,176,14
217,9,177
218,177,14
219,10,178
220,178,13
221,11,179
222,179,16
223,12,180
224,180,15
225,13,181
226,181,182
227,182,183
228,183,19
229,15,184
230,184,185
231,185,186
232,186,17
233,14,187
234,187,188
235,188,189
236,189,20
237,16,190
238,190,191
239,191,192
240,192,18
241,13,193
242,193,194
243,194,195
244,195,18
245,14,196
246,196,197
247,197,198
248,198,17
249,15,199
250,199,200
251,200,201
252,201,20
253,16,202
254,202,203
255,203,204
256,204,19
257,17,23
258,19,21
259,18,24
260,20,22
261,17,22
262,18,21
263,19,24
264,20,23
*NSET,NSET=NALL,GENERATE
1,204,1
*NSET,NSET=LEFT
1,2,3,4
*NSET,NSET=RIGHT
21,22,23,24
*MATERIAL,NAME=STEEL
*ELASTIC
2.100000000000e+11,0.300000000000
*BEAM SECTION,ELSET=ALL,MATERIAL=STEEL,SECTION=RECT
6.000000000000e-02,4.000000000000e-02
0.371390676354,0.557086014531,0.742781352708
*BOUNDARY
LEFT,1,6,0.0
*STEP
*STATIC
*BOUNDARY
21,1,1,5.000000000000e-03
21,2,2,0.0
21,3,3,-6.000000000000e-03
*BOUNDARY
22,1,1,5.000000000000e-03
22,2,2,0.0
22,3,3,6.000000000000e-03
*BOUNDARY
23,1,1,-5.000000000000e-03
23,2,2,0.0
23,3,3,-6.000000000000e-03
*BOUNDARY
24,1,1,-5.000000000000e-03
24,2,2,0.0
24,3,3,6.000000000000e-03
*NODE FILE,NSET=NALL
U
*NODE PRINT,NSET=NALL
U
*NODE PRINT,NSET=RIGHT
RF
*EL PRINT,ELSET=ALL,TOTALS=YES
ELSE
*END STEP
