*HEADING
Normalized cross-passage space-truss torsion benchmark
*NODE
1,-1.200000000000e+00,0.000000000000e+00,0.000000000000e+00
2,1.200000000000e+00,0.000000000000e+00,0.000000000000e+00
3,-1.200000000000e+00,0.000000000000e+00,2.000000000000e+00
4,1.200000000000e+00,0.000000000000e+00,2.000000000000e+00
5,-1.200000000000e+00,1.000000000000e+01,0.000000000000e+00
6,1.200000000000e+00,1.000000000000e+01,0.000000000000e+00
7,-1.200000000000e+00,1.000000000000e+01,2.000000000000e+00
8,1.200000000000e+00,1.000000000000e+01,2.000000000000e+00
9,-1.200000000000e+00,2.000000000000e+01,0.000000000000e+00
10,1.200000000000e+00,2.000000000000e+01,0.000000000000e+00
11,-1.200000000000e+00,2.000000000000e+01,2.000000000000e+00
12,1.200000000000e+00,2.000000000000e+01,2.000000000000e+00
13,-1.200000000000e+00,3.000000000000e+01,0.000000000000e+00
14,1.200000000000e+00,3.000000000000e+01,0.000000000000e+00
15,-1.200000000000e+00,3.000000000000e+01,2.000000000000e+00
16,1.200000000000e+00,3.000000000000e+01,2.000000000000e+00
17,-1.200000000000e+00,4.000000000000e+01,0.000000000000e+00
18,1.200000000000e+00,4.000000000000e+01,0.000000000000e+00
19,-1.200000000000e+00,4.000000000000e+01,2.000000000000e+00
20,1.200000000000e+00,4.000000000000e+01,2.000000000000e+00
21,-1.200000000000e+00,5.000000000000e+01,0.000000000000e+00
22,1.200000000000e+00,5.000000000000e+01,0.000000000000e+00
23,-1.200000000000e+00,5.000000000000e+01,2.000000000000e+00
24,1.200000000000e+00,5.000000000000e+01,2.000000000000e+00
25,-1.200000000000e+00,2.500000000000e+00,-1.060660171780e-01
26,-1.200000000000e+00,5.000000000000e+00,-1.500000000000e-01
27,-1.200000000000e+00,7.500000000000e+00,-1.060660171780e-01
28,1.200000000000e+00,2.500000000000e+00,1.060660171780e-01
29,1.200000000000e+00,5.000000000000e+00,1.500000000000e-01
30,1.200000000000e+00,7.500000000000e+00,1.060660171780e-01
31,-1.200000000000e+00,2.500000000000e+00,1.893933982822e+00
32,-1.200000000000e+00,5.000000000000e+00,1.850000000000e+00
33,-1.200000000000e+00,7.500000000000e+00,1.893933982822e+00
34,1.200000000000e+00,2.500000000000e+00,2.106066017178e+00
35,1.200000000000e+00,5.000000000000e+00,2.150000000000e+00
36,1.200000000000e+00,7.500000000000e+00,2.106066017178e+00
37,-1.200000000000e+00,1.500000000000e+01,-1.500000000000e-01
38,1.200000000000e+00,1.500000000000e+01,1.500000000000e-01
39,-1.200000000000e+00,1.500000000000e+01,1.850000000000e+00
40,1.200000000000e+00,1.500000000000e+01,2.150000000000e+00
41,-1.200000000000e+00,4.250000000000e+01,-1.060660171780e-01
42,-1.200000000000e+00,4.500000000000e+01,-1.500000000000e-01
43,-1.200000000000e+00,4.750000000000e+01,-1.060660171780e-01
44,1.200000000000e+00,4.250000000000e+01,1.060660171780e-01
45,1.200000000000e+00,4.500000000000e+01,1.500000000000e-01
46,1.200000000000e+00,4.750000000000e+01,1.060660171780e-01
47,-1.200000000000e+00,4.250000000000e+01,1.893933982822e+00
48,-1.200000000000e+00,4.500000000000e+01,1.850000000000e+00
49,-1.200000000000e+00,4.750000000000e+01,1.893933982822e+00
50,1.200000000000e+00,4.250000000000e+01,2.106066017178e+00
51,1.200000000000e+00,4.500000000000e+01,2.150000000000e+00
52,1.200000000000e+00,4.750000000000e+01,2.106066017178e+00
53,-6.000000000000e-01,-2.545584412272e-02,0.000000000000e+00
54,0.000000000000e+00,-3.600000000000e-02,0.000000000000e+00
55,6.000000000000e-01,-2.545584412272e-02,0.000000000000e+00
56,-6.000000000000e-01,2.545584412272e-02,2.000000000000e+00
57,0.000000000000e+00,3.600000000000e-02,2.000000000000e+00
58,6.000000000000e-01,2.545584412272e-02,2.000000000000e+00
59,-1.200000000000e+00,2.121320343560e-02,5.000000000000e-01
60,-1.200000000000e+00,3.000000000000e-02,1.000000000000e+00
61,-1.200000000000e+00,2.121320343560e-02,1.500000000000e+00
62,1.200000000000e+00,-2.121320343560e-02,5.000000000000e-01
63,1.200000000000e+00,-3.000000000000e-02,1.000000000000e+00
64,1.200000000000e+00,-2.121320343560e-02,1.500000000000e+00
65,0.000000000000e+00,9.964000000000e+00,0.000000000000e+00
66,0.000000000000e+00,1.003600000000e+01,2.000000000000e+00
67,-1.200000000000e+00,1.003000000000e+01,1.000000000000e+00
68,1.200000000000e+00,9.970000000000e+00,1.000000000000e+00
69,0.000000000000e+00,1.996400000000e+01,0.000000000000e+00
70,0.000000000000e+00,2.003600000000e+01,2.000000000000e+00
71,-1.200000000000e+00,2.003000000000e+01,1.000000000000e+00
72,1.200000000000e+00,1.997000000000e+01,1.000000000000e+00
73,-6.000000000000e-01,2.997454415588e+01,0.000000000000e+00
74,0.000000000000e+00,2.996400000000e+01,0.000000000000e+00
75,6.000000000000e-01,2.997454415588e+01,0.000000000000e+00
76,-6.000000000000e-01,3.002545584412e+01,2.000000000000e+00
77,0.000000000000e+00,3.003600000000e+01,2.000000000000e+00
78,6.000000000000e-01,3.002545584412e+01,2.000000000000e+00
79,-1.200000000000e+00,3.002121320344e+01,5.000000000000e-01
80,-1.200000000000e+00,3.003000000000e+01,1.000000000000e+00
81,-1.200000000000e+00,3.002121320344e+01,1.500000000000e+00
82,1.200000000000e+00,2.997878679656e+01,5.000000000000e-01
83,1.200000000000e+00,2.997000000000e+01,1.000000000000e+00
84,1.200000000000e+00,2.997878679656e+01,1.500000000000e+00
85,0.000000000000e+00,3.996400000000e+01,0.000000000000e+00
86,0.000000000000e+00,4.003600000000e+01,2.000000000000e+00
87,-1.200000000000e+00,4.003000000000e+01,1.000000000000e+00
88,1.200000000000e+00,3.997000000000e+01,1.000000000000e+00
89,-6.000000000000e-01,4.997454415588e+01,0.000000000000e+00
90,0.000000000000e+00,4.996400000000e+01,0.000000000000e+00
91,6.000000000000e-01,4.997454415588e+01,0.000000000000e+00
92,-6.000000000000e-01,5.002545584412e+01,2.000000000000e+00
93,0.000000000000e+00,5.003600000000e+01,2.000000000000e+00
94,6.000000000000e-01,5.002545584412e+01,2.000000000000e+00
95,-1.200000000000e+00,5.002121320344e+01,5.000000000000e-01
96,-1.200000000000e+00,5.003000000000e+01,1.000000000000e+00
97,-1.200000000000e+00,5.002121320344e+01,1.500000000000e+00
98,1.200000000000e+00,4.997878679656e+01,5.000000000000e-01
99,1.200000000000e+00,4.997000000000e+01,1.000000000000e+00
100,1.200000000000e+00,4.997878679656e+01,1.500000000000e+00
101,-1.200000000000e+00,2.521213203436e+00,3.939339828220e-01
102,-1.200000000000e+00,5.030000000000e+00,8.500000000000e-01
103,-1.200000000000e+00,7.521213203436e+00,1.393933982822e+00
104,-1.200000000000e+00,2.521213203436e+00,1.606066017178e+00
105,-1.200000000000e+00,5.030000000000e+00,1.150000000000e+00
106,-1.200000000000e+00,7.521213203436e+00,6.060660171780e-01
107,1.200000000000e+00,2.521213203436e+00,3.939339828220e-01
108,1.200000000000e+00,5.030000000000e+00,8.500000000000e-01
109,1.200000000000e+00,7.521213203436e+00,1.393933982822e+00
110,1.200000000000e+00,2.521213203436e+00,1.606066017178e+00
111,1.200000000000e+00,5.030000000000e+00,1.150000000000e+00
112,1.200000000000e+00,7.521213203436e+00,6.060660171780e-01
113,-4.939339828220e-01,2.474544155877e+00,0.000000000000e+00
114,1.500000000000e-01,4.964000000000e+00,0.000000000000e+00
115,7.060660171780e-01,7.474544155877e+00,0.000000000000e+00
116,4.939339828220e-01,2.474544155877e+00,0.000000000000e+00
117,-1.500000000000e-01,4.964000000000e+00,0.000000000000e+00
118,-7.060660171780e-01,7.474544155877e+00,0.000000000000e+00
119,-4.939339828220e-01,2.474544155877e+00,2.000000000000e+00
120,1.500000000000e-01,4.964000000000e+00,2.000000000000e+00
121,7.060660171780e-01,7.474544155877e+00,2.000000000000e+00
122,4.939339828220e-01,2.474544155877e+00,2.000000000000e+00
123,-1.500000000000e-01,4.964000000000e+00,2.000000000000e+00
124,-7.060660171780e-01,7.474544155877e+00,2.000000000000e+00
125,-1.200000000000e+00,1.503000000000e+01,8.500000000000e-01
126,-1.200000000000e+00,1.503000000000e+01,1.150000000000e+00
127,1.200000000000e+00,1.503000000000e+01,8.500000000000e-01
128,1.200000000000e+00,1.503000000000e+01,1.150000000000e+00
129,1.500000000000e-01,1.496400000000e+01,0.000000000000e+00
130,-1.500000000000e-01,1.496400000000e+01,0.000000000000e+00
131,1.500000000000e-01,1.496400000000e+01,2.000000000000e+00
132,-1.500000000000e-01,1.496400000000e+01,2.000000000000e+00
133,-1.200000000000e+00,2.503000000000e+01,8.500000000000e-01
134,-1.200000000000e+00,2.503000000000e+01,1.150000000000e+00
135,1.200000000000e+00,2.503000000000e+01,8.500000000000e-01
136,1.200000000000e+00,2.503000000000e+01,1.150000000000e+00
137,1.500000000000e-01,2.496400000000e+01,0.000000000000e+00
138,-1.500000000000e-01,2.496400000000e+01,0.000000000000e+00
139,1.500000000000e-01,2.496400000000e+01,2.000000000000e+00
140,-1.500000000000e-01,2.496400000000e+01,2.000000000000e+00
141,-1.200000000000e+00,3.252121320344e+01,3.939339828220e-01
142,-1.200000000000e+00,3.503000000000e+01,8.500000000000e-01
143,-1.200000000000e+00,3.752121320344e+01,1.393933982822e+00
144,-1.200000000000e+00,3.252121320344e+01,1.606066017178e+00
145,-1.200000000000e+00,3.503000000000e+01,1.150000000000e+00
146,-1.200000000000e+00,3.752121320344e+01,6.060660171780e-01
147,1.200000000000e+00,3.252121320344e+01,3.939339828220e-01
148,1.200000000000e+00,3.503000000000e+01,8.500000000000e-01
149,1.200000000000e+00,3.752121320344e+01,1.393933982822e+00
150,1.200000000000e+00,3.252121320344e+01,1.606066017178e+00
151,1.200000000000e+00,3.503000000000e+01,1.150000000000e+00
152,1.200000000000e+00,3.752121320344e+01,6.060660171780e-01
153,-4.939339828220e-01,3.247454415588e+01,0.000000000000e+00
154,1.500000000000e-01,3.496400000000e+01,0.000000000000e+00
155,7.060660171780e-01,3.747454415588e+01,0.000000000000e+00
156,4.939339828220e-01,3.247454415588e+01,0.000000000000e+00
157,-1.500000000000e-01,3.496400000000e+01,0.000000000000e+00
158,-7.060660171780e-01,3.747454415588e+01,0.000000000000e+00
159,-4.939339828220e-01,3.247454415588e+01,2.000000000000e+00
160,1.500000000000e-01,3.496400000000e+01,2.000000000000e+00
161,7.060660171780e-01,3.747454415588e+01,2.000000000000e+00
162,4.939339828220e-01,3.247454415588e+01,2.000000000000e+00
163,-1.500000000000e-01,3.496400000000e+01,2.000000000000e+00
164,-7.060660171780e-01,3.747454415588e+01,2.000000000000e+00
*ELEMENT,TYPE=B31,ELSET=ALL
1,1,25
2,25,26
3,26,27
4,27,5
5,2,28
6,28,29
7,29,30
8,30,6
9,3,31
10,31,32
11,32,33
12,33,7
13,4,34
14,34,35
15,35,36
16,36,8
17,5,37
18,37,9
19,6,38
20,38,10
21,7,39
22,39,11
23,8,40
24,40,12
25,9,13
26,10,14
27,11,15
28,12,16
29,13,17
30,14,18
31,15,19
32,16,20
33,17,41
34,41,42
35,42,43
36,43,21
37,18,44
38,44,45
39,45,46
40,46,22
41,19,47
42,47,48
43,48,49
44,49,23
45,20,50
46,50,51
47,51,52
48,52,24
49,1,53
50,53,54
51,54,55
52,55,2
53,3,56
54,56,57
55,57,58
56,58,4
57,1,59
58,59,60
59,60,61
60,61,3
61,2,62
62,62,63
63,63,64
64,64,4
65,5,65
66,65,6
67,7,66
68,66,8
69,5,67
70,67,7
71,6,68
72,68,8
73,9,69
74,69,10
75,11,70
76,70,12
77,9,71
78,71,11
79,10,72
80,72,12
81,13,73
82,73,74
83,74,75
84,75,14
85,15,76
86,76,77
87,77,78
88,78,16
89,13,79
90,79,80
91,80,81
92,81,15
93,14,82
94,82,83
95,83,84
96,84,16
97,17,85
98,85,18
99,19,86
100,86,20
101,17,87
102,87,19
103,18,88
104,88,20
105,21,89
106,89,90
107,90,91
108,91,22
109,23,92
110,92,93
111,93,94
112,94,24
113,21,95
114,95,96
115,96,97
116,97,23
117,22,98
118,98,99
119,99,100
120,100,24
121,1,101
122,101,102
123,102,103
124,103,7
125,3,104
126,104,105
127,105,106
128,106,5
129,2,107
130,107,108
131,108,109
132,109,8
133,4,110
134,110,111
135,111,112
136,112,6
137,1,113
138,113,114
139,114,115
140,115,6
141,2,116
142,116,117
143,117,118
144,118,5
145,3,119
146,119,120
147,120,121
148,121,8
149,4,122
150,122,123
151,123,124
152,124,7
153,5,125
154,125,11
155,7,126
156,126,9
157,6,127
158,127,12
159,8,128
160,128,10
161,5,129
162,129,10
163,6,130
164,130,9
165,7,131
166,131,12
167,8,132
168,132,11
169,9,133
170,133,15
171,11,134
172,134,13
173,10,135
174,135,16
175,12,136
176,136,14
177,9,137
178,137,14
179,10,138
180,138,13
181,11,139
182,139,16
183,12,140
184,140,15
185,13,141
186,141,142
187,142,143
188,143,19
189,15,144
190,144,145
191,145,146
192,146,17
193,14,147
194,147,148
195,148,149
196,149,20
197,16,150
198,150,151
199,151,152
200,152,18
201,13,153
202,153,154
203,154,155
204,155,18
205,14,156
206,156,157
207,157,158
208,158,17
209,15,159
210,159,160
211,160,161
212,161,20
213,16,162
214,162,163
215,163,164
216,164,19
217,17,23
218,19,21
219,18,24
220,20,22
221,17,22
222,18,21
223,19,24
224,20,23
*NSET,NSET=NALL,GENERATE
1,164,1
*NSET,NSET=LEFT
1,2,3,4
*NSET,NSET=RIGHT
21,22,23,24
*MATERIAL,NAME=STEEL
*ELASTIC
2.100000000000e+11,0.300000000000
*BEAM SECTION,ELSET=ALL,MATERIAL=STEEL,SECTION=RECT
6.000000000000e-02,4.000000000000e-02
0.371390676354,0.557086014531,0.742781352708
*BOUNDARY
LEFT,1,6,0.0
*STEP
*STATIC
*BOUNDARY
21,1,1,5.000000000000e-03
21,2,2,0.0
21,3,3,-6.000000000000e-03
*BOUNDARY
22,1,1,5.000000000000e-03
22,2,2,0.0
22,3,3,6.000000000000e-03
*BOUNDARY
23,1,1,-5.000000000000e-03
23,2,2,0.0
23,3,3,-6.000000000000e-03
*BOUNDARY
24,1,1,-5.000000000000e-03
24,2,2,0.0
24,3,3,6.000000000000e-03
*NODE FILE,NSET=NALL
U
*NODE PRINT,NSET=NALL
U
*NODE PRINT,NSET=RIGHT
RF
*EL PRINT,ELSET=ALL,TOTALS=YES
ELSE
*END STEP
