*HEADING
Normalized cross-passage space-truss torsion benchmark
*NODE
1,-1.200000000000e+00,0.000000000000e+00,0.000000000000e+00
2,1.200000000000e+00,0.000000000000e+00,0.000000000000e+00
3,-1.200000000000e+00,0.000000000000e+00,2.000000000000e+00
4,1.200000000000e+00,0.000000000000e+00,2.000000000000e+00
5,-1.200000000000e+00,1.000000000000e+01,0.000000000000e+00
6,1.200000000000e+00,1.000000000000e+01,0.000000000000e+00
7,-1.200000000000e+00,1.000000000000e+01,2.000000000000e+00
8,1.200000000000e+00,1.000000000000e+01,2.000000000000e+00
9,-1.200000000000e+00,2.000000000000e+01,0.000000000000e+00
10,1.200000000000e+00,2.000000000000e+01,0.000000000000e+00
11,-1.200000000000e+00,2.000000000000e+01,2.000000000000e+00
12,1.200000000000e+00,2.000000000000e+01,2.000000000000e+00
13,-1.200000000000e+00,3.000000000000e+01,0.000000000000e+00
14,1.200000000000e+00,3.000000000000e+01,0.000000000000e+00
15,-1.200000000000e+00,3.000000000000e+01,2.000000000000e+00
16,1.200000000000e+00,3.000000000000e+01,2.000000000000e+00
17,-1.200000000000e+00,4.000000000000e+01,0.000000000000e+00
18,1.200000000000e+00,4.000000000000e+01,0.000000000000e+00
19,-1.200000000000e+00,4.000000000000e+01,2.000000000000e+00
20,1.200000000000e+00,4.000000000000e+01,2.000000000000e+00
21,-1.200000000000e+00,5.000000000000e+01,0.000000000000e+00
22,1.200000000000e+00,5.000000000000e+01,0.000000000000e+00
23,-1.200000000000e+00,5.000000000000e+01,2.000000000000e+00
24,1.200000000000e+00,5.000000000000e+01,2.000000000000e+00
25,-1.200000000000e+00,5.000000000000e+00,-1.500000000000e-01
26,1.200000000000e+00,5.000000000000e+00,1.500000000000e-01
27,-1.200000000000e+00,5.000000000000e+00,1.850000000000e+00
28,1.200000000000e+00,5.000000000000e+00,2.150000000000e+00
29,-1.200000000000e+00,1.500000000000e+01,-1.500000000000e-01
30,1.200000000000e+00,1.500000000000e+01,1.500000000000e-01
31,-1.200000000000e+00,1.500000000000e+01,1.850000000000e+00
32,1.200000000000e+00,1.500000000000e+01,2.150000000000e+00
33,-1.200000000000e+00,2.500000000000e+01,-1.500000000000e-01
34,1.200000000000e+00,2.500000000000e+01,1.500000000000e-01
35,-1.200000000000e+00,2.500000000000e+01,1.850000000000e+00
36,1.200000000000e+00,2.500000000000e+01,2.150000000000e+00
37,-1.200000000000e+00,3.500000000000e+01,-1.500000000000e-01
38,1.200000000000e+00,3.500000000000e+01,1.500000000000e-01
39,-1.200000000000e+00,3.500000000000e+01,1.850000000000e+00
40,1.200000000000e+00,3.500000000000e+01,2.150000000000e+00
41,-1.200000000000e+00,4.500000000000e+01,-1.500000000000e-01
42,1.200000000000e+00,4.500000000000e+01,1.500000000000e-01
43,-1.200000000000e+00,4.500000000000e+01,1.850000000000e+00
44,1.200000000000e+00,4.500000000000e+01,2.150000000000e+00
45,0.000000000000e+00,-3.600000000000e-02,0.000000000000e+00
46,0.000000000000e+00,3.600000000000e-02,2.000000000000e+00
47,-1.200000000000e+00,3.000000000000e-02,1.000000000000e+00
48,1.200000000000e+00,-3.000000000000e-02,1.000000000000e+00
49,0.000000000000e+00,9.964000000000e+00,0.000000000000e+00
50,0.000000000000e+00,1.003600000000e+01,2.000000000000e+00
51,-1.200000000000e+00,1.003000000000e+01,1.000000000000e+00
52,1.200000000000e+00,9.970000000000e+00,1.000000000000e+00
53,-6.000000000000e-01,1.997454415588e+01,0.000000000000e+00
54,0.000000000000e+00,1.996400000000e+01,0.000000000000e+00
55,6.000000000000e-01,1.997454415588e+01,0.000000000000e+00
56,-6.000000000000e-01,2.002545584412e+01,2.000000000000e+00
57,0.000000000000e+00,2.003600000000e+01,2.000000000000e+00
58,6.000000000000e-01,2.002545584412e+01,2.000000000000e+00
59,-1.200000000000e+00,2.002121320344e+01,5.000000000000e-01
60,-1.200000000000e+00,2.003000000000e+01,1.000000000000e+00
61,-1.200000000000e+00,2.002121320344e+01,1.500000000000e+00
62,1.200000000000e+00,1.997878679656e+01,5.000000000000e-01
63,1.200000000000e+00,1.997000000000e+01,1.000000000000e+00
64,1.200000000000e+00,1.997878679656e+01,1.500000000000e+00
65,-6.000000000000e-01,2.997454415588e+01,0.000000000000e+00
66,0.000000000000e+00,2.996400000000e+01,0.000000000000e+00
67,6.000000000000e-01,2.997454415588e+01,0.000000000000e+00
68,-6.000000000000e-01,3.002545584412e+01,2.000000000000e+00
69,0.000000000000e+00,3.003600000000e+01,2.000000000000e+00
70,6.000000000000e-01,3.002545584412e+01,2.000000000000e+00
71,-1.200000000000e+00,3.002121320344e+01,5.000000000000e-01
72,-1.200000000000e+00,3.003000000000e+01,1.000000000000e+00
73,-1.200000000000e+00,3.002121320344e+01,1.500000000000e+00
74,1.200000000000e+00,2.997878679656e+01,5.000000000000e-01
75,1.200000000000e+00,2.997000000000e+01,1.000000000000e+00
76,1.200000000000e+00,2.997878679656e+01,1.500000000000e+00
77,-6.000000000000e-01,3.997454415588e+01,0.000000000000e+00
78,0.000000000000e+00,3.996400000000e+01,0.000000000000e+00
79,6.000000000000e-01,3.997454415588e+01,0.000000000000e+00
80,-6.000000000000e-01,4.002545584412e+01,2.000000000000e+00
81,0.000000000000e+00,4.003600000000e+01,2.000000000000e+00
82,6.000000000000e-01,4.002545584412e+01,2.000000000000e+00
83,-1.200000000000e+00,4.002121320344e+01,5.000000000000e-01
84,-1.200000000000e+00,4.003000000000e+01,1.000000000000e+00
85,-1.200000000000e+00,4.002121320344e+01,1.500000000000e+00
86,1.200000000000e+00,3.997878679656e+01,5.000000000000e-01
87,1.200000000000e+00,3.997000000000e+01,1.000000000000e+00
88,1.200000000000e+00,3.997878679656e+01,1.500000000000e+00
89,0.000000000000e+00,4.996400000000e+01,0.000000000000e+00
90,0.000000000000e+00,5.003600000000e+01,2.000000000000e+00
91,-1.200000000000e+00,5.003000000000e+01,1.000000000000e+00
92,1.200000000000e+00,4.997000000000e+01,1.000000000000e+00
93,-1.200000000000e+00,5.030000000000e+00,8.500000000000e-01
94,-1.200000000000e+00,5.030000000000e+00,1.150000000000e+00
95,1.200000000000e+00,5.030000000000e+00,8.500000000000e-01
96,1.200000000000e+00,5.030000000000e+00,1.150000000000e+00
97,1.500000000000e-01,4.964000000000e+00,0.000000000000e+00
98,-1.500000000000e-01,4.964000000000e+00,0.000000000000e+00
99,1.500000000000e-01,4.964000000000e+00,2.000000000000e+00
100,-1.500000000000e-01,4.964000000000e+00,2.000000000000e+00
101,-1.200000000000e+00,1.503000000000e+01,8.500000000000e-01
102,-1.200000000000e+00,1.503000000000e+01,1.150000000000e+00
103,1.200000000000e+00,1.503000000000e+01,8.500000000000e-01
104,1.200000000000e+00,1.503000000000e+01,1.150000000000e+00
105,1.500000000000e-01,1.496400000000e+01,0.000000000000e+00
106,-1.500000000000e-01,1.496400000000e+01,0.000000000000e+00
107,1.500000000000e-01,1.496400000000e+01,2.000000000000e+00
108,-1.500000000000e-01,1.496400000000e+01,2.000000000000e+00
109,-1.200000000000e+00,2.252121320344e+01,3.939339828220e-01
110,-1.200000000000e+00,2.503000000000e+01,8.500000000000e-01
111,-1.200000000000e+00,2.752121320344e+01,1.393933982822e+00
112,-1.200000000000e+00,2.252121320344e+01,1.606066017178e+00
113,-1.200000000000e+00,2.503000000000e+01,1.150000000000e+00
114,-1.200000000000e+00,2.752121320344e+01,6.060660171780e-01
115,1.200000000000e+00,2.252121320344e+01,3.939339828220e-01
116,1.200000000000e+00,2.503000000000e+01,8.500000000000e-01
117,1.200000000000e+00,2.752121320344e+01,1.393933982822e+00
118,1.200000000000e+00,2.252121320344e+01,1.606066017178e+00
119,1.200000000000e+00,2.503000000000e+01,1.150000000000e+00
120,1.200000000000e+00,2.752121320344e+01,6.060660171780e-01
121,-4.939339828220e-01,2.247454415588e+01,0.000000000000e+00
122,1.500000000000e-01,2.496400000000e+01,0.000000000000e+00
123,7.060660171780e-01,2.747454415588e+01,0.000000000000e+00
124,4.939339828220e-01,2.247454415588e+01,0.000000000000e+00
125,-1.500000000000e-01,2.496400000000e+01,0.000000000000e+00
126,-7.060660171780e-01,2.747454415588e+01,0.000000000000e+00
127,-4.939339828220e-01,2.247454415588e+01,2.000000000000e+00
128,1.500000000000e-01,2.496400000000e+01,2.000000000000e+00
129,7.060660171780e-01,2.747454415588e+01,2.000000000000e+00
130,4.939339828220e-01,2.247454415588e+01,2.000000000000e+00
131,-1.500000000000e-01,2.496400000000e+01,2.000000000000e+00
132,-7.060660171780e-01,2.747454415588e+01,2.000000000000e+00
133,-1.200000000000e+00,3.126148050297e+01,1.925974851452e-01
134,-1.200000000000e+00,3.252121320344e+01,3.939339828220e-01
135,-1.200000000000e+00,3.377771638598e+01,6.114180701233e-01
136,-1.200000000000e+00,3.503000000000e+01,8.500000000000e-01
137,-1.200000000000e+00,3.627771638598e+01,1.111418070123e+00
138,-1.200000000000e+00,3.752121320344e+01,1.393933982822e+00
139,-1.200000000000e+00,3.876148050297e+01,1.692597485145e+00
140,-1.200000000000e+00,3.126148050297e+01,1.807402514855e+00
141,-1.200000000000e+00,3.252121320344e+01,1.606066017178e+00
142,-1.200000000000e+00,3.377771638598e+01,1.388581929877e+00
143,-1.200000000000e+00,3.503000000000e+01,1.150000000000e+00
144,-1.200000000000e+00,3.627771638598e+01,8.885819298767e-01
145,-1.200000000000e+00,3.752121320344e+01,6.060660171780e-01
146,-1.200000000000e+00,3.876148050297e+01,3.074025148548e-01
147,1.200000000000e+00,3.126148050297e+01,1.925974851452e-01
148,1.200000000000e+00,3.252121320344e+01,3.939339828220e-01
149,1.200000000000e+00,3.377771638598e+01,6.114180701233e-01
150,1.200000000000e+00,3.503000000000e+01,8.500000000000e-01
151,1.200000000000e+00,3.627771638598e+01,1.111418070123e+00
152,1.200000000000e+00,3.752121320344e+01,1.393933982822e+00
153,1.200000000000e+00,3.876148050297e+01,1.692597485145e+00
154,1.200000000000e+00,3.126148050297e+01,1.807402514855e+00
155,1.200000000000e+00,3.252121320344e+01,1.606066017178e+00
156,1.200000000000e+00,3.377771638598e+01,1.388581929877e+00
157,1.200000000000e+00,3.503000000000e+01,1.150000000000e+00
158,1.200000000000e+00,3.627771638598e+01,8.885819298767e-01
159,1.200000000000e+00,3.752121320344e+01,6.060660171780e-01
160,1.200000000000e+00,3.876148050297e+01,3.074025148548e-01
161,-8.425974851452e-01,3.123622339643e+01,0.000000000000e+00
162,-4.939339828220e-01,3.247454415588e+01,0.000000000000e+00
163,-1.614180701233e-01,3.371674033683e+01,0.000000000000e+00
164,1.500000000000e-01,3.496400000000e+01,0.000000000000e+00
165,4.385819298767e-01,3.621674033683e+01,0.000000000000e+00
166,7.060660171780e-01,3.747454415588e+01,0.000000000000e+00
167,9.574025148548e-01,3.873622339643e+01,0.000000000000e+00
168,8.425974851452e-01,3.123622339643e+01,0.000000000000e+00
169,4.939339828220e-01,3.247454415588e+01,0.000000000000e+00
170,1.614180701233e-01,3.371674033683e+01,0.000000000000e+00
171,-1.500000000000e-01,3.496400000000e+01,0.000000000000e+00
172,-4.385819298767e-01,3.621674033683e+01,0.000000000000e+00
173,-7.060660171780e-01,3.747454415588e+01,0.000000000000e+00
174,-9.574025148548e-01,3.873622339643e+01,0.000000000000e+00
175,-8.425974851452e-01,3.123622339643e+01,2.000000000000e+00
176,-4.939339828220e-01,3.247454415588e+01,2.000000000000e+00
177,-1.614180701233e-01,3.371674033683e+01,2.000000000000e+00
178,1.500000000000e-01,3.496400000000e+01,2.000000000000e+00
179,4.385819298767e-01,3.621674033683e+01,2.000000000000e+00
180,7.060660171780e-01,3.747454415588e+01,2.000000000000e+00
181,9.574025148548e-01,3.873622339643e+01,2.000000000000e+00
182,8.425974851452e-01,3.123622339643e+01,2.000000000000e+00
183,4.939339828220e-01,3.247454415588e+01,2.000000000000e+00
184,1.614180701233e-01,3.371674033683e+01,2.000000000000e+00
185,-1.500000000000e-01,3.496400000000e+01,2.000000000000e+00
186,-4.385819298767e-01,3.621674033683e+01,2.000000000000e+00
187,-7.060660171780e-01,3.747454415588e+01,2.000000000000e+00
188,-9.574025148548e-01,3.873622339643e+01,2.000000000000e+00
189,-1.200000000000e+00,4.126148050297e+01,1.925974851452e-01
190,-1.200000000000e+00,4.252121320344e+01,3.939339828220e-01
191,-1.200000000000e+00,4.377771638598e+01,6.114180701233e-01
192,-1.200000000000e+00,4.503000000000e+01,8.500000000000e-01
193,-1.200000000000e+00,4.627771638598e+01,1.111418070123e+00
194,-1.200000000000e+00,4.752121320344e+01,1.393933982822e+00
195,-1.200000000000e+00,4.876148050297e+01,1.692597485145e+00
196,-1.200000000000e+00,4.126148050297e+01,1.807402514855e+00
197,-1.200000000000e+00,4.252121320344e+01,1.606066017178e+00
198,-1.200000000000e+00,4.377771638598e+01,1.388581929877e+00
199,-1.200000000000e+00,4.503000000000e+01,1.150000000000e+00
200,-1.200000000000e+00,4.627771638598e+01,8.885819298767e-01
201,-1.200000000000e+00,4.752121320344e+01,6.060660171780e-01
202,-1.200000000000e+00,4.876148050297e+01,3.074025148548e-01
203,1.200000000000e+00,4.126148050297e+01,1.925974851452e-01
204,1.200000000000e+00,4.252121320344e+01,3.939339828220e-01
205,1.200000000000e+00,4.377771638598e+01,6.114180701233e-01
206,1.200000000000e+00,4.503000000000e+01,8.500000000000e-01
207,1.200000000000e+00,4.627771638598e+01,1.111418070123e+00
208,1.200000000000e+00,4.752121320344e+01,1.393933982822e+00
209,1.200000000000e+00,4.876148050297e+01,1.692597485145e+00
210,1.200000000000e+00,4.126148050297e+01,1.807402514855e+00
211,1.200000000000e+00,4.252121320344e+01,1.606066017178e+00
212,1.200000000000e+00,4.377771638598e+01,1.388581929877e+00
213,1.200000000000e+00,4.503000000000e+01,1.150000000000e+00
214,1.200000000000e+00,4.627771638598e+01,8.885819298767e-01
215,1.200000000000e+00,4.752121320344e+01,6.060660171780e-01
216,1.200000000000e+00,4.876148050297e+01,3.074025148548e-01
217,-8.425974851452e-01,4.123622339643e+01,0.000000000000e+00
218,-4.939339828220e-01,4.247454415588e+01,0.000000000000e+00
219,-1.614180701233e-01,4.371674033683e+01,0.000000000000e+00
220,1.500000000000e-01,4.496400000000e+01,0.000000000000e+00
221,4.385819298767e-01,4.621674033683e+01,0.000000000000e+00
222,7.060660171780e-01,4.747454415588e+01,0.000000000000e+00
223,9.574025148548e-01,4.873622339643e+01,0.000000000000e+00
224,8.425974851452e-01,4.123622339643e+01,0.000000000000e+00
225,4.939339828220e-01,4.247454415588e+01,0.000000000000e+00
226,1.614180701233e-01,4.371674033683e+01,0.000000000000e+00
227,-1.500000000000e-01,4.496400000000e+01,0.000000000000e+00
228,-4.385819298767e-01,4.621674033683e+01,0.000000000000e+00
229,-7.060660171780e-01,4.747454415588e+01,0.000000000000e+00
230,-9.574025148548e-01,4.873622339643e+01,0.000000000000e+00
231,-8.425974851452e-01,4.123622339643e+01,2.000000000000e+00
232,-4.939339828220e-01,4.247454415588e+01,2.000000000000e+00
233,-1.614180701233e-01,4.371674033683e+01,2.000000000000e+00
234,1.500000000000e-01,4.496400000000e+01,2.000000000000e+00
235,4.385819298767e-01,4.621674033683e+01,2.000000000000e+00
236,7.060660171780e-01,4.747454415588e+01,2.000000000000e+00
237,9.574025148548e-01,4.873622339643e+01,2.000000000000e+00
238,8.425974851452e-01,4.123622339643e+01,2.000000000000e+00
239,4.939339828220e-01,4.247454415588e+01,2.000000000000e+00
240,1.614180701233e-01,4.371674033683e+01,2.000000000000e+00
241,-1.500000000000e-01,4.496400000000e+01,2.000000000000e+00
242,-4.385819298767e-01,4.621674033683e+01,2.000000000000e+00
243,-7.060660171780e-01,4.747454415588e+01,2.000000000000e+00
244,-9.574025148548e-01,4.873622339643e+01,2.000000000000e+00
*ELEMENT,TYPE=B31,ELSET=ALL
1,1,25
2,25,5
3,2,26
4,26,6
5,3,27
6,27,7
7,4,28
8,28,8
9,5,29
10,29,9
11,6,30
12,30,10
13,7,31
14,31,11
15,8,32
16,32,12
17,9,33
18,33,13
19,10,34
20,34,14
21,11,35
22,35,15
23,12,36
24,36,16
25,13,37
26,37,17
27,14,38
28,38,18
29,15,39
30,39,19
31,16,40
32,40,20
33,17,41
34,41,21
35,18,42
36,42,22
37,19,43
38,43,23
39,20,44
40,44,24
41,1,45
42,45,2
43,3,46
44,46,4
45,1,47
46,47,3
47,2,48
48,48,4
49,5,49
50,49,6
51,7,50
52,50,8
53,5,51
54,51,7
55,6,52
56,52,8
57,9,53
58,53,54
59,54,55
60,55,10
61,11,56
62,56,57
63,57,58
64,58,12
65,9,59
66,59,60
67,60,61
68,61,11
69,10,62
70,62,63
71,63,64
72,64,12
73,13,65
74,65,66
75,66,67
76,67,14
77,15,68
78,68,69
79,69,70
80,70,16
81,13,71
82,71,72
83,72,73
84,73,15
85,14,74
86,74,75
87,75,76
88,76,16
89,17,77
90,77,78
91,78,79
92,79,18
93,19,80
94,80,81
95,81,82
96,82,20
97,17,83
98,83,84
99,84,85
100,85,19
101,18,86
102,86,87
103,87,88
104,88,20
105,21,89
106,89,22
107,23,90
108,90,24
109,21,91
110,91,23
111,22,92
112,92,24
113,1,93
114,93,7
115,3,94
116,94,5
117,2,95
118,95,8
119,4,96
120,96,6
121,1,97
122,97,6
123,2,98
124,98,5
125,3,99
126,99,8
127,4,100
128,100,7
129,5,101
130,101,11
131,7,102
132,102,9
133,6,103
134,103,12
135,8,104
136,104,10
137,5,105
138,105,10
139,6,106
140,106,9
141,7,107
142,107,12
143,8,108
144,108,11
145,9,109
146,109,110
147,110,111
148,111,15
149,11,112
150,112,113
151,113,114
152,114,13
153,10,115
154,115,116
155,116,117
156,117,16
157,12,118
158,118,119
159,119,120
160,120,14
161,9,121
162,121,122
163,122,123
164,123,14
165,10,124
166,124,125
167,125,126
168,126,13
169,11,127
170,127,128
171,128,129
172,129,16
173,12,130
174,130,131
175,131,132
176,132,15
177,13,133
178,133,134
179,134,135
180,135,136
181,136,137
182,137,138
183,138,139
184,139,19
185,15,140
186,140,141
187,141,142
188,142,143
189,143,144
190,144,145
191,145,146
192,146,17
193,14,147
194,147,148
195,148,149
196,149,150
197,150,151
198,151,152
199,152,153
200,153,20
201,16,154
202,154,155
203,155,156
204,156,157
205,157,158
206,158,159
207,159,160
208,160,18
209,13,161
210,161,162
211,162,163
212,163,164
213,164,165
214,165,166
215,166,167
216,167,18
217,14,168
218,168,169
219,169,170
220,170,171
221,171,172
222,172,173
223,173,174
224,174,17
225,15,175
226,175,176
227,176,177
228,177,178
229,178,179
230,179,180
231,180,181
232,181,20
233,16,182
234,182,183
235,183,184
236,184,185
237,185,186
238,186,187
239,187,188
240,188,19
241,17,189
242,189,190
243,190,191
244,191,192
245,192,193
246,193,194
247,194,195
248,195,23
249,19,196
250,196,197
251,197,198
252,198,199
253,199,200
254,200,201
255,201,202
256,202,21
257,18,203
258,203,204
259,204,205
260,205,206
261,206,207
262,207,208
263,208,209
264,209,24
265,20,210
266,210,211
267,211,212
268,212,213
269,213,214
270,214,215
271,215,216
272,216,22
273,17,217
274,217,218
275,218,219
276,219,220
277,220,221
278,221,222
279,222,223
280,223,22
281,18,224
282,224,225
283,225,226
284,226,227
285,227,228
286,228,229
287,229,230
288,230,21
289,19,231
290,231,232
291,232,233
292,233,234
293,234,235
294,235,236
295,236,237
296,237,24
297,20,238
298,238,239
299,239,240
300,240,241
301,241,242
302,242,243
303,243,244
304,244,23
*NSET,NSET=NALL,GENERATE
1,244,1
*NSET,NSET=LEFT
1,2,3,4
*NSET,NSET=RIGHT
21,22,23,24
*MATERIAL,NAME=STEEL
*ELASTIC
2.100000000000e+11,0.300000000000
*BEAM SECTION,ELSET=ALL,MATERIAL=STEEL,SECTION=RECT
6.000000000000e-02,4.000000000000e-02
0.371390676354,0.557086014531,0.742781352708
*BOUNDARY
LEFT,1,6,0.0
*STEP
*STATIC
*BOUNDARY
21,1,1,5.000000000000e-03
21,2,2,0.0
21,3,3,-6.000000000000e-03
*BOUNDARY
22,1,1,5.000000000000e-03
22,2,2,0.0
22,3,3,6.000000000000e-03
*BOUNDARY
23,1,1,-5.000000000000e-03
23,2,2,0.0
23,3,3,-6.000000000000e-03
*BOUNDARY
24,1,1,-5.000000000000e-03
24,2,2,0.0
24,3,3,6.000000000000e-03
*NODE FILE,NSET=NALL
U
*NODE PRINT,NSET=NALL
U
*NODE PRINT,NSET=RIGHT
RF
*EL PRINT,ELSET=ALL,TOTALS=YES
ELSE
*END STEP
