*HEADING
Normalized cross-passage space-truss torsion benchmark
*NODE
1,-1.200000000000e+00,0.000000000000e+00,0.000000000000e+00
2,1.200000000000e+00,0.000000000000e+00,0.000000000000e+00
3,-1.200000000000e+00,0.000000000000e+00,2.000000000000e+00
4,1.200000000000e+00,0.000000000000e+00,2.000000000000e+00
5,-1.200000000000e+00,1.000000000000e+01,0.000000000000e+00
6,1.200000000000e+00,1.000000000000e+01,0.000000000000e+00
7,-1.200000000000e+00,1.000000000000e+01,2.000000000000e+00
8,1.200000000000e+00,1.000000000000e+01,2.000000000000e+00
9,-1.200000000000e+00,2.000000000000e+01,0.000000000000e+00
10,1.200000000000e+00,2.000000000000e+01,0.000000000000e+00
11,-1.200000000000e+00,2.000000000000e+01,2.000000000000e+00
12,1.200000000000e+00,2.000000000000e+01,2.000000000000e+00
13,-1.200000000000e+00,3.000000000000e+01,0.000000000000e+00
14,1.200000000000e+00,3.000000000000e+01,0.000000000000e+00
15,-1.200000000000e+00,3.000000000000e+01,2.000000000000e+00
16,1.200000000000e+00,3.000000000000e+01,2.000000000000e+00
17,-1.200000000000e+00,4.000000000000e+01,0.000000000000e+00
18,1.200000000000e+00,4.000000000000e+01,0.000000000000e+00
19,-1.200000000000e+00,4.000000000000e+01,2.000000000000e+00
20,1.200000000000e+00,4.000000000000e+01,2.000000000000e+00
21,-1.200000000000e+00,5.000000000000e+01,0.000000000000e+00
22,1.200000000000e+00,5.000000000000e+01,0.000000000000e+00
23,-1.200000000000e+00,5.000000000000e+01,2.000000000000e+00
24,1.200000000000e+00,5.000000000000e+01,2.000000000000e+00
25,-1.200000000000e+00,5.000000000000e+00,-1.500000000000e-01
26,1.200000000000e+00,5.000000000000e+00,1.500000000000e-01
27,-1.200000000000e+00,5.000000000000e+00,1.850000000000e+00
28,1.200000000000e+00,5.000000000000e+00,2.150000000000e+00
29,-1.200000000000e+00,1.500000000000e+01,-1.500000000000e-01
30,1.200000000000e+00,1.500000000000e+01,1.500000000000e-01
31,-1.200000000000e+00,1.500000000000e+01,1.850000000000e+00
32,1.200000000000e+00,1.500000000000e+01,2.150000000000e+00
33,-1.200000000000e+00,2.250000000000e+01,-1.060660171780e-01
34,-1.200000000000e+00,2.500000000000e+01,-1.500000000000e-01
35,-1.200000000000e+00,2.750000000000e+01,-1.060660171780e-01
36,1.200000000000e+00,2.250000000000e+01,1.060660171780e-01
37,1.200000000000e+00,2.500000000000e+01,1.500000000000e-01
38,1.200000000000e+00,2.750000000000e+01,1.060660171780e-01
39,-1.200000000000e+00,2.250000000000e+01,1.893933982822e+00
40,-1.200000000000e+00,2.500000000000e+01,1.850000000000e+00
41,-1.200000000000e+00,2.750000000000e+01,1.893933982822e+00
42,1.200000000000e+00,2.250000000000e+01,2.106066017178e+00
43,1.200000000000e+00,2.500000000000e+01,2.150000000000e+00
44,1.200000000000e+00,2.750000000000e+01,2.106066017178e+00
45,-1.200000000000e+00,3.125000000000e+01,-5.740251485476e-02
46,-1.200000000000e+00,3.250000000000e+01,-1.060660171780e-01
47,-1.200000000000e+00,3.375000000000e+01,-1.385819298767e-01
48,-1.200000000000e+00,3.500000000000e+01,-1.500000000000e-01
49,-1.200000000000e+00,3.625000000000e+01,-1.385819298767e-01
50,-1.200000000000e+00,3.750000000000e+01,-1.060660171780e-01
51,-1.200000000000e+00,3.875000000000e+01,-5.740251485476e-02
52,1.200000000000e+00,3.125000000000e+01,5.740251485476e-02
53,1.200000000000e+00,3.250000000000e+01,1.060660171780e-01
54,1.200000000000e+00,3.375000000000e+01,1.385819298767e-01
55,1.200000000000e+00,3.500000000000e+01,1.500000000000e-01
56,1.200000000000e+00,3.625000000000e+01,1.385819298767e-01
57,1.200000000000e+00,3.750000000000e+01,1.060660171780e-01
58,1.200000000000e+00,3.875000000000e+01,5.740251485476e-02
59,-1.200000000000e+00,3.125000000000e+01,1.942597485145e+00
60,-1.200000000000e+00,3.250000000000e+01,1.893933982822e+00
61,-1.200000000000e+00,3.375000000000e+01,1.861418070123e+00
62,-1.200000000000e+00,3.500000000000e+01,1.850000000000e+00
63,-1.200000000000e+00,3.625000000000e+01,1.861418070123e+00
64,-1.200000000000e+00,3.750000000000e+01,1.893933982822e+00
65,-1.200000000000e+00,3.875000000000e+01,1.942597485145e+00
66,1.200000000000e+00,3.125000000000e+01,2.057402514855e+00
67,1.200000000000e+00,3.250000000000e+01,2.106066017178e+00
68,1.200000000000e+00,3.375000000000e+01,2.138581929877e+00
69,1.200000000000e+00,3.500000000000e+01,2.150000000000e+00
70,1.200000000000e+00,3.625000000000e+01,2.138581929877e+00
71,1.200000000000e+00,3.750000000000e+01,2.106066017178e+00
72,1.200000000000e+00,3.875000000000e+01,2.057402514855e+00
73,-1.200000000000e+00,4.250000000000e+01,-1.060660171780e-01
74,-1.200000000000e+00,4.500000000000e+01,-1.500000000000e-01
75,-1.200000000000e+00,4.750000000000e+01,-1.060660171780e-01
76,1.200000000000e+00,4.250000000000e+01,1.060660171780e-01
77,1.200000000000e+00,4.500000000000e+01,1.500000000000e-01
78,1.200000000000e+00,4.750000000000e+01,1.060660171780e-01
79,-1.200000000000e+00,4.250000000000e+01,1.893933982822e+00
80,-1.200000000000e+00,4.500000000000e+01,1.850000000000e+00
81,-1.200000000000e+00,4.750000000000e+01,1.893933982822e+00
82,1.200000000000e+00,4.250000000000e+01,2.106066017178e+00
83,1.200000000000e+00,4.500000000000e+01,2.150000000000e+00
84,1.200000000000e+00,4.750000000000e+01,2.106066017178e+00
85,0.000000000000e+00,-3.600000000000e-02,0.000000000000e+00
86,0.000000000000e+00,3.600000000000e-02,2.000000000000e+00
87,-1.200000000000e+00,3.000000000000e-02,1.000000000000e+00
88,1.200000000000e+00,-3.000000000000e-02,1.000000000000e+00
89,0.000000000000e+00,9.964000000000e+00,0.000000000000e+00
90,0.000000000000e+00,1.003600000000e+01,2.000000000000e+00
91,-1.200000000000e+00,1.003000000000e+01,1.000000000000e+00
92,1.200000000000e+00,9.970000000000e+00,1.000000000000e+00
93,0.000000000000e+00,1.996400000000e+01,0.000000000000e+00
94,0.000000000000e+00,2.003600000000e+01,2.000000000000e+00
95,-1.200000000000e+00,2.003000000000e+01,1.000000000000e+00
96,1.200000000000e+00,1.997000000000e+01,1.000000000000e+00
97,0.000000000000e+00,2.996400000000e+01,0.000000000000e+00
98,0.000000000000e+00,3.003600000000e+01,2.000000000000e+00
99,-1.200000000000e+00,3.003000000000e+01,1.000000000000e+00
100,1.200000000000e+00,2.997000000000e+01,1.000000000000e+00
101,0.000000000000e+00,3.996400000000e+01,0.000000000000e+00
102,0.000000000000e+00,4.003600000000e+01,2.000000000000e+00
103,-1.200000000000e+00,4.003000000000e+01,1.000000000000e+00
104,1.200000000000e+00,3.997000000000e+01,1.000000000000e+00
105,0.000000000000e+00,4.996400000000e+01,0.000000000000e+00
106,0.000000000000e+00,5.003600000000e+01,2.000000000000e+00
107,-1.200000000000e+00,5.003000000000e+01,1.000000000000e+00
108,1.200000000000e+00,4.997000000000e+01,1.000000000000e+00
109,-1.200000000000e+00,5.030000000000e+00,8.500000000000e-01
110,-1.200000000000e+00,5.030000000000e+00,1.150000000000e+00
111,1.200000000000e+00,5.030000000000e+00,8.500000000000e-01
112,1.200000000000e+00,5.030000000000e+00,1.150000000000e+00
113,1.500000000000e-01,4.964000000000e+00,0.000000000000e+00
114,-1.500000000000e-01,4.964000000000e+00,0.000000000000e+00
115,1.500000000000e-01,4.964000000000e+00,2.000000000000e+00
116,-1.500000000000e-01,4.964000000000e+00,2.000000000000e+00
117,-1.200000000000e+00,1.503000000000e+01,8.500000000000e-01
118,-1.200000000000e+00,1.503000000000e+01,1.150000000000e+00
119,1.200000000000e+00,1.503000000000e+01,8.500000000000e-01
120,1.200000000000e+00,1.503000000000e+01,1.150000000000e+00
121,1.500000000000e-01,1.496400000000e+01,0.000000000000e+00
122,-1.500000000000e-01,1.496400000000e+01,0.000000000000e+00
123,1.500000000000e-01,1.496400000000e+01,2.000000000000e+00
124,-1.500000000000e-01,1.496400000000e+01,2.000000000000e+00
125,-1.200000000000e+00,2.503000000000e+01,8.500000000000e-01
126,-1.200000000000e+00,2.503000000000e+01,1.150000000000e+00
127,1.200000000000e+00,2.503000000000e+01,8.500000000000e-01
128,1.200000000000e+00,2.503000000000e+01,1.150000000000e+00
129,1.500000000000e-01,2.496400000000e+01,0.000000000000e+00
130,-1.500000000000e-01,2.496400000000e+01,0.000000000000e+00
131,1.500000000000e-01,2.496400000000e+01,2.000000000000e+00
132,-1.500000000000e-01,2.496400000000e+01,2.000000000000e+00
133,-1.200000000000e+00,3.503000000000e+01,8.500000000000e-01
134,-1.200000000000e+00,3.503000000000e+01,1.150000000000e+00
135,1.200000000000e+00,3.503000000000e+01,8.500000000000e-01
136,1.200000000000e+00,3.503000000000e+01,1.150000000000e+00
137,1.500000000000e-01,3.496400000000e+01,0.000000000000e+00
138,-1.500000000000e-01,3.496400000000e+01,0.000000000000e+00
139,1.500000000000e-01,3.496400000000e+01,2.000000000000e+00
140,-1.500000000000e-01,3.496400000000e+01,2.000000000000e+00
141,-1.200000000000e+00,4.503000000000e+01,8.500000000000e-01
142,-1.200000000000e+00,4.503000000000e+01,1.150000000000e+00
143,1.200000000000e+00,4.503000000000e+01,8.500000000000e-01
144,1.200000000000e+00,4.503000000000e+01,1.150000000000e+00
145,1.500000000000e-01,4.496400000000e+01,0.000000000000e+00
146,-1.500000000000e-01,4.496400000000e+01,0.000000000000e+00
147,1.500000000000e-01,4.496400000000e+01,2.000000000000e+00
148,-1.500000000000e-01,4.496400000000e+01,2.000000000000e+00
*ELEMENT,TYPE=B31,ELSET=ALL
1,1,25
2,25,5
3,2,26
4,26,6
5,3,27
6,27,7
7,4,28
8,28,8
9,5,29
10,29,9
11,6,30
12,30,10
13,7,31
14,31,11
15,8,32
16,32,12
17,9,33
18,33,34
19,34,35
20,35,13
21,10,36
22,36,37
23,37,38
24,38,14
25,11,39
26,39,40
27,40,41
28,41,15
29,12,42
30,42,43
31,43,44
32,44,16
33,13,45
34,45,46
35,46,47
36,47,48
37,48,49
38,49,50
39,50,51
40,51,17
41,14,52
42,52,53
43,53,54
44,54,55
45,55,56
46,56,57
47,57,58
48,58,18
49,15,59
50,59,60
51,60,61
52,61,62
53,62,63
54,63,64
55,64,65
56,65,19
57,16,66
58,66,67
59,67,68
60,68,69
61,69,70
62,70,71
63,71,72
64,72,20
65,17,73
66,73,74
67,74,75
68,75,21
69,18,76
70,76,77
71,77,78
72,78,22
73,19,79
74,79,80
75,80,81
76,81,23
77,20,82
78,82,83
79,83,84
80,84,24
81,1,85
82,85,2
83,3,86
84,86,4
85,1,87
86,87,3
87,2,88
88,88,4
89,5,89
90,89,6
91,7,90
92,90,8
93,5,91
94,91,7
95,6,92
96,92,8
97,9,93
98,93,10
99,11,94
100,94,12
101,9,95
102,95,11
103,10,96
104,96,12
105,13,97
106,97,14
107,15,98
108,98,16
109,13,99
110,99,15
111,14,100
112,100,16
113,17,101
114,101,18
115,19,102
116,102,20
117,17,103
118,103,19
119,18,104
120,104,20
121,21,105
122,105,22
123,23,106
124,106,24
125,21,107
126,107,23
127,22,108
128,108,24
129,1,109
130,109,7
131,3,110
132,110,5
133,2,111
134,111,8
135,4,112
136,112,6
137,1,113
138,113,6
139,2,114
140,114,5
141,3,115
142,115,8
143,4,116
144,116,7
145,5,117
146,117,11
147,7,118
148,118,9
149,6,119
150,119,12
151,8,120
152,120,10
153,5,121
154,121,10
155,6,122
156,122,9
157,7,123
158,123,12
159,8,124
160,124,11
161,9,125
162,125,15
163,11,126
164,126,13
165,10,127
166,127,16
167,12,128
168,128,14
169,9,129
170,129,14
171,10,130
172,130,13
173,11,131
174,131,16
175,12,132
176,132,15
177,13,133
178,133,19
179,15,134
180,134,17
181,14,135
182,135,20
183,16,136
184,136,18
185,13,137
186,137,18
187,14,138
188,138,17
189,15,139
190,139,20
191,16,140
192,140,19
193,17,141
194,141,23
195,19,142
196,142,21
197,18,143
198,143,24
199,20,144
200,144,22
201,17,145
202,145,22
203,18,146
204,146,21
205,19,147
206,147,24
207,20,148
208,148,23
*NSET,NSET=NALL,GENERATE
1,148,1
*NSET,NSET=LEFT
1,2,3,4
*NSET,NSET=RIGHT
21,22,23,24
*MATERIAL,NAME=STEEL
*ELASTIC
2.100000000000e+11,0.300000000000
*BEAM SECTION,ELSET=ALL,MATERIAL=STEEL,SECTION=RECT
6.000000000000e-02,4.000000000000e-02
0.371390676354,0.557086014531,0.742781352708
*BOUNDARY
LEFT,1,6,0.0
*STEP
*STATIC
*BOUNDARY
21,1,1,5.000000000000e-03
21,2,2,0.0
21,3,3,-6.000000000000e-03
*BOUNDARY
22,1,1,5.000000000000e-03
22,2,2,0.0
22,3,3,6.000000000000e-03
*BOUNDARY
23,1,1,-5.000000000000e-03
23,2,2,0.0
23,3,3,-6.000000000000e-03
*BOUNDARY
24,1,1,-5.000000000000e-03
24,2,2,0.0
24,3,3,6.000000000000e-03
*NODE FILE,NSET=NALL
U
*NODE PRINT,NSET=NALL
U
*NODE PRINT,NSET=RIGHT
RF
*EL PRINT,ELSET=ALL,TOTALS=YES
ELSE
*END STEP
