*HEADING
T02 S-LIN hanging 8-split zz cycle 1
units: mm, N, s, MPa. Material is illustrative steel, not a coupon card.
E=210000.0 nu=0.3. load -5000.0 N on TIP_TOP.
*NODE, NSET=NALL
1, 0, -10, 0
2, 111.111111111, -10, 17.2839506173
3, 111.111111111, 0, 17.2839506173
4, 0, 0, 0
5, 0, -10, 48
6, 111.111111111, -10, 61.8271604938
7, 111.111111111, 0, 61.8271604938
8, 0, 0, 48
9, 0, -10, 96
10, 111.111111111, -10, 106.37037037
11, 111.111111111, 0, 106.37037037
12, 0, 0, 96
13, 0, -10, 144
14, 111.111111111, -10, 150.913580247
15, 111.111111111, 0, 150.913580247
16, 0, 0, 144
17, 0, -10, 192
18, 111.111111111, -10, 195.456790123
19, 111.111111111, 0, 195.456790123
20, 0, 0, 192
21, 0, -10, 240
22, 111.111111111, -10, 240
23, 111.111111111, 0, 240
24, 0, 0, 240
25, 111.111111111, 10, 17.2839506173
26, 0, 10, 0
27, 111.111111111, 10, 61.8271604938
28, 0, 10, 48
29, 111.111111111, 10, 106.37037037
30, 0, 10, 96
31, 111.111111111, 10, 150.913580247
32, 0, 10, 144
33, 111.111111111, 10, 195.456790123
34, 0, 10, 192
35, 111.111111111, 10, 240
36, 0, 10, 240
37, 0, -120, 240
38, 111.111111111, -120, 240
39, 111.111111111, -92.5, 240
40, 0, -92.5, 240
41, 0, -120, 250
42, 111.111111111, -120, 250
43, 111.111111111, -92.5, 250
44, 0, -92.5, 250
45, 0, -120, 260
46, 111.111111111, -120, 260
47, 111.111111111, -92.5, 260
48, 0, -92.5, 260
49, 111.111111111, -65, 240
50, 0, -65, 240
51, 111.111111111, -65, 250
52, 0, -65, 250
53, 111.111111111, -65, 260
54, 0, -65, 260
55, 111.111111111, -37.5, 240
56, 0, -37.5, 240
57, 111.111111111, -37.5, 250
58, 0, -37.5, 250
59, 111.111111111, -37.5, 260
60, 0, -37.5, 260
61, 111.111111111, -10, 250
62, 0, -10, 250
63, 111.111111111, -10, 260
64, 0, -10, 260
65, 111.111111111, 0, 250
66, 0, 0, 250
67, 111.111111111, 0, 260
68, 0, 0, 260
69, 111.111111111, 10, 250
70, 0, 10, 250
71, 111.111111111, 10, 260
72, 0, 10, 260
73, 111.111111111, 37.5, 240
74, 0, 37.5, 240
75, 111.111111111, 37.5, 250
76, 0, 37.5, 250
77, 111.111111111, 37.5, 260
78, 0, 37.5, 260
79, 111.111111111, 65, 240
80, 0, 65, 240
81, 111.111111111, 65, 250
82, 0, 65, 250
83, 111.111111111, 65, 260
84, 0, 65, 260
85, 111.111111111, 92.5, 240
86, 0, 92.5, 240
87, 111.111111111, 92.5, 250
88, 0, 92.5, 250
89, 111.111111111, 92.5, 260
90, 0, 92.5, 260
91, 111.111111111, 120, 240
92, 0, 120, 240
93, 111.111111111, 120, 250
94, 0, 120, 250
95, 111.111111111, 120, 260
96, 0, 120, 260
97, 222.222222222, -10, 33.5802469136
98, 222.222222222, 0, 33.5802469136
99, 222.222222222, -10, 74.8641975309
100, 222.222222222, 0, 74.8641975309
101, 222.222222222, -10, 116.148148148
102, 222.222222222, 0, 116.148148148
103, 222.222222222, -10, 157.432098765
104, 222.222222222, 0, 157.432098765
105, 222.222222222, -10, 198.716049383
106, 222.222222222, 0, 198.716049383
107, 222.222222222, -10, 240
108, 222.222222222, 0, 240
109, 222.222222222, 10, 33.5802469136
110, 222.222222222, 10, 74.8641975309
111, 222.222222222, 10, 116.148148148
112, 222.222222222, 10, 157.432098765
113, 222.222222222, 10, 198.716049383
114, 222.222222222, 10, 240
115, 222.222222222, -120, 240
116, 222.222222222, -92.5, 240
117, 222.222222222, -120, 250
118, 222.222222222, -92.5, 250
119, 222.222222222, -120, 260
120, 222.222222222, -92.5, 260
121, 222.222222222, -65, 240
122, 222.222222222, -65, 250
123, 222.222222222, -65, 260
124, 222.222222222, -37.5, 240
125, 222.222222222, -37.5, 250
126, 222.222222222, -37.5, 260
127, 222.222222222, -10, 250
128, 222.222222222, -10, 260
129, 222.222222222, 0, 250
130, 222.222222222, 0, 260
131, 222.222222222, 10, 250
132, 222.222222222, 10, 260
133, 222.222222222, 37.5, 240
134, 222.222222222, 37.5, 250
135, 222.222222222, 37.5, 260
136, 222.222222222, 65, 240
137, 222.222222222, 65, 250
138, 222.222222222, 65, 260
139, 222.222222222, 92.5, 240
140, 222.222222222, 92.5, 250
141, 222.222222222, 92.5, 260
142, 222.222222222, 120, 240
143, 222.222222222, 120, 250
144, 222.222222222, 120, 260
145, 333.333333333, -10, 48.8888888889
146, 333.333333333, 0, 48.8888888889
147, 333.333333333, -10, 87.1111111111
148, 333.333333333, 0, 87.1111111111
149, 333.333333333, -10, 125.333333333
150, 333.333333333, 0, 125.333333333
151, 333.333333333, -10, 163.555555556
152, 333.333333333, 0, 163.555555556
153, 333.333333333, -10, 201.777777778
154, 333.333333333, 0, 201.777777778
155, 333.333333333, -10, 240
156, 333.333333333, 0, 240
157, 333.333333333, 10, 48.8888888889
158, 333.333333333, 10, 87.1111111111
159, 333.333333333, 10, 125.333333333
160, 333.333333333, 10, 163.555555556
161, 333.333333333, 10, 201.777777778
162, 333.333333333, 10, 240
163, 333.333333333, -120, 240
164, 333.333333333, -92.5, 240
165, 333.333333333, -120, 250
166, 333.333333333, -92.5, 250
167, 333.333333333, -120, 260
168, 333.333333333, -92.5, 260
169, 333.333333333, -65, 240
170, 333.333333333, -65, 250
171, 333.333333333, -65, 260
172, 333.333333333, -37.5, 240
173, 333.333333333, -37.5, 250
174, 333.333333333, -37.5, 260
175, 333.333333333, -10, 250
176, 333.333333333, -10, 260
177, 333.333333333, 0, 250
178, 333.333333333, 0, 260
179, 333.333333333, 10, 250
180, 333.333333333, 10, 260
181, 333.333333333, 37.5, 240
182, 333.333333333, 37.5, 250
183, 333.333333333, 37.5, 260
184, 333.333333333, 65, 240
185, 333.333333333, 65, 250
186, 333.333333333, 65, 260
187, 333.333333333, 92.5, 240
188, 333.333333333, 92.5, 250
189, 333.333333333, 92.5, 260
190, 333.333333333, 120, 240
191, 333.333333333, 120, 250
192, 333.333333333, 120, 260
193, 444.444444444, -10, 63.2098765432
194, 444.444444444, 0, 63.2098765432
195, 444.444444444, -10, 98.5679012346
196, 444.444444444, 0, 98.5679012346
197, 444.444444444, -10, 133.925925926
198, 444.444444444, 0, 133.925925926
199, 444.444444444, -10, 169.283950617
200, 444.444444444, 0, 169.283950617
201, 444.444444444, -10, 204.641975309
202, 444.444444444, 0, 204.641975309
203, 444.444444444, -10, 240
204, 444.444444444, 0, 240
205, 444.444444444, 10, 63.2098765432
206, 444.444444444, 10, 98.5679012346
207, 444.444444444, 10, 133.925925926
208, 444.444444444, 10, 169.283950617
209, 444.444444444, 10, 204.641975309
210, 444.444444444, 10, 240
211, 444.444444444, -120, 240
212, 444.444444444, -92.5, 240
213, 444.444444444, -120, 250
214, 444.444444444, -92.5, 250
215, 444.444444444, -120, 260
216, 444.444444444, -92.5, 260
217, 444.444444444, -65, 240
218, 444.444444444, -65, 250
219, 444.444444444, -65, 260
220, 444.444444444, -37.5, 240
221, 444.444444444, -37.5, 250
222, 444.444444444, -37.5, 260
223, 444.444444444, -10, 250
224, 444.444444444, -10, 260
225, 444.444444444, 0, 250
226, 444.444444444, 0, 260
227, 444.444444444, 10, 250
228, 444.444444444, 10, 260
229, 444.444444444, 37.5, 240
230, 444.444444444, 37.5, 250
231, 444.444444444, 37.5, 260
232, 444.444444444, 65, 240
233, 444.444444444, 65, 250
234, 444.444444444, 65, 260
235, 444.444444444, 92.5, 240
236, 444.444444444, 92.5, 250
237, 444.444444444, 92.5, 260
238, 444.444444444, 120, 240
239, 444.444444444, 120, 250
240, 444.444444444, 120, 260
241, 555.555555556, -10, 76.5432098765
242, 555.555555556, 0, 76.5432098765
243, 555.555555556, -10, 109.234567901
244, 555.555555556, 0, 109.234567901
245, 555.555555556, -10, 141.925925926
246, 555.555555556, 0, 141.925925926
247, 555.555555556, -10, 174.617283951
248, 555.555555556, 0, 174.617283951
249, 555.555555556, -10, 207.308641975
250, 555.555555556, 0, 207.308641975
251, 555.555555556, -10, 240
252, 555.555555556, 0, 240
253, 555.555555556, 10, 76.5432098765
254, 555.555555556, 10, 109.234567901
255, 555.555555556, 10, 141.925925926
256, 555.555555556, 10, 174.617283951
257, 555.555555556, 10, 207.308641975
258, 555.555555556, 10, 240
259, 555.555555556, -120, 240
260, 555.555555556, -92.5, 240
261, 555.555555556, -120, 250
262, 555.555555556, -92.5, 250
263, 555.555555556, -120, 260
264, 555.555555556, -92.5, 260
265, 555.555555556, -65, 240
266, 555.555555556, -65, 250
267, 555.555555556, -65, 260
268, 555.555555556, -37.5, 240
269, 555.555555556, -37.5, 250
270, 555.555555556, -37.5, 260
271, 555.555555556, -10, 250
272, 555.555555556, -10, 260
273, 555.555555556, 0, 250
274, 555.555555556, 0, 260
275, 555.555555556, 10, 250
276, 555.555555556, 10, 260
277, 555.555555556, 37.5, 240
278, 555.555555556, 37.5, 250
279, 555.555555556, 37.5, 260
280, 555.555555556, 65, 240
281, 555.555555556, 65, 250
282, 555.555555556, 65, 260
283, 555.555555556, 92.5, 240
284, 555.555555556, 92.5, 250
285, 555.555555556, 92.5, 260
286, 555.555555556, 120, 240
287, 555.555555556, 120, 250
288, 555.555555556, 120, 260
289, 666.666666667, -10, 88.8888888889
290, 666.666666667, 0, 88.8888888889
291, 666.666666667, -10, 119.111111111
292, 666.666666667, 0, 119.111111111
293, 666.666666667, -10, 149.333333333
294, 666.666666667, 0, 149.333333333
295, 666.666666667, -10, 179.555555556
296, 666.666666667, 0, 179.555555556
297, 666.666666667, -10, 209.777777778
298, 666.666666667, 0, 209.777777778
299, 666.666666667, -10, 240
300, 666.666666667, 0, 240
301, 666.666666667, 10, 88.8888888889
302, 666.666666667, 10, 119.111111111
303, 666.666666667, 10, 149.333333333
304, 666.666666667, 10, 179.555555556
305, 666.666666667, 10, 209.777777778
306, 666.666666667, 10, 240
307, 666.666666667, -120, 240
308, 666.666666667, -92.5, 240
309, 666.666666667, -120, 250
310, 666.666666667, -92.5, 250
311, 666.666666667, -120, 260
312, 666.666666667, -92.5, 260
313, 666.666666667, -65, 240
314, 666.666666667, -65, 250
315, 666.666666667, -65, 260
316, 666.666666667, -37.5, 240
317, 666.666666667, -37.5, 250
318, 666.666666667, -37.5, 260
319, 666.666666667, -10, 250
320, 666.666666667, -10, 260
321, 666.666666667, 0, 250
322, 666.666666667, 0, 260
323, 666.666666667, 10, 250
324, 666.666666667, 10, 260
325, 666.666666667, 37.5, 240
326, 666.666666667, 37.5, 250
327, 666.666666667, 37.5, 260
328, 666.666666667, 65, 240
329, 666.666666667, 65, 250
330, 666.666666667, 65, 260
331, 666.666666667, 92.5, 240
332, 666.666666667, 92.5, 250
333, 666.666666667, 92.5, 260
334, 666.666666667, 120, 240
335, 666.666666667, 120, 250
336, 666.666666667, 120, 260
337, 777.777777778, -10, 100.24691358
338, 777.777777778, 0, 100.24691358
339, 777.777777778, -10, 128.197530864
340, 777.777777778, 0, 128.197530864
341, 777.777777778, -10, 156.148148148
342, 777.777777778, 0, 156.148148148
343, 777.777777778, -10, 184.098765432
344, 777.777777778, 0, 184.098765432
345, 777.777777778, -10, 212.049382716
346, 777.777777778, 0, 212.049382716
347, 777.777777778, -10, 240
348, 777.777777778, 0, 240
349, 777.777777778, 10, 100.24691358
350, 777.777777778, 10, 128.197530864
351, 777.777777778, 10, 156.148148148
352, 777.777777778, 10, 184.098765432
353, 777.777777778, 10, 212.049382716
354, 777.777777778, 10, 240
355, 777.777777778, -120, 240
356, 777.777777778, -92.5, 240
357, 777.777777778, -120, 250
358, 777.777777778, -92.5, 250
359, 777.777777778, -120, 260
360, 777.777777778, -92.5, 260
361, 777.777777778, -65, 240
362, 777.777777778, -65, 250
363, 777.777777778, -65, 260
364, 777.777777778, -37.5, 240
365, 777.777777778, -37.5, 250
366, 777.777777778, -37.5, 260
367, 777.777777778, -10, 250
368, 777.777777778, -10, 260
369, 777.777777778, 0, 250
370, 777.777777778, 0, 260
371, 777.777777778, 10, 250
372, 777.777777778, 10, 260
373, 777.777777778, 37.5, 240
374, 777.777777778, 37.5, 250
375, 777.777777778, 37.5, 260
376, 777.777777778, 65, 240
377, 777.777777778, 65, 250
378, 777.777777778, 65, 260
379, 777.777777778, 92.5, 240
380, 777.777777778, 92.5, 250
381, 777.777777778, 92.5, 260
382, 777.777777778, 120, 240
383, 777.777777778, 120, 250
384, 777.777777778, 120, 260
385, 888.888888889, -10, 110.617283951
386, 888.888888889, 0, 110.617283951
387, 888.888888889, -10, 136.49382716
388, 888.888888889, 0, 136.49382716
389, 888.888888889, -10, 162.37037037
390, 888.888888889, 0, 162.37037037
391, 888.888888889, -10, 188.24691358
392, 888.888888889, 0, 188.24691358
393, 888.888888889, -10, 214.12345679
394, 888.888888889, 0, 214.12345679
395, 888.888888889, -10, 240
396, 888.888888889, 0, 240
397, 888.888888889, 10, 110.617283951
398, 888.888888889, 10, 136.49382716
399, 888.888888889, 10, 162.37037037
400, 888.888888889, 10, 188.24691358
401, 888.888888889, 10, 214.12345679
402, 888.888888889, 10, 240
403, 888.888888889, -120, 240
404, 888.888888889, -92.5, 240
405, 888.888888889, -120, 250
406, 888.888888889, -92.5, 250
407, 888.888888889, -120, 260
408, 888.888888889, -92.5, 260
409, 888.888888889, -65, 240
410, 888.888888889, -65, 250
411, 888.888888889, -65, 260
412, 888.888888889, -37.5, 240
413, 888.888888889, -37.5, 250
414, 888.888888889, -37.5, 260
415, 888.888888889, -10, 250
416, 888.888888889, -10, 260
417, 888.888888889, 0, 250
418, 888.888888889, 0, 260
419, 888.888888889, 10, 250
420, 888.888888889, 10, 260
421, 888.888888889, 37.5, 240
422, 888.888888889, 37.5, 250
423, 888.888888889, 37.5, 260
424, 888.888888889, 65, 240
425, 888.888888889, 65, 250
426, 888.888888889, 65, 260
427, 888.888888889, 92.5, 240
428, 888.888888889, 92.5, 250
429, 888.888888889, 92.5, 260
430, 888.888888889, 120, 240
431, 888.888888889, 120, 250
432, 888.888888889, 120, 260
433, 1000, -10, 120
434, 1000, 0, 120
435, 1000, -10, 144
436, 1000, 0, 144
437, 1000, -10, 168
438, 1000, 0, 168
439, 1000, -10, 192
440, 1000, 0, 192
441, 1000, -10, 216
442, 1000, 0, 216
443, 1000, -10, 240
444, 1000, 0, 240
445, 1000, 10, 120
446, 1000, 10, 144
447, 1000, 10, 168
448, 1000, 10, 192
449, 1000, 10, 216
450, 1000, 10, 240
451, 1000, -120, 240
452, 1000, -92.5, 240
453, 1000, -120, 250
454, 1000, -92.5, 250
455, 1000, -120, 260
456, 1000, -92.5, 260
457, 1000, -65, 240
458, 1000, -65, 250
459, 1000, -65, 260
460, 1000, -37.5, 240
461, 1000, -37.5, 250
462, 1000, -37.5, 260
463, 1000, -10, 250
464, 1000, -10, 260
465, 1000, 0, 250
466, 1000, 0, 260
467, 1000, 10, 250
468, 1000, 10, 260
469, 1000, 37.5, 240
470, 1000, 37.5, 250
471, 1000, 37.5, 260
472, 1000, 65, 240
473, 1000, 65, 250
474, 1000, 65, 260
475, 1000, 92.5, 240
476, 1000, 92.5, 250
477, 1000, 92.5, 260
478, 1000, 120, 240
479, 1000, 120, 250
480, 1000, 120, 260
481, 1111.11111111, -10, 128.395061728
482, 1111.11111111, 0, 128.395061728
483, 1111.11111111, -10, 150.716049383
484, 1111.11111111, 0, 150.716049383
485, 1111.11111111, -10, 173.037037037
486, 1111.11111111, 0, 173.037037037
487, 1111.11111111, -10, 195.358024691
488, 1111.11111111, 0, 195.358024691
489, 1111.11111111, -10, 217.679012346
490, 1111.11111111, 0, 217.679012346
491, 1111.11111111, -10, 240
492, 1111.11111111, 0, 240
493, 1111.11111111, 10, 128.395061728
494, 1111.11111111, 10, 150.716049383
495, 1111.11111111, 10, 173.037037037
496, 1111.11111111, 10, 195.358024691
497, 1111.11111111, 10, 217.679012346
498, 1111.11111111, 10, 240
499, 1111.11111111, -120, 240
500, 1111.11111111, -92.5, 240
501, 1111.11111111, -120, 250
502, 1111.11111111, -92.5, 250
503, 1111.11111111, -120, 260
504, 1111.11111111, -92.5, 260
505, 1111.11111111, -65, 240
506, 1111.11111111, -65, 250
507, 1111.11111111, -65, 260
508, 1111.11111111, -37.5, 240
509, 1111.11111111, -37.5, 250
510, 1111.11111111, -37.5, 260
511, 1111.11111111, -10, 250
512, 1111.11111111, -10, 260
513, 1111.11111111, 0, 250
514, 1111.11111111, 0, 260
515, 1111.11111111, 10, 250
516, 1111.11111111, 10, 260
517, 1111.11111111, 37.5, 240
518, 1111.11111111, 37.5, 250
519, 1111.11111111, 37.5, 260
520, 1111.11111111, 65, 240
521, 1111.11111111, 65, 250
522, 1111.11111111, 65, 260
523, 1111.11111111, 92.5, 240
524, 1111.11111111, 92.5, 250
525, 1111.11111111, 92.5, 260
526, 1111.11111111, 120, 240
527, 1111.11111111, 120, 250
528, 1111.11111111, 120, 260
529, 1222.22222222, -10, 135.802469136
530, 1222.22222222, 0, 135.802469136
531, 1222.22222222, -10, 156.641975309
532, 1222.22222222, 0, 156.641975309
533, 1222.22222222, -10, 177.481481481
534, 1222.22222222, 0, 177.481481481
535, 1222.22222222, -10, 198.320987654
536, 1222.22222222, 0, 198.320987654
537, 1222.22222222, -10, 219.160493827
538, 1222.22222222, 0, 219.160493827
539, 1222.22222222, -10, 240
540, 1222.22222222, 0, 240
541, 1222.22222222, 10, 135.802469136
542, 1222.22222222, 10, 156.641975309
543, 1222.22222222, 10, 177.481481481
544, 1222.22222222, 10, 198.320987654
545, 1222.22222222, 10, 219.160493827
546, 1222.22222222, 10, 240
547, 1222.22222222, -120, 240
548, 1222.22222222, -92.5, 240
549, 1222.22222222, -120, 250
550, 1222.22222222, -92.5, 250
551, 1222.22222222, -120, 260
552, 1222.22222222, -92.5, 260
553, 1222.22222222, -65, 240
554, 1222.22222222, -65, 250
555, 1222.22222222, -65, 260
556, 1222.22222222, -37.5, 240
557, 1222.22222222, -37.5, 250
558, 1222.22222222, -37.5, 260
559, 1222.22222222, -10, 250
560, 1222.22222222, -10, 260
561, 1222.22222222, 0, 250
562, 1222.22222222, 0, 260
563, 1222.22222222, 10, 250
564, 1222.22222222, 10, 260
565, 1222.22222222, 37.5, 240
566, 1222.22222222, 37.5, 250
567, 1222.22222222, 37.5, 260
568, 1222.22222222, 65, 240
569, 1222.22222222, 65, 250
570, 1222.22222222, 65, 260
571, 1222.22222222, 92.5, 240
572, 1222.22222222, 92.5, 250
573, 1222.22222222, 92.5, 260
574, 1222.22222222, 120, 240
575, 1222.22222222, 120, 250
576, 1222.22222222, 120, 260
577, 1333.33333333, -10, 142.222222222
578, 1333.33333333, 0, 142.222222222
579, 1333.33333333, -10, 161.777777778
580, 1333.33333333, 0, 161.777777778
581, 1333.33333333, -10, 181.333333333
582, 1333.33333333, 0, 181.333333333
583, 1333.33333333, -10, 200.888888889
584, 1333.33333333, 0, 200.888888889
585, 1333.33333333, -10, 220.444444444
586, 1333.33333333, 0, 220.444444444
587, 1333.33333333, -10, 240
588, 1333.33333333, 0, 240
589, 1333.33333333, 10, 142.222222222
590, 1333.33333333, 10, 161.777777778
591, 1333.33333333, 10, 181.333333333
592, 1333.33333333, 10, 200.888888889
593, 1333.33333333, 10, 220.444444444
594, 1333.33333333, 10, 240
595, 1333.33333333, -120, 240
596, 1333.33333333, -92.5, 240
597, 1333.33333333, -120, 250
598, 1333.33333333, -92.5, 250
599, 1333.33333333, -120, 260
600, 1333.33333333, -92.5, 260
601, 1333.33333333, -65, 240
602, 1333.33333333, -65, 250
603, 1333.33333333, -65, 260
604, 1333.33333333, -37.5, 240
605, 1333.33333333, -37.5, 250
606, 1333.33333333, -37.5, 260
607, 1333.33333333, -10, 250
608, 1333.33333333, -10, 260
609, 1333.33333333, 0, 250
610, 1333.33333333, 0, 260
611, 1333.33333333, 10, 250
612, 1333.33333333, 10, 260
613, 1333.33333333, 37.5, 240
614, 1333.33333333, 37.5, 250
615, 1333.33333333, 37.5, 260
616, 1333.33333333, 65, 240
617, 1333.33333333, 65, 250
618, 1333.33333333, 65, 260
619, 1333.33333333, 92.5, 240
620, 1333.33333333, 92.5, 250
621, 1333.33333333, 92.5, 260
622, 1333.33333333, 120, 240
623, 1333.33333333, 120, 250
624, 1333.33333333, 120, 260
625, 1444.44444444, -10, 147.654320988
626, 1444.44444444, 0, 147.654320988
627, 1444.44444444, -10, 166.12345679
628, 1444.44444444, 0, 166.12345679
629, 1444.44444444, -10, 184.592592593
630, 1444.44444444, 0, 184.592592593
631, 1444.44444444, -10, 203.061728395
632, 1444.44444444, 0, 203.061728395
633, 1444.44444444, -10, 221.530864198
634, 1444.44444444, 0, 221.530864198
635, 1444.44444444, -10, 240
636, 1444.44444444, 0, 240
637, 1444.44444444, 10, 147.654320988
638, 1444.44444444, 10, 166.12345679
639, 1444.44444444, 10, 184.592592593
640, 1444.44444444, 10, 203.061728395
641, 1444.44444444, 10, 221.530864198
642, 1444.44444444, 10, 240
643, 1444.44444444, -120, 240
644, 1444.44444444, -92.5, 240
645, 1444.44444444, -120, 250
646, 1444.44444444, -92.5, 250
647, 1444.44444444, -120, 260
648, 1444.44444444, -92.5, 260
649, 1444.44444444, -65, 240
650, 1444.44444444, -65, 250
651, 1444.44444444, -65, 260
652, 1444.44444444, -37.5, 240
653, 1444.44444444, -37.5, 250
654, 1444.44444444, -37.5, 260
655, 1444.44444444, -10, 250
656, 1444.44444444, -10, 260
657, 1444.44444444, 0, 250
658, 1444.44444444, 0, 260
659, 1444.44444444, 10, 250
660, 1444.44444444, 10, 260
661, 1444.44444444, 37.5, 240
662, 1444.44444444, 37.5, 250
663, 1444.44444444, 37.5, 260
664, 1444.44444444, 65, 240
665, 1444.44444444, 65, 250
666, 1444.44444444, 65, 260
667, 1444.44444444, 92.5, 240
668, 1444.44444444, 92.5, 250
669, 1444.44444444, 92.5, 260
670, 1444.44444444, 120, 240
671, 1444.44444444, 120, 250
672, 1444.44444444, 120, 260
673, 1555.55555556, -10, 152.098765432
674, 1555.55555556, 0, 152.098765432
675, 1555.55555556, -10, 169.679012346
676, 1555.55555556, 0, 169.679012346
677, 1555.55555556, -10, 187.259259259
678, 1555.55555556, 0, 187.259259259
679, 1555.55555556, -10, 204.839506173
680, 1555.55555556, 0, 204.839506173
681, 1555.55555556, -10, 222.419753086
682, 1555.55555556, 0, 222.419753086
683, 1555.55555556, -10, 240
684, 1555.55555556, 0, 240
685, 1555.55555556, 10, 152.098765432
686, 1555.55555556, 10, 169.679012346
687, 1555.55555556, 10, 187.259259259
688, 1555.55555556, 10, 204.839506173
689, 1555.55555556, 10, 222.419753086
690, 1555.55555556, 10, 240
691, 1555.55555556, -120, 240
692, 1555.55555556, -92.5, 240
693, 1555.55555556, -120, 250
694, 1555.55555556, -92.5, 250
695, 1555.55555556, -120, 260
696, 1555.55555556, -92.5, 260
697, 1555.55555556, -65, 240
698, 1555.55555556, -65, 250
699, 1555.55555556, -65, 260
700, 1555.55555556, -37.5, 240
701, 1555.55555556, -37.5, 250
702, 1555.55555556, -37.5, 260
703, 1555.55555556, -10, 250
704, 1555.55555556, -10, 260
705, 1555.55555556, 0, 250
706, 1555.55555556, 0, 260
707, 1555.55555556, 10, 250
708, 1555.55555556, 10, 260
709, 1555.55555556, 37.5, 240
710, 1555.55555556, 37.5, 250
711, 1555.55555556, 37.5, 260
712, 1555.55555556, 65, 240
713, 1555.55555556, 65, 250
714, 1555.55555556, 65, 260
715, 1555.55555556, 92.5, 240
716, 1555.55555556, 92.5, 250
717, 1555.55555556, 92.5, 260
718, 1555.55555556, 120, 240
719, 1555.55555556, 120, 250
720, 1555.55555556, 120, 260
721, 1666.66666667, -10, 155.555555556
722, 1666.66666667, 0, 155.555555556
723, 1666.66666667, -10, 172.444444444
724, 1666.66666667, 0, 172.444444444
725, 1666.66666667, -10, 189.333333333
726, 1666.66666667, 0, 189.333333333
727, 1666.66666667, -10, 206.222222222
728, 1666.66666667, 0, 206.222222222
729, 1666.66666667, -10, 223.111111111
730, 1666.66666667, 0, 223.111111111
731, 1666.66666667, -10, 240
732, 1666.66666667, 0, 240
733, 1666.66666667, 10, 155.555555556
734, 1666.66666667, 10, 172.444444444
735, 1666.66666667, 10, 189.333333333
736, 1666.66666667, 10, 206.222222222
737, 1666.66666667, 10, 223.111111111
738, 1666.66666667, 10, 240
739, 1666.66666667, -120, 240
740, 1666.66666667, -92.5, 240
741, 1666.66666667, -120, 250
742, 1666.66666667, -92.5, 250
743, 1666.66666667, -120, 260
744, 1666.66666667, -92.5, 260
745, 1666.66666667, -65, 240
746, 1666.66666667, -65, 250
747, 1666.66666667, -65, 260
748, 1666.66666667, -37.5, 240
749, 1666.66666667, -37.5, 250
750, 1666.66666667, -37.5, 260
751, 1666.66666667, -10, 250
752, 1666.66666667, -10, 260
753, 1666.66666667, 0, 250
754, 1666.66666667, 0, 260
755, 1666.66666667, 10, 250
756, 1666.66666667, 10, 260
757, 1666.66666667, 37.5, 240
758, 1666.66666667, 37.5, 250
759, 1666.66666667, 37.5, 260
760, 1666.66666667, 65, 240
761, 1666.66666667, 65, 250
762, 1666.66666667, 65, 260
763, 1666.66666667, 92.5, 240
764, 1666.66666667, 92.5, 250
765, 1666.66666667, 92.5, 260
766, 1666.66666667, 120, 240
767, 1666.66666667, 120, 250
768, 1666.66666667, 120, 260
769, 1777.77777778, -10, 158.024691358
770, 1777.77777778, 0, 158.024691358
771, 1777.77777778, -10, 174.419753086
772, 1777.77777778, 0, 174.419753086
773, 1777.77777778, -10, 190.814814815
774, 1777.77777778, 0, 190.814814815
775, 1777.77777778, -10, 207.209876543
776, 1777.77777778, 0, 207.209876543
777, 1777.77777778, -10, 223.604938272
778, 1777.77777778, 0, 223.604938272
779, 1777.77777778, -10, 240
780, 1777.77777778, 0, 240
781, 1777.77777778, 10, 158.024691358
782, 1777.77777778, 10, 174.419753086
783, 1777.77777778, 10, 190.814814815
784, 1777.77777778, 10, 207.209876543
785, 1777.77777778, 10, 223.604938272
786, 1777.77777778, 10, 240
787, 1777.77777778, -120, 240
788, 1777.77777778, -92.5, 240
789, 1777.77777778, -120, 250
790, 1777.77777778, -92.5, 250
791, 1777.77777778, -120, 260
792, 1777.77777778, -92.5, 260
793, 1777.77777778, -65, 240
794, 1777.77777778, -65, 250
795, 1777.77777778, -65, 260
796, 1777.77777778, -37.5, 240
797, 1777.77777778, -37.5, 250
798, 1777.77777778, -37.5, 260
799, 1777.77777778, -10, 250
800, 1777.77777778, -10, 260
801, 1777.77777778, 0, 250
802, 1777.77777778, 0, 260
803, 1777.77777778, 10, 250
804, 1777.77777778, 10, 260
805, 1777.77777778, 37.5, 240
806, 1777.77777778, 37.5, 250
807, 1777.77777778, 37.5, 260
808, 1777.77777778, 65, 240
809, 1777.77777778, 65, 250
810, 1777.77777778, 65, 260
811, 1777.77777778, 92.5, 240
812, 1777.77777778, 92.5, 250
813, 1777.77777778, 92.5, 260
814, 1777.77777778, 120, 240
815, 1777.77777778, 120, 250
816, 1777.77777778, 120, 260
817, 1888.88888889, -10, 159.50617284
818, 1888.88888889, 0, 159.50617284
819, 1888.88888889, -10, 175.604938272
820, 1888.88888889, 0, 175.604938272
821, 1888.88888889, -10, 191.703703704
822, 1888.88888889, 0, 191.703703704
823, 1888.88888889, -10, 207.802469136
824, 1888.88888889, 0, 207.802469136
825, 1888.88888889, -10, 223.901234568
826, 1888.88888889, 0, 223.901234568
827, 1888.88888889, -10, 240
828, 1888.88888889, 0, 240
829, 1888.88888889, 10, 159.50617284
830, 1888.88888889, 10, 175.604938272
831, 1888.88888889, 10, 191.703703704
832, 1888.88888889, 10, 207.802469136
833, 1888.88888889, 10, 223.901234568
834, 1888.88888889, 10, 240
835, 1888.88888889, -120, 240
836, 1888.88888889, -92.5, 240
837, 1888.88888889, -120, 250
838, 1888.88888889, -92.5, 250
839, 1888.88888889, -120, 260
840, 1888.88888889, -92.5, 260
841, 1888.88888889, -65, 240
842, 1888.88888889, -65, 250
843, 1888.88888889, -65, 260
844, 1888.88888889, -37.5, 240
845, 1888.88888889, -37.5, 250
846, 1888.88888889, -37.5, 260
847, 1888.88888889, -10, 250
848, 1888.88888889, -10, 260
849, 1888.88888889, 0, 250
850, 1888.88888889, 0, 260
851, 1888.88888889, 10, 250
852, 1888.88888889, 10, 260
853, 1888.88888889, 37.5, 240
854, 1888.88888889, 37.5, 250
855, 1888.88888889, 37.5, 260
856, 1888.88888889, 65, 240
857, 1888.88888889, 65, 250
858, 1888.88888889, 65, 260
859, 1888.88888889, 92.5, 240
860, 1888.88888889, 92.5, 250
861, 1888.88888889, 92.5, 260
862, 1888.88888889, 120, 240
863, 1888.88888889, 120, 250
864, 1888.88888889, 120, 260
865, 2000, -10, 160
866, 2000, 0, 160
867, 2000, -10, 176
868, 2000, 0, 176
869, 2000, -10, 192
870, 2000, 0, 192
871, 2000, -10, 208
872, 2000, 0, 208
873, 2000, -10, 224
874, 2000, 0, 224
875, 2000, -10, 240
876, 2000, 0, 240
877, 2000, 10, 160
878, 2000, 10, 176
879, 2000, 10, 192
880, 2000, 10, 208
881, 2000, 10, 224
882, 2000, 10, 240
883, 2000, -120, 240
884, 2000, -92.5, 240
885, 2000, -120, 250
886, 2000, -92.5, 250
887, 2000, -120, 260
888, 2000, -92.5, 260
889, 2000, -65, 240
890, 2000, -65, 250
891, 2000, -65, 260
892, 2000, -37.5, 240
893, 2000, -37.5, 250
894, 2000, -37.5, 260
895, 2000, -10, 250
896, 2000, -10, 260
897, 2000, 0, 250
898, 2000, 0, 260
899, 2000, 10, 250
900, 2000, 10, 260
901, 2000, 37.5, 240
902, 2000, 37.5, 250
903, 2000, 37.5, 260
904, 2000, 65, 240
905, 2000, 65, 250
906, 2000, 65, 260
907, 2000, 92.5, 240
908, 2000, 92.5, 250
909, 2000, 92.5, 260
910, 2000, 120, 240
911, 2000, 120, 250
912, 2000, 120, 260
913, 666.666666667, 0, 104
914, 666.666666667, 5, 88.8888888889
915, 666.666666667, 5, 104
916, 666.666666667, 5, 119.111111111
917, 666.666666667, 10, 104
918, 722.222222222, 0, 94.5679012346
919, 722.222222222, 0, 109.111111111
920, 722.222222222, 0, 123.654320988
921, 722.222222222, 5, 94.5679012346
922, 722.222222222, 5, 109.111111111
923, 722.222222222, 5, 123.654320988
924, 722.222222222, 10, 94.5679012346
925, 722.222222222, 10, 109.111111111
926, 722.222222222, 10, 123.654320988
927, 777.777777778, 0, 114.222222222
928, 777.777777778, 5, 100.24691358
929, 777.777777778, 5, 114.222222222
930, 777.777777778, 5, 128.197530864
931, 777.777777778, 10, 114.222222222
932, 777.777777778, -10, 114.222222222
933, 777.777777778, -5, 100.24691358
934, 777.777777778, -5, 114.222222222
935, 777.777777778, -5, 128.197530864
936, 833.333333333, -10, 105.432098765
937, 833.333333333, -10, 118.888888889
938, 833.333333333, -10, 132.345679012
939, 833.333333333, -5, 105.432098765
940, 833.333333333, -5, 118.888888889
941, 833.333333333, -5, 132.345679012
942, 833.333333333, 0, 105.432098765
943, 833.333333333, 0, 118.888888889
944, 833.333333333, 0, 132.345679012
945, 888.888888889, -10, 123.555555556
946, 888.888888889, -5, 110.617283951
947, 888.888888889, -5, 123.555555556
948, 888.888888889, -5, 136.49382716
949, 888.888888889, 0, 123.555555556
950, 833.333333333, 5, 105.432098765
951, 833.333333333, 5, 118.888888889
952, 833.333333333, 5, 132.345679012
953, 833.333333333, 10, 105.432098765
954, 833.333333333, 10, 118.888888889
955, 833.333333333, 10, 132.345679012
956, 888.888888889, 5, 110.617283951
957, 888.888888889, 5, 123.555555556
958, 888.888888889, 5, 136.49382716
959, 888.888888889, 10, 123.555555556
960, 944.444444444, -10, 115.308641975
961, 944.444444444, -10, 127.777777778
962, 944.444444444, -10, 140.24691358
963, 944.444444444, -5, 115.308641975
964, 944.444444444, -5, 127.777777778
965, 944.444444444, -5, 140.24691358
966, 944.444444444, 0, 115.308641975
967, 944.444444444, 0, 127.777777778
968, 944.444444444, 0, 140.24691358
969, 1000, -10, 132
970, 1000, -5, 120
971, 1000, -5, 132
972, 1000, -5, 144
973, 1000, 0, 132
974, 944.444444444, 5, 115.308641975
975, 944.444444444, 5, 127.777777778
976, 944.444444444, 5, 140.24691358
977, 944.444444444, 10, 115.308641975
978, 944.444444444, 10, 127.777777778
979, 944.444444444, 10, 140.24691358
980, 1000, 5, 120
981, 1000, 5, 132
982, 1000, 5, 144
983, 1000, 10, 132
984, 1055.55555556, -10, 124.197530864
985, 1055.55555556, -10, 135.777777778
986, 1055.55555556, -10, 147.358024691
987, 1055.55555556, -5, 124.197530864
988, 1055.55555556, -5, 135.777777778
989, 1055.55555556, -5, 147.358024691
990, 1055.55555556, 0, 124.197530864
991, 1055.55555556, 0, 135.777777778
992, 1055.55555556, 0, 147.358024691
993, 1111.11111111, -10, 139.555555556
994, 1111.11111111, -5, 128.395061728
995, 1111.11111111, -5, 139.555555556
996, 1111.11111111, -5, 150.716049383
997, 1111.11111111, 0, 139.555555556
998, 1055.55555556, 5, 124.197530864
999, 1055.55555556, 5, 135.777777778
1000, 1055.55555556, 5, 147.358024691
1001, 1055.55555556, 10, 124.197530864
1002, 1055.55555556, 10, 135.777777778
1003, 1055.55555556, 10, 147.358024691
1004, 1111.11111111, 5, 128.395061728
1005, 1111.11111111, 5, 139.555555556
1006, 1111.11111111, 5, 150.716049383
1007, 1111.11111111, 10, 139.555555556
1008, 1166.66666667, -10, 132.098765432
1009, 1166.66666667, -10, 142.888888889
1010, 1166.66666667, -10, 153.679012346
1011, 1166.66666667, -5, 132.098765432
1012, 1166.66666667, -5, 142.888888889
1013, 1166.66666667, -5, 153.679012346
1014, 1166.66666667, 0, 132.098765432
1015, 1166.66666667, 0, 142.888888889
1016, 1166.66666667, 0, 153.679012346
1017, 1222.22222222, -10, 146.222222222
1018, 1222.22222222, -5, 135.802469136
1019, 1222.22222222, -5, 146.222222222
1020, 1222.22222222, -5, 156.641975309
1021, 1222.22222222, 0, 146.222222222
1022, 1166.66666667, 5, 132.098765432
1023, 1166.66666667, 5, 142.888888889
1024, 1166.66666667, 5, 153.679012346
1025, 1166.66666667, 10, 132.098765432
1026, 1166.66666667, 10, 142.888888889
1027, 1166.66666667, 10, 153.679012346
1028, 1222.22222222, 5, 135.802469136
1029, 1222.22222222, 5, 146.222222222
1030, 1222.22222222, 5, 156.641975309
1031, 1222.22222222, 10, 146.222222222
1032, 1277.77777778, -10, 139.012345679
1033, 1277.77777778, -10, 149.111111111
1034, 1277.77777778, -10, 159.209876543
1035, 1277.77777778, -5, 139.012345679
1036, 1277.77777778, -5, 149.111111111
1037, 1277.77777778, -5, 159.209876543
1038, 1277.77777778, 0, 139.012345679
1039, 1277.77777778, 0, 149.111111111
1040, 1277.77777778, 0, 159.209876543
1041, 1333.33333333, -10, 152
1042, 1333.33333333, -5, 142.222222222
1043, 1333.33333333, -5, 152
1044, 1333.33333333, -5, 161.777777778
1045, 1333.33333333, 0, 152
1046, 1277.77777778, 5, 139.012345679
1047, 1277.77777778, 5, 149.111111111
1048, 1277.77777778, 5, 159.209876543
1049, 1277.77777778, 10, 139.012345679
1050, 1277.77777778, 10, 149.111111111
1051, 1277.77777778, 10, 159.209876543
1052, 1333.33333333, 5, 142.222222222
1053, 1333.33333333, 5, 152
1054, 1333.33333333, 5, 161.777777778
1055, 1333.33333333, 10, 152
1056, 1388.88888889, -10, 144.938271605
1057, 1388.88888889, -10, 154.444444444
1058, 1388.88888889, -10, 163.950617284
1059, 1388.88888889, -5, 144.938271605
1060, 1388.88888889, -5, 154.444444444
1061, 1388.88888889, -5, 163.950617284
1062, 1388.88888889, 0, 144.938271605
1063, 1388.88888889, 0, 154.444444444
1064, 1388.88888889, 0, 163.950617284
1065, 1444.44444444, -10, 156.888888889
1066, 1444.44444444, -5, 147.654320988
1067, 1444.44444444, -5, 156.888888889
1068, 1444.44444444, -5, 166.12345679
1069, 1444.44444444, 0, 156.888888889
1070, 1388.88888889, 5, 144.938271605
1071, 1388.88888889, 5, 154.444444444
1072, 1388.88888889, 5, 163.950617284
1073, 1388.88888889, 10, 144.938271605
1074, 1388.88888889, 10, 154.444444444
1075, 1388.88888889, 10, 163.950617284
1076, 1444.44444444, 5, 147.654320988
1077, 1444.44444444, 5, 156.888888889
1078, 1444.44444444, 5, 166.12345679
1079, 1444.44444444, 10, 156.888888889
1080, 1500, -10, 149.87654321
1081, 1500, -10, 158.888888889
1082, 1500, -10, 167.901234568
1083, 1500, -5, 149.87654321
1084, 1500, -5, 158.888888889
1085, 1500, -5, 167.901234568
1086, 1500, 0, 149.87654321
1087, 1500, 0, 158.888888889
1088, 1500, 0, 167.901234568
1089, 1555.55555556, -10, 160.888888889
1090, 1555.55555556, -5, 152.098765432
1091, 1555.55555556, -5, 160.888888889
1092, 1555.55555556, -5, 169.679012346
1093, 1555.55555556, 0, 160.888888889
1094, 1500, 5, 149.87654321
1095, 1500, 5, 158.888888889
1096, 1500, 5, 167.901234568
1097, 1500, 10, 149.87654321
1098, 1500, 10, 158.888888889
1099, 1500, 10, 167.901234568
1100, 1555.55555556, 5, 152.098765432
1101, 1555.55555556, 5, 160.888888889
1102, 1555.55555556, 5, 169.679012346
1103, 1555.55555556, 10, 160.888888889
1104, 1611.11111111, -10, 153.827160494
1105, 1611.11111111, -10, 162.444444444
1106, 1611.11111111, -10, 171.061728395
1107, 1611.11111111, -5, 153.827160494
1108, 1611.11111111, -5, 162.444444444
1109, 1611.11111111, -5, 171.061728395
1110, 1611.11111111, 0, 153.827160494
1111, 1611.11111111, 0, 162.444444444
1112, 1611.11111111, 0, 171.061728395
1113, 1666.66666667, -10, 164
1114, 1666.66666667, -5, 155.555555556
1115, 1666.66666667, -5, 164
1116, 1666.66666667, -5, 172.444444444
1117, 1666.66666667, 0, 164
1118, 1611.11111111, 5, 153.827160494
1119, 1611.11111111, 5, 162.444444444
1120, 1611.11111111, 5, 171.061728395
1121, 1611.11111111, 10, 153.827160494
1122, 1611.11111111, 10, 162.444444444
1123, 1611.11111111, 10, 171.061728395
1124, 1666.66666667, 5, 155.555555556
1125, 1666.66666667, 5, 164
1126, 1666.66666667, 5, 172.444444444
1127, 1666.66666667, 10, 164
1128, 1888.88888889, -10, 167.555555556
1129, 1888.88888889, -5, 159.50617284
1130, 1888.88888889, -5, 167.555555556
1131, 1888.88888889, -5, 175.604938272
1132, 1888.88888889, 0, 167.555555556
1133, 1944.44444444, -10, 159.75308642
1134, 1944.44444444, -10, 167.777777778
1135, 1944.44444444, -10, 175.802469136
1136, 1944.44444444, -5, 159.75308642
1137, 1944.44444444, -5, 167.777777778
1138, 1944.44444444, -5, 175.802469136
1139, 1944.44444444, 0, 159.75308642
1140, 1944.44444444, 0, 167.777777778
1141, 1944.44444444, 0, 175.802469136
1142, 2000, -10, 168
1143, 2000, -5, 160
1144, 2000, -5, 168
1145, 2000, -5, 176
1146, 2000, 0, 168
1147, 1888.88888889, -10, 183.654320988
1148, 1888.88888889, -5, 183.654320988
1149, 1888.88888889, -5, 191.703703704
1150, 1888.88888889, 0, 183.654320988
1151, 1944.44444444, -10, 183.827160494
1152, 1944.44444444, -10, 191.851851852
1153, 1944.44444444, -5, 183.827160494
1154, 1944.44444444, -5, 191.851851852
1155, 1944.44444444, 0, 183.827160494
1156, 1944.44444444, 0, 191.851851852
1157, 2000, -10, 184
1158, 2000, -5, 184
1159, 2000, -5, 192
1160, 2000, 0, 184
1161, 1888.88888889, 5, 159.50617284
1162, 1888.88888889, 5, 167.555555556
1163, 1888.88888889, 5, 175.604938272
1164, 1888.88888889, 10, 167.555555556
1165, 1944.44444444, 5, 159.75308642
1166, 1944.44444444, 5, 167.777777778
1167, 1944.44444444, 5, 175.802469136
1168, 1944.44444444, 10, 159.75308642
1169, 1944.44444444, 10, 167.777777778
1170, 1944.44444444, 10, 175.802469136
1171, 2000, 5, 160
1172, 2000, 5, 168
1173, 2000, 5, 176
1174, 2000, 10, 168
1175, 1888.88888889, 5, 183.654320988
1176, 1888.88888889, 5, 191.703703704
1177, 1888.88888889, 10, 183.654320988
1178, 1944.44444444, 5, 183.827160494
1179, 1944.44444444, 5, 191.851851852
1180, 1944.44444444, 10, 183.827160494
1181, 1944.44444444, 10, 191.851851852
1182, 2000, 5, 184
1183, 2000, 5, 192
1184, 2000, 10, 184
*ELEMENT, TYPE=C3D8, ELSET=EALL
1, 1, 2, 3, 4, 5, 6, 7, 8
2, 5, 6, 7, 8, 9, 10, 11, 12
3, 9, 10, 11, 12, 13, 14, 15, 16
4, 13, 14, 15, 16, 17, 18, 19, 20
5, 17, 18, 19, 20, 21, 22, 23, 24
6, 4, 3, 25, 26, 8, 7, 27, 28
7, 8, 7, 27, 28, 12, 11, 29, 30
8, 12, 11, 29, 30, 16, 15, 31, 32
9, 16, 15, 31, 32, 20, 19, 33, 34
10, 20, 19, 33, 34, 24, 23, 35, 36
11, 37, 38, 39, 40, 41, 42, 43, 44
12, 41, 42, 43, 44, 45, 46, 47, 48
13, 40, 39, 49, 50, 44, 43, 51, 52
14, 44, 43, 51, 52, 48, 47, 53, 54
15, 50, 49, 55, 56, 52, 51, 57, 58
16, 52, 51, 57, 58, 54, 53, 59, 60
17, 56, 55, 22, 21, 58, 57, 61, 62
18, 58, 57, 61, 62, 60, 59, 63, 64
19, 21, 22, 23, 24, 62, 61, 65, 66
20, 62, 61, 65, 66, 64, 63, 67, 68
21, 24, 23, 35, 36, 66, 65, 69, 70
22, 66, 65, 69, 70, 68, 67, 71, 72
23, 36, 35, 73, 74, 70, 69, 75, 76
24, 70, 69, 75, 76, 72, 71, 77, 78
25, 74, 73, 79, 80, 76, 75, 81, 82
26, 76, 75, 81, 82, 78, 77, 83, 84
27, 80, 79, 85, 86, 82, 81, 87, 88
28, 82, 81, 87, 88, 84, 83, 89, 90
29, 86, 85, 91, 92, 88, 87, 93, 94
30, 88, 87, 93, 94, 90, 89, 95, 96
31, 2, 97, 98, 3, 6, 99, 100, 7
32, 6, 99, 100, 7, 10, 101, 102, 11
33, 10, 101, 102, 11, 14, 103, 104, 15
34, 14, 103, 104, 15, 18, 105, 106, 19
35, 18, 105, 106, 19, 22, 107, 108, 23
36, 3, 98, 109, 25, 7, 100, 110, 27
37, 7, 100, 110, 27, 11, 102, 111, 29
38, 11, 102, 111, 29, 15, 104, 112, 31
39, 15, 104, 112, 31, 19, 106, 113, 33
40, 19, 106, 113, 33, 23, 108, 114, 35
41, 38, 115, 116, 39, 42, 117, 118, 43
42, 42, 117, 118, 43, 46, 119, 120, 47
43, 39, 116, 121, 49, 43, 118, 122, 51
44, 43, 118, 122, 51, 47, 120, 123, 53
45, 49, 121, 124, 55, 51, 122, 125, 57
46, 51, 122, 125, 57, 53, 123, 126, 59
47, 55, 124, 107, 22, 57, 125, 127, 61
48, 57, 125, 127, 61, 59, 126, 128, 63
49, 22, 107, 108, 23, 61, 127, 129, 65
50, 61, 127, 129, 65, 63, 128, 130, 67
51, 23, 108, 114, 35, 65, 129, 131, 69
52, 65, 129, 131, 69, 67, 130, 132, 71
53, 35, 114, 133, 73, 69, 131, 134, 75
54, 69, 131, 134, 75, 71, 132, 135, 77
55, 73, 133, 136, 79, 75, 134, 137, 81
56, 75, 134, 137, 81, 77, 135, 138, 83
57, 79, 136, 139, 85, 81, 137, 140, 87
58, 81, 137, 140, 87, 83, 138, 141, 89
59, 85, 139, 142, 91, 87, 140, 143, 93
60, 87, 140, 143, 93, 89, 141, 144, 95
61, 97, 145, 146, 98, 99, 147, 148, 100
62, 99, 147, 148, 100, 101, 149, 150, 102
63, 101, 149, 150, 102, 103, 151, 152, 104
64, 103, 151, 152, 104, 105, 153, 154, 106
65, 105, 153, 154, 106, 107, 155, 156, 108
66, 98, 146, 157, 109, 100, 148, 158, 110
67, 100, 148, 158, 110, 102, 150, 159, 111
68, 102, 150, 159, 111, 104, 152, 160, 112
69, 104, 152, 160, 112, 106, 154, 161, 113
70, 106, 154, 161, 113, 108, 156, 162, 114
71, 115, 163, 164, 116, 117, 165, 166, 118
72, 117, 165, 166, 118, 119, 167, 168, 120
73, 116, 164, 169, 121, 118, 166, 170, 122
74, 118, 166, 170, 122, 120, 168, 171, 123
75, 121, 169, 172, 124, 122, 170, 173, 125
76, 122, 170, 173, 125, 123, 171, 174, 126
77, 124, 172, 155, 107, 125, 173, 175, 127
78, 125, 173, 175, 127, 126, 174, 176, 128
79, 107, 155, 156, 108, 127, 175, 177, 129
80, 127, 175, 177, 129, 128, 176, 178, 130
81, 108, 156, 162, 114, 129, 177, 179, 131
82, 129, 177, 179, 131, 130, 178, 180, 132
83, 114, 162, 181, 133, 131, 179, 182, 134
84, 131, 179, 182, 134, 132, 180, 183, 135
85, 133, 181, 184, 136, 134, 182, 185, 137
86, 134, 182, 185, 137, 135, 183, 186, 138
87, 136, 184, 187, 139, 137, 185, 188, 140
88, 137, 185, 188, 140, 138, 186, 189, 141
89, 139, 187, 190, 142, 140, 188, 191, 143
90, 140, 188, 191, 143, 141, 189, 192, 144
91, 145, 193, 194, 146, 147, 195, 196, 148
92, 147, 195, 196, 148, 149, 197, 198, 150
93, 149, 197, 198, 150, 151, 199, 200, 152
94, 151, 199, 200, 152, 153, 201, 202, 154
95, 153, 201, 202, 154, 155, 203, 204, 156
96, 146, 194, 205, 157, 148, 196, 206, 158
97, 148, 196, 206, 158, 150, 198, 207, 159
98, 150, 198, 207, 159, 152, 200, 208, 160
99, 152, 200, 208, 160, 154, 202, 209, 161
100, 154, 202, 209, 161, 156, 204, 210, 162
101, 163, 211, 212, 164, 165, 213, 214, 166
102, 165, 213, 214, 166, 167, 215, 216, 168
103, 164, 212, 217, 169, 166, 214, 218, 170
104, 166, 214, 218, 170, 168, 216, 219, 171
105, 169, 217, 220, 172, 170, 218, 221, 173
106, 170, 218, 221, 173, 171, 219, 222, 174
107, 172, 220, 203, 155, 173, 221, 223, 175
108, 173, 221, 223, 175, 174, 222, 224, 176
109, 155, 203, 204, 156, 175, 223, 225, 177
110, 175, 223, 225, 177, 176, 224, 226, 178
111, 156, 204, 210, 162, 177, 225, 227, 179
112, 177, 225, 227, 179, 178, 226, 228, 180
113, 162, 210, 229, 181, 179, 227, 230, 182
114, 179, 227, 230, 182, 180, 228, 231, 183
115, 181, 229, 232, 184, 182, 230, 233, 185
116, 182, 230, 233, 185, 183, 231, 234, 186
117, 184, 232, 235, 187, 185, 233, 236, 188
118, 185, 233, 236, 188, 186, 234, 237, 189
119, 187, 235, 238, 190, 188, 236, 239, 191
120, 188, 236, 239, 191, 189, 237, 240, 192
121, 193, 241, 242, 194, 195, 243, 244, 196
122, 195, 243, 244, 196, 197, 245, 246, 198
123, 197, 245, 246, 198, 199, 247, 248, 200
124, 199, 247, 248, 200, 201, 249, 250, 202
125, 201, 249, 250, 202, 203, 251, 252, 204
126, 194, 242, 253, 205, 196, 244, 254, 206
127, 196, 244, 254, 206, 198, 246, 255, 207
128, 198, 246, 255, 207, 200, 248, 256, 208
129, 200, 248, 256, 208, 202, 250, 257, 209
130, 202, 250, 257, 209, 204, 252, 258, 210
131, 211, 259, 260, 212, 213, 261, 262, 214
132, 213, 261, 262, 214, 215, 263, 264, 216
133, 212, 260, 265, 217, 214, 262, 266, 218
134, 214, 262, 266, 218, 216, 264, 267, 219
135, 217, 265, 268, 220, 218, 266, 269, 221
136, 218, 266, 269, 221, 219, 267, 270, 222
137, 220, 268, 251, 203, 221, 269, 271, 223
138, 221, 269, 271, 223, 222, 270, 272, 224
139, 203, 251, 252, 204, 223, 271, 273, 225
140, 223, 271, 273, 225, 224, 272, 274, 226
141, 204, 252, 258, 210, 225, 273, 275, 227
142, 225, 273, 275, 227, 226, 274, 276, 228
143, 210, 258, 277, 229, 227, 275, 278, 230
144, 227, 275, 278, 230, 228, 276, 279, 231
145, 229, 277, 280, 232, 230, 278, 281, 233
146, 230, 278, 281, 233, 231, 279, 282, 234
147, 232, 280, 283, 235, 233, 281, 284, 236
148, 233, 281, 284, 236, 234, 282, 285, 237
149, 235, 283, 286, 238, 236, 284, 287, 239
150, 236, 284, 287, 239, 237, 285, 288, 240
151, 241, 289, 290, 242, 243, 291, 292, 244
152, 243, 291, 292, 244, 245, 293, 294, 246
153, 245, 293, 294, 246, 247, 295, 296, 248
154, 247, 295, 296, 248, 249, 297, 298, 250
155, 249, 297, 298, 250, 251, 299, 300, 252
156, 242, 290, 301, 253, 244, 292, 302, 254
157, 244, 292, 302, 254, 246, 294, 303, 255
158, 246, 294, 303, 255, 248, 296, 304, 256
159, 248, 296, 304, 256, 250, 298, 305, 257
160, 250, 298, 305, 257, 252, 300, 306, 258
161, 259, 307, 308, 260, 261, 309, 310, 262
162, 261, 309, 310, 262, 263, 311, 312, 264
163, 260, 308, 313, 265, 262, 310, 314, 266
164, 262, 310, 314, 266, 264, 312, 315, 267
165, 265, 313, 316, 268, 266, 314, 317, 269
166, 266, 314, 317, 269, 267, 315, 318, 270
167, 268, 316, 299, 251, 269, 317, 319, 271
168, 269, 317, 319, 271, 270, 318, 320, 272
169, 251, 299, 300, 252, 271, 319, 321, 273
170, 271, 319, 321, 273, 272, 320, 322, 274
171, 252, 300, 306, 258, 273, 321, 323, 275
172, 273, 321, 323, 275, 274, 322, 324, 276
173, 258, 306, 325, 277, 275, 323, 326, 278
174, 275, 323, 326, 278, 276, 324, 327, 279
175, 277, 325, 328, 280, 278, 326, 329, 281
176, 278, 326, 329, 281, 279, 327, 330, 282
177, 280, 328, 331, 283, 281, 329, 332, 284
178, 281, 329, 332, 284, 282, 330, 333, 285
179, 283, 331, 334, 286, 284, 332, 335, 287
180, 284, 332, 335, 287, 285, 333, 336, 288
181, 289, 337, 338, 290, 291, 339, 340, 292
182, 291, 339, 340, 292, 293, 341, 342, 294
183, 293, 341, 342, 294, 295, 343, 344, 296
184, 295, 343, 344, 296, 297, 345, 346, 298
185, 297, 345, 346, 298, 299, 347, 348, 300
186, 290, 918, 921, 914, 913, 919, 922, 915
187, 913, 919, 922, 915, 292, 920, 923, 916
188, 914, 921, 924, 301, 915, 922, 925, 917
189, 915, 922, 925, 917, 916, 923, 926, 302
190, 918, 338, 928, 921, 919, 927, 929, 922
191, 919, 927, 929, 922, 920, 340, 930, 923
192, 921, 928, 349, 924, 922, 929, 931, 925
193, 922, 929, 931, 925, 923, 930, 350, 926
194, 292, 340, 350, 302, 294, 342, 351, 303
195, 294, 342, 351, 303, 296, 344, 352, 304
196, 296, 344, 352, 304, 298, 346, 353, 305
197, 298, 346, 353, 305, 300, 348, 354, 306
198, 307, 355, 356, 308, 309, 357, 358, 310
199, 309, 357, 358, 310, 311, 359, 360, 312
200, 308, 356, 361, 313, 310, 358, 362, 314
201, 310, 358, 362, 314, 312, 360, 363, 315
202, 313, 361, 364, 316, 314, 362, 365, 317
203, 314, 362, 365, 317, 315, 363, 366, 318
204, 316, 364, 347, 299, 317, 365, 367, 319
205, 317, 365, 367, 319, 318, 366, 368, 320
206, 299, 347, 348, 300, 319, 367, 369, 321
207, 319, 367, 369, 321, 320, 368, 370, 322
208, 300, 348, 354, 306, 321, 369, 371, 323
209, 321, 369, 371, 323, 322, 370, 372, 324
210, 306, 354, 373, 325, 323, 371, 374, 326
211, 323, 371, 374, 326, 324, 372, 375, 327
212, 325, 373, 376, 328, 326, 374, 377, 329
213, 326, 374, 377, 329, 327, 375, 378, 330
214, 328, 376, 379, 331, 329, 377, 380, 332
215, 329, 377, 380, 332, 330, 378, 381, 333
216, 331, 379, 382, 334, 332, 380, 383, 335
217, 332, 380, 383, 335, 333, 381, 384, 336
218, 337, 936, 939, 933, 932, 937, 940, 934
219, 932, 937, 940, 934, 339, 938, 941, 935
220, 933, 939, 942, 338, 934, 940, 943, 927
221, 934, 940, 943, 927, 935, 941, 944, 340
222, 936, 385, 946, 939, 937, 945, 947, 940
223, 937, 945, 947, 940, 938, 387, 948, 941
224, 939, 946, 386, 942, 940, 947, 949, 943
225, 940, 947, 949, 943, 941, 948, 388, 944
226, 339, 387, 388, 340, 341, 389, 390, 342
227, 341, 389, 390, 342, 343, 391, 392, 344
228, 343, 391, 392, 344, 345, 393, 394, 346
229, 345, 393, 394, 346, 347, 395, 396, 348
230, 338, 942, 950, 928, 927, 943, 951, 929
231, 927, 943, 951, 929, 340, 944, 952, 930
232, 928, 950, 953, 349, 929, 951, 954, 931
233, 929, 951, 954, 931, 930, 952, 955, 350
234, 942, 386, 956, 950, 943, 949, 957, 951
235, 943, 949, 957, 951, 944, 388, 958, 952
236, 950, 956, 397, 953, 951, 957, 959, 954
237, 951, 957, 959, 954, 952, 958, 398, 955
238, 340, 388, 398, 350, 342, 390, 399, 351
239, 342, 390, 399, 351, 344, 392, 400, 352
240, 344, 392, 400, 352, 346, 394, 401, 353
241, 346, 394, 401, 353, 348, 396, 402, 354
242, 355, 403, 404, 356, 357, 405, 406, 358
243, 357, 405, 406, 358, 359, 407, 408, 360
244, 356, 404, 409, 361, 358, 406, 410, 362
245, 358, 406, 410, 362, 360, 408, 411, 363
246, 361, 409, 412, 364, 362, 410, 413, 365
247, 362, 410, 413, 365, 363, 411, 414, 366
248, 364, 412, 395, 347, 365, 413, 415, 367
249, 365, 413, 415, 367, 366, 414, 416, 368
250, 347, 395, 396, 348, 367, 415, 417, 369
251, 367, 415, 417, 369, 368, 416, 418, 370
252, 348, 396, 402, 354, 369, 417, 419, 371
253, 369, 417, 419, 371, 370, 418, 420, 372
254, 354, 402, 421, 373, 371, 419, 422, 374
255, 371, 419, 422, 374, 372, 420, 423, 375
256, 373, 421, 424, 376, 374, 422, 425, 377
257, 374, 422, 425, 377, 375, 423, 426, 378
258, 376, 424, 427, 379, 377, 425, 428, 380
259, 377, 425, 428, 380, 378, 426, 429, 381
260, 379, 427, 430, 382, 380, 428, 431, 383
261, 380, 428, 431, 383, 381, 429, 432, 384
262, 385, 960, 963, 946, 945, 961, 964, 947
263, 945, 961, 964, 947, 387, 962, 965, 948
264, 946, 963, 966, 386, 947, 964, 967, 949
265, 947, 964, 967, 949, 948, 965, 968, 388
266, 960, 433, 970, 963, 961, 969, 971, 964
267, 961, 969, 971, 964, 962, 435, 972, 965
268, 963, 970, 434, 966, 964, 971, 973, 967
269, 964, 971, 973, 967, 965, 972, 436, 968
270, 387, 435, 436, 388, 389, 437, 438, 390
271, 389, 437, 438, 390, 391, 439, 440, 392
272, 391, 439, 440, 392, 393, 441, 442, 394
273, 393, 441, 442, 394, 395, 443, 444, 396
274, 386, 966, 974, 956, 949, 967, 975, 957
275, 949, 967, 975, 957, 388, 968, 976, 958
276, 956, 974, 977, 397, 957, 975, 978, 959
277, 957, 975, 978, 959, 958, 976, 979, 398
278, 966, 434, 980, 974, 967, 973, 981, 975
279, 967, 973, 981, 975, 968, 436, 982, 976
280, 974, 980, 445, 977, 975, 981, 983, 978
281, 975, 981, 983, 978, 976, 982, 446, 979
282, 388, 436, 446, 398, 390, 438, 447, 399
283, 390, 438, 447, 399, 392, 440, 448, 400
284, 392, 440, 448, 400, 394, 442, 449, 401
285, 394, 442, 449, 401, 396, 444, 450, 402
286, 403, 451, 452, 404, 405, 453, 454, 406
287, 405, 453, 454, 406, 407, 455, 456, 408
288, 404, 452, 457, 409, 406, 454, 458, 410
289, 406, 454, 458, 410, 408, 456, 459, 411
290, 409, 457, 460, 412, 410, 458, 461, 413
291, 410, 458, 461, 413, 411, 459, 462, 414
292, 412, 460, 443, 395, 413, 461, 463, 415
293, 413, 461, 463, 415, 414, 462, 464, 416
294, 395, 443, 444, 396, 415, 463, 465, 417
295, 415, 463, 465, 417, 416, 464, 466, 418
296, 396, 444, 450, 402, 417, 465, 467, 419
297, 417, 465, 467, 419, 418, 466, 468, 420
298, 402, 450, 469, 421, 419, 467, 470, 422
299, 419, 467, 470, 422, 420, 468, 471, 423
300, 421, 469, 472, 424, 422, 470, 473, 425
301, 422, 470, 473, 425, 423, 471, 474, 426
302, 424, 472, 475, 427, 425, 473, 476, 428
303, 425, 473, 476, 428, 426, 474, 477, 429
304, 427, 475, 478, 430, 428, 476, 479, 431
305, 428, 476, 479, 431, 429, 477, 480, 432
306, 433, 984, 987, 970, 969, 985, 988, 971
307, 969, 985, 988, 971, 435, 986, 989, 972
308, 970, 987, 990, 434, 971, 988, 991, 973
309, 971, 988, 991, 973, 972, 989, 992, 436
310, 984, 481, 994, 987, 985, 993, 995, 988
311, 985, 993, 995, 988, 986, 483, 996, 989
312, 987, 994, 482, 990, 988, 995, 997, 991
313, 988, 995, 997, 991, 989, 996, 484, 992
314, 435, 483, 484, 436, 437, 485, 486, 438
315, 437, 485, 486, 438, 439, 487, 488, 440
316, 439, 487, 488, 440, 441, 489, 490, 442
317, 441, 489, 490, 442, 443, 491, 492, 444
318, 434, 990, 998, 980, 973, 991, 999, 981
319, 973, 991, 999, 981, 436, 992, 1000, 982
320, 980, 998, 1001, 445, 981, 999, 1002, 983
321, 981, 999, 1002, 983, 982, 1000, 1003, 446
322, 990, 482, 1004, 998, 991, 997, 1005, 999
323, 991, 997, 1005, 999, 992, 484, 1006, 1000
324, 998, 1004, 493, 1001, 999, 1005, 1007, 1002
325, 999, 1005, 1007, 1002, 1000, 1006, 494, 1003
326, 436, 484, 494, 446, 438, 486, 495, 447
327, 438, 486, 495, 447, 440, 488, 496, 448
328, 440, 488, 496, 448, 442, 490, 497, 449
329, 442, 490, 497, 449, 444, 492, 498, 450
330, 451, 499, 500, 452, 453, 501, 502, 454
331, 453, 501, 502, 454, 455, 503, 504, 456
332, 452, 500, 505, 457, 454, 502, 506, 458
333, 454, 502, 506, 458, 456, 504, 507, 459
334, 457, 505, 508, 460, 458, 506, 509, 461
335, 458, 506, 509, 461, 459, 507, 510, 462
336, 460, 508, 491, 443, 461, 509, 511, 463
337, 461, 509, 511, 463, 462, 510, 512, 464
338, 443, 491, 492, 444, 463, 511, 513, 465
339, 463, 511, 513, 465, 464, 512, 514, 466
340, 444, 492, 498, 450, 465, 513, 515, 467
341, 465, 513, 515, 467, 466, 514, 516, 468
342, 450, 498, 517, 469, 467, 515, 518, 470
343, 467, 515, 518, 470, 468, 516, 519, 471
344, 469, 517, 520, 472, 470, 518, 521, 473
345, 470, 518, 521, 473, 471, 519, 522, 474
346, 472, 520, 523, 475, 473, 521, 524, 476
347, 473, 521, 524, 476, 474, 522, 525, 477
348, 475, 523, 526, 478, 476, 524, 527, 479
349, 476, 524, 527, 479, 477, 525, 528, 480
350, 481, 1008, 1011, 994, 993, 1009, 1012, 995
351, 993, 1009, 1012, 995, 483, 1010, 1013, 996
352, 994, 1011, 1014, 482, 995, 1012, 1015, 997
353, 995, 1012, 1015, 997, 996, 1013, 1016, 484
354, 1008, 529, 1018, 1011, 1009, 1017, 1019, 1012
355, 1009, 1017, 1019, 1012, 1010, 531, 1020, 1013
356, 1011, 1018, 530, 1014, 1012, 1019, 1021, 1015
357, 1012, 1019, 1021, 1015, 1013, 1020, 532, 1016
358, 483, 531, 532, 484, 485, 533, 534, 486
359, 485, 533, 534, 486, 487, 535, 536, 488
360, 487, 535, 536, 488, 489, 537, 538, 490
361, 489, 537, 538, 490, 491, 539, 540, 492
362, 482, 1014, 1022, 1004, 997, 1015, 1023, 1005
363, 997, 1015, 1023, 1005, 484, 1016, 1024, 1006
364, 1004, 1022, 1025, 493, 1005, 1023, 1026, 1007
365, 1005, 1023, 1026, 1007, 1006, 1024, 1027, 494
366, 1014, 530, 1028, 1022, 1015, 1021, 1029, 1023
367, 1015, 1021, 1029, 1023, 1016, 532, 1030, 1024
368, 1022, 1028, 541, 1025, 1023, 1029, 1031, 1026
369, 1023, 1029, 1031, 1026, 1024, 1030, 542, 1027
370, 484, 532, 542, 494, 486, 534, 543, 495
371, 486, 534, 543, 495, 488, 536, 544, 496
372, 488, 536, 544, 496, 490, 538, 545, 497
373, 490, 538, 545, 497, 492, 540, 546, 498
374, 499, 547, 548, 500, 501, 549, 550, 502
375, 501, 549, 550, 502, 503, 551, 552, 504
376, 500, 548, 553, 505, 502, 550, 554, 506
377, 502, 550, 554, 506, 504, 552, 555, 507
378, 505, 553, 556, 508, 506, 554, 557, 509
379, 506, 554, 557, 509, 507, 555, 558, 510
380, 508, 556, 539, 491, 509, 557, 559, 511
381, 509, 557, 559, 511, 510, 558, 560, 512
382, 491, 539, 540, 492, 511, 559, 561, 513
383, 511, 559, 561, 513, 512, 560, 562, 514
384, 492, 540, 546, 498, 513, 561, 563, 515
385, 513, 561, 563, 515, 514, 562, 564, 516
386, 498, 546, 565, 517, 515, 563, 566, 518
387, 515, 563, 566, 518, 516, 564, 567, 519
388, 517, 565, 568, 520, 518, 566, 569, 521
389, 518, 566, 569, 521, 519, 567, 570, 522
390, 520, 568, 571, 523, 521, 569, 572, 524
391, 521, 569, 572, 524, 522, 570, 573, 525
392, 523, 571, 574, 526, 524, 572, 575, 527
393, 524, 572, 575, 527, 525, 573, 576, 528
394, 529, 1032, 1035, 1018, 1017, 1033, 1036, 1019
395, 1017, 1033, 1036, 1019, 531, 1034, 1037, 1020
396, 1018, 1035, 1038, 530, 1019, 1036, 1039, 1021
397, 1019, 1036, 1039, 1021, 1020, 1037, 1040, 532
398, 1032, 577, 1042, 1035, 1033, 1041, 1043, 1036
399, 1033, 1041, 1043, 1036, 1034, 579, 1044, 1037
400, 1035, 1042, 578, 1038, 1036, 1043, 1045, 1039
401, 1036, 1043, 1045, 1039, 1037, 1044, 580, 1040
402, 531, 579, 580, 532, 533, 581, 582, 534
403, 533, 581, 582, 534, 535, 583, 584, 536
404, 535, 583, 584, 536, 537, 585, 586, 538
405, 537, 585, 586, 538, 539, 587, 588, 540
406, 530, 1038, 1046, 1028, 1021, 1039, 1047, 1029
407, 1021, 1039, 1047, 1029, 532, 1040, 1048, 1030
408, 1028, 1046, 1049, 541, 1029, 1047, 1050, 1031
409, 1029, 1047, 1050, 1031, 1030, 1048, 1051, 542
410, 1038, 578, 1052, 1046, 1039, 1045, 1053, 1047
411, 1039, 1045, 1053, 1047, 1040, 580, 1054, 1048
412, 1046, 1052, 589, 1049, 1047, 1053, 1055, 1050
413, 1047, 1053, 1055, 1050, 1048, 1054, 590, 1051
414, 532, 580, 590, 542, 534, 582, 591, 543
415, 534, 582, 591, 543, 536, 584, 592, 544
416, 536, 584, 592, 544, 538, 586, 593, 545
417, 538, 586, 593, 545, 540, 588, 594, 546
418, 547, 595, 596, 548, 549, 597, 598, 550
419, 549, 597, 598, 550, 551, 599, 600, 552
420, 548, 596, 601, 553, 550, 598, 602, 554
421, 550, 598, 602, 554, 552, 600, 603, 555
422, 553, 601, 604, 556, 554, 602, 605, 557
423, 554, 602, 605, 557, 555, 603, 606, 558
424, 556, 604, 587, 539, 557, 605, 607, 559
425, 557, 605, 607, 559, 558, 606, 608, 560
426, 539, 587, 588, 540, 559, 607, 609, 561
427, 559, 607, 609, 561, 560, 608, 610, 562
428, 540, 588, 594, 546, 561, 609, 611, 563
429, 561, 609, 611, 563, 562, 610, 612, 564
430, 546, 594, 613, 565, 563, 611, 614, 566
431, 563, 611, 614, 566, 564, 612, 615, 567
432, 565, 613, 616, 568, 566, 614, 617, 569
433, 566, 614, 617, 569, 567, 615, 618, 570
434, 568, 616, 619, 571, 569, 617, 620, 572
435, 569, 617, 620, 572, 570, 618, 621, 573
436, 571, 619, 622, 574, 572, 620, 623, 575
437, 572, 620, 623, 575, 573, 621, 624, 576
438, 577, 1056, 1059, 1042, 1041, 1057, 1060, 1043
439, 1041, 1057, 1060, 1043, 579, 1058, 1061, 1044
440, 1042, 1059, 1062, 578, 1043, 1060, 1063, 1045
441, 1043, 1060, 1063, 1045, 1044, 1061, 1064, 580
442, 1056, 625, 1066, 1059, 1057, 1065, 1067, 1060
443, 1057, 1065, 1067, 1060, 1058, 627, 1068, 1061
444, 1059, 1066, 626, 1062, 1060, 1067, 1069, 1063
445, 1060, 1067, 1069, 1063, 1061, 1068, 628, 1064
446, 579, 627, 628, 580, 581, 629, 630, 582
447, 581, 629, 630, 582, 583, 631, 632, 584
448, 583, 631, 632, 584, 585, 633, 634, 586
449, 585, 633, 634, 586, 587, 635, 636, 588
450, 578, 1062, 1070, 1052, 1045, 1063, 1071, 1053
451, 1045, 1063, 1071, 1053, 580, 1064, 1072, 1054
452, 1052, 1070, 1073, 589, 1053, 1071, 1074, 1055
453, 1053, 1071, 1074, 1055, 1054, 1072, 1075, 590
454, 1062, 626, 1076, 1070, 1063, 1069, 1077, 1071
455, 1063, 1069, 1077, 1071, 1064, 628, 1078, 1072
456, 1070, 1076, 637, 1073, 1071, 1077, 1079, 1074
457, 1071, 1077, 1079, 1074, 1072, 1078, 638, 1075
458, 580, 628, 638, 590, 582, 630, 639, 591
459, 582, 630, 639, 591, 584, 632, 640, 592
460, 584, 632, 640, 592, 586, 634, 641, 593
461, 586, 634, 641, 593, 588, 636, 642, 594
462, 595, 643, 644, 596, 597, 645, 646, 598
463, 597, 645, 646, 598, 599, 647, 648, 600
464, 596, 644, 649, 601, 598, 646, 650, 602
465, 598, 646, 650, 602, 600, 648, 651, 603
466, 601, 649, 652, 604, 602, 650, 653, 605
467, 602, 650, 653, 605, 603, 651, 654, 606
468, 604, 652, 635, 587, 605, 653, 655, 607
469, 605, 653, 655, 607, 606, 654, 656, 608
470, 587, 635, 636, 588, 607, 655, 657, 609
471, 607, 655, 657, 609, 608, 656, 658, 610
472, 588, 636, 642, 594, 609, 657, 659, 611
473, 609, 657, 659, 611, 610, 658, 660, 612
474, 594, 642, 661, 613, 611, 659, 662, 614
475, 611, 659, 662, 614, 612, 660, 663, 615
476, 613, 661, 664, 616, 614, 662, 665, 617
477, 614, 662, 665, 617, 615, 663, 666, 618
478, 616, 664, 667, 619, 617, 665, 668, 620
479, 617, 665, 668, 620, 618, 666, 669, 621
480, 619, 667, 670, 622, 620, 668, 671, 623
481, 620, 668, 671, 623, 621, 669, 672, 624
482, 625, 1080, 1083, 1066, 1065, 1081, 1084, 1067
483, 1065, 1081, 1084, 1067, 627, 1082, 1085, 1068
484, 1066, 1083, 1086, 626, 1067, 1084, 1087, 1069
485, 1067, 1084, 1087, 1069, 1068, 1085, 1088, 628
486, 1080, 673, 1090, 1083, 1081, 1089, 1091, 1084
487, 1081, 1089, 1091, 1084, 1082, 675, 1092, 1085
488, 1083, 1090, 674, 1086, 1084, 1091, 1093, 1087
489, 1084, 1091, 1093, 1087, 1085, 1092, 676, 1088
490, 627, 675, 676, 628, 629, 677, 678, 630
491, 629, 677, 678, 630, 631, 679, 680, 632
492, 631, 679, 680, 632, 633, 681, 682, 634
493, 633, 681, 682, 634, 635, 683, 684, 636
494, 626, 1086, 1094, 1076, 1069, 1087, 1095, 1077
495, 1069, 1087, 1095, 1077, 628, 1088, 1096, 1078
496, 1076, 1094, 1097, 637, 1077, 1095, 1098, 1079
497, 1077, 1095, 1098, 1079, 1078, 1096, 1099, 638
498, 1086, 674, 1100, 1094, 1087, 1093, 1101, 1095
499, 1087, 1093, 1101, 1095, 1088, 676, 1102, 1096
500, 1094, 1100, 685, 1097, 1095, 1101, 1103, 1098
501, 1095, 1101, 1103, 1098, 1096, 1102, 686, 1099
502, 628, 676, 686, 638, 630, 678, 687, 639
503, 630, 678, 687, 639, 632, 680, 688, 640
504, 632, 680, 688, 640, 634, 682, 689, 641
505, 634, 682, 689, 641, 636, 684, 690, 642
506, 643, 691, 692, 644, 645, 693, 694, 646
507, 645, 693, 694, 646, 647, 695, 696, 648
508, 644, 692, 697, 649, 646, 694, 698, 650
509, 646, 694, 698, 650, 648, 696, 699, 651
510, 649, 697, 700, 652, 650, 698, 701, 653
511, 650, 698, 701, 653, 651, 699, 702, 654
512, 652, 700, 683, 635, 653, 701, 703, 655
513, 653, 701, 703, 655, 654, 702, 704, 656
514, 635, 683, 684, 636, 655, 703, 705, 657
515, 655, 703, 705, 657, 656, 704, 706, 658
516, 636, 684, 690, 642, 657, 705, 707, 659
517, 657, 705, 707, 659, 658, 706, 708, 660
518, 642, 690, 709, 661, 659, 707, 710, 662
519, 659, 707, 710, 662, 660, 708, 711, 663
520, 661, 709, 712, 664, 662, 710, 713, 665
521, 662, 710, 713, 665, 663, 711, 714, 666
522, 664, 712, 715, 667, 665, 713, 716, 668
523, 665, 713, 716, 668, 666, 714, 717, 669
524, 667, 715, 718, 670, 668, 716, 719, 671
525, 668, 716, 719, 671, 669, 717, 720, 672
526, 673, 1104, 1107, 1090, 1089, 1105, 1108, 1091
527, 1089, 1105, 1108, 1091, 675, 1106, 1109, 1092
528, 1090, 1107, 1110, 674, 1091, 1108, 1111, 1093
529, 1091, 1108, 1111, 1093, 1092, 1109, 1112, 676
530, 1104, 721, 1114, 1107, 1105, 1113, 1115, 1108
531, 1105, 1113, 1115, 1108, 1106, 723, 1116, 1109
532, 1107, 1114, 722, 1110, 1108, 1115, 1117, 1111
533, 1108, 1115, 1117, 1111, 1109, 1116, 724, 1112
534, 675, 723, 724, 676, 677, 725, 726, 678
535, 677, 725, 726, 678, 679, 727, 728, 680
536, 679, 727, 728, 680, 681, 729, 730, 682
537, 681, 729, 730, 682, 683, 731, 732, 684
538, 674, 1110, 1118, 1100, 1093, 1111, 1119, 1101
539, 1093, 1111, 1119, 1101, 676, 1112, 1120, 1102
540, 1100, 1118, 1121, 685, 1101, 1119, 1122, 1103
541, 1101, 1119, 1122, 1103, 1102, 1120, 1123, 686
542, 1110, 722, 1124, 1118, 1111, 1117, 1125, 1119
543, 1111, 1117, 1125, 1119, 1112, 724, 1126, 1120
544, 1118, 1124, 733, 1121, 1119, 1125, 1127, 1122
545, 1119, 1125, 1127, 1122, 1120, 1126, 734, 1123
546, 676, 724, 734, 686, 678, 726, 735, 687
547, 678, 726, 735, 687, 680, 728, 736, 688
548, 680, 728, 736, 688, 682, 730, 737, 689
549, 682, 730, 737, 689, 684, 732, 738, 690
550, 691, 739, 740, 692, 693, 741, 742, 694
551, 693, 741, 742, 694, 695, 743, 744, 696
552, 692, 740, 745, 697, 694, 742, 746, 698
553, 694, 742, 746, 698, 696, 744, 747, 699
554, 697, 745, 748, 700, 698, 746, 749, 701
555, 698, 746, 749, 701, 699, 747, 750, 702
556, 700, 748, 731, 683, 701, 749, 751, 703
557, 701, 749, 751, 703, 702, 750, 752, 704
558, 683, 731, 732, 684, 703, 751, 753, 705
559, 703, 751, 753, 705, 704, 752, 754, 706
560, 684, 732, 738, 690, 705, 753, 755, 707
561, 705, 753, 755, 707, 706, 754, 756, 708
562, 690, 738, 757, 709, 707, 755, 758, 710
563, 707, 755, 758, 710, 708, 756, 759, 711
564, 709, 757, 760, 712, 710, 758, 761, 713
565, 710, 758, 761, 713, 711, 759, 762, 714
566, 712, 760, 763, 715, 713, 761, 764, 716
567, 713, 761, 764, 716, 714, 762, 765, 717
568, 715, 763, 766, 718, 716, 764, 767, 719
569, 716, 764, 767, 719, 717, 765, 768, 720
570, 721, 769, 770, 722, 723, 771, 772, 724
571, 723, 771, 772, 724, 725, 773, 774, 726
572, 725, 773, 774, 726, 727, 775, 776, 728
573, 727, 775, 776, 728, 729, 777, 778, 730
574, 729, 777, 778, 730, 731, 779, 780, 732
575, 722, 770, 781, 733, 724, 772, 782, 734
576, 724, 772, 782, 734, 726, 774, 783, 735
577, 726, 774, 783, 735, 728, 776, 784, 736
578, 728, 776, 784, 736, 730, 778, 785, 737
579, 730, 778, 785, 737, 732, 780, 786, 738
580, 739, 787, 788, 740, 741, 789, 790, 742
581, 741, 789, 790, 742, 743, 791, 792, 744
582, 740, 788, 793, 745, 742, 790, 794, 746
583, 742, 790, 794, 746, 744, 792, 795, 747
584, 745, 793, 796, 748, 746, 794, 797, 749
585, 746, 794, 797, 749, 747, 795, 798, 750
586, 748, 796, 779, 731, 749, 797, 799, 751
587, 749, 797, 799, 751, 750, 798, 800, 752
588, 731, 779, 780, 732, 751, 799, 801, 753
589, 751, 799, 801, 753, 752, 800, 802, 754
590, 732, 780, 786, 738, 753, 801, 803, 755
591, 753, 801, 803, 755, 754, 802, 804, 756
592, 738, 786, 805, 757, 755, 803, 806, 758
593, 755, 803, 806, 758, 756, 804, 807, 759
594, 757, 805, 808, 760, 758, 806, 809, 761
595, 758, 806, 809, 761, 759, 807, 810, 762
596, 760, 808, 811, 763, 761, 809, 812, 764
597, 761, 809, 812, 764, 762, 810, 813, 765
598, 763, 811, 814, 766, 764, 812, 815, 767
599, 764, 812, 815, 767, 765, 813, 816, 768
600, 769, 817, 818, 770, 771, 819, 820, 772
601, 771, 819, 820, 772, 773, 821, 822, 774
602, 773, 821, 822, 774, 775, 823, 824, 776
603, 775, 823, 824, 776, 777, 825, 826, 778
604, 777, 825, 826, 778, 779, 827, 828, 780
605, 770, 818, 829, 781, 772, 820, 830, 782
606, 772, 820, 830, 782, 774, 822, 831, 783
607, 774, 822, 831, 783, 776, 824, 832, 784
608, 776, 824, 832, 784, 778, 826, 833, 785
609, 778, 826, 833, 785, 780, 828, 834, 786
610, 787, 835, 836, 788, 789, 837, 838, 790
611, 789, 837, 838, 790, 791, 839, 840, 792
612, 788, 836, 841, 793, 790, 838, 842, 794
613, 790, 838, 842, 794, 792, 840, 843, 795
614, 793, 841, 844, 796, 794, 842, 845, 797
615, 794, 842, 845, 797, 795, 843, 846, 798
616, 796, 844, 827, 779, 797, 845, 847, 799
617, 797, 845, 847, 799, 798, 846, 848, 800
618, 779, 827, 828, 780, 799, 847, 849, 801
619, 799, 847, 849, 801, 800, 848, 850, 802
620, 780, 828, 834, 786, 801, 849, 851, 803
621, 801, 849, 851, 803, 802, 850, 852, 804
622, 786, 834, 853, 805, 803, 851, 854, 806
623, 803, 851, 854, 806, 804, 852, 855, 807
624, 805, 853, 856, 808, 806, 854, 857, 809
625, 806, 854, 857, 809, 807, 855, 858, 810
626, 808, 856, 859, 811, 809, 857, 860, 812
627, 809, 857, 860, 812, 810, 858, 861, 813
628, 811, 859, 862, 814, 812, 860, 863, 815
629, 812, 860, 863, 815, 813, 861, 864, 816
630, 817, 1133, 1136, 1129, 1128, 1134, 1137, 1130
631, 1128, 1134, 1137, 1130, 819, 1135, 1138, 1131
632, 1129, 1136, 1139, 818, 1130, 1137, 1140, 1132
633, 1130, 1137, 1140, 1132, 1131, 1138, 1141, 820
634, 1133, 865, 1143, 1136, 1134, 1142, 1144, 1137
635, 1134, 1142, 1144, 1137, 1135, 867, 1145, 1138
636, 1136, 1143, 866, 1139, 1137, 1144, 1146, 1140
637, 1137, 1144, 1146, 1140, 1138, 1145, 868, 1141
638, 819, 1135, 1138, 1131, 1147, 1151, 1153, 1148
639, 1147, 1151, 1153, 1148, 821, 1152, 1154, 1149
640, 1131, 1138, 1141, 820, 1148, 1153, 1155, 1150
641, 1148, 1153, 1155, 1150, 1149, 1154, 1156, 822
642, 1135, 867, 1145, 1138, 1151, 1157, 1158, 1153
643, 1151, 1157, 1158, 1153, 1152, 869, 1159, 1154
644, 1138, 1145, 868, 1141, 1153, 1158, 1160, 1155
645, 1153, 1158, 1160, 1155, 1154, 1159, 870, 1156
646, 821, 869, 870, 822, 823, 871, 872, 824
647, 823, 871, 872, 824, 825, 873, 874, 826
648, 825, 873, 874, 826, 827, 875, 876, 828
649, 818, 1139, 1165, 1161, 1132, 1140, 1166, 1162
650, 1132, 1140, 1166, 1162, 820, 1141, 1167, 1163
651, 1161, 1165, 1168, 829, 1162, 1166, 1169, 1164
652, 1162, 1166, 1169, 1164, 1163, 1167, 1170, 830
653, 1139, 866, 1171, 1165, 1140, 1146, 1172, 1166
654, 1140, 1146, 1172, 1166, 1141, 868, 1173, 1167
655, 1165, 1171, 877, 1168, 1166, 1172, 1174, 1169
656, 1166, 1172, 1174, 1169, 1167, 1173, 878, 1170
657, 820, 1141, 1167, 1163, 1150, 1155, 1178, 1175
658, 1150, 1155, 1178, 1175, 822, 1156, 1179, 1176
659, 1163, 1167, 1170, 830, 1175, 1178, 1180, 1177
660, 1175, 1178, 1180, 1177, 1176, 1179, 1181, 831
661, 1141, 868, 1173, 1167, 1155, 1160, 1182, 1178
662, 1155, 1160, 1182, 1178, 1156, 870, 1183, 1179
663, 1167, 1173, 878, 1170, 1178, 1182, 1184, 1180
664, 1178, 1182, 1184, 1180, 1179, 1183, 879, 1181
665, 822, 870, 879, 831, 824, 872, 880, 832
666, 824, 872, 880, 832, 826, 874, 881, 833
667, 826, 874, 881, 833, 828, 876, 882, 834
668, 835, 883, 884, 836, 837, 885, 886, 838
669, 837, 885, 886, 838, 839, 887, 888, 840
670, 836, 884, 889, 841, 838, 886, 890, 842
671, 838, 886, 890, 842, 840, 888, 891, 843
672, 841, 889, 892, 844, 842, 890, 893, 845
673, 842, 890, 893, 845, 843, 891, 894, 846
674, 844, 892, 875, 827, 845, 893, 895, 847
675, 845, 893, 895, 847, 846, 894, 896, 848
676, 827, 875, 876, 828, 847, 895, 897, 849
677, 847, 895, 897, 849, 848, 896, 898, 850
678, 828, 876, 882, 834, 849, 897, 899, 851
679, 849, 897, 899, 851, 850, 898, 900, 852
680, 834, 882, 901, 853, 851, 899, 902, 854
681, 851, 899, 902, 854, 852, 900, 903, 855
682, 853, 901, 904, 856, 854, 902, 905, 857
683, 854, 902, 905, 857, 855, 903, 906, 858
684, 856, 904, 907, 859, 857, 905, 908, 860
685, 857, 905, 908, 860, 858, 906, 909, 861
686, 859, 907, 910, 862, 860, 908, 911, 863
687, 860, 908, 911, 863, 861, 909, 912, 864
*NSET, NSET=CLAMP
1, 4, 5, 8, 9, 12, 13, 16, 17, 20, 21, 24, 26, 28, 30, 32
34, 36, 37, 40, 41, 44, 45, 48, 50, 52, 54, 56, 58, 60, 62, 64
66, 68, 70, 72, 74, 76, 78, 80, 82, 84, 86, 88, 90, 92, 94, 96
*NSET, NSET=TIP_TOP
887, 888, 891, 894, 896, 898, 900, 903, 906, 909, 912
*MATERIAL, NAME=STEEL
*ELASTIC
210000, 0.3
*SOLID SECTION, ELSET=EALL, MATERIAL=STEEL
*EQUATION
3
913, 1, 1.0, 290, 1, -0.5, 292, 1, -0.5
*EQUATION
3
913, 2, 1.0, 290, 2, -0.5, 292, 2, -0.5
*EQUATION
3
913, 3, 1.0, 290, 3, -0.5, 292, 3, -0.5
*EQUATION
3
914, 1, 1.0, 290, 1, -0.5, 301, 1, -0.5
*EQUATION
3
914, 2, 1.0, 290, 2, -0.5, 301, 2, -0.5
*EQUATION
3
914, 3, 1.0, 290, 3, -0.5, 301, 3, -0.5
*EQUATION
5
915, 1, 1.0, 290, 1, -0.25, 301, 1, -0.25, 302, 1, -0.25, 292, 1, -0.25
*EQUATION
5
915, 2, 1.0, 290, 2, -0.25, 301, 2, -0.25, 302, 2, -0.25, 292, 2, -0.25
*EQUATION
5
915, 3, 1.0, 290, 3, -0.25, 301, 3, -0.25, 302, 3, -0.25, 292, 3, -0.25
*EQUATION
3
916, 1, 1.0, 292, 1, -0.5, 302, 1, -0.5
*EQUATION
3
916, 2, 1.0, 292, 2, -0.5, 302, 2, -0.5
*EQUATION
3
916, 3, 1.0, 292, 3, -0.5, 302, 3, -0.5
*EQUATION
3
917, 1, 1.0, 301, 1, -0.5, 302, 1, -0.5
*EQUATION
3
917, 2, 1.0, 301, 2, -0.5, 302, 2, -0.5
*EQUATION
3
917, 3, 1.0, 301, 3, -0.5, 302, 3, -0.5
*EQUATION
3
918, 1, 1.0, 290, 1, -0.5, 338, 1, -0.5
*EQUATION
3
918, 2, 1.0, 290, 2, -0.5, 338, 2, -0.5
*EQUATION
3
918, 3, 1.0, 290, 3, -0.5, 338, 3, -0.5
*EQUATION
5
919, 1, 1.0, 290, 1, -0.25, 338, 1, -0.25, 340, 1, -0.25, 292, 1, -0.25
*EQUATION
5
919, 2, 1.0, 290, 2, -0.25, 338, 2, -0.25, 340, 2, -0.25, 292, 2, -0.25
*EQUATION
5
919, 3, 1.0, 290, 3, -0.25, 338, 3, -0.25, 340, 3, -0.25, 292, 3, -0.25
*EQUATION
3
920, 1, 1.0, 292, 1, -0.5, 340, 1, -0.5
*EQUATION
3
920, 2, 1.0, 292, 2, -0.5, 340, 2, -0.5
*EQUATION
3
920, 3, 1.0, 292, 3, -0.5, 340, 3, -0.5
*EQUATION
5
923, 1, 1.0, 292, 1, -0.25, 340, 1, -0.25, 350, 1, -0.25, 302, 1, -0.25
*EQUATION
5
923, 2, 1.0, 292, 2, -0.25, 340, 2, -0.25, 350, 2, -0.25, 302, 2, -0.25
*EQUATION
5
923, 3, 1.0, 292, 3, -0.25, 340, 3, -0.25, 350, 3, -0.25, 302, 3, -0.25
*EQUATION
3
926, 1, 1.0, 302, 1, -0.5, 350, 1, -0.5
*EQUATION
3
926, 2, 1.0, 302, 2, -0.5, 350, 2, -0.5
*EQUATION
3
926, 3, 1.0, 302, 3, -0.5, 350, 3, -0.5
*EQUATION
3
927, 1, 1.0, 338, 1, -0.5, 340, 1, -0.5
*EQUATION
3
927, 2, 1.0, 338, 2, -0.5, 340, 2, -0.5
*EQUATION
3
927, 3, 1.0, 338, 3, -0.5, 340, 3, -0.5
*EQUATION
3
930, 1, 1.0, 340, 1, -0.5, 350, 1, -0.5
*EQUATION
3
930, 2, 1.0, 340, 2, -0.5, 350, 2, -0.5
*EQUATION
3
930, 3, 1.0, 340, 3, -0.5, 350, 3, -0.5
*EQUATION
3
932, 1, 1.0, 337, 1, -0.5, 339, 1, -0.5
*EQUATION
3
932, 2, 1.0, 337, 2, -0.5, 339, 2, -0.5
*EQUATION
3
932, 3, 1.0, 337, 3, -0.5, 339, 3, -0.5
*EQUATION
3
933, 1, 1.0, 337, 1, -0.5, 338, 1, -0.5
*EQUATION
3
933, 2, 1.0, 337, 2, -0.5, 338, 2, -0.5
*EQUATION
3
933, 3, 1.0, 337, 3, -0.5, 338, 3, -0.5
*EQUATION
5
934, 1, 1.0, 337, 1, -0.25, 338, 1, -0.25, 340, 1, -0.25, 339, 1, -0.25
*EQUATION
5
934, 2, 1.0, 337, 2, -0.25, 338, 2, -0.25, 340, 2, -0.25, 339, 2, -0.25
*EQUATION
5
934, 3, 1.0, 337, 3, -0.25, 338, 3, -0.25, 340, 3, -0.25, 339, 3, -0.25
*EQUATION
3
935, 1, 1.0, 339, 1, -0.5, 340, 1, -0.5
*EQUATION
3
935, 2, 1.0, 339, 2, -0.5, 340, 2, -0.5
*EQUATION
3
935, 3, 1.0, 339, 3, -0.5, 340, 3, -0.5
*EQUATION
3
938, 1, 1.0, 339, 1, -0.5, 387, 1, -0.5
*EQUATION
3
938, 2, 1.0, 339, 2, -0.5, 387, 2, -0.5
*EQUATION
3
938, 3, 1.0, 339, 3, -0.5, 387, 3, -0.5
*EQUATION
5
941, 1, 1.0, 339, 1, -0.25, 387, 1, -0.25, 388, 1, -0.25, 340, 1, -0.25
*EQUATION
5
941, 2, 1.0, 339, 2, -0.25, 387, 2, -0.25, 388, 2, -0.25, 340, 2, -0.25
*EQUATION
5
941, 3, 1.0, 339, 3, -0.25, 387, 3, -0.25, 388, 3, -0.25, 340, 3, -0.25
*EQUATION
3
944, 1, 1.0, 340, 1, -0.5, 388, 1, -0.5
*EQUATION
3
944, 2, 1.0, 340, 2, -0.5, 388, 2, -0.5
*EQUATION
3
944, 3, 1.0, 340, 3, -0.5, 388, 3, -0.5
*EQUATION
3
948, 1, 1.0, 387, 1, -0.5, 388, 1, -0.5
*EQUATION
3
948, 2, 1.0, 387, 2, -0.5, 388, 2, -0.5
*EQUATION
3
948, 3, 1.0, 387, 3, -0.5, 388, 3, -0.5
*EQUATION
5
952, 1, 1.0, 340, 1, -0.25, 388, 1, -0.25, 398, 1, -0.25, 350, 1, -0.25
*EQUATION
5
952, 2, 1.0, 340, 2, -0.25, 388, 2, -0.25, 398, 2, -0.25, 350, 2, -0.25
*EQUATION
5
952, 3, 1.0, 340, 3, -0.25, 388, 3, -0.25, 398, 3, -0.25, 350, 3, -0.25
*EQUATION
3
955, 1, 1.0, 350, 1, -0.5, 398, 1, -0.5
*EQUATION
3
955, 2, 1.0, 350, 2, -0.5, 398, 2, -0.5
*EQUATION
3
955, 3, 1.0, 350, 3, -0.5, 398, 3, -0.5
*EQUATION
3
958, 1, 1.0, 388, 1, -0.5, 398, 1, -0.5
*EQUATION
3
958, 2, 1.0, 388, 2, -0.5, 398, 2, -0.5
*EQUATION
3
958, 3, 1.0, 388, 3, -0.5, 398, 3, -0.5
*EQUATION
3
962, 1, 1.0, 387, 1, -0.5, 435, 1, -0.5
*EQUATION
3
962, 2, 1.0, 387, 2, -0.5, 435, 2, -0.5
*EQUATION
3
962, 3, 1.0, 387, 3, -0.5, 435, 3, -0.5
*EQUATION
5
965, 1, 1.0, 387, 1, -0.25, 435, 1, -0.25, 436, 1, -0.25, 388, 1, -0.25
*EQUATION
5
965, 2, 1.0, 387, 2, -0.25, 435, 2, -0.25, 436, 2, -0.25, 388, 2, -0.25
*EQUATION
5
965, 3, 1.0, 387, 3, -0.25, 435, 3, -0.25, 436, 3, -0.25, 388, 3, -0.25
*EQUATION
3
968, 1, 1.0, 388, 1, -0.5, 436, 1, -0.5
*EQUATION
3
968, 2, 1.0, 388, 2, -0.5, 436, 2, -0.5
*EQUATION
3
968, 3, 1.0, 388, 3, -0.5, 436, 3, -0.5
*EQUATION
3
972, 1, 1.0, 435, 1, -0.5, 436, 1, -0.5
*EQUATION
3
972, 2, 1.0, 435, 2, -0.5, 436, 2, -0.5
*EQUATION
3
972, 3, 1.0, 435, 3, -0.5, 436, 3, -0.5
*EQUATION
5
976, 1, 1.0, 388, 1, -0.25, 436, 1, -0.25, 446, 1, -0.25, 398, 1, -0.25
*EQUATION
5
976, 2, 1.0, 388, 2, -0.25, 436, 2, -0.25, 446, 2, -0.25, 398, 2, -0.25
*EQUATION
5
976, 3, 1.0, 388, 3, -0.25, 436, 3, -0.25, 446, 3, -0.25, 398, 3, -0.25
*EQUATION
3
979, 1, 1.0, 398, 1, -0.5, 446, 1, -0.5
*EQUATION
3
979, 2, 1.0, 398, 2, -0.5, 446, 2, -0.5
*EQUATION
3
979, 3, 1.0, 398, 3, -0.5, 446, 3, -0.5
*EQUATION
3
982, 1, 1.0, 436, 1, -0.5, 446, 1, -0.5
*EQUATION
3
982, 2, 1.0, 436, 2, -0.5, 446, 2, -0.5
*EQUATION
3
982, 3, 1.0, 436, 3, -0.5, 446, 3, -0.5
*EQUATION
3
986, 1, 1.0, 435, 1, -0.5, 483, 1, -0.5
*EQUATION
3
986, 2, 1.0, 435, 2, -0.5, 483, 2, -0.5
*EQUATION
3
986, 3, 1.0, 435, 3, -0.5, 483, 3, -0.5
*EQUATION
5
989, 1, 1.0, 435, 1, -0.25, 483, 1, -0.25, 484, 1, -0.25, 436, 1, -0.25
*EQUATION
5
989, 2, 1.0, 435, 2, -0.25, 483, 2, -0.25, 484, 2, -0.25, 436, 2, -0.25
*EQUATION
5
989, 3, 1.0, 435, 3, -0.25, 483, 3, -0.25, 484, 3, -0.25, 436, 3, -0.25
*EQUATION
3
992, 1, 1.0, 436, 1, -0.5, 484, 1, -0.5
*EQUATION
3
992, 2, 1.0, 436, 2, -0.5, 484, 2, -0.5
*EQUATION
3
992, 3, 1.0, 436, 3, -0.5, 484, 3, -0.5
*EQUATION
3
996, 1, 1.0, 483, 1, -0.5, 484, 1, -0.5
*EQUATION
3
996, 2, 1.0, 483, 2, -0.5, 484, 2, -0.5
*EQUATION
3
996, 3, 1.0, 483, 3, -0.5, 484, 3, -0.5
*EQUATION
5
1000, 1, 1.0, 436, 1, -0.25, 484, 1, -0.25, 494, 1, -0.25, 446, 1, -0.25
*EQUATION
5
1000, 2, 1.0, 436, 2, -0.25, 484, 2, -0.25, 494, 2, -0.25, 446, 2, -0.25
*EQUATION
5
1000, 3, 1.0, 436, 3, -0.25, 484, 3, -0.25, 494, 3, -0.25, 446, 3, -0.25
*EQUATION
3
1003, 1, 1.0, 446, 1, -0.5, 494, 1, -0.5
*EQUATION
3
1003, 2, 1.0, 446, 2, -0.5, 494, 2, -0.5
*EQUATION
3
1003, 3, 1.0, 446, 3, -0.5, 494, 3, -0.5
*EQUATION
3
1006, 1, 1.0, 484, 1, -0.5, 494, 1, -0.5
*EQUATION
3
1006, 2, 1.0, 484, 2, -0.5, 494, 2, -0.5
*EQUATION
3
1006, 3, 1.0, 484, 3, -0.5, 494, 3, -0.5
*EQUATION
3
1010, 1, 1.0, 483, 1, -0.5, 531, 1, -0.5
*EQUATION
3
1010, 2, 1.0, 483, 2, -0.5, 531, 2, -0.5
*EQUATION
3
1010, 3, 1.0, 483, 3, -0.5, 531, 3, -0.5
*EQUATION
5
1013, 1, 1.0, 483, 1, -0.25, 531, 1, -0.25, 532, 1, -0.25, 484, 1, -0.25
*EQUATION
5
1013, 2, 1.0, 483, 2, -0.25, 531, 2, -0.25, 532, 2, -0.25, 484, 2, -0.25
*EQUATION
5
1013, 3, 1.0, 483, 3, -0.25, 531, 3, -0.25, 532, 3, -0.25, 484, 3, -0.25
*EQUATION
3
1016, 1, 1.0, 484, 1, -0.5, 532, 1, -0.5
*EQUATION
3
1016, 2, 1.0, 484, 2, -0.5, 532, 2, -0.5
*EQUATION
3
1016, 3, 1.0, 484, 3, -0.5, 532, 3, -0.5
*EQUATION
3
1020, 1, 1.0, 531, 1, -0.5, 532, 1, -0.5
*EQUATION
3
1020, 2, 1.0, 531, 2, -0.5, 532, 2, -0.5
*EQUATION
3
1020, 3, 1.0, 531, 3, -0.5, 532, 3, -0.5
*EQUATION
5
1024, 1, 1.0, 484, 1, -0.25, 532, 1, -0.25, 542, 1, -0.25, 494, 1, -0.25
*EQUATION
5
1024, 2, 1.0, 484, 2, -0.25, 532, 2, -0.25, 542, 2, -0.25, 494, 2, -0.25
*EQUATION
5
1024, 3, 1.0, 484, 3, -0.25, 532, 3, -0.25, 542, 3, -0.25, 494, 3, -0.25
*EQUATION
3
1027, 1, 1.0, 494, 1, -0.5, 542, 1, -0.5
*EQUATION
3
1027, 2, 1.0, 494, 2, -0.5, 542, 2, -0.5
*EQUATION
3
1027, 3, 1.0, 494, 3, -0.5, 542, 3, -0.5
*EQUATION
3
1030, 1, 1.0, 532, 1, -0.5, 542, 1, -0.5
*EQUATION
3
1030, 2, 1.0, 532, 2, -0.5, 542, 2, -0.5
*EQUATION
3
1030, 3, 1.0, 532, 3, -0.5, 542, 3, -0.5
*EQUATION
3
1034, 1, 1.0, 531, 1, -0.5, 579, 1, -0.5
*EQUATION
3
1034, 2, 1.0, 531, 2, -0.5, 579, 2, -0.5
*EQUATION
3
1034, 3, 1.0, 531, 3, -0.5, 579, 3, -0.5
*EQUATION
5
1037, 1, 1.0, 531, 1, -0.25, 579, 1, -0.25, 580, 1, -0.25, 532, 1, -0.25
*EQUATION
5
1037, 2, 1.0, 531, 2, -0.25, 579, 2, -0.25, 580, 2, -0.25, 532, 2, -0.25
*EQUATION
5
1037, 3, 1.0, 531, 3, -0.25, 579, 3, -0.25, 580, 3, -0.25, 532, 3, -0.25
*EQUATION
3
1040, 1, 1.0, 532, 1, -0.5, 580, 1, -0.5
*EQUATION
3
1040, 2, 1.0, 532, 2, -0.5, 580, 2, -0.5
*EQUATION
3
1040, 3, 1.0, 532, 3, -0.5, 580, 3, -0.5
*EQUATION
3
1044, 1, 1.0, 579, 1, -0.5, 580, 1, -0.5
*EQUATION
3
1044, 2, 1.0, 579, 2, -0.5, 580, 2, -0.5
*EQUATION
3
1044, 3, 1.0, 579, 3, -0.5, 580, 3, -0.5
*EQUATION
5
1048, 1, 1.0, 532, 1, -0.25, 580, 1, -0.25, 590, 1, -0.25, 542, 1, -0.25
*EQUATION
5
1048, 2, 1.0, 532, 2, -0.25, 580, 2, -0.25, 590, 2, -0.25, 542, 2, -0.25
*EQUATION
5
1048, 3, 1.0, 532, 3, -0.25, 580, 3, -0.25, 590, 3, -0.25, 542, 3, -0.25
*EQUATION
3
1051, 1, 1.0, 542, 1, -0.5, 590, 1, -0.5
*EQUATION
3
1051, 2, 1.0, 542, 2, -0.5, 590, 2, -0.5
*EQUATION
3
1051, 3, 1.0, 542, 3, -0.5, 590, 3, -0.5
*EQUATION
3
1054, 1, 1.0, 580, 1, -0.5, 590, 1, -0.5
*EQUATION
3
1054, 2, 1.0, 580, 2, -0.5, 590, 2, -0.5
*EQUATION
3
1054, 3, 1.0, 580, 3, -0.5, 590, 3, -0.5
*EQUATION
3
1058, 1, 1.0, 579, 1, -0.5, 627, 1, -0.5
*EQUATION
3
1058, 2, 1.0, 579, 2, -0.5, 627, 2, -0.5
*EQUATION
3
1058, 3, 1.0, 579, 3, -0.5, 627, 3, -0.5
*EQUATION
5
1061, 1, 1.0, 579, 1, -0.25, 627, 1, -0.25, 628, 1, -0.25, 580, 1, -0.25
*EQUATION
5
1061, 2, 1.0, 579, 2, -0.25, 627, 2, -0.25, 628, 2, -0.25, 580, 2, -0.25
*EQUATION
5
1061, 3, 1.0, 579, 3, -0.25, 627, 3, -0.25, 628, 3, -0.25, 580, 3, -0.25
*EQUATION
3
1064, 1, 1.0, 580, 1, -0.5, 628, 1, -0.5
*EQUATION
3
1064, 2, 1.0, 580, 2, -0.5, 628, 2, -0.5
*EQUATION
3
1064, 3, 1.0, 580, 3, -0.5, 628, 3, -0.5
*EQUATION
3
1068, 1, 1.0, 627, 1, -0.5, 628, 1, -0.5
*EQUATION
3
1068, 2, 1.0, 627, 2, -0.5, 628, 2, -0.5
*EQUATION
3
1068, 3, 1.0, 627, 3, -0.5, 628, 3, -0.5
*EQUATION
5
1072, 1, 1.0, 580, 1, -0.25, 628, 1, -0.25, 638, 1, -0.25, 590, 1, -0.25
*EQUATION
5
1072, 2, 1.0, 580, 2, -0.25, 628, 2, -0.25, 638, 2, -0.25, 590, 2, -0.25
*EQUATION
5
1072, 3, 1.0, 580, 3, -0.25, 628, 3, -0.25, 638, 3, -0.25, 590, 3, -0.25
*EQUATION
3
1075, 1, 1.0, 590, 1, -0.5, 638, 1, -0.5
*EQUATION
3
1075, 2, 1.0, 590, 2, -0.5, 638, 2, -0.5
*EQUATION
3
1075, 3, 1.0, 590, 3, -0.5, 638, 3, -0.5
*EQUATION
3
1078, 1, 1.0, 628, 1, -0.5, 638, 1, -0.5
*EQUATION
3
1078, 2, 1.0, 628, 2, -0.5, 638, 2, -0.5
*EQUATION
3
1078, 3, 1.0, 628, 3, -0.5, 638, 3, -0.5
*EQUATION
3
1082, 1, 1.0, 627, 1, -0.5, 675, 1, -0.5
*EQUATION
3
1082, 2, 1.0, 627, 2, -0.5, 675, 2, -0.5
*EQUATION
3
1082, 3, 1.0, 627, 3, -0.5, 675, 3, -0.5
*EQUATION
5
1085, 1, 1.0, 627, 1, -0.25, 675, 1, -0.25, 676, 1, -0.25, 628, 1, -0.25
*EQUATION
5
1085, 2, 1.0, 627, 2, -0.25, 675, 2, -0.25, 676, 2, -0.25, 628, 2, -0.25
*EQUATION
5
1085, 3, 1.0, 627, 3, -0.25, 675, 3, -0.25, 676, 3, -0.25, 628, 3, -0.25
*EQUATION
3
1088, 1, 1.0, 628, 1, -0.5, 676, 1, -0.5
*EQUATION
3
1088, 2, 1.0, 628, 2, -0.5, 676, 2, -0.5
*EQUATION
3
1088, 3, 1.0, 628, 3, -0.5, 676, 3, -0.5
*EQUATION
3
1092, 1, 1.0, 675, 1, -0.5, 676, 1, -0.5
*EQUATION
3
1092, 2, 1.0, 675, 2, -0.5, 676, 2, -0.5
*EQUATION
3
1092, 3, 1.0, 675, 3, -0.5, 676, 3, -0.5
*EQUATION
5
1096, 1, 1.0, 628, 1, -0.25, 676, 1, -0.25, 686, 1, -0.25, 638, 1, -0.25
*EQUATION
5
1096, 2, 1.0, 628, 2, -0.25, 676, 2, -0.25, 686, 2, -0.25, 638, 2, -0.25
*EQUATION
5
1096, 3, 1.0, 628, 3, -0.25, 676, 3, -0.25, 686, 3, -0.25, 638, 3, -0.25
*EQUATION
3
1099, 1, 1.0, 638, 1, -0.5, 686, 1, -0.5
*EQUATION
3
1099, 2, 1.0, 638, 2, -0.5, 686, 2, -0.5
*EQUATION
3
1099, 3, 1.0, 638, 3, -0.5, 686, 3, -0.5
*EQUATION
3
1102, 1, 1.0, 676, 1, -0.5, 686, 1, -0.5
*EQUATION
3
1102, 2, 1.0, 676, 2, -0.5, 686, 2, -0.5
*EQUATION
3
1102, 3, 1.0, 676, 3, -0.5, 686, 3, -0.5
*EQUATION
3
1106, 1, 1.0, 675, 1, -0.5, 723, 1, -0.5
*EQUATION
3
1106, 2, 1.0, 675, 2, -0.5, 723, 2, -0.5
*EQUATION
3
1106, 3, 1.0, 675, 3, -0.5, 723, 3, -0.5
*EQUATION
5
1109, 1, 1.0, 675, 1, -0.25, 723, 1, -0.25, 724, 1, -0.25, 676, 1, -0.25
*EQUATION
5
1109, 2, 1.0, 675, 2, -0.25, 723, 2, -0.25, 724, 2, -0.25, 676, 2, -0.25
*EQUATION
5
1109, 3, 1.0, 675, 3, -0.25, 723, 3, -0.25, 724, 3, -0.25, 676, 3, -0.25
*EQUATION
3
1112, 1, 1.0, 676, 1, -0.5, 724, 1, -0.5
*EQUATION
3
1112, 2, 1.0, 676, 2, -0.5, 724, 2, -0.5
*EQUATION
3
1112, 3, 1.0, 676, 3, -0.5, 724, 3, -0.5
*EQUATION
3
1113, 1, 1.0, 721, 1, -0.5, 723, 1, -0.5
*EQUATION
3
1113, 2, 1.0, 721, 2, -0.5, 723, 2, -0.5
*EQUATION
3
1113, 3, 1.0, 721, 3, -0.5, 723, 3, -0.5
*EQUATION
3
1114, 1, 1.0, 721, 1, -0.5, 722, 1, -0.5
*EQUATION
3
1114, 2, 1.0, 721, 2, -0.5, 722, 2, -0.5
*EQUATION
3
1114, 3, 1.0, 721, 3, -0.5, 722, 3, -0.5
*EQUATION
5
1115, 1, 1.0, 721, 1, -0.25, 722, 1, -0.25, 724, 1, -0.25, 723, 1, -0.25
*EQUATION
5
1115, 2, 1.0, 721, 2, -0.25, 722, 2, -0.25, 724, 2, -0.25, 723, 2, -0.25
*EQUATION
5
1115, 3, 1.0, 721, 3, -0.25, 722, 3, -0.25, 724, 3, -0.25, 723, 3, -0.25
*EQUATION
3
1116, 1, 1.0, 723, 1, -0.5, 724, 1, -0.5
*EQUATION
3
1116, 2, 1.0, 723, 2, -0.5, 724, 2, -0.5
*EQUATION
3
1116, 3, 1.0, 723, 3, -0.5, 724, 3, -0.5
*EQUATION
3
1117, 1, 1.0, 722, 1, -0.5, 724, 1, -0.5
*EQUATION
3
1117, 2, 1.0, 722, 2, -0.5, 724, 2, -0.5
*EQUATION
3
1117, 3, 1.0, 722, 3, -0.5, 724, 3, -0.5
*EQUATION
5
1120, 1, 1.0, 676, 1, -0.25, 724, 1, -0.25, 734, 1, -0.25, 686, 1, -0.25
*EQUATION
5
1120, 2, 1.0, 676, 2, -0.25, 724, 2, -0.25, 734, 2, -0.25, 686, 2, -0.25
*EQUATION
5
1120, 3, 1.0, 676, 3, -0.25, 724, 3, -0.25, 734, 3, -0.25, 686, 3, -0.25
*EQUATION
3
1123, 1, 1.0, 686, 1, -0.5, 734, 1, -0.5
*EQUATION
3
1123, 2, 1.0, 686, 2, -0.5, 734, 2, -0.5
*EQUATION
3
1123, 3, 1.0, 686, 3, -0.5, 734, 3, -0.5
*EQUATION
3
1124, 1, 1.0, 722, 1, -0.5, 733, 1, -0.5
*EQUATION
3
1124, 2, 1.0, 722, 2, -0.5, 733, 2, -0.5
*EQUATION
3
1124, 3, 1.0, 722, 3, -0.5, 733, 3, -0.5
*EQUATION
5
1125, 1, 1.0, 722, 1, -0.25, 733, 1, -0.25, 734, 1, -0.25, 724, 1, -0.25
*EQUATION
5
1125, 2, 1.0, 722, 2, -0.25, 733, 2, -0.25, 734, 2, -0.25, 724, 2, -0.25
*EQUATION
5
1125, 3, 1.0, 722, 3, -0.25, 733, 3, -0.25, 734, 3, -0.25, 724, 3, -0.25
*EQUATION
3
1126, 1, 1.0, 724, 1, -0.5, 734, 1, -0.5
*EQUATION
3
1126, 2, 1.0, 724, 2, -0.5, 734, 2, -0.5
*EQUATION
3
1126, 3, 1.0, 724, 3, -0.5, 734, 3, -0.5
*EQUATION
3
1127, 1, 1.0, 733, 1, -0.5, 734, 1, -0.5
*EQUATION
3
1127, 2, 1.0, 733, 2, -0.5, 734, 2, -0.5
*EQUATION
3
1127, 3, 1.0, 733, 3, -0.5, 734, 3, -0.5
*EQUATION
3
1128, 1, 1.0, 817, 1, -0.5, 819, 1, -0.5
*EQUATION
3
1128, 2, 1.0, 817, 2, -0.5, 819, 2, -0.5
*EQUATION
3
1128, 3, 1.0, 817, 3, -0.5, 819, 3, -0.5
*EQUATION
3
1129, 1, 1.0, 817, 1, -0.5, 818, 1, -0.5
*EQUATION
3
1129, 2, 1.0, 817, 2, -0.5, 818, 2, -0.5
*EQUATION
3
1129, 3, 1.0, 817, 3, -0.5, 818, 3, -0.5
*EQUATION
5
1130, 1, 1.0, 817, 1, -0.25, 818, 1, -0.25, 820, 1, -0.25, 819, 1, -0.25
*EQUATION
5
1130, 2, 1.0, 817, 2, -0.25, 818, 2, -0.25, 820, 2, -0.25, 819, 2, -0.25
*EQUATION
5
1130, 3, 1.0, 817, 3, -0.25, 818, 3, -0.25, 820, 3, -0.25, 819, 3, -0.25
*EQUATION
3
1131, 1, 1.0, 819, 1, -0.5, 820, 1, -0.5
*EQUATION
3
1131, 2, 1.0, 819, 2, -0.5, 820, 2, -0.5
*EQUATION
3
1131, 3, 1.0, 819, 3, -0.5, 820, 3, -0.5
*EQUATION
3
1132, 1, 1.0, 818, 1, -0.5, 820, 1, -0.5
*EQUATION
3
1132, 2, 1.0, 818, 2, -0.5, 820, 2, -0.5
*EQUATION
3
1132, 3, 1.0, 818, 3, -0.5, 820, 3, -0.5
*EQUATION
3
1147, 1, 1.0, 819, 1, -0.5, 821, 1, -0.5
*EQUATION
3
1147, 2, 1.0, 819, 2, -0.5, 821, 2, -0.5
*EQUATION
3
1147, 3, 1.0, 819, 3, -0.5, 821, 3, -0.5
*EQUATION
5
1148, 1, 1.0, 819, 1, -0.25, 820, 1, -0.25, 822, 1, -0.25, 821, 1, -0.25
*EQUATION
5
1148, 2, 1.0, 819, 2, -0.25, 820, 2, -0.25, 822, 2, -0.25, 821, 2, -0.25
*EQUATION
5
1148, 3, 1.0, 819, 3, -0.25, 820, 3, -0.25, 822, 3, -0.25, 821, 3, -0.25
*EQUATION
3
1149, 1, 1.0, 821, 1, -0.5, 822, 1, -0.5
*EQUATION
3
1149, 2, 1.0, 821, 2, -0.5, 822, 2, -0.5
*EQUATION
3
1149, 3, 1.0, 821, 3, -0.5, 822, 3, -0.5
*EQUATION
3
1150, 1, 1.0, 820, 1, -0.5, 822, 1, -0.5
*EQUATION
3
1150, 2, 1.0, 820, 2, -0.5, 822, 2, -0.5
*EQUATION
3
1150, 3, 1.0, 820, 3, -0.5, 822, 3, -0.5
*EQUATION
3
1152, 1, 1.0, 821, 1, -0.5, 869, 1, -0.5
*EQUATION
3
1152, 2, 1.0, 821, 2, -0.5, 869, 2, -0.5
*EQUATION
3
1152, 3, 1.0, 821, 3, -0.5, 869, 3, -0.5
*EQUATION
5
1154, 1, 1.0, 821, 1, -0.25, 869, 1, -0.25, 870, 1, -0.25, 822, 1, -0.25
*EQUATION
5
1154, 2, 1.0, 821, 2, -0.25, 869, 2, -0.25, 870, 2, -0.25, 822, 2, -0.25
*EQUATION
5
1154, 3, 1.0, 821, 3, -0.25, 869, 3, -0.25, 870, 3, -0.25, 822, 3, -0.25
*EQUATION
3
1156, 1, 1.0, 822, 1, -0.5, 870, 1, -0.5
*EQUATION
3
1156, 2, 1.0, 822, 2, -0.5, 870, 2, -0.5
*EQUATION
3
1156, 3, 1.0, 822, 3, -0.5, 870, 3, -0.5
*EQUATION
3
1159, 1, 1.0, 869, 1, -0.5, 870, 1, -0.5
*EQUATION
3
1159, 2, 1.0, 869, 2, -0.5, 870, 2, -0.5
*EQUATION
3
1159, 3, 1.0, 869, 3, -0.5, 870, 3, -0.5
*EQUATION
3
1161, 1, 1.0, 818, 1, -0.5, 829, 1, -0.5
*EQUATION
3
1161, 2, 1.0, 818, 2, -0.5, 829, 2, -0.5
*EQUATION
3
1161, 3, 1.0, 818, 3, -0.5, 829, 3, -0.5
*EQUATION
5
1162, 1, 1.0, 818, 1, -0.25, 829, 1, -0.25, 830, 1, -0.25, 820, 1, -0.25
*EQUATION
5
1162, 2, 1.0, 818, 2, -0.25, 829, 2, -0.25, 830, 2, -0.25, 820, 2, -0.25
*EQUATION
5
1162, 3, 1.0, 818, 3, -0.25, 829, 3, -0.25, 830, 3, -0.25, 820, 3, -0.25
*EQUATION
3
1163, 1, 1.0, 820, 1, -0.5, 830, 1, -0.5
*EQUATION
3
1163, 2, 1.0, 820, 2, -0.5, 830, 2, -0.5
*EQUATION
3
1163, 3, 1.0, 820, 3, -0.5, 830, 3, -0.5
*EQUATION
3
1164, 1, 1.0, 829, 1, -0.5, 830, 1, -0.5
*EQUATION
3
1164, 2, 1.0, 829, 2, -0.5, 830, 2, -0.5
*EQUATION
3
1164, 3, 1.0, 829, 3, -0.5, 830, 3, -0.5
*EQUATION
5
1175, 1, 1.0, 820, 1, -0.25, 830, 1, -0.25, 831, 1, -0.25, 822, 1, -0.25
*EQUATION
5
1175, 2, 1.0, 820, 2, -0.25, 830, 2, -0.25, 831, 2, -0.25, 822, 2, -0.25
*EQUATION
5
1175, 3, 1.0, 820, 3, -0.25, 830, 3, -0.25, 831, 3, -0.25, 822, 3, -0.25
*EQUATION
3
1176, 1, 1.0, 822, 1, -0.5, 831, 1, -0.5
*EQUATION
3
1176, 2, 1.0, 822, 2, -0.5, 831, 2, -0.5
*EQUATION
3
1176, 3, 1.0, 822, 3, -0.5, 831, 3, -0.5
*EQUATION
3
1177, 1, 1.0, 830, 1, -0.5, 831, 1, -0.5
*EQUATION
3
1177, 2, 1.0, 830, 2, -0.5, 831, 2, -0.5
*EQUATION
3
1177, 3, 1.0, 830, 3, -0.5, 831, 3, -0.5
*EQUATION
5
1179, 1, 1.0, 822, 1, -0.25, 870, 1, -0.25, 879, 1, -0.25, 831, 1, -0.25
*EQUATION
5
1179, 2, 1.0, 822, 2, -0.25, 870, 2, -0.25, 879, 2, -0.25, 831, 2, -0.25
*EQUATION
5
1179, 3, 1.0, 822, 3, -0.25, 870, 3, -0.25, 879, 3, -0.25, 831, 3, -0.25
*EQUATION
3
1181, 1, 1.0, 831, 1, -0.5, 879, 1, -0.5
*EQUATION
3
1181, 2, 1.0, 831, 2, -0.5, 879, 2, -0.5
*EQUATION
3
1181, 3, 1.0, 831, 3, -0.5, 879, 3, -0.5
*EQUATION
3
1183, 1, 1.0, 870, 1, -0.5, 879, 1, -0.5
*EQUATION
3
1183, 2, 1.0, 870, 2, -0.5, 879, 2, -0.5
*EQUATION
3
1183, 3, 1.0, 870, 3, -0.5, 879, 3, -0.5
*BOUNDARY
CLAMP, 1, 3, 0.0
*STEP
*STATIC
*CLOAD
887, 3, -454.545454545
888, 3, -454.545454545
891, 3, -454.545454545
894, 3, -454.545454545
896, 3, -454.545454545
898, 3, -454.545454545
900, 3, -454.545454545
903, 3, -454.545454545
906, 3, -454.545454545
909, 3, -454.545454545
912, 3, -454.545454545
*NODE FILE
U
*EL FILE
S, ENER
*NODE PRINT, NSET=TIP_TOP
U
*NODE PRINT, NSET=CLAMP
RF
*EL PRINT, ELSET=EALL
ELSE
*ENERGY PRINT
*END STEP
