*HEADING
Normalized cross-passage space-truss torsion benchmark
*NODE
1,-1.200000000000e+00,0.000000000000e+00,0.000000000000e+00
2,1.200000000000e+00,0.000000000000e+00,0.000000000000e+00
3,-1.200000000000e+00,0.000000000000e+00,2.000000000000e+00
4,1.200000000000e+00,0.000000000000e+00,2.000000000000e+00
5,-1.200000000000e+00,1.000000000000e+01,0.000000000000e+00
6,1.200000000000e+00,1.000000000000e+01,0.000000000000e+00
7,-1.200000000000e+00,1.000000000000e+01,2.000000000000e+00
8,1.200000000000e+00,1.000000000000e+01,2.000000000000e+00
9,-1.200000000000e+00,2.000000000000e+01,0.000000000000e+00
10,1.200000000000e+00,2.000000000000e+01,0.000000000000e+00
11,-1.200000000000e+00,2.000000000000e+01,2.000000000000e+00
12,1.200000000000e+00,2.000000000000e+01,2.000000000000e+00
13,-1.200000000000e+00,3.000000000000e+01,0.000000000000e+00
14,1.200000000000e+00,3.000000000000e+01,0.000000000000e+00
15,-1.200000000000e+00,3.000000000000e+01,2.000000000000e+00
16,1.200000000000e+00,3.000000000000e+01,2.000000000000e+00
17,-1.200000000000e+00,4.000000000000e+01,0.000000000000e+00
18,1.200000000000e+00,4.000000000000e+01,0.000000000000e+00
19,-1.200000000000e+00,4.000000000000e+01,2.000000000000e+00
20,1.200000000000e+00,4.000000000000e+01,2.000000000000e+00
21,-1.200000000000e+00,5.000000000000e+01,0.000000000000e+00
22,1.200000000000e+00,5.000000000000e+01,0.000000000000e+00
23,-1.200000000000e+00,5.000000000000e+01,2.000000000000e+00
24,1.200000000000e+00,5.000000000000e+01,2.000000000000e+00
25,-1.200000000000e+00,1.500000000000e+01,-1.500000000000e-01
26,1.200000000000e+00,1.500000000000e+01,1.500000000000e-01
27,-1.200000000000e+00,1.500000000000e+01,1.850000000000e+00
28,1.200000000000e+00,1.500000000000e+01,2.150000000000e+00
29,-1.200000000000e+00,4.250000000000e+01,-1.060660171780e-01
30,-1.200000000000e+00,4.500000000000e+01,-1.500000000000e-01
31,-1.200000000000e+00,4.750000000000e+01,-1.060660171780e-01
32,1.200000000000e+00,4.250000000000e+01,1.060660171780e-01
33,1.200000000000e+00,4.500000000000e+01,1.500000000000e-01
34,1.200000000000e+00,4.750000000000e+01,1.060660171780e-01
35,-1.200000000000e+00,4.250000000000e+01,1.893933982822e+00
36,-1.200000000000e+00,4.500000000000e+01,1.850000000000e+00
37,-1.200000000000e+00,4.750000000000e+01,1.893933982822e+00
38,1.200000000000e+00,4.250000000000e+01,2.106066017178e+00
39,1.200000000000e+00,4.500000000000e+01,2.150000000000e+00
40,1.200000000000e+00,4.750000000000e+01,2.106066017178e+00
41,0.000000000000e+00,9.964000000000e+00,0.000000000000e+00
42,0.000000000000e+00,1.003600000000e+01,2.000000000000e+00
43,-1.200000000000e+00,1.003000000000e+01,1.000000000000e+00
44,1.200000000000e+00,9.970000000000e+00,1.000000000000e+00
45,-6.000000000000e-01,2.997454415588e+01,0.000000000000e+00
46,0.000000000000e+00,2.996400000000e+01,0.000000000000e+00
47,6.000000000000e-01,2.997454415588e+01,0.000000000000e+00
48,-6.000000000000e-01,3.002545584412e+01,2.000000000000e+00
49,0.000000000000e+00,3.003600000000e+01,2.000000000000e+00
50,6.000000000000e-01,3.002545584412e+01,2.000000000000e+00
51,-1.200000000000e+00,3.002121320344e+01,5.000000000000e-01
52,-1.200000000000e+00,3.003000000000e+01,1.000000000000e+00
53,-1.200000000000e+00,3.002121320344e+01,1.500000000000e+00
54,1.200000000000e+00,2.997878679656e+01,5.000000000000e-01
55,1.200000000000e+00,2.997000000000e+01,1.000000000000e+00
56,1.200000000000e+00,2.997878679656e+01,1.500000000000e+00
57,-1.200000000000e+00,2.521213203436e+00,3.939339828220e-01
58,-1.200000000000e+00,5.030000000000e+00,8.500000000000e-01
59,-1.200000000000e+00,7.521213203436e+00,1.393933982822e+00
60,-1.200000000000e+00,2.521213203436e+00,1.606066017178e+00
61,-1.200000000000e+00,5.030000000000e+00,1.150000000000e+00
62,-1.200000000000e+00,7.521213203436e+00,6.060660171780e-01
63,1.200000000000e+00,2.521213203436e+00,3.939339828220e-01
64,1.200000000000e+00,5.030000000000e+00,8.500000000000e-01
65,1.200000000000e+00,7.521213203436e+00,1.393933982822e+00
66,1.200000000000e+00,2.521213203436e+00,1.606066017178e+00
67,1.200000000000e+00,5.030000000000e+00,1.150000000000e+00
68,1.200000000000e+00,7.521213203436e+00,6.060660171780e-01
69,-4.939339828220e-01,2.474544155877e+00,0.000000000000e+00
70,1.500000000000e-01,4.964000000000e+00,0.000000000000e+00
71,7.060660171780e-01,7.474544155877e+00,0.000000000000e+00
72,4.939339828220e-01,2.474544155877e+00,0.000000000000e+00
73,-1.500000000000e-01,4.964000000000e+00,0.000000000000e+00
74,-7.060660171780e-01,7.474544155877e+00,0.000000000000e+00
75,-4.939339828220e-01,2.474544155877e+00,2.000000000000e+00
76,1.500000000000e-01,4.964000000000e+00,2.000000000000e+00
77,7.060660171780e-01,7.474544155877e+00,2.000000000000e+00
78,4.939339828220e-01,2.474544155877e+00,2.000000000000e+00
79,-1.500000000000e-01,4.964000000000e+00,2.000000000000e+00
80,-7.060660171780e-01,7.474544155877e+00,2.000000000000e+00
81,-1.200000000000e+00,2.252121320344e+01,3.939339828220e-01
82,-1.200000000000e+00,2.503000000000e+01,8.500000000000e-01
83,-1.200000000000e+00,2.752121320344e+01,1.393933982822e+00
84,-1.200000000000e+00,2.252121320344e+01,1.606066017178e+00
85,-1.200000000000e+00,2.503000000000e+01,1.150000000000e+00
86,-1.200000000000e+00,2.752121320344e+01,6.060660171780e-01
87,1.200000000000e+00,2.252121320344e+01,3.939339828220e-01
88,1.200000000000e+00,2.503000000000e+01,8.500000000000e-01
89,1.200000000000e+00,2.752121320344e+01,1.393933982822e+00
90,1.200000000000e+00,2.252121320344e+01,1.606066017178e+00
91,1.200000000000e+00,2.503000000000e+01,1.150000000000e+00
92,1.200000000000e+00,2.752121320344e+01,6.060660171780e-01
93,-4.939339828220e-01,2.247454415588e+01,0.000000000000e+00
94,1.500000000000e-01,2.496400000000e+01,0.000000000000e+00
95,7.060660171780e-01,2.747454415588e+01,0.000000000000e+00
96,4.939339828220e-01,2.247454415588e+01,0.000000000000e+00
97,-1.500000000000e-01,2.496400000000e+01,0.000000000000e+00
98,-7.060660171780e-01,2.747454415588e+01,0.000000000000e+00
99,-4.939339828220e-01,2.247454415588e+01,2.000000000000e+00
100,1.500000000000e-01,2.496400000000e+01,2.000000000000e+00
101,7.060660171780e-01,2.747454415588e+01,2.000000000000e+00
102,4.939339828220e-01,2.247454415588e+01,2.000000000000e+00
103,-1.500000000000e-01,2.496400000000e+01,2.000000000000e+00
104,-7.060660171780e-01,2.747454415588e+01,2.000000000000e+00
105,-1.200000000000e+00,3.503000000000e+01,8.500000000000e-01
106,-1.200000000000e+00,3.503000000000e+01,1.150000000000e+00
107,1.200000000000e+00,3.503000000000e+01,8.500000000000e-01
108,1.200000000000e+00,3.503000000000e+01,1.150000000000e+00
109,1.500000000000e-01,3.496400000000e+01,0.000000000000e+00
110,-1.500000000000e-01,3.496400000000e+01,0.000000000000e+00
111,1.500000000000e-01,3.496400000000e+01,2.000000000000e+00
112,-1.500000000000e-01,3.496400000000e+01,2.000000000000e+00
113,-1.200000000000e+00,4.503000000000e+01,8.500000000000e-01
114,-1.200000000000e+00,4.503000000000e+01,1.150000000000e+00
115,1.200000000000e+00,4.503000000000e+01,8.500000000000e-01
116,1.200000000000e+00,4.503000000000e+01,1.150000000000e+00
117,1.500000000000e-01,4.496400000000e+01,0.000000000000e+00
118,-1.500000000000e-01,4.496400000000e+01,0.000000000000e+00
119,1.500000000000e-01,4.496400000000e+01,2.000000000000e+00
120,-1.500000000000e-01,4.496400000000e+01,2.000000000000e+00
*ELEMENT,TYPE=B31,ELSET=ALL
1,1,5
2,2,6
3,3,7
4,4,8
5,5,25
6,25,9
7,6,26
8,26,10
9,7,27
10,27,11
11,8,28
12,28,12
13,9,13
14,10,14
15,11,15
16,12,16
17,13,17
18,14,18
19,15,19
20,16,20
21,17,29
22,29,30
23,30,31
24,31,21
25,18,32
26,32,33
27,33,34
28,34,22
29,19,35
30,35,36
31,36,37
32,37,23
33,20,38
34,38,39
35,39,40
36,40,24
37,1,2
38,3,4
39,1,3
40,2,4
41,5,41
42,41,6
43,7,42
44,42,8
45,5,43
46,43,7
47,6,44
48,44,8
49,9,10
50,11,12
51,9,11
52,10,12
53,13,45
54,45,46
55,46,47
56,47,14
57,15,48
58,48,49
59,49,50
60,50,16
61,13,51
62,51,52
63,52,53
64,53,15
65,14,54
66,54,55
67,55,56
68,56,16
69,17,18
70,19,20
71,17,19
72,18,20
73,21,22
74,23,24
75,21,23
76,22,24
77,1,57
78,57,58
79,58,59
80,59,7
81,3,60
82,60,61
83,61,62
84,62,5
85,2,63
86,63,64
87,64,65
88,65,8
89,4,66
90,66,67
91,67,68
92,68,6
93,1,69
94,69,70
95,70,71
96,71,6
97,2,72
98,72,73
99,73,74
100,74,5
101,3,75
102,75,76
103,76,77
104,77,8
105,4,78
106,78,79
107,79,80
108,80,7
109,5,11
110,7,9
111,6,12
112,8,10
113,5,10
114,6,9
115,7,12
116,8,11
117,9,81
118,81,82
119,82,83
120,83,15
121,11,84
122,84,85
123,85,86
124,86,13
125,10,87
126,87,88
127,88,89
128,89,16
129,12,90
130,90,91
131,91,92
132,92,14
133,9,93
134,93,94
135,94,95
136,95,14
137,10,96
138,96,97
139,97,98
140,98,13
141,11,99
142,99,100
143,100,101
144,101,16
145,12,102
146,102,103
147,103,104
148,104,15
149,13,105
150,105,19
151,15,106
152,106,17
153,14,107
154,107,20
155,16,108
156,108,18
157,13,109
158,109,18
159,14,110
160,110,17
161,15,111
162,111,20
163,16,112
164,112,19
165,17,113
166,113,23
167,19,114
168,114,21
169,18,115
170,115,24
171,20,116
172,116,22
173,17,117
174,117,22
175,18,118
176,118,21
177,19,119
178,119,24
179,20,120
180,120,23
*NSET,NSET=NALL,GENERATE
1,120,1
*NSET,NSET=LEFT
1,2,3,4
*NSET,NSET=RIGHT
21,22,23,24
*MATERIAL,NAME=STEEL
*ELASTIC
2.100000000000e+11,0.300000000000
*BEAM SECTION,ELSET=ALL,MATERIAL=STEEL,SECTION=RECT
6.000000000000e-02,4.000000000000e-02
0.371390676354,0.557086014531,0.742781352708
*BOUNDARY
LEFT,1,6,0.0
*STEP
*STATIC
*BOUNDARY
21,1,1,5.000000000000e-03
21,2,2,0.0
21,3,3,-6.000000000000e-03
*BOUNDARY
22,1,1,5.000000000000e-03
22,2,2,0.0
22,3,3,6.000000000000e-03
*BOUNDARY
23,1,1,-5.000000000000e-03
23,2,2,0.0
23,3,3,-6.000000000000e-03
*BOUNDARY
24,1,1,-5.000000000000e-03
24,2,2,0.0
24,3,3,6.000000000000e-03
*NODE FILE,NSET=NALL
U
*NODE PRINT,NSET=NALL
U
*NODE PRINT,NSET=RIGHT
RF
*EL PRINT,ELSET=ALL,TOTALS=YES
ELSE
*END STEP
