*HEADING
Normalized cross-passage space-truss torsion benchmark
*NODE
1,-1.200000000000e+00,0.000000000000e+00,0.000000000000e+00
2,1.200000000000e+00,0.000000000000e+00,0.000000000000e+00
3,-1.200000000000e+00,0.000000000000e+00,2.000000000000e+00
4,1.200000000000e+00,0.000000000000e+00,2.000000000000e+00
5,-1.200000000000e+00,1.000000000000e+01,0.000000000000e+00
6,1.200000000000e+00,1.000000000000e+01,0.000000000000e+00
7,-1.200000000000e+00,1.000000000000e+01,2.000000000000e+00
8,1.200000000000e+00,1.000000000000e+01,2.000000000000e+00
9,-1.200000000000e+00,2.000000000000e+01,0.000000000000e+00
10,1.200000000000e+00,2.000000000000e+01,0.000000000000e+00
11,-1.200000000000e+00,2.000000000000e+01,2.000000000000e+00
12,1.200000000000e+00,2.000000000000e+01,2.000000000000e+00
13,-1.200000000000e+00,3.000000000000e+01,0.000000000000e+00
14,1.200000000000e+00,3.000000000000e+01,0.000000000000e+00
15,-1.200000000000e+00,3.000000000000e+01,2.000000000000e+00
16,1.200000000000e+00,3.000000000000e+01,2.000000000000e+00
17,-1.200000000000e+00,4.000000000000e+01,0.000000000000e+00
18,1.200000000000e+00,4.000000000000e+01,0.000000000000e+00
19,-1.200000000000e+00,4.000000000000e+01,2.000000000000e+00
20,1.200000000000e+00,4.000000000000e+01,2.000000000000e+00
21,-1.200000000000e+00,5.000000000000e+01,0.000000000000e+00
22,1.200000000000e+00,5.000000000000e+01,0.000000000000e+00
23,-1.200000000000e+00,5.000000000000e+01,2.000000000000e+00
24,1.200000000000e+00,5.000000000000e+01,2.000000000000e+00
25,-1.200000000000e+00,5.000000000000e+00,-1.500000000000e-01
26,1.200000000000e+00,5.000000000000e+00,1.500000000000e-01
27,-1.200000000000e+00,5.000000000000e+00,1.850000000000e+00
28,1.200000000000e+00,5.000000000000e+00,2.150000000000e+00
29,-1.200000000000e+00,1.500000000000e+01,-1.500000000000e-01
30,1.200000000000e+00,1.500000000000e+01,1.500000000000e-01
31,-1.200000000000e+00,1.500000000000e+01,1.850000000000e+00
32,1.200000000000e+00,1.500000000000e+01,2.150000000000e+00
33,-1.200000000000e+00,2.500000000000e+01,-1.500000000000e-01
34,1.200000000000e+00,2.500000000000e+01,1.500000000000e-01
35,-1.200000000000e+00,2.500000000000e+01,1.850000000000e+00
36,1.200000000000e+00,2.500000000000e+01,2.150000000000e+00
37,-1.200000000000e+00,3.250000000000e+01,-1.060660171780e-01
38,-1.200000000000e+00,3.500000000000e+01,-1.500000000000e-01
39,-1.200000000000e+00,3.750000000000e+01,-1.060660171780e-01
40,1.200000000000e+00,3.250000000000e+01,1.060660171780e-01
41,1.200000000000e+00,3.500000000000e+01,1.500000000000e-01
42,1.200000000000e+00,3.750000000000e+01,1.060660171780e-01
43,-1.200000000000e+00,3.250000000000e+01,1.893933982822e+00
44,-1.200000000000e+00,3.500000000000e+01,1.850000000000e+00
45,-1.200000000000e+00,3.750000000000e+01,1.893933982822e+00
46,1.200000000000e+00,3.250000000000e+01,2.106066017178e+00
47,1.200000000000e+00,3.500000000000e+01,2.150000000000e+00
48,1.200000000000e+00,3.750000000000e+01,2.106066017178e+00
49,-1.200000000000e+00,4.500000000000e+01,-1.500000000000e-01
50,1.200000000000e+00,4.500000000000e+01,1.500000000000e-01
51,-1.200000000000e+00,4.500000000000e+01,1.850000000000e+00
52,1.200000000000e+00,4.500000000000e+01,2.150000000000e+00
53,0.000000000000e+00,-3.600000000000e-02,0.000000000000e+00
54,0.000000000000e+00,3.600000000000e-02,2.000000000000e+00
55,-1.200000000000e+00,3.000000000000e-02,1.000000000000e+00
56,1.200000000000e+00,-3.000000000000e-02,1.000000000000e+00
57,0.000000000000e+00,9.964000000000e+00,0.000000000000e+00
58,0.000000000000e+00,1.003600000000e+01,2.000000000000e+00
59,-1.200000000000e+00,1.003000000000e+01,1.000000000000e+00
60,1.200000000000e+00,9.970000000000e+00,1.000000000000e+00
61,0.000000000000e+00,1.996400000000e+01,0.000000000000e+00
62,0.000000000000e+00,2.003600000000e+01,2.000000000000e+00
63,-1.200000000000e+00,2.003000000000e+01,1.000000000000e+00
64,1.200000000000e+00,1.997000000000e+01,1.000000000000e+00
65,0.000000000000e+00,2.996400000000e+01,0.000000000000e+00
66,0.000000000000e+00,3.003600000000e+01,2.000000000000e+00
67,-1.200000000000e+00,3.003000000000e+01,1.000000000000e+00
68,1.200000000000e+00,2.997000000000e+01,1.000000000000e+00
69,0.000000000000e+00,4.996400000000e+01,0.000000000000e+00
70,0.000000000000e+00,5.003600000000e+01,2.000000000000e+00
71,-1.200000000000e+00,5.003000000000e+01,1.000000000000e+00
72,1.200000000000e+00,4.997000000000e+01,1.000000000000e+00
73,-1.200000000000e+00,5.030000000000e+00,8.500000000000e-01
74,-1.200000000000e+00,5.030000000000e+00,1.150000000000e+00
75,1.200000000000e+00,5.030000000000e+00,8.500000000000e-01
76,1.200000000000e+00,5.030000000000e+00,1.150000000000e+00
77,1.500000000000e-01,4.964000000000e+00,0.000000000000e+00
78,-1.500000000000e-01,4.964000000000e+00,0.000000000000e+00
79,1.500000000000e-01,4.964000000000e+00,2.000000000000e+00
80,-1.500000000000e-01,4.964000000000e+00,2.000000000000e+00
81,-1.200000000000e+00,1.503000000000e+01,8.500000000000e-01
82,-1.200000000000e+00,1.503000000000e+01,1.150000000000e+00
83,1.200000000000e+00,1.503000000000e+01,8.500000000000e-01
84,1.200000000000e+00,1.503000000000e+01,1.150000000000e+00
85,1.500000000000e-01,1.496400000000e+01,0.000000000000e+00
86,-1.500000000000e-01,1.496400000000e+01,0.000000000000e+00
87,1.500000000000e-01,1.496400000000e+01,2.000000000000e+00
88,-1.500000000000e-01,1.496400000000e+01,2.000000000000e+00
89,-1.200000000000e+00,2.503000000000e+01,8.500000000000e-01
90,-1.200000000000e+00,2.503000000000e+01,1.150000000000e+00
91,1.200000000000e+00,2.503000000000e+01,8.500000000000e-01
92,1.200000000000e+00,2.503000000000e+01,1.150000000000e+00
93,1.500000000000e-01,2.496400000000e+01,0.000000000000e+00
94,-1.500000000000e-01,2.496400000000e+01,0.000000000000e+00
95,1.500000000000e-01,2.496400000000e+01,2.000000000000e+00
96,-1.500000000000e-01,2.496400000000e+01,2.000000000000e+00
97,-1.200000000000e+00,3.503000000000e+01,8.500000000000e-01
98,-1.200000000000e+00,3.503000000000e+01,1.150000000000e+00
99,1.200000000000e+00,3.503000000000e+01,8.500000000000e-01
100,1.200000000000e+00,3.503000000000e+01,1.150000000000e+00
101,1.500000000000e-01,3.496400000000e+01,0.000000000000e+00
102,-1.500000000000e-01,3.496400000000e+01,0.000000000000e+00
103,1.500000000000e-01,3.496400000000e+01,2.000000000000e+00
104,-1.500000000000e-01,3.496400000000e+01,2.000000000000e+00
105,-1.200000000000e+00,4.503000000000e+01,8.500000000000e-01
106,-1.200000000000e+00,4.503000000000e+01,1.150000000000e+00
107,1.200000000000e+00,4.503000000000e+01,8.500000000000e-01
108,1.200000000000e+00,4.503000000000e+01,1.150000000000e+00
109,1.500000000000e-01,4.496400000000e+01,0.000000000000e+00
110,-1.500000000000e-01,4.496400000000e+01,0.000000000000e+00
111,1.500000000000e-01,4.496400000000e+01,2.000000000000e+00
112,-1.500000000000e-01,4.496400000000e+01,2.000000000000e+00
*ELEMENT,TYPE=B31,ELSET=ALL
1,1,25
2,25,5
3,2,26
4,26,6
5,3,27
6,27,7
7,4,28
8,28,8
9,5,29
10,29,9
11,6,30
12,30,10
13,7,31
14,31,11
15,8,32
16,32,12
17,9,33
18,33,13
19,10,34
20,34,14
21,11,35
22,35,15
23,12,36
24,36,16
25,13,37
26,37,38
27,38,39
28,39,17
29,14,40
30,40,41
31,41,42
32,42,18
33,15,43
34,43,44
35,44,45
36,45,19
37,16,46
38,46,47
39,47,48
40,48,20
41,17,49
42,49,21
43,18,50
44,50,22
45,19,51
46,51,23
47,20,52
48,52,24
49,1,53
50,53,2
51,3,54
52,54,4
53,1,55
54,55,3
55,2,56
56,56,4
57,5,57
58,57,6
59,7,58
60,58,8
61,5,59
62,59,7
63,6,60
64,60,8
65,9,61
66,61,10
67,11,62
68,62,12
69,9,63
70,63,11
71,10,64
72,64,12
73,13,65
74,65,14
75,15,66
76,66,16
77,13,67
78,67,15
79,14,68
80,68,16
81,17,18
82,19,20
83,17,19
84,18,20
85,21,69
86,69,22
87,23,70
88,70,24
89,21,71
90,71,23
91,22,72
92,72,24
93,1,73
94,73,7
95,3,74
96,74,5
97,2,75
98,75,8
99,4,76
100,76,6
101,1,77
102,77,6
103,2,78
104,78,5
105,3,79
106,79,8
107,4,80
108,80,7
109,5,81
110,81,11
111,7,82
112,82,9
113,6,83
114,83,12
115,8,84
116,84,10
117,5,85
118,85,10
119,6,86
120,86,9
121,7,87
122,87,12
123,8,88
124,88,11
125,9,89
126,89,15
127,11,90
128,90,13
129,10,91
130,91,16
131,12,92
132,92,14
133,9,93
134,93,14
135,10,94
136,94,13
137,11,95
138,95,16
139,12,96
140,96,15
141,13,97
142,97,19
143,15,98
144,98,17
145,14,99
146,99,20
147,16,100
148,100,18
149,13,101
150,101,18
151,14,102
152,102,17
153,15,103
154,103,20
155,16,104
156,104,19
157,17,105
158,105,23
159,19,106
160,106,21
161,18,107
162,107,24
163,20,108
164,108,22
165,17,109
166,109,22
167,18,110
168,110,21
169,19,111
170,111,24
171,20,112
172,112,23
*NSET,NSET=NALL,GENERATE
1,112,1
*NSET,NSET=LEFT
1,2,3,4
*NSET,NSET=RIGHT
21,22,23,24
*MATERIAL,NAME=STEEL
*ELASTIC
2.100000000000e+11,0.300000000000
*BEAM SECTION,ELSET=ALL,MATERIAL=STEEL,SECTION=RECT
6.000000000000e-02,4.000000000000e-02
0.371390676354,0.557086014531,0.742781352708
*BOUNDARY
LEFT,1,6,0.0
*STEP
*STATIC
*BOUNDARY
21,1,1,5.000000000000e-03
21,2,2,0.0
21,3,3,-6.000000000000e-03
*BOUNDARY
22,1,1,5.000000000000e-03
22,2,2,0.0
22,3,3,6.000000000000e-03
*BOUNDARY
23,1,1,-5.000000000000e-03
23,2,2,0.0
23,3,3,-6.000000000000e-03
*BOUNDARY
24,1,1,-5.000000000000e-03
24,2,2,0.0
24,3,3,6.000000000000e-03
*NODE FILE,NSET=NALL
U
*NODE PRINT,NSET=NALL
U
*NODE PRINT,NSET=RIGHT
RF
*EL PRINT,ELSET=ALL,TOTALS=YES
ELSE
*END STEP
