*HEADING
Normalized cross-passage space-truss torsion benchmark
*NODE
1,-1.200000000000e+00,0.000000000000e+00,0.000000000000e+00
2,1.200000000000e+00,0.000000000000e+00,0.000000000000e+00
3,-1.200000000000e+00,0.000000000000e+00,2.000000000000e+00
4,1.200000000000e+00,0.000000000000e+00,2.000000000000e+00
5,-1.200000000000e+00,1.000000000000e+01,0.000000000000e+00
6,1.200000000000e+00,1.000000000000e+01,0.000000000000e+00
7,-1.200000000000e+00,1.000000000000e+01,2.000000000000e+00
8,1.200000000000e+00,1.000000000000e+01,2.000000000000e+00
9,-1.200000000000e+00,2.000000000000e+01,0.000000000000e+00
10,1.200000000000e+00,2.000000000000e+01,0.000000000000e+00
11,-1.200000000000e+00,2.000000000000e+01,2.000000000000e+00
12,1.200000000000e+00,2.000000000000e+01,2.000000000000e+00
13,-1.200000000000e+00,3.000000000000e+01,0.000000000000e+00
14,1.200000000000e+00,3.000000000000e+01,0.000000000000e+00
15,-1.200000000000e+00,3.000000000000e+01,2.000000000000e+00
16,1.200000000000e+00,3.000000000000e+01,2.000000000000e+00
17,-1.200000000000e+00,4.000000000000e+01,0.000000000000e+00
18,1.200000000000e+00,4.000000000000e+01,0.000000000000e+00
19,-1.200000000000e+00,4.000000000000e+01,2.000000000000e+00
20,1.200000000000e+00,4.000000000000e+01,2.000000000000e+00
21,-1.200000000000e+00,5.000000000000e+01,0.000000000000e+00
22,1.200000000000e+00,5.000000000000e+01,0.000000000000e+00
23,-1.200000000000e+00,5.000000000000e+01,2.000000000000e+00
24,1.200000000000e+00,5.000000000000e+01,2.000000000000e+00
25,-1.200000000000e+00,1.500000000000e+01,-1.500000000000e-01
26,1.200000000000e+00,1.500000000000e+01,1.500000000000e-01
27,-1.200000000000e+00,1.500000000000e+01,1.850000000000e+00
28,1.200000000000e+00,1.500000000000e+01,2.150000000000e+00
29,-1.200000000000e+00,3.250000000000e+01,-1.060660171780e-01
30,-1.200000000000e+00,3.500000000000e+01,-1.500000000000e-01
31,-1.200000000000e+00,3.750000000000e+01,-1.060660171780e-01
32,1.200000000000e+00,3.250000000000e+01,1.060660171780e-01
33,1.200000000000e+00,3.500000000000e+01,1.500000000000e-01
34,1.200000000000e+00,3.750000000000e+01,1.060660171780e-01
35,-1.200000000000e+00,3.250000000000e+01,1.893933982822e+00
36,-1.200000000000e+00,3.500000000000e+01,1.850000000000e+00
37,-1.200000000000e+00,3.750000000000e+01,1.893933982822e+00
38,1.200000000000e+00,3.250000000000e+01,2.106066017178e+00
39,1.200000000000e+00,3.500000000000e+01,2.150000000000e+00
40,1.200000000000e+00,3.750000000000e+01,2.106066017178e+00
41,-1.200000000000e+00,4.125000000000e+01,-5.740251485476e-02
42,-1.200000000000e+00,4.250000000000e+01,-1.060660171780e-01
43,-1.200000000000e+00,4.375000000000e+01,-1.385819298767e-01
44,-1.200000000000e+00,4.500000000000e+01,-1.500000000000e-01
45,-1.200000000000e+00,4.625000000000e+01,-1.385819298767e-01
46,-1.200000000000e+00,4.750000000000e+01,-1.060660171780e-01
47,-1.200000000000e+00,4.875000000000e+01,-5.740251485476e-02
48,1.200000000000e+00,4.125000000000e+01,5.740251485476e-02
49,1.200000000000e+00,4.250000000000e+01,1.060660171780e-01
50,1.200000000000e+00,4.375000000000e+01,1.385819298767e-01
51,1.200000000000e+00,4.500000000000e+01,1.500000000000e-01
52,1.200000000000e+00,4.625000000000e+01,1.385819298767e-01
53,1.200000000000e+00,4.750000000000e+01,1.060660171780e-01
54,1.200000000000e+00,4.875000000000e+01,5.740251485476e-02
55,-1.200000000000e+00,4.125000000000e+01,1.942597485145e+00
56,-1.200000000000e+00,4.250000000000e+01,1.893933982822e+00
57,-1.200000000000e+00,4.375000000000e+01,1.861418070123e+00
58,-1.200000000000e+00,4.500000000000e+01,1.850000000000e+00
59,-1.200000000000e+00,4.625000000000e+01,1.861418070123e+00
60,-1.200000000000e+00,4.750000000000e+01,1.893933982822e+00
61,-1.200000000000e+00,4.875000000000e+01,1.942597485145e+00
62,1.200000000000e+00,4.125000000000e+01,2.057402514855e+00
63,1.200000000000e+00,4.250000000000e+01,2.106066017178e+00
64,1.200000000000e+00,4.375000000000e+01,2.138581929877e+00
65,1.200000000000e+00,4.500000000000e+01,2.150000000000e+00
66,1.200000000000e+00,4.625000000000e+01,2.138581929877e+00
67,1.200000000000e+00,4.750000000000e+01,2.106066017178e+00
68,1.200000000000e+00,4.875000000000e+01,2.057402514855e+00
69,0.000000000000e+00,-3.600000000000e-02,0.000000000000e+00
70,0.000000000000e+00,3.600000000000e-02,2.000000000000e+00
71,-1.200000000000e+00,3.000000000000e-02,1.000000000000e+00
72,1.200000000000e+00,-3.000000000000e-02,1.000000000000e+00
73,-6.000000000000e-01,2.997454415588e+01,0.000000000000e+00
74,0.000000000000e+00,2.996400000000e+01,0.000000000000e+00
75,6.000000000000e-01,2.997454415588e+01,0.000000000000e+00
76,-6.000000000000e-01,3.002545584412e+01,2.000000000000e+00
77,0.000000000000e+00,3.003600000000e+01,2.000000000000e+00
78,6.000000000000e-01,3.002545584412e+01,2.000000000000e+00
79,-1.200000000000e+00,3.002121320344e+01,5.000000000000e-01
80,-1.200000000000e+00,3.003000000000e+01,1.000000000000e+00
81,-1.200000000000e+00,3.002121320344e+01,1.500000000000e+00
82,1.200000000000e+00,2.997878679656e+01,5.000000000000e-01
83,1.200000000000e+00,2.997000000000e+01,1.000000000000e+00
84,1.200000000000e+00,2.997878679656e+01,1.500000000000e+00
85,-9.000000000000e-01,3.998622339643e+01,0.000000000000e+00
86,-6.000000000000e-01,3.997454415588e+01,0.000000000000e+00
87,-3.000000000000e-01,3.996674033683e+01,0.000000000000e+00
88,0.000000000000e+00,3.996400000000e+01,0.000000000000e+00
89,3.000000000000e-01,3.996674033683e+01,0.000000000000e+00
90,6.000000000000e-01,3.997454415588e+01,0.000000000000e+00
91,9.000000000000e-01,3.998622339643e+01,0.000000000000e+00
92,-9.000000000000e-01,4.001377660357e+01,2.000000000000e+00
93,-6.000000000000e-01,4.002545584412e+01,2.000000000000e+00
94,-3.000000000000e-01,4.003325966317e+01,2.000000000000e+00
95,0.000000000000e+00,4.003600000000e+01,2.000000000000e+00
96,3.000000000000e-01,4.003325966317e+01,2.000000000000e+00
97,6.000000000000e-01,4.002545584412e+01,2.000000000000e+00
98,9.000000000000e-01,4.001377660357e+01,2.000000000000e+00
99,-1.200000000000e+00,4.001148050297e+01,2.500000000000e-01
100,-1.200000000000e+00,4.002121320344e+01,5.000000000000e-01
101,-1.200000000000e+00,4.002771638598e+01,7.500000000000e-01
102,-1.200000000000e+00,4.003000000000e+01,1.000000000000e+00
103,-1.200000000000e+00,4.002771638598e+01,1.250000000000e+00
104,-1.200000000000e+00,4.002121320344e+01,1.500000000000e+00
105,-1.200000000000e+00,4.001148050297e+01,1.750000000000e+00
106,1.200000000000e+00,3.998851949703e+01,2.500000000000e-01
107,1.200000000000e+00,3.997878679656e+01,5.000000000000e-01
108,1.200000000000e+00,3.997228361402e+01,7.500000000000e-01
109,1.200000000000e+00,3.997000000000e+01,1.000000000000e+00
110,1.200000000000e+00,3.997228361402e+01,1.250000000000e+00
111,1.200000000000e+00,3.997878679656e+01,1.500000000000e+00
112,1.200000000000e+00,3.998851949703e+01,1.750000000000e+00
113,-9.000000000000e-01,4.998622339643e+01,0.000000000000e+00
114,-6.000000000000e-01,4.997454415588e+01,0.000000000000e+00
115,-3.000000000000e-01,4.996674033683e+01,0.000000000000e+00
116,0.000000000000e+00,4.996400000000e+01,0.000000000000e+00
117,3.000000000000e-01,4.996674033683e+01,0.000000000000e+00
118,6.000000000000e-01,4.997454415588e+01,0.000000000000e+00
119,9.000000000000e-01,4.998622339643e+01,0.000000000000e+00
120,-9.000000000000e-01,5.001377660357e+01,2.000000000000e+00
121,-6.000000000000e-01,5.002545584412e+01,2.000000000000e+00
122,-3.000000000000e-01,5.003325966317e+01,2.000000000000e+00
123,0.000000000000e+00,5.003600000000e+01,2.000000000000e+00
124,3.000000000000e-01,5.003325966317e+01,2.000000000000e+00
125,6.000000000000e-01,5.002545584412e+01,2.000000000000e+00
126,9.000000000000e-01,5.001377660357e+01,2.000000000000e+00
127,-1.200000000000e+00,5.001148050297e+01,2.500000000000e-01
128,-1.200000000000e+00,5.002121320344e+01,5.000000000000e-01
129,-1.200000000000e+00,5.002771638598e+01,7.500000000000e-01
130,-1.200000000000e+00,5.003000000000e+01,1.000000000000e+00
131,-1.200000000000e+00,5.002771638598e+01,1.250000000000e+00
132,-1.200000000000e+00,5.002121320344e+01,1.500000000000e+00
133,-1.200000000000e+00,5.001148050297e+01,1.750000000000e+00
134,1.200000000000e+00,4.998851949703e+01,2.500000000000e-01
135,1.200000000000e+00,4.997878679656e+01,5.000000000000e-01
136,1.200000000000e+00,4.997228361402e+01,7.500000000000e-01
137,1.200000000000e+00,4.997000000000e+01,1.000000000000e+00
138,1.200000000000e+00,4.997228361402e+01,1.250000000000e+00
139,1.200000000000e+00,4.997878679656e+01,1.500000000000e+00
140,1.200000000000e+00,4.998851949703e+01,1.750000000000e+00
141,-1.200000000000e+00,2.521213203436e+00,3.939339828220e-01
142,-1.200000000000e+00,5.030000000000e+00,8.500000000000e-01
143,-1.200000000000e+00,7.521213203436e+00,1.393933982822e+00
144,-1.200000000000e+00,2.521213203436e+00,1.606066017178e+00
145,-1.200000000000e+00,5.030000000000e+00,1.150000000000e+00
146,-1.200000000000e+00,7.521213203436e+00,6.060660171780e-01
147,1.200000000000e+00,2.521213203436e+00,3.939339828220e-01
148,1.200000000000e+00,5.030000000000e+00,8.500000000000e-01
149,1.200000000000e+00,7.521213203436e+00,1.393933982822e+00
150,1.200000000000e+00,2.521213203436e+00,1.606066017178e+00
151,1.200000000000e+00,5.030000000000e+00,1.150000000000e+00
152,1.200000000000e+00,7.521213203436e+00,6.060660171780e-01
153,-4.939339828220e-01,2.474544155877e+00,0.000000000000e+00
154,1.500000000000e-01,4.964000000000e+00,0.000000000000e+00
155,7.060660171780e-01,7.474544155877e+00,0.000000000000e+00
156,4.939339828220e-01,2.474544155877e+00,0.000000000000e+00
157,-1.500000000000e-01,4.964000000000e+00,0.000000000000e+00
158,-7.060660171780e-01,7.474544155877e+00,0.000000000000e+00
159,-4.939339828220e-01,2.474544155877e+00,2.000000000000e+00
160,1.500000000000e-01,4.964000000000e+00,2.000000000000e+00
161,7.060660171780e-01,7.474544155877e+00,2.000000000000e+00
162,4.939339828220e-01,2.474544155877e+00,2.000000000000e+00
163,-1.500000000000e-01,4.964000000000e+00,2.000000000000e+00
164,-7.060660171780e-01,7.474544155877e+00,2.000000000000e+00
165,-1.200000000000e+00,1.252121320344e+01,3.939339828220e-01
166,-1.200000000000e+00,1.503000000000e+01,8.500000000000e-01
167,-1.200000000000e+00,1.752121320344e+01,1.393933982822e+00
168,-1.200000000000e+00,1.252121320344e+01,1.606066017178e+00
169,-1.200000000000e+00,1.503000000000e+01,1.150000000000e+00
170,-1.200000000000e+00,1.752121320344e+01,6.060660171780e-01
171,1.200000000000e+00,1.252121320344e+01,3.939339828220e-01
172,1.200000000000e+00,1.503000000000e+01,8.500000000000e-01
173,1.200000000000e+00,1.752121320344e+01,1.393933982822e+00
174,1.200000000000e+00,1.252121320344e+01,1.606066017178e+00
175,1.200000000000e+00,1.503000000000e+01,1.150000000000e+00
176,1.200000000000e+00,1.752121320344e+01,6.060660171780e-01
177,-4.939339828220e-01,1.247454415588e+01,0.000000000000e+00
178,1.500000000000e-01,1.496400000000e+01,0.000000000000e+00
179,7.060660171780e-01,1.747454415588e+01,0.000000000000e+00
180,4.939339828220e-01,1.247454415588e+01,0.000000000000e+00
181,-1.500000000000e-01,1.496400000000e+01,0.000000000000e+00
182,-7.060660171780e-01,1.747454415588e+01,0.000000000000e+00
183,-4.939339828220e-01,1.247454415588e+01,2.000000000000e+00
184,1.500000000000e-01,1.496400000000e+01,2.000000000000e+00
185,7.060660171780e-01,1.747454415588e+01,2.000000000000e+00
186,4.939339828220e-01,1.247454415588e+01,2.000000000000e+00
187,-1.500000000000e-01,1.496400000000e+01,2.000000000000e+00
188,-7.060660171780e-01,1.747454415588e+01,2.000000000000e+00
189,-1.200000000000e+00,3.503000000000e+01,8.500000000000e-01
190,-1.200000000000e+00,3.503000000000e+01,1.150000000000e+00
191,1.200000000000e+00,3.503000000000e+01,8.500000000000e-01
192,1.200000000000e+00,3.503000000000e+01,1.150000000000e+00
193,1.500000000000e-01,3.496400000000e+01,0.000000000000e+00
194,-1.500000000000e-01,3.496400000000e+01,0.000000000000e+00
195,1.500000000000e-01,3.496400000000e+01,2.000000000000e+00
196,-1.500000000000e-01,3.496400000000e+01,2.000000000000e+00
197,-1.200000000000e+00,4.126148050297e+01,1.925974851452e-01
198,-1.200000000000e+00,4.252121320344e+01,3.939339828220e-01
199,-1.200000000000e+00,4.377771638598e+01,6.114180701233e-01
200,-1.200000000000e+00,4.503000000000e+01,8.500000000000e-01
201,-1.200000000000e+00,4.627771638598e+01,1.111418070123e+00
202,-1.200000000000e+00,4.752121320344e+01,1.393933982822e+00
203,-1.200000000000e+00,4.876148050297e+01,1.692597485145e+00
204,-1.200000000000e+00,4.126148050297e+01,1.807402514855e+00
205,-1.200000000000e+00,4.252121320344e+01,1.606066017178e+00
206,-1.200000000000e+00,4.377771638598e+01,1.388581929877e+00
207,-1.200000000000e+00,4.503000000000e+01,1.150000000000e+00
208,-1.200000000000e+00,4.627771638598e+01,8.885819298767e-01
209,-1.200000000000e+00,4.752121320344e+01,6.060660171780e-01
210,-1.200000000000e+00,4.876148050297e+01,3.074025148548e-01
211,1.200000000000e+00,4.126148050297e+01,1.925974851452e-01
212,1.200000000000e+00,4.252121320344e+01,3.939339828220e-01
213,1.200000000000e+00,4.377771638598e+01,6.114180701233e-01
214,1.200000000000e+00,4.503000000000e+01,8.500000000000e-01
215,1.200000000000e+00,4.627771638598e+01,1.111418070123e+00
216,1.200000000000e+00,4.752121320344e+01,1.393933982822e+00
217,1.200000000000e+00,4.876148050297e+01,1.692597485145e+00
218,1.200000000000e+00,4.126148050297e+01,1.807402514855e+00
219,1.200000000000e+00,4.252121320344e+01,1.606066017178e+00
220,1.200000000000e+00,4.377771638598e+01,1.388581929877e+00
221,1.200000000000e+00,4.503000000000e+01,1.150000000000e+00
222,1.200000000000e+00,4.627771638598e+01,8.885819298767e-01
223,1.200000000000e+00,4.752121320344e+01,6.060660171780e-01
224,1.200000000000e+00,4.876148050297e+01,3.074025148548e-01
225,-8.425974851452e-01,4.123622339643e+01,0.000000000000e+00
226,-4.939339828220e-01,4.247454415588e+01,0.000000000000e+00
227,-1.614180701233e-01,4.371674033683e+01,0.000000000000e+00
228,1.500000000000e-01,4.496400000000e+01,0.000000000000e+00
229,4.385819298767e-01,4.621674033683e+01,0.000000000000e+00
230,7.060660171780e-01,4.747454415588e+01,0.000000000000e+00
231,9.574025148548e-01,4.873622339643e+01,0.000000000000e+00
232,8.425974851452e-01,4.123622339643e+01,0.000000000000e+00
233,4.939339828220e-01,4.247454415588e+01,0.000000000000e+00
234,1.614180701233e-01,4.371674033683e+01,0.000000000000e+00
235,-1.500000000000e-01,4.496400000000e+01,0.000000000000e+00
236,-4.385819298767e-01,4.621674033683e+01,0.000000000000e+00
237,-7.060660171780e-01,4.747454415588e+01,0.000000000000e+00
238,-9.574025148548e-01,4.873622339643e+01,0.000000000000e+00
239,-8.425974851452e-01,4.123622339643e+01,2.000000000000e+00
240,-4.939339828220e-01,4.247454415588e+01,2.000000000000e+00
241,-1.614180701233e-01,4.371674033683e+01,2.000000000000e+00
242,1.500000000000e-01,4.496400000000e+01,2.000000000000e+00
243,4.385819298767e-01,4.621674033683e+01,2.000000000000e+00
244,7.060660171780e-01,4.747454415588e+01,2.000000000000e+00
245,9.574025148548e-01,4.873622339643e+01,2.000000000000e+00
246,8.425974851452e-01,4.123622339643e+01,2.000000000000e+00
247,4.939339828220e-01,4.247454415588e+01,2.000000000000e+00
248,1.614180701233e-01,4.371674033683e+01,2.000000000000e+00
249,-1.500000000000e-01,4.496400000000e+01,2.000000000000e+00
250,-4.385819298767e-01,4.621674033683e+01,2.000000000000e+00
251,-7.060660171780e-01,4.747454415588e+01,2.000000000000e+00
252,-9.574025148548e-01,4.873622339643e+01,2.000000000000e+00
*ELEMENT,TYPE=B31,ELSET=ALL
1,1,5
2,2,6
3,3,7
4,4,8
5,5,25
6,25,9
7,6,26
8,26,10
9,7,27
10,27,11
11,8,28
12,28,12
13,9,13
14,10,14
15,11,15
16,12,16
17,13,29
18,29,30
19,30,31
20,31,17
21,14,32
22,32,33
23,33,34
24,34,18
25,15,35
26,35,36
27,36,37
28,37,19
29,16,38
30,38,39
31,39,40
32,40,20
33,17,41
34,41,42
35,42,43
36,43,44
37,44,45
38,45,46
39,46,47
40,47,21
41,18,48
42,48,49
43,49,50
44,50,51
45,51,52
46,52,53
47,53,54
48,54,22
49,19,55
50,55,56
51,56,57
52,57,58
53,58,59
54,59,60
55,60,61
56,61,23
57,20,62
58,62,63
59,63,64
60,64,65
61,65,66
62,66,67
63,67,68
64,68,24
65,1,69
66,69,2
67,3,70
68,70,4
69,1,71
70,71,3
71,2,72
72,72,4
73,5,6
74,7,8
75,5,7
76,6,8
77,9,10
78,11,12
79,9,11
80,10,12
81,13,73
82,73,74
83,74,75
84,75,14
85,15,76
86,76,77
87,77,78
88,78,16
89,13,79
90,79,80
91,80,81
92,81,15
93,14,82
94,82,83
95,83,84
96,84,16
97,17,85
98,85,86
99,86,87
100,87,88
101,88,89
102,89,90
103,90,91
104,91,18
105,19,92
106,92,93
107,93,94
108,94,95
109,95,96
110,96,97
111,97,98
112,98,20
113,17,99
114,99,100
115,100,101
116,101,102
117,102,103
118,103,104
119,104,105
120,105,19
121,18,106
122,106,107
123,107,108
124,108,109
125,109,110
126,110,111
127,111,112
128,112,20
129,21,113
130,113,114
131,114,115
132,115,116
133,116,117
134,117,118
135,118,119
136,119,22
137,23,120
138,120,121
139,121,122
140,122,123
141,123,124
142,124,125
143,125,126
144,126,24
145,21,127
146,127,128
147,128,129
148,129,130
149,130,131
150,131,132
151,132,133
152,133,23
153,22,134
154,134,135
155,135,136
156,136,137
157,137,138
158,138,139
159,139,140
160,140,24
161,1,141
162,141,142
163,142,143
164,143,7
165,3,144
166,144,145
167,145,146
168,146,5
169,2,147
170,147,148
171,148,149
172,149,8
173,4,150
174,150,151
175,151,152
176,152,6
177,1,153
178,153,154
179,154,155
180,155,6
181,2,156
182,156,157
183,157,158
184,158,5
185,3,159
186,159,160
187,160,161
188,161,8
189,4,162
190,162,163
191,163,164
192,164,7
193,5,165
194,165,166
195,166,167
196,167,11
197,7,168
198,168,169
199,169,170
200,170,9
201,6,171
202,171,172
203,172,173
204,173,12
205,8,174
206,174,175
207,175,176
208,176,10
209,5,177
210,177,178
211,178,179
212,179,10
213,6,180
214,180,181
215,181,182
216,182,9
217,7,183
218,183,184
219,184,185
220,185,12
221,8,186
222,186,187
223,187,188
224,188,11
225,9,15
226,11,13
227,10,16
228,12,14
229,9,14
230,10,13
231,11,16
232,12,15
233,13,189
234,189,19
235,15,190
236,190,17
237,14,191
238,191,20
239,16,192
240,192,18
241,13,193
242,193,18
243,14,194
244,194,17
245,15,195
246,195,20
247,16,196
248,196,19
249,17,197
250,197,198
251,198,199
252,199,200
253,200,201
254,201,202
255,202,203
256,203,23
257,19,204
258,204,205
259,205,206
260,206,207
261,207,208
262,208,209
263,209,210
264,210,21
265,18,211
266,211,212
267,212,213
268,213,214
269,214,215
270,215,216
271,216,217
272,217,24
273,20,218
274,218,219
275,219,220
276,220,221
277,221,222
278,222,223
279,223,224
280,224,22
281,17,225
282,225,226
283,226,227
284,227,228
285,228,229
286,229,230
287,230,231
288,231,22
289,18,232
290,232,233
291,233,234
292,234,235
293,235,236
294,236,237
295,237,238
296,238,21
297,19,239
298,239,240
299,240,241
300,241,242
301,242,243
302,243,244
303,244,245
304,245,24
305,20,246
306,246,247
307,247,248
308,248,249
309,249,250
310,250,251
311,251,252
312,252,23
*NSET,NSET=NALL,GENERATE
1,252,1
*NSET,NSET=LEFT
1,2,3,4
*NSET,NSET=RIGHT
21,22,23,24
*MATERIAL,NAME=STEEL
*ELASTIC
2.100000000000e+11,0.300000000000
*BEAM SECTION,ELSET=ALL,MATERIAL=STEEL,SECTION=RECT
6.000000000000e-02,4.000000000000e-02
0.371390676354,0.557086014531,0.742781352708
*BOUNDARY
LEFT,1,6,0.0
*STEP
*STATIC
*BOUNDARY
21,1,1,5.000000000000e-03
21,2,2,0.0
21,3,3,-6.000000000000e-03
*BOUNDARY
22,1,1,5.000000000000e-03
22,2,2,0.0
22,3,3,6.000000000000e-03
*BOUNDARY
23,1,1,-5.000000000000e-03
23,2,2,0.0
23,3,3,-6.000000000000e-03
*BOUNDARY
24,1,1,-5.000000000000e-03
24,2,2,0.0
24,3,3,6.000000000000e-03
*NODE FILE,NSET=NALL
U
*NODE PRINT,NSET=NALL
U
*NODE PRINT,NSET=RIGHT
RF
*EL PRINT,ELSET=ALL,TOTALS=YES
ELSE
*END STEP
