*HEADING
Normalized cross-passage space-truss torsion benchmark
*NODE
1,-1.200000000000e+00,0.000000000000e+00,0.000000000000e+00
2,1.200000000000e+00,0.000000000000e+00,0.000000000000e+00
3,-1.200000000000e+00,0.000000000000e+00,2.000000000000e+00
4,1.200000000000e+00,0.000000000000e+00,2.000000000000e+00
5,-1.200000000000e+00,1.000000000000e+01,0.000000000000e+00
6,1.200000000000e+00,1.000000000000e+01,0.000000000000e+00
7,-1.200000000000e+00,1.000000000000e+01,2.000000000000e+00
8,1.200000000000e+00,1.000000000000e+01,2.000000000000e+00
9,-1.200000000000e+00,2.000000000000e+01,0.000000000000e+00
10,1.200000000000e+00,2.000000000000e+01,0.000000000000e+00
11,-1.200000000000e+00,2.000000000000e+01,2.000000000000e+00
12,1.200000000000e+00,2.000000000000e+01,2.000000000000e+00
13,-1.200000000000e+00,3.000000000000e+01,0.000000000000e+00
14,1.200000000000e+00,3.000000000000e+01,0.000000000000e+00
15,-1.200000000000e+00,3.000000000000e+01,2.000000000000e+00
16,1.200000000000e+00,3.000000000000e+01,2.000000000000e+00
17,-1.200000000000e+00,4.000000000000e+01,0.000000000000e+00
18,1.200000000000e+00,4.000000000000e+01,0.000000000000e+00
19,-1.200000000000e+00,4.000000000000e+01,2.000000000000e+00
20,1.200000000000e+00,4.000000000000e+01,2.000000000000e+00
21,-1.200000000000e+00,5.000000000000e+01,0.000000000000e+00
22,1.200000000000e+00,5.000000000000e+01,0.000000000000e+00
23,-1.200000000000e+00,5.000000000000e+01,2.000000000000e+00
24,1.200000000000e+00,5.000000000000e+01,2.000000000000e+00
25,-1.200000000000e+00,2.500000000000e+01,-1.500000000000e-01
26,1.200000000000e+00,2.500000000000e+01,1.500000000000e-01
27,-1.200000000000e+00,2.500000000000e+01,1.850000000000e+00
28,1.200000000000e+00,2.500000000000e+01,2.150000000000e+00
29,-1.200000000000e+00,3.250000000000e+01,-1.060660171780e-01
30,-1.200000000000e+00,3.500000000000e+01,-1.500000000000e-01
31,-1.200000000000e+00,3.750000000000e+01,-1.060660171780e-01
32,1.200000000000e+00,3.250000000000e+01,1.060660171780e-01
33,1.200000000000e+00,3.500000000000e+01,1.500000000000e-01
34,1.200000000000e+00,3.750000000000e+01,1.060660171780e-01
35,-1.200000000000e+00,3.250000000000e+01,1.893933982822e+00
36,-1.200000000000e+00,3.500000000000e+01,1.850000000000e+00
37,-1.200000000000e+00,3.750000000000e+01,1.893933982822e+00
38,1.200000000000e+00,3.250000000000e+01,2.106066017178e+00
39,1.200000000000e+00,3.500000000000e+01,2.150000000000e+00
40,1.200000000000e+00,3.750000000000e+01,2.106066017178e+00
41,0.000000000000e+00,-3.600000000000e-02,0.000000000000e+00
42,0.000000000000e+00,3.600000000000e-02,2.000000000000e+00
43,-1.200000000000e+00,3.000000000000e-02,1.000000000000e+00
44,1.200000000000e+00,-3.000000000000e-02,1.000000000000e+00
45,-6.000000000000e-01,1.997454415588e+01,0.000000000000e+00
46,0.000000000000e+00,1.996400000000e+01,0.000000000000e+00
47,6.000000000000e-01,1.997454415588e+01,0.000000000000e+00
48,-6.000000000000e-01,2.002545584412e+01,2.000000000000e+00
49,0.000000000000e+00,2.003600000000e+01,2.000000000000e+00
50,6.000000000000e-01,2.002545584412e+01,2.000000000000e+00
51,-1.200000000000e+00,2.002121320344e+01,5.000000000000e-01
52,-1.200000000000e+00,2.003000000000e+01,1.000000000000e+00
53,-1.200000000000e+00,2.002121320344e+01,1.500000000000e+00
54,1.200000000000e+00,1.997878679656e+01,5.000000000000e-01
55,1.200000000000e+00,1.997000000000e+01,1.000000000000e+00
56,1.200000000000e+00,1.997878679656e+01,1.500000000000e+00
57,0.000000000000e+00,4.996400000000e+01,0.000000000000e+00
58,0.000000000000e+00,5.003600000000e+01,2.000000000000e+00
59,-1.200000000000e+00,5.003000000000e+01,1.000000000000e+00
60,1.200000000000e+00,4.997000000000e+01,1.000000000000e+00
61,-1.200000000000e+00,1.126148050297e+01,1.925974851452e-01
62,-1.200000000000e+00,1.252121320344e+01,3.939339828220e-01
63,-1.200000000000e+00,1.377771638598e+01,6.114180701233e-01
64,-1.200000000000e+00,1.503000000000e+01,8.500000000000e-01
65,-1.200000000000e+00,1.627771638598e+01,1.111418070123e+00
66,-1.200000000000e+00,1.752121320344e+01,1.393933982822e+00
67,-1.200000000000e+00,1.876148050297e+01,1.692597485145e+00
68,-1.200000000000e+00,1.126148050297e+01,1.807402514855e+00
69,-1.200000000000e+00,1.252121320344e+01,1.606066017178e+00
70,-1.200000000000e+00,1.377771638598e+01,1.388581929877e+00
71,-1.200000000000e+00,1.503000000000e+01,1.150000000000e+00
72,-1.200000000000e+00,1.627771638598e+01,8.885819298767e-01
73,-1.200000000000e+00,1.752121320344e+01,6.060660171780e-01
74,-1.200000000000e+00,1.876148050297e+01,3.074025148548e-01
75,1.200000000000e+00,1.126148050297e+01,1.925974851452e-01
76,1.200000000000e+00,1.252121320344e+01,3.939339828220e-01
77,1.200000000000e+00,1.377771638598e+01,6.114180701233e-01
78,1.200000000000e+00,1.503000000000e+01,8.500000000000e-01
79,1.200000000000e+00,1.627771638598e+01,1.111418070123e+00
80,1.200000000000e+00,1.752121320344e+01,1.393933982822e+00
81,1.200000000000e+00,1.876148050297e+01,1.692597485145e+00
82,1.200000000000e+00,1.126148050297e+01,1.807402514855e+00
83,1.200000000000e+00,1.252121320344e+01,1.606066017178e+00
84,1.200000000000e+00,1.377771638598e+01,1.388581929877e+00
85,1.200000000000e+00,1.503000000000e+01,1.150000000000e+00
86,1.200000000000e+00,1.627771638598e+01,8.885819298767e-01
87,1.200000000000e+00,1.752121320344e+01,6.060660171780e-01
88,1.200000000000e+00,1.876148050297e+01,3.074025148548e-01
89,-8.425974851452e-01,1.123622339643e+01,0.000000000000e+00
90,-4.939339828220e-01,1.247454415588e+01,0.000000000000e+00
91,-1.614180701233e-01,1.371674033683e+01,0.000000000000e+00
92,1.500000000000e-01,1.496400000000e+01,0.000000000000e+00
93,4.385819298767e-01,1.621674033683e+01,0.000000000000e+00
94,7.060660171780e-01,1.747454415588e+01,0.000000000000e+00
95,9.574025148548e-01,1.873622339643e+01,0.000000000000e+00
96,8.425974851452e-01,1.123622339643e+01,0.000000000000e+00
97,4.939339828220e-01,1.247454415588e+01,0.000000000000e+00
98,1.614180701233e-01,1.371674033683e+01,0.000000000000e+00
99,-1.500000000000e-01,1.496400000000e+01,0.000000000000e+00
100,-4.385819298767e-01,1.621674033683e+01,0.000000000000e+00
101,-7.060660171780e-01,1.747454415588e+01,0.000000000000e+00
102,-9.574025148548e-01,1.873622339643e+01,0.000000000000e+00
103,-8.425974851452e-01,1.123622339643e+01,2.000000000000e+00
104,-4.939339828220e-01,1.247454415588e+01,2.000000000000e+00
105,-1.614180701233e-01,1.371674033683e+01,2.000000000000e+00
106,1.500000000000e-01,1.496400000000e+01,2.000000000000e+00
107,4.385819298767e-01,1.621674033683e+01,2.000000000000e+00
108,7.060660171780e-01,1.747454415588e+01,2.000000000000e+00
109,9.574025148548e-01,1.873622339643e+01,2.000000000000e+00
110,8.425974851452e-01,1.123622339643e+01,2.000000000000e+00
111,4.939339828220e-01,1.247454415588e+01,2.000000000000e+00
112,1.614180701233e-01,1.371674033683e+01,2.000000000000e+00
113,-1.500000000000e-01,1.496400000000e+01,2.000000000000e+00
114,-4.385819298767e-01,1.621674033683e+01,2.000000000000e+00
115,-7.060660171780e-01,1.747454415588e+01,2.000000000000e+00
116,-9.574025148548e-01,1.873622339643e+01,2.000000000000e+00
117,-1.200000000000e+00,3.503000000000e+01,8.500000000000e-01
118,-1.200000000000e+00,3.503000000000e+01,1.150000000000e+00
119,1.200000000000e+00,3.503000000000e+01,8.500000000000e-01
120,1.200000000000e+00,3.503000000000e+01,1.150000000000e+00
121,1.500000000000e-01,3.496400000000e+01,0.000000000000e+00
122,-1.500000000000e-01,3.496400000000e+01,0.000000000000e+00
123,1.500000000000e-01,3.496400000000e+01,2.000000000000e+00
124,-1.500000000000e-01,3.496400000000e+01,2.000000000000e+00
125,-1.200000000000e+00,4.503000000000e+01,8.500000000000e-01
126,-1.200000000000e+00,4.503000000000e+01,1.150000000000e+00
127,1.200000000000e+00,4.503000000000e+01,8.500000000000e-01
128,1.200000000000e+00,4.503000000000e+01,1.150000000000e+00
129,1.500000000000e-01,4.496400000000e+01,0.000000000000e+00
130,-1.500000000000e-01,4.496400000000e+01,0.000000000000e+00
131,1.500000000000e-01,4.496400000000e+01,2.000000000000e+00
132,-1.500000000000e-01,4.496400000000e+01,2.000000000000e+00
*ELEMENT,TYPE=B31,ELSET=ALL
1,1,5
2,2,6
3,3,7
4,4,8
5,5,9
6,6,10
7,7,11
8,8,12
9,9,25
10,25,13
11,10,26
12,26,14
13,11,27
14,27,15
15,12,28
16,28,16
17,13,29
18,29,30
19,30,31
20,31,17
21,14,32
22,32,33
23,33,34
24,34,18
25,15,35
26,35,36
27,36,37
28,37,19
29,16,38
30,38,39
31,39,40
32,40,20
33,17,21
34,18,22
35,19,23
36,20,24
37,1,41
38,41,2
39,3,42
40,42,4
41,1,43
42,43,3
43,2,44
44,44,4
45,5,6
46,7,8
47,5,7
48,6,8
49,9,45
50,45,46
51,46,47
52,47,10
53,11,48
54,48,49
55,49,50
56,50,12
57,9,51
58,51,52
59,52,53
60,53,11
61,10,54
62,54,55
63,55,56
64,56,12
65,13,14
66,15,16
67,13,15
68,14,16
69,17,18
70,19,20
71,17,19
72,18,20
73,21,57
74,57,22
75,23,58
76,58,24
77,21,59
78,59,23
79,22,60
80,60,24
81,1,7
82,3,5
83,2,8
84,4,6
85,1,6
86,2,5
87,3,8
88,4,7
89,5,61
90,61,62
91,62,63
92,63,64
93,64,65
94,65,66
95,66,67
96,67,11
97,7,68
98,68,69
99,69,70
100,70,71
101,71,72
102,72,73
103,73,74
104,74,9
105,6,75
106,75,76
107,76,77
108,77,78
109,78,79
110,79,80
111,80,81
112,81,12
113,8,82
114,82,83
115,83,84
116,84,85
117,85,86
118,86,87
119,87,88
120,88,10
121,5,89
122,89,90
123,90,91
124,91,92
125,92,93
126,93,94
127,94,95
128,95,10
129,6,96
130,96,97
131,97,98
132,98,99
133,99,100
134,100,101
135,101,102
136,102,9
137,7,103
138,103,104
139,104,105
140,105,106
141,106,107
142,107,108
143,108,109
144,109,12
145,8,110
146,110,111
147,111,112
148,112,113
149,113,114
150,114,115
151,115,116
152,116,11
153,9,15
154,11,13
155,10,16
156,12,14
157,9,14
158,10,13
159,11,16
160,12,15
161,13,117
162,117,19
163,15,118
164,118,17
165,14,119
166,119,20
167,16,120
168,120,18
169,13,121
170,121,18
171,14,122
172,122,17
173,15,123
174,123,20
175,16,124
176,124,19
177,17,125
178,125,23
179,19,126
180,126,21
181,18,127
182,127,24
183,20,128
184,128,22
185,17,129
186,129,22
187,18,130
188,130,21
189,19,131
190,131,24
191,20,132
192,132,23
*NSET,NSET=NALL,GENERATE
1,132,1
*NSET,NSET=LEFT
1,2,3,4
*NSET,NSET=RIGHT
21,22,23,24
*MATERIAL,NAME=STEEL
*ELASTIC
2.100000000000e+11,0.300000000000
*BEAM SECTION,ELSET=ALL,MATERIAL=STEEL,SECTION=RECT
6.000000000000e-02,4.000000000000e-02
0.371390676354,0.557086014531,0.742781352708
*BOUNDARY
LEFT,1,6,0.0
*STEP
*STATIC
*BOUNDARY
21,1,1,5.000000000000e-03
21,2,2,0.0
21,3,3,-6.000000000000e-03
*BOUNDARY
22,1,1,5.000000000000e-03
22,2,2,0.0
22,3,3,6.000000000000e-03
*BOUNDARY
23,1,1,-5.000000000000e-03
23,2,2,0.0
23,3,3,-6.000000000000e-03
*BOUNDARY
24,1,1,-5.000000000000e-03
24,2,2,0.0
24,3,3,6.000000000000e-03
*NODE FILE,NSET=NALL
U
*NODE PRINT,NSET=NALL
U
*NODE PRINT,NSET=RIGHT
RF
*EL PRINT,ELSET=ALL,TOTALS=YES
ELSE
*END STEP
