*HEADING
Normalized cross-passage space-truss torsion benchmark
*NODE
1,-1.200000000000e+00,0.000000000000e+00,0.000000000000e+00
2,1.200000000000e+00,0.000000000000e+00,0.000000000000e+00
3,-1.200000000000e+00,0.000000000000e+00,2.000000000000e+00
4,1.200000000000e+00,0.000000000000e+00,2.000000000000e+00
5,-1.200000000000e+00,1.000000000000e+01,0.000000000000e+00
6,1.200000000000e+00,1.000000000000e+01,0.000000000000e+00
7,-1.200000000000e+00,1.000000000000e+01,2.000000000000e+00
8,1.200000000000e+00,1.000000000000e+01,2.000000000000e+00
9,-1.200000000000e+00,2.000000000000e+01,0.000000000000e+00
10,1.200000000000e+00,2.000000000000e+01,0.000000000000e+00
11,-1.200000000000e+00,2.000000000000e+01,2.000000000000e+00
12,1.200000000000e+00,2.000000000000e+01,2.000000000000e+00
13,-1.200000000000e+00,3.000000000000e+01,0.000000000000e+00
14,1.200000000000e+00,3.000000000000e+01,0.000000000000e+00
15,-1.200000000000e+00,3.000000000000e+01,2.000000000000e+00
16,1.200000000000e+00,3.000000000000e+01,2.000000000000e+00
17,-1.200000000000e+00,4.000000000000e+01,0.000000000000e+00
18,1.200000000000e+00,4.000000000000e+01,0.000000000000e+00
19,-1.200000000000e+00,4.000000000000e+01,2.000000000000e+00
20,1.200000000000e+00,4.000000000000e+01,2.000000000000e+00
21,-1.200000000000e+00,5.000000000000e+01,0.000000000000e+00
22,1.200000000000e+00,5.000000000000e+01,0.000000000000e+00
23,-1.200000000000e+00,5.000000000000e+01,2.000000000000e+00
24,1.200000000000e+00,5.000000000000e+01,2.000000000000e+00
25,-1.200000000000e+00,5.000000000000e+00,-1.500000000000e-01
26,1.200000000000e+00,5.000000000000e+00,1.500000000000e-01
27,-1.200000000000e+00,5.000000000000e+00,1.850000000000e+00
28,1.200000000000e+00,5.000000000000e+00,2.150000000000e+00
29,-1.200000000000e+00,2.250000000000e+01,-1.060660171780e-01
30,-1.200000000000e+00,2.500000000000e+01,-1.500000000000e-01
31,-1.200000000000e+00,2.750000000000e+01,-1.060660171780e-01
32,1.200000000000e+00,2.250000000000e+01,1.060660171780e-01
33,1.200000000000e+00,2.500000000000e+01,1.500000000000e-01
34,1.200000000000e+00,2.750000000000e+01,1.060660171780e-01
35,-1.200000000000e+00,2.250000000000e+01,1.893933982822e+00
36,-1.200000000000e+00,2.500000000000e+01,1.850000000000e+00
37,-1.200000000000e+00,2.750000000000e+01,1.893933982822e+00
38,1.200000000000e+00,2.250000000000e+01,2.106066017178e+00
39,1.200000000000e+00,2.500000000000e+01,2.150000000000e+00
40,1.200000000000e+00,2.750000000000e+01,2.106066017178e+00
41,-1.200000000000e+00,3.250000000000e+01,-1.060660171780e-01
42,-1.200000000000e+00,3.500000000000e+01,-1.500000000000e-01
43,-1.200000000000e+00,3.750000000000e+01,-1.060660171780e-01
44,1.200000000000e+00,3.250000000000e+01,1.060660171780e-01
45,1.200000000000e+00,3.500000000000e+01,1.500000000000e-01
46,1.200000000000e+00,3.750000000000e+01,1.060660171780e-01
47,-1.200000000000e+00,3.250000000000e+01,1.893933982822e+00
48,-1.200000000000e+00,3.500000000000e+01,1.850000000000e+00
49,-1.200000000000e+00,3.750000000000e+01,1.893933982822e+00
50,1.200000000000e+00,3.250000000000e+01,2.106066017178e+00
51,1.200000000000e+00,3.500000000000e+01,2.150000000000e+00
52,1.200000000000e+00,3.750000000000e+01,2.106066017178e+00
53,-1.200000000000e+00,4.500000000000e+01,-1.500000000000e-01
54,1.200000000000e+00,4.500000000000e+01,1.500000000000e-01
55,-1.200000000000e+00,4.500000000000e+01,1.850000000000e+00
56,1.200000000000e+00,4.500000000000e+01,2.150000000000e+00
57,0.000000000000e+00,-3.600000000000e-02,0.000000000000e+00
58,0.000000000000e+00,3.600000000000e-02,2.000000000000e+00
59,-1.200000000000e+00,3.000000000000e-02,1.000000000000e+00
60,1.200000000000e+00,-3.000000000000e-02,1.000000000000e+00
61,0.000000000000e+00,9.964000000000e+00,0.000000000000e+00
62,0.000000000000e+00,1.003600000000e+01,2.000000000000e+00
63,-1.200000000000e+00,1.003000000000e+01,1.000000000000e+00
64,1.200000000000e+00,9.970000000000e+00,1.000000000000e+00
65,0.000000000000e+00,1.996400000000e+01,0.000000000000e+00
66,0.000000000000e+00,2.003600000000e+01,2.000000000000e+00
67,-1.200000000000e+00,2.003000000000e+01,1.000000000000e+00
68,1.200000000000e+00,1.997000000000e+01,1.000000000000e+00
69,0.000000000000e+00,2.996400000000e+01,0.000000000000e+00
70,0.000000000000e+00,3.003600000000e+01,2.000000000000e+00
71,-1.200000000000e+00,3.003000000000e+01,1.000000000000e+00
72,1.200000000000e+00,2.997000000000e+01,1.000000000000e+00
73,-6.000000000000e-01,3.997454415588e+01,0.000000000000e+00
74,0.000000000000e+00,3.996400000000e+01,0.000000000000e+00
75,6.000000000000e-01,3.997454415588e+01,0.000000000000e+00
76,-6.000000000000e-01,4.002545584412e+01,2.000000000000e+00
77,0.000000000000e+00,4.003600000000e+01,2.000000000000e+00
78,6.000000000000e-01,4.002545584412e+01,2.000000000000e+00
79,-1.200000000000e+00,4.002121320344e+01,5.000000000000e-01
80,-1.200000000000e+00,4.003000000000e+01,1.000000000000e+00
81,-1.200000000000e+00,4.002121320344e+01,1.500000000000e+00
82,1.200000000000e+00,3.997878679656e+01,5.000000000000e-01
83,1.200000000000e+00,3.997000000000e+01,1.000000000000e+00
84,1.200000000000e+00,3.997878679656e+01,1.500000000000e+00
85,-9.000000000000e-01,4.998622339643e+01,0.000000000000e+00
86,-6.000000000000e-01,4.997454415588e+01,0.000000000000e+00
87,-3.000000000000e-01,4.996674033683e+01,0.000000000000e+00
88,0.000000000000e+00,4.996400000000e+01,0.000000000000e+00
89,3.000000000000e-01,4.996674033683e+01,0.000000000000e+00
90,6.000000000000e-01,4.997454415588e+01,0.000000000000e+00
91,9.000000000000e-01,4.998622339643e+01,0.000000000000e+00
92,-9.000000000000e-01,5.001377660357e+01,2.000000000000e+00
93,-6.000000000000e-01,5.002545584412e+01,2.000000000000e+00
94,-3.000000000000e-01,5.003325966317e+01,2.000000000000e+00
95,0.000000000000e+00,5.003600000000e+01,2.000000000000e+00
96,3.000000000000e-01,5.003325966317e+01,2.000000000000e+00
97,6.000000000000e-01,5.002545584412e+01,2.000000000000e+00
98,9.000000000000e-01,5.001377660357e+01,2.000000000000e+00
99,-1.200000000000e+00,5.001148050297e+01,2.500000000000e-01
100,-1.200000000000e+00,5.002121320344e+01,5.000000000000e-01
101,-1.200000000000e+00,5.002771638598e+01,7.500000000000e-01
102,-1.200000000000e+00,5.003000000000e+01,1.000000000000e+00
103,-1.200000000000e+00,5.002771638598e+01,1.250000000000e+00
104,-1.200000000000e+00,5.002121320344e+01,1.500000000000e+00
105,-1.200000000000e+00,5.001148050297e+01,1.750000000000e+00
106,1.200000000000e+00,4.998851949703e+01,2.500000000000e-01
107,1.200000000000e+00,4.997878679656e+01,5.000000000000e-01
108,1.200000000000e+00,4.997228361402e+01,7.500000000000e-01
109,1.200000000000e+00,4.997000000000e+01,1.000000000000e+00
110,1.200000000000e+00,4.997228361402e+01,1.250000000000e+00
111,1.200000000000e+00,4.997878679656e+01,1.500000000000e+00
112,1.200000000000e+00,4.998851949703e+01,1.750000000000e+00
113,-1.200000000000e+00,5.030000000000e+00,8.500000000000e-01
114,-1.200000000000e+00,5.030000000000e+00,1.150000000000e+00
115,1.200000000000e+00,5.030000000000e+00,8.500000000000e-01
116,1.200000000000e+00,5.030000000000e+00,1.150000000000e+00
117,1.500000000000e-01,4.964000000000e+00,0.000000000000e+00
118,-1.500000000000e-01,4.964000000000e+00,0.000000000000e+00
119,1.500000000000e-01,4.964000000000e+00,2.000000000000e+00
120,-1.500000000000e-01,4.964000000000e+00,2.000000000000e+00
121,-1.200000000000e+00,1.503000000000e+01,8.500000000000e-01
122,-1.200000000000e+00,1.503000000000e+01,1.150000000000e+00
123,1.200000000000e+00,1.503000000000e+01,8.500000000000e-01
124,1.200000000000e+00,1.503000000000e+01,1.150000000000e+00
125,1.500000000000e-01,1.496400000000e+01,0.000000000000e+00
126,-1.500000000000e-01,1.496400000000e+01,0.000000000000e+00
127,1.500000000000e-01,1.496400000000e+01,2.000000000000e+00
128,-1.500000000000e-01,1.496400000000e+01,2.000000000000e+00
129,-1.200000000000e+00,2.503000000000e+01,8.500000000000e-01
130,-1.200000000000e+00,2.503000000000e+01,1.150000000000e+00
131,1.200000000000e+00,2.503000000000e+01,8.500000000000e-01
132,1.200000000000e+00,2.503000000000e+01,1.150000000000e+00
133,1.500000000000e-01,2.496400000000e+01,0.000000000000e+00
134,-1.500000000000e-01,2.496400000000e+01,0.000000000000e+00
135,1.500000000000e-01,2.496400000000e+01,2.000000000000e+00
136,-1.500000000000e-01,2.496400000000e+01,2.000000000000e+00
137,-1.200000000000e+00,3.503000000000e+01,8.500000000000e-01
138,-1.200000000000e+00,3.503000000000e+01,1.150000000000e+00
139,1.200000000000e+00,3.503000000000e+01,8.500000000000e-01
140,1.200000000000e+00,3.503000000000e+01,1.150000000000e+00
141,1.500000000000e-01,3.496400000000e+01,0.000000000000e+00
142,-1.500000000000e-01,3.496400000000e+01,0.000000000000e+00
143,1.500000000000e-01,3.496400000000e+01,2.000000000000e+00
144,-1.500000000000e-01,3.496400000000e+01,2.000000000000e+00
145,-1.200000000000e+00,4.126148050297e+01,1.925974851452e-01
146,-1.200000000000e+00,4.252121320344e+01,3.939339828220e-01
147,-1.200000000000e+00,4.377771638598e+01,6.114180701233e-01
148,-1.200000000000e+00,4.503000000000e+01,8.500000000000e-01
149,-1.200000000000e+00,4.627771638598e+01,1.111418070123e+00
150,-1.200000000000e+00,4.752121320344e+01,1.393933982822e+00
151,-1.200000000000e+00,4.876148050297e+01,1.692597485145e+00
152,-1.200000000000e+00,4.126148050297e+01,1.807402514855e+00
153,-1.200000000000e+00,4.252121320344e+01,1.606066017178e+00
154,-1.200000000000e+00,4.377771638598e+01,1.388581929877e+00
155,-1.200000000000e+00,4.503000000000e+01,1.150000000000e+00
156,-1.200000000000e+00,4.627771638598e+01,8.885819298767e-01
157,-1.200000000000e+00,4.752121320344e+01,6.060660171780e-01
158,-1.200000000000e+00,4.876148050297e+01,3.074025148548e-01
159,1.200000000000e+00,4.126148050297e+01,1.925974851452e-01
160,1.200000000000e+00,4.252121320344e+01,3.939339828220e-01
161,1.200000000000e+00,4.377771638598e+01,6.114180701233e-01
162,1.200000000000e+00,4.503000000000e+01,8.500000000000e-01
163,1.200000000000e+00,4.627771638598e+01,1.111418070123e+00
164,1.200000000000e+00,4.752121320344e+01,1.393933982822e+00
165,1.200000000000e+00,4.876148050297e+01,1.692597485145e+00
166,1.200000000000e+00,4.126148050297e+01,1.807402514855e+00
167,1.200000000000e+00,4.252121320344e+01,1.606066017178e+00
168,1.200000000000e+00,4.377771638598e+01,1.388581929877e+00
169,1.200000000000e+00,4.503000000000e+01,1.150000000000e+00
170,1.200000000000e+00,4.627771638598e+01,8.885819298767e-01
171,1.200000000000e+00,4.752121320344e+01,6.060660171780e-01
172,1.200000000000e+00,4.876148050297e+01,3.074025148548e-01
173,-8.425974851452e-01,4.123622339643e+01,0.000000000000e+00
174,-4.939339828220e-01,4.247454415588e+01,0.000000000000e+00
175,-1.614180701233e-01,4.371674033683e+01,0.000000000000e+00
176,1.500000000000e-01,4.496400000000e+01,0.000000000000e+00
177,4.385819298767e-01,4.621674033683e+01,0.000000000000e+00
178,7.060660171780e-01,4.747454415588e+01,0.000000000000e+00
179,9.574025148548e-01,4.873622339643e+01,0.000000000000e+00
180,8.425974851452e-01,4.123622339643e+01,0.000000000000e+00
181,4.939339828220e-01,4.247454415588e+01,0.000000000000e+00
182,1.614180701233e-01,4.371674033683e+01,0.000000000000e+00
183,-1.500000000000e-01,4.496400000000e+01,0.000000000000e+00
184,-4.385819298767e-01,4.621674033683e+01,0.000000000000e+00
185,-7.060660171780e-01,4.747454415588e+01,0.000000000000e+00
186,-9.574025148548e-01,4.873622339643e+01,0.000000000000e+00
187,-8.425974851452e-01,4.123622339643e+01,2.000000000000e+00
188,-4.939339828220e-01,4.247454415588e+01,2.000000000000e+00
189,-1.614180701233e-01,4.371674033683e+01,2.000000000000e+00
190,1.500000000000e-01,4.496400000000e+01,2.000000000000e+00
191,4.385819298767e-01,4.621674033683e+01,2.000000000000e+00
192,7.060660171780e-01,4.747454415588e+01,2.000000000000e+00
193,9.574025148548e-01,4.873622339643e+01,2.000000000000e+00
194,8.425974851452e-01,4.123622339643e+01,2.000000000000e+00
195,4.939339828220e-01,4.247454415588e+01,2.000000000000e+00
196,1.614180701233e-01,4.371674033683e+01,2.000000000000e+00
197,-1.500000000000e-01,4.496400000000e+01,2.000000000000e+00
198,-4.385819298767e-01,4.621674033683e+01,2.000000000000e+00
199,-7.060660171780e-01,4.747454415588e+01,2.000000000000e+00
200,-9.574025148548e-01,4.873622339643e+01,2.000000000000e+00
*ELEMENT,TYPE=B31,ELSET=ALL
1,1,25
2,25,5
3,2,26
4,26,6
5,3,27
6,27,7
7,4,28
8,28,8
9,5,9
10,6,10
11,7,11
12,8,12
13,9,29
14,29,30
15,30,31
16,31,13
17,10,32
18,32,33
19,33,34
20,34,14
21,11,35
22,35,36
23,36,37
24,37,15
25,12,38
26,38,39
27,39,40
28,40,16
29,13,41
30,41,42
31,42,43
32,43,17
33,14,44
34,44,45
35,45,46
36,46,18
37,15,47
38,47,48
39,48,49
40,49,19
41,16,50
42,50,51
43,51,52
44,52,20
45,17,53
46,53,21
47,18,54
48,54,22
49,19,55
50,55,23
51,20,56
52,56,24
53,1,57
54,57,2
55,3,58
56,58,4
57,1,59
58,59,3
59,2,60
60,60,4
61,5,61
62,61,6
63,7,62
64,62,8
65,5,63
66,63,7
67,6,64
68,64,8
69,9,65
70,65,10
71,11,66
72,66,12
73,9,67
74,67,11
75,10,68
76,68,12
77,13,69
78,69,14
79,15,70
80,70,16
81,13,71
82,71,15
83,14,72
84,72,16
85,17,73
86,73,74
87,74,75
88,75,18
89,19,76
90,76,77
91,77,78
92,78,20
93,17,79
94,79,80
95,80,81
96,81,19
97,18,82
98,82,83
99,83,84
100,84,20
101,21,85
102,85,86
103,86,87
104,87,88
105,88,89
106,89,90
107,90,91
108,91,22
109,23,92
110,92,93
111,93,94
112,94,95
113,95,96
114,96,97
115,97,98
116,98,24
117,21,99
118,99,100
119,100,101
120,101,102
121,102,103
122,103,104
123,104,105
124,105,23
125,22,106
126,106,107
127,107,108
128,108,109
129,109,110
130,110,111
131,111,112
132,112,24
133,1,113
134,113,7
135,3,114
136,114,5
137,2,115
138,115,8
139,4,116
140,116,6
141,1,117
142,117,6
143,2,118
144,118,5
145,3,119
146,119,8
147,4,120
148,120,7
149,5,121
150,121,11
151,7,122
152,122,9
153,6,123
154,123,12
155,8,124
156,124,10
157,5,125
158,125,10
159,6,126
160,126,9
161,7,127
162,127,12
163,8,128
164,128,11
165,9,129
166,129,15
167,11,130
168,130,13
169,10,131
170,131,16
171,12,132
172,132,14
173,9,133
174,133,14
175,10,134
176,134,13
177,11,135
178,135,16
179,12,136
180,136,15
181,13,137
182,137,19
183,15,138
184,138,17
185,14,139
186,139,20
187,16,140
188,140,18
189,13,141
190,141,18
191,14,142
192,142,17
193,15,143
194,143,20
195,16,144
196,144,19
197,17,145
198,145,146
199,146,147
200,147,148
201,148,149
202,149,150
203,150,151
204,151,23
205,19,152
206,152,153
207,153,154
208,154,155
209,155,156
210,156,157
211,157,158
212,158,21
213,18,159
214,159,160
215,160,161
216,161,162
217,162,163
218,163,164
219,164,165
220,165,24
221,20,166
222,166,167
223,167,168
224,168,169
225,169,170
226,170,171
227,171,172
228,172,22
229,17,173
230,173,174
231,174,175
232,175,176
233,176,177
234,177,178
235,178,179
236,179,22
237,18,180
238,180,181
239,181,182
240,182,183
241,183,184
242,184,185
243,185,186
244,186,21
245,19,187
246,187,188
247,188,189
248,189,190
249,190,191
250,191,192
251,192,193
252,193,24
253,20,194
254,194,195
255,195,196
256,196,197
257,197,198
258,198,199
259,199,200
260,200,23
*NSET,NSET=NALL,GENERATE
1,200,1
*NSET,NSET=LEFT
1,2,3,4
*NSET,NSET=RIGHT
21,22,23,24
*MATERIAL,NAME=STEEL
*ELASTIC
2.100000000000e+11,0.300000000000
*BEAM SECTION,ELSET=ALL,MATERIAL=STEEL,SECTION=RECT
6.000000000000e-02,4.000000000000e-02
0.371390676354,0.557086014531,0.742781352708
*BOUNDARY
LEFT,1,6,0.0
*STEP
*STATIC
*BOUNDARY
21,1,1,5.000000000000e-03
21,2,2,0.0
21,3,3,-6.000000000000e-03
*BOUNDARY
22,1,1,5.000000000000e-03
22,2,2,0.0
22,3,3,6.000000000000e-03
*BOUNDARY
23,1,1,-5.000000000000e-03
23,2,2,0.0
23,3,3,-6.000000000000e-03
*BOUNDARY
24,1,1,-5.000000000000e-03
24,2,2,0.0
24,3,3,6.000000000000e-03
*NODE FILE,NSET=NALL
U
*NODE PRINT,NSET=NALL
U
*NODE PRINT,NSET=RIGHT
RF
*EL PRINT,ELSET=ALL,TOTALS=YES
ELSE
*END STEP
