*HEADING
Normalized cross-passage space-truss torsion benchmark
*NODE
1,-1.200000000000e+00,0.000000000000e+00,0.000000000000e+00
2,1.200000000000e+00,0.000000000000e+00,0.000000000000e+00
3,-1.200000000000e+00,0.000000000000e+00,2.000000000000e+00
4,1.200000000000e+00,0.000000000000e+00,2.000000000000e+00
5,-1.200000000000e+00,1.000000000000e+01,0.000000000000e+00
6,1.200000000000e+00,1.000000000000e+01,0.000000000000e+00
7,-1.200000000000e+00,1.000000000000e+01,2.000000000000e+00
8,1.200000000000e+00,1.000000000000e+01,2.000000000000e+00
9,-1.200000000000e+00,2.000000000000e+01,0.000000000000e+00
10,1.200000000000e+00,2.000000000000e+01,0.000000000000e+00
11,-1.200000000000e+00,2.000000000000e+01,2.000000000000e+00
12,1.200000000000e+00,2.000000000000e+01,2.000000000000e+00
13,-1.200000000000e+00,3.000000000000e+01,0.000000000000e+00
14,1.200000000000e+00,3.000000000000e+01,0.000000000000e+00
15,-1.200000000000e+00,3.000000000000e+01,2.000000000000e+00
16,1.200000000000e+00,3.000000000000e+01,2.000000000000e+00
17,-1.200000000000e+00,4.000000000000e+01,0.000000000000e+00
18,1.200000000000e+00,4.000000000000e+01,0.000000000000e+00
19,-1.200000000000e+00,4.000000000000e+01,2.000000000000e+00
20,1.200000000000e+00,4.000000000000e+01,2.000000000000e+00
21,-1.200000000000e+00,5.000000000000e+01,0.000000000000e+00
22,1.200000000000e+00,5.000000000000e+01,0.000000000000e+00
23,-1.200000000000e+00,5.000000000000e+01,2.000000000000e+00
24,1.200000000000e+00,5.000000000000e+01,2.000000000000e+00
25,-1.200000000000e+00,1.500000000000e+01,-1.500000000000e-01
26,1.200000000000e+00,1.500000000000e+01,1.500000000000e-01
27,-1.200000000000e+00,1.500000000000e+01,1.850000000000e+00
28,1.200000000000e+00,1.500000000000e+01,2.150000000000e+00
29,-1.200000000000e+00,4.125000000000e+01,-5.740251485476e-02
30,-1.200000000000e+00,4.250000000000e+01,-1.060660171780e-01
31,-1.200000000000e+00,4.375000000000e+01,-1.385819298767e-01
32,-1.200000000000e+00,4.500000000000e+01,-1.500000000000e-01
33,-1.200000000000e+00,4.625000000000e+01,-1.385819298767e-01
34,-1.200000000000e+00,4.750000000000e+01,-1.060660171780e-01
35,-1.200000000000e+00,4.875000000000e+01,-5.740251485476e-02
36,1.200000000000e+00,4.125000000000e+01,5.740251485476e-02
37,1.200000000000e+00,4.250000000000e+01,1.060660171780e-01
38,1.200000000000e+00,4.375000000000e+01,1.385819298767e-01
39,1.200000000000e+00,4.500000000000e+01,1.500000000000e-01
40,1.200000000000e+00,4.625000000000e+01,1.385819298767e-01
41,1.200000000000e+00,4.750000000000e+01,1.060660171780e-01
42,1.200000000000e+00,4.875000000000e+01,5.740251485476e-02
43,-1.200000000000e+00,4.125000000000e+01,1.942597485145e+00
44,-1.200000000000e+00,4.250000000000e+01,1.893933982822e+00
45,-1.200000000000e+00,4.375000000000e+01,1.861418070123e+00
46,-1.200000000000e+00,4.500000000000e+01,1.850000000000e+00
47,-1.200000000000e+00,4.625000000000e+01,1.861418070123e+00
48,-1.200000000000e+00,4.750000000000e+01,1.893933982822e+00
49,-1.200000000000e+00,4.875000000000e+01,1.942597485145e+00
50,1.200000000000e+00,4.125000000000e+01,2.057402514855e+00
51,1.200000000000e+00,4.250000000000e+01,2.106066017178e+00
52,1.200000000000e+00,4.375000000000e+01,2.138581929877e+00
53,1.200000000000e+00,4.500000000000e+01,2.150000000000e+00
54,1.200000000000e+00,4.625000000000e+01,2.138581929877e+00
55,1.200000000000e+00,4.750000000000e+01,2.106066017178e+00
56,1.200000000000e+00,4.875000000000e+01,2.057402514855e+00
57,0.000000000000e+00,-3.600000000000e-02,0.000000000000e+00
58,0.000000000000e+00,3.600000000000e-02,2.000000000000e+00
59,-1.200000000000e+00,3.000000000000e-02,1.000000000000e+00
60,1.200000000000e+00,-3.000000000000e-02,1.000000000000e+00
61,-6.000000000000e-01,2.997454415588e+01,0.000000000000e+00
62,0.000000000000e+00,2.996400000000e+01,0.000000000000e+00
63,6.000000000000e-01,2.997454415588e+01,0.000000000000e+00
64,-6.000000000000e-01,3.002545584412e+01,2.000000000000e+00
65,0.000000000000e+00,3.003600000000e+01,2.000000000000e+00
66,6.000000000000e-01,3.002545584412e+01,2.000000000000e+00
67,-1.200000000000e+00,3.002121320344e+01,5.000000000000e-01
68,-1.200000000000e+00,3.003000000000e+01,1.000000000000e+00
69,-1.200000000000e+00,3.002121320344e+01,1.500000000000e+00
70,1.200000000000e+00,2.997878679656e+01,5.000000000000e-01
71,1.200000000000e+00,2.997000000000e+01,1.000000000000e+00
72,1.200000000000e+00,2.997878679656e+01,1.500000000000e+00
73,-6.000000000000e-01,3.997454415588e+01,0.000000000000e+00
74,0.000000000000e+00,3.996400000000e+01,0.000000000000e+00
75,6.000000000000e-01,3.997454415588e+01,0.000000000000e+00
76,-6.000000000000e-01,4.002545584412e+01,2.000000000000e+00
77,0.000000000000e+00,4.003600000000e+01,2.000000000000e+00
78,6.000000000000e-01,4.002545584412e+01,2.000000000000e+00
79,-1.200000000000e+00,4.002121320344e+01,5.000000000000e-01
80,-1.200000000000e+00,4.003000000000e+01,1.000000000000e+00
81,-1.200000000000e+00,4.002121320344e+01,1.500000000000e+00
82,1.200000000000e+00,3.997878679656e+01,5.000000000000e-01
83,1.200000000000e+00,3.997000000000e+01,1.000000000000e+00
84,1.200000000000e+00,3.997878679656e+01,1.500000000000e+00
85,-6.000000000000e-01,4.997454415588e+01,0.000000000000e+00
86,0.000000000000e+00,4.996400000000e+01,0.000000000000e+00
87,6.000000000000e-01,4.997454415588e+01,0.000000000000e+00
88,-6.000000000000e-01,5.002545584412e+01,2.000000000000e+00
89,0.000000000000e+00,5.003600000000e+01,2.000000000000e+00
90,6.000000000000e-01,5.002545584412e+01,2.000000000000e+00
91,-1.200000000000e+00,5.002121320344e+01,5.000000000000e-01
92,-1.200000000000e+00,5.003000000000e+01,1.000000000000e+00
93,-1.200000000000e+00,5.002121320344e+01,1.500000000000e+00
94,1.200000000000e+00,4.997878679656e+01,5.000000000000e-01
95,1.200000000000e+00,4.997000000000e+01,1.000000000000e+00
96,1.200000000000e+00,4.997878679656e+01,1.500000000000e+00
97,-1.200000000000e+00,2.521213203436e+00,3.939339828220e-01
98,-1.200000000000e+00,5.030000000000e+00,8.500000000000e-01
99,-1.200000000000e+00,7.521213203436e+00,1.393933982822e+00
100,-1.200000000000e+00,2.521213203436e+00,1.606066017178e+00
101,-1.200000000000e+00,5.030000000000e+00,1.150000000000e+00
102,-1.200000000000e+00,7.521213203436e+00,6.060660171780e-01
103,1.200000000000e+00,2.521213203436e+00,3.939339828220e-01
104,1.200000000000e+00,5.030000000000e+00,8.500000000000e-01
105,1.200000000000e+00,7.521213203436e+00,1.393933982822e+00
106,1.200000000000e+00,2.521213203436e+00,1.606066017178e+00
107,1.200000000000e+00,5.030000000000e+00,1.150000000000e+00
108,1.200000000000e+00,7.521213203436e+00,6.060660171780e-01
109,-4.939339828220e-01,2.474544155877e+00,0.000000000000e+00
110,1.500000000000e-01,4.964000000000e+00,0.000000000000e+00
111,7.060660171780e-01,7.474544155877e+00,0.000000000000e+00
112,4.939339828220e-01,2.474544155877e+00,0.000000000000e+00
113,-1.500000000000e-01,4.964000000000e+00,0.000000000000e+00
114,-7.060660171780e-01,7.474544155877e+00,0.000000000000e+00
115,-4.939339828220e-01,2.474544155877e+00,2.000000000000e+00
116,1.500000000000e-01,4.964000000000e+00,2.000000000000e+00
117,7.060660171780e-01,7.474544155877e+00,2.000000000000e+00
118,4.939339828220e-01,2.474544155877e+00,2.000000000000e+00
119,-1.500000000000e-01,4.964000000000e+00,2.000000000000e+00
120,-7.060660171780e-01,7.474544155877e+00,2.000000000000e+00
121,-1.200000000000e+00,1.252121320344e+01,3.939339828220e-01
122,-1.200000000000e+00,1.503000000000e+01,8.500000000000e-01
123,-1.200000000000e+00,1.752121320344e+01,1.393933982822e+00
124,-1.200000000000e+00,1.252121320344e+01,1.606066017178e+00
125,-1.200000000000e+00,1.503000000000e+01,1.150000000000e+00
126,-1.200000000000e+00,1.752121320344e+01,6.060660171780e-01
127,1.200000000000e+00,1.252121320344e+01,3.939339828220e-01
128,1.200000000000e+00,1.503000000000e+01,8.500000000000e-01
129,1.200000000000e+00,1.752121320344e+01,1.393933982822e+00
130,1.200000000000e+00,1.252121320344e+01,1.606066017178e+00
131,1.200000000000e+00,1.503000000000e+01,1.150000000000e+00
132,1.200000000000e+00,1.752121320344e+01,6.060660171780e-01
133,-4.939339828220e-01,1.247454415588e+01,0.000000000000e+00
134,1.500000000000e-01,1.496400000000e+01,0.000000000000e+00
135,7.060660171780e-01,1.747454415588e+01,0.000000000000e+00
136,4.939339828220e-01,1.247454415588e+01,0.000000000000e+00
137,-1.500000000000e-01,1.496400000000e+01,0.000000000000e+00
138,-7.060660171780e-01,1.747454415588e+01,0.000000000000e+00
139,-4.939339828220e-01,1.247454415588e+01,2.000000000000e+00
140,1.500000000000e-01,1.496400000000e+01,2.000000000000e+00
141,7.060660171780e-01,1.747454415588e+01,2.000000000000e+00
142,4.939339828220e-01,1.247454415588e+01,2.000000000000e+00
143,-1.500000000000e-01,1.496400000000e+01,2.000000000000e+00
144,-7.060660171780e-01,1.747454415588e+01,2.000000000000e+00
145,-1.200000000000e+00,3.503000000000e+01,8.500000000000e-01
146,-1.200000000000e+00,3.503000000000e+01,1.150000000000e+00
147,1.200000000000e+00,3.503000000000e+01,8.500000000000e-01
148,1.200000000000e+00,3.503000000000e+01,1.150000000000e+00
149,1.500000000000e-01,3.496400000000e+01,0.000000000000e+00
150,-1.500000000000e-01,3.496400000000e+01,0.000000000000e+00
151,1.500000000000e-01,3.496400000000e+01,2.000000000000e+00
152,-1.500000000000e-01,3.496400000000e+01,2.000000000000e+00
153,-1.200000000000e+00,4.126148050297e+01,1.925974851452e-01
154,-1.200000000000e+00,4.252121320344e+01,3.939339828220e-01
155,-1.200000000000e+00,4.377771638598e+01,6.114180701233e-01
156,-1.200000000000e+00,4.503000000000e+01,8.500000000000e-01
157,-1.200000000000e+00,4.627771638598e+01,1.111418070123e+00
158,-1.200000000000e+00,4.752121320344e+01,1.393933982822e+00
159,-1.200000000000e+00,4.876148050297e+01,1.692597485145e+00
160,-1.200000000000e+00,4.126148050297e+01,1.807402514855e+00
161,-1.200000000000e+00,4.252121320344e+01,1.606066017178e+00
162,-1.200000000000e+00,4.377771638598e+01,1.388581929877e+00
163,-1.200000000000e+00,4.503000000000e+01,1.150000000000e+00
164,-1.200000000000e+00,4.627771638598e+01,8.885819298767e-01
165,-1.200000000000e+00,4.752121320344e+01,6.060660171780e-01
166,-1.200000000000e+00,4.876148050297e+01,3.074025148548e-01
167,1.200000000000e+00,4.126148050297e+01,1.925974851452e-01
168,1.200000000000e+00,4.252121320344e+01,3.939339828220e-01
169,1.200000000000e+00,4.377771638598e+01,6.114180701233e-01
170,1.200000000000e+00,4.503000000000e+01,8.500000000000e-01
171,1.200000000000e+00,4.627771638598e+01,1.111418070123e+00
172,1.200000000000e+00,4.752121320344e+01,1.393933982822e+00
173,1.200000000000e+00,4.876148050297e+01,1.692597485145e+00
174,1.200000000000e+00,4.126148050297e+01,1.807402514855e+00
175,1.200000000000e+00,4.252121320344e+01,1.606066017178e+00
176,1.200000000000e+00,4.377771638598e+01,1.388581929877e+00
177,1.200000000000e+00,4.503000000000e+01,1.150000000000e+00
178,1.200000000000e+00,4.627771638598e+01,8.885819298767e-01
179,1.200000000000e+00,4.752121320344e+01,6.060660171780e-01
180,1.200000000000e+00,4.876148050297e+01,3.074025148548e-01
181,-8.425974851452e-01,4.123622339643e+01,0.000000000000e+00
182,-4.939339828220e-01,4.247454415588e+01,0.000000000000e+00
183,-1.614180701233e-01,4.371674033683e+01,0.000000000000e+00
184,1.500000000000e-01,4.496400000000e+01,0.000000000000e+00
185,4.385819298767e-01,4.621674033683e+01,0.000000000000e+00
186,7.060660171780e-01,4.747454415588e+01,0.000000000000e+00
187,9.574025148548e-01,4.873622339643e+01,0.000000000000e+00
188,8.425974851452e-01,4.123622339643e+01,0.000000000000e+00
189,4.939339828220e-01,4.247454415588e+01,0.000000000000e+00
190,1.614180701233e-01,4.371674033683e+01,0.000000000000e+00
191,-1.500000000000e-01,4.496400000000e+01,0.000000000000e+00
192,-4.385819298767e-01,4.621674033683e+01,0.000000000000e+00
193,-7.060660171780e-01,4.747454415588e+01,0.000000000000e+00
194,-9.574025148548e-01,4.873622339643e+01,0.000000000000e+00
195,-8.425974851452e-01,4.123622339643e+01,2.000000000000e+00
196,-4.939339828220e-01,4.247454415588e+01,2.000000000000e+00
197,-1.614180701233e-01,4.371674033683e+01,2.000000000000e+00
198,1.500000000000e-01,4.496400000000e+01,2.000000000000e+00
199,4.385819298767e-01,4.621674033683e+01,2.000000000000e+00
200,7.060660171780e-01,4.747454415588e+01,2.000000000000e+00
201,9.574025148548e-01,4.873622339643e+01,2.000000000000e+00
202,8.425974851452e-01,4.123622339643e+01,2.000000000000e+00
203,4.939339828220e-01,4.247454415588e+01,2.000000000000e+00
204,1.614180701233e-01,4.371674033683e+01,2.000000000000e+00
205,-1.500000000000e-01,4.496400000000e+01,2.000000000000e+00
206,-4.385819298767e-01,4.621674033683e+01,2.000000000000e+00
207,-7.060660171780e-01,4.747454415588e+01,2.000000000000e+00
208,-9.574025148548e-01,4.873622339643e+01,2.000000000000e+00
*ELEMENT,TYPE=B31,ELSET=ALL
1,1,5
2,2,6
3,3,7
4,4,8
5,5,25
6,25,9
7,6,26
8,26,10
9,7,27
10,27,11
11,8,28
12,28,12
13,9,13
14,10,14
15,11,15
16,12,16
17,13,17
18,14,18
19,15,19
20,16,20
21,17,29
22,29,30
23,30,31
24,31,32
25,32,33
26,33,34
27,34,35
28,35,21
29,18,36
30,36,37
31,37,38
32,38,39
33,39,40
34,40,41
35,41,42
36,42,22
37,19,43
38,43,44
39,44,45
40,45,46
41,46,47
42,47,48
43,48,49
44,49,23
45,20,50
46,50,51
47,51,52
48,52,53
49,53,54
50,54,55
51,55,56
52,56,24
53,1,57
54,57,2
55,3,58
56,58,4
57,1,59
58,59,3
59,2,60
60,60,4
61,5,6
62,7,8
63,5,7
64,6,8
65,9,10
66,11,12
67,9,11
68,10,12
69,13,61
70,61,62
71,62,63
72,63,14
73,15,64
74,64,65
75,65,66
76,66,16
77,13,67
78,67,68
79,68,69
80,69,15
81,14,70
82,70,71
83,71,72
84,72,16
85,17,73
86,73,74
87,74,75
88,75,18
89,19,76
90,76,77
91,77,78
92,78,20
93,17,79
94,79,80
95,80,81
96,81,19
97,18,82
98,82,83
99,83,84
100,84,20
101,21,85
102,85,86
103,86,87
104,87,22
105,23,88
106,88,89
107,89,90
108,90,24
109,21,91
110,91,92
111,92,93
112,93,23
113,22,94
114,94,95
115,95,96
116,96,24
117,1,97
118,97,98
119,98,99
120,99,7
121,3,100
122,100,101
123,101,102
124,102,5
125,2,103
126,103,104
127,104,105
128,105,8
129,4,106
130,106,107
131,107,108
132,108,6
133,1,109
134,109,110
135,110,111
136,111,6
137,2,112
138,112,113
139,113,114
140,114,5
141,3,115
142,115,116
143,116,117
144,117,8
145,4,118
146,118,119
147,119,120
148,120,7
149,5,121
150,121,122
151,122,123
152,123,11
153,7,124
154,124,125
155,125,126
156,126,9
157,6,127
158,127,128
159,128,129
160,129,12
161,8,130
162,130,131
163,131,132
164,132,10
165,5,133
166,133,134
167,134,135
168,135,10
169,6,136
170,136,137
171,137,138
172,138,9
173,7,139
174,139,140
175,140,141
176,141,12
177,8,142
178,142,143
179,143,144
180,144,11
181,9,15
182,11,13
183,10,16
184,12,14
185,9,14
186,10,13
187,11,16
188,12,15
189,13,145
190,145,19
191,15,146
192,146,17
193,14,147
194,147,20
195,16,148
196,148,18
197,13,149
198,149,18
199,14,150
200,150,17
201,15,151
202,151,20
203,16,152
204,152,19
205,17,153
206,153,154
207,154,155
208,155,156
209,156,157
210,157,158
211,158,159
212,159,23
213,19,160
214,160,161
215,161,162
216,162,163
217,163,164
218,164,165
219,165,166
220,166,21
221,18,167
222,167,168
223,168,169
224,169,170
225,170,171
226,171,172
227,172,173
228,173,24
229,20,174
230,174,175
231,175,176
232,176,177
233,177,178
234,178,179
235,179,180
236,180,22
237,17,181
238,181,182
239,182,183
240,183,184
241,184,185
242,185,186
243,186,187
244,187,22
245,18,188
246,188,189
247,189,190
248,190,191
249,191,192
250,192,193
251,193,194
252,194,21
253,19,195
254,195,196
255,196,197
256,197,198
257,198,199
258,199,200
259,200,201
260,201,24
261,20,202
262,202,203
263,203,204
264,204,205
265,205,206
266,206,207
267,207,208
268,208,23
*NSET,NSET=NALL,GENERATE
1,208,1
*NSET,NSET=LEFT
1,2,3,4
*NSET,NSET=RIGHT
21,22,23,24
*MATERIAL,NAME=STEEL
*ELASTIC
2.100000000000e+11,0.300000000000
*BEAM SECTION,ELSET=ALL,MATERIAL=STEEL,SECTION=RECT
6.000000000000e-02,4.000000000000e-02
0.371390676354,0.557086014531,0.742781352708
*BOUNDARY
LEFT,1,6,0.0
*STEP
*STATIC
*BOUNDARY
21,1,1,5.000000000000e-03
21,2,2,0.0
21,3,3,-6.000000000000e-03
*BOUNDARY
22,1,1,5.000000000000e-03
22,2,2,0.0
22,3,3,6.000000000000e-03
*BOUNDARY
23,1,1,-5.000000000000e-03
23,2,2,0.0
23,3,3,-6.000000000000e-03
*BOUNDARY
24,1,1,-5.000000000000e-03
24,2,2,0.0
24,3,3,6.000000000000e-03
*NODE FILE,NSET=NALL
U
*NODE PRINT,NSET=NALL
U
*NODE PRINT,NSET=RIGHT
RF
*EL PRINT,ELSET=ALL,TOTALS=YES
ELSE
*END STEP
