*HEADING
Normalized cross-passage space-truss torsion benchmark
*NODE
1,-1.200000000000e+00,0.000000000000e+00,0.000000000000e+00
2,1.200000000000e+00,0.000000000000e+00,0.000000000000e+00
3,-1.200000000000e+00,0.000000000000e+00,2.000000000000e+00
4,1.200000000000e+00,0.000000000000e+00,2.000000000000e+00
5,-1.200000000000e+00,1.000000000000e+01,0.000000000000e+00
6,1.200000000000e+00,1.000000000000e+01,0.000000000000e+00
7,-1.200000000000e+00,1.000000000000e+01,2.000000000000e+00
8,1.200000000000e+00,1.000000000000e+01,2.000000000000e+00
9,-1.200000000000e+00,2.000000000000e+01,0.000000000000e+00
10,1.200000000000e+00,2.000000000000e+01,0.000000000000e+00
11,-1.200000000000e+00,2.000000000000e+01,2.000000000000e+00
12,1.200000000000e+00,2.000000000000e+01,2.000000000000e+00
13,-1.200000000000e+00,3.000000000000e+01,0.000000000000e+00
14,1.200000000000e+00,3.000000000000e+01,0.000000000000e+00
15,-1.200000000000e+00,3.000000000000e+01,2.000000000000e+00
16,1.200000000000e+00,3.000000000000e+01,2.000000000000e+00
17,-1.200000000000e+00,4.000000000000e+01,0.000000000000e+00
18,1.200000000000e+00,4.000000000000e+01,0.000000000000e+00
19,-1.200000000000e+00,4.000000000000e+01,2.000000000000e+00
20,1.200000000000e+00,4.000000000000e+01,2.000000000000e+00
21,-1.200000000000e+00,5.000000000000e+01,0.000000000000e+00
22,1.200000000000e+00,5.000000000000e+01,0.000000000000e+00
23,-1.200000000000e+00,5.000000000000e+01,2.000000000000e+00
24,1.200000000000e+00,5.000000000000e+01,2.000000000000e+00
25,-1.200000000000e+00,1.500000000000e+01,-1.500000000000e-01
26,1.200000000000e+00,1.500000000000e+01,1.500000000000e-01
27,-1.200000000000e+00,1.500000000000e+01,1.850000000000e+00
28,1.200000000000e+00,1.500000000000e+01,2.150000000000e+00
29,-1.200000000000e+00,4.125000000000e+01,-5.740251485476e-02
30,-1.200000000000e+00,4.250000000000e+01,-1.060660171780e-01
31,-1.200000000000e+00,4.375000000000e+01,-1.385819298767e-01
32,-1.200000000000e+00,4.500000000000e+01,-1.500000000000e-01
33,-1.200000000000e+00,4.625000000000e+01,-1.385819298767e-01
34,-1.200000000000e+00,4.750000000000e+01,-1.060660171780e-01
35,-1.200000000000e+00,4.875000000000e+01,-5.740251485476e-02
36,1.200000000000e+00,4.125000000000e+01,5.740251485476e-02
37,1.200000000000e+00,4.250000000000e+01,1.060660171780e-01
38,1.200000000000e+00,4.375000000000e+01,1.385819298767e-01
39,1.200000000000e+00,4.500000000000e+01,1.500000000000e-01
40,1.200000000000e+00,4.625000000000e+01,1.385819298767e-01
41,1.200000000000e+00,4.750000000000e+01,1.060660171780e-01
42,1.200000000000e+00,4.875000000000e+01,5.740251485476e-02
43,-1.200000000000e+00,4.125000000000e+01,1.942597485145e+00
44,-1.200000000000e+00,4.250000000000e+01,1.893933982822e+00
45,-1.200000000000e+00,4.375000000000e+01,1.861418070123e+00
46,-1.200000000000e+00,4.500000000000e+01,1.850000000000e+00
47,-1.200000000000e+00,4.625000000000e+01,1.861418070123e+00
48,-1.200000000000e+00,4.750000000000e+01,1.893933982822e+00
49,-1.200000000000e+00,4.875000000000e+01,1.942597485145e+00
50,1.200000000000e+00,4.125000000000e+01,2.057402514855e+00
51,1.200000000000e+00,4.250000000000e+01,2.106066017178e+00
52,1.200000000000e+00,4.375000000000e+01,2.138581929877e+00
53,1.200000000000e+00,4.500000000000e+01,2.150000000000e+00
54,1.200000000000e+00,4.625000000000e+01,2.138581929877e+00
55,1.200000000000e+00,4.750000000000e+01,2.106066017178e+00
56,1.200000000000e+00,4.875000000000e+01,2.057402514855e+00
57,0.000000000000e+00,-3.600000000000e-02,0.000000000000e+00
58,0.000000000000e+00,3.600000000000e-02,2.000000000000e+00
59,-1.200000000000e+00,3.000000000000e-02,1.000000000000e+00
60,1.200000000000e+00,-3.000000000000e-02,1.000000000000e+00
61,-6.000000000000e-01,2.997454415588e+01,0.000000000000e+00
62,0.000000000000e+00,2.996400000000e+01,0.000000000000e+00
63,6.000000000000e-01,2.997454415588e+01,0.000000000000e+00
64,-6.000000000000e-01,3.002545584412e+01,2.000000000000e+00
65,0.000000000000e+00,3.003600000000e+01,2.000000000000e+00
66,6.000000000000e-01,3.002545584412e+01,2.000000000000e+00
67,-1.200000000000e+00,3.002121320344e+01,5.000000000000e-01
68,-1.200000000000e+00,3.003000000000e+01,1.000000000000e+00
69,-1.200000000000e+00,3.002121320344e+01,1.500000000000e+00
70,1.200000000000e+00,2.997878679656e+01,5.000000000000e-01
71,1.200000000000e+00,2.997000000000e+01,1.000000000000e+00
72,1.200000000000e+00,2.997878679656e+01,1.500000000000e+00
73,-9.000000000000e-01,3.998622339643e+01,0.000000000000e+00
74,-6.000000000000e-01,3.997454415588e+01,0.000000000000e+00
75,-3.000000000000e-01,3.996674033683e+01,0.000000000000e+00
76,0.000000000000e+00,3.996400000000e+01,0.000000000000e+00
77,3.000000000000e-01,3.996674033683e+01,0.000000000000e+00
78,6.000000000000e-01,3.997454415588e+01,0.000000000000e+00
79,9.000000000000e-01,3.998622339643e+01,0.000000000000e+00
80,-9.000000000000e-01,4.001377660357e+01,2.000000000000e+00
81,-6.000000000000e-01,4.002545584412e+01,2.000000000000e+00
82,-3.000000000000e-01,4.003325966317e+01,2.000000000000e+00
83,0.000000000000e+00,4.003600000000e+01,2.000000000000e+00
84,3.000000000000e-01,4.003325966317e+01,2.000000000000e+00
85,6.000000000000e-01,4.002545584412e+01,2.000000000000e+00
86,9.000000000000e-01,4.001377660357e+01,2.000000000000e+00
87,-1.200000000000e+00,4.001148050297e+01,2.500000000000e-01
88,-1.200000000000e+00,4.002121320344e+01,5.000000000000e-01
89,-1.200000000000e+00,4.002771638598e+01,7.500000000000e-01
90,-1.200000000000e+00,4.003000000000e+01,1.000000000000e+00
91,-1.200000000000e+00,4.002771638598e+01,1.250000000000e+00
92,-1.200000000000e+00,4.002121320344e+01,1.500000000000e+00
93,-1.200000000000e+00,4.001148050297e+01,1.750000000000e+00
94,1.200000000000e+00,3.998851949703e+01,2.500000000000e-01
95,1.200000000000e+00,3.997878679656e+01,5.000000000000e-01
96,1.200000000000e+00,3.997228361402e+01,7.500000000000e-01
97,1.200000000000e+00,3.997000000000e+01,1.000000000000e+00
98,1.200000000000e+00,3.997228361402e+01,1.250000000000e+00
99,1.200000000000e+00,3.997878679656e+01,1.500000000000e+00
100,1.200000000000e+00,3.998851949703e+01,1.750000000000e+00
101,-9.000000000000e-01,4.998622339643e+01,0.000000000000e+00
102,-6.000000000000e-01,4.997454415588e+01,0.000000000000e+00
103,-3.000000000000e-01,4.996674033683e+01,0.000000000000e+00
104,0.000000000000e+00,4.996400000000e+01,0.000000000000e+00
105,3.000000000000e-01,4.996674033683e+01,0.000000000000e+00
106,6.000000000000e-01,4.997454415588e+01,0.000000000000e+00
107,9.000000000000e-01,4.998622339643e+01,0.000000000000e+00
108,-9.000000000000e-01,5.001377660357e+01,2.000000000000e+00
109,-6.000000000000e-01,5.002545584412e+01,2.000000000000e+00
110,-3.000000000000e-01,5.003325966317e+01,2.000000000000e+00
111,0.000000000000e+00,5.003600000000e+01,2.000000000000e+00
112,3.000000000000e-01,5.003325966317e+01,2.000000000000e+00
113,6.000000000000e-01,5.002545584412e+01,2.000000000000e+00
114,9.000000000000e-01,5.001377660357e+01,2.000000000000e+00
115,-1.200000000000e+00,5.001148050297e+01,2.500000000000e-01
116,-1.200000000000e+00,5.002121320344e+01,5.000000000000e-01
117,-1.200000000000e+00,5.002771638598e+01,7.500000000000e-01
118,-1.200000000000e+00,5.003000000000e+01,1.000000000000e+00
119,-1.200000000000e+00,5.002771638598e+01,1.250000000000e+00
120,-1.200000000000e+00,5.002121320344e+01,1.500000000000e+00
121,-1.200000000000e+00,5.001148050297e+01,1.750000000000e+00
122,1.200000000000e+00,4.998851949703e+01,2.500000000000e-01
123,1.200000000000e+00,4.997878679656e+01,5.000000000000e-01
124,1.200000000000e+00,4.997228361402e+01,7.500000000000e-01
125,1.200000000000e+00,4.997000000000e+01,1.000000000000e+00
126,1.200000000000e+00,4.997228361402e+01,1.250000000000e+00
127,1.200000000000e+00,4.997878679656e+01,1.500000000000e+00
128,1.200000000000e+00,4.998851949703e+01,1.750000000000e+00
129,-1.200000000000e+00,2.521213203436e+00,3.939339828220e-01
130,-1.200000000000e+00,5.030000000000e+00,8.500000000000e-01
131,-1.200000000000e+00,7.521213203436e+00,1.393933982822e+00
132,-1.200000000000e+00,2.521213203436e+00,1.606066017178e+00
133,-1.200000000000e+00,5.030000000000e+00,1.150000000000e+00
134,-1.200000000000e+00,7.521213203436e+00,6.060660171780e-01
135,1.200000000000e+00,2.521213203436e+00,3.939339828220e-01
136,1.200000000000e+00,5.030000000000e+00,8.500000000000e-01
137,1.200000000000e+00,7.521213203436e+00,1.393933982822e+00
138,1.200000000000e+00,2.521213203436e+00,1.606066017178e+00
139,1.200000000000e+00,5.030000000000e+00,1.150000000000e+00
140,1.200000000000e+00,7.521213203436e+00,6.060660171780e-01
141,-4.939339828220e-01,2.474544155877e+00,0.000000000000e+00
142,1.500000000000e-01,4.964000000000e+00,0.000000000000e+00
143,7.060660171780e-01,7.474544155877e+00,0.000000000000e+00
144,4.939339828220e-01,2.474544155877e+00,0.000000000000e+00
145,-1.500000000000e-01,4.964000000000e+00,0.000000000000e+00
146,-7.060660171780e-01,7.474544155877e+00,0.000000000000e+00
147,-4.939339828220e-01,2.474544155877e+00,2.000000000000e+00
148,1.500000000000e-01,4.964000000000e+00,2.000000000000e+00
149,7.060660171780e-01,7.474544155877e+00,2.000000000000e+00
150,4.939339828220e-01,2.474544155877e+00,2.000000000000e+00
151,-1.500000000000e-01,4.964000000000e+00,2.000000000000e+00
152,-7.060660171780e-01,7.474544155877e+00,2.000000000000e+00
153,-1.200000000000e+00,1.252121320344e+01,3.939339828220e-01
154,-1.200000000000e+00,1.503000000000e+01,8.500000000000e-01
155,-1.200000000000e+00,1.752121320344e+01,1.393933982822e+00
156,-1.200000000000e+00,1.252121320344e+01,1.606066017178e+00
157,-1.200000000000e+00,1.503000000000e+01,1.150000000000e+00
158,-1.200000000000e+00,1.752121320344e+01,6.060660171780e-01
159,1.200000000000e+00,1.252121320344e+01,3.939339828220e-01
160,1.200000000000e+00,1.503000000000e+01,8.500000000000e-01
161,1.200000000000e+00,1.752121320344e+01,1.393933982822e+00
162,1.200000000000e+00,1.252121320344e+01,1.606066017178e+00
163,1.200000000000e+00,1.503000000000e+01,1.150000000000e+00
164,1.200000000000e+00,1.752121320344e+01,6.060660171780e-01
165,-4.939339828220e-01,1.247454415588e+01,0.000000000000e+00
166,1.500000000000e-01,1.496400000000e+01,0.000000000000e+00
167,7.060660171780e-01,1.747454415588e+01,0.000000000000e+00
168,4.939339828220e-01,1.247454415588e+01,0.000000000000e+00
169,-1.500000000000e-01,1.496400000000e+01,0.000000000000e+00
170,-7.060660171780e-01,1.747454415588e+01,0.000000000000e+00
171,-4.939339828220e-01,1.247454415588e+01,2.000000000000e+00
172,1.500000000000e-01,1.496400000000e+01,2.000000000000e+00
173,7.060660171780e-01,1.747454415588e+01,2.000000000000e+00
174,4.939339828220e-01,1.247454415588e+01,2.000000000000e+00
175,-1.500000000000e-01,1.496400000000e+01,2.000000000000e+00
176,-7.060660171780e-01,1.747454415588e+01,2.000000000000e+00
177,-1.200000000000e+00,3.503000000000e+01,8.500000000000e-01
178,-1.200000000000e+00,3.503000000000e+01,1.150000000000e+00
179,1.200000000000e+00,3.503000000000e+01,8.500000000000e-01
180,1.200000000000e+00,3.503000000000e+01,1.150000000000e+00
181,1.500000000000e-01,3.496400000000e+01,0.000000000000e+00
182,-1.500000000000e-01,3.496400000000e+01,0.000000000000e+00
183,1.500000000000e-01,3.496400000000e+01,2.000000000000e+00
184,-1.500000000000e-01,3.496400000000e+01,2.000000000000e+00
185,-1.200000000000e+00,4.126148050297e+01,1.925974851452e-01
186,-1.200000000000e+00,4.252121320344e+01,3.939339828220e-01
187,-1.200000000000e+00,4.377771638598e+01,6.114180701233e-01
188,-1.200000000000e+00,4.503000000000e+01,8.500000000000e-01
189,-1.200000000000e+00,4.627771638598e+01,1.111418070123e+00
190,-1.200000000000e+00,4.752121320344e+01,1.393933982822e+00
191,-1.200000000000e+00,4.876148050297e+01,1.692597485145e+00
192,-1.200000000000e+00,4.126148050297e+01,1.807402514855e+00
193,-1.200000000000e+00,4.252121320344e+01,1.606066017178e+00
194,-1.200000000000e+00,4.377771638598e+01,1.388581929877e+00
195,-1.200000000000e+00,4.503000000000e+01,1.150000000000e+00
196,-1.200000000000e+00,4.627771638598e+01,8.885819298767e-01
197,-1.200000000000e+00,4.752121320344e+01,6.060660171780e-01
198,-1.200000000000e+00,4.876148050297e+01,3.074025148548e-01
199,1.200000000000e+00,4.126148050297e+01,1.925974851452e-01
200,1.200000000000e+00,4.252121320344e+01,3.939339828220e-01
201,1.200000000000e+00,4.377771638598e+01,6.114180701233e-01
202,1.200000000000e+00,4.503000000000e+01,8.500000000000e-01
203,1.200000000000e+00,4.627771638598e+01,1.111418070123e+00
204,1.200000000000e+00,4.752121320344e+01,1.393933982822e+00
205,1.200000000000e+00,4.876148050297e+01,1.692597485145e+00
206,1.200000000000e+00,4.126148050297e+01,1.807402514855e+00
207,1.200000000000e+00,4.252121320344e+01,1.606066017178e+00
208,1.200000000000e+00,4.377771638598e+01,1.388581929877e+00
209,1.200000000000e+00,4.503000000000e+01,1.150000000000e+00
210,1.200000000000e+00,4.627771638598e+01,8.885819298767e-01
211,1.200000000000e+00,4.752121320344e+01,6.060660171780e-01
212,1.200000000000e+00,4.876148050297e+01,3.074025148548e-01
213,-8.425974851452e-01,4.123622339643e+01,0.000000000000e+00
214,-4.939339828220e-01,4.247454415588e+01,0.000000000000e+00
215,-1.614180701233e-01,4.371674033683e+01,0.000000000000e+00
216,1.500000000000e-01,4.496400000000e+01,0.000000000000e+00
217,4.385819298767e-01,4.621674033683e+01,0.000000000000e+00
218,7.060660171780e-01,4.747454415588e+01,0.000000000000e+00
219,9.574025148548e-01,4.873622339643e+01,0.000000000000e+00
220,8.425974851452e-01,4.123622339643e+01,0.000000000000e+00
221,4.939339828220e-01,4.247454415588e+01,0.000000000000e+00
222,1.614180701233e-01,4.371674033683e+01,0.000000000000e+00
223,-1.500000000000e-01,4.496400000000e+01,0.000000000000e+00
224,-4.385819298767e-01,4.621674033683e+01,0.000000000000e+00
225,-7.060660171780e-01,4.747454415588e+01,0.000000000000e+00
226,-9.574025148548e-01,4.873622339643e+01,0.000000000000e+00
227,-8.425974851452e-01,4.123622339643e+01,2.000000000000e+00
228,-4.939339828220e-01,4.247454415588e+01,2.000000000000e+00
229,-1.614180701233e-01,4.371674033683e+01,2.000000000000e+00
230,1.500000000000e-01,4.496400000000e+01,2.000000000000e+00
231,4.385819298767e-01,4.621674033683e+01,2.000000000000e+00
232,7.060660171780e-01,4.747454415588e+01,2.000000000000e+00
233,9.574025148548e-01,4.873622339643e+01,2.000000000000e+00
234,8.425974851452e-01,4.123622339643e+01,2.000000000000e+00
235,4.939339828220e-01,4.247454415588e+01,2.000000000000e+00
236,1.614180701233e-01,4.371674033683e+01,2.000000000000e+00
237,-1.500000000000e-01,4.496400000000e+01,2.000000000000e+00
238,-4.385819298767e-01,4.621674033683e+01,2.000000000000e+00
239,-7.060660171780e-01,4.747454415588e+01,2.000000000000e+00
240,-9.574025148548e-01,4.873622339643e+01,2.000000000000e+00
*ELEMENT,TYPE=B31,ELSET=ALL
1,1,5
2,2,6
3,3,7
4,4,8
5,5,25
6,25,9
7,6,26
8,26,10
9,7,27
10,27,11
11,8,28
12,28,12
13,9,13
14,10,14
15,11,15
16,12,16
17,13,17
18,14,18
19,15,19
20,16,20
21,17,29
22,29,30
23,30,31
24,31,32
25,32,33
26,33,34
27,34,35
28,35,21
29,18,36
30,36,37
31,37,38
32,38,39
33,39,40
34,40,41
35,41,42
36,42,22
37,19,43
38,43,44
39,44,45
40,45,46
41,46,47
42,47,48
43,48,49
44,49,23
45,20,50
46,50,51
47,51,52
48,52,53
49,53,54
50,54,55
51,55,56
52,56,24
53,1,57
54,57,2
55,3,58
56,58,4
57,1,59
58,59,3
59,2,60
60,60,4
61,5,6
62,7,8
63,5,7
64,6,8
65,9,10
66,11,12
67,9,11
68,10,12
69,13,61
70,61,62
71,62,63
72,63,14
73,15,64
74,64,65
75,65,66
76,66,16
77,13,67
78,67,68
79,68,69
80,69,15
81,14,70
82,70,71
83,71,72
84,72,16
85,17,73
86,73,74
87,74,75
88,75,76
89,76,77
90,77,78
91,78,79
92,79,18
93,19,80
94,80,81
95,81,82
96,82,83
97,83,84
98,84,85
99,85,86
100,86,20
101,17,87
102,87,88
103,88,89
104,89,90
105,90,91
106,91,92
107,92,93
108,93,19
109,18,94
110,94,95
111,95,96
112,96,97
113,97,98
114,98,99
115,99,100
116,100,20
117,21,101
118,101,102
119,102,103
120,103,104
121,104,105
122,105,106
123,106,107
124,107,22
125,23,108
126,108,109
127,109,110
128,110,111
129,111,112
130,112,113
131,113,114
132,114,24
133,21,115
134,115,116
135,116,117
136,117,118
137,118,119
138,119,120
139,120,121
140,121,23
141,22,122
142,122,123
143,123,124
144,124,125
145,125,126
146,126,127
147,127,128
148,128,24
149,1,129
150,129,130
151,130,131
152,131,7
153,3,132
154,132,133
155,133,134
156,134,5
157,2,135
158,135,136
159,136,137
160,137,8
161,4,138
162,138,139
163,139,140
164,140,6
165,1,141
166,141,142
167,142,143
168,143,6
169,2,144
170,144,145
171,145,146
172,146,5
173,3,147
174,147,148
175,148,149
176,149,8
177,4,150
178,150,151
179,151,152
180,152,7
181,5,153
182,153,154
183,154,155
184,155,11
185,7,156
186,156,157
187,157,158
188,158,9
189,6,159
190,159,160
191,160,161
192,161,12
193,8,162
194,162,163
195,163,164
196,164,10
197,5,165
198,165,166
199,166,167
200,167,10
201,6,168
202,168,169
203,169,170
204,170,9
205,7,171
206,171,172
207,172,173
208,173,12
209,8,174
210,174,175
211,175,176
212,176,11
213,9,15
214,11,13
215,10,16
216,12,14
217,9,14
218,10,13
219,11,16
220,12,15
221,13,177
222,177,19
223,15,178
224,178,17
225,14,179
226,179,20
227,16,180
228,180,18
229,13,181
230,181,18
231,14,182
232,182,17
233,15,183
234,183,20
235,16,184
236,184,19
237,17,185
238,185,186
239,186,187
240,187,188
241,188,189
242,189,190
243,190,191
244,191,23
245,19,192
246,192,193
247,193,194
248,194,195
249,195,196
250,196,197
251,197,198
252,198,21
253,18,199
254,199,200
255,200,201
256,201,202
257,202,203
258,203,204
259,204,205
260,205,24
261,20,206
262,206,207
263,207,208
264,208,209
265,209,210
266,210,211
267,211,212
268,212,22
269,17,213
270,213,214
271,214,215
272,215,216
273,216,217
274,217,218
275,218,219
276,219,22
277,18,220
278,220,221
279,221,222
280,222,223
281,223,224
282,224,225
283,225,226
284,226,21
285,19,227
286,227,228
287,228,229
288,229,230
289,230,231
290,231,232
291,232,233
292,233,24
293,20,234
294,234,235
295,235,236
296,236,237
297,237,238
298,238,239
299,239,240
300,240,23
*NSET,NSET=NALL,GENERATE
1,240,1
*NSET,NSET=LEFT
1,2,3,4
*NSET,NSET=RIGHT
21,22,23,24
*MATERIAL,NAME=STEEL
*ELASTIC
2.100000000000e+11,0.300000000000
*BEAM SECTION,ELSET=ALL,MATERIAL=STEEL,SECTION=RECT
6.000000000000e-02,4.000000000000e-02
0.371390676354,0.557086014531,0.742781352708
*BOUNDARY
LEFT,1,6,0.0
*STEP
*STATIC
*BOUNDARY
21,1,1,5.000000000000e-03
21,2,2,0.0
21,3,3,-6.000000000000e-03
*BOUNDARY
22,1,1,5.000000000000e-03
22,2,2,0.0
22,3,3,6.000000000000e-03
*BOUNDARY
23,1,1,-5.000000000000e-03
23,2,2,0.0
23,3,3,-6.000000000000e-03
*BOUNDARY
24,1,1,-5.000000000000e-03
24,2,2,0.0
24,3,3,6.000000000000e-03
*NODE FILE,NSET=NALL
U
*NODE PRINT,NSET=NALL
U
*NODE PRINT,NSET=RIGHT
RF
*EL PRINT,ELSET=ALL,TOTALS=YES
ELSE
*END STEP
