*HEADING
Normalized cross-passage space-truss torsion benchmark
*NODE
1,-1.200000000000e+00,0.000000000000e+00,0.000000000000e+00
2,1.200000000000e+00,0.000000000000e+00,0.000000000000e+00
3,-1.200000000000e+00,0.000000000000e+00,2.000000000000e+00
4,1.200000000000e+00,0.000000000000e+00,2.000000000000e+00
5,-1.200000000000e+00,1.000000000000e+01,0.000000000000e+00
6,1.200000000000e+00,1.000000000000e+01,0.000000000000e+00
7,-1.200000000000e+00,1.000000000000e+01,2.000000000000e+00
8,1.200000000000e+00,1.000000000000e+01,2.000000000000e+00
9,-1.200000000000e+00,2.000000000000e+01,0.000000000000e+00
10,1.200000000000e+00,2.000000000000e+01,0.000000000000e+00
11,-1.200000000000e+00,2.000000000000e+01,2.000000000000e+00
12,1.200000000000e+00,2.000000000000e+01,2.000000000000e+00
13,-1.200000000000e+00,3.000000000000e+01,0.000000000000e+00
14,1.200000000000e+00,3.000000000000e+01,0.000000000000e+00
15,-1.200000000000e+00,3.000000000000e+01,2.000000000000e+00
16,1.200000000000e+00,3.000000000000e+01,2.000000000000e+00
17,-1.200000000000e+00,4.000000000000e+01,0.000000000000e+00
18,1.200000000000e+00,4.000000000000e+01,0.000000000000e+00
19,-1.200000000000e+00,4.000000000000e+01,2.000000000000e+00
20,1.200000000000e+00,4.000000000000e+01,2.000000000000e+00
21,-1.200000000000e+00,5.000000000000e+01,0.000000000000e+00
22,1.200000000000e+00,5.000000000000e+01,0.000000000000e+00
23,-1.200000000000e+00,5.000000000000e+01,2.000000000000e+00
24,1.200000000000e+00,5.000000000000e+01,2.000000000000e+00
25,-1.200000000000e+00,2.500000000000e+00,-1.060660171780e-01
26,-1.200000000000e+00,5.000000000000e+00,-1.500000000000e-01
27,-1.200000000000e+00,7.500000000000e+00,-1.060660171780e-01
28,1.200000000000e+00,2.500000000000e+00,1.060660171780e-01
29,1.200000000000e+00,5.000000000000e+00,1.500000000000e-01
30,1.200000000000e+00,7.500000000000e+00,1.060660171780e-01
31,-1.200000000000e+00,2.500000000000e+00,1.893933982822e+00
32,-1.200000000000e+00,5.000000000000e+00,1.850000000000e+00
33,-1.200000000000e+00,7.500000000000e+00,1.893933982822e+00
34,1.200000000000e+00,2.500000000000e+00,2.106066017178e+00
35,1.200000000000e+00,5.000000000000e+00,2.150000000000e+00
36,1.200000000000e+00,7.500000000000e+00,2.106066017178e+00
37,-1.200000000000e+00,1.500000000000e+01,-1.500000000000e-01
38,1.200000000000e+00,1.500000000000e+01,1.500000000000e-01
39,-1.200000000000e+00,1.500000000000e+01,1.850000000000e+00
40,1.200000000000e+00,1.500000000000e+01,2.150000000000e+00
41,-1.200000000000e+00,4.250000000000e+01,-1.060660171780e-01
42,-1.200000000000e+00,4.500000000000e+01,-1.500000000000e-01
43,-1.200000000000e+00,4.750000000000e+01,-1.060660171780e-01
44,1.200000000000e+00,4.250000000000e+01,1.060660171780e-01
45,1.200000000000e+00,4.500000000000e+01,1.500000000000e-01
46,1.200000000000e+00,4.750000000000e+01,1.060660171780e-01
47,-1.200000000000e+00,4.250000000000e+01,1.893933982822e+00
48,-1.200000000000e+00,4.500000000000e+01,1.850000000000e+00
49,-1.200000000000e+00,4.750000000000e+01,1.893933982822e+00
50,1.200000000000e+00,4.250000000000e+01,2.106066017178e+00
51,1.200000000000e+00,4.500000000000e+01,2.150000000000e+00
52,1.200000000000e+00,4.750000000000e+01,2.106066017178e+00
53,-6.000000000000e-01,-2.545584412272e-02,0.000000000000e+00
54,0.000000000000e+00,-3.600000000000e-02,0.000000000000e+00
55,6.000000000000e-01,-2.545584412272e-02,0.000000000000e+00
56,-6.000000000000e-01,2.545584412272e-02,2.000000000000e+00
57,0.000000000000e+00,3.600000000000e-02,2.000000000000e+00
58,6.000000000000e-01,2.545584412272e-02,2.000000000000e+00
59,-1.200000000000e+00,2.121320343560e-02,5.000000000000e-01
60,-1.200000000000e+00,3.000000000000e-02,1.000000000000e+00
61,-1.200000000000e+00,2.121320343560e-02,1.500000000000e+00
62,1.200000000000e+00,-2.121320343560e-02,5.000000000000e-01
63,1.200000000000e+00,-3.000000000000e-02,1.000000000000e+00
64,1.200000000000e+00,-2.121320343560e-02,1.500000000000e+00
65,-6.000000000000e-01,9.974544155877e+00,0.000000000000e+00
66,0.000000000000e+00,9.964000000000e+00,0.000000000000e+00
67,6.000000000000e-01,9.974544155877e+00,0.000000000000e+00
68,-6.000000000000e-01,1.002545584412e+01,2.000000000000e+00
69,0.000000000000e+00,1.003600000000e+01,2.000000000000e+00
70,6.000000000000e-01,1.002545584412e+01,2.000000000000e+00
71,-1.200000000000e+00,1.002121320344e+01,5.000000000000e-01
72,-1.200000000000e+00,1.003000000000e+01,1.000000000000e+00
73,-1.200000000000e+00,1.002121320344e+01,1.500000000000e+00
74,1.200000000000e+00,9.978786796564e+00,5.000000000000e-01
75,1.200000000000e+00,9.970000000000e+00,1.000000000000e+00
76,1.200000000000e+00,9.978786796564e+00,1.500000000000e+00
77,0.000000000000e+00,1.996400000000e+01,0.000000000000e+00
78,0.000000000000e+00,2.003600000000e+01,2.000000000000e+00
79,-1.200000000000e+00,2.003000000000e+01,1.000000000000e+00
80,1.200000000000e+00,1.997000000000e+01,1.000000000000e+00
81,-9.000000000000e-01,2.998622339643e+01,0.000000000000e+00
82,-6.000000000000e-01,2.997454415588e+01,0.000000000000e+00
83,-3.000000000000e-01,2.996674033683e+01,0.000000000000e+00
84,0.000000000000e+00,2.996400000000e+01,0.000000000000e+00
85,3.000000000000e-01,2.996674033683e+01,0.000000000000e+00
86,6.000000000000e-01,2.997454415588e+01,0.000000000000e+00
87,9.000000000000e-01,2.998622339643e+01,0.000000000000e+00
88,-9.000000000000e-01,3.001377660357e+01,2.000000000000e+00
89,-6.000000000000e-01,3.002545584412e+01,2.000000000000e+00
90,-3.000000000000e-01,3.003325966317e+01,2.000000000000e+00
91,0.000000000000e+00,3.003600000000e+01,2.000000000000e+00
92,3.000000000000e-01,3.003325966317e+01,2.000000000000e+00
93,6.000000000000e-01,3.002545584412e+01,2.000000000000e+00
94,9.000000000000e-01,3.001377660357e+01,2.000000000000e+00
95,-1.200000000000e+00,3.001148050297e+01,2.500000000000e-01
96,-1.200000000000e+00,3.002121320344e+01,5.000000000000e-01
97,-1.200000000000e+00,3.002771638598e+01,7.500000000000e-01
98,-1.200000000000e+00,3.003000000000e+01,1.000000000000e+00
99,-1.200000000000e+00,3.002771638598e+01,1.250000000000e+00
100,-1.200000000000e+00,3.002121320344e+01,1.500000000000e+00
101,-1.200000000000e+00,3.001148050297e+01,1.750000000000e+00
102,1.200000000000e+00,2.998851949703e+01,2.500000000000e-01
103,1.200000000000e+00,2.997878679656e+01,5.000000000000e-01
104,1.200000000000e+00,2.997228361402e+01,7.500000000000e-01
105,1.200000000000e+00,2.997000000000e+01,1.000000000000e+00
106,1.200000000000e+00,2.997228361402e+01,1.250000000000e+00
107,1.200000000000e+00,2.997878679656e+01,1.500000000000e+00
108,1.200000000000e+00,2.998851949703e+01,1.750000000000e+00
109,0.000000000000e+00,3.996400000000e+01,0.000000000000e+00
110,0.000000000000e+00,4.003600000000e+01,2.000000000000e+00
111,-1.200000000000e+00,4.003000000000e+01,1.000000000000e+00
112,1.200000000000e+00,3.997000000000e+01,1.000000000000e+00
113,-6.000000000000e-01,4.997454415588e+01,0.000000000000e+00
114,0.000000000000e+00,4.996400000000e+01,0.000000000000e+00
115,6.000000000000e-01,4.997454415588e+01,0.000000000000e+00
116,-6.000000000000e-01,5.002545584412e+01,2.000000000000e+00
117,0.000000000000e+00,5.003600000000e+01,2.000000000000e+00
118,6.000000000000e-01,5.002545584412e+01,2.000000000000e+00
119,-1.200000000000e+00,5.002121320344e+01,5.000000000000e-01
120,-1.200000000000e+00,5.003000000000e+01,1.000000000000e+00
121,-1.200000000000e+00,5.002121320344e+01,1.500000000000e+00
122,1.200000000000e+00,4.997878679656e+01,5.000000000000e-01
123,1.200000000000e+00,4.997000000000e+01,1.000000000000e+00
124,1.200000000000e+00,4.997878679656e+01,1.500000000000e+00
125,-1.200000000000e+00,1.261480502971e+00,1.925974851452e-01
126,-1.200000000000e+00,2.521213203436e+00,3.939339828220e-01
127,-1.200000000000e+00,3.777716385975e+00,6.114180701233e-01
128,-1.200000000000e+00,5.030000000000e+00,8.500000000000e-01
129,-1.200000000000e+00,6.277716385975e+00,1.111418070123e+00
130,-1.200000000000e+00,7.521213203436e+00,1.393933982822e+00
131,-1.200000000000e+00,8.761480502971e+00,1.692597485145e+00
132,-1.200000000000e+00,1.261480502971e+00,1.807402514855e+00
133,-1.200000000000e+00,2.521213203436e+00,1.606066017178e+00
134,-1.200000000000e+00,3.777716385975e+00,1.388581929877e+00
135,-1.200000000000e+00,5.030000000000e+00,1.150000000000e+00
136,-1.200000000000e+00,6.277716385975e+00,8.885819298767e-01
137,-1.200000000000e+00,7.521213203436e+00,6.060660171780e-01
138,-1.200000000000e+00,8.761480502971e+00,3.074025148548e-01
139,1.200000000000e+00,1.261480502971e+00,1.925974851452e-01
140,1.200000000000e+00,2.521213203436e+00,3.939339828220e-01
141,1.200000000000e+00,3.777716385975e+00,6.114180701233e-01
142,1.200000000000e+00,5.030000000000e+00,8.500000000000e-01
143,1.200000000000e+00,6.277716385975e+00,1.111418070123e+00
144,1.200000000000e+00,7.521213203436e+00,1.393933982822e+00
145,1.200000000000e+00,8.761480502971e+00,1.692597485145e+00
146,1.200000000000e+00,1.261480502971e+00,1.807402514855e+00
147,1.200000000000e+00,2.521213203436e+00,1.606066017178e+00
148,1.200000000000e+00,3.777716385975e+00,1.388581929877e+00
149,1.200000000000e+00,5.030000000000e+00,1.150000000000e+00
150,1.200000000000e+00,6.277716385975e+00,8.885819298767e-01
151,1.200000000000e+00,7.521213203436e+00,6.060660171780e-01
152,1.200000000000e+00,8.761480502971e+00,3.074025148548e-01
153,-8.425974851452e-01,1.236223396435e+00,0.000000000000e+00
154,-4.939339828220e-01,2.474544155877e+00,0.000000000000e+00
155,-1.614180701233e-01,3.716740336830e+00,0.000000000000e+00
156,1.500000000000e-01,4.964000000000e+00,0.000000000000e+00
157,4.385819298767e-01,6.216740336830e+00,0.000000000000e+00
158,7.060660171780e-01,7.474544155877e+00,0.000000000000e+00
159,9.574025148548e-01,8.736223396435e+00,0.000000000000e+00
160,8.425974851452e-01,1.236223396435e+00,0.000000000000e+00
161,4.939339828220e-01,2.474544155877e+00,0.000000000000e+00
162,1.614180701233e-01,3.716740336830e+00,0.000000000000e+00
163,-1.500000000000e-01,4.964000000000e+00,0.000000000000e+00
164,-4.385819298767e-01,6.216740336830e+00,0.000000000000e+00
165,-7.060660171780e-01,7.474544155877e+00,0.000000000000e+00
166,-9.574025148548e-01,8.736223396435e+00,0.000000000000e+00
167,-8.425974851452e-01,1.236223396435e+00,2.000000000000e+00
168,-4.939339828220e-01,2.474544155877e+00,2.000000000000e+00
169,-1.614180701233e-01,3.716740336830e+00,2.000000000000e+00
170,1.500000000000e-01,4.964000000000e+00,2.000000000000e+00
171,4.385819298767e-01,6.216740336830e+00,2.000000000000e+00
172,7.060660171780e-01,7.474544155877e+00,2.000000000000e+00
173,9.574025148548e-01,8.736223396435e+00,2.000000000000e+00
174,8.425974851452e-01,1.236223396435e+00,2.000000000000e+00
175,4.939339828220e-01,2.474544155877e+00,2.000000000000e+00
176,1.614180701233e-01,3.716740336830e+00,2.000000000000e+00
177,-1.500000000000e-01,4.964000000000e+00,2.000000000000e+00
178,-4.385819298767e-01,6.216740336830e+00,2.000000000000e+00
179,-7.060660171780e-01,7.474544155877e+00,2.000000000000e+00
180,-9.574025148548e-01,8.736223396435e+00,2.000000000000e+00
181,-1.200000000000e+00,1.503000000000e+01,8.500000000000e-01
182,-1.200000000000e+00,1.503000000000e+01,1.150000000000e+00
183,1.200000000000e+00,1.503000000000e+01,8.500000000000e-01
184,1.200000000000e+00,1.503000000000e+01,1.150000000000e+00
185,1.500000000000e-01,1.496400000000e+01,0.000000000000e+00
186,-1.500000000000e-01,1.496400000000e+01,0.000000000000e+00
187,1.500000000000e-01,1.496400000000e+01,2.000000000000e+00
188,-1.500000000000e-01,1.496400000000e+01,2.000000000000e+00
189,-1.200000000000e+00,2.503000000000e+01,8.500000000000e-01
190,-1.200000000000e+00,2.503000000000e+01,1.150000000000e+00
191,1.200000000000e+00,2.503000000000e+01,8.500000000000e-01
192,1.200000000000e+00,2.503000000000e+01,1.150000000000e+00
193,1.500000000000e-01,2.496400000000e+01,0.000000000000e+00
194,-1.500000000000e-01,2.496400000000e+01,0.000000000000e+00
195,1.500000000000e-01,2.496400000000e+01,2.000000000000e+00
196,-1.500000000000e-01,2.496400000000e+01,2.000000000000e+00
197,-1.200000000000e+00,3.252121320344e+01,3.939339828220e-01
198,-1.200000000000e+00,3.503000000000e+01,8.500000000000e-01
199,-1.200000000000e+00,3.752121320344e+01,1.393933982822e+00
200,-1.200000000000e+00,3.252121320344e+01,1.606066017178e+00
201,-1.200000000000e+00,3.503000000000e+01,1.150000000000e+00
202,-1.200000000000e+00,3.752121320344e+01,6.060660171780e-01
203,1.200000000000e+00,3.252121320344e+01,3.939339828220e-01
204,1.200000000000e+00,3.503000000000e+01,8.500000000000e-01
205,1.200000000000e+00,3.752121320344e+01,1.393933982822e+00
206,1.200000000000e+00,3.252121320344e+01,1.606066017178e+00
207,1.200000000000e+00,3.503000000000e+01,1.150000000000e+00
208,1.200000000000e+00,3.752121320344e+01,6.060660171780e-01
209,-4.939339828220e-01,3.247454415588e+01,0.000000000000e+00
210,1.500000000000e-01,3.496400000000e+01,0.000000000000e+00
211,7.060660171780e-01,3.747454415588e+01,0.000000000000e+00
212,4.939339828220e-01,3.247454415588e+01,0.000000000000e+00
213,-1.500000000000e-01,3.496400000000e+01,0.000000000000e+00
214,-7.060660171780e-01,3.747454415588e+01,0.000000000000e+00
215,-4.939339828220e-01,3.247454415588e+01,2.000000000000e+00
216,1.500000000000e-01,3.496400000000e+01,2.000000000000e+00
217,7.060660171780e-01,3.747454415588e+01,2.000000000000e+00
218,4.939339828220e-01,3.247454415588e+01,2.000000000000e+00
219,-1.500000000000e-01,3.496400000000e+01,2.000000000000e+00
220,-7.060660171780e-01,3.747454415588e+01,2.000000000000e+00
*ELEMENT,TYPE=B31,ELSET=ALL
1,1,25
2,25,26
3,26,27
4,27,5
5,2,28
6,28,29
7,29,30
8,30,6
9,3,31
10,31,32
11,32,33
12,33,7
13,4,34
14,34,35
15,35,36
16,36,8
17,5,37
18,37,9
19,6,38
20,38,10
21,7,39
22,39,11
23,8,40
24,40,12
25,9,13
26,10,14
27,11,15
28,12,16
29,13,17
30,14,18
31,15,19
32,16,20
33,17,41
34,41,42
35,42,43
36,43,21
37,18,44
38,44,45
39,45,46
40,46,22
41,19,47
42,47,48
43,48,49
44,49,23
45,20,50
46,50,51
47,51,52
48,52,24
49,1,53
50,53,54
51,54,55
52,55,2
53,3,56
54,56,57
55,57,58
56,58,4
57,1,59
58,59,60
59,60,61
60,61,3
61,2,62
62,62,63
63,63,64
64,64,4
65,5,65
66,65,66
67,66,67
68,67,6
69,7,68
70,68,69
71,69,70
72,70,8
73,5,71
74,71,72
75,72,73
76,73,7
77,6,74
78,74,75
79,75,76
80,76,8
81,9,77
82,77,10
83,11,78
84,78,12
85,9,79
86,79,11
87,10,80
88,80,12
89,13,81
90,81,82
91,82,83
92,83,84
93,84,85
94,85,86
95,86,87
96,87,14
97,15,88
98,88,89
99,89,90
100,90,91
101,91,92
102,92,93
103,93,94
104,94,16
105,13,95
106,95,96
107,96,97
108,97,98
109,98,99
110,99,100
111,100,101
112,101,15
113,14,102
114,102,103
115,103,104
116,104,105
117,105,106
118,106,107
119,107,108
120,108,16
121,17,109
122,109,18
123,19,110
124,110,20
125,17,111
126,111,19
127,18,112
128,112,20
129,21,113
130,113,114
131,114,115
132,115,22
133,23,116
134,116,117
135,117,118
136,118,24
137,21,119
138,119,120
139,120,121
140,121,23
141,22,122
142,122,123
143,123,124
144,124,24
145,1,125
146,125,126
147,126,127
148,127,128
149,128,129
150,129,130
151,130,131
152,131,7
153,3,132
154,132,133
155,133,134
156,134,135
157,135,136
158,136,137
159,137,138
160,138,5
161,2,139
162,139,140
163,140,141
164,141,142
165,142,143
166,143,144
167,144,145
168,145,8
169,4,146
170,146,147
171,147,148
172,148,149
173,149,150
174,150,151
175,151,152
176,152,6
177,1,153
178,153,154
179,154,155
180,155,156
181,156,157
182,157,158
183,158,159
184,159,6
185,2,160
186,160,161
187,161,162
188,162,163
189,163,164
190,164,165
191,165,166
192,166,5
193,3,167
194,167,168
195,168,169
196,169,170
197,170,171
198,171,172
199,172,173
200,173,8
201,4,174
202,174,175
203,175,176
204,176,177
205,177,178
206,178,179
207,179,180
208,180,7
209,5,181
210,181,11
211,7,182
212,182,9
213,6,183
214,183,12
215,8,184
216,184,10
217,5,185
218,185,10
219,6,186
220,186,9
221,7,187
222,187,12
223,8,188
224,188,11
225,9,189
226,189,15
227,11,190
228,190,13
229,10,191
230,191,16
231,12,192
232,192,14
233,9,193
234,193,14
235,10,194
236,194,13
237,11,195
238,195,16
239,12,196
240,196,15
241,13,197
242,197,198
243,198,199
244,199,19
245,15,200
246,200,201
247,201,202
248,202,17
249,14,203
250,203,204
251,204,205
252,205,20
253,16,206
254,206,207
255,207,208
256,208,18
257,13,209
258,209,210
259,210,211
260,211,18
261,14,212
262,212,213
263,213,214
264,214,17
265,15,215
266,215,216
267,216,217
268,217,20
269,16,218
270,218,219
271,219,220
272,220,19
273,17,23
274,19,21
275,18,24
276,20,22
277,17,22
278,18,21
279,19,24
280,20,23
*NSET,NSET=NALL,GENERATE
1,220,1
*NSET,NSET=LEFT
1,2,3,4
*NSET,NSET=RIGHT
21,22,23,24
*MATERIAL,NAME=STEEL
*ELASTIC
2.100000000000e+11,0.300000000000
*BEAM SECTION,ELSET=ALL,MATERIAL=STEEL,SECTION=RECT
6.000000000000e-02,4.000000000000e-02
0.371390676354,0.557086014531,0.742781352708
*BOUNDARY
LEFT,1,6,0.0
*STEP
*STATIC
*BOUNDARY
21,1,1,5.000000000000e-03
21,2,2,0.0
21,3,3,-6.000000000000e-03
*BOUNDARY
22,1,1,5.000000000000e-03
22,2,2,0.0
22,3,3,6.000000000000e-03
*BOUNDARY
23,1,1,-5.000000000000e-03
23,2,2,0.0
23,3,3,-6.000000000000e-03
*BOUNDARY
24,1,1,-5.000000000000e-03
24,2,2,0.0
24,3,3,6.000000000000e-03
*NODE FILE,NSET=NALL
U
*NODE PRINT,NSET=NALL
U
*NODE PRINT,NSET=RIGHT
RF
*EL PRINT,ELSET=ALL,TOTALS=YES
ELSE
*END STEP
