*HEADING
Normalized cross-passage space-truss torsion benchmark
*NODE
1,-1.200000000000e+00,0.000000000000e+00,0.000000000000e+00
2,1.200000000000e+00,0.000000000000e+00,0.000000000000e+00
3,-1.200000000000e+00,0.000000000000e+00,2.000000000000e+00
4,1.200000000000e+00,0.000000000000e+00,2.000000000000e+00
5,-1.200000000000e+00,1.000000000000e+01,0.000000000000e+00
6,1.200000000000e+00,1.000000000000e+01,0.000000000000e+00
7,-1.200000000000e+00,1.000000000000e+01,2.000000000000e+00
8,1.200000000000e+00,1.000000000000e+01,2.000000000000e+00
9,-1.200000000000e+00,2.000000000000e+01,0.000000000000e+00
10,1.200000000000e+00,2.000000000000e+01,0.000000000000e+00
11,-1.200000000000e+00,2.000000000000e+01,2.000000000000e+00
12,1.200000000000e+00,2.000000000000e+01,2.000000000000e+00
13,-1.200000000000e+00,3.000000000000e+01,0.000000000000e+00
14,1.200000000000e+00,3.000000000000e+01,0.000000000000e+00
15,-1.200000000000e+00,3.000000000000e+01,2.000000000000e+00
16,1.200000000000e+00,3.000000000000e+01,2.000000000000e+00
17,-1.200000000000e+00,4.000000000000e+01,0.000000000000e+00
18,1.200000000000e+00,4.000000000000e+01,0.000000000000e+00
19,-1.200000000000e+00,4.000000000000e+01,2.000000000000e+00
20,1.200000000000e+00,4.000000000000e+01,2.000000000000e+00
21,-1.200000000000e+00,5.000000000000e+01,0.000000000000e+00
22,1.200000000000e+00,5.000000000000e+01,0.000000000000e+00
23,-1.200000000000e+00,5.000000000000e+01,2.000000000000e+00
24,1.200000000000e+00,5.000000000000e+01,2.000000000000e+00
25,-1.200000000000e+00,1.500000000000e+01,-1.500000000000e-01
26,1.200000000000e+00,1.500000000000e+01,1.500000000000e-01
27,-1.200000000000e+00,1.500000000000e+01,1.850000000000e+00
28,1.200000000000e+00,1.500000000000e+01,2.150000000000e+00
29,-1.200000000000e+00,3.500000000000e+01,-1.500000000000e-01
30,1.200000000000e+00,3.500000000000e+01,1.500000000000e-01
31,-1.200000000000e+00,3.500000000000e+01,1.850000000000e+00
32,1.200000000000e+00,3.500000000000e+01,2.150000000000e+00
33,-1.200000000000e+00,4.250000000000e+01,-1.060660171780e-01
34,-1.200000000000e+00,4.500000000000e+01,-1.500000000000e-01
35,-1.200000000000e+00,4.750000000000e+01,-1.060660171780e-01
36,1.200000000000e+00,4.250000000000e+01,1.060660171780e-01
37,1.200000000000e+00,4.500000000000e+01,1.500000000000e-01
38,1.200000000000e+00,4.750000000000e+01,1.060660171780e-01
39,-1.200000000000e+00,4.250000000000e+01,1.893933982822e+00
40,-1.200000000000e+00,4.500000000000e+01,1.850000000000e+00
41,-1.200000000000e+00,4.750000000000e+01,1.893933982822e+00
42,1.200000000000e+00,4.250000000000e+01,2.106066017178e+00
43,1.200000000000e+00,4.500000000000e+01,2.150000000000e+00
44,1.200000000000e+00,4.750000000000e+01,2.106066017178e+00
45,0.000000000000e+00,9.964000000000e+00,0.000000000000e+00
46,0.000000000000e+00,1.003600000000e+01,2.000000000000e+00
47,-1.200000000000e+00,1.003000000000e+01,1.000000000000e+00
48,1.200000000000e+00,9.970000000000e+00,1.000000000000e+00
49,-6.000000000000e-01,2.997454415588e+01,0.000000000000e+00
50,0.000000000000e+00,2.996400000000e+01,0.000000000000e+00
51,6.000000000000e-01,2.997454415588e+01,0.000000000000e+00
52,-6.000000000000e-01,3.002545584412e+01,2.000000000000e+00
53,0.000000000000e+00,3.003600000000e+01,2.000000000000e+00
54,6.000000000000e-01,3.002545584412e+01,2.000000000000e+00
55,-1.200000000000e+00,3.002121320344e+01,5.000000000000e-01
56,-1.200000000000e+00,3.003000000000e+01,1.000000000000e+00
57,-1.200000000000e+00,3.002121320344e+01,1.500000000000e+00
58,1.200000000000e+00,2.997878679656e+01,5.000000000000e-01
59,1.200000000000e+00,2.997000000000e+01,1.000000000000e+00
60,1.200000000000e+00,2.997878679656e+01,1.500000000000e+00
61,-1.200000000000e+00,2.521213203436e+00,3.939339828220e-01
62,-1.200000000000e+00,5.030000000000e+00,8.500000000000e-01
63,-1.200000000000e+00,7.521213203436e+00,1.393933982822e+00
64,-1.200000000000e+00,2.521213203436e+00,1.606066017178e+00
65,-1.200000000000e+00,5.030000000000e+00,1.150000000000e+00
66,-1.200000000000e+00,7.521213203436e+00,6.060660171780e-01
67,1.200000000000e+00,2.521213203436e+00,3.939339828220e-01
68,1.200000000000e+00,5.030000000000e+00,8.500000000000e-01
69,1.200000000000e+00,7.521213203436e+00,1.393933982822e+00
70,1.200000000000e+00,2.521213203436e+00,1.606066017178e+00
71,1.200000000000e+00,5.030000000000e+00,1.150000000000e+00
72,1.200000000000e+00,7.521213203436e+00,6.060660171780e-01
73,-4.939339828220e-01,2.474544155877e+00,0.000000000000e+00
74,1.500000000000e-01,4.964000000000e+00,0.000000000000e+00
75,7.060660171780e-01,7.474544155877e+00,0.000000000000e+00
76,4.939339828220e-01,2.474544155877e+00,0.000000000000e+00
77,-1.500000000000e-01,4.964000000000e+00,0.000000000000e+00
78,-7.060660171780e-01,7.474544155877e+00,0.000000000000e+00
79,-4.939339828220e-01,2.474544155877e+00,2.000000000000e+00
80,1.500000000000e-01,4.964000000000e+00,2.000000000000e+00
81,7.060660171780e-01,7.474544155877e+00,2.000000000000e+00
82,4.939339828220e-01,2.474544155877e+00,2.000000000000e+00
83,-1.500000000000e-01,4.964000000000e+00,2.000000000000e+00
84,-7.060660171780e-01,7.474544155877e+00,2.000000000000e+00
85,-1.200000000000e+00,2.252121320344e+01,3.939339828220e-01
86,-1.200000000000e+00,2.503000000000e+01,8.500000000000e-01
87,-1.200000000000e+00,2.752121320344e+01,1.393933982822e+00
88,-1.200000000000e+00,2.252121320344e+01,1.606066017178e+00
89,-1.200000000000e+00,2.503000000000e+01,1.150000000000e+00
90,-1.200000000000e+00,2.752121320344e+01,6.060660171780e-01
91,1.200000000000e+00,2.252121320344e+01,3.939339828220e-01
92,1.200000000000e+00,2.503000000000e+01,8.500000000000e-01
93,1.200000000000e+00,2.752121320344e+01,1.393933982822e+00
94,1.200000000000e+00,2.252121320344e+01,1.606066017178e+00
95,1.200000000000e+00,2.503000000000e+01,1.150000000000e+00
96,1.200000000000e+00,2.752121320344e+01,6.060660171780e-01
97,-4.939339828220e-01,2.247454415588e+01,0.000000000000e+00
98,1.500000000000e-01,2.496400000000e+01,0.000000000000e+00
99,7.060660171780e-01,2.747454415588e+01,0.000000000000e+00
100,4.939339828220e-01,2.247454415588e+01,0.000000000000e+00
101,-1.500000000000e-01,2.496400000000e+01,0.000000000000e+00
102,-7.060660171780e-01,2.747454415588e+01,0.000000000000e+00
103,-4.939339828220e-01,2.247454415588e+01,2.000000000000e+00
104,1.500000000000e-01,2.496400000000e+01,2.000000000000e+00
105,7.060660171780e-01,2.747454415588e+01,2.000000000000e+00
106,4.939339828220e-01,2.247454415588e+01,2.000000000000e+00
107,-1.500000000000e-01,2.496400000000e+01,2.000000000000e+00
108,-7.060660171780e-01,2.747454415588e+01,2.000000000000e+00
109,-1.200000000000e+00,3.126148050297e+01,1.925974851452e-01
110,-1.200000000000e+00,3.252121320344e+01,3.939339828220e-01
111,-1.200000000000e+00,3.377771638598e+01,6.114180701233e-01
112,-1.200000000000e+00,3.503000000000e+01,8.500000000000e-01
113,-1.200000000000e+00,3.627771638598e+01,1.111418070123e+00
114,-1.200000000000e+00,3.752121320344e+01,1.393933982822e+00
115,-1.200000000000e+00,3.876148050297e+01,1.692597485145e+00
116,-1.200000000000e+00,3.126148050297e+01,1.807402514855e+00
117,-1.200000000000e+00,3.252121320344e+01,1.606066017178e+00
118,-1.200000000000e+00,3.377771638598e+01,1.388581929877e+00
119,-1.200000000000e+00,3.503000000000e+01,1.150000000000e+00
120,-1.200000000000e+00,3.627771638598e+01,8.885819298767e-01
121,-1.200000000000e+00,3.752121320344e+01,6.060660171780e-01
122,-1.200000000000e+00,3.876148050297e+01,3.074025148548e-01
123,1.200000000000e+00,3.126148050297e+01,1.925974851452e-01
124,1.200000000000e+00,3.252121320344e+01,3.939339828220e-01
125,1.200000000000e+00,3.377771638598e+01,6.114180701233e-01
126,1.200000000000e+00,3.503000000000e+01,8.500000000000e-01
127,1.200000000000e+00,3.627771638598e+01,1.111418070123e+00
128,1.200000000000e+00,3.752121320344e+01,1.393933982822e+00
129,1.200000000000e+00,3.876148050297e+01,1.692597485145e+00
130,1.200000000000e+00,3.126148050297e+01,1.807402514855e+00
131,1.200000000000e+00,3.252121320344e+01,1.606066017178e+00
132,1.200000000000e+00,3.377771638598e+01,1.388581929877e+00
133,1.200000000000e+00,3.503000000000e+01,1.150000000000e+00
134,1.200000000000e+00,3.627771638598e+01,8.885819298767e-01
135,1.200000000000e+00,3.752121320344e+01,6.060660171780e-01
136,1.200000000000e+00,3.876148050297e+01,3.074025148548e-01
137,-8.425974851452e-01,3.123622339643e+01,0.000000000000e+00
138,-4.939339828220e-01,3.247454415588e+01,0.000000000000e+00
139,-1.614180701233e-01,3.371674033683e+01,0.000000000000e+00
140,1.500000000000e-01,3.496400000000e+01,0.000000000000e+00
141,4.385819298767e-01,3.621674033683e+01,0.000000000000e+00
142,7.060660171780e-01,3.747454415588e+01,0.000000000000e+00
143,9.574025148548e-01,3.873622339643e+01,0.000000000000e+00
144,8.425974851452e-01,3.123622339643e+01,0.000000000000e+00
145,4.939339828220e-01,3.247454415588e+01,0.000000000000e+00
146,1.614180701233e-01,3.371674033683e+01,0.000000000000e+00
147,-1.500000000000e-01,3.496400000000e+01,0.000000000000e+00
148,-4.385819298767e-01,3.621674033683e+01,0.000000000000e+00
149,-7.060660171780e-01,3.747454415588e+01,0.000000000000e+00
150,-9.574025148548e-01,3.873622339643e+01,0.000000000000e+00
151,-8.425974851452e-01,3.123622339643e+01,2.000000000000e+00
152,-4.939339828220e-01,3.247454415588e+01,2.000000000000e+00
153,-1.614180701233e-01,3.371674033683e+01,2.000000000000e+00
154,1.500000000000e-01,3.496400000000e+01,2.000000000000e+00
155,4.385819298767e-01,3.621674033683e+01,2.000000000000e+00
156,7.060660171780e-01,3.747454415588e+01,2.000000000000e+00
157,9.574025148548e-01,3.873622339643e+01,2.000000000000e+00
158,8.425974851452e-01,3.123622339643e+01,2.000000000000e+00
159,4.939339828220e-01,3.247454415588e+01,2.000000000000e+00
160,1.614180701233e-01,3.371674033683e+01,2.000000000000e+00
161,-1.500000000000e-01,3.496400000000e+01,2.000000000000e+00
162,-4.385819298767e-01,3.621674033683e+01,2.000000000000e+00
163,-7.060660171780e-01,3.747454415588e+01,2.000000000000e+00
164,-9.574025148548e-01,3.873622339643e+01,2.000000000000e+00
165,-1.200000000000e+00,4.503000000000e+01,8.500000000000e-01
166,-1.200000000000e+00,4.503000000000e+01,1.150000000000e+00
167,1.200000000000e+00,4.503000000000e+01,8.500000000000e-01
168,1.200000000000e+00,4.503000000000e+01,1.150000000000e+00
169,1.500000000000e-01,4.496400000000e+01,0.000000000000e+00
170,-1.500000000000e-01,4.496400000000e+01,0.000000000000e+00
171,1.500000000000e-01,4.496400000000e+01,2.000000000000e+00
172,-1.500000000000e-01,4.496400000000e+01,2.000000000000e+00
*ELEMENT,TYPE=B31,ELSET=ALL
1,1,5
2,2,6
3,3,7
4,4,8
5,5,25
6,25,9
7,6,26
8,26,10
9,7,27
10,27,11
11,8,28
12,28,12
13,9,13
14,10,14
15,11,15
16,12,16
17,13,29
18,29,17
19,14,30
20,30,18
21,15,31
22,31,19
23,16,32
24,32,20
25,17,33
26,33,34
27,34,35
28,35,21
29,18,36
30,36,37
31,37,38
32,38,22
33,19,39
34,39,40
35,40,41
36,41,23
37,20,42
38,42,43
39,43,44
40,44,24
41,1,2
42,3,4
43,1,3
44,2,4
45,5,45
46,45,6
47,7,46
48,46,8
49,5,47
50,47,7
51,6,48
52,48,8
53,9,10
54,11,12
55,9,11
56,10,12
57,13,49
58,49,50
59,50,51
60,51,14
61,15,52
62,52,53
63,53,54
64,54,16
65,13,55
66,55,56
67,56,57
68,57,15
69,14,58
70,58,59
71,59,60
72,60,16
73,17,18
74,19,20
75,17,19
76,18,20
77,21,22
78,23,24
79,21,23
80,22,24
81,1,61
82,61,62
83,62,63
84,63,7
85,3,64
86,64,65
87,65,66
88,66,5
89,2,67
90,67,68
91,68,69
92,69,8
93,4,70
94,70,71
95,71,72
96,72,6
97,1,73
98,73,74
99,74,75
100,75,6
101,2,76
102,76,77
103,77,78
104,78,5
105,3,79
106,79,80
107,80,81
108,81,8
109,4,82
110,82,83
111,83,84
112,84,7
113,5,11
114,7,9
115,6,12
116,8,10
117,5,10
118,6,9
119,7,12
120,8,11
121,9,85
122,85,86
123,86,87
124,87,15
125,11,88
126,88,89
127,89,90
128,90,13
129,10,91
130,91,92
131,92,93
132,93,16
133,12,94
134,94,95
135,95,96
136,96,14
137,9,97
138,97,98
139,98,99
140,99,14
141,10,100
142,100,101
143,101,102
144,102,13
145,11,103
146,103,104
147,104,105
148,105,16
149,12,106
150,106,107
151,107,108
152,108,15
153,13,109
154,109,110
155,110,111
156,111,112
157,112,113
158,113,114
159,114,115
160,115,19
161,15,116
162,116,117
163,117,118
164,118,119
165,119,120
166,120,121
167,121,122
168,122,17
169,14,123
170,123,124
171,124,125
172,125,126
173,126,127
174,127,128
175,128,129
176,129,20
177,16,130
178,130,131
179,131,132
180,132,133
181,133,134
182,134,135
183,135,136
184,136,18
185,13,137
186,137,138
187,138,139
188,139,140
189,140,141
190,141,142
191,142,143
192,143,18
193,14,144
194,144,145
195,145,146
196,146,147
197,147,148
198,148,149
199,149,150
200,150,17
201,15,151
202,151,152
203,152,153
204,153,154
205,154,155
206,155,156
207,156,157
208,157,20
209,16,158
210,158,159
211,159,160
212,160,161
213,161,162
214,162,163
215,163,164
216,164,19
217,17,165
218,165,23
219,19,166
220,166,21
221,18,167
222,167,24
223,20,168
224,168,22
225,17,169
226,169,22
227,18,170
228,170,21
229,19,171
230,171,24
231,20,172
232,172,23
*NSET,NSET=NALL,GENERATE
1,172,1
*NSET,NSET=LEFT
1,2,3,4
*NSET,NSET=RIGHT
21,22,23,24
*MATERIAL,NAME=STEEL
*ELASTIC
2.100000000000e+11,0.300000000000
*BEAM SECTION,ELSET=ALL,MATERIAL=STEEL,SECTION=RECT
6.000000000000e-02,4.000000000000e-02
0.371390676354,0.557086014531,0.742781352708
*BOUNDARY
LEFT,1,6,0.0
*STEP
*STATIC
*BOUNDARY
21,1,1,5.000000000000e-03
21,2,2,0.0
21,3,3,-6.000000000000e-03
*BOUNDARY
22,1,1,5.000000000000e-03
22,2,2,0.0
22,3,3,6.000000000000e-03
*BOUNDARY
23,1,1,-5.000000000000e-03
23,2,2,0.0
23,3,3,-6.000000000000e-03
*BOUNDARY
24,1,1,-5.000000000000e-03
24,2,2,0.0
24,3,3,6.000000000000e-03
*NODE FILE,NSET=NALL
U
*NODE PRINT,NSET=NALL
U
*NODE PRINT,NSET=RIGHT
RF
*EL PRINT,ELSET=ALL,TOTALS=YES
ELSE
*END STEP
