*HEADING
Normalized cross-passage space-truss torsion benchmark
*NODE
1,-1.200000000000e+00,0.000000000000e+00,0.000000000000e+00
2,1.200000000000e+00,0.000000000000e+00,0.000000000000e+00
3,-1.200000000000e+00,0.000000000000e+00,2.000000000000e+00
4,1.200000000000e+00,0.000000000000e+00,2.000000000000e+00
5,-1.200000000000e+00,1.000000000000e+01,0.000000000000e+00
6,1.200000000000e+00,1.000000000000e+01,0.000000000000e+00
7,-1.200000000000e+00,1.000000000000e+01,2.000000000000e+00
8,1.200000000000e+00,1.000000000000e+01,2.000000000000e+00
9,-1.200000000000e+00,2.000000000000e+01,0.000000000000e+00
10,1.200000000000e+00,2.000000000000e+01,0.000000000000e+00
11,-1.200000000000e+00,2.000000000000e+01,2.000000000000e+00
12,1.200000000000e+00,2.000000000000e+01,2.000000000000e+00
13,-1.200000000000e+00,3.000000000000e+01,0.000000000000e+00
14,1.200000000000e+00,3.000000000000e+01,0.000000000000e+00
15,-1.200000000000e+00,3.000000000000e+01,2.000000000000e+00
16,1.200000000000e+00,3.000000000000e+01,2.000000000000e+00
17,-1.200000000000e+00,4.000000000000e+01,0.000000000000e+00
18,1.200000000000e+00,4.000000000000e+01,0.000000000000e+00
19,-1.200000000000e+00,4.000000000000e+01,2.000000000000e+00
20,1.200000000000e+00,4.000000000000e+01,2.000000000000e+00
21,-1.200000000000e+00,5.000000000000e+01,0.000000000000e+00
22,1.200000000000e+00,5.000000000000e+01,0.000000000000e+00
23,-1.200000000000e+00,5.000000000000e+01,2.000000000000e+00
24,1.200000000000e+00,5.000000000000e+01,2.000000000000e+00
25,-1.200000000000e+00,5.000000000000e+00,-1.500000000000e-01
26,1.200000000000e+00,5.000000000000e+00,1.500000000000e-01
27,-1.200000000000e+00,5.000000000000e+00,1.850000000000e+00
28,1.200000000000e+00,5.000000000000e+00,2.150000000000e+00
29,-1.200000000000e+00,1.500000000000e+01,-1.500000000000e-01
30,1.200000000000e+00,1.500000000000e+01,1.500000000000e-01
31,-1.200000000000e+00,1.500000000000e+01,1.850000000000e+00
32,1.200000000000e+00,1.500000000000e+01,2.150000000000e+00
33,-1.200000000000e+00,2.500000000000e+01,-1.500000000000e-01
34,1.200000000000e+00,2.500000000000e+01,1.500000000000e-01
35,-1.200000000000e+00,2.500000000000e+01,1.850000000000e+00
36,1.200000000000e+00,2.500000000000e+01,2.150000000000e+00
37,-1.200000000000e+00,3.500000000000e+01,-1.500000000000e-01
38,1.200000000000e+00,3.500000000000e+01,1.500000000000e-01
39,-1.200000000000e+00,3.500000000000e+01,1.850000000000e+00
40,1.200000000000e+00,3.500000000000e+01,2.150000000000e+00
41,-1.200000000000e+00,4.500000000000e+01,-1.500000000000e-01
42,1.200000000000e+00,4.500000000000e+01,1.500000000000e-01
43,-1.200000000000e+00,4.500000000000e+01,1.850000000000e+00
44,1.200000000000e+00,4.500000000000e+01,2.150000000000e+00
45,0.000000000000e+00,-3.600000000000e-02,0.000000000000e+00
46,0.000000000000e+00,3.600000000000e-02,2.000000000000e+00
47,-1.200000000000e+00,3.000000000000e-02,1.000000000000e+00
48,1.200000000000e+00,-3.000000000000e-02,1.000000000000e+00
49,0.000000000000e+00,9.964000000000e+00,0.000000000000e+00
50,0.000000000000e+00,1.003600000000e+01,2.000000000000e+00
51,-1.200000000000e+00,1.003000000000e+01,1.000000000000e+00
52,1.200000000000e+00,9.970000000000e+00,1.000000000000e+00
53,-9.000000000000e-01,1.998622339643e+01,0.000000000000e+00
54,-6.000000000000e-01,1.997454415588e+01,0.000000000000e+00
55,-3.000000000000e-01,1.996674033683e+01,0.000000000000e+00
56,0.000000000000e+00,1.996400000000e+01,0.000000000000e+00
57,3.000000000000e-01,1.996674033683e+01,0.000000000000e+00
58,6.000000000000e-01,1.997454415588e+01,0.000000000000e+00
59,9.000000000000e-01,1.998622339643e+01,0.000000000000e+00
60,-9.000000000000e-01,2.001377660357e+01,2.000000000000e+00
61,-6.000000000000e-01,2.002545584412e+01,2.000000000000e+00
62,-3.000000000000e-01,2.003325966317e+01,2.000000000000e+00
63,0.000000000000e+00,2.003600000000e+01,2.000000000000e+00
64,3.000000000000e-01,2.003325966317e+01,2.000000000000e+00
65,6.000000000000e-01,2.002545584412e+01,2.000000000000e+00
66,9.000000000000e-01,2.001377660357e+01,2.000000000000e+00
67,-1.200000000000e+00,2.001148050297e+01,2.500000000000e-01
68,-1.200000000000e+00,2.002121320344e+01,5.000000000000e-01
69,-1.200000000000e+00,2.002771638598e+01,7.500000000000e-01
70,-1.200000000000e+00,2.003000000000e+01,1.000000000000e+00
71,-1.200000000000e+00,2.002771638598e+01,1.250000000000e+00
72,-1.200000000000e+00,2.002121320344e+01,1.500000000000e+00
73,-1.200000000000e+00,2.001148050297e+01,1.750000000000e+00
74,1.200000000000e+00,1.998851949703e+01,2.500000000000e-01
75,1.200000000000e+00,1.997878679656e+01,5.000000000000e-01
76,1.200000000000e+00,1.997228361402e+01,7.500000000000e-01
77,1.200000000000e+00,1.997000000000e+01,1.000000000000e+00
78,1.200000000000e+00,1.997228361402e+01,1.250000000000e+00
79,1.200000000000e+00,1.997878679656e+01,1.500000000000e+00
80,1.200000000000e+00,1.998851949703e+01,1.750000000000e+00
81,-6.000000000000e-01,2.997454415588e+01,0.000000000000e+00
82,0.000000000000e+00,2.996400000000e+01,0.000000000000e+00
83,6.000000000000e-01,2.997454415588e+01,0.000000000000e+00
84,-6.000000000000e-01,3.002545584412e+01,2.000000000000e+00
85,0.000000000000e+00,3.003600000000e+01,2.000000000000e+00
86,6.000000000000e-01,3.002545584412e+01,2.000000000000e+00
87,-1.200000000000e+00,3.002121320344e+01,5.000000000000e-01
88,-1.200000000000e+00,3.003000000000e+01,1.000000000000e+00
89,-1.200000000000e+00,3.002121320344e+01,1.500000000000e+00
90,1.200000000000e+00,2.997878679656e+01,5.000000000000e-01
91,1.200000000000e+00,2.997000000000e+01,1.000000000000e+00
92,1.200000000000e+00,2.997878679656e+01,1.500000000000e+00
93,-6.000000000000e-01,3.997454415588e+01,0.000000000000e+00
94,0.000000000000e+00,3.996400000000e+01,0.000000000000e+00
95,6.000000000000e-01,3.997454415588e+01,0.000000000000e+00
96,-6.000000000000e-01,4.002545584412e+01,2.000000000000e+00
97,0.000000000000e+00,4.003600000000e+01,2.000000000000e+00
98,6.000000000000e-01,4.002545584412e+01,2.000000000000e+00
99,-1.200000000000e+00,4.002121320344e+01,5.000000000000e-01
100,-1.200000000000e+00,4.003000000000e+01,1.000000000000e+00
101,-1.200000000000e+00,4.002121320344e+01,1.500000000000e+00
102,1.200000000000e+00,3.997878679656e+01,5.000000000000e-01
103,1.200000000000e+00,3.997000000000e+01,1.000000000000e+00
104,1.200000000000e+00,3.997878679656e+01,1.500000000000e+00
105,0.000000000000e+00,4.996400000000e+01,0.000000000000e+00
106,0.000000000000e+00,5.003600000000e+01,2.000000000000e+00
107,-1.200000000000e+00,5.003000000000e+01,1.000000000000e+00
108,1.200000000000e+00,4.997000000000e+01,1.000000000000e+00
109,-1.200000000000e+00,5.030000000000e+00,8.500000000000e-01
110,-1.200000000000e+00,5.030000000000e+00,1.150000000000e+00
111,1.200000000000e+00,5.030000000000e+00,8.500000000000e-01
112,1.200000000000e+00,5.030000000000e+00,1.150000000000e+00
113,1.500000000000e-01,4.964000000000e+00,0.000000000000e+00
114,-1.500000000000e-01,4.964000000000e+00,0.000000000000e+00
115,1.500000000000e-01,4.964000000000e+00,2.000000000000e+00
116,-1.500000000000e-01,4.964000000000e+00,2.000000000000e+00
117,-1.200000000000e+00,1.503000000000e+01,8.500000000000e-01
118,-1.200000000000e+00,1.503000000000e+01,1.150000000000e+00
119,1.200000000000e+00,1.503000000000e+01,8.500000000000e-01
120,1.200000000000e+00,1.503000000000e+01,1.150000000000e+00
121,1.500000000000e-01,1.496400000000e+01,0.000000000000e+00
122,-1.500000000000e-01,1.496400000000e+01,0.000000000000e+00
123,1.500000000000e-01,1.496400000000e+01,2.000000000000e+00
124,-1.500000000000e-01,1.496400000000e+01,2.000000000000e+00
125,-1.200000000000e+00,2.126148050297e+01,1.925974851452e-01
126,-1.200000000000e+00,2.252121320344e+01,3.939339828220e-01
127,-1.200000000000e+00,2.377771638598e+01,6.114180701233e-01
128,-1.200000000000e+00,2.503000000000e+01,8.500000000000e-01
129,-1.200000000000e+00,2.627771638598e+01,1.111418070123e+00
130,-1.200000000000e+00,2.752121320344e+01,1.393933982822e+00
131,-1.200000000000e+00,2.876148050297e+01,1.692597485145e+00
132,-1.200000000000e+00,2.126148050297e+01,1.807402514855e+00
133,-1.200000000000e+00,2.252121320344e+01,1.606066017178e+00
134,-1.200000000000e+00,2.377771638598e+01,1.388581929877e+00
135,-1.200000000000e+00,2.503000000000e+01,1.150000000000e+00
136,-1.200000000000e+00,2.627771638598e+01,8.885819298767e-01
137,-1.200000000000e+00,2.752121320344e+01,6.060660171780e-01
138,-1.200000000000e+00,2.876148050297e+01,3.074025148548e-01
139,1.200000000000e+00,2.126148050297e+01,1.925974851452e-01
140,1.200000000000e+00,2.252121320344e+01,3.939339828220e-01
141,1.200000000000e+00,2.377771638598e+01,6.114180701233e-01
142,1.200000000000e+00,2.503000000000e+01,8.500000000000e-01
143,1.200000000000e+00,2.627771638598e+01,1.111418070123e+00
144,1.200000000000e+00,2.752121320344e+01,1.393933982822e+00
145,1.200000000000e+00,2.876148050297e+01,1.692597485145e+00
146,1.200000000000e+00,2.126148050297e+01,1.807402514855e+00
147,1.200000000000e+00,2.252121320344e+01,1.606066017178e+00
148,1.200000000000e+00,2.377771638598e+01,1.388581929877e+00
149,1.200000000000e+00,2.503000000000e+01,1.150000000000e+00
150,1.200000000000e+00,2.627771638598e+01,8.885819298767e-01
151,1.200000000000e+00,2.752121320344e+01,6.060660171780e-01
152,1.200000000000e+00,2.876148050297e+01,3.074025148548e-01
153,-8.425974851452e-01,2.123622339643e+01,0.000000000000e+00
154,-4.939339828220e-01,2.247454415588e+01,0.000000000000e+00
155,-1.614180701233e-01,2.371674033683e+01,0.000000000000e+00
156,1.500000000000e-01,2.496400000000e+01,0.000000000000e+00
157,4.385819298767e-01,2.621674033683e+01,0.000000000000e+00
158,7.060660171780e-01,2.747454415588e+01,0.000000000000e+00
159,9.574025148548e-01,2.873622339643e+01,0.000000000000e+00
160,8.425974851452e-01,2.123622339643e+01,0.000000000000e+00
161,4.939339828220e-01,2.247454415588e+01,0.000000000000e+00
162,1.614180701233e-01,2.371674033683e+01,0.000000000000e+00
163,-1.500000000000e-01,2.496400000000e+01,0.000000000000e+00
164,-4.385819298767e-01,2.621674033683e+01,0.000000000000e+00
165,-7.060660171780e-01,2.747454415588e+01,0.000000000000e+00
166,-9.574025148548e-01,2.873622339643e+01,0.000000000000e+00
167,-8.425974851452e-01,2.123622339643e+01,2.000000000000e+00
168,-4.939339828220e-01,2.247454415588e+01,2.000000000000e+00
169,-1.614180701233e-01,2.371674033683e+01,2.000000000000e+00
170,1.500000000000e-01,2.496400000000e+01,2.000000000000e+00
171,4.385819298767e-01,2.621674033683e+01,2.000000000000e+00
172,7.060660171780e-01,2.747454415588e+01,2.000000000000e+00
173,9.574025148548e-01,2.873622339643e+01,2.000000000000e+00
174,8.425974851452e-01,2.123622339643e+01,2.000000000000e+00
175,4.939339828220e-01,2.247454415588e+01,2.000000000000e+00
176,1.614180701233e-01,2.371674033683e+01,2.000000000000e+00
177,-1.500000000000e-01,2.496400000000e+01,2.000000000000e+00
178,-4.385819298767e-01,2.621674033683e+01,2.000000000000e+00
179,-7.060660171780e-01,2.747454415588e+01,2.000000000000e+00
180,-9.574025148548e-01,2.873622339643e+01,2.000000000000e+00
181,-1.200000000000e+00,3.126148050297e+01,1.925974851452e-01
182,-1.200000000000e+00,3.252121320344e+01,3.939339828220e-01
183,-1.200000000000e+00,3.377771638598e+01,6.114180701233e-01
184,-1.200000000000e+00,3.503000000000e+01,8.500000000000e-01
185,-1.200000000000e+00,3.627771638598e+01,1.111418070123e+00
186,-1.200000000000e+00,3.752121320344e+01,1.393933982822e+00
187,-1.200000000000e+00,3.876148050297e+01,1.692597485145e+00
188,-1.200000000000e+00,3.126148050297e+01,1.807402514855e+00
189,-1.200000000000e+00,3.252121320344e+01,1.606066017178e+00
190,-1.200000000000e+00,3.377771638598e+01,1.388581929877e+00
191,-1.200000000000e+00,3.503000000000e+01,1.150000000000e+00
192,-1.200000000000e+00,3.627771638598e+01,8.885819298767e-01
193,-1.200000000000e+00,3.752121320344e+01,6.060660171780e-01
194,-1.200000000000e+00,3.876148050297e+01,3.074025148548e-01
195,1.200000000000e+00,3.126148050297e+01,1.925974851452e-01
196,1.200000000000e+00,3.252121320344e+01,3.939339828220e-01
197,1.200000000000e+00,3.377771638598e+01,6.114180701233e-01
198,1.200000000000e+00,3.503000000000e+01,8.500000000000e-01
199,1.200000000000e+00,3.627771638598e+01,1.111418070123e+00
200,1.200000000000e+00,3.752121320344e+01,1.393933982822e+00
201,1.200000000000e+00,3.876148050297e+01,1.692597485145e+00
202,1.200000000000e+00,3.126148050297e+01,1.807402514855e+00
203,1.200000000000e+00,3.252121320344e+01,1.606066017178e+00
204,1.200000000000e+00,3.377771638598e+01,1.388581929877e+00
205,1.200000000000e+00,3.503000000000e+01,1.150000000000e+00
206,1.200000000000e+00,3.627771638598e+01,8.885819298767e-01
207,1.200000000000e+00,3.752121320344e+01,6.060660171780e-01
208,1.200000000000e+00,3.876148050297e+01,3.074025148548e-01
209,-8.425974851452e-01,3.123622339643e+01,0.000000000000e+00
210,-4.939339828220e-01,3.247454415588e+01,0.000000000000e+00
211,-1.614180701233e-01,3.371674033683e+01,0.000000000000e+00
212,1.500000000000e-01,3.496400000000e+01,0.000000000000e+00
213,4.385819298767e-01,3.621674033683e+01,0.000000000000e+00
214,7.060660171780e-01,3.747454415588e+01,0.000000000000e+00
215,9.574025148548e-01,3.873622339643e+01,0.000000000000e+00
216,8.425974851452e-01,3.123622339643e+01,0.000000000000e+00
217,4.939339828220e-01,3.247454415588e+01,0.000000000000e+00
218,1.614180701233e-01,3.371674033683e+01,0.000000000000e+00
219,-1.500000000000e-01,3.496400000000e+01,0.000000000000e+00
220,-4.385819298767e-01,3.621674033683e+01,0.000000000000e+00
221,-7.060660171780e-01,3.747454415588e+01,0.000000000000e+00
222,-9.574025148548e-01,3.873622339643e+01,0.000000000000e+00
223,-8.425974851452e-01,3.123622339643e+01,2.000000000000e+00
224,-4.939339828220e-01,3.247454415588e+01,2.000000000000e+00
225,-1.614180701233e-01,3.371674033683e+01,2.000000000000e+00
226,1.500000000000e-01,3.496400000000e+01,2.000000000000e+00
227,4.385819298767e-01,3.621674033683e+01,2.000000000000e+00
228,7.060660171780e-01,3.747454415588e+01,2.000000000000e+00
229,9.574025148548e-01,3.873622339643e+01,2.000000000000e+00
230,8.425974851452e-01,3.123622339643e+01,2.000000000000e+00
231,4.939339828220e-01,3.247454415588e+01,2.000000000000e+00
232,1.614180701233e-01,3.371674033683e+01,2.000000000000e+00
233,-1.500000000000e-01,3.496400000000e+01,2.000000000000e+00
234,-4.385819298767e-01,3.621674033683e+01,2.000000000000e+00
235,-7.060660171780e-01,3.747454415588e+01,2.000000000000e+00
236,-9.574025148548e-01,3.873622339643e+01,2.000000000000e+00
237,-1.200000000000e+00,4.252121320344e+01,3.939339828220e-01
238,-1.200000000000e+00,4.503000000000e+01,8.500000000000e-01
239,-1.200000000000e+00,4.752121320344e+01,1.393933982822e+00
240,-1.200000000000e+00,4.252121320344e+01,1.606066017178e+00
241,-1.200000000000e+00,4.503000000000e+01,1.150000000000e+00
242,-1.200000000000e+00,4.752121320344e+01,6.060660171780e-01
243,1.200000000000e+00,4.252121320344e+01,3.939339828220e-01
244,1.200000000000e+00,4.503000000000e+01,8.500000000000e-01
245,1.200000000000e+00,4.752121320344e+01,1.393933982822e+00
246,1.200000000000e+00,4.252121320344e+01,1.606066017178e+00
247,1.200000000000e+00,4.503000000000e+01,1.150000000000e+00
248,1.200000000000e+00,4.752121320344e+01,6.060660171780e-01
249,-4.939339828220e-01,4.247454415588e+01,0.000000000000e+00
250,1.500000000000e-01,4.496400000000e+01,0.000000000000e+00
251,7.060660171780e-01,4.747454415588e+01,0.000000000000e+00
252,4.939339828220e-01,4.247454415588e+01,0.000000000000e+00
253,-1.500000000000e-01,4.496400000000e+01,0.000000000000e+00
254,-7.060660171780e-01,4.747454415588e+01,0.000000000000e+00
255,-4.939339828220e-01,4.247454415588e+01,2.000000000000e+00
256,1.500000000000e-01,4.496400000000e+01,2.000000000000e+00
257,7.060660171780e-01,4.747454415588e+01,2.000000000000e+00
258,4.939339828220e-01,4.247454415588e+01,2.000000000000e+00
259,-1.500000000000e-01,4.496400000000e+01,2.000000000000e+00
260,-7.060660171780e-01,4.747454415588e+01,2.000000000000e+00
*ELEMENT,TYPE=B31,ELSET=ALL
1,1,25
2,25,5
3,2,26
4,26,6
5,3,27
6,27,7
7,4,28
8,28,8
9,5,29
10,29,9
11,6,30
12,30,10
13,7,31
14,31,11
15,8,32
16,32,12
17,9,33
18,33,13
19,10,34
20,34,14
21,11,35
22,35,15
23,12,36
24,36,16
25,13,37
26,37,17
27,14,38
28,38,18
29,15,39
30,39,19
31,16,40
32,40,20
33,17,41
34,41,21
35,18,42
36,42,22
37,19,43
38,43,23
39,20,44
40,44,24
41,1,45
42,45,2
43,3,46
44,46,4
45,1,47
46,47,3
47,2,48
48,48,4
49,5,49
50,49,6
51,7,50
52,50,8
53,5,51
54,51,7
55,6,52
56,52,8
57,9,53
58,53,54
59,54,55
60,55,56
61,56,57
62,57,58
63,58,59
64,59,10
65,11,60
66,60,61
67,61,62
68,62,63
69,63,64
70,64,65
71,65,66
72,66,12
73,9,67
74,67,68
75,68,69
76,69,70
77,70,71
78,71,72
79,72,73
80,73,11
81,10,74
82,74,75
83,75,76
84,76,77
85,77,78
86,78,79
87,79,80
88,80,12
89,13,81
90,81,82
91,82,83
92,83,14
93,15,84
94,84,85
95,85,86
96,86,16
97,13,87
98,87,88
99,88,89
100,89,15
101,14,90
102,90,91
103,91,92
104,92,16
105,17,93
106,93,94
107,94,95
108,95,18
109,19,96
110,96,97
111,97,98
112,98,20
113,17,99
114,99,100
115,100,101
116,101,19
117,18,102
118,102,103
119,103,104
120,104,20
121,21,105
122,105,22
123,23,106
124,106,24
125,21,107
126,107,23
127,22,108
128,108,24
129,1,109
130,109,7
131,3,110
132,110,5
133,2,111
134,111,8
135,4,112
136,112,6
137,1,113
138,113,6
139,2,114
140,114,5
141,3,115
142,115,8
143,4,116
144,116,7
145,5,117
146,117,11
147,7,118
148,118,9
149,6,119
150,119,12
151,8,120
152,120,10
153,5,121
154,121,10
155,6,122
156,122,9
157,7,123
158,123,12
159,8,124
160,124,11
161,9,125
162,125,126
163,126,127
164,127,128
165,128,129
166,129,130
167,130,131
168,131,15
169,11,132
170,132,133
171,133,134
172,134,135
173,135,136
174,136,137
175,137,138
176,138,13
177,10,139
178,139,140
179,140,141
180,141,142
181,142,143
182,143,144
183,144,145
184,145,16
185,12,146
186,146,147
187,147,148
188,148,149
189,149,150
190,150,151
191,151,152
192,152,14
193,9,153
194,153,154
195,154,155
196,155,156
197,156,157
198,157,158
199,158,159
200,159,14
201,10,160
202,160,161
203,161,162
204,162,163
205,163,164
206,164,165
207,165,166
208,166,13
209,11,167
210,167,168
211,168,169
212,169,170
213,170,171
214,171,172
215,172,173
216,173,16
217,12,174
218,174,175
219,175,176
220,176,177
221,177,178
222,178,179
223,179,180
224,180,15
225,13,181
226,181,182
227,182,183
228,183,184
229,184,185
230,185,186
231,186,187
232,187,19
233,15,188
234,188,189
235,189,190
236,190,191
237,191,192
238,192,193
239,193,194
240,194,17
241,14,195
242,195,196
243,196,197
244,197,198
245,198,199
246,199,200
247,200,201
248,201,20
249,16,202
250,202,203
251,203,204
252,204,205
253,205,206
254,206,207
255,207,208
256,208,18
257,13,209
258,209,210
259,210,211
260,211,212
261,212,213
262,213,214
263,214,215
264,215,18
265,14,216
266,216,217
267,217,218
268,218,219
269,219,220
270,220,221
271,221,222
272,222,17
273,15,223
274,223,224
275,224,225
276,225,226
277,226,227
278,227,228
279,228,229
280,229,20
281,16,230
282,230,231
283,231,232
284,232,233
285,233,234
286,234,235
287,235,236
288,236,19
289,17,237
290,237,238
291,238,239
292,239,23
293,19,240
294,240,241
295,241,242
296,242,21
297,18,243
298,243,244
299,244,245
300,245,24
301,20,246
302,246,247
303,247,248
304,248,22
305,17,249
306,249,250
307,250,251
308,251,22
309,18,252
310,252,253
311,253,254
312,254,21
313,19,255
314,255,256
315,256,257
316,257,24
317,20,258
318,258,259
319,259,260
320,260,23
*NSET,NSET=NALL,GENERATE
1,260,1
*NSET,NSET=LEFT
1,2,3,4
*NSET,NSET=RIGHT
21,22,23,24
*MATERIAL,NAME=STEEL
*ELASTIC
2.100000000000e+11,0.300000000000
*BEAM SECTION,ELSET=ALL,MATERIAL=STEEL,SECTION=RECT
6.000000000000e-02,4.000000000000e-02
0.371390676354,0.557086014531,0.742781352708
*BOUNDARY
LEFT,1,6,0.0
*STEP
*STATIC
*BOUNDARY
21,1,1,5.000000000000e-03
21,2,2,0.0
21,3,3,-6.000000000000e-03
*BOUNDARY
22,1,1,5.000000000000e-03
22,2,2,0.0
22,3,3,6.000000000000e-03
*BOUNDARY
23,1,1,-5.000000000000e-03
23,2,2,0.0
23,3,3,-6.000000000000e-03
*BOUNDARY
24,1,1,-5.000000000000e-03
24,2,2,0.0
24,3,3,6.000000000000e-03
*NODE FILE,NSET=NALL
U
*NODE PRINT,NSET=NALL
U
*NODE PRINT,NSET=RIGHT
RF
*EL PRINT,ELSET=ALL,TOTALS=YES
ELSE
*END STEP
