*HEADING
Normalized cross-passage space-truss torsion benchmark
*NODE
1,-1.200000000000e+00,0.000000000000e+00,0.000000000000e+00
2,1.200000000000e+00,0.000000000000e+00,0.000000000000e+00
3,-1.200000000000e+00,0.000000000000e+00,2.000000000000e+00
4,1.200000000000e+00,0.000000000000e+00,2.000000000000e+00
5,-1.200000000000e+00,1.000000000000e+01,0.000000000000e+00
6,1.200000000000e+00,1.000000000000e+01,0.000000000000e+00
7,-1.200000000000e+00,1.000000000000e+01,2.000000000000e+00
8,1.200000000000e+00,1.000000000000e+01,2.000000000000e+00
9,-1.200000000000e+00,2.000000000000e+01,0.000000000000e+00
10,1.200000000000e+00,2.000000000000e+01,0.000000000000e+00
11,-1.200000000000e+00,2.000000000000e+01,2.000000000000e+00
12,1.200000000000e+00,2.000000000000e+01,2.000000000000e+00
13,-1.200000000000e+00,3.000000000000e+01,0.000000000000e+00
14,1.200000000000e+00,3.000000000000e+01,0.000000000000e+00
15,-1.200000000000e+00,3.000000000000e+01,2.000000000000e+00
16,1.200000000000e+00,3.000000000000e+01,2.000000000000e+00
17,-1.200000000000e+00,4.000000000000e+01,0.000000000000e+00
18,1.200000000000e+00,4.000000000000e+01,0.000000000000e+00
19,-1.200000000000e+00,4.000000000000e+01,2.000000000000e+00
20,1.200000000000e+00,4.000000000000e+01,2.000000000000e+00
21,-1.200000000000e+00,5.000000000000e+01,0.000000000000e+00
22,1.200000000000e+00,5.000000000000e+01,0.000000000000e+00
23,-1.200000000000e+00,5.000000000000e+01,2.000000000000e+00
24,1.200000000000e+00,5.000000000000e+01,2.000000000000e+00
25,-1.200000000000e+00,1.250000000000e+00,-5.740251485476e-02
26,-1.200000000000e+00,2.500000000000e+00,-1.060660171780e-01
27,-1.200000000000e+00,3.750000000000e+00,-1.385819298767e-01
28,-1.200000000000e+00,5.000000000000e+00,-1.500000000000e-01
29,-1.200000000000e+00,6.250000000000e+00,-1.385819298767e-01
30,-1.200000000000e+00,7.500000000000e+00,-1.060660171780e-01
31,-1.200000000000e+00,8.750000000000e+00,-5.740251485476e-02
32,1.200000000000e+00,1.250000000000e+00,5.740251485476e-02
33,1.200000000000e+00,2.500000000000e+00,1.060660171780e-01
34,1.200000000000e+00,3.750000000000e+00,1.385819298767e-01
35,1.200000000000e+00,5.000000000000e+00,1.500000000000e-01
36,1.200000000000e+00,6.250000000000e+00,1.385819298767e-01
37,1.200000000000e+00,7.500000000000e+00,1.060660171780e-01
38,1.200000000000e+00,8.750000000000e+00,5.740251485476e-02
39,-1.200000000000e+00,1.250000000000e+00,1.942597485145e+00
40,-1.200000000000e+00,2.500000000000e+00,1.893933982822e+00
41,-1.200000000000e+00,3.750000000000e+00,1.861418070123e+00
42,-1.200000000000e+00,5.000000000000e+00,1.850000000000e+00
43,-1.200000000000e+00,6.250000000000e+00,1.861418070123e+00
44,-1.200000000000e+00,7.500000000000e+00,1.893933982822e+00
45,-1.200000000000e+00,8.750000000000e+00,1.942597485145e+00
46,1.200000000000e+00,1.250000000000e+00,2.057402514855e+00
47,1.200000000000e+00,2.500000000000e+00,2.106066017178e+00
48,1.200000000000e+00,3.750000000000e+00,2.138581929877e+00
49,1.200000000000e+00,5.000000000000e+00,2.150000000000e+00
50,1.200000000000e+00,6.250000000000e+00,2.138581929877e+00
51,1.200000000000e+00,7.500000000000e+00,2.106066017178e+00
52,1.200000000000e+00,8.750000000000e+00,2.057402514855e+00
53,-1.200000000000e+00,1.125000000000e+01,-5.740251485476e-02
54,-1.200000000000e+00,1.250000000000e+01,-1.060660171780e-01
55,-1.200000000000e+00,1.375000000000e+01,-1.385819298767e-01
56,-1.200000000000e+00,1.500000000000e+01,-1.500000000000e-01
57,-1.200000000000e+00,1.625000000000e+01,-1.385819298767e-01
58,-1.200000000000e+00,1.750000000000e+01,-1.060660171780e-01
59,-1.200000000000e+00,1.875000000000e+01,-5.740251485476e-02
60,1.200000000000e+00,1.125000000000e+01,5.740251485476e-02
61,1.200000000000e+00,1.250000000000e+01,1.060660171780e-01
62,1.200000000000e+00,1.375000000000e+01,1.385819298767e-01
63,1.200000000000e+00,1.500000000000e+01,1.500000000000e-01
64,1.200000000000e+00,1.625000000000e+01,1.385819298767e-01
65,1.200000000000e+00,1.750000000000e+01,1.060660171780e-01
66,1.200000000000e+00,1.875000000000e+01,5.740251485476e-02
67,-1.200000000000e+00,1.125000000000e+01,1.942597485145e+00
68,-1.200000000000e+00,1.250000000000e+01,1.893933982822e+00
69,-1.200000000000e+00,1.375000000000e+01,1.861418070123e+00
70,-1.200000000000e+00,1.500000000000e+01,1.850000000000e+00
71,-1.200000000000e+00,1.625000000000e+01,1.861418070123e+00
72,-1.200000000000e+00,1.750000000000e+01,1.893933982822e+00
73,-1.200000000000e+00,1.875000000000e+01,1.942597485145e+00
74,1.200000000000e+00,1.125000000000e+01,2.057402514855e+00
75,1.200000000000e+00,1.250000000000e+01,2.106066017178e+00
76,1.200000000000e+00,1.375000000000e+01,2.138581929877e+00
77,1.200000000000e+00,1.500000000000e+01,2.150000000000e+00
78,1.200000000000e+00,1.625000000000e+01,2.138581929877e+00
79,1.200000000000e+00,1.750000000000e+01,2.106066017178e+00
80,1.200000000000e+00,1.875000000000e+01,2.057402514855e+00
81,-1.200000000000e+00,3.250000000000e+01,-1.060660171780e-01
82,-1.200000000000e+00,3.500000000000e+01,-1.500000000000e-01
83,-1.200000000000e+00,3.750000000000e+01,-1.060660171780e-01
84,1.200000000000e+00,3.250000000000e+01,1.060660171780e-01
85,1.200000000000e+00,3.500000000000e+01,1.500000000000e-01
86,1.200000000000e+00,3.750000000000e+01,1.060660171780e-01
87,-1.200000000000e+00,3.250000000000e+01,1.893933982822e+00
88,-1.200000000000e+00,3.500000000000e+01,1.850000000000e+00
89,-1.200000000000e+00,3.750000000000e+01,1.893933982822e+00
90,1.200000000000e+00,3.250000000000e+01,2.106066017178e+00
91,1.200000000000e+00,3.500000000000e+01,2.150000000000e+00
92,1.200000000000e+00,3.750000000000e+01,2.106066017178e+00
93,-1.200000000000e+00,4.250000000000e+01,-1.060660171780e-01
94,-1.200000000000e+00,4.500000000000e+01,-1.500000000000e-01
95,-1.200000000000e+00,4.750000000000e+01,-1.060660171780e-01
96,1.200000000000e+00,4.250000000000e+01,1.060660171780e-01
97,1.200000000000e+00,4.500000000000e+01,1.500000000000e-01
98,1.200000000000e+00,4.750000000000e+01,1.060660171780e-01
99,-1.200000000000e+00,4.250000000000e+01,1.893933982822e+00
100,-1.200000000000e+00,4.500000000000e+01,1.850000000000e+00
101,-1.200000000000e+00,4.750000000000e+01,1.893933982822e+00
102,1.200000000000e+00,4.250000000000e+01,2.106066017178e+00
103,1.200000000000e+00,4.500000000000e+01,2.150000000000e+00
104,1.200000000000e+00,4.750000000000e+01,2.106066017178e+00
105,-6.000000000000e-01,-2.545584412272e-02,0.000000000000e+00
106,0.000000000000e+00,-3.600000000000e-02,0.000000000000e+00
107,6.000000000000e-01,-2.545584412272e-02,0.000000000000e+00
108,-6.000000000000e-01,2.545584412272e-02,2.000000000000e+00
109,0.000000000000e+00,3.600000000000e-02,2.000000000000e+00
110,6.000000000000e-01,2.545584412272e-02,2.000000000000e+00
111,-1.200000000000e+00,2.121320343560e-02,5.000000000000e-01
112,-1.200000000000e+00,3.000000000000e-02,1.000000000000e+00
113,-1.200000000000e+00,2.121320343560e-02,1.500000000000e+00
114,1.200000000000e+00,-2.121320343560e-02,5.000000000000e-01
115,1.200000000000e+00,-3.000000000000e-02,1.000000000000e+00
116,1.200000000000e+00,-2.121320343560e-02,1.500000000000e+00
117,-6.000000000000e-01,9.974544155877e+00,0.000000000000e+00
118,0.000000000000e+00,9.964000000000e+00,0.000000000000e+00
119,6.000000000000e-01,9.974544155877e+00,0.000000000000e+00
120,-6.000000000000e-01,1.002545584412e+01,2.000000000000e+00
121,0.000000000000e+00,1.003600000000e+01,2.000000000000e+00
122,6.000000000000e-01,1.002545584412e+01,2.000000000000e+00
123,-1.200000000000e+00,1.002121320344e+01,5.000000000000e-01
124,-1.200000000000e+00,1.003000000000e+01,1.000000000000e+00
125,-1.200000000000e+00,1.002121320344e+01,1.500000000000e+00
126,1.200000000000e+00,9.978786796564e+00,5.000000000000e-01
127,1.200000000000e+00,9.970000000000e+00,1.000000000000e+00
128,1.200000000000e+00,9.978786796564e+00,1.500000000000e+00
129,0.000000000000e+00,1.996400000000e+01,0.000000000000e+00
130,0.000000000000e+00,2.003600000000e+01,2.000000000000e+00
131,-1.200000000000e+00,2.003000000000e+01,1.000000000000e+00
132,1.200000000000e+00,1.997000000000e+01,1.000000000000e+00
133,-9.000000000000e-01,2.998622339643e+01,0.000000000000e+00
134,-6.000000000000e-01,2.997454415588e+01,0.000000000000e+00
135,-3.000000000000e-01,2.996674033683e+01,0.000000000000e+00
136,0.000000000000e+00,2.996400000000e+01,0.000000000000e+00
137,3.000000000000e-01,2.996674033683e+01,0.000000000000e+00
138,6.000000000000e-01,2.997454415588e+01,0.000000000000e+00
139,9.000000000000e-01,2.998622339643e+01,0.000000000000e+00
140,-9.000000000000e-01,3.001377660357e+01,2.000000000000e+00
141,-6.000000000000e-01,3.002545584412e+01,2.000000000000e+00
142,-3.000000000000e-01,3.003325966317e+01,2.000000000000e+00
143,0.000000000000e+00,3.003600000000e+01,2.000000000000e+00
144,3.000000000000e-01,3.003325966317e+01,2.000000000000e+00
145,6.000000000000e-01,3.002545584412e+01,2.000000000000e+00
146,9.000000000000e-01,3.001377660357e+01,2.000000000000e+00
147,-1.200000000000e+00,3.001148050297e+01,2.500000000000e-01
148,-1.200000000000e+00,3.002121320344e+01,5.000000000000e-01
149,-1.200000000000e+00,3.002771638598e+01,7.500000000000e-01
150,-1.200000000000e+00,3.003000000000e+01,1.000000000000e+00
151,-1.200000000000e+00,3.002771638598e+01,1.250000000000e+00
152,-1.200000000000e+00,3.002121320344e+01,1.500000000000e+00
153,-1.200000000000e+00,3.001148050297e+01,1.750000000000e+00
154,1.200000000000e+00,2.998851949703e+01,2.500000000000e-01
155,1.200000000000e+00,2.997878679656e+01,5.000000000000e-01
156,1.200000000000e+00,2.997228361402e+01,7.500000000000e-01
157,1.200000000000e+00,2.997000000000e+01,1.000000000000e+00
158,1.200000000000e+00,2.997228361402e+01,1.250000000000e+00
159,1.200000000000e+00,2.997878679656e+01,1.500000000000e+00
160,1.200000000000e+00,2.998851949703e+01,1.750000000000e+00
161,0.000000000000e+00,3.996400000000e+01,0.000000000000e+00
162,0.000000000000e+00,4.003600000000e+01,2.000000000000e+00
163,-1.200000000000e+00,4.003000000000e+01,1.000000000000e+00
164,1.200000000000e+00,3.997000000000e+01,1.000000000000e+00
165,-6.000000000000e-01,4.997454415588e+01,0.000000000000e+00
166,0.000000000000e+00,4.996400000000e+01,0.000000000000e+00
167,6.000000000000e-01,4.997454415588e+01,0.000000000000e+00
168,-6.000000000000e-01,5.002545584412e+01,2.000000000000e+00
169,0.000000000000e+00,5.003600000000e+01,2.000000000000e+00
170,6.000000000000e-01,5.002545584412e+01,2.000000000000e+00
171,-1.200000000000e+00,5.002121320344e+01,5.000000000000e-01
172,-1.200000000000e+00,5.003000000000e+01,1.000000000000e+00
173,-1.200000000000e+00,5.002121320344e+01,1.500000000000e+00
174,1.200000000000e+00,4.997878679656e+01,5.000000000000e-01
175,1.200000000000e+00,4.997000000000e+01,1.000000000000e+00
176,1.200000000000e+00,4.997878679656e+01,1.500000000000e+00
177,-1.200000000000e+00,1.261480502971e+00,1.925974851452e-01
178,-1.200000000000e+00,2.521213203436e+00,3.939339828220e-01
179,-1.200000000000e+00,3.777716385975e+00,6.114180701233e-01
180,-1.200000000000e+00,5.030000000000e+00,8.500000000000e-01
181,-1.200000000000e+00,6.277716385975e+00,1.111418070123e+00
182,-1.200000000000e+00,7.521213203436e+00,1.393933982822e+00
183,-1.200000000000e+00,8.761480502971e+00,1.692597485145e+00
184,-1.200000000000e+00,1.261480502971e+00,1.807402514855e+00
185,-1.200000000000e+00,2.521213203436e+00,1.606066017178e+00
186,-1.200000000000e+00,3.777716385975e+00,1.388581929877e+00
187,-1.200000000000e+00,5.030000000000e+00,1.150000000000e+00
188,-1.200000000000e+00,6.277716385975e+00,8.885819298767e-01
189,-1.200000000000e+00,7.521213203436e+00,6.060660171780e-01
190,-1.200000000000e+00,8.761480502971e+00,3.074025148548e-01
191,1.200000000000e+00,1.261480502971e+00,1.925974851452e-01
192,1.200000000000e+00,2.521213203436e+00,3.939339828220e-01
193,1.200000000000e+00,3.777716385975e+00,6.114180701233e-01
194,1.200000000000e+00,5.030000000000e+00,8.500000000000e-01
195,1.200000000000e+00,6.277716385975e+00,1.111418070123e+00
196,1.200000000000e+00,7.521213203436e+00,1.393933982822e+00
197,1.200000000000e+00,8.761480502971e+00,1.692597485145e+00
198,1.200000000000e+00,1.261480502971e+00,1.807402514855e+00
199,1.200000000000e+00,2.521213203436e+00,1.606066017178e+00
200,1.200000000000e+00,3.777716385975e+00,1.388581929877e+00
201,1.200000000000e+00,5.030000000000e+00,1.150000000000e+00
202,1.200000000000e+00,6.277716385975e+00,8.885819298767e-01
203,1.200000000000e+00,7.521213203436e+00,6.060660171780e-01
204,1.200000000000e+00,8.761480502971e+00,3.074025148548e-01
205,-8.425974851452e-01,1.236223396435e+00,0.000000000000e+00
206,-4.939339828220e-01,2.474544155877e+00,0.000000000000e+00
207,-1.614180701233e-01,3.716740336830e+00,0.000000000000e+00
208,1.500000000000e-01,4.964000000000e+00,0.000000000000e+00
209,4.385819298767e-01,6.216740336830e+00,0.000000000000e+00
210,7.060660171780e-01,7.474544155877e+00,0.000000000000e+00
211,9.574025148548e-01,8.736223396435e+00,0.000000000000e+00
212,8.425974851452e-01,1.236223396435e+00,0.000000000000e+00
213,4.939339828220e-01,2.474544155877e+00,0.000000000000e+00
214,1.614180701233e-01,3.716740336830e+00,0.000000000000e+00
215,-1.500000000000e-01,4.964000000000e+00,0.000000000000e+00
216,-4.385819298767e-01,6.216740336830e+00,0.000000000000e+00
217,-7.060660171780e-01,7.474544155877e+00,0.000000000000e+00
218,-9.574025148548e-01,8.736223396435e+00,0.000000000000e+00
219,-8.425974851452e-01,1.236223396435e+00,2.000000000000e+00
220,-4.939339828220e-01,2.474544155877e+00,2.000000000000e+00
221,-1.614180701233e-01,3.716740336830e+00,2.000000000000e+00
222,1.500000000000e-01,4.964000000000e+00,2.000000000000e+00
223,4.385819298767e-01,6.216740336830e+00,2.000000000000e+00
224,7.060660171780e-01,7.474544155877e+00,2.000000000000e+00
225,9.574025148548e-01,8.736223396435e+00,2.000000000000e+00
226,8.425974851452e-01,1.236223396435e+00,2.000000000000e+00
227,4.939339828220e-01,2.474544155877e+00,2.000000000000e+00
228,1.614180701233e-01,3.716740336830e+00,2.000000000000e+00
229,-1.500000000000e-01,4.964000000000e+00,2.000000000000e+00
230,-4.385819298767e-01,6.216740336830e+00,2.000000000000e+00
231,-7.060660171780e-01,7.474544155877e+00,2.000000000000e+00
232,-9.574025148548e-01,8.736223396435e+00,2.000000000000e+00
233,-1.200000000000e+00,1.503000000000e+01,8.500000000000e-01
234,-1.200000000000e+00,1.503000000000e+01,1.150000000000e+00
235,1.200000000000e+00,1.503000000000e+01,8.500000000000e-01
236,1.200000000000e+00,1.503000000000e+01,1.150000000000e+00
237,1.500000000000e-01,1.496400000000e+01,0.000000000000e+00
238,-1.500000000000e-01,1.496400000000e+01,0.000000000000e+00
239,1.500000000000e-01,1.496400000000e+01,2.000000000000e+00
240,-1.500000000000e-01,1.496400000000e+01,2.000000000000e+00
241,-1.200000000000e+00,2.503000000000e+01,8.500000000000e-01
242,-1.200000000000e+00,2.503000000000e+01,1.150000000000e+00
243,1.200000000000e+00,2.503000000000e+01,8.500000000000e-01
244,1.200000000000e+00,2.503000000000e+01,1.150000000000e+00
245,1.500000000000e-01,2.496400000000e+01,0.000000000000e+00
246,-1.500000000000e-01,2.496400000000e+01,0.000000000000e+00
247,1.500000000000e-01,2.496400000000e+01,2.000000000000e+00
248,-1.500000000000e-01,2.496400000000e+01,2.000000000000e+00
249,-1.200000000000e+00,3.252121320344e+01,3.939339828220e-01
250,-1.200000000000e+00,3.503000000000e+01,8.500000000000e-01
251,-1.200000000000e+00,3.752121320344e+01,1.393933982822e+00
252,-1.200000000000e+00,3.252121320344e+01,1.606066017178e+00
253,-1.200000000000e+00,3.503000000000e+01,1.150000000000e+00
254,-1.200000000000e+00,3.752121320344e+01,6.060660171780e-01
255,1.200000000000e+00,3.252121320344e+01,3.939339828220e-01
256,1.200000000000e+00,3.503000000000e+01,8.500000000000e-01
257,1.200000000000e+00,3.752121320344e+01,1.393933982822e+00
258,1.200000000000e+00,3.252121320344e+01,1.606066017178e+00
259,1.200000000000e+00,3.503000000000e+01,1.150000000000e+00
260,1.200000000000e+00,3.752121320344e+01,6.060660171780e-01
261,-4.939339828220e-01,3.247454415588e+01,0.000000000000e+00
262,1.500000000000e-01,3.496400000000e+01,0.000000000000e+00
263,7.060660171780e-01,3.747454415588e+01,0.000000000000e+00
264,4.939339828220e-01,3.247454415588e+01,0.000000000000e+00
265,-1.500000000000e-01,3.496400000000e+01,0.000000000000e+00
266,-7.060660171780e-01,3.747454415588e+01,0.000000000000e+00
267,-4.939339828220e-01,3.247454415588e+01,2.000000000000e+00
268,1.500000000000e-01,3.496400000000e+01,2.000000000000e+00
269,7.060660171780e-01,3.747454415588e+01,2.000000000000e+00
270,4.939339828220e-01,3.247454415588e+01,2.000000000000e+00
271,-1.500000000000e-01,3.496400000000e+01,2.000000000000e+00
272,-7.060660171780e-01,3.747454415588e+01,2.000000000000e+00
*ELEMENT,TYPE=B31,ELSET=ALL
1,1,25
2,25,26
3,26,27
4,27,28
5,28,29
6,29,30
7,30,31
8,31,5
9,2,32
10,32,33
11,33,34
12,34,35
13,35,36
14,36,37
15,37,38
16,38,6
17,3,39
18,39,40
19,40,41
20,41,42
21,42,43
22,43,44
23,44,45
24,45,7
25,4,46
26,46,47
27,47,48
28,48,49
29,49,50
30,50,51
31,51,52
32,52,8
33,5,53
34,53,54
35,54,55
36,55,56
37,56,57
38,57,58
39,58,59
40,59,9
41,6,60
42,60,61
43,61,62
44,62,63
45,63,64
46,64,65
47,65,66
48,66,10
49,7,67
50,67,68
51,68,69
52,69,70
53,70,71
54,71,72
55,72,73
56,73,11
57,8,74
58,74,75
59,75,76
60,76,77
61,77,78
62,78,79
63,79,80
64,80,12
65,9,13
66,10,14
67,11,15
68,12,16
69,13,81
70,81,82
71,82,83
72,83,17
73,14,84
74,84,85
75,85,86
76,86,18
77,15,87
78,87,88
79,88,89
80,89,19
81,16,90
82,90,91
83,91,92
84,92,20
85,17,93
86,93,94
87,94,95
88,95,21
89,18,96
90,96,97
91,97,98
92,98,22
93,19,99
94,99,100
95,100,101
96,101,23
97,20,102
98,102,103
99,103,104
100,104,24
101,1,105
102,105,106
103,106,107
104,107,2
105,3,108
106,108,109
107,109,110
108,110,4
109,1,111
110,111,112
111,112,113
112,113,3
113,2,114
114,114,115
115,115,116
116,116,4
117,5,117
118,117,118
119,118,119
120,119,6
121,7,120
122,120,121
123,121,122
124,122,8
125,5,123
126,123,124
127,124,125
128,125,7
129,6,126
130,126,127
131,127,128
132,128,8
133,9,129
134,129,10
135,11,130
136,130,12
137,9,131
138,131,11
139,10,132
140,132,12
141,13,133
142,133,134
143,134,135
144,135,136
145,136,137
146,137,138
147,138,139
148,139,14
149,15,140
150,140,141
151,141,142
152,142,143
153,143,144
154,144,145
155,145,146
156,146,16
157,13,147
158,147,148
159,148,149
160,149,150
161,150,151
162,151,152
163,152,153
164,153,15
165,14,154
166,154,155
167,155,156
168,156,157
169,157,158
170,158,159
171,159,160
172,160,16
173,17,161
174,161,18
175,19,162
176,162,20
177,17,163
178,163,19
179,18,164
180,164,20
181,21,165
182,165,166
183,166,167
184,167,22
185,23,168
186,168,169
187,169,170
188,170,24
189,21,171
190,171,172
191,172,173
192,173,23
193,22,174
194,174,175
195,175,176
196,176,24
197,1,177
198,177,178
199,178,179
200,179,180
201,180,181
202,181,182
203,182,183
204,183,7
205,3,184
206,184,185
207,185,186
208,186,187
209,187,188
210,188,189
211,189,190
212,190,5
213,2,191
214,191,192
215,192,193
216,193,194
217,194,195
218,195,196
219,196,197
220,197,8
221,4,198
222,198,199
223,199,200
224,200,201
225,201,202
226,202,203
227,203,204
228,204,6
229,1,205
230,205,206
231,206,207
232,207,208
233,208,209
234,209,210
235,210,211
236,211,6
237,2,212
238,212,213
239,213,214
240,214,215
241,215,216
242,216,217
243,217,218
244,218,5
245,3,219
246,219,220
247,220,221
248,221,222
249,222,223
250,223,224
251,224,225
252,225,8
253,4,226
254,226,227
255,227,228
256,228,229
257,229,230
258,230,231
259,231,232
260,232,7
261,5,233
262,233,11
263,7,234
264,234,9
265,6,235
266,235,12
267,8,236
268,236,10
269,5,237
270,237,10
271,6,238
272,238,9
273,7,239
274,239,12
275,8,240
276,240,11
277,9,241
278,241,15
279,11,242
280,242,13
281,10,243
282,243,16
283,12,244
284,244,14
285,9,245
286,245,14
287,10,246
288,246,13
289,11,247
290,247,16
291,12,248
292,248,15
293,13,249
294,249,250
295,250,251
296,251,19
297,15,252
298,252,253
299,253,254
300,254,17
301,14,255
302,255,256
303,256,257
304,257,20
305,16,258
306,258,259
307,259,260
308,260,18
309,13,261
310,261,262
311,262,263
312,263,18
313,14,264
314,264,265
315,265,266
316,266,17
317,15,267
318,267,268
319,268,269
320,269,20
321,16,270
322,270,271
323,271,272
324,272,19
325,17,23
326,19,21
327,18,24
328,20,22
329,17,22
330,18,21
331,19,24
332,20,23
*NSET,NSET=NALL,GENERATE
1,272,1
*NSET,NSET=LEFT
1,2,3,4
*NSET,NSET=RIGHT
21,22,23,24
*MATERIAL,NAME=STEEL
*ELASTIC
2.100000000000e+11,0.300000000000
*BEAM SECTION,ELSET=ALL,MATERIAL=STEEL,SECTION=RECT
6.000000000000e-02,4.000000000000e-02
0.371390676354,0.557086014531,0.742781352708
*BOUNDARY
LEFT,1,6,0.0
*STEP
*STATIC
*BOUNDARY
21,1,1,5.000000000000e-03
21,2,2,0.0
21,3,3,-6.000000000000e-03
*BOUNDARY
22,1,1,5.000000000000e-03
22,2,2,0.0
22,3,3,6.000000000000e-03
*BOUNDARY
23,1,1,-5.000000000000e-03
23,2,2,0.0
23,3,3,-6.000000000000e-03
*BOUNDARY
24,1,1,-5.000000000000e-03
24,2,2,0.0
24,3,3,6.000000000000e-03
*NODE FILE,NSET=NALL
U
*NODE PRINT,NSET=NALL
U
*NODE PRINT,NSET=RIGHT
RF
*EL PRINT,ELSET=ALL,TOTALS=YES
ELSE
*END STEP
