*HEADING
Normalized cross-passage space-truss torsion benchmark
*NODE
1,-1.200000000000e+00,0.000000000000e+00,0.000000000000e+00
2,1.200000000000e+00,0.000000000000e+00,0.000000000000e+00
3,-1.200000000000e+00,0.000000000000e+00,2.000000000000e+00
4,1.200000000000e+00,0.000000000000e+00,2.000000000000e+00
5,-1.200000000000e+00,1.000000000000e+01,0.000000000000e+00
6,1.200000000000e+00,1.000000000000e+01,0.000000000000e+00
7,-1.200000000000e+00,1.000000000000e+01,2.000000000000e+00
8,1.200000000000e+00,1.000000000000e+01,2.000000000000e+00
9,-1.200000000000e+00,2.000000000000e+01,0.000000000000e+00
10,1.200000000000e+00,2.000000000000e+01,0.000000000000e+00
11,-1.200000000000e+00,2.000000000000e+01,2.000000000000e+00
12,1.200000000000e+00,2.000000000000e+01,2.000000000000e+00
13,-1.200000000000e+00,3.000000000000e+01,0.000000000000e+00
14,1.200000000000e+00,3.000000000000e+01,0.000000000000e+00
15,-1.200000000000e+00,3.000000000000e+01,2.000000000000e+00
16,1.200000000000e+00,3.000000000000e+01,2.000000000000e+00
17,-1.200000000000e+00,4.000000000000e+01,0.000000000000e+00
18,1.200000000000e+00,4.000000000000e+01,0.000000000000e+00
19,-1.200000000000e+00,4.000000000000e+01,2.000000000000e+00
20,1.200000000000e+00,4.000000000000e+01,2.000000000000e+00
21,-1.200000000000e+00,5.000000000000e+01,0.000000000000e+00
22,1.200000000000e+00,5.000000000000e+01,0.000000000000e+00
23,-1.200000000000e+00,5.000000000000e+01,2.000000000000e+00
24,1.200000000000e+00,5.000000000000e+01,2.000000000000e+00
25,-1.200000000000e+00,5.000000000000e+00,-1.500000000000e-01
26,1.200000000000e+00,5.000000000000e+00,1.500000000000e-01
27,-1.200000000000e+00,5.000000000000e+00,1.850000000000e+00
28,1.200000000000e+00,5.000000000000e+00,2.150000000000e+00
29,-1.200000000000e+00,1.250000000000e+01,-1.060660171780e-01
30,-1.200000000000e+00,1.500000000000e+01,-1.500000000000e-01
31,-1.200000000000e+00,1.750000000000e+01,-1.060660171780e-01
32,1.200000000000e+00,1.250000000000e+01,1.060660171780e-01
33,1.200000000000e+00,1.500000000000e+01,1.500000000000e-01
34,1.200000000000e+00,1.750000000000e+01,1.060660171780e-01
35,-1.200000000000e+00,1.250000000000e+01,1.893933982822e+00
36,-1.200000000000e+00,1.500000000000e+01,1.850000000000e+00
37,-1.200000000000e+00,1.750000000000e+01,1.893933982822e+00
38,1.200000000000e+00,1.250000000000e+01,2.106066017178e+00
39,1.200000000000e+00,1.500000000000e+01,2.150000000000e+00
40,1.200000000000e+00,1.750000000000e+01,2.106066017178e+00
41,-1.200000000000e+00,2.500000000000e+01,-1.500000000000e-01
42,1.200000000000e+00,2.500000000000e+01,1.500000000000e-01
43,-1.200000000000e+00,2.500000000000e+01,1.850000000000e+00
44,1.200000000000e+00,2.500000000000e+01,2.150000000000e+00
45,-1.200000000000e+00,3.500000000000e+01,-1.500000000000e-01
46,1.200000000000e+00,3.500000000000e+01,1.500000000000e-01
47,-1.200000000000e+00,3.500000000000e+01,1.850000000000e+00
48,1.200000000000e+00,3.500000000000e+01,2.150000000000e+00
49,-6.000000000000e-01,-2.545584412272e-02,0.000000000000e+00
50,0.000000000000e+00,-3.600000000000e-02,0.000000000000e+00
51,6.000000000000e-01,-2.545584412272e-02,0.000000000000e+00
52,-6.000000000000e-01,2.545584412272e-02,2.000000000000e+00
53,0.000000000000e+00,3.600000000000e-02,2.000000000000e+00
54,6.000000000000e-01,2.545584412272e-02,2.000000000000e+00
55,-1.200000000000e+00,2.121320343560e-02,5.000000000000e-01
56,-1.200000000000e+00,3.000000000000e-02,1.000000000000e+00
57,-1.200000000000e+00,2.121320343560e-02,1.500000000000e+00
58,1.200000000000e+00,-2.121320343560e-02,5.000000000000e-01
59,1.200000000000e+00,-3.000000000000e-02,1.000000000000e+00
60,1.200000000000e+00,-2.121320343560e-02,1.500000000000e+00
61,-6.000000000000e-01,1.997454415588e+01,0.000000000000e+00
62,0.000000000000e+00,1.996400000000e+01,0.000000000000e+00
63,6.000000000000e-01,1.997454415588e+01,0.000000000000e+00
64,-6.000000000000e-01,2.002545584412e+01,2.000000000000e+00
65,0.000000000000e+00,2.003600000000e+01,2.000000000000e+00
66,6.000000000000e-01,2.002545584412e+01,2.000000000000e+00
67,-1.200000000000e+00,2.002121320344e+01,5.000000000000e-01
68,-1.200000000000e+00,2.003000000000e+01,1.000000000000e+00
69,-1.200000000000e+00,2.002121320344e+01,1.500000000000e+00
70,1.200000000000e+00,1.997878679656e+01,5.000000000000e-01
71,1.200000000000e+00,1.997000000000e+01,1.000000000000e+00
72,1.200000000000e+00,1.997878679656e+01,1.500000000000e+00
73,-6.000000000000e-01,2.997454415588e+01,0.000000000000e+00
74,0.000000000000e+00,2.996400000000e+01,0.000000000000e+00
75,6.000000000000e-01,2.997454415588e+01,0.000000000000e+00
76,-6.000000000000e-01,3.002545584412e+01,2.000000000000e+00
77,0.000000000000e+00,3.003600000000e+01,2.000000000000e+00
78,6.000000000000e-01,3.002545584412e+01,2.000000000000e+00
79,-1.200000000000e+00,3.002121320344e+01,5.000000000000e-01
80,-1.200000000000e+00,3.003000000000e+01,1.000000000000e+00
81,-1.200000000000e+00,3.002121320344e+01,1.500000000000e+00
82,1.200000000000e+00,2.997878679656e+01,5.000000000000e-01
83,1.200000000000e+00,2.997000000000e+01,1.000000000000e+00
84,1.200000000000e+00,2.997878679656e+01,1.500000000000e+00
85,-6.000000000000e-01,3.997454415588e+01,0.000000000000e+00
86,0.000000000000e+00,3.996400000000e+01,0.000000000000e+00
87,6.000000000000e-01,3.997454415588e+01,0.000000000000e+00
88,-6.000000000000e-01,4.002545584412e+01,2.000000000000e+00
89,0.000000000000e+00,4.003600000000e+01,2.000000000000e+00
90,6.000000000000e-01,4.002545584412e+01,2.000000000000e+00
91,-1.200000000000e+00,4.002121320344e+01,5.000000000000e-01
92,-1.200000000000e+00,4.003000000000e+01,1.000000000000e+00
93,-1.200000000000e+00,4.002121320344e+01,1.500000000000e+00
94,1.200000000000e+00,3.997878679656e+01,5.000000000000e-01
95,1.200000000000e+00,3.997000000000e+01,1.000000000000e+00
96,1.200000000000e+00,3.997878679656e+01,1.500000000000e+00
97,-6.000000000000e-01,4.997454415588e+01,0.000000000000e+00
98,0.000000000000e+00,4.996400000000e+01,0.000000000000e+00
99,6.000000000000e-01,4.997454415588e+01,0.000000000000e+00
100,-6.000000000000e-01,5.002545584412e+01,2.000000000000e+00
101,0.000000000000e+00,5.003600000000e+01,2.000000000000e+00
102,6.000000000000e-01,5.002545584412e+01,2.000000000000e+00
103,-1.200000000000e+00,5.002121320344e+01,5.000000000000e-01
104,-1.200000000000e+00,5.003000000000e+01,1.000000000000e+00
105,-1.200000000000e+00,5.002121320344e+01,1.500000000000e+00
106,1.200000000000e+00,4.997878679656e+01,5.000000000000e-01
107,1.200000000000e+00,4.997000000000e+01,1.000000000000e+00
108,1.200000000000e+00,4.997878679656e+01,1.500000000000e+00
109,-1.200000000000e+00,1.261480502971e+00,1.925974851452e-01
110,-1.200000000000e+00,2.521213203436e+00,3.939339828220e-01
111,-1.200000000000e+00,3.777716385975e+00,6.114180701233e-01
112,-1.200000000000e+00,5.030000000000e+00,8.500000000000e-01
113,-1.200000000000e+00,6.277716385975e+00,1.111418070123e+00
114,-1.200000000000e+00,7.521213203436e+00,1.393933982822e+00
115,-1.200000000000e+00,8.761480502971e+00,1.692597485145e+00
116,-1.200000000000e+00,1.261480502971e+00,1.807402514855e+00
117,-1.200000000000e+00,2.521213203436e+00,1.606066017178e+00
118,-1.200000000000e+00,3.777716385975e+00,1.388581929877e+00
119,-1.200000000000e+00,5.030000000000e+00,1.150000000000e+00
120,-1.200000000000e+00,6.277716385975e+00,8.885819298767e-01
121,-1.200000000000e+00,7.521213203436e+00,6.060660171780e-01
122,-1.200000000000e+00,8.761480502971e+00,3.074025148548e-01
123,1.200000000000e+00,1.261480502971e+00,1.925974851452e-01
124,1.200000000000e+00,2.521213203436e+00,3.939339828220e-01
125,1.200000000000e+00,3.777716385975e+00,6.114180701233e-01
126,1.200000000000e+00,5.030000000000e+00,8.500000000000e-01
127,1.200000000000e+00,6.277716385975e+00,1.111418070123e+00
128,1.200000000000e+00,7.521213203436e+00,1.393933982822e+00
129,1.200000000000e+00,8.761480502971e+00,1.692597485145e+00
130,1.200000000000e+00,1.261480502971e+00,1.807402514855e+00
131,1.200000000000e+00,2.521213203436e+00,1.606066017178e+00
132,1.200000000000e+00,3.777716385975e+00,1.388581929877e+00
133,1.200000000000e+00,5.030000000000e+00,1.150000000000e+00
134,1.200000000000e+00,6.277716385975e+00,8.885819298767e-01
135,1.200000000000e+00,7.521213203436e+00,6.060660171780e-01
136,1.200000000000e+00,8.761480502971e+00,3.074025148548e-01
137,-8.425974851452e-01,1.236223396435e+00,0.000000000000e+00
138,-4.939339828220e-01,2.474544155877e+00,0.000000000000e+00
139,-1.614180701233e-01,3.716740336830e+00,0.000000000000e+00
140,1.500000000000e-01,4.964000000000e+00,0.000000000000e+00
141,4.385819298767e-01,6.216740336830e+00,0.000000000000e+00
142,7.060660171780e-01,7.474544155877e+00,0.000000000000e+00
143,9.574025148548e-01,8.736223396435e+00,0.000000000000e+00
144,8.425974851452e-01,1.236223396435e+00,0.000000000000e+00
145,4.939339828220e-01,2.474544155877e+00,0.000000000000e+00
146,1.614180701233e-01,3.716740336830e+00,0.000000000000e+00
147,-1.500000000000e-01,4.964000000000e+00,0.000000000000e+00
148,-4.385819298767e-01,6.216740336830e+00,0.000000000000e+00
149,-7.060660171780e-01,7.474544155877e+00,0.000000000000e+00
150,-9.574025148548e-01,8.736223396435e+00,0.000000000000e+00
151,-8.425974851452e-01,1.236223396435e+00,2.000000000000e+00
152,-4.939339828220e-01,2.474544155877e+00,2.000000000000e+00
153,-1.614180701233e-01,3.716740336830e+00,2.000000000000e+00
154,1.500000000000e-01,4.964000000000e+00,2.000000000000e+00
155,4.385819298767e-01,6.216740336830e+00,2.000000000000e+00
156,7.060660171780e-01,7.474544155877e+00,2.000000000000e+00
157,9.574025148548e-01,8.736223396435e+00,2.000000000000e+00
158,8.425974851452e-01,1.236223396435e+00,2.000000000000e+00
159,4.939339828220e-01,2.474544155877e+00,2.000000000000e+00
160,1.614180701233e-01,3.716740336830e+00,2.000000000000e+00
161,-1.500000000000e-01,4.964000000000e+00,2.000000000000e+00
162,-4.385819298767e-01,6.216740336830e+00,2.000000000000e+00
163,-7.060660171780e-01,7.474544155877e+00,2.000000000000e+00
164,-9.574025148548e-01,8.736223396435e+00,2.000000000000e+00
165,-1.200000000000e+00,1.503000000000e+01,8.500000000000e-01
166,-1.200000000000e+00,1.503000000000e+01,1.150000000000e+00
167,1.200000000000e+00,1.503000000000e+01,8.500000000000e-01
168,1.200000000000e+00,1.503000000000e+01,1.150000000000e+00
169,1.500000000000e-01,1.496400000000e+01,0.000000000000e+00
170,-1.500000000000e-01,1.496400000000e+01,0.000000000000e+00
171,1.500000000000e-01,1.496400000000e+01,2.000000000000e+00
172,-1.500000000000e-01,1.496400000000e+01,2.000000000000e+00
173,-1.200000000000e+00,2.126148050297e+01,1.925974851452e-01
174,-1.200000000000e+00,2.252121320344e+01,3.939339828220e-01
175,-1.200000000000e+00,2.377771638598e+01,6.114180701233e-01
176,-1.200000000000e+00,2.503000000000e+01,8.500000000000e-01
177,-1.200000000000e+00,2.627771638598e+01,1.111418070123e+00
178,-1.200000000000e+00,2.752121320344e+01,1.393933982822e+00
179,-1.200000000000e+00,2.876148050297e+01,1.692597485145e+00
180,-1.200000000000e+00,2.126148050297e+01,1.807402514855e+00
181,-1.200000000000e+00,2.252121320344e+01,1.606066017178e+00
182,-1.200000000000e+00,2.377771638598e+01,1.388581929877e+00
183,-1.200000000000e+00,2.503000000000e+01,1.150000000000e+00
184,-1.200000000000e+00,2.627771638598e+01,8.885819298767e-01
185,-1.200000000000e+00,2.752121320344e+01,6.060660171780e-01
186,-1.200000000000e+00,2.876148050297e+01,3.074025148548e-01
187,1.200000000000e+00,2.126148050297e+01,1.925974851452e-01
188,1.200000000000e+00,2.252121320344e+01,3.939339828220e-01
189,1.200000000000e+00,2.377771638598e+01,6.114180701233e-01
190,1.200000000000e+00,2.503000000000e+01,8.500000000000e-01
191,1.200000000000e+00,2.627771638598e+01,1.111418070123e+00
192,1.200000000000e+00,2.752121320344e+01,1.393933982822e+00
193,1.200000000000e+00,2.876148050297e+01,1.692597485145e+00
194,1.200000000000e+00,2.126148050297e+01,1.807402514855e+00
195,1.200000000000e+00,2.252121320344e+01,1.606066017178e+00
196,1.200000000000e+00,2.377771638598e+01,1.388581929877e+00
197,1.200000000000e+00,2.503000000000e+01,1.150000000000e+00
198,1.200000000000e+00,2.627771638598e+01,8.885819298767e-01
199,1.200000000000e+00,2.752121320344e+01,6.060660171780e-01
200,1.200000000000e+00,2.876148050297e+01,3.074025148548e-01
201,-8.425974851452e-01,2.123622339643e+01,0.000000000000e+00
202,-4.939339828220e-01,2.247454415588e+01,0.000000000000e+00
203,-1.614180701233e-01,2.371674033683e+01,0.000000000000e+00
204,1.500000000000e-01,2.496400000000e+01,0.000000000000e+00
205,4.385819298767e-01,2.621674033683e+01,0.000000000000e+00
206,7.060660171780e-01,2.747454415588e+01,0.000000000000e+00
207,9.574025148548e-01,2.873622339643e+01,0.000000000000e+00
208,8.425974851452e-01,2.123622339643e+01,0.000000000000e+00
209,4.939339828220e-01,2.247454415588e+01,0.000000000000e+00
210,1.614180701233e-01,2.371674033683e+01,0.000000000000e+00
211,-1.500000000000e-01,2.496400000000e+01,0.000000000000e+00
212,-4.385819298767e-01,2.621674033683e+01,0.000000000000e+00
213,-7.060660171780e-01,2.747454415588e+01,0.000000000000e+00
214,-9.574025148548e-01,2.873622339643e+01,0.000000000000e+00
215,-8.425974851452e-01,2.123622339643e+01,2.000000000000e+00
216,-4.939339828220e-01,2.247454415588e+01,2.000000000000e+00
217,-1.614180701233e-01,2.371674033683e+01,2.000000000000e+00
218,1.500000000000e-01,2.496400000000e+01,2.000000000000e+00
219,4.385819298767e-01,2.621674033683e+01,2.000000000000e+00
220,7.060660171780e-01,2.747454415588e+01,2.000000000000e+00
221,9.574025148548e-01,2.873622339643e+01,2.000000000000e+00
222,8.425974851452e-01,2.123622339643e+01,2.000000000000e+00
223,4.939339828220e-01,2.247454415588e+01,2.000000000000e+00
224,1.614180701233e-01,2.371674033683e+01,2.000000000000e+00
225,-1.500000000000e-01,2.496400000000e+01,2.000000000000e+00
226,-4.385819298767e-01,2.621674033683e+01,2.000000000000e+00
227,-7.060660171780e-01,2.747454415588e+01,2.000000000000e+00
228,-9.574025148548e-01,2.873622339643e+01,2.000000000000e+00
*ELEMENT,TYPE=B31,ELSET=ALL
1,1,25
2,25,5
3,2,26
4,26,6
5,3,27
6,27,7
7,4,28
8,28,8
9,5,29
10,29,30
11,30,31
12,31,9
13,6,32
14,32,33
15,33,34
16,34,10
17,7,35
18,35,36
19,36,37
20,37,11
21,8,38
22,38,39
23,39,40
24,40,12
25,9,41
26,41,13
27,10,42
28,42,14
29,11,43
30,43,15
31,12,44
32,44,16
33,13,45
34,45,17
35,14,46
36,46,18
37,15,47
38,47,19
39,16,48
40,48,20
41,17,21
42,18,22
43,19,23
44,20,24
45,1,49
46,49,50
47,50,51
48,51,2
49,3,52
50,52,53
51,53,54
52,54,4
53,1,55
54,55,56
55,56,57
56,57,3
57,2,58
58,58,59
59,59,60
60,60,4
61,5,6
62,7,8
63,5,7
64,6,8
65,9,61
66,61,62
67,62,63
68,63,10
69,11,64
70,64,65
71,65,66
72,66,12
73,9,67
74,67,68
75,68,69
76,69,11
77,10,70
78,70,71
79,71,72
80,72,12
81,13,73
82,73,74
83,74,75
84,75,14
85,15,76
86,76,77
87,77,78
88,78,16
89,13,79
90,79,80
91,80,81
92,81,15
93,14,82
94,82,83
95,83,84
96,84,16
97,17,85
98,85,86
99,86,87
100,87,18
101,19,88
102,88,89
103,89,90
104,90,20
105,17,91
106,91,92
107,92,93
108,93,19
109,18,94
110,94,95
111,95,96
112,96,20
113,21,97
114,97,98
115,98,99
116,99,22
117,23,100
118,100,101
119,101,102
120,102,24
121,21,103
122,103,104
123,104,105
124,105,23
125,22,106
126,106,107
127,107,108
128,108,24
129,1,109
130,109,110
131,110,111
132,111,112
133,112,113
134,113,114
135,114,115
136,115,7
137,3,116
138,116,117
139,117,118
140,118,119
141,119,120
142,120,121
143,121,122
144,122,5
145,2,123
146,123,124
147,124,125
148,125,126
149,126,127
150,127,128
151,128,129
152,129,8
153,4,130
154,130,131
155,131,132
156,132,133
157,133,134
158,134,135
159,135,136
160,136,6
161,1,137
162,137,138
163,138,139
164,139,140
165,140,141
166,141,142
167,142,143
168,143,6
169,2,144
170,144,145
171,145,146
172,146,147
173,147,148
174,148,149
175,149,150
176,150,5
177,3,151
178,151,152
179,152,153
180,153,154
181,154,155
182,155,156
183,156,157
184,157,8
185,4,158
186,158,159
187,159,160
188,160,161
189,161,162
190,162,163
191,163,164
192,164,7
193,5,165
194,165,11
195,7,166
196,166,9
197,6,167
198,167,12
199,8,168
200,168,10
201,5,169
202,169,10
203,6,170
204,170,9
205,7,171
206,171,12
207,8,172
208,172,11
209,9,173
210,173,174
211,174,175
212,175,176
213,176,177
214,177,178
215,178,179
216,179,15
217,11,180
218,180,181
219,181,182
220,182,183
221,183,184
222,184,185
223,185,186
224,186,13
225,10,187
226,187,188
227,188,189
228,189,190
229,190,191
230,191,192
231,192,193
232,193,16
233,12,194
234,194,195
235,195,196
236,196,197
237,197,198
238,198,199
239,199,200
240,200,14
241,9,201
242,201,202
243,202,203
244,203,204
245,204,205
246,205,206
247,206,207
248,207,14
249,10,208
250,208,209
251,209,210
252,210,211
253,211,212
254,212,213
255,213,214
256,214,13
257,11,215
258,215,216
259,216,217
260,217,218
261,218,219
262,219,220
263,220,221
264,221,16
265,12,222
266,222,223
267,223,224
268,224,225
269,225,226
270,226,227
271,227,228
272,228,15
273,13,19
274,15,17
275,14,20
276,16,18
277,13,18
278,14,17
279,15,20
280,16,19
281,17,23
282,19,21
283,18,24
284,20,22
285,17,22
286,18,21
287,19,24
288,20,23
*NSET,NSET=NALL,GENERATE
1,228,1
*NSET,NSET=LEFT
1,2,3,4
*NSET,NSET=RIGHT
21,22,23,24
*MATERIAL,NAME=STEEL
*ELASTIC
2.100000000000e+11,0.300000000000
*BEAM SECTION,ELSET=ALL,MATERIAL=STEEL,SECTION=RECT
6.000000000000e-02,4.000000000000e-02
0.371390676354,0.557086014531,0.742781352708
*BOUNDARY
LEFT,1,6,0.0
*STEP
*STATIC
*BOUNDARY
21,1,1,5.000000000000e-03
21,2,2,0.0
21,3,3,-6.000000000000e-03
*BOUNDARY
22,1,1,5.000000000000e-03
22,2,2,0.0
22,3,3,6.000000000000e-03
*BOUNDARY
23,1,1,-5.000000000000e-03
23,2,2,0.0
23,3,3,-6.000000000000e-03
*BOUNDARY
24,1,1,-5.000000000000e-03
24,2,2,0.0
24,3,3,6.000000000000e-03
*NODE FILE,NSET=NALL
U
*NODE PRINT,NSET=NALL
U
*NODE PRINT,NSET=RIGHT
RF
*EL PRINT,ELSET=ALL,TOTALS=YES
ELSE
*END STEP
