*HEADING
Normalized cross-passage space-truss torsion benchmark
*NODE
1,-1.200000000000e+00,0.000000000000e+00,0.000000000000e+00
2,1.200000000000e+00,0.000000000000e+00,0.000000000000e+00
3,-1.200000000000e+00,0.000000000000e+00,2.000000000000e+00
4,1.200000000000e+00,0.000000000000e+00,2.000000000000e+00
5,-1.200000000000e+00,1.000000000000e+01,0.000000000000e+00
6,1.200000000000e+00,1.000000000000e+01,0.000000000000e+00
7,-1.200000000000e+00,1.000000000000e+01,2.000000000000e+00
8,1.200000000000e+00,1.000000000000e+01,2.000000000000e+00
9,-1.200000000000e+00,2.000000000000e+01,0.000000000000e+00
10,1.200000000000e+00,2.000000000000e+01,0.000000000000e+00
11,-1.200000000000e+00,2.000000000000e+01,2.000000000000e+00
12,1.200000000000e+00,2.000000000000e+01,2.000000000000e+00
13,-1.200000000000e+00,3.000000000000e+01,0.000000000000e+00
14,1.200000000000e+00,3.000000000000e+01,0.000000000000e+00
15,-1.200000000000e+00,3.000000000000e+01,2.000000000000e+00
16,1.200000000000e+00,3.000000000000e+01,2.000000000000e+00
17,-1.200000000000e+00,4.000000000000e+01,0.000000000000e+00
18,1.200000000000e+00,4.000000000000e+01,0.000000000000e+00
19,-1.200000000000e+00,4.000000000000e+01,2.000000000000e+00
20,1.200000000000e+00,4.000000000000e+01,2.000000000000e+00
21,-1.200000000000e+00,5.000000000000e+01,0.000000000000e+00
22,1.200000000000e+00,5.000000000000e+01,0.000000000000e+00
23,-1.200000000000e+00,5.000000000000e+01,2.000000000000e+00
24,1.200000000000e+00,5.000000000000e+01,2.000000000000e+00
25,-1.200000000000e+00,5.000000000000e+00,-1.500000000000e-01
26,1.200000000000e+00,5.000000000000e+00,1.500000000000e-01
27,-1.200000000000e+00,5.000000000000e+00,1.850000000000e+00
28,1.200000000000e+00,5.000000000000e+00,2.150000000000e+00
29,-1.200000000000e+00,1.500000000000e+01,-1.500000000000e-01
30,1.200000000000e+00,1.500000000000e+01,1.500000000000e-01
31,-1.200000000000e+00,1.500000000000e+01,1.850000000000e+00
32,1.200000000000e+00,1.500000000000e+01,2.150000000000e+00
33,0.000000000000e+00,-3.600000000000e-02,0.000000000000e+00
34,0.000000000000e+00,3.600000000000e-02,2.000000000000e+00
35,-1.200000000000e+00,3.000000000000e-02,1.000000000000e+00
36,1.200000000000e+00,-3.000000000000e-02,1.000000000000e+00
37,0.000000000000e+00,9.964000000000e+00,0.000000000000e+00
38,0.000000000000e+00,1.003600000000e+01,2.000000000000e+00
39,-1.200000000000e+00,1.003000000000e+01,1.000000000000e+00
40,1.200000000000e+00,9.970000000000e+00,1.000000000000e+00
41,0.000000000000e+00,1.996400000000e+01,0.000000000000e+00
42,0.000000000000e+00,2.003600000000e+01,2.000000000000e+00
43,-1.200000000000e+00,2.003000000000e+01,1.000000000000e+00
44,1.200000000000e+00,1.997000000000e+01,1.000000000000e+00
45,0.000000000000e+00,2.996400000000e+01,0.000000000000e+00
46,0.000000000000e+00,3.003600000000e+01,2.000000000000e+00
47,-1.200000000000e+00,3.003000000000e+01,1.000000000000e+00
48,1.200000000000e+00,2.997000000000e+01,1.000000000000e+00
49,0.000000000000e+00,3.996400000000e+01,0.000000000000e+00
50,0.000000000000e+00,4.003600000000e+01,2.000000000000e+00
51,-1.200000000000e+00,4.003000000000e+01,1.000000000000e+00
52,1.200000000000e+00,3.997000000000e+01,1.000000000000e+00
53,0.000000000000e+00,4.996400000000e+01,0.000000000000e+00
54,0.000000000000e+00,5.003600000000e+01,2.000000000000e+00
55,-1.200000000000e+00,5.003000000000e+01,1.000000000000e+00
56,1.200000000000e+00,4.997000000000e+01,1.000000000000e+00
57,-1.200000000000e+00,5.030000000000e+00,8.500000000000e-01
58,-1.200000000000e+00,5.030000000000e+00,1.150000000000e+00
59,1.200000000000e+00,5.030000000000e+00,8.500000000000e-01
60,1.200000000000e+00,5.030000000000e+00,1.150000000000e+00
61,1.500000000000e-01,4.964000000000e+00,0.000000000000e+00
62,-1.500000000000e-01,4.964000000000e+00,0.000000000000e+00
63,1.500000000000e-01,4.964000000000e+00,2.000000000000e+00
64,-1.500000000000e-01,4.964000000000e+00,2.000000000000e+00
65,-1.200000000000e+00,1.503000000000e+01,8.500000000000e-01
66,-1.200000000000e+00,1.503000000000e+01,1.150000000000e+00
67,1.200000000000e+00,1.503000000000e+01,8.500000000000e-01
68,1.200000000000e+00,1.503000000000e+01,1.150000000000e+00
69,1.500000000000e-01,1.496400000000e+01,0.000000000000e+00
70,-1.500000000000e-01,1.496400000000e+01,0.000000000000e+00
71,1.500000000000e-01,1.496400000000e+01,2.000000000000e+00
72,-1.500000000000e-01,1.496400000000e+01,2.000000000000e+00
73,-1.200000000000e+00,2.252121320344e+01,3.939339828220e-01
74,-1.200000000000e+00,2.503000000000e+01,8.500000000000e-01
75,-1.200000000000e+00,2.752121320344e+01,1.393933982822e+00
76,-1.200000000000e+00,2.252121320344e+01,1.606066017178e+00
77,-1.200000000000e+00,2.503000000000e+01,1.150000000000e+00
78,-1.200000000000e+00,2.752121320344e+01,6.060660171780e-01
79,1.200000000000e+00,2.252121320344e+01,3.939339828220e-01
80,1.200000000000e+00,2.503000000000e+01,8.500000000000e-01
81,1.200000000000e+00,2.752121320344e+01,1.393933982822e+00
82,1.200000000000e+00,2.252121320344e+01,1.606066017178e+00
83,1.200000000000e+00,2.503000000000e+01,1.150000000000e+00
84,1.200000000000e+00,2.752121320344e+01,6.060660171780e-01
85,-4.939339828220e-01,2.247454415588e+01,0.000000000000e+00
86,1.500000000000e-01,2.496400000000e+01,0.000000000000e+00
87,7.060660171780e-01,2.747454415588e+01,0.000000000000e+00
88,4.939339828220e-01,2.247454415588e+01,0.000000000000e+00
89,-1.500000000000e-01,2.496400000000e+01,0.000000000000e+00
90,-7.060660171780e-01,2.747454415588e+01,0.000000000000e+00
91,-4.939339828220e-01,2.247454415588e+01,2.000000000000e+00
92,1.500000000000e-01,2.496400000000e+01,2.000000000000e+00
93,7.060660171780e-01,2.747454415588e+01,2.000000000000e+00
94,4.939339828220e-01,2.247454415588e+01,2.000000000000e+00
95,-1.500000000000e-01,2.496400000000e+01,2.000000000000e+00
96,-7.060660171780e-01,2.747454415588e+01,2.000000000000e+00
97,-1.200000000000e+00,3.252121320344e+01,3.939339828220e-01
98,-1.200000000000e+00,3.503000000000e+01,8.500000000000e-01
99,-1.200000000000e+00,3.752121320344e+01,1.393933982822e+00
100,-1.200000000000e+00,3.252121320344e+01,1.606066017178e+00
101,-1.200000000000e+00,3.503000000000e+01,1.150000000000e+00
102,-1.200000000000e+00,3.752121320344e+01,6.060660171780e-01
103,1.200000000000e+00,3.252121320344e+01,3.939339828220e-01
104,1.200000000000e+00,3.503000000000e+01,8.500000000000e-01
105,1.200000000000e+00,3.752121320344e+01,1.393933982822e+00
106,1.200000000000e+00,3.252121320344e+01,1.606066017178e+00
107,1.200000000000e+00,3.503000000000e+01,1.150000000000e+00
108,1.200000000000e+00,3.752121320344e+01,6.060660171780e-01
109,-4.939339828220e-01,3.247454415588e+01,0.000000000000e+00
110,1.500000000000e-01,3.496400000000e+01,0.000000000000e+00
111,7.060660171780e-01,3.747454415588e+01,0.000000000000e+00
112,4.939339828220e-01,3.247454415588e+01,0.000000000000e+00
113,-1.500000000000e-01,3.496400000000e+01,0.000000000000e+00
114,-7.060660171780e-01,3.747454415588e+01,0.000000000000e+00
115,-4.939339828220e-01,3.247454415588e+01,2.000000000000e+00
116,1.500000000000e-01,3.496400000000e+01,2.000000000000e+00
117,7.060660171780e-01,3.747454415588e+01,2.000000000000e+00
118,4.939339828220e-01,3.247454415588e+01,2.000000000000e+00
119,-1.500000000000e-01,3.496400000000e+01,2.000000000000e+00
120,-7.060660171780e-01,3.747454415588e+01,2.000000000000e+00
121,-1.200000000000e+00,4.252121320344e+01,3.939339828220e-01
122,-1.200000000000e+00,4.503000000000e+01,8.500000000000e-01
123,-1.200000000000e+00,4.752121320344e+01,1.393933982822e+00
124,-1.200000000000e+00,4.252121320344e+01,1.606066017178e+00
125,-1.200000000000e+00,4.503000000000e+01,1.150000000000e+00
126,-1.200000000000e+00,4.752121320344e+01,6.060660171780e-01
127,1.200000000000e+00,4.252121320344e+01,3.939339828220e-01
128,1.200000000000e+00,4.503000000000e+01,8.500000000000e-01
129,1.200000000000e+00,4.752121320344e+01,1.393933982822e+00
130,1.200000000000e+00,4.252121320344e+01,1.606066017178e+00
131,1.200000000000e+00,4.503000000000e+01,1.150000000000e+00
132,1.200000000000e+00,4.752121320344e+01,6.060660171780e-01
133,-4.939339828220e-01,4.247454415588e+01,0.000000000000e+00
134,1.500000000000e-01,4.496400000000e+01,0.000000000000e+00
135,7.060660171780e-01,4.747454415588e+01,0.000000000000e+00
136,4.939339828220e-01,4.247454415588e+01,0.000000000000e+00
137,-1.500000000000e-01,4.496400000000e+01,0.000000000000e+00
138,-7.060660171780e-01,4.747454415588e+01,0.000000000000e+00
139,-4.939339828220e-01,4.247454415588e+01,2.000000000000e+00
140,1.500000000000e-01,4.496400000000e+01,2.000000000000e+00
141,7.060660171780e-01,4.747454415588e+01,2.000000000000e+00
142,4.939339828220e-01,4.247454415588e+01,2.000000000000e+00
143,-1.500000000000e-01,4.496400000000e+01,2.000000000000e+00
144,-7.060660171780e-01,4.747454415588e+01,2.000000000000e+00
*ELEMENT,TYPE=B31,ELSET=ALL
1,1,25
2,25,5
3,2,26
4,26,6
5,3,27
6,27,7
7,4,28
8,28,8
9,5,29
10,29,9
11,6,30
12,30,10
13,7,31
14,31,11
15,8,32
16,32,12
17,9,13
18,10,14
19,11,15
20,12,16
21,13,17
22,14,18
23,15,19
24,16,20
25,17,21
26,18,22
27,19,23
28,20,24
29,1,33
30,33,2
31,3,34
32,34,4
33,1,35
34,35,3
35,2,36
36,36,4
37,5,37
38,37,6
39,7,38
40,38,8
41,5,39
42,39,7
43,6,40
44,40,8
45,9,41
46,41,10
47,11,42
48,42,12
49,9,43
50,43,11
51,10,44
52,44,12
53,13,45
54,45,14
55,15,46
56,46,16
57,13,47
58,47,15
59,14,48
60,48,16
61,17,49
62,49,18
63,19,50
64,50,20
65,17,51
66,51,19
67,18,52
68,52,20
69,21,53
70,53,22
71,23,54
72,54,24
73,21,55
74,55,23
75,22,56
76,56,24
77,1,57
78,57,7
79,3,58
80,58,5
81,2,59
82,59,8
83,4,60
84,60,6
85,1,61
86,61,6
87,2,62
88,62,5
89,3,63
90,63,8
91,4,64
92,64,7
93,5,65
94,65,11
95,7,66
96,66,9
97,6,67
98,67,12
99,8,68
100,68,10
101,5,69
102,69,10
103,6,70
104,70,9
105,7,71
106,71,12
107,8,72
108,72,11
109,9,73
110,73,74
111,74,75
112,75,15
113,11,76
114,76,77
115,77,78
116,78,13
117,10,79
118,79,80
119,80,81
120,81,16
121,12,82
122,82,83
123,83,84
124,84,14
125,9,85
126,85,86
127,86,87
128,87,14
129,10,88
130,88,89
131,89,90
132,90,13
133,11,91
134,91,92
135,92,93
136,93,16
137,12,94
138,94,95
139,95,96
140,96,15
141,13,97
142,97,98
143,98,99
144,99,19
145,15,100
146,100,101
147,101,102
148,102,17
149,14,103
150,103,104
151,104,105
152,105,20
153,16,106
154,106,107
155,107,108
156,108,18
157,13,109
158,109,110
159,110,111
160,111,18
161,14,112
162,112,113
163,113,114
164,114,17
165,15,115
166,115,116
167,116,117
168,117,20
169,16,118
170,118,119
171,119,120
172,120,19
173,17,121
174,121,122
175,122,123
176,123,23
177,19,124
178,124,125
179,125,126
180,126,21
181,18,127
182,127,128
183,128,129
184,129,24
185,20,130
186,130,131
187,131,132
188,132,22
189,17,133
190,133,134
191,134,135
192,135,22
193,18,136
194,136,137
195,137,138
196,138,21
197,19,139
198,139,140
199,140,141
200,141,24
201,20,142
202,142,143
203,143,144
204,144,23
*NSET,NSET=NALL,GENERATE
1,144,1
*NSET,NSET=LEFT
1,2,3,4
*NSET,NSET=RIGHT
21,22,23,24
*MATERIAL,NAME=STEEL
*ELASTIC
2.100000000000e+11,0.300000000000
*BEAM SECTION,ELSET=ALL,MATERIAL=STEEL,SECTION=RECT
6.000000000000e-02,4.000000000000e-02
0.371390676354,0.557086014531,0.742781352708
*BOUNDARY
LEFT,1,6,0.0
*STEP
*STATIC
*BOUNDARY
21,1,1,5.000000000000e-03
21,2,2,0.0
21,3,3,-6.000000000000e-03
*BOUNDARY
22,1,1,5.000000000000e-03
22,2,2,0.0
22,3,3,6.000000000000e-03
*BOUNDARY
23,1,1,-5.000000000000e-03
23,2,2,0.0
23,3,3,-6.000000000000e-03
*BOUNDARY
24,1,1,-5.000000000000e-03
24,2,2,0.0
24,3,3,6.000000000000e-03
*NODE FILE,NSET=NALL
U
*NODE PRINT,NSET=NALL
U
*NODE PRINT,NSET=RIGHT
RF
*EL PRINT,ELSET=ALL,TOTALS=YES
ELSE
*END STEP
