*HEADING
Normalized cross-passage space-truss torsion benchmark
*NODE
1,-1.200000000000e+00,0.000000000000e+00,0.000000000000e+00
2,1.200000000000e+00,0.000000000000e+00,0.000000000000e+00
3,-1.200000000000e+00,0.000000000000e+00,2.000000000000e+00
4,1.200000000000e+00,0.000000000000e+00,2.000000000000e+00
5,-1.200000000000e+00,1.000000000000e+01,0.000000000000e+00
6,1.200000000000e+00,1.000000000000e+01,0.000000000000e+00
7,-1.200000000000e+00,1.000000000000e+01,2.000000000000e+00
8,1.200000000000e+00,1.000000000000e+01,2.000000000000e+00
9,-1.200000000000e+00,2.000000000000e+01,0.000000000000e+00
10,1.200000000000e+00,2.000000000000e+01,0.000000000000e+00
11,-1.200000000000e+00,2.000000000000e+01,2.000000000000e+00
12,1.200000000000e+00,2.000000000000e+01,2.000000000000e+00
13,-1.200000000000e+00,3.000000000000e+01,0.000000000000e+00
14,1.200000000000e+00,3.000000000000e+01,0.000000000000e+00
15,-1.200000000000e+00,3.000000000000e+01,2.000000000000e+00
16,1.200000000000e+00,3.000000000000e+01,2.000000000000e+00
17,-1.200000000000e+00,4.000000000000e+01,0.000000000000e+00
18,1.200000000000e+00,4.000000000000e+01,0.000000000000e+00
19,-1.200000000000e+00,4.000000000000e+01,2.000000000000e+00
20,1.200000000000e+00,4.000000000000e+01,2.000000000000e+00
21,-1.200000000000e+00,5.000000000000e+01,0.000000000000e+00
22,1.200000000000e+00,5.000000000000e+01,0.000000000000e+00
23,-1.200000000000e+00,5.000000000000e+01,2.000000000000e+00
24,1.200000000000e+00,5.000000000000e+01,2.000000000000e+00
25,-1.200000000000e+00,2.500000000000e+00,-1.060660171780e-01
26,-1.200000000000e+00,5.000000000000e+00,-1.500000000000e-01
27,-1.200000000000e+00,7.500000000000e+00,-1.060660171780e-01
28,1.200000000000e+00,2.500000000000e+00,1.060660171780e-01
29,1.200000000000e+00,5.000000000000e+00,1.500000000000e-01
30,1.200000000000e+00,7.500000000000e+00,1.060660171780e-01
31,-1.200000000000e+00,2.500000000000e+00,1.893933982822e+00
32,-1.200000000000e+00,5.000000000000e+00,1.850000000000e+00
33,-1.200000000000e+00,7.500000000000e+00,1.893933982822e+00
34,1.200000000000e+00,2.500000000000e+00,2.106066017178e+00
35,1.200000000000e+00,5.000000000000e+00,2.150000000000e+00
36,1.200000000000e+00,7.500000000000e+00,2.106066017178e+00
37,-1.200000000000e+00,1.500000000000e+01,-1.500000000000e-01
38,1.200000000000e+00,1.500000000000e+01,1.500000000000e-01
39,-1.200000000000e+00,1.500000000000e+01,1.850000000000e+00
40,1.200000000000e+00,1.500000000000e+01,2.150000000000e+00
41,-1.200000000000e+00,2.500000000000e+01,-1.500000000000e-01
42,1.200000000000e+00,2.500000000000e+01,1.500000000000e-01
43,-1.200000000000e+00,2.500000000000e+01,1.850000000000e+00
44,1.200000000000e+00,2.500000000000e+01,2.150000000000e+00
45,-1.200000000000e+00,3.500000000000e+01,-1.500000000000e-01
46,1.200000000000e+00,3.500000000000e+01,1.500000000000e-01
47,-1.200000000000e+00,3.500000000000e+01,1.850000000000e+00
48,1.200000000000e+00,3.500000000000e+01,2.150000000000e+00
49,-1.200000000000e+00,4.250000000000e+01,-1.060660171780e-01
50,-1.200000000000e+00,4.500000000000e+01,-1.500000000000e-01
51,-1.200000000000e+00,4.750000000000e+01,-1.060660171780e-01
52,1.200000000000e+00,4.250000000000e+01,1.060660171780e-01
53,1.200000000000e+00,4.500000000000e+01,1.500000000000e-01
54,1.200000000000e+00,4.750000000000e+01,1.060660171780e-01
55,-1.200000000000e+00,4.250000000000e+01,1.893933982822e+00
56,-1.200000000000e+00,4.500000000000e+01,1.850000000000e+00
57,-1.200000000000e+00,4.750000000000e+01,1.893933982822e+00
58,1.200000000000e+00,4.250000000000e+01,2.106066017178e+00
59,1.200000000000e+00,4.500000000000e+01,2.150000000000e+00
60,1.200000000000e+00,4.750000000000e+01,2.106066017178e+00
61,-6.000000000000e-01,-2.545584412272e-02,0.000000000000e+00
62,0.000000000000e+00,-3.600000000000e-02,0.000000000000e+00
63,6.000000000000e-01,-2.545584412272e-02,0.000000000000e+00
64,-6.000000000000e-01,2.545584412272e-02,2.000000000000e+00
65,0.000000000000e+00,3.600000000000e-02,2.000000000000e+00
66,6.000000000000e-01,2.545584412272e-02,2.000000000000e+00
67,-1.200000000000e+00,2.121320343560e-02,5.000000000000e-01
68,-1.200000000000e+00,3.000000000000e-02,1.000000000000e+00
69,-1.200000000000e+00,2.121320343560e-02,1.500000000000e+00
70,1.200000000000e+00,-2.121320343560e-02,5.000000000000e-01
71,1.200000000000e+00,-3.000000000000e-02,1.000000000000e+00
72,1.200000000000e+00,-2.121320343560e-02,1.500000000000e+00
73,0.000000000000e+00,9.964000000000e+00,0.000000000000e+00
74,0.000000000000e+00,1.003600000000e+01,2.000000000000e+00
75,-1.200000000000e+00,1.003000000000e+01,1.000000000000e+00
76,1.200000000000e+00,9.970000000000e+00,1.000000000000e+00
77,0.000000000000e+00,1.996400000000e+01,0.000000000000e+00
78,0.000000000000e+00,2.003600000000e+01,2.000000000000e+00
79,-1.200000000000e+00,2.003000000000e+01,1.000000000000e+00
80,1.200000000000e+00,1.997000000000e+01,1.000000000000e+00
81,0.000000000000e+00,2.996400000000e+01,0.000000000000e+00
82,0.000000000000e+00,3.003600000000e+01,2.000000000000e+00
83,-1.200000000000e+00,3.003000000000e+01,1.000000000000e+00
84,1.200000000000e+00,2.997000000000e+01,1.000000000000e+00
85,-6.000000000000e-01,3.997454415588e+01,0.000000000000e+00
86,0.000000000000e+00,3.996400000000e+01,0.000000000000e+00
87,6.000000000000e-01,3.997454415588e+01,0.000000000000e+00
88,-6.000000000000e-01,4.002545584412e+01,2.000000000000e+00
89,0.000000000000e+00,4.003600000000e+01,2.000000000000e+00
90,6.000000000000e-01,4.002545584412e+01,2.000000000000e+00
91,-1.200000000000e+00,4.002121320344e+01,5.000000000000e-01
92,-1.200000000000e+00,4.003000000000e+01,1.000000000000e+00
93,-1.200000000000e+00,4.002121320344e+01,1.500000000000e+00
94,1.200000000000e+00,3.997878679656e+01,5.000000000000e-01
95,1.200000000000e+00,3.997000000000e+01,1.000000000000e+00
96,1.200000000000e+00,3.997878679656e+01,1.500000000000e+00
97,-6.000000000000e-01,4.997454415588e+01,0.000000000000e+00
98,0.000000000000e+00,4.996400000000e+01,0.000000000000e+00
99,6.000000000000e-01,4.997454415588e+01,0.000000000000e+00
100,-6.000000000000e-01,5.002545584412e+01,2.000000000000e+00
101,0.000000000000e+00,5.003600000000e+01,2.000000000000e+00
102,6.000000000000e-01,5.002545584412e+01,2.000000000000e+00
103,-1.200000000000e+00,5.002121320344e+01,5.000000000000e-01
104,-1.200000000000e+00,5.003000000000e+01,1.000000000000e+00
105,-1.200000000000e+00,5.002121320344e+01,1.500000000000e+00
106,1.200000000000e+00,4.997878679656e+01,5.000000000000e-01
107,1.200000000000e+00,4.997000000000e+01,1.000000000000e+00
108,1.200000000000e+00,4.997878679656e+01,1.500000000000e+00
109,-1.200000000000e+00,2.521213203436e+00,3.939339828220e-01
110,-1.200000000000e+00,5.030000000000e+00,8.500000000000e-01
111,-1.200000000000e+00,7.521213203436e+00,1.393933982822e+00
112,-1.200000000000e+00,2.521213203436e+00,1.606066017178e+00
113,-1.200000000000e+00,5.030000000000e+00,1.150000000000e+00
114,-1.200000000000e+00,7.521213203436e+00,6.060660171780e-01
115,1.200000000000e+00,2.521213203436e+00,3.939339828220e-01
116,1.200000000000e+00,5.030000000000e+00,8.500000000000e-01
117,1.200000000000e+00,7.521213203436e+00,1.393933982822e+00
118,1.200000000000e+00,2.521213203436e+00,1.606066017178e+00
119,1.200000000000e+00,5.030000000000e+00,1.150000000000e+00
120,1.200000000000e+00,7.521213203436e+00,6.060660171780e-01
121,-4.939339828220e-01,2.474544155877e+00,0.000000000000e+00
122,1.500000000000e-01,4.964000000000e+00,0.000000000000e+00
123,7.060660171780e-01,7.474544155877e+00,0.000000000000e+00
124,4.939339828220e-01,2.474544155877e+00,0.000000000000e+00
125,-1.500000000000e-01,4.964000000000e+00,0.000000000000e+00
126,-7.060660171780e-01,7.474544155877e+00,0.000000000000e+00
127,-4.939339828220e-01,2.474544155877e+00,2.000000000000e+00
128,1.500000000000e-01,4.964000000000e+00,2.000000000000e+00
129,7.060660171780e-01,7.474544155877e+00,2.000000000000e+00
130,4.939339828220e-01,2.474544155877e+00,2.000000000000e+00
131,-1.500000000000e-01,4.964000000000e+00,2.000000000000e+00
132,-7.060660171780e-01,7.474544155877e+00,2.000000000000e+00
133,-1.200000000000e+00,1.252121320344e+01,3.939339828220e-01
134,-1.200000000000e+00,1.503000000000e+01,8.500000000000e-01
135,-1.200000000000e+00,1.752121320344e+01,1.393933982822e+00
136,-1.200000000000e+00,1.252121320344e+01,1.606066017178e+00
137,-1.200000000000e+00,1.503000000000e+01,1.150000000000e+00
138,-1.200000000000e+00,1.752121320344e+01,6.060660171780e-01
139,1.200000000000e+00,1.252121320344e+01,3.939339828220e-01
140,1.200000000000e+00,1.503000000000e+01,8.500000000000e-01
141,1.200000000000e+00,1.752121320344e+01,1.393933982822e+00
142,1.200000000000e+00,1.252121320344e+01,1.606066017178e+00
143,1.200000000000e+00,1.503000000000e+01,1.150000000000e+00
144,1.200000000000e+00,1.752121320344e+01,6.060660171780e-01
145,-4.939339828220e-01,1.247454415588e+01,0.000000000000e+00
146,1.500000000000e-01,1.496400000000e+01,0.000000000000e+00
147,7.060660171780e-01,1.747454415588e+01,0.000000000000e+00
148,4.939339828220e-01,1.247454415588e+01,0.000000000000e+00
149,-1.500000000000e-01,1.496400000000e+01,0.000000000000e+00
150,-7.060660171780e-01,1.747454415588e+01,0.000000000000e+00
151,-4.939339828220e-01,1.247454415588e+01,2.000000000000e+00
152,1.500000000000e-01,1.496400000000e+01,2.000000000000e+00
153,7.060660171780e-01,1.747454415588e+01,2.000000000000e+00
154,4.939339828220e-01,1.247454415588e+01,2.000000000000e+00
155,-1.500000000000e-01,1.496400000000e+01,2.000000000000e+00
156,-7.060660171780e-01,1.747454415588e+01,2.000000000000e+00
157,-1.200000000000e+00,2.252121320344e+01,3.939339828220e-01
158,-1.200000000000e+00,2.503000000000e+01,8.500000000000e-01
159,-1.200000000000e+00,2.752121320344e+01,1.393933982822e+00
160,-1.200000000000e+00,2.252121320344e+01,1.606066017178e+00
161,-1.200000000000e+00,2.503000000000e+01,1.150000000000e+00
162,-1.200000000000e+00,2.752121320344e+01,6.060660171780e-01
163,1.200000000000e+00,2.252121320344e+01,3.939339828220e-01
164,1.200000000000e+00,2.503000000000e+01,8.500000000000e-01
165,1.200000000000e+00,2.752121320344e+01,1.393933982822e+00
166,1.200000000000e+00,2.252121320344e+01,1.606066017178e+00
167,1.200000000000e+00,2.503000000000e+01,1.150000000000e+00
168,1.200000000000e+00,2.752121320344e+01,6.060660171780e-01
169,-4.939339828220e-01,2.247454415588e+01,0.000000000000e+00
170,1.500000000000e-01,2.496400000000e+01,0.000000000000e+00
171,7.060660171780e-01,2.747454415588e+01,0.000000000000e+00
172,4.939339828220e-01,2.247454415588e+01,0.000000000000e+00
173,-1.500000000000e-01,2.496400000000e+01,0.000000000000e+00
174,-7.060660171780e-01,2.747454415588e+01,0.000000000000e+00
175,-4.939339828220e-01,2.247454415588e+01,2.000000000000e+00
176,1.500000000000e-01,2.496400000000e+01,2.000000000000e+00
177,7.060660171780e-01,2.747454415588e+01,2.000000000000e+00
178,4.939339828220e-01,2.247454415588e+01,2.000000000000e+00
179,-1.500000000000e-01,2.496400000000e+01,2.000000000000e+00
180,-7.060660171780e-01,2.747454415588e+01,2.000000000000e+00
181,-1.200000000000e+00,3.252121320344e+01,3.939339828220e-01
182,-1.200000000000e+00,3.503000000000e+01,8.500000000000e-01
183,-1.200000000000e+00,3.752121320344e+01,1.393933982822e+00
184,-1.200000000000e+00,3.252121320344e+01,1.606066017178e+00
185,-1.200000000000e+00,3.503000000000e+01,1.150000000000e+00
186,-1.200000000000e+00,3.752121320344e+01,6.060660171780e-01
187,1.200000000000e+00,3.252121320344e+01,3.939339828220e-01
188,1.200000000000e+00,3.503000000000e+01,8.500000000000e-01
189,1.200000000000e+00,3.752121320344e+01,1.393933982822e+00
190,1.200000000000e+00,3.252121320344e+01,1.606066017178e+00
191,1.200000000000e+00,3.503000000000e+01,1.150000000000e+00
192,1.200000000000e+00,3.752121320344e+01,6.060660171780e-01
193,-4.939339828220e-01,3.247454415588e+01,0.000000000000e+00
194,1.500000000000e-01,3.496400000000e+01,0.000000000000e+00
195,7.060660171780e-01,3.747454415588e+01,0.000000000000e+00
196,4.939339828220e-01,3.247454415588e+01,0.000000000000e+00
197,-1.500000000000e-01,3.496400000000e+01,0.000000000000e+00
198,-7.060660171780e-01,3.747454415588e+01,0.000000000000e+00
199,-4.939339828220e-01,3.247454415588e+01,2.000000000000e+00
200,1.500000000000e-01,3.496400000000e+01,2.000000000000e+00
201,7.060660171780e-01,3.747454415588e+01,2.000000000000e+00
202,4.939339828220e-01,3.247454415588e+01,2.000000000000e+00
203,-1.500000000000e-01,3.496400000000e+01,2.000000000000e+00
204,-7.060660171780e-01,3.747454415588e+01,2.000000000000e+00
205,-1.200000000000e+00,4.252121320344e+01,3.939339828220e-01
206,-1.200000000000e+00,4.503000000000e+01,8.500000000000e-01
207,-1.200000000000e+00,4.752121320344e+01,1.393933982822e+00
208,-1.200000000000e+00,4.252121320344e+01,1.606066017178e+00
209,-1.200000000000e+00,4.503000000000e+01,1.150000000000e+00
210,-1.200000000000e+00,4.752121320344e+01,6.060660171780e-01
211,1.200000000000e+00,4.252121320344e+01,3.939339828220e-01
212,1.200000000000e+00,4.503000000000e+01,8.500000000000e-01
213,1.200000000000e+00,4.752121320344e+01,1.393933982822e+00
214,1.200000000000e+00,4.252121320344e+01,1.606066017178e+00
215,1.200000000000e+00,4.503000000000e+01,1.150000000000e+00
216,1.200000000000e+00,4.752121320344e+01,6.060660171780e-01
217,-4.939339828220e-01,4.247454415588e+01,0.000000000000e+00
218,1.500000000000e-01,4.496400000000e+01,0.000000000000e+00
219,7.060660171780e-01,4.747454415588e+01,0.000000000000e+00
220,4.939339828220e-01,4.247454415588e+01,0.000000000000e+00
221,-1.500000000000e-01,4.496400000000e+01,0.000000000000e+00
222,-7.060660171780e-01,4.747454415588e+01,0.000000000000e+00
223,-4.939339828220e-01,4.247454415588e+01,2.000000000000e+00
224,1.500000000000e-01,4.496400000000e+01,2.000000000000e+00
225,7.060660171780e-01,4.747454415588e+01,2.000000000000e+00
226,4.939339828220e-01,4.247454415588e+01,2.000000000000e+00
227,-1.500000000000e-01,4.496400000000e+01,2.000000000000e+00
228,-7.060660171780e-01,4.747454415588e+01,2.000000000000e+00
*ELEMENT,TYPE=B31,ELSET=ALL
1,1,25
2,25,26
3,26,27
4,27,5
5,2,28
6,28,29
7,29,30
8,30,6
9,3,31
10,31,32
11,32,33
12,33,7
13,4,34
14,34,35
15,35,36
16,36,8
17,5,37
18,37,9
19,6,38
20,38,10
21,7,39
22,39,11
23,8,40
24,40,12
25,9,41
26,41,13
27,10,42
28,42,14
29,11,43
30,43,15
31,12,44
32,44,16
33,13,45
34,45,17
35,14,46
36,46,18
37,15,47
38,47,19
39,16,48
40,48,20
41,17,49
42,49,50
43,50,51
44,51,21
45,18,52
46,52,53
47,53,54
48,54,22
49,19,55
50,55,56
51,56,57
52,57,23
53,20,58
54,58,59
55,59,60
56,60,24
57,1,61
58,61,62
59,62,63
60,63,2
61,3,64
62,64,65
63,65,66
64,66,4
65,1,67
66,67,68
67,68,69
68,69,3
69,2,70
70,70,71
71,71,72
72,72,4
73,5,73
74,73,6
75,7,74
76,74,8
77,5,75
78,75,7
79,6,76
80,76,8
81,9,77
82,77,10
83,11,78
84,78,12
85,9,79
86,79,11
87,10,80
88,80,12
89,13,81
90,81,14
91,15,82
92,82,16
93,13,83
94,83,15
95,14,84
96,84,16
97,17,85
98,85,86
99,86,87
100,87,18
101,19,88
102,88,89
103,89,90
104,90,20
105,17,91
106,91,92
107,92,93
108,93,19
109,18,94
110,94,95
111,95,96
112,96,20
113,21,97
114,97,98
115,98,99
116,99,22
117,23,100
118,100,101
119,101,102
120,102,24
121,21,103
122,103,104
123,104,105
124,105,23
125,22,106
126,106,107
127,107,108
128,108,24
129,1,109
130,109,110
131,110,111
132,111,7
133,3,112
134,112,113
135,113,114
136,114,5
137,2,115
138,115,116
139,116,117
140,117,8
141,4,118
142,118,119
143,119,120
144,120,6
145,1,121
146,121,122
147,122,123
148,123,6
149,2,124
150,124,125
151,125,126
152,126,5
153,3,127
154,127,128
155,128,129
156,129,8
157,4,130
158,130,131
159,131,132
160,132,7
161,5,133
162,133,134
163,134,135
164,135,11
165,7,136
166,136,137
167,137,138
168,138,9
169,6,139
170,139,140
171,140,141
172,141,12
173,8,142
174,142,143
175,143,144
176,144,10
177,5,145
178,145,146
179,146,147
180,147,10
181,6,148
182,148,149
183,149,150
184,150,9
185,7,151
186,151,152
187,152,153
188,153,12
189,8,154
190,154,155
191,155,156
192,156,11
193,9,157
194,157,158
195,158,159
196,159,15
197,11,160
198,160,161
199,161,162
200,162,13
201,10,163
202,163,164
203,164,165
204,165,16
205,12,166
206,166,167
207,167,168
208,168,14
209,9,169
210,169,170
211,170,171
212,171,14
213,10,172
214,172,173
215,173,174
216,174,13
217,11,175
218,175,176
219,176,177
220,177,16
221,12,178
222,178,179
223,179,180
224,180,15
225,13,181
226,181,182
227,182,183
228,183,19
229,15,184
230,184,185
231,185,186
232,186,17
233,14,187
234,187,188
235,188,189
236,189,20
237,16,190
238,190,191
239,191,192
240,192,18
241,13,193
242,193,194
243,194,195
244,195,18
245,14,196
246,196,197
247,197,198
248,198,17
249,15,199
250,199,200
251,200,201
252,201,20
253,16,202
254,202,203
255,203,204
256,204,19
257,17,205
258,205,206
259,206,207
260,207,23
261,19,208
262,208,209
263,209,210
264,210,21
265,18,211
266,211,212
267,212,213
268,213,24
269,20,214
270,214,215
271,215,216
272,216,22
273,17,217
274,217,218
275,218,219
276,219,22
277,18,220
278,220,221
279,221,222
280,222,21
281,19,223
282,223,224
283,224,225
284,225,24
285,20,226
286,226,227
287,227,228
288,228,23
*NSET,NSET=NALL,GENERATE
1,228,1
*NSET,NSET=LEFT
1,2,3,4
*NSET,NSET=RIGHT
21,22,23,24
*MATERIAL,NAME=STEEL
*ELASTIC
2.100000000000e+11,0.300000000000
*BEAM SECTION,ELSET=ALL,MATERIAL=STEEL,SECTION=RECT
6.000000000000e-02,4.000000000000e-02
0.371390676354,0.557086014531,0.742781352708
*BOUNDARY
LEFT,1,6,0.0
*STEP
*STATIC
*BOUNDARY
21,1,1,5.000000000000e-03
21,2,2,0.0
21,3,3,-6.000000000000e-03
*BOUNDARY
22,1,1,5.000000000000e-03
22,2,2,0.0
22,3,3,6.000000000000e-03
*BOUNDARY
23,1,1,-5.000000000000e-03
23,2,2,0.0
23,3,3,-6.000000000000e-03
*BOUNDARY
24,1,1,-5.000000000000e-03
24,2,2,0.0
24,3,3,6.000000000000e-03
*NODE FILE,NSET=NALL
U
*NODE PRINT,NSET=NALL
U
*NODE PRINT,NSET=RIGHT
RF
*EL PRINT,ELSET=ALL,TOTALS=YES
ELSE
*END STEP
