*HEADING
Normalized cross-passage space-truss torsion benchmark
*NODE
1,-1.200000000000e+00,0.000000000000e+00,0.000000000000e+00
2,1.200000000000e+00,0.000000000000e+00,0.000000000000e+00
3,-1.200000000000e+00,0.000000000000e+00,2.000000000000e+00
4,1.200000000000e+00,0.000000000000e+00,2.000000000000e+00
5,-1.200000000000e+00,1.000000000000e+01,0.000000000000e+00
6,1.200000000000e+00,1.000000000000e+01,0.000000000000e+00
7,-1.200000000000e+00,1.000000000000e+01,2.000000000000e+00
8,1.200000000000e+00,1.000000000000e+01,2.000000000000e+00
9,-1.200000000000e+00,2.000000000000e+01,0.000000000000e+00
10,1.200000000000e+00,2.000000000000e+01,0.000000000000e+00
11,-1.200000000000e+00,2.000000000000e+01,2.000000000000e+00
12,1.200000000000e+00,2.000000000000e+01,2.000000000000e+00
13,-1.200000000000e+00,3.000000000000e+01,0.000000000000e+00
14,1.200000000000e+00,3.000000000000e+01,0.000000000000e+00
15,-1.200000000000e+00,3.000000000000e+01,2.000000000000e+00
16,1.200000000000e+00,3.000000000000e+01,2.000000000000e+00
17,-1.200000000000e+00,4.000000000000e+01,0.000000000000e+00
18,1.200000000000e+00,4.000000000000e+01,0.000000000000e+00
19,-1.200000000000e+00,4.000000000000e+01,2.000000000000e+00
20,1.200000000000e+00,4.000000000000e+01,2.000000000000e+00
21,-1.200000000000e+00,5.000000000000e+01,0.000000000000e+00
22,1.200000000000e+00,5.000000000000e+01,0.000000000000e+00
23,-1.200000000000e+00,5.000000000000e+01,2.000000000000e+00
24,1.200000000000e+00,5.000000000000e+01,2.000000000000e+00
25,-1.200000000000e+00,5.000000000000e+00,-1.500000000000e-01
26,1.200000000000e+00,5.000000000000e+00,1.500000000000e-01
27,-1.200000000000e+00,5.000000000000e+00,1.850000000000e+00
28,1.200000000000e+00,5.000000000000e+00,2.150000000000e+00
29,-1.200000000000e+00,1.500000000000e+01,-1.500000000000e-01
30,1.200000000000e+00,1.500000000000e+01,1.500000000000e-01
31,-1.200000000000e+00,1.500000000000e+01,1.850000000000e+00
32,1.200000000000e+00,1.500000000000e+01,2.150000000000e+00
33,-1.200000000000e+00,3.125000000000e+01,-5.740251485476e-02
34,-1.200000000000e+00,3.250000000000e+01,-1.060660171780e-01
35,-1.200000000000e+00,3.375000000000e+01,-1.385819298767e-01
36,-1.200000000000e+00,3.500000000000e+01,-1.500000000000e-01
37,-1.200000000000e+00,3.625000000000e+01,-1.385819298767e-01
38,-1.200000000000e+00,3.750000000000e+01,-1.060660171780e-01
39,-1.200000000000e+00,3.875000000000e+01,-5.740251485476e-02
40,1.200000000000e+00,3.125000000000e+01,5.740251485476e-02
41,1.200000000000e+00,3.250000000000e+01,1.060660171780e-01
42,1.200000000000e+00,3.375000000000e+01,1.385819298767e-01
43,1.200000000000e+00,3.500000000000e+01,1.500000000000e-01
44,1.200000000000e+00,3.625000000000e+01,1.385819298767e-01
45,1.200000000000e+00,3.750000000000e+01,1.060660171780e-01
46,1.200000000000e+00,3.875000000000e+01,5.740251485476e-02
47,-1.200000000000e+00,3.125000000000e+01,1.942597485145e+00
48,-1.200000000000e+00,3.250000000000e+01,1.893933982822e+00
49,-1.200000000000e+00,3.375000000000e+01,1.861418070123e+00
50,-1.200000000000e+00,3.500000000000e+01,1.850000000000e+00
51,-1.200000000000e+00,3.625000000000e+01,1.861418070123e+00
52,-1.200000000000e+00,3.750000000000e+01,1.893933982822e+00
53,-1.200000000000e+00,3.875000000000e+01,1.942597485145e+00
54,1.200000000000e+00,3.125000000000e+01,2.057402514855e+00
55,1.200000000000e+00,3.250000000000e+01,2.106066017178e+00
56,1.200000000000e+00,3.375000000000e+01,2.138581929877e+00
57,1.200000000000e+00,3.500000000000e+01,2.150000000000e+00
58,1.200000000000e+00,3.625000000000e+01,2.138581929877e+00
59,1.200000000000e+00,3.750000000000e+01,2.106066017178e+00
60,1.200000000000e+00,3.875000000000e+01,2.057402514855e+00
61,0.000000000000e+00,-3.600000000000e-02,0.000000000000e+00
62,0.000000000000e+00,3.600000000000e-02,2.000000000000e+00
63,-1.200000000000e+00,3.000000000000e-02,1.000000000000e+00
64,1.200000000000e+00,-3.000000000000e-02,1.000000000000e+00
65,0.000000000000e+00,9.964000000000e+00,0.000000000000e+00
66,0.000000000000e+00,1.003600000000e+01,2.000000000000e+00
67,-1.200000000000e+00,1.003000000000e+01,1.000000000000e+00
68,1.200000000000e+00,9.970000000000e+00,1.000000000000e+00
69,0.000000000000e+00,1.996400000000e+01,0.000000000000e+00
70,0.000000000000e+00,2.003600000000e+01,2.000000000000e+00
71,-1.200000000000e+00,2.003000000000e+01,1.000000000000e+00
72,1.200000000000e+00,1.997000000000e+01,1.000000000000e+00
73,0.000000000000e+00,3.996400000000e+01,0.000000000000e+00
74,0.000000000000e+00,4.003600000000e+01,2.000000000000e+00
75,-1.200000000000e+00,4.003000000000e+01,1.000000000000e+00
76,1.200000000000e+00,3.997000000000e+01,1.000000000000e+00
77,0.000000000000e+00,4.996400000000e+01,0.000000000000e+00
78,0.000000000000e+00,5.003600000000e+01,2.000000000000e+00
79,-1.200000000000e+00,5.003000000000e+01,1.000000000000e+00
80,1.200000000000e+00,4.997000000000e+01,1.000000000000e+00
81,-1.200000000000e+00,5.030000000000e+00,8.500000000000e-01
82,-1.200000000000e+00,5.030000000000e+00,1.150000000000e+00
83,1.200000000000e+00,5.030000000000e+00,8.500000000000e-01
84,1.200000000000e+00,5.030000000000e+00,1.150000000000e+00
85,1.500000000000e-01,4.964000000000e+00,0.000000000000e+00
86,-1.500000000000e-01,4.964000000000e+00,0.000000000000e+00
87,1.500000000000e-01,4.964000000000e+00,2.000000000000e+00
88,-1.500000000000e-01,4.964000000000e+00,2.000000000000e+00
89,-1.200000000000e+00,1.503000000000e+01,8.500000000000e-01
90,-1.200000000000e+00,1.503000000000e+01,1.150000000000e+00
91,1.200000000000e+00,1.503000000000e+01,8.500000000000e-01
92,1.200000000000e+00,1.503000000000e+01,1.150000000000e+00
93,1.500000000000e-01,1.496400000000e+01,0.000000000000e+00
94,-1.500000000000e-01,1.496400000000e+01,0.000000000000e+00
95,1.500000000000e-01,1.496400000000e+01,2.000000000000e+00
96,-1.500000000000e-01,1.496400000000e+01,2.000000000000e+00
97,-1.200000000000e+00,2.252121320344e+01,3.939339828220e-01
98,-1.200000000000e+00,2.503000000000e+01,8.500000000000e-01
99,-1.200000000000e+00,2.752121320344e+01,1.393933982822e+00
100,-1.200000000000e+00,2.252121320344e+01,1.606066017178e+00
101,-1.200000000000e+00,2.503000000000e+01,1.150000000000e+00
102,-1.200000000000e+00,2.752121320344e+01,6.060660171780e-01
103,1.200000000000e+00,2.252121320344e+01,3.939339828220e-01
104,1.200000000000e+00,2.503000000000e+01,8.500000000000e-01
105,1.200000000000e+00,2.752121320344e+01,1.393933982822e+00
106,1.200000000000e+00,2.252121320344e+01,1.606066017178e+00
107,1.200000000000e+00,2.503000000000e+01,1.150000000000e+00
108,1.200000000000e+00,2.752121320344e+01,6.060660171780e-01
109,-4.939339828220e-01,2.247454415588e+01,0.000000000000e+00
110,1.500000000000e-01,2.496400000000e+01,0.000000000000e+00
111,7.060660171780e-01,2.747454415588e+01,0.000000000000e+00
112,4.939339828220e-01,2.247454415588e+01,0.000000000000e+00
113,-1.500000000000e-01,2.496400000000e+01,0.000000000000e+00
114,-7.060660171780e-01,2.747454415588e+01,0.000000000000e+00
115,-4.939339828220e-01,2.247454415588e+01,2.000000000000e+00
116,1.500000000000e-01,2.496400000000e+01,2.000000000000e+00
117,7.060660171780e-01,2.747454415588e+01,2.000000000000e+00
118,4.939339828220e-01,2.247454415588e+01,2.000000000000e+00
119,-1.500000000000e-01,2.496400000000e+01,2.000000000000e+00
120,-7.060660171780e-01,2.747454415588e+01,2.000000000000e+00
121,-1.200000000000e+00,3.252121320344e+01,3.939339828220e-01
122,-1.200000000000e+00,3.503000000000e+01,8.500000000000e-01
123,-1.200000000000e+00,3.752121320344e+01,1.393933982822e+00
124,-1.200000000000e+00,3.252121320344e+01,1.606066017178e+00
125,-1.200000000000e+00,3.503000000000e+01,1.150000000000e+00
126,-1.200000000000e+00,3.752121320344e+01,6.060660171780e-01
127,1.200000000000e+00,3.252121320344e+01,3.939339828220e-01
128,1.200000000000e+00,3.503000000000e+01,8.500000000000e-01
129,1.200000000000e+00,3.752121320344e+01,1.393933982822e+00
130,1.200000000000e+00,3.252121320344e+01,1.606066017178e+00
131,1.200000000000e+00,3.503000000000e+01,1.150000000000e+00
132,1.200000000000e+00,3.752121320344e+01,6.060660171780e-01
133,-4.939339828220e-01,3.247454415588e+01,0.000000000000e+00
134,1.500000000000e-01,3.496400000000e+01,0.000000000000e+00
135,7.060660171780e-01,3.747454415588e+01,0.000000000000e+00
136,4.939339828220e-01,3.247454415588e+01,0.000000000000e+00
137,-1.500000000000e-01,3.496400000000e+01,0.000000000000e+00
138,-7.060660171780e-01,3.747454415588e+01,0.000000000000e+00
139,-4.939339828220e-01,3.247454415588e+01,2.000000000000e+00
140,1.500000000000e-01,3.496400000000e+01,2.000000000000e+00
141,7.060660171780e-01,3.747454415588e+01,2.000000000000e+00
142,4.939339828220e-01,3.247454415588e+01,2.000000000000e+00
143,-1.500000000000e-01,3.496400000000e+01,2.000000000000e+00
144,-7.060660171780e-01,3.747454415588e+01,2.000000000000e+00
145,-1.200000000000e+00,4.252121320344e+01,3.939339828220e-01
146,-1.200000000000e+00,4.503000000000e+01,8.500000000000e-01
147,-1.200000000000e+00,4.752121320344e+01,1.393933982822e+00
148,-1.200000000000e+00,4.252121320344e+01,1.606066017178e+00
149,-1.200000000000e+00,4.503000000000e+01,1.150000000000e+00
150,-1.200000000000e+00,4.752121320344e+01,6.060660171780e-01
151,1.200000000000e+00,4.252121320344e+01,3.939339828220e-01
152,1.200000000000e+00,4.503000000000e+01,8.500000000000e-01
153,1.200000000000e+00,4.752121320344e+01,1.393933982822e+00
154,1.200000000000e+00,4.252121320344e+01,1.606066017178e+00
155,1.200000000000e+00,4.503000000000e+01,1.150000000000e+00
156,1.200000000000e+00,4.752121320344e+01,6.060660171780e-01
157,-4.939339828220e-01,4.247454415588e+01,0.000000000000e+00
158,1.500000000000e-01,4.496400000000e+01,0.000000000000e+00
159,7.060660171780e-01,4.747454415588e+01,0.000000000000e+00
160,4.939339828220e-01,4.247454415588e+01,0.000000000000e+00
161,-1.500000000000e-01,4.496400000000e+01,0.000000000000e+00
162,-7.060660171780e-01,4.747454415588e+01,0.000000000000e+00
163,-4.939339828220e-01,4.247454415588e+01,2.000000000000e+00
164,1.500000000000e-01,4.496400000000e+01,2.000000000000e+00
165,7.060660171780e-01,4.747454415588e+01,2.000000000000e+00
166,4.939339828220e-01,4.247454415588e+01,2.000000000000e+00
167,-1.500000000000e-01,4.496400000000e+01,2.000000000000e+00
168,-7.060660171780e-01,4.747454415588e+01,2.000000000000e+00
*ELEMENT,TYPE=B31,ELSET=ALL
1,1,25
2,25,5
3,2,26
4,26,6
5,3,27
6,27,7
7,4,28
8,28,8
9,5,29
10,29,9
11,6,30
12,30,10
13,7,31
14,31,11
15,8,32
16,32,12
17,9,13
18,10,14
19,11,15
20,12,16
21,13,33
22,33,34
23,34,35
24,35,36
25,36,37
26,37,38
27,38,39
28,39,17
29,14,40
30,40,41
31,41,42
32,42,43
33,43,44
34,44,45
35,45,46
36,46,18
37,15,47
38,47,48
39,48,49
40,49,50
41,50,51
42,51,52
43,52,53
44,53,19
45,16,54
46,54,55
47,55,56
48,56,57
49,57,58
50,58,59
51,59,60
52,60,20
53,17,21
54,18,22
55,19,23
56,20,24
57,1,61
58,61,2
59,3,62
60,62,4
61,1,63
62,63,3
63,2,64
64,64,4
65,5,65
66,65,6
67,7,66
68,66,8
69,5,67
70,67,7
71,6,68
72,68,8
73,9,69
74,69,10
75,11,70
76,70,12
77,9,71
78,71,11
79,10,72
80,72,12
81,13,14
82,15,16
83,13,15
84,14,16
85,17,73
86,73,18
87,19,74
88,74,20
89,17,75
90,75,19
91,18,76
92,76,20
93,21,77
94,77,22
95,23,78
96,78,24
97,21,79
98,79,23
99,22,80
100,80,24
101,1,81
102,81,7
103,3,82
104,82,5
105,2,83
106,83,8
107,4,84
108,84,6
109,1,85
110,85,6
111,2,86
112,86,5
113,3,87
114,87,8
115,4,88
116,88,7
117,5,89
118,89,11
119,7,90
120,90,9
121,6,91
122,91,12
123,8,92
124,92,10
125,5,93
126,93,10
127,6,94
128,94,9
129,7,95
130,95,12
131,8,96
132,96,11
133,9,97
134,97,98
135,98,99
136,99,15
137,11,100
138,100,101
139,101,102
140,102,13
141,10,103
142,103,104
143,104,105
144,105,16
145,12,106
146,106,107
147,107,108
148,108,14
149,9,109
150,109,110
151,110,111
152,111,14
153,10,112
154,112,113
155,113,114
156,114,13
157,11,115
158,115,116
159,116,117
160,117,16
161,12,118
162,118,119
163,119,120
164,120,15
165,13,121
166,121,122
167,122,123
168,123,19
169,15,124
170,124,125
171,125,126
172,126,17
173,14,127
174,127,128
175,128,129
176,129,20
177,16,130
178,130,131
179,131,132
180,132,18
181,13,133
182,133,134
183,134,135
184,135,18
185,14,136
186,136,137
187,137,138
188,138,17
189,15,139
190,139,140
191,140,141
192,141,20
193,16,142
194,142,143
195,143,144
196,144,19
197,17,145
198,145,146
199,146,147
200,147,23
201,19,148
202,148,149
203,149,150
204,150,21
205,18,151
206,151,152
207,152,153
208,153,24
209,20,154
210,154,155
211,155,156
212,156,22
213,17,157
214,157,158
215,158,159
216,159,22
217,18,160
218,160,161
219,161,162
220,162,21
221,19,163
222,163,164
223,164,165
224,165,24
225,20,166
226,166,167
227,167,168
228,168,23
*NSET,NSET=NALL,GENERATE
1,168,1
*NSET,NSET=LEFT
1,2,3,4
*NSET,NSET=RIGHT
21,22,23,24
*MATERIAL,NAME=STEEL
*ELASTIC
2.100000000000e+11,0.300000000000
*BEAM SECTION,ELSET=ALL,MATERIAL=STEEL,SECTION=RECT
6.000000000000e-02,4.000000000000e-02
0.371390676354,0.557086014531,0.742781352708
*BOUNDARY
LEFT,1,6,0.0
*STEP
*STATIC
*BOUNDARY
21,1,1,5.000000000000e-03
21,2,2,0.0
21,3,3,-6.000000000000e-03
*BOUNDARY
22,1,1,5.000000000000e-03
22,2,2,0.0
22,3,3,6.000000000000e-03
*BOUNDARY
23,1,1,-5.000000000000e-03
23,2,2,0.0
23,3,3,-6.000000000000e-03
*BOUNDARY
24,1,1,-5.000000000000e-03
24,2,2,0.0
24,3,3,6.000000000000e-03
*NODE FILE,NSET=NALL
U
*NODE PRINT,NSET=NALL
U
*NODE PRINT,NSET=RIGHT
RF
*EL PRINT,ELSET=ALL,TOTALS=YES
ELSE
*END STEP
