*HEADING
Normalized cross-passage space-truss torsion benchmark
*NODE
1,-1.200000000000e+00,0.000000000000e+00,0.000000000000e+00
2,1.200000000000e+00,0.000000000000e+00,0.000000000000e+00
3,-1.200000000000e+00,0.000000000000e+00,2.000000000000e+00
4,1.200000000000e+00,0.000000000000e+00,2.000000000000e+00
5,-1.200000000000e+00,1.000000000000e+01,0.000000000000e+00
6,1.200000000000e+00,1.000000000000e+01,0.000000000000e+00
7,-1.200000000000e+00,1.000000000000e+01,2.000000000000e+00
8,1.200000000000e+00,1.000000000000e+01,2.000000000000e+00
9,-1.200000000000e+00,2.000000000000e+01,0.000000000000e+00
10,1.200000000000e+00,2.000000000000e+01,0.000000000000e+00
11,-1.200000000000e+00,2.000000000000e+01,2.000000000000e+00
12,1.200000000000e+00,2.000000000000e+01,2.000000000000e+00
13,-1.200000000000e+00,3.000000000000e+01,0.000000000000e+00
14,1.200000000000e+00,3.000000000000e+01,0.000000000000e+00
15,-1.200000000000e+00,3.000000000000e+01,2.000000000000e+00
16,1.200000000000e+00,3.000000000000e+01,2.000000000000e+00
17,-1.200000000000e+00,4.000000000000e+01,0.000000000000e+00
18,1.200000000000e+00,4.000000000000e+01,0.000000000000e+00
19,-1.200000000000e+00,4.000000000000e+01,2.000000000000e+00
20,1.200000000000e+00,4.000000000000e+01,2.000000000000e+00
21,-1.200000000000e+00,5.000000000000e+01,0.000000000000e+00
22,1.200000000000e+00,5.000000000000e+01,0.000000000000e+00
23,-1.200000000000e+00,5.000000000000e+01,2.000000000000e+00
24,1.200000000000e+00,5.000000000000e+01,2.000000000000e+00
25,-1.200000000000e+00,2.500000000000e+01,-1.500000000000e-01
26,1.200000000000e+00,2.500000000000e+01,1.500000000000e-01
27,-1.200000000000e+00,2.500000000000e+01,1.850000000000e+00
28,1.200000000000e+00,2.500000000000e+01,2.150000000000e+00
29,-1.200000000000e+00,3.125000000000e+01,-5.740251485476e-02
30,-1.200000000000e+00,3.250000000000e+01,-1.060660171780e-01
31,-1.200000000000e+00,3.375000000000e+01,-1.385819298767e-01
32,-1.200000000000e+00,3.500000000000e+01,-1.500000000000e-01
33,-1.200000000000e+00,3.625000000000e+01,-1.385819298767e-01
34,-1.200000000000e+00,3.750000000000e+01,-1.060660171780e-01
35,-1.200000000000e+00,3.875000000000e+01,-5.740251485476e-02
36,1.200000000000e+00,3.125000000000e+01,5.740251485476e-02
37,1.200000000000e+00,3.250000000000e+01,1.060660171780e-01
38,1.200000000000e+00,3.375000000000e+01,1.385819298767e-01
39,1.200000000000e+00,3.500000000000e+01,1.500000000000e-01
40,1.200000000000e+00,3.625000000000e+01,1.385819298767e-01
41,1.200000000000e+00,3.750000000000e+01,1.060660171780e-01
42,1.200000000000e+00,3.875000000000e+01,5.740251485476e-02
43,-1.200000000000e+00,3.125000000000e+01,1.942597485145e+00
44,-1.200000000000e+00,3.250000000000e+01,1.893933982822e+00
45,-1.200000000000e+00,3.375000000000e+01,1.861418070123e+00
46,-1.200000000000e+00,3.500000000000e+01,1.850000000000e+00
47,-1.200000000000e+00,3.625000000000e+01,1.861418070123e+00
48,-1.200000000000e+00,3.750000000000e+01,1.893933982822e+00
49,-1.200000000000e+00,3.875000000000e+01,1.942597485145e+00
50,1.200000000000e+00,3.125000000000e+01,2.057402514855e+00
51,1.200000000000e+00,3.250000000000e+01,2.106066017178e+00
52,1.200000000000e+00,3.375000000000e+01,2.138581929877e+00
53,1.200000000000e+00,3.500000000000e+01,2.150000000000e+00
54,1.200000000000e+00,3.625000000000e+01,2.138581929877e+00
55,1.200000000000e+00,3.750000000000e+01,2.106066017178e+00
56,1.200000000000e+00,3.875000000000e+01,2.057402514855e+00
57,-1.200000000000e+00,4.125000000000e+01,-5.740251485476e-02
58,-1.200000000000e+00,4.250000000000e+01,-1.060660171780e-01
59,-1.200000000000e+00,4.375000000000e+01,-1.385819298767e-01
60,-1.200000000000e+00,4.500000000000e+01,-1.500000000000e-01
61,-1.200000000000e+00,4.625000000000e+01,-1.385819298767e-01
62,-1.200000000000e+00,4.750000000000e+01,-1.060660171780e-01
63,-1.200000000000e+00,4.875000000000e+01,-5.740251485476e-02
64,1.200000000000e+00,4.125000000000e+01,5.740251485476e-02
65,1.200000000000e+00,4.250000000000e+01,1.060660171780e-01
66,1.200000000000e+00,4.375000000000e+01,1.385819298767e-01
67,1.200000000000e+00,4.500000000000e+01,1.500000000000e-01
68,1.200000000000e+00,4.625000000000e+01,1.385819298767e-01
69,1.200000000000e+00,4.750000000000e+01,1.060660171780e-01
70,1.200000000000e+00,4.875000000000e+01,5.740251485476e-02
71,-1.200000000000e+00,4.125000000000e+01,1.942597485145e+00
72,-1.200000000000e+00,4.250000000000e+01,1.893933982822e+00
73,-1.200000000000e+00,4.375000000000e+01,1.861418070123e+00
74,-1.200000000000e+00,4.500000000000e+01,1.850000000000e+00
75,-1.200000000000e+00,4.625000000000e+01,1.861418070123e+00
76,-1.200000000000e+00,4.750000000000e+01,1.893933982822e+00
77,-1.200000000000e+00,4.875000000000e+01,1.942597485145e+00
78,1.200000000000e+00,4.125000000000e+01,2.057402514855e+00
79,1.200000000000e+00,4.250000000000e+01,2.106066017178e+00
80,1.200000000000e+00,4.375000000000e+01,2.138581929877e+00
81,1.200000000000e+00,4.500000000000e+01,2.150000000000e+00
82,1.200000000000e+00,4.625000000000e+01,2.138581929877e+00
83,1.200000000000e+00,4.750000000000e+01,2.106066017178e+00
84,1.200000000000e+00,4.875000000000e+01,2.057402514855e+00
85,-6.000000000000e-01,-2.545584412272e-02,0.000000000000e+00
86,0.000000000000e+00,-3.600000000000e-02,0.000000000000e+00
87,6.000000000000e-01,-2.545584412272e-02,0.000000000000e+00
88,-6.000000000000e-01,2.545584412272e-02,2.000000000000e+00
89,0.000000000000e+00,3.600000000000e-02,2.000000000000e+00
90,6.000000000000e-01,2.545584412272e-02,2.000000000000e+00
91,-1.200000000000e+00,2.121320343560e-02,5.000000000000e-01
92,-1.200000000000e+00,3.000000000000e-02,1.000000000000e+00
93,-1.200000000000e+00,2.121320343560e-02,1.500000000000e+00
94,1.200000000000e+00,-2.121320343560e-02,5.000000000000e-01
95,1.200000000000e+00,-3.000000000000e-02,1.000000000000e+00
96,1.200000000000e+00,-2.121320343560e-02,1.500000000000e+00
97,0.000000000000e+00,1.996400000000e+01,0.000000000000e+00
98,0.000000000000e+00,2.003600000000e+01,2.000000000000e+00
99,-1.200000000000e+00,2.003000000000e+01,1.000000000000e+00
100,1.200000000000e+00,1.997000000000e+01,1.000000000000e+00
101,-9.000000000000e-01,3.998622339643e+01,0.000000000000e+00
102,-6.000000000000e-01,3.997454415588e+01,0.000000000000e+00
103,-3.000000000000e-01,3.996674033683e+01,0.000000000000e+00
104,0.000000000000e+00,3.996400000000e+01,0.000000000000e+00
105,3.000000000000e-01,3.996674033683e+01,0.000000000000e+00
106,6.000000000000e-01,3.997454415588e+01,0.000000000000e+00
107,9.000000000000e-01,3.998622339643e+01,0.000000000000e+00
108,-9.000000000000e-01,4.001377660357e+01,2.000000000000e+00
109,-6.000000000000e-01,4.002545584412e+01,2.000000000000e+00
110,-3.000000000000e-01,4.003325966317e+01,2.000000000000e+00
111,0.000000000000e+00,4.003600000000e+01,2.000000000000e+00
112,3.000000000000e-01,4.003325966317e+01,2.000000000000e+00
113,6.000000000000e-01,4.002545584412e+01,2.000000000000e+00
114,9.000000000000e-01,4.001377660357e+01,2.000000000000e+00
115,-1.200000000000e+00,4.001148050297e+01,2.500000000000e-01
116,-1.200000000000e+00,4.002121320344e+01,5.000000000000e-01
117,-1.200000000000e+00,4.002771638598e+01,7.500000000000e-01
118,-1.200000000000e+00,4.003000000000e+01,1.000000000000e+00
119,-1.200000000000e+00,4.002771638598e+01,1.250000000000e+00
120,-1.200000000000e+00,4.002121320344e+01,1.500000000000e+00
121,-1.200000000000e+00,4.001148050297e+01,1.750000000000e+00
122,1.200000000000e+00,3.998851949703e+01,2.500000000000e-01
123,1.200000000000e+00,3.997878679656e+01,5.000000000000e-01
124,1.200000000000e+00,3.997228361402e+01,7.500000000000e-01
125,1.200000000000e+00,3.997000000000e+01,1.000000000000e+00
126,1.200000000000e+00,3.997228361402e+01,1.250000000000e+00
127,1.200000000000e+00,3.997878679656e+01,1.500000000000e+00
128,1.200000000000e+00,3.998851949703e+01,1.750000000000e+00
129,-9.000000000000e-01,4.998622339643e+01,0.000000000000e+00
130,-6.000000000000e-01,4.997454415588e+01,0.000000000000e+00
131,-3.000000000000e-01,4.996674033683e+01,0.000000000000e+00
132,0.000000000000e+00,4.996400000000e+01,0.000000000000e+00
133,3.000000000000e-01,4.996674033683e+01,0.000000000000e+00
134,6.000000000000e-01,4.997454415588e+01,0.000000000000e+00
135,9.000000000000e-01,4.998622339643e+01,0.000000000000e+00
136,-9.000000000000e-01,5.001377660357e+01,2.000000000000e+00
137,-6.000000000000e-01,5.002545584412e+01,2.000000000000e+00
138,-3.000000000000e-01,5.003325966317e+01,2.000000000000e+00
139,0.000000000000e+00,5.003600000000e+01,2.000000000000e+00
140,3.000000000000e-01,5.003325966317e+01,2.000000000000e+00
141,6.000000000000e-01,5.002545584412e+01,2.000000000000e+00
142,9.000000000000e-01,5.001377660357e+01,2.000000000000e+00
143,-1.200000000000e+00,5.001148050297e+01,2.500000000000e-01
144,-1.200000000000e+00,5.002121320344e+01,5.000000000000e-01
145,-1.200000000000e+00,5.002771638598e+01,7.500000000000e-01
146,-1.200000000000e+00,5.003000000000e+01,1.000000000000e+00
147,-1.200000000000e+00,5.002771638598e+01,1.250000000000e+00
148,-1.200000000000e+00,5.002121320344e+01,1.500000000000e+00
149,-1.200000000000e+00,5.001148050297e+01,1.750000000000e+00
150,1.200000000000e+00,4.998851949703e+01,2.500000000000e-01
151,1.200000000000e+00,4.997878679656e+01,5.000000000000e-01
152,1.200000000000e+00,4.997228361402e+01,7.500000000000e-01
153,1.200000000000e+00,4.997000000000e+01,1.000000000000e+00
154,1.200000000000e+00,4.997228361402e+01,1.250000000000e+00
155,1.200000000000e+00,4.997878679656e+01,1.500000000000e+00
156,1.200000000000e+00,4.998851949703e+01,1.750000000000e+00
157,-1.200000000000e+00,5.030000000000e+00,8.500000000000e-01
158,-1.200000000000e+00,5.030000000000e+00,1.150000000000e+00
159,1.200000000000e+00,5.030000000000e+00,8.500000000000e-01
160,1.200000000000e+00,5.030000000000e+00,1.150000000000e+00
161,1.500000000000e-01,4.964000000000e+00,0.000000000000e+00
162,-1.500000000000e-01,4.964000000000e+00,0.000000000000e+00
163,1.500000000000e-01,4.964000000000e+00,2.000000000000e+00
164,-1.500000000000e-01,4.964000000000e+00,2.000000000000e+00
165,-1.200000000000e+00,1.503000000000e+01,8.500000000000e-01
166,-1.200000000000e+00,1.503000000000e+01,1.150000000000e+00
167,1.200000000000e+00,1.503000000000e+01,8.500000000000e-01
168,1.200000000000e+00,1.503000000000e+01,1.150000000000e+00
169,1.500000000000e-01,1.496400000000e+01,0.000000000000e+00
170,-1.500000000000e-01,1.496400000000e+01,0.000000000000e+00
171,1.500000000000e-01,1.496400000000e+01,2.000000000000e+00
172,-1.500000000000e-01,1.496400000000e+01,2.000000000000e+00
173,-1.200000000000e+00,3.503000000000e+01,8.500000000000e-01
174,-1.200000000000e+00,3.503000000000e+01,1.150000000000e+00
175,1.200000000000e+00,3.503000000000e+01,8.500000000000e-01
176,1.200000000000e+00,3.503000000000e+01,1.150000000000e+00
177,1.500000000000e-01,3.496400000000e+01,0.000000000000e+00
178,-1.500000000000e-01,3.496400000000e+01,0.000000000000e+00
179,1.500000000000e-01,3.496400000000e+01,2.000000000000e+00
180,-1.500000000000e-01,3.496400000000e+01,2.000000000000e+00
181,-1.200000000000e+00,4.126148050297e+01,1.925974851452e-01
182,-1.200000000000e+00,4.252121320344e+01,3.939339828220e-01
183,-1.200000000000e+00,4.377771638598e+01,6.114180701233e-01
184,-1.200000000000e+00,4.503000000000e+01,8.500000000000e-01
185,-1.200000000000e+00,4.627771638598e+01,1.111418070123e+00
186,-1.200000000000e+00,4.752121320344e+01,1.393933982822e+00
187,-1.200000000000e+00,4.876148050297e+01,1.692597485145e+00
188,-1.200000000000e+00,4.126148050297e+01,1.807402514855e+00
189,-1.200000000000e+00,4.252121320344e+01,1.606066017178e+00
190,-1.200000000000e+00,4.377771638598e+01,1.388581929877e+00
191,-1.200000000000e+00,4.503000000000e+01,1.150000000000e+00
192,-1.200000000000e+00,4.627771638598e+01,8.885819298767e-01
193,-1.200000000000e+00,4.752121320344e+01,6.060660171780e-01
194,-1.200000000000e+00,4.876148050297e+01,3.074025148548e-01
195,1.200000000000e+00,4.126148050297e+01,1.925974851452e-01
196,1.200000000000e+00,4.252121320344e+01,3.939339828220e-01
197,1.200000000000e+00,4.377771638598e+01,6.114180701233e-01
198,1.200000000000e+00,4.503000000000e+01,8.500000000000e-01
199,1.200000000000e+00,4.627771638598e+01,1.111418070123e+00
200,1.200000000000e+00,4.752121320344e+01,1.393933982822e+00
201,1.200000000000e+00,4.876148050297e+01,1.692597485145e+00
202,1.200000000000e+00,4.126148050297e+01,1.807402514855e+00
203,1.200000000000e+00,4.252121320344e+01,1.606066017178e+00
204,1.200000000000e+00,4.377771638598e+01,1.388581929877e+00
205,1.200000000000e+00,4.503000000000e+01,1.150000000000e+00
206,1.200000000000e+00,4.627771638598e+01,8.885819298767e-01
207,1.200000000000e+00,4.752121320344e+01,6.060660171780e-01
208,1.200000000000e+00,4.876148050297e+01,3.074025148548e-01
209,-8.425974851452e-01,4.123622339643e+01,0.000000000000e+00
210,-4.939339828220e-01,4.247454415588e+01,0.000000000000e+00
211,-1.614180701233e-01,4.371674033683e+01,0.000000000000e+00
212,1.500000000000e-01,4.496400000000e+01,0.000000000000e+00
213,4.385819298767e-01,4.621674033683e+01,0.000000000000e+00
214,7.060660171780e-01,4.747454415588e+01,0.000000000000e+00
215,9.574025148548e-01,4.873622339643e+01,0.000000000000e+00
216,8.425974851452e-01,4.123622339643e+01,0.000000000000e+00
217,4.939339828220e-01,4.247454415588e+01,0.000000000000e+00
218,1.614180701233e-01,4.371674033683e+01,0.000000000000e+00
219,-1.500000000000e-01,4.496400000000e+01,0.000000000000e+00
220,-4.385819298767e-01,4.621674033683e+01,0.000000000000e+00
221,-7.060660171780e-01,4.747454415588e+01,0.000000000000e+00
222,-9.574025148548e-01,4.873622339643e+01,0.000000000000e+00
223,-8.425974851452e-01,4.123622339643e+01,2.000000000000e+00
224,-4.939339828220e-01,4.247454415588e+01,2.000000000000e+00
225,-1.614180701233e-01,4.371674033683e+01,2.000000000000e+00
226,1.500000000000e-01,4.496400000000e+01,2.000000000000e+00
227,4.385819298767e-01,4.621674033683e+01,2.000000000000e+00
228,7.060660171780e-01,4.747454415588e+01,2.000000000000e+00
229,9.574025148548e-01,4.873622339643e+01,2.000000000000e+00
230,8.425974851452e-01,4.123622339643e+01,2.000000000000e+00
231,4.939339828220e-01,4.247454415588e+01,2.000000000000e+00
232,1.614180701233e-01,4.371674033683e+01,2.000000000000e+00
233,-1.500000000000e-01,4.496400000000e+01,2.000000000000e+00
234,-4.385819298767e-01,4.621674033683e+01,2.000000000000e+00
235,-7.060660171780e-01,4.747454415588e+01,2.000000000000e+00
236,-9.574025148548e-01,4.873622339643e+01,2.000000000000e+00
*ELEMENT,TYPE=B31,ELSET=ALL
1,1,5
2,2,6
3,3,7
4,4,8
5,5,9
6,6,10
7,7,11
8,8,12
9,9,25
10,25,13
11,10,26
12,26,14
13,11,27
14,27,15
15,12,28
16,28,16
17,13,29
18,29,30
19,30,31
20,31,32
21,32,33
22,33,34
23,34,35
24,35,17
25,14,36
26,36,37
27,37,38
28,38,39
29,39,40
30,40,41
31,41,42
32,42,18
33,15,43
34,43,44
35,44,45
36,45,46
37,46,47
38,47,48
39,48,49
40,49,19
41,16,50
42,50,51
43,51,52
44,52,53
45,53,54
46,54,55
47,55,56
48,56,20
49,17,57
50,57,58
51,58,59
52,59,60
53,60,61
54,61,62
55,62,63
56,63,21
57,18,64
58,64,65
59,65,66
60,66,67
61,67,68
62,68,69
63,69,70
64,70,22
65,19,71
66,71,72
67,72,73
68,73,74
69,74,75
70,75,76
71,76,77
72,77,23
73,20,78
74,78,79
75,79,80
76,80,81
77,81,82
78,82,83
79,83,84
80,84,24
81,1,85
82,85,86
83,86,87
84,87,2
85,3,88
86,88,89
87,89,90
88,90,4
89,1,91
90,91,92
91,92,93
92,93,3
93,2,94
94,94,95
95,95,96
96,96,4
97,5,6
98,7,8
99,5,7
100,6,8
101,9,97
102,97,10
103,11,98
104,98,12
105,9,99
106,99,11
107,10,100
108,100,12
109,13,14
110,15,16
111,13,15
112,14,16
113,17,101
114,101,102
115,102,103
116,103,104
117,104,105
118,105,106
119,106,107
120,107,18
121,19,108
122,108,109
123,109,110
124,110,111
125,111,112
126,112,113
127,113,114
128,114,20
129,17,115
130,115,116
131,116,117
132,117,118
133,118,119
134,119,120
135,120,121
136,121,19
137,18,122
138,122,123
139,123,124
140,124,125
141,125,126
142,126,127
143,127,128
144,128,20
145,21,129
146,129,130
147,130,131
148,131,132
149,132,133
150,133,134
151,134,135
152,135,22
153,23,136
154,136,137
155,137,138
156,138,139
157,139,140
158,140,141
159,141,142
160,142,24
161,21,143
162,143,144
163,144,145
164,145,146
165,146,147
166,147,148
167,148,149
168,149,23
169,22,150
170,150,151
171,151,152
172,152,153
173,153,154
174,154,155
175,155,156
176,156,24
177,1,157
178,157,7
179,3,158
180,158,5
181,2,159
182,159,8
183,4,160
184,160,6
185,1,161
186,161,6
187,2,162
188,162,5
189,3,163
190,163,8
191,4,164
192,164,7
193,5,165
194,165,11
195,7,166
196,166,9
197,6,167
198,167,12
199,8,168
200,168,10
201,5,169
202,169,10
203,6,170
204,170,9
205,7,171
206,171,12
207,8,172
208,172,11
209,9,15
210,11,13
211,10,16
212,12,14
213,9,14
214,10,13
215,11,16
216,12,15
217,13,173
218,173,19
219,15,174
220,174,17
221,14,175
222,175,20
223,16,176
224,176,18
225,13,177
226,177,18
227,14,178
228,178,17
229,15,179
230,179,20
231,16,180
232,180,19
233,17,181
234,181,182
235,182,183
236,183,184
237,184,185
238,185,186
239,186,187
240,187,23
241,19,188
242,188,189
243,189,190
244,190,191
245,191,192
246,192,193
247,193,194
248,194,21
249,18,195
250,195,196
251,196,197
252,197,198
253,198,199
254,199,200
255,200,201
256,201,24
257,20,202
258,202,203
259,203,204
260,204,205
261,205,206
262,206,207
263,207,208
264,208,22
265,17,209
266,209,210
267,210,211
268,211,212
269,212,213
270,213,214
271,214,215
272,215,22
273,18,216
274,216,217
275,217,218
276,218,219
277,219,220
278,220,221
279,221,222
280,222,21
281,19,223
282,223,224
283,224,225
284,225,226
285,226,227
286,227,228
287,228,229
288,229,24
289,20,230
290,230,231
291,231,232
292,232,233
293,233,234
294,234,235
295,235,236
296,236,23
*NSET,NSET=NALL,GENERATE
1,236,1
*NSET,NSET=LEFT
1,2,3,4
*NSET,NSET=RIGHT
21,22,23,24
*MATERIAL,NAME=STEEL
*ELASTIC
2.100000000000e+11,0.300000000000
*BEAM SECTION,ELSET=ALL,MATERIAL=STEEL,SECTION=RECT
6.000000000000e-02,4.000000000000e-02
0.371390676354,0.557086014531,0.742781352708
*BOUNDARY
LEFT,1,6,0.0
*STEP
*STATIC
*BOUNDARY
21,1,1,5.000000000000e-03
21,2,2,0.0
21,3,3,-6.000000000000e-03
*BOUNDARY
22,1,1,5.000000000000e-03
22,2,2,0.0
22,3,3,6.000000000000e-03
*BOUNDARY
23,1,1,-5.000000000000e-03
23,2,2,0.0
23,3,3,-6.000000000000e-03
*BOUNDARY
24,1,1,-5.000000000000e-03
24,2,2,0.0
24,3,3,6.000000000000e-03
*NODE FILE,NSET=NALL
U
*NODE PRINT,NSET=NALL
U
*NODE PRINT,NSET=RIGHT
RF
*EL PRINT,ELSET=ALL,TOTALS=YES
ELSE
*END STEP
