*HEADING
Normalized cross-passage space-truss torsion benchmark
*NODE
1,-1.200000000000e+00,0.000000000000e+00,0.000000000000e+00
2,1.200000000000e+00,0.000000000000e+00,0.000000000000e+00
3,-1.200000000000e+00,0.000000000000e+00,2.000000000000e+00
4,1.200000000000e+00,0.000000000000e+00,2.000000000000e+00
5,-1.200000000000e+00,1.000000000000e+01,0.000000000000e+00
6,1.200000000000e+00,1.000000000000e+01,0.000000000000e+00
7,-1.200000000000e+00,1.000000000000e+01,2.000000000000e+00
8,1.200000000000e+00,1.000000000000e+01,2.000000000000e+00
9,-1.200000000000e+00,2.000000000000e+01,0.000000000000e+00
10,1.200000000000e+00,2.000000000000e+01,0.000000000000e+00
11,-1.200000000000e+00,2.000000000000e+01,2.000000000000e+00
12,1.200000000000e+00,2.000000000000e+01,2.000000000000e+00
13,-1.200000000000e+00,3.000000000000e+01,0.000000000000e+00
14,1.200000000000e+00,3.000000000000e+01,0.000000000000e+00
15,-1.200000000000e+00,3.000000000000e+01,2.000000000000e+00
16,1.200000000000e+00,3.000000000000e+01,2.000000000000e+00
17,-1.200000000000e+00,4.000000000000e+01,0.000000000000e+00
18,1.200000000000e+00,4.000000000000e+01,0.000000000000e+00
19,-1.200000000000e+00,4.000000000000e+01,2.000000000000e+00
20,1.200000000000e+00,4.000000000000e+01,2.000000000000e+00
21,-1.200000000000e+00,5.000000000000e+01,0.000000000000e+00
22,1.200000000000e+00,5.000000000000e+01,0.000000000000e+00
23,-1.200000000000e+00,5.000000000000e+01,2.000000000000e+00
24,1.200000000000e+00,5.000000000000e+01,2.000000000000e+00
25,-1.200000000000e+00,1.250000000000e+00,-5.740251485476e-02
26,-1.200000000000e+00,2.500000000000e+00,-1.060660171780e-01
27,-1.200000000000e+00,3.750000000000e+00,-1.385819298767e-01
28,-1.200000000000e+00,5.000000000000e+00,-1.500000000000e-01
29,-1.200000000000e+00,6.250000000000e+00,-1.385819298767e-01
30,-1.200000000000e+00,7.500000000000e+00,-1.060660171780e-01
31,-1.200000000000e+00,8.750000000000e+00,-5.740251485476e-02
32,1.200000000000e+00,1.250000000000e+00,5.740251485476e-02
33,1.200000000000e+00,2.500000000000e+00,1.060660171780e-01
34,1.200000000000e+00,3.750000000000e+00,1.385819298767e-01
35,1.200000000000e+00,5.000000000000e+00,1.500000000000e-01
36,1.200000000000e+00,6.250000000000e+00,1.385819298767e-01
37,1.200000000000e+00,7.500000000000e+00,1.060660171780e-01
38,1.200000000000e+00,8.750000000000e+00,5.740251485476e-02
39,-1.200000000000e+00,1.250000000000e+00,1.942597485145e+00
40,-1.200000000000e+00,2.500000000000e+00,1.893933982822e+00
41,-1.200000000000e+00,3.750000000000e+00,1.861418070123e+00
42,-1.200000000000e+00,5.000000000000e+00,1.850000000000e+00
43,-1.200000000000e+00,6.250000000000e+00,1.861418070123e+00
44,-1.200000000000e+00,7.500000000000e+00,1.893933982822e+00
45,-1.200000000000e+00,8.750000000000e+00,1.942597485145e+00
46,1.200000000000e+00,1.250000000000e+00,2.057402514855e+00
47,1.200000000000e+00,2.500000000000e+00,2.106066017178e+00
48,1.200000000000e+00,3.750000000000e+00,2.138581929877e+00
49,1.200000000000e+00,5.000000000000e+00,2.150000000000e+00
50,1.200000000000e+00,6.250000000000e+00,2.138581929877e+00
51,1.200000000000e+00,7.500000000000e+00,2.106066017178e+00
52,1.200000000000e+00,8.750000000000e+00,2.057402514855e+00
53,-1.200000000000e+00,2.500000000000e+01,-1.500000000000e-01
54,1.200000000000e+00,2.500000000000e+01,1.500000000000e-01
55,-1.200000000000e+00,2.500000000000e+01,1.850000000000e+00
56,1.200000000000e+00,2.500000000000e+01,2.150000000000e+00
57,-1.200000000000e+00,3.500000000000e+01,-1.500000000000e-01
58,1.200000000000e+00,3.500000000000e+01,1.500000000000e-01
59,-1.200000000000e+00,3.500000000000e+01,1.850000000000e+00
60,1.200000000000e+00,3.500000000000e+01,2.150000000000e+00
61,-6.000000000000e-01,-2.545584412272e-02,0.000000000000e+00
62,0.000000000000e+00,-3.600000000000e-02,0.000000000000e+00
63,6.000000000000e-01,-2.545584412272e-02,0.000000000000e+00
64,-6.000000000000e-01,2.545584412272e-02,2.000000000000e+00
65,0.000000000000e+00,3.600000000000e-02,2.000000000000e+00
66,6.000000000000e-01,2.545584412272e-02,2.000000000000e+00
67,-1.200000000000e+00,2.121320343560e-02,5.000000000000e-01
68,-1.200000000000e+00,3.000000000000e-02,1.000000000000e+00
69,-1.200000000000e+00,2.121320343560e-02,1.500000000000e+00
70,1.200000000000e+00,-2.121320343560e-02,5.000000000000e-01
71,1.200000000000e+00,-3.000000000000e-02,1.000000000000e+00
72,1.200000000000e+00,-2.121320343560e-02,1.500000000000e+00
73,0.000000000000e+00,9.964000000000e+00,0.000000000000e+00
74,0.000000000000e+00,1.003600000000e+01,2.000000000000e+00
75,-1.200000000000e+00,1.003000000000e+01,1.000000000000e+00
76,1.200000000000e+00,9.970000000000e+00,1.000000000000e+00
77,0.000000000000e+00,1.996400000000e+01,0.000000000000e+00
78,0.000000000000e+00,2.003600000000e+01,2.000000000000e+00
79,-1.200000000000e+00,2.003000000000e+01,1.000000000000e+00
80,1.200000000000e+00,1.997000000000e+01,1.000000000000e+00
81,-6.000000000000e-01,2.997454415588e+01,0.000000000000e+00
82,0.000000000000e+00,2.996400000000e+01,0.000000000000e+00
83,6.000000000000e-01,2.997454415588e+01,0.000000000000e+00
84,-6.000000000000e-01,3.002545584412e+01,2.000000000000e+00
85,0.000000000000e+00,3.003600000000e+01,2.000000000000e+00
86,6.000000000000e-01,3.002545584412e+01,2.000000000000e+00
87,-1.200000000000e+00,3.002121320344e+01,5.000000000000e-01
88,-1.200000000000e+00,3.003000000000e+01,1.000000000000e+00
89,-1.200000000000e+00,3.002121320344e+01,1.500000000000e+00
90,1.200000000000e+00,2.997878679656e+01,5.000000000000e-01
91,1.200000000000e+00,2.997000000000e+01,1.000000000000e+00
92,1.200000000000e+00,2.997878679656e+01,1.500000000000e+00
93,-9.000000000000e-01,3.998622339643e+01,0.000000000000e+00
94,-6.000000000000e-01,3.997454415588e+01,0.000000000000e+00
95,-3.000000000000e-01,3.996674033683e+01,0.000000000000e+00
96,0.000000000000e+00,3.996400000000e+01,0.000000000000e+00
97,3.000000000000e-01,3.996674033683e+01,0.000000000000e+00
98,6.000000000000e-01,3.997454415588e+01,0.000000000000e+00
99,9.000000000000e-01,3.998622339643e+01,0.000000000000e+00
100,-9.000000000000e-01,4.001377660357e+01,2.000000000000e+00
101,-6.000000000000e-01,4.002545584412e+01,2.000000000000e+00
102,-3.000000000000e-01,4.003325966317e+01,2.000000000000e+00
103,0.000000000000e+00,4.003600000000e+01,2.000000000000e+00
104,3.000000000000e-01,4.003325966317e+01,2.000000000000e+00
105,6.000000000000e-01,4.002545584412e+01,2.000000000000e+00
106,9.000000000000e-01,4.001377660357e+01,2.000000000000e+00
107,-1.200000000000e+00,4.001148050297e+01,2.500000000000e-01
108,-1.200000000000e+00,4.002121320344e+01,5.000000000000e-01
109,-1.200000000000e+00,4.002771638598e+01,7.500000000000e-01
110,-1.200000000000e+00,4.003000000000e+01,1.000000000000e+00
111,-1.200000000000e+00,4.002771638598e+01,1.250000000000e+00
112,-1.200000000000e+00,4.002121320344e+01,1.500000000000e+00
113,-1.200000000000e+00,4.001148050297e+01,1.750000000000e+00
114,1.200000000000e+00,3.998851949703e+01,2.500000000000e-01
115,1.200000000000e+00,3.997878679656e+01,5.000000000000e-01
116,1.200000000000e+00,3.997228361402e+01,7.500000000000e-01
117,1.200000000000e+00,3.997000000000e+01,1.000000000000e+00
118,1.200000000000e+00,3.997228361402e+01,1.250000000000e+00
119,1.200000000000e+00,3.997878679656e+01,1.500000000000e+00
120,1.200000000000e+00,3.998851949703e+01,1.750000000000e+00
121,-6.000000000000e-01,4.997454415588e+01,0.000000000000e+00
122,0.000000000000e+00,4.996400000000e+01,0.000000000000e+00
123,6.000000000000e-01,4.997454415588e+01,0.000000000000e+00
124,-6.000000000000e-01,5.002545584412e+01,2.000000000000e+00
125,0.000000000000e+00,5.003600000000e+01,2.000000000000e+00
126,6.000000000000e-01,5.002545584412e+01,2.000000000000e+00
127,-1.200000000000e+00,5.002121320344e+01,5.000000000000e-01
128,-1.200000000000e+00,5.003000000000e+01,1.000000000000e+00
129,-1.200000000000e+00,5.002121320344e+01,1.500000000000e+00
130,1.200000000000e+00,4.997878679656e+01,5.000000000000e-01
131,1.200000000000e+00,4.997000000000e+01,1.000000000000e+00
132,1.200000000000e+00,4.997878679656e+01,1.500000000000e+00
133,-1.200000000000e+00,5.030000000000e+00,8.500000000000e-01
134,-1.200000000000e+00,5.030000000000e+00,1.150000000000e+00
135,1.200000000000e+00,5.030000000000e+00,8.500000000000e-01
136,1.200000000000e+00,5.030000000000e+00,1.150000000000e+00
137,1.500000000000e-01,4.964000000000e+00,0.000000000000e+00
138,-1.500000000000e-01,4.964000000000e+00,0.000000000000e+00
139,1.500000000000e-01,4.964000000000e+00,2.000000000000e+00
140,-1.500000000000e-01,4.964000000000e+00,2.000000000000e+00
141,-1.200000000000e+00,1.252121320344e+01,3.939339828220e-01
142,-1.200000000000e+00,1.503000000000e+01,8.500000000000e-01
143,-1.200000000000e+00,1.752121320344e+01,1.393933982822e+00
144,-1.200000000000e+00,1.252121320344e+01,1.606066017178e+00
145,-1.200000000000e+00,1.503000000000e+01,1.150000000000e+00
146,-1.200000000000e+00,1.752121320344e+01,6.060660171780e-01
147,1.200000000000e+00,1.252121320344e+01,3.939339828220e-01
148,1.200000000000e+00,1.503000000000e+01,8.500000000000e-01
149,1.200000000000e+00,1.752121320344e+01,1.393933982822e+00
150,1.200000000000e+00,1.252121320344e+01,1.606066017178e+00
151,1.200000000000e+00,1.503000000000e+01,1.150000000000e+00
152,1.200000000000e+00,1.752121320344e+01,6.060660171780e-01
153,-4.939339828220e-01,1.247454415588e+01,0.000000000000e+00
154,1.500000000000e-01,1.496400000000e+01,0.000000000000e+00
155,7.060660171780e-01,1.747454415588e+01,0.000000000000e+00
156,4.939339828220e-01,1.247454415588e+01,0.000000000000e+00
157,-1.500000000000e-01,1.496400000000e+01,0.000000000000e+00
158,-7.060660171780e-01,1.747454415588e+01,0.000000000000e+00
159,-4.939339828220e-01,1.247454415588e+01,2.000000000000e+00
160,1.500000000000e-01,1.496400000000e+01,2.000000000000e+00
161,7.060660171780e-01,1.747454415588e+01,2.000000000000e+00
162,4.939339828220e-01,1.247454415588e+01,2.000000000000e+00
163,-1.500000000000e-01,1.496400000000e+01,2.000000000000e+00
164,-7.060660171780e-01,1.747454415588e+01,2.000000000000e+00
165,-1.200000000000e+00,2.503000000000e+01,8.500000000000e-01
166,-1.200000000000e+00,2.503000000000e+01,1.150000000000e+00
167,1.200000000000e+00,2.503000000000e+01,8.500000000000e-01
168,1.200000000000e+00,2.503000000000e+01,1.150000000000e+00
169,1.500000000000e-01,2.496400000000e+01,0.000000000000e+00
170,-1.500000000000e-01,2.496400000000e+01,0.000000000000e+00
171,1.500000000000e-01,2.496400000000e+01,2.000000000000e+00
172,-1.500000000000e-01,2.496400000000e+01,2.000000000000e+00
173,-1.200000000000e+00,4.503000000000e+01,8.500000000000e-01
174,-1.200000000000e+00,4.503000000000e+01,1.150000000000e+00
175,1.200000000000e+00,4.503000000000e+01,8.500000000000e-01
176,1.200000000000e+00,4.503000000000e+01,1.150000000000e+00
177,1.500000000000e-01,4.496400000000e+01,0.000000000000e+00
178,-1.500000000000e-01,4.496400000000e+01,0.000000000000e+00
179,1.500000000000e-01,4.496400000000e+01,2.000000000000e+00
180,-1.500000000000e-01,4.496400000000e+01,2.000000000000e+00
*ELEMENT,TYPE=B31,ELSET=ALL
1,1,25
2,25,26
3,26,27
4,27,28
5,28,29
6,29,30
7,30,31
8,31,5
9,2,32
10,32,33
11,33,34
12,34,35
13,35,36
14,36,37
15,37,38
16,38,6
17,3,39
18,39,40
19,40,41
20,41,42
21,42,43
22,43,44
23,44,45
24,45,7
25,4,46
26,46,47
27,47,48
28,48,49
29,49,50
30,50,51
31,51,52
32,52,8
33,5,9
34,6,10
35,7,11
36,8,12
37,9,53
38,53,13
39,10,54
40,54,14
41,11,55
42,55,15
43,12,56
44,56,16
45,13,57
46,57,17
47,14,58
48,58,18
49,15,59
50,59,19
51,16,60
52,60,20
53,17,21
54,18,22
55,19,23
56,20,24
57,1,61
58,61,62
59,62,63
60,63,2
61,3,64
62,64,65
63,65,66
64,66,4
65,1,67
66,67,68
67,68,69
68,69,3
69,2,70
70,70,71
71,71,72
72,72,4
73,5,73
74,73,6
75,7,74
76,74,8
77,5,75
78,75,7
79,6,76
80,76,8
81,9,77
82,77,10
83,11,78
84,78,12
85,9,79
86,79,11
87,10,80
88,80,12
89,13,81
90,81,82
91,82,83
92,83,14
93,15,84
94,84,85
95,85,86
96,86,16
97,13,87
98,87,88
99,88,89
100,89,15
101,14,90
102,90,91
103,91,92
104,92,16
105,17,93
106,93,94
107,94,95
108,95,96
109,96,97
110,97,98
111,98,99
112,99,18
113,19,100
114,100,101
115,101,102
116,102,103
117,103,104
118,104,105
119,105,106
120,106,20
121,17,107
122,107,108
123,108,109
124,109,110
125,110,111
126,111,112
127,112,113
128,113,19
129,18,114
130,114,115
131,115,116
132,116,117
133,117,118
134,118,119
135,119,120
136,120,20
137,21,121
138,121,122
139,122,123
140,123,22
141,23,124
142,124,125
143,125,126
144,126,24
145,21,127
146,127,128
147,128,129
148,129,23
149,22,130
150,130,131
151,131,132
152,132,24
153,1,133
154,133,7
155,3,134
156,134,5
157,2,135
158,135,8
159,4,136
160,136,6
161,1,137
162,137,6
163,2,138
164,138,5
165,3,139
166,139,8
167,4,140
168,140,7
169,5,141
170,141,142
171,142,143
172,143,11
173,7,144
174,144,145
175,145,146
176,146,9
177,6,147
178,147,148
179,148,149
180,149,12
181,8,150
182,150,151
183,151,152
184,152,10
185,5,153
186,153,154
187,154,155
188,155,10
189,6,156
190,156,157
191,157,158
192,158,9
193,7,159
194,159,160
195,160,161
196,161,12
197,8,162
198,162,163
199,163,164
200,164,11
201,9,165
202,165,15
203,11,166
204,166,13
205,10,167
206,167,16
207,12,168
208,168,14
209,9,169
210,169,14
211,10,170
212,170,13
213,11,171
214,171,16
215,12,172
216,172,15
217,13,19
218,15,17
219,14,20
220,16,18
221,13,18
222,14,17
223,15,20
224,16,19
225,17,173
226,173,23
227,19,174
228,174,21
229,18,175
230,175,24
231,20,176
232,176,22
233,17,177
234,177,22
235,18,178
236,178,21
237,19,179
238,179,24
239,20,180
240,180,23
*NSET,NSET=NALL,GENERATE
1,180,1
*NSET,NSET=LEFT
1,2,3,4
*NSET,NSET=RIGHT
21,22,23,24
*MATERIAL,NAME=STEEL
*ELASTIC
2.100000000000e+11,0.300000000000
*BEAM SECTION,ELSET=ALL,MATERIAL=STEEL,SECTION=RECT
6.000000000000e-02,4.000000000000e-02
0.371390676354,0.557086014531,0.742781352708
*BOUNDARY
LEFT,1,6,0.0
*STEP
*STATIC
*BOUNDARY
21,1,1,5.000000000000e-03
21,2,2,0.0
21,3,3,-6.000000000000e-03
*BOUNDARY
22,1,1,5.000000000000e-03
22,2,2,0.0
22,3,3,6.000000000000e-03
*BOUNDARY
23,1,1,-5.000000000000e-03
23,2,2,0.0
23,3,3,-6.000000000000e-03
*BOUNDARY
24,1,1,-5.000000000000e-03
24,2,2,0.0
24,3,3,6.000000000000e-03
*NODE FILE,NSET=NALL
U
*NODE PRINT,NSET=NALL
U
*NODE PRINT,NSET=RIGHT
RF
*EL PRINT,ELSET=ALL,TOTALS=YES
ELSE
*END STEP
