*HEADING
Normalized cross-passage space-truss torsion benchmark
*NODE
1,-1.200000000000e+00,0.000000000000e+00,0.000000000000e+00
2,1.200000000000e+00,0.000000000000e+00,0.000000000000e+00
3,-1.200000000000e+00,0.000000000000e+00,2.000000000000e+00
4,1.200000000000e+00,0.000000000000e+00,2.000000000000e+00
5,-1.200000000000e+00,1.000000000000e+01,0.000000000000e+00
6,1.200000000000e+00,1.000000000000e+01,0.000000000000e+00
7,-1.200000000000e+00,1.000000000000e+01,2.000000000000e+00
8,1.200000000000e+00,1.000000000000e+01,2.000000000000e+00
9,-1.200000000000e+00,2.000000000000e+01,0.000000000000e+00
10,1.200000000000e+00,2.000000000000e+01,0.000000000000e+00
11,-1.200000000000e+00,2.000000000000e+01,2.000000000000e+00
12,1.200000000000e+00,2.000000000000e+01,2.000000000000e+00
13,-1.200000000000e+00,3.000000000000e+01,0.000000000000e+00
14,1.200000000000e+00,3.000000000000e+01,0.000000000000e+00
15,-1.200000000000e+00,3.000000000000e+01,2.000000000000e+00
16,1.200000000000e+00,3.000000000000e+01,2.000000000000e+00
17,-1.200000000000e+00,4.000000000000e+01,0.000000000000e+00
18,1.200000000000e+00,4.000000000000e+01,0.000000000000e+00
19,-1.200000000000e+00,4.000000000000e+01,2.000000000000e+00
20,1.200000000000e+00,4.000000000000e+01,2.000000000000e+00
21,-1.200000000000e+00,5.000000000000e+01,0.000000000000e+00
22,1.200000000000e+00,5.000000000000e+01,0.000000000000e+00
23,-1.200000000000e+00,5.000000000000e+01,2.000000000000e+00
24,1.200000000000e+00,5.000000000000e+01,2.000000000000e+00
25,-1.200000000000e+00,2.500000000000e+01,-1.500000000000e-01
26,1.200000000000e+00,2.500000000000e+01,1.500000000000e-01
27,-1.200000000000e+00,2.500000000000e+01,1.850000000000e+00
28,1.200000000000e+00,2.500000000000e+01,2.150000000000e+00
29,-1.200000000000e+00,3.250000000000e+01,-1.060660171780e-01
30,-1.200000000000e+00,3.500000000000e+01,-1.500000000000e-01
31,-1.200000000000e+00,3.750000000000e+01,-1.060660171780e-01
32,1.200000000000e+00,3.250000000000e+01,1.060660171780e-01
33,1.200000000000e+00,3.500000000000e+01,1.500000000000e-01
34,1.200000000000e+00,3.750000000000e+01,1.060660171780e-01
35,-1.200000000000e+00,3.250000000000e+01,1.893933982822e+00
36,-1.200000000000e+00,3.500000000000e+01,1.850000000000e+00
37,-1.200000000000e+00,3.750000000000e+01,1.893933982822e+00
38,1.200000000000e+00,3.250000000000e+01,2.106066017178e+00
39,1.200000000000e+00,3.500000000000e+01,2.150000000000e+00
40,1.200000000000e+00,3.750000000000e+01,2.106066017178e+00
41,0.000000000000e+00,-3.600000000000e-02,0.000000000000e+00
42,0.000000000000e+00,3.600000000000e-02,2.000000000000e+00
43,-1.200000000000e+00,3.000000000000e-02,1.000000000000e+00
44,1.200000000000e+00,-3.000000000000e-02,1.000000000000e+00
45,-6.000000000000e-01,1.997454415588e+01,0.000000000000e+00
46,0.000000000000e+00,1.996400000000e+01,0.000000000000e+00
47,6.000000000000e-01,1.997454415588e+01,0.000000000000e+00
48,-6.000000000000e-01,2.002545584412e+01,2.000000000000e+00
49,0.000000000000e+00,2.003600000000e+01,2.000000000000e+00
50,6.000000000000e-01,2.002545584412e+01,2.000000000000e+00
51,-1.200000000000e+00,2.002121320344e+01,5.000000000000e-01
52,-1.200000000000e+00,2.003000000000e+01,1.000000000000e+00
53,-1.200000000000e+00,2.002121320344e+01,1.500000000000e+00
54,1.200000000000e+00,1.997878679656e+01,5.000000000000e-01
55,1.200000000000e+00,1.997000000000e+01,1.000000000000e+00
56,1.200000000000e+00,1.997878679656e+01,1.500000000000e+00
57,0.000000000000e+00,4.996400000000e+01,0.000000000000e+00
58,0.000000000000e+00,5.003600000000e+01,2.000000000000e+00
59,-1.200000000000e+00,5.003000000000e+01,1.000000000000e+00
60,1.200000000000e+00,4.997000000000e+01,1.000000000000e+00
61,-1.200000000000e+00,1.252121320344e+01,3.939339828220e-01
62,-1.200000000000e+00,1.503000000000e+01,8.500000000000e-01
63,-1.200000000000e+00,1.752121320344e+01,1.393933982822e+00
64,-1.200000000000e+00,1.252121320344e+01,1.606066017178e+00
65,-1.200000000000e+00,1.503000000000e+01,1.150000000000e+00
66,-1.200000000000e+00,1.752121320344e+01,6.060660171780e-01
67,1.200000000000e+00,1.252121320344e+01,3.939339828220e-01
68,1.200000000000e+00,1.503000000000e+01,8.500000000000e-01
69,1.200000000000e+00,1.752121320344e+01,1.393933982822e+00
70,1.200000000000e+00,1.252121320344e+01,1.606066017178e+00
71,1.200000000000e+00,1.503000000000e+01,1.150000000000e+00
72,1.200000000000e+00,1.752121320344e+01,6.060660171780e-01
73,-4.939339828220e-01,1.247454415588e+01,0.000000000000e+00
74,1.500000000000e-01,1.496400000000e+01,0.000000000000e+00
75,7.060660171780e-01,1.747454415588e+01,0.000000000000e+00
76,4.939339828220e-01,1.247454415588e+01,0.000000000000e+00
77,-1.500000000000e-01,1.496400000000e+01,0.000000000000e+00
78,-7.060660171780e-01,1.747454415588e+01,0.000000000000e+00
79,-4.939339828220e-01,1.247454415588e+01,2.000000000000e+00
80,1.500000000000e-01,1.496400000000e+01,2.000000000000e+00
81,7.060660171780e-01,1.747454415588e+01,2.000000000000e+00
82,4.939339828220e-01,1.247454415588e+01,2.000000000000e+00
83,-1.500000000000e-01,1.496400000000e+01,2.000000000000e+00
84,-7.060660171780e-01,1.747454415588e+01,2.000000000000e+00
85,-1.200000000000e+00,3.503000000000e+01,8.500000000000e-01
86,-1.200000000000e+00,3.503000000000e+01,1.150000000000e+00
87,1.200000000000e+00,3.503000000000e+01,8.500000000000e-01
88,1.200000000000e+00,3.503000000000e+01,1.150000000000e+00
89,1.500000000000e-01,3.496400000000e+01,0.000000000000e+00
90,-1.500000000000e-01,3.496400000000e+01,0.000000000000e+00
91,1.500000000000e-01,3.496400000000e+01,2.000000000000e+00
92,-1.500000000000e-01,3.496400000000e+01,2.000000000000e+00
93,-1.200000000000e+00,4.503000000000e+01,8.500000000000e-01
94,-1.200000000000e+00,4.503000000000e+01,1.150000000000e+00
95,1.200000000000e+00,4.503000000000e+01,8.500000000000e-01
96,1.200000000000e+00,4.503000000000e+01,1.150000000000e+00
97,1.500000000000e-01,4.496400000000e+01,0.000000000000e+00
98,-1.500000000000e-01,4.496400000000e+01,0.000000000000e+00
99,1.500000000000e-01,4.496400000000e+01,2.000000000000e+00
100,-1.500000000000e-01,4.496400000000e+01,2.000000000000e+00
*ELEMENT,TYPE=B31,ELSET=ALL
1,1,5
2,2,6
3,3,7
4,4,8
5,5,9
6,6,10
7,7,11
8,8,12
9,9,25
10,25,13
11,10,26
12,26,14
13,11,27
14,27,15
15,12,28
16,28,16
17,13,29
18,29,30
19,30,31
20,31,17
21,14,32
22,32,33
23,33,34
24,34,18
25,15,35
26,35,36
27,36,37
28,37,19
29,16,38
30,38,39
31,39,40
32,40,20
33,17,21
34,18,22
35,19,23
36,20,24
37,1,41
38,41,2
39,3,42
40,42,4
41,1,43
42,43,3
43,2,44
44,44,4
45,5,6
46,7,8
47,5,7
48,6,8
49,9,45
50,45,46
51,46,47
52,47,10
53,11,48
54,48,49
55,49,50
56,50,12
57,9,51
58,51,52
59,52,53
60,53,11
61,10,54
62,54,55
63,55,56
64,56,12
65,13,14
66,15,16
67,13,15
68,14,16
69,17,18
70,19,20
71,17,19
72,18,20
73,21,57
74,57,22
75,23,58
76,58,24
77,21,59
78,59,23
79,22,60
80,60,24
81,1,7
82,3,5
83,2,8
84,4,6
85,1,6
86,2,5
87,3,8
88,4,7
89,5,61
90,61,62
91,62,63
92,63,11
93,7,64
94,64,65
95,65,66
96,66,9
97,6,67
98,67,68
99,68,69
100,69,12
101,8,70
102,70,71
103,71,72
104,72,10
105,5,73
106,73,74
107,74,75
108,75,10
109,6,76
110,76,77
111,77,78
112,78,9
113,7,79
114,79,80
115,80,81
116,81,12
117,8,82
118,82,83
119,83,84
120,84,11
121,9,15
122,11,13
123,10,16
124,12,14
125,9,14
126,10,13
127,11,16
128,12,15
129,13,85
130,85,19
131,15,86
132,86,17
133,14,87
134,87,20
135,16,88
136,88,18
137,13,89
138,89,18
139,14,90
140,90,17
141,15,91
142,91,20
143,16,92
144,92,19
145,17,93
146,93,23
147,19,94
148,94,21
149,18,95
150,95,24
151,20,96
152,96,22
153,17,97
154,97,22
155,18,98
156,98,21
157,19,99
158,99,24
159,20,100
160,100,23
*NSET,NSET=NALL,GENERATE
1,100,1
*NSET,NSET=LEFT
1,2,3,4
*NSET,NSET=RIGHT
21,22,23,24
*MATERIAL,NAME=STEEL
*ELASTIC
2.100000000000e+11,0.300000000000
*BEAM SECTION,ELSET=ALL,MATERIAL=STEEL,SECTION=RECT
6.000000000000e-02,4.000000000000e-02
0.371390676354,0.557086014531,0.742781352708
*BOUNDARY
LEFT,1,6,0.0
*STEP
*STATIC
*BOUNDARY
21,1,1,5.000000000000e-03
21,2,2,0.0
21,3,3,-6.000000000000e-03
*BOUNDARY
22,1,1,5.000000000000e-03
22,2,2,0.0
22,3,3,6.000000000000e-03
*BOUNDARY
23,1,1,-5.000000000000e-03
23,2,2,0.0
23,3,3,-6.000000000000e-03
*BOUNDARY
24,1,1,-5.000000000000e-03
24,2,2,0.0
24,3,3,6.000000000000e-03
*NODE FILE,NSET=NALL
U
*NODE PRINT,NSET=NALL
U
*NODE PRINT,NSET=RIGHT
RF
*EL PRINT,ELSET=ALL,TOTALS=YES
ELSE
*END STEP
