*HEADING
Normalized cross-passage space-truss torsion benchmark
*NODE
1,-1.200000000000e+00,0.000000000000e+00,0.000000000000e+00
2,1.200000000000e+00,0.000000000000e+00,0.000000000000e+00
3,-1.200000000000e+00,0.000000000000e+00,2.000000000000e+00
4,1.200000000000e+00,0.000000000000e+00,2.000000000000e+00
5,-1.200000000000e+00,1.000000000000e+01,0.000000000000e+00
6,1.200000000000e+00,1.000000000000e+01,0.000000000000e+00
7,-1.200000000000e+00,1.000000000000e+01,2.000000000000e+00
8,1.200000000000e+00,1.000000000000e+01,2.000000000000e+00
9,-1.200000000000e+00,2.000000000000e+01,0.000000000000e+00
10,1.200000000000e+00,2.000000000000e+01,0.000000000000e+00
11,-1.200000000000e+00,2.000000000000e+01,2.000000000000e+00
12,1.200000000000e+00,2.000000000000e+01,2.000000000000e+00
13,-1.200000000000e+00,3.000000000000e+01,0.000000000000e+00
14,1.200000000000e+00,3.000000000000e+01,0.000000000000e+00
15,-1.200000000000e+00,3.000000000000e+01,2.000000000000e+00
16,1.200000000000e+00,3.000000000000e+01,2.000000000000e+00
17,-1.200000000000e+00,4.000000000000e+01,0.000000000000e+00
18,1.200000000000e+00,4.000000000000e+01,0.000000000000e+00
19,-1.200000000000e+00,4.000000000000e+01,2.000000000000e+00
20,1.200000000000e+00,4.000000000000e+01,2.000000000000e+00
21,-1.200000000000e+00,5.000000000000e+01,0.000000000000e+00
22,1.200000000000e+00,5.000000000000e+01,0.000000000000e+00
23,-1.200000000000e+00,5.000000000000e+01,2.000000000000e+00
24,1.200000000000e+00,5.000000000000e+01,2.000000000000e+00
25,-1.200000000000e+00,1.250000000000e+00,-5.740251485476e-02
26,-1.200000000000e+00,2.500000000000e+00,-1.060660171780e-01
27,-1.200000000000e+00,3.750000000000e+00,-1.385819298767e-01
28,-1.200000000000e+00,5.000000000000e+00,-1.500000000000e-01
29,-1.200000000000e+00,6.250000000000e+00,-1.385819298767e-01
30,-1.200000000000e+00,7.500000000000e+00,-1.060660171780e-01
31,-1.200000000000e+00,8.750000000000e+00,-5.740251485476e-02
32,1.200000000000e+00,1.250000000000e+00,5.740251485476e-02
33,1.200000000000e+00,2.500000000000e+00,1.060660171780e-01
34,1.200000000000e+00,3.750000000000e+00,1.385819298767e-01
35,1.200000000000e+00,5.000000000000e+00,1.500000000000e-01
36,1.200000000000e+00,6.250000000000e+00,1.385819298767e-01
37,1.200000000000e+00,7.500000000000e+00,1.060660171780e-01
38,1.200000000000e+00,8.750000000000e+00,5.740251485476e-02
39,-1.200000000000e+00,1.250000000000e+00,1.942597485145e+00
40,-1.200000000000e+00,2.500000000000e+00,1.893933982822e+00
41,-1.200000000000e+00,3.750000000000e+00,1.861418070123e+00
42,-1.200000000000e+00,5.000000000000e+00,1.850000000000e+00
43,-1.200000000000e+00,6.250000000000e+00,1.861418070123e+00
44,-1.200000000000e+00,7.500000000000e+00,1.893933982822e+00
45,-1.200000000000e+00,8.750000000000e+00,1.942597485145e+00
46,1.200000000000e+00,1.250000000000e+00,2.057402514855e+00
47,1.200000000000e+00,2.500000000000e+00,2.106066017178e+00
48,1.200000000000e+00,3.750000000000e+00,2.138581929877e+00
49,1.200000000000e+00,5.000000000000e+00,2.150000000000e+00
50,1.200000000000e+00,6.250000000000e+00,2.138581929877e+00
51,1.200000000000e+00,7.500000000000e+00,2.106066017178e+00
52,1.200000000000e+00,8.750000000000e+00,2.057402514855e+00
53,-1.200000000000e+00,1.125000000000e+01,-5.740251485476e-02
54,-1.200000000000e+00,1.250000000000e+01,-1.060660171780e-01
55,-1.200000000000e+00,1.375000000000e+01,-1.385819298767e-01
56,-1.200000000000e+00,1.500000000000e+01,-1.500000000000e-01
57,-1.200000000000e+00,1.625000000000e+01,-1.385819298767e-01
58,-1.200000000000e+00,1.750000000000e+01,-1.060660171780e-01
59,-1.200000000000e+00,1.875000000000e+01,-5.740251485476e-02
60,1.200000000000e+00,1.125000000000e+01,5.740251485476e-02
61,1.200000000000e+00,1.250000000000e+01,1.060660171780e-01
62,1.200000000000e+00,1.375000000000e+01,1.385819298767e-01
63,1.200000000000e+00,1.500000000000e+01,1.500000000000e-01
64,1.200000000000e+00,1.625000000000e+01,1.385819298767e-01
65,1.200000000000e+00,1.750000000000e+01,1.060660171780e-01
66,1.200000000000e+00,1.875000000000e+01,5.740251485476e-02
67,-1.200000000000e+00,1.125000000000e+01,1.942597485145e+00
68,-1.200000000000e+00,1.250000000000e+01,1.893933982822e+00
69,-1.200000000000e+00,1.375000000000e+01,1.861418070123e+00
70,-1.200000000000e+00,1.500000000000e+01,1.850000000000e+00
71,-1.200000000000e+00,1.625000000000e+01,1.861418070123e+00
72,-1.200000000000e+00,1.750000000000e+01,1.893933982822e+00
73,-1.200000000000e+00,1.875000000000e+01,1.942597485145e+00
74,1.200000000000e+00,1.125000000000e+01,2.057402514855e+00
75,1.200000000000e+00,1.250000000000e+01,2.106066017178e+00
76,1.200000000000e+00,1.375000000000e+01,2.138581929877e+00
77,1.200000000000e+00,1.500000000000e+01,2.150000000000e+00
78,1.200000000000e+00,1.625000000000e+01,2.138581929877e+00
79,1.200000000000e+00,1.750000000000e+01,2.106066017178e+00
80,1.200000000000e+00,1.875000000000e+01,2.057402514855e+00
81,-1.200000000000e+00,2.500000000000e+01,-1.500000000000e-01
82,1.200000000000e+00,2.500000000000e+01,1.500000000000e-01
83,-1.200000000000e+00,2.500000000000e+01,1.850000000000e+00
84,1.200000000000e+00,2.500000000000e+01,2.150000000000e+00
85,-1.200000000000e+00,4.500000000000e+01,-1.500000000000e-01
86,1.200000000000e+00,4.500000000000e+01,1.500000000000e-01
87,-1.200000000000e+00,4.500000000000e+01,1.850000000000e+00
88,1.200000000000e+00,4.500000000000e+01,2.150000000000e+00
89,-6.000000000000e-01,-2.545584412272e-02,0.000000000000e+00
90,0.000000000000e+00,-3.600000000000e-02,0.000000000000e+00
91,6.000000000000e-01,-2.545584412272e-02,0.000000000000e+00
92,-6.000000000000e-01,2.545584412272e-02,2.000000000000e+00
93,0.000000000000e+00,3.600000000000e-02,2.000000000000e+00
94,6.000000000000e-01,2.545584412272e-02,2.000000000000e+00
95,-1.200000000000e+00,2.121320343560e-02,5.000000000000e-01
96,-1.200000000000e+00,3.000000000000e-02,1.000000000000e+00
97,-1.200000000000e+00,2.121320343560e-02,1.500000000000e+00
98,1.200000000000e+00,-2.121320343560e-02,5.000000000000e-01
99,1.200000000000e+00,-3.000000000000e-02,1.000000000000e+00
100,1.200000000000e+00,-2.121320343560e-02,1.500000000000e+00
101,-9.000000000000e-01,9.986223396435e+00,0.000000000000e+00
102,-6.000000000000e-01,9.974544155877e+00,0.000000000000e+00
103,-3.000000000000e-01,9.966740336830e+00,0.000000000000e+00
104,0.000000000000e+00,9.964000000000e+00,0.000000000000e+00
105,3.000000000000e-01,9.966740336830e+00,0.000000000000e+00
106,6.000000000000e-01,9.974544155877e+00,0.000000000000e+00
107,9.000000000000e-01,9.986223396435e+00,0.000000000000e+00
108,-9.000000000000e-01,1.001377660357e+01,2.000000000000e+00
109,-6.000000000000e-01,1.002545584412e+01,2.000000000000e+00
110,-3.000000000000e-01,1.003325966317e+01,2.000000000000e+00
111,0.000000000000e+00,1.003600000000e+01,2.000000000000e+00
112,3.000000000000e-01,1.003325966317e+01,2.000000000000e+00
113,6.000000000000e-01,1.002545584412e+01,2.000000000000e+00
114,9.000000000000e-01,1.001377660357e+01,2.000000000000e+00
115,-1.200000000000e+00,1.001148050297e+01,2.500000000000e-01
116,-1.200000000000e+00,1.002121320344e+01,5.000000000000e-01
117,-1.200000000000e+00,1.002771638598e+01,7.500000000000e-01
118,-1.200000000000e+00,1.003000000000e+01,1.000000000000e+00
119,-1.200000000000e+00,1.002771638598e+01,1.250000000000e+00
120,-1.200000000000e+00,1.002121320344e+01,1.500000000000e+00
121,-1.200000000000e+00,1.001148050297e+01,1.750000000000e+00
122,1.200000000000e+00,9.988519497029e+00,2.500000000000e-01
123,1.200000000000e+00,9.978786796564e+00,5.000000000000e-01
124,1.200000000000e+00,9.972283614025e+00,7.500000000000e-01
125,1.200000000000e+00,9.970000000000e+00,1.000000000000e+00
126,1.200000000000e+00,9.972283614025e+00,1.250000000000e+00
127,1.200000000000e+00,9.978786796564e+00,1.500000000000e+00
128,1.200000000000e+00,9.988519497029e+00,1.750000000000e+00
129,0.000000000000e+00,1.996400000000e+01,0.000000000000e+00
130,0.000000000000e+00,2.003600000000e+01,2.000000000000e+00
131,-1.200000000000e+00,2.003000000000e+01,1.000000000000e+00
132,1.200000000000e+00,1.997000000000e+01,1.000000000000e+00
133,-6.000000000000e-01,3.997454415588e+01,0.000000000000e+00
134,0.000000000000e+00,3.996400000000e+01,0.000000000000e+00
135,6.000000000000e-01,3.997454415588e+01,0.000000000000e+00
136,-6.000000000000e-01,4.002545584412e+01,2.000000000000e+00
137,0.000000000000e+00,4.003600000000e+01,2.000000000000e+00
138,6.000000000000e-01,4.002545584412e+01,2.000000000000e+00
139,-1.200000000000e+00,4.002121320344e+01,5.000000000000e-01
140,-1.200000000000e+00,4.003000000000e+01,1.000000000000e+00
141,-1.200000000000e+00,4.002121320344e+01,1.500000000000e+00
142,1.200000000000e+00,3.997878679656e+01,5.000000000000e-01
143,1.200000000000e+00,3.997000000000e+01,1.000000000000e+00
144,1.200000000000e+00,3.997878679656e+01,1.500000000000e+00
145,-1.200000000000e+00,1.261480502971e+00,1.925974851452e-01
146,-1.200000000000e+00,2.521213203436e+00,3.939339828220e-01
147,-1.200000000000e+00,3.777716385975e+00,6.114180701233e-01
148,-1.200000000000e+00,5.030000000000e+00,8.500000000000e-01
149,-1.200000000000e+00,6.277716385975e+00,1.111418070123e+00
150,-1.200000000000e+00,7.521213203436e+00,1.393933982822e+00
151,-1.200000000000e+00,8.761480502971e+00,1.692597485145e+00
152,-1.200000000000e+00,1.261480502971e+00,1.807402514855e+00
153,-1.200000000000e+00,2.521213203436e+00,1.606066017178e+00
154,-1.200000000000e+00,3.777716385975e+00,1.388581929877e+00
155,-1.200000000000e+00,5.030000000000e+00,1.150000000000e+00
156,-1.200000000000e+00,6.277716385975e+00,8.885819298767e-01
157,-1.200000000000e+00,7.521213203436e+00,6.060660171780e-01
158,-1.200000000000e+00,8.761480502971e+00,3.074025148548e-01
159,1.200000000000e+00,1.261480502971e+00,1.925974851452e-01
160,1.200000000000e+00,2.521213203436e+00,3.939339828220e-01
161,1.200000000000e+00,3.777716385975e+00,6.114180701233e-01
162,1.200000000000e+00,5.030000000000e+00,8.500000000000e-01
163,1.200000000000e+00,6.277716385975e+00,1.111418070123e+00
164,1.200000000000e+00,7.521213203436e+00,1.393933982822e+00
165,1.200000000000e+00,8.761480502971e+00,1.692597485145e+00
166,1.200000000000e+00,1.261480502971e+00,1.807402514855e+00
167,1.200000000000e+00,2.521213203436e+00,1.606066017178e+00
168,1.200000000000e+00,3.777716385975e+00,1.388581929877e+00
169,1.200000000000e+00,5.030000000000e+00,1.150000000000e+00
170,1.200000000000e+00,6.277716385975e+00,8.885819298767e-01
171,1.200000000000e+00,7.521213203436e+00,6.060660171780e-01
172,1.200000000000e+00,8.761480502971e+00,3.074025148548e-01
173,-8.425974851452e-01,1.236223396435e+00,0.000000000000e+00
174,-4.939339828220e-01,2.474544155877e+00,0.000000000000e+00
175,-1.614180701233e-01,3.716740336830e+00,0.000000000000e+00
176,1.500000000000e-01,4.964000000000e+00,0.000000000000e+00
177,4.385819298767e-01,6.216740336830e+00,0.000000000000e+00
178,7.060660171780e-01,7.474544155877e+00,0.000000000000e+00
179,9.574025148548e-01,8.736223396435e+00,0.000000000000e+00
180,8.425974851452e-01,1.236223396435e+00,0.000000000000e+00
181,4.939339828220e-01,2.474544155877e+00,0.000000000000e+00
182,1.614180701233e-01,3.716740336830e+00,0.000000000000e+00
183,-1.500000000000e-01,4.964000000000e+00,0.000000000000e+00
184,-4.385819298767e-01,6.216740336830e+00,0.000000000000e+00
185,-7.060660171780e-01,7.474544155877e+00,0.000000000000e+00
186,-9.574025148548e-01,8.736223396435e+00,0.000000000000e+00
187,-8.425974851452e-01,1.236223396435e+00,2.000000000000e+00
188,-4.939339828220e-01,2.474544155877e+00,2.000000000000e+00
189,-1.614180701233e-01,3.716740336830e+00,2.000000000000e+00
190,1.500000000000e-01,4.964000000000e+00,2.000000000000e+00
191,4.385819298767e-01,6.216740336830e+00,2.000000000000e+00
192,7.060660171780e-01,7.474544155877e+00,2.000000000000e+00
193,9.574025148548e-01,8.736223396435e+00,2.000000000000e+00
194,8.425974851452e-01,1.236223396435e+00,2.000000000000e+00
195,4.939339828220e-01,2.474544155877e+00,2.000000000000e+00
196,1.614180701233e-01,3.716740336830e+00,2.000000000000e+00
197,-1.500000000000e-01,4.964000000000e+00,2.000000000000e+00
198,-4.385819298767e-01,6.216740336830e+00,2.000000000000e+00
199,-7.060660171780e-01,7.474544155877e+00,2.000000000000e+00
200,-9.574025148548e-01,8.736223396435e+00,2.000000000000e+00
201,-1.200000000000e+00,1.126148050297e+01,1.925974851452e-01
202,-1.200000000000e+00,1.252121320344e+01,3.939339828220e-01
203,-1.200000000000e+00,1.377771638598e+01,6.114180701233e-01
204,-1.200000000000e+00,1.503000000000e+01,8.500000000000e-01
205,-1.200000000000e+00,1.627771638598e+01,1.111418070123e+00
206,-1.200000000000e+00,1.752121320344e+01,1.393933982822e+00
207,-1.200000000000e+00,1.876148050297e+01,1.692597485145e+00
208,-1.200000000000e+00,1.126148050297e+01,1.807402514855e+00
209,-1.200000000000e+00,1.252121320344e+01,1.606066017178e+00
210,-1.200000000000e+00,1.377771638598e+01,1.388581929877e+00
211,-1.200000000000e+00,1.503000000000e+01,1.150000000000e+00
212,-1.200000000000e+00,1.627771638598e+01,8.885819298767e-01
213,-1.200000000000e+00,1.752121320344e+01,6.060660171780e-01
214,-1.200000000000e+00,1.876148050297e+01,3.074025148548e-01
215,1.200000000000e+00,1.126148050297e+01,1.925974851452e-01
216,1.200000000000e+00,1.252121320344e+01,3.939339828220e-01
217,1.200000000000e+00,1.377771638598e+01,6.114180701233e-01
218,1.200000000000e+00,1.503000000000e+01,8.500000000000e-01
219,1.200000000000e+00,1.627771638598e+01,1.111418070123e+00
220,1.200000000000e+00,1.752121320344e+01,1.393933982822e+00
221,1.200000000000e+00,1.876148050297e+01,1.692597485145e+00
222,1.200000000000e+00,1.126148050297e+01,1.807402514855e+00
223,1.200000000000e+00,1.252121320344e+01,1.606066017178e+00
224,1.200000000000e+00,1.377771638598e+01,1.388581929877e+00
225,1.200000000000e+00,1.503000000000e+01,1.150000000000e+00
226,1.200000000000e+00,1.627771638598e+01,8.885819298767e-01
227,1.200000000000e+00,1.752121320344e+01,6.060660171780e-01
228,1.200000000000e+00,1.876148050297e+01,3.074025148548e-01
229,-8.425974851452e-01,1.123622339643e+01,0.000000000000e+00
230,-4.939339828220e-01,1.247454415588e+01,0.000000000000e+00
231,-1.614180701233e-01,1.371674033683e+01,0.000000000000e+00
232,1.500000000000e-01,1.496400000000e+01,0.000000000000e+00
233,4.385819298767e-01,1.621674033683e+01,0.000000000000e+00
234,7.060660171780e-01,1.747454415588e+01,0.000000000000e+00
235,9.574025148548e-01,1.873622339643e+01,0.000000000000e+00
236,8.425974851452e-01,1.123622339643e+01,0.000000000000e+00
237,4.939339828220e-01,1.247454415588e+01,0.000000000000e+00
238,1.614180701233e-01,1.371674033683e+01,0.000000000000e+00
239,-1.500000000000e-01,1.496400000000e+01,0.000000000000e+00
240,-4.385819298767e-01,1.621674033683e+01,0.000000000000e+00
241,-7.060660171780e-01,1.747454415588e+01,0.000000000000e+00
242,-9.574025148548e-01,1.873622339643e+01,0.000000000000e+00
243,-8.425974851452e-01,1.123622339643e+01,2.000000000000e+00
244,-4.939339828220e-01,1.247454415588e+01,2.000000000000e+00
245,-1.614180701233e-01,1.371674033683e+01,2.000000000000e+00
246,1.500000000000e-01,1.496400000000e+01,2.000000000000e+00
247,4.385819298767e-01,1.621674033683e+01,2.000000000000e+00
248,7.060660171780e-01,1.747454415588e+01,2.000000000000e+00
249,9.574025148548e-01,1.873622339643e+01,2.000000000000e+00
250,8.425974851452e-01,1.123622339643e+01,2.000000000000e+00
251,4.939339828220e-01,1.247454415588e+01,2.000000000000e+00
252,1.614180701233e-01,1.371674033683e+01,2.000000000000e+00
253,-1.500000000000e-01,1.496400000000e+01,2.000000000000e+00
254,-4.385819298767e-01,1.621674033683e+01,2.000000000000e+00
255,-7.060660171780e-01,1.747454415588e+01,2.000000000000e+00
256,-9.574025148548e-01,1.873622339643e+01,2.000000000000e+00
257,-1.200000000000e+00,3.503000000000e+01,8.500000000000e-01
258,-1.200000000000e+00,3.503000000000e+01,1.150000000000e+00
259,1.200000000000e+00,3.503000000000e+01,8.500000000000e-01
260,1.200000000000e+00,3.503000000000e+01,1.150000000000e+00
261,1.500000000000e-01,3.496400000000e+01,0.000000000000e+00
262,-1.500000000000e-01,3.496400000000e+01,0.000000000000e+00
263,1.500000000000e-01,3.496400000000e+01,2.000000000000e+00
264,-1.500000000000e-01,3.496400000000e+01,2.000000000000e+00
265,-1.200000000000e+00,4.503000000000e+01,8.500000000000e-01
266,-1.200000000000e+00,4.503000000000e+01,1.150000000000e+00
267,1.200000000000e+00,4.503000000000e+01,8.500000000000e-01
268,1.200000000000e+00,4.503000000000e+01,1.150000000000e+00
269,1.500000000000e-01,4.496400000000e+01,0.000000000000e+00
270,-1.500000000000e-01,4.496400000000e+01,0.000000000000e+00
271,1.500000000000e-01,4.496400000000e+01,2.000000000000e+00
272,-1.500000000000e-01,4.496400000000e+01,2.000000000000e+00
*ELEMENT,TYPE=B31,ELSET=ALL
1,1,25
2,25,26
3,26,27
4,27,28
5,28,29
6,29,30
7,30,31
8,31,5
9,2,32
10,32,33
11,33,34
12,34,35
13,35,36
14,36,37
15,37,38
16,38,6
17,3,39
18,39,40
19,40,41
20,41,42
21,42,43
22,43,44
23,44,45
24,45,7
25,4,46
26,46,47
27,47,48
28,48,49
29,49,50
30,50,51
31,51,52
32,52,8
33,5,53
34,53,54
35,54,55
36,55,56
37,56,57
38,57,58
39,58,59
40,59,9
41,6,60
42,60,61
43,61,62
44,62,63
45,63,64
46,64,65
47,65,66
48,66,10
49,7,67
50,67,68
51,68,69
52,69,70
53,70,71
54,71,72
55,72,73
56,73,11
57,8,74
58,74,75
59,75,76
60,76,77
61,77,78
62,78,79
63,79,80
64,80,12
65,9,81
66,81,13
67,10,82
68,82,14
69,11,83
70,83,15
71,12,84
72,84,16
73,13,17
74,14,18
75,15,19
76,16,20
77,17,85
78,85,21
79,18,86
80,86,22
81,19,87
82,87,23
83,20,88
84,88,24
85,1,89
86,89,90
87,90,91
88,91,2
89,3,92
90,92,93
91,93,94
92,94,4
93,1,95
94,95,96
95,96,97
96,97,3
97,2,98
98,98,99
99,99,100
100,100,4
101,5,101
102,101,102
103,102,103
104,103,104
105,104,105
106,105,106
107,106,107
108,107,6
109,7,108
110,108,109
111,109,110
112,110,111
113,111,112
114,112,113
115,113,114
116,114,8
117,5,115
118,115,116
119,116,117
120,117,118
121,118,119
122,119,120
123,120,121
124,121,7
125,6,122
126,122,123
127,123,124
128,124,125
129,125,126
130,126,127
131,127,128
132,128,8
133,9,129
134,129,10
135,11,130
136,130,12
137,9,131
138,131,11
139,10,132
140,132,12
141,13,14
142,15,16
143,13,15
144,14,16
145,17,133
146,133,134
147,134,135
148,135,18
149,19,136
150,136,137
151,137,138
152,138,20
153,17,139
154,139,140
155,140,141
156,141,19
157,18,142
158,142,143
159,143,144
160,144,20
161,21,22
162,23,24
163,21,23
164,22,24
165,1,145
166,145,146
167,146,147
168,147,148
169,148,149
170,149,150
171,150,151
172,151,7
173,3,152
174,152,153
175,153,154
176,154,155
177,155,156
178,156,157
179,157,158
180,158,5
181,2,159
182,159,160
183,160,161
184,161,162
185,162,163
186,163,164
187,164,165
188,165,8
189,4,166
190,166,167
191,167,168
192,168,169
193,169,170
194,170,171
195,171,172
196,172,6
197,1,173
198,173,174
199,174,175
200,175,176
201,176,177
202,177,178
203,178,179
204,179,6
205,2,180
206,180,181
207,181,182
208,182,183
209,183,184
210,184,185
211,185,186
212,186,5
213,3,187
214,187,188
215,188,189
216,189,190
217,190,191
218,191,192
219,192,193
220,193,8
221,4,194
222,194,195
223,195,196
224,196,197
225,197,198
226,198,199
227,199,200
228,200,7
229,5,201
230,201,202
231,202,203
232,203,204
233,204,205
234,205,206
235,206,207
236,207,11
237,7,208
238,208,209
239,209,210
240,210,211
241,211,212
242,212,213
243,213,214
244,214,9
245,6,215
246,215,216
247,216,217
248,217,218
249,218,219
250,219,220
251,220,221
252,221,12
253,8,222
254,222,223
255,223,224
256,224,225
257,225,226
258,226,227
259,227,228
260,228,10
261,5,229
262,229,230
263,230,231
264,231,232
265,232,233
266,233,234
267,234,235
268,235,10
269,6,236
270,236,237
271,237,238
272,238,239
273,239,240
274,240,241
275,241,242
276,242,9
277,7,243
278,243,244
279,244,245
280,245,246
281,246,247
282,247,248
283,248,249
284,249,12
285,8,250
286,250,251
287,251,252
288,252,253
289,253,254
290,254,255
291,255,256
292,256,11
293,9,15
294,11,13
295,10,16
296,12,14
297,9,14
298,10,13
299,11,16
300,12,15
301,13,257
302,257,19
303,15,258
304,258,17
305,14,259
306,259,20
307,16,260
308,260,18
309,13,261
310,261,18
311,14,262
312,262,17
313,15,263
314,263,20
315,16,264
316,264,19
317,17,265
318,265,23
319,19,266
320,266,21
321,18,267
322,267,24
323,20,268
324,268,22
325,17,269
326,269,22
327,18,270
328,270,21
329,19,271
330,271,24
331,20,272
332,272,23
*NSET,NSET=NALL,GENERATE
1,272,1
*NSET,NSET=LEFT
1,2,3,4
*NSET,NSET=RIGHT
21,22,23,24
*MATERIAL,NAME=STEEL
*ELASTIC
2.100000000000e+11,0.300000000000
*BEAM SECTION,ELSET=ALL,MATERIAL=STEEL,SECTION=RECT
6.000000000000e-02,4.000000000000e-02
0.371390676354,0.557086014531,0.742781352708
*BOUNDARY
LEFT,1,6,0.0
*STEP
*STATIC
*BOUNDARY
21,1,1,5.000000000000e-03
21,2,2,0.0
21,3,3,-6.000000000000e-03
*BOUNDARY
22,1,1,5.000000000000e-03
22,2,2,0.0
22,3,3,6.000000000000e-03
*BOUNDARY
23,1,1,-5.000000000000e-03
23,2,2,0.0
23,3,3,-6.000000000000e-03
*BOUNDARY
24,1,1,-5.000000000000e-03
24,2,2,0.0
24,3,3,6.000000000000e-03
*NODE FILE,NSET=NALL
U
*NODE PRINT,NSET=NALL
U
*NODE PRINT,NSET=RIGHT
RF
*EL PRINT,ELSET=ALL,TOTALS=YES
ELSE
*END STEP
