*HEADING
Normalized cross-passage space-truss torsion benchmark
*NODE
1,-1.200000000000e+00,0.000000000000e+00,0.000000000000e+00
2,1.200000000000e+00,0.000000000000e+00,0.000000000000e+00
3,-1.200000000000e+00,0.000000000000e+00,2.000000000000e+00
4,1.200000000000e+00,0.000000000000e+00,2.000000000000e+00
5,-1.200000000000e+00,1.000000000000e+01,0.000000000000e+00
6,1.200000000000e+00,1.000000000000e+01,0.000000000000e+00
7,-1.200000000000e+00,1.000000000000e+01,2.000000000000e+00
8,1.200000000000e+00,1.000000000000e+01,2.000000000000e+00
9,-1.200000000000e+00,2.000000000000e+01,0.000000000000e+00
10,1.200000000000e+00,2.000000000000e+01,0.000000000000e+00
11,-1.200000000000e+00,2.000000000000e+01,2.000000000000e+00
12,1.200000000000e+00,2.000000000000e+01,2.000000000000e+00
13,-1.200000000000e+00,3.000000000000e+01,0.000000000000e+00
14,1.200000000000e+00,3.000000000000e+01,0.000000000000e+00
15,-1.200000000000e+00,3.000000000000e+01,2.000000000000e+00
16,1.200000000000e+00,3.000000000000e+01,2.000000000000e+00
17,-1.200000000000e+00,4.000000000000e+01,0.000000000000e+00
18,1.200000000000e+00,4.000000000000e+01,0.000000000000e+00
19,-1.200000000000e+00,4.000000000000e+01,2.000000000000e+00
20,1.200000000000e+00,4.000000000000e+01,2.000000000000e+00
21,-1.200000000000e+00,5.000000000000e+01,0.000000000000e+00
22,1.200000000000e+00,5.000000000000e+01,0.000000000000e+00
23,-1.200000000000e+00,5.000000000000e+01,2.000000000000e+00
24,1.200000000000e+00,5.000000000000e+01,2.000000000000e+00
25,-1.200000000000e+00,2.500000000000e+00,-1.060660171780e-01
26,-1.200000000000e+00,5.000000000000e+00,-1.500000000000e-01
27,-1.200000000000e+00,7.500000000000e+00,-1.060660171780e-01
28,1.200000000000e+00,2.500000000000e+00,1.060660171780e-01
29,1.200000000000e+00,5.000000000000e+00,1.500000000000e-01
30,1.200000000000e+00,7.500000000000e+00,1.060660171780e-01
31,-1.200000000000e+00,2.500000000000e+00,1.893933982822e+00
32,-1.200000000000e+00,5.000000000000e+00,1.850000000000e+00
33,-1.200000000000e+00,7.500000000000e+00,1.893933982822e+00
34,1.200000000000e+00,2.500000000000e+00,2.106066017178e+00
35,1.200000000000e+00,5.000000000000e+00,2.150000000000e+00
36,1.200000000000e+00,7.500000000000e+00,2.106066017178e+00
37,-1.200000000000e+00,1.250000000000e+01,-1.060660171780e-01
38,-1.200000000000e+00,1.500000000000e+01,-1.500000000000e-01
39,-1.200000000000e+00,1.750000000000e+01,-1.060660171780e-01
40,1.200000000000e+00,1.250000000000e+01,1.060660171780e-01
41,1.200000000000e+00,1.500000000000e+01,1.500000000000e-01
42,1.200000000000e+00,1.750000000000e+01,1.060660171780e-01
43,-1.200000000000e+00,1.250000000000e+01,1.893933982822e+00
44,-1.200000000000e+00,1.500000000000e+01,1.850000000000e+00
45,-1.200000000000e+00,1.750000000000e+01,1.893933982822e+00
46,1.200000000000e+00,1.250000000000e+01,2.106066017178e+00
47,1.200000000000e+00,1.500000000000e+01,2.150000000000e+00
48,1.200000000000e+00,1.750000000000e+01,2.106066017178e+00
49,-1.200000000000e+00,2.250000000000e+01,-1.060660171780e-01
50,-1.200000000000e+00,2.500000000000e+01,-1.500000000000e-01
51,-1.200000000000e+00,2.750000000000e+01,-1.060660171780e-01
52,1.200000000000e+00,2.250000000000e+01,1.060660171780e-01
53,1.200000000000e+00,2.500000000000e+01,1.500000000000e-01
54,1.200000000000e+00,2.750000000000e+01,1.060660171780e-01
55,-1.200000000000e+00,2.250000000000e+01,1.893933982822e+00
56,-1.200000000000e+00,2.500000000000e+01,1.850000000000e+00
57,-1.200000000000e+00,2.750000000000e+01,1.893933982822e+00
58,1.200000000000e+00,2.250000000000e+01,2.106066017178e+00
59,1.200000000000e+00,2.500000000000e+01,2.150000000000e+00
60,1.200000000000e+00,2.750000000000e+01,2.106066017178e+00
61,-1.200000000000e+00,3.250000000000e+01,-1.060660171780e-01
62,-1.200000000000e+00,3.500000000000e+01,-1.500000000000e-01
63,-1.200000000000e+00,3.750000000000e+01,-1.060660171780e-01
64,1.200000000000e+00,3.250000000000e+01,1.060660171780e-01
65,1.200000000000e+00,3.500000000000e+01,1.500000000000e-01
66,1.200000000000e+00,3.750000000000e+01,1.060660171780e-01
67,-1.200000000000e+00,3.250000000000e+01,1.893933982822e+00
68,-1.200000000000e+00,3.500000000000e+01,1.850000000000e+00
69,-1.200000000000e+00,3.750000000000e+01,1.893933982822e+00
70,1.200000000000e+00,3.250000000000e+01,2.106066017178e+00
71,1.200000000000e+00,3.500000000000e+01,2.150000000000e+00
72,1.200000000000e+00,3.750000000000e+01,2.106066017178e+00
73,-1.200000000000e+00,4.250000000000e+01,-1.060660171780e-01
74,-1.200000000000e+00,4.500000000000e+01,-1.500000000000e-01
75,-1.200000000000e+00,4.750000000000e+01,-1.060660171780e-01
76,1.200000000000e+00,4.250000000000e+01,1.060660171780e-01
77,1.200000000000e+00,4.500000000000e+01,1.500000000000e-01
78,1.200000000000e+00,4.750000000000e+01,1.060660171780e-01
79,-1.200000000000e+00,4.250000000000e+01,1.893933982822e+00
80,-1.200000000000e+00,4.500000000000e+01,1.850000000000e+00
81,-1.200000000000e+00,4.750000000000e+01,1.893933982822e+00
82,1.200000000000e+00,4.250000000000e+01,2.106066017178e+00
83,1.200000000000e+00,4.500000000000e+01,2.150000000000e+00
84,1.200000000000e+00,4.750000000000e+01,2.106066017178e+00
85,-6.000000000000e-01,-2.545584412272e-02,0.000000000000e+00
86,0.000000000000e+00,-3.600000000000e-02,0.000000000000e+00
87,6.000000000000e-01,-2.545584412272e-02,0.000000000000e+00
88,-6.000000000000e-01,2.545584412272e-02,2.000000000000e+00
89,0.000000000000e+00,3.600000000000e-02,2.000000000000e+00
90,6.000000000000e-01,2.545584412272e-02,2.000000000000e+00
91,-1.200000000000e+00,2.121320343560e-02,5.000000000000e-01
92,-1.200000000000e+00,3.000000000000e-02,1.000000000000e+00
93,-1.200000000000e+00,2.121320343560e-02,1.500000000000e+00
94,1.200000000000e+00,-2.121320343560e-02,5.000000000000e-01
95,1.200000000000e+00,-3.000000000000e-02,1.000000000000e+00
96,1.200000000000e+00,-2.121320343560e-02,1.500000000000e+00
97,-6.000000000000e-01,9.974544155877e+00,0.000000000000e+00
98,0.000000000000e+00,9.964000000000e+00,0.000000000000e+00
99,6.000000000000e-01,9.974544155877e+00,0.000000000000e+00
100,-6.000000000000e-01,1.002545584412e+01,2.000000000000e+00
101,0.000000000000e+00,1.003600000000e+01,2.000000000000e+00
102,6.000000000000e-01,1.002545584412e+01,2.000000000000e+00
103,-1.200000000000e+00,1.002121320344e+01,5.000000000000e-01
104,-1.200000000000e+00,1.003000000000e+01,1.000000000000e+00
105,-1.200000000000e+00,1.002121320344e+01,1.500000000000e+00
106,1.200000000000e+00,9.978786796564e+00,5.000000000000e-01
107,1.200000000000e+00,9.970000000000e+00,1.000000000000e+00
108,1.200000000000e+00,9.978786796564e+00,1.500000000000e+00
109,-6.000000000000e-01,1.997454415588e+01,0.000000000000e+00
110,0.000000000000e+00,1.996400000000e+01,0.000000000000e+00
111,6.000000000000e-01,1.997454415588e+01,0.000000000000e+00
112,-6.000000000000e-01,2.002545584412e+01,2.000000000000e+00
113,0.000000000000e+00,2.003600000000e+01,2.000000000000e+00
114,6.000000000000e-01,2.002545584412e+01,2.000000000000e+00
115,-1.200000000000e+00,2.002121320344e+01,5.000000000000e-01
116,-1.200000000000e+00,2.003000000000e+01,1.000000000000e+00
117,-1.200000000000e+00,2.002121320344e+01,1.500000000000e+00
118,1.200000000000e+00,1.997878679656e+01,5.000000000000e-01
119,1.200000000000e+00,1.997000000000e+01,1.000000000000e+00
120,1.200000000000e+00,1.997878679656e+01,1.500000000000e+00
121,-6.000000000000e-01,2.997454415588e+01,0.000000000000e+00
122,0.000000000000e+00,2.996400000000e+01,0.000000000000e+00
123,6.000000000000e-01,2.997454415588e+01,0.000000000000e+00
124,-6.000000000000e-01,3.002545584412e+01,2.000000000000e+00
125,0.000000000000e+00,3.003600000000e+01,2.000000000000e+00
126,6.000000000000e-01,3.002545584412e+01,2.000000000000e+00
127,-1.200000000000e+00,3.002121320344e+01,5.000000000000e-01
128,-1.200000000000e+00,3.003000000000e+01,1.000000000000e+00
129,-1.200000000000e+00,3.002121320344e+01,1.500000000000e+00
130,1.200000000000e+00,2.997878679656e+01,5.000000000000e-01
131,1.200000000000e+00,2.997000000000e+01,1.000000000000e+00
132,1.200000000000e+00,2.997878679656e+01,1.500000000000e+00
133,-6.000000000000e-01,3.997454415588e+01,0.000000000000e+00
134,0.000000000000e+00,3.996400000000e+01,0.000000000000e+00
135,6.000000000000e-01,3.997454415588e+01,0.000000000000e+00
136,-6.000000000000e-01,4.002545584412e+01,2.000000000000e+00
137,0.000000000000e+00,4.003600000000e+01,2.000000000000e+00
138,6.000000000000e-01,4.002545584412e+01,2.000000000000e+00
139,-1.200000000000e+00,4.002121320344e+01,5.000000000000e-01
140,-1.200000000000e+00,4.003000000000e+01,1.000000000000e+00
141,-1.200000000000e+00,4.002121320344e+01,1.500000000000e+00
142,1.200000000000e+00,3.997878679656e+01,5.000000000000e-01
143,1.200000000000e+00,3.997000000000e+01,1.000000000000e+00
144,1.200000000000e+00,3.997878679656e+01,1.500000000000e+00
145,-6.000000000000e-01,4.997454415588e+01,0.000000000000e+00
146,0.000000000000e+00,4.996400000000e+01,0.000000000000e+00
147,6.000000000000e-01,4.997454415588e+01,0.000000000000e+00
148,-6.000000000000e-01,5.002545584412e+01,2.000000000000e+00
149,0.000000000000e+00,5.003600000000e+01,2.000000000000e+00
150,6.000000000000e-01,5.002545584412e+01,2.000000000000e+00
151,-1.200000000000e+00,5.002121320344e+01,5.000000000000e-01
152,-1.200000000000e+00,5.003000000000e+01,1.000000000000e+00
153,-1.200000000000e+00,5.002121320344e+01,1.500000000000e+00
154,1.200000000000e+00,4.997878679656e+01,5.000000000000e-01
155,1.200000000000e+00,4.997000000000e+01,1.000000000000e+00
156,1.200000000000e+00,4.997878679656e+01,1.500000000000e+00
157,-1.200000000000e+00,2.521213203436e+00,3.939339828220e-01
158,-1.200000000000e+00,5.030000000000e+00,8.500000000000e-01
159,-1.200000000000e+00,7.521213203436e+00,1.393933982822e+00
160,-1.200000000000e+00,2.521213203436e+00,1.606066017178e+00
161,-1.200000000000e+00,5.030000000000e+00,1.150000000000e+00
162,-1.200000000000e+00,7.521213203436e+00,6.060660171780e-01
163,1.200000000000e+00,2.521213203436e+00,3.939339828220e-01
164,1.200000000000e+00,5.030000000000e+00,8.500000000000e-01
165,1.200000000000e+00,7.521213203436e+00,1.393933982822e+00
166,1.200000000000e+00,2.521213203436e+00,1.606066017178e+00
167,1.200000000000e+00,5.030000000000e+00,1.150000000000e+00
168,1.200000000000e+00,7.521213203436e+00,6.060660171780e-01
169,-4.939339828220e-01,2.474544155877e+00,0.000000000000e+00
170,1.500000000000e-01,4.964000000000e+00,0.000000000000e+00
171,7.060660171780e-01,7.474544155877e+00,0.000000000000e+00
172,4.939339828220e-01,2.474544155877e+00,0.000000000000e+00
173,-1.500000000000e-01,4.964000000000e+00,0.000000000000e+00
174,-7.060660171780e-01,7.474544155877e+00,0.000000000000e+00
175,-4.939339828220e-01,2.474544155877e+00,2.000000000000e+00
176,1.500000000000e-01,4.964000000000e+00,2.000000000000e+00
177,7.060660171780e-01,7.474544155877e+00,2.000000000000e+00
178,4.939339828220e-01,2.474544155877e+00,2.000000000000e+00
179,-1.500000000000e-01,4.964000000000e+00,2.000000000000e+00
180,-7.060660171780e-01,7.474544155877e+00,2.000000000000e+00
181,-1.200000000000e+00,1.252121320344e+01,3.939339828220e-01
182,-1.200000000000e+00,1.503000000000e+01,8.500000000000e-01
183,-1.200000000000e+00,1.752121320344e+01,1.393933982822e+00
184,-1.200000000000e+00,1.252121320344e+01,1.606066017178e+00
185,-1.200000000000e+00,1.503000000000e+01,1.150000000000e+00
186,-1.200000000000e+00,1.752121320344e+01,6.060660171780e-01
187,1.200000000000e+00,1.252121320344e+01,3.939339828220e-01
188,1.200000000000e+00,1.503000000000e+01,8.500000000000e-01
189,1.200000000000e+00,1.752121320344e+01,1.393933982822e+00
190,1.200000000000e+00,1.252121320344e+01,1.606066017178e+00
191,1.200000000000e+00,1.503000000000e+01,1.150000000000e+00
192,1.200000000000e+00,1.752121320344e+01,6.060660171780e-01
193,-4.939339828220e-01,1.247454415588e+01,0.000000000000e+00
194,1.500000000000e-01,1.496400000000e+01,0.000000000000e+00
195,7.060660171780e-01,1.747454415588e+01,0.000000000000e+00
196,4.939339828220e-01,1.247454415588e+01,0.000000000000e+00
197,-1.500000000000e-01,1.496400000000e+01,0.000000000000e+00
198,-7.060660171780e-01,1.747454415588e+01,0.000000000000e+00
199,-4.939339828220e-01,1.247454415588e+01,2.000000000000e+00
200,1.500000000000e-01,1.496400000000e+01,2.000000000000e+00
201,7.060660171780e-01,1.747454415588e+01,2.000000000000e+00
202,4.939339828220e-01,1.247454415588e+01,2.000000000000e+00
203,-1.500000000000e-01,1.496400000000e+01,2.000000000000e+00
204,-7.060660171780e-01,1.747454415588e+01,2.000000000000e+00
205,-1.200000000000e+00,2.252121320344e+01,3.939339828220e-01
206,-1.200000000000e+00,2.503000000000e+01,8.500000000000e-01
207,-1.200000000000e+00,2.752121320344e+01,1.393933982822e+00
208,-1.200000000000e+00,2.252121320344e+01,1.606066017178e+00
209,-1.200000000000e+00,2.503000000000e+01,1.150000000000e+00
210,-1.200000000000e+00,2.752121320344e+01,6.060660171780e-01
211,1.200000000000e+00,2.252121320344e+01,3.939339828220e-01
212,1.200000000000e+00,2.503000000000e+01,8.500000000000e-01
213,1.200000000000e+00,2.752121320344e+01,1.393933982822e+00
214,1.200000000000e+00,2.252121320344e+01,1.606066017178e+00
215,1.200000000000e+00,2.503000000000e+01,1.150000000000e+00
216,1.200000000000e+00,2.752121320344e+01,6.060660171780e-01
217,-4.939339828220e-01,2.247454415588e+01,0.000000000000e+00
218,1.500000000000e-01,2.496400000000e+01,0.000000000000e+00
219,7.060660171780e-01,2.747454415588e+01,0.000000000000e+00
220,4.939339828220e-01,2.247454415588e+01,0.000000000000e+00
221,-1.500000000000e-01,2.496400000000e+01,0.000000000000e+00
222,-7.060660171780e-01,2.747454415588e+01,0.000000000000e+00
223,-4.939339828220e-01,2.247454415588e+01,2.000000000000e+00
224,1.500000000000e-01,2.496400000000e+01,2.000000000000e+00
225,7.060660171780e-01,2.747454415588e+01,2.000000000000e+00
226,4.939339828220e-01,2.247454415588e+01,2.000000000000e+00
227,-1.500000000000e-01,2.496400000000e+01,2.000000000000e+00
228,-7.060660171780e-01,2.747454415588e+01,2.000000000000e+00
229,-1.200000000000e+00,3.252121320344e+01,3.939339828220e-01
230,-1.200000000000e+00,3.503000000000e+01,8.500000000000e-01
231,-1.200000000000e+00,3.752121320344e+01,1.393933982822e+00
232,-1.200000000000e+00,3.252121320344e+01,1.606066017178e+00
233,-1.200000000000e+00,3.503000000000e+01,1.150000000000e+00
234,-1.200000000000e+00,3.752121320344e+01,6.060660171780e-01
235,1.200000000000e+00,3.252121320344e+01,3.939339828220e-01
236,1.200000000000e+00,3.503000000000e+01,8.500000000000e-01
237,1.200000000000e+00,3.752121320344e+01,1.393933982822e+00
238,1.200000000000e+00,3.252121320344e+01,1.606066017178e+00
239,1.200000000000e+00,3.503000000000e+01,1.150000000000e+00
240,1.200000000000e+00,3.752121320344e+01,6.060660171780e-01
241,-4.939339828220e-01,3.247454415588e+01,0.000000000000e+00
242,1.500000000000e-01,3.496400000000e+01,0.000000000000e+00
243,7.060660171780e-01,3.747454415588e+01,0.000000000000e+00
244,4.939339828220e-01,3.247454415588e+01,0.000000000000e+00
245,-1.500000000000e-01,3.496400000000e+01,0.000000000000e+00
246,-7.060660171780e-01,3.747454415588e+01,0.000000000000e+00
247,-4.939339828220e-01,3.247454415588e+01,2.000000000000e+00
248,1.500000000000e-01,3.496400000000e+01,2.000000000000e+00
249,7.060660171780e-01,3.747454415588e+01,2.000000000000e+00
250,4.939339828220e-01,3.247454415588e+01,2.000000000000e+00
251,-1.500000000000e-01,3.496400000000e+01,2.000000000000e+00
252,-7.060660171780e-01,3.747454415588e+01,2.000000000000e+00
253,-1.200000000000e+00,4.252121320344e+01,3.939339828220e-01
254,-1.200000000000e+00,4.503000000000e+01,8.500000000000e-01
255,-1.200000000000e+00,4.752121320344e+01,1.393933982822e+00
256,-1.200000000000e+00,4.252121320344e+01,1.606066017178e+00
257,-1.200000000000e+00,4.503000000000e+01,1.150000000000e+00
258,-1.200000000000e+00,4.752121320344e+01,6.060660171780e-01
259,1.200000000000e+00,4.252121320344e+01,3.939339828220e-01
260,1.200000000000e+00,4.503000000000e+01,8.500000000000e-01
261,1.200000000000e+00,4.752121320344e+01,1.393933982822e+00
262,1.200000000000e+00,4.252121320344e+01,1.606066017178e+00
263,1.200000000000e+00,4.503000000000e+01,1.150000000000e+00
264,1.200000000000e+00,4.752121320344e+01,6.060660171780e-01
265,-4.939339828220e-01,4.247454415588e+01,0.000000000000e+00
266,1.500000000000e-01,4.496400000000e+01,0.000000000000e+00
267,7.060660171780e-01,4.747454415588e+01,0.000000000000e+00
268,4.939339828220e-01,4.247454415588e+01,0.000000000000e+00
269,-1.500000000000e-01,4.496400000000e+01,0.000000000000e+00
270,-7.060660171780e-01,4.747454415588e+01,0.000000000000e+00
271,-4.939339828220e-01,4.247454415588e+01,2.000000000000e+00
272,1.500000000000e-01,4.496400000000e+01,2.000000000000e+00
273,7.060660171780e-01,4.747454415588e+01,2.000000000000e+00
274,4.939339828220e-01,4.247454415588e+01,2.000000000000e+00
275,-1.500000000000e-01,4.496400000000e+01,2.000000000000e+00
276,-7.060660171780e-01,4.747454415588e+01,2.000000000000e+00
*ELEMENT,TYPE=B31,ELSET=ALL
1,1,25
2,25,26
3,26,27
4,27,5
5,2,28
6,28,29
7,29,30
8,30,6
9,3,31
10,31,32
11,32,33
12,33,7
13,4,34
14,34,35
15,35,36
16,36,8
17,5,37
18,37,38
19,38,39
20,39,9
21,6,40
22,40,41
23,41,42
24,42,10
25,7,43
26,43,44
27,44,45
28,45,11
29,8,46
30,46,47
31,47,48
32,48,12
33,9,49
34,49,50
35,50,51
36,51,13
37,10,52
38,52,53
39,53,54
40,54,14
41,11,55
42,55,56
43,56,57
44,57,15
45,12,58
46,58,59
47,59,60
48,60,16
49,13,61
50,61,62
51,62,63
52,63,17
53,14,64
54,64,65
55,65,66
56,66,18
57,15,67
58,67,68
59,68,69
60,69,19
61,16,70
62,70,71
63,71,72
64,72,20
65,17,73
66,73,74
67,74,75
68,75,21
69,18,76
70,76,77
71,77,78
72,78,22
73,19,79
74,79,80
75,80,81
76,81,23
77,20,82
78,82,83
79,83,84
80,84,24
81,1,85
82,85,86
83,86,87
84,87,2
85,3,88
86,88,89
87,89,90
88,90,4
89,1,91
90,91,92
91,92,93
92,93,3
93,2,94
94,94,95
95,95,96
96,96,4
97,5,97
98,97,98
99,98,99
100,99,6
101,7,100
102,100,101
103,101,102
104,102,8
105,5,103
106,103,104
107,104,105
108,105,7
109,6,106
110,106,107
111,107,108
112,108,8
113,9,109
114,109,110
115,110,111
116,111,10
117,11,112
118,112,113
119,113,114
120,114,12
121,9,115
122,115,116
123,116,117
124,117,11
125,10,118
126,118,119
127,119,120
128,120,12
129,13,121
130,121,122
131,122,123
132,123,14
133,15,124
134,124,125
135,125,126
136,126,16
137,13,127
138,127,128
139,128,129
140,129,15
141,14,130
142,130,131
143,131,132
144,132,16
145,17,133
146,133,134
147,134,135
148,135,18
149,19,136
150,136,137
151,137,138
152,138,20
153,17,139
154,139,140
155,140,141
156,141,19
157,18,142
158,142,143
159,143,144
160,144,20
161,21,145
162,145,146
163,146,147
164,147,22
165,23,148
166,148,149
167,149,150
168,150,24
169,21,151
170,151,152
171,152,153
172,153,23
173,22,154
174,154,155
175,155,156
176,156,24
177,1,157
178,157,158
179,158,159
180,159,7
181,3,160
182,160,161
183,161,162
184,162,5
185,2,163
186,163,164
187,164,165
188,165,8
189,4,166
190,166,167
191,167,168
192,168,6
193,1,169
194,169,170
195,170,171
196,171,6
197,2,172
198,172,173
199,173,174
200,174,5
201,3,175
202,175,176
203,176,177
204,177,8
205,4,178
206,178,179
207,179,180
208,180,7
209,5,181
210,181,182
211,182,183
212,183,11
213,7,184
214,184,185
215,185,186
216,186,9
217,6,187
218,187,188
219,188,189
220,189,12
221,8,190
222,190,191
223,191,192
224,192,10
225,5,193
226,193,194
227,194,195
228,195,10
229,6,196
230,196,197
231,197,198
232,198,9
233,7,199
234,199,200
235,200,201
236,201,12
237,8,202
238,202,203
239,203,204
240,204,11
241,9,205
242,205,206
243,206,207
244,207,15
245,11,208
246,208,209
247,209,210
248,210,13
249,10,211
250,211,212
251,212,213
252,213,16
253,12,214
254,214,215
255,215,216
256,216,14
257,9,217
258,217,218
259,218,219
260,219,14
261,10,220
262,220,221
263,221,222
264,222,13
265,11,223
266,223,224
267,224,225
268,225,16
269,12,226
270,226,227
271,227,228
272,228,15
273,13,229
274,229,230
275,230,231
276,231,19
277,15,232
278,232,233
279,233,234
280,234,17
281,14,235
282,235,236
283,236,237
284,237,20
285,16,238
286,238,239
287,239,240
288,240,18
289,13,241
290,241,242
291,242,243
292,243,18
293,14,244
294,244,245
295,245,246
296,246,17
297,15,247
298,247,248
299,248,249
300,249,20
301,16,250
302,250,251
303,251,252
304,252,19
305,17,253
306,253,254
307,254,255
308,255,23
309,19,256
310,256,257
311,257,258
312,258,21
313,18,259
314,259,260
315,260,261
316,261,24
317,20,262
318,262,263
319,263,264
320,264,22
321,17,265
322,265,266
323,266,267
324,267,22
325,18,268
326,268,269
327,269,270
328,270,21
329,19,271
330,271,272
331,272,273
332,273,24
333,20,274
334,274,275
335,275,276
336,276,23
*NSET,NSET=NALL,GENERATE
1,276,1
*NSET,NSET=LEFT
1,2,3,4
*NSET,NSET=RIGHT
21,22,23,24
*MATERIAL,NAME=STEEL
*ELASTIC
2.100000000000e+11,0.300000000000
*BEAM SECTION,ELSET=ALL,MATERIAL=STEEL,SECTION=RECT
6.000000000000e-02,4.000000000000e-02
0.371390676354,0.557086014531,0.742781352708
*BOUNDARY
LEFT,1,6,0.0
*STEP
*STATIC
*BOUNDARY
21,1,1,5.000000000000e-03
21,2,2,0.0
21,3,3,-6.000000000000e-03
*BOUNDARY
22,1,1,5.000000000000e-03
22,2,2,0.0
22,3,3,6.000000000000e-03
*BOUNDARY
23,1,1,-5.000000000000e-03
23,2,2,0.0
23,3,3,-6.000000000000e-03
*BOUNDARY
24,1,1,-5.000000000000e-03
24,2,2,0.0
24,3,3,6.000000000000e-03
*NODE FILE,NSET=NALL
U
*NODE PRINT,NSET=NALL
U
*NODE PRINT,NSET=RIGHT
RF
*EL PRINT,ELSET=ALL,TOTALS=YES
ELSE
*END STEP
