*HEADING
Normalized cross-passage space-truss torsion benchmark
*NODE
1,-1.200000000000e+00,0.000000000000e+00,0.000000000000e+00
2,1.200000000000e+00,0.000000000000e+00,0.000000000000e+00
3,-1.200000000000e+00,0.000000000000e+00,2.000000000000e+00
4,1.200000000000e+00,0.000000000000e+00,2.000000000000e+00
5,-1.200000000000e+00,1.000000000000e+01,0.000000000000e+00
6,1.200000000000e+00,1.000000000000e+01,0.000000000000e+00
7,-1.200000000000e+00,1.000000000000e+01,2.000000000000e+00
8,1.200000000000e+00,1.000000000000e+01,2.000000000000e+00
9,-1.200000000000e+00,2.000000000000e+01,0.000000000000e+00
10,1.200000000000e+00,2.000000000000e+01,0.000000000000e+00
11,-1.200000000000e+00,2.000000000000e+01,2.000000000000e+00
12,1.200000000000e+00,2.000000000000e+01,2.000000000000e+00
13,-1.200000000000e+00,3.000000000000e+01,0.000000000000e+00
14,1.200000000000e+00,3.000000000000e+01,0.000000000000e+00
15,-1.200000000000e+00,3.000000000000e+01,2.000000000000e+00
16,1.200000000000e+00,3.000000000000e+01,2.000000000000e+00
17,-1.200000000000e+00,4.000000000000e+01,0.000000000000e+00
18,1.200000000000e+00,4.000000000000e+01,0.000000000000e+00
19,-1.200000000000e+00,4.000000000000e+01,2.000000000000e+00
20,1.200000000000e+00,4.000000000000e+01,2.000000000000e+00
21,-1.200000000000e+00,5.000000000000e+01,0.000000000000e+00
22,1.200000000000e+00,5.000000000000e+01,0.000000000000e+00
23,-1.200000000000e+00,5.000000000000e+01,2.000000000000e+00
24,1.200000000000e+00,5.000000000000e+01,2.000000000000e+00
25,-1.200000000000e+00,2.500000000000e+00,-1.060660171780e-01
26,-1.200000000000e+00,5.000000000000e+00,-1.500000000000e-01
27,-1.200000000000e+00,7.500000000000e+00,-1.060660171780e-01
28,1.200000000000e+00,2.500000000000e+00,1.060660171780e-01
29,1.200000000000e+00,5.000000000000e+00,1.500000000000e-01
30,1.200000000000e+00,7.500000000000e+00,1.060660171780e-01
31,-1.200000000000e+00,2.500000000000e+00,1.893933982822e+00
32,-1.200000000000e+00,5.000000000000e+00,1.850000000000e+00
33,-1.200000000000e+00,7.500000000000e+00,1.893933982822e+00
34,1.200000000000e+00,2.500000000000e+00,2.106066017178e+00
35,1.200000000000e+00,5.000000000000e+00,2.150000000000e+00
36,1.200000000000e+00,7.500000000000e+00,2.106066017178e+00
37,-1.200000000000e+00,1.500000000000e+01,-1.500000000000e-01
38,1.200000000000e+00,1.500000000000e+01,1.500000000000e-01
39,-1.200000000000e+00,1.500000000000e+01,1.850000000000e+00
40,1.200000000000e+00,1.500000000000e+01,2.150000000000e+00
41,-1.200000000000e+00,4.250000000000e+01,-1.060660171780e-01
42,-1.200000000000e+00,4.500000000000e+01,-1.500000000000e-01
43,-1.200000000000e+00,4.750000000000e+01,-1.060660171780e-01
44,1.200000000000e+00,4.250000000000e+01,1.060660171780e-01
45,1.200000000000e+00,4.500000000000e+01,1.500000000000e-01
46,1.200000000000e+00,4.750000000000e+01,1.060660171780e-01
47,-1.200000000000e+00,4.250000000000e+01,1.893933982822e+00
48,-1.200000000000e+00,4.500000000000e+01,1.850000000000e+00
49,-1.200000000000e+00,4.750000000000e+01,1.893933982822e+00
50,1.200000000000e+00,4.250000000000e+01,2.106066017178e+00
51,1.200000000000e+00,4.500000000000e+01,2.150000000000e+00
52,1.200000000000e+00,4.750000000000e+01,2.106066017178e+00
53,-6.000000000000e-01,-2.545584412272e-02,0.000000000000e+00
54,0.000000000000e+00,-3.600000000000e-02,0.000000000000e+00
55,6.000000000000e-01,-2.545584412272e-02,0.000000000000e+00
56,-6.000000000000e-01,2.545584412272e-02,2.000000000000e+00
57,0.000000000000e+00,3.600000000000e-02,2.000000000000e+00
58,6.000000000000e-01,2.545584412272e-02,2.000000000000e+00
59,-1.200000000000e+00,2.121320343560e-02,5.000000000000e-01
60,-1.200000000000e+00,3.000000000000e-02,1.000000000000e+00
61,-1.200000000000e+00,2.121320343560e-02,1.500000000000e+00
62,1.200000000000e+00,-2.121320343560e-02,5.000000000000e-01
63,1.200000000000e+00,-3.000000000000e-02,1.000000000000e+00
64,1.200000000000e+00,-2.121320343560e-02,1.500000000000e+00
65,-6.000000000000e-01,9.974544155877e+00,0.000000000000e+00
66,0.000000000000e+00,9.964000000000e+00,0.000000000000e+00
67,6.000000000000e-01,9.974544155877e+00,0.000000000000e+00
68,-6.000000000000e-01,1.002545584412e+01,2.000000000000e+00
69,0.000000000000e+00,1.003600000000e+01,2.000000000000e+00
70,6.000000000000e-01,1.002545584412e+01,2.000000000000e+00
71,-1.200000000000e+00,1.002121320344e+01,5.000000000000e-01
72,-1.200000000000e+00,1.003000000000e+01,1.000000000000e+00
73,-1.200000000000e+00,1.002121320344e+01,1.500000000000e+00
74,1.200000000000e+00,9.978786796564e+00,5.000000000000e-01
75,1.200000000000e+00,9.970000000000e+00,1.000000000000e+00
76,1.200000000000e+00,9.978786796564e+00,1.500000000000e+00
77,0.000000000000e+00,1.996400000000e+01,0.000000000000e+00
78,0.000000000000e+00,2.003600000000e+01,2.000000000000e+00
79,-1.200000000000e+00,2.003000000000e+01,1.000000000000e+00
80,1.200000000000e+00,1.997000000000e+01,1.000000000000e+00
81,-6.000000000000e-01,2.997454415588e+01,0.000000000000e+00
82,0.000000000000e+00,2.996400000000e+01,0.000000000000e+00
83,6.000000000000e-01,2.997454415588e+01,0.000000000000e+00
84,-6.000000000000e-01,3.002545584412e+01,2.000000000000e+00
85,0.000000000000e+00,3.003600000000e+01,2.000000000000e+00
86,6.000000000000e-01,3.002545584412e+01,2.000000000000e+00
87,-1.200000000000e+00,3.002121320344e+01,5.000000000000e-01
88,-1.200000000000e+00,3.003000000000e+01,1.000000000000e+00
89,-1.200000000000e+00,3.002121320344e+01,1.500000000000e+00
90,1.200000000000e+00,2.997878679656e+01,5.000000000000e-01
91,1.200000000000e+00,2.997000000000e+01,1.000000000000e+00
92,1.200000000000e+00,2.997878679656e+01,1.500000000000e+00
93,0.000000000000e+00,3.996400000000e+01,0.000000000000e+00
94,0.000000000000e+00,4.003600000000e+01,2.000000000000e+00
95,-1.200000000000e+00,4.003000000000e+01,1.000000000000e+00
96,1.200000000000e+00,3.997000000000e+01,1.000000000000e+00
97,-6.000000000000e-01,4.997454415588e+01,0.000000000000e+00
98,0.000000000000e+00,4.996400000000e+01,0.000000000000e+00
99,6.000000000000e-01,4.997454415588e+01,0.000000000000e+00
100,-6.000000000000e-01,5.002545584412e+01,2.000000000000e+00
101,0.000000000000e+00,5.003600000000e+01,2.000000000000e+00
102,6.000000000000e-01,5.002545584412e+01,2.000000000000e+00
103,-1.200000000000e+00,5.002121320344e+01,5.000000000000e-01
104,-1.200000000000e+00,5.003000000000e+01,1.000000000000e+00
105,-1.200000000000e+00,5.002121320344e+01,1.500000000000e+00
106,1.200000000000e+00,4.997878679656e+01,5.000000000000e-01
107,1.200000000000e+00,4.997000000000e+01,1.000000000000e+00
108,1.200000000000e+00,4.997878679656e+01,1.500000000000e+00
109,-1.200000000000e+00,2.521213203436e+00,3.939339828220e-01
110,-1.200000000000e+00,5.030000000000e+00,8.500000000000e-01
111,-1.200000000000e+00,7.521213203436e+00,1.393933982822e+00
112,-1.200000000000e+00,2.521213203436e+00,1.606066017178e+00
113,-1.200000000000e+00,5.030000000000e+00,1.150000000000e+00
114,-1.200000000000e+00,7.521213203436e+00,6.060660171780e-01
115,1.200000000000e+00,2.521213203436e+00,3.939339828220e-01
116,1.200000000000e+00,5.030000000000e+00,8.500000000000e-01
117,1.200000000000e+00,7.521213203436e+00,1.393933982822e+00
118,1.200000000000e+00,2.521213203436e+00,1.606066017178e+00
119,1.200000000000e+00,5.030000000000e+00,1.150000000000e+00
120,1.200000000000e+00,7.521213203436e+00,6.060660171780e-01
121,-4.939339828220e-01,2.474544155877e+00,0.000000000000e+00
122,1.500000000000e-01,4.964000000000e+00,0.000000000000e+00
123,7.060660171780e-01,7.474544155877e+00,0.000000000000e+00
124,4.939339828220e-01,2.474544155877e+00,0.000000000000e+00
125,-1.500000000000e-01,4.964000000000e+00,0.000000000000e+00
126,-7.060660171780e-01,7.474544155877e+00,0.000000000000e+00
127,-4.939339828220e-01,2.474544155877e+00,2.000000000000e+00
128,1.500000000000e-01,4.964000000000e+00,2.000000000000e+00
129,7.060660171780e-01,7.474544155877e+00,2.000000000000e+00
130,4.939339828220e-01,2.474544155877e+00,2.000000000000e+00
131,-1.500000000000e-01,4.964000000000e+00,2.000000000000e+00
132,-7.060660171780e-01,7.474544155877e+00,2.000000000000e+00
133,-1.200000000000e+00,1.503000000000e+01,8.500000000000e-01
134,-1.200000000000e+00,1.503000000000e+01,1.150000000000e+00
135,1.200000000000e+00,1.503000000000e+01,8.500000000000e-01
136,1.200000000000e+00,1.503000000000e+01,1.150000000000e+00
137,1.500000000000e-01,1.496400000000e+01,0.000000000000e+00
138,-1.500000000000e-01,1.496400000000e+01,0.000000000000e+00
139,1.500000000000e-01,1.496400000000e+01,2.000000000000e+00
140,-1.500000000000e-01,1.496400000000e+01,2.000000000000e+00
141,-1.200000000000e+00,2.503000000000e+01,8.500000000000e-01
142,-1.200000000000e+00,2.503000000000e+01,1.150000000000e+00
143,1.200000000000e+00,2.503000000000e+01,8.500000000000e-01
144,1.200000000000e+00,2.503000000000e+01,1.150000000000e+00
145,1.500000000000e-01,2.496400000000e+01,0.000000000000e+00
146,-1.500000000000e-01,2.496400000000e+01,0.000000000000e+00
147,1.500000000000e-01,2.496400000000e+01,2.000000000000e+00
148,-1.500000000000e-01,2.496400000000e+01,2.000000000000e+00
149,-1.200000000000e+00,3.252121320344e+01,3.939339828220e-01
150,-1.200000000000e+00,3.503000000000e+01,8.500000000000e-01
151,-1.200000000000e+00,3.752121320344e+01,1.393933982822e+00
152,-1.200000000000e+00,3.252121320344e+01,1.606066017178e+00
153,-1.200000000000e+00,3.503000000000e+01,1.150000000000e+00
154,-1.200000000000e+00,3.752121320344e+01,6.060660171780e-01
155,1.200000000000e+00,3.252121320344e+01,3.939339828220e-01
156,1.200000000000e+00,3.503000000000e+01,8.500000000000e-01
157,1.200000000000e+00,3.752121320344e+01,1.393933982822e+00
158,1.200000000000e+00,3.252121320344e+01,1.606066017178e+00
159,1.200000000000e+00,3.503000000000e+01,1.150000000000e+00
160,1.200000000000e+00,3.752121320344e+01,6.060660171780e-01
161,-4.939339828220e-01,3.247454415588e+01,0.000000000000e+00
162,1.500000000000e-01,3.496400000000e+01,0.000000000000e+00
163,7.060660171780e-01,3.747454415588e+01,0.000000000000e+00
164,4.939339828220e-01,3.247454415588e+01,0.000000000000e+00
165,-1.500000000000e-01,3.496400000000e+01,0.000000000000e+00
166,-7.060660171780e-01,3.747454415588e+01,0.000000000000e+00
167,-4.939339828220e-01,3.247454415588e+01,2.000000000000e+00
168,1.500000000000e-01,3.496400000000e+01,2.000000000000e+00
169,7.060660171780e-01,3.747454415588e+01,2.000000000000e+00
170,4.939339828220e-01,3.247454415588e+01,2.000000000000e+00
171,-1.500000000000e-01,3.496400000000e+01,2.000000000000e+00
172,-7.060660171780e-01,3.747454415588e+01,2.000000000000e+00
*ELEMENT,TYPE=B31,ELSET=ALL
1,1,25
2,25,26
3,26,27
4,27,5
5,2,28
6,28,29
7,29,30
8,30,6
9,3,31
10,31,32
11,32,33
12,33,7
13,4,34
14,34,35
15,35,36
16,36,8
17,5,37
18,37,9
19,6,38
20,38,10
21,7,39
22,39,11
23,8,40
24,40,12
25,9,13
26,10,14
27,11,15
28,12,16
29,13,17
30,14,18
31,15,19
32,16,20
33,17,41
34,41,42
35,42,43
36,43,21
37,18,44
38,44,45
39,45,46
40,46,22
41,19,47
42,47,48
43,48,49
44,49,23
45,20,50
46,50,51
47,51,52
48,52,24
49,1,53
50,53,54
51,54,55
52,55,2
53,3,56
54,56,57
55,57,58
56,58,4
57,1,59
58,59,60
59,60,61
60,61,3
61,2,62
62,62,63
63,63,64
64,64,4
65,5,65
66,65,66
67,66,67
68,67,6
69,7,68
70,68,69
71,69,70
72,70,8
73,5,71
74,71,72
75,72,73
76,73,7
77,6,74
78,74,75
79,75,76
80,76,8
81,9,77
82,77,10
83,11,78
84,78,12
85,9,79
86,79,11
87,10,80
88,80,12
89,13,81
90,81,82
91,82,83
92,83,14
93,15,84
94,84,85
95,85,86
96,86,16
97,13,87
98,87,88
99,88,89
100,89,15
101,14,90
102,90,91
103,91,92
104,92,16
105,17,93
106,93,18
107,19,94
108,94,20
109,17,95
110,95,19
111,18,96
112,96,20
113,21,97
114,97,98
115,98,99
116,99,22
117,23,100
118,100,101
119,101,102
120,102,24
121,21,103
122,103,104
123,104,105
124,105,23
125,22,106
126,106,107
127,107,108
128,108,24
129,1,109
130,109,110
131,110,111
132,111,7
133,3,112
134,112,113
135,113,114
136,114,5
137,2,115
138,115,116
139,116,117
140,117,8
141,4,118
142,118,119
143,119,120
144,120,6
145,1,121
146,121,122
147,122,123
148,123,6
149,2,124
150,124,125
151,125,126
152,126,5
153,3,127
154,127,128
155,128,129
156,129,8
157,4,130
158,130,131
159,131,132
160,132,7
161,5,133
162,133,11
163,7,134
164,134,9
165,6,135
166,135,12
167,8,136
168,136,10
169,5,137
170,137,10
171,6,138
172,138,9
173,7,139
174,139,12
175,8,140
176,140,11
177,9,141
178,141,15
179,11,142
180,142,13
181,10,143
182,143,16
183,12,144
184,144,14
185,9,145
186,145,14
187,10,146
188,146,13
189,11,147
190,147,16
191,12,148
192,148,15
193,13,149
194,149,150
195,150,151
196,151,19
197,15,152
198,152,153
199,153,154
200,154,17
201,14,155
202,155,156
203,156,157
204,157,20
205,16,158
206,158,159
207,159,160
208,160,18
209,13,161
210,161,162
211,162,163
212,163,18
213,14,164
214,164,165
215,165,166
216,166,17
217,15,167
218,167,168
219,168,169
220,169,20
221,16,170
222,170,171
223,171,172
224,172,19
225,17,23
226,19,21
227,18,24
228,20,22
229,17,22
230,18,21
231,19,24
232,20,23
*NSET,NSET=NALL,GENERATE
1,172,1
*NSET,NSET=LEFT
1,2,3,4
*NSET,NSET=RIGHT
21,22,23,24
*MATERIAL,NAME=STEEL
*ELASTIC
2.100000000000e+11,0.300000000000
*BEAM SECTION,ELSET=ALL,MATERIAL=STEEL,SECTION=RECT
6.000000000000e-02,4.000000000000e-02
0.371390676354,0.557086014531,0.742781352708
*BOUNDARY
LEFT,1,6,0.0
*STEP
*STATIC
*BOUNDARY
21,1,1,5.000000000000e-03
21,2,2,0.0
21,3,3,-6.000000000000e-03
*BOUNDARY
22,1,1,5.000000000000e-03
22,2,2,0.0
22,3,3,6.000000000000e-03
*BOUNDARY
23,1,1,-5.000000000000e-03
23,2,2,0.0
23,3,3,-6.000000000000e-03
*BOUNDARY
24,1,1,-5.000000000000e-03
24,2,2,0.0
24,3,3,6.000000000000e-03
*NODE FILE,NSET=NALL
U
*NODE PRINT,NSET=NALL
U
*NODE PRINT,NSET=RIGHT
RF
*EL PRINT,ELSET=ALL,TOTALS=YES
ELSE
*END STEP
