*HEADING
Normalized cross-passage space-truss torsion benchmark
*NODE
1,-1.200000000000e+00,0.000000000000e+00,0.000000000000e+00
2,1.200000000000e+00,0.000000000000e+00,0.000000000000e+00
3,-1.200000000000e+00,0.000000000000e+00,2.000000000000e+00
4,1.200000000000e+00,0.000000000000e+00,2.000000000000e+00
5,-1.200000000000e+00,1.000000000000e+01,0.000000000000e+00
6,1.200000000000e+00,1.000000000000e+01,0.000000000000e+00
7,-1.200000000000e+00,1.000000000000e+01,2.000000000000e+00
8,1.200000000000e+00,1.000000000000e+01,2.000000000000e+00
9,-1.200000000000e+00,2.000000000000e+01,0.000000000000e+00
10,1.200000000000e+00,2.000000000000e+01,0.000000000000e+00
11,-1.200000000000e+00,2.000000000000e+01,2.000000000000e+00
12,1.200000000000e+00,2.000000000000e+01,2.000000000000e+00
13,-1.200000000000e+00,3.000000000000e+01,0.000000000000e+00
14,1.200000000000e+00,3.000000000000e+01,0.000000000000e+00
15,-1.200000000000e+00,3.000000000000e+01,2.000000000000e+00
16,1.200000000000e+00,3.000000000000e+01,2.000000000000e+00
17,-1.200000000000e+00,4.000000000000e+01,0.000000000000e+00
18,1.200000000000e+00,4.000000000000e+01,0.000000000000e+00
19,-1.200000000000e+00,4.000000000000e+01,2.000000000000e+00
20,1.200000000000e+00,4.000000000000e+01,2.000000000000e+00
21,-1.200000000000e+00,5.000000000000e+01,0.000000000000e+00
22,1.200000000000e+00,5.000000000000e+01,0.000000000000e+00
23,-1.200000000000e+00,5.000000000000e+01,2.000000000000e+00
24,1.200000000000e+00,5.000000000000e+01,2.000000000000e+00
25,-1.200000000000e+00,2.500000000000e+00,-1.060660171780e-01
26,-1.200000000000e+00,5.000000000000e+00,-1.500000000000e-01
27,-1.200000000000e+00,7.500000000000e+00,-1.060660171780e-01
28,1.200000000000e+00,2.500000000000e+00,1.060660171780e-01
29,1.200000000000e+00,5.000000000000e+00,1.500000000000e-01
30,1.200000000000e+00,7.500000000000e+00,1.060660171780e-01
31,-1.200000000000e+00,2.500000000000e+00,1.893933982822e+00
32,-1.200000000000e+00,5.000000000000e+00,1.850000000000e+00
33,-1.200000000000e+00,7.500000000000e+00,1.893933982822e+00
34,1.200000000000e+00,2.500000000000e+00,2.106066017178e+00
35,1.200000000000e+00,5.000000000000e+00,2.150000000000e+00
36,1.200000000000e+00,7.500000000000e+00,2.106066017178e+00
37,-1.200000000000e+00,1.500000000000e+01,-1.500000000000e-01
38,1.200000000000e+00,1.500000000000e+01,1.500000000000e-01
39,-1.200000000000e+00,1.500000000000e+01,1.850000000000e+00
40,1.200000000000e+00,1.500000000000e+01,2.150000000000e+00
41,-1.200000000000e+00,2.500000000000e+01,-1.500000000000e-01
42,1.200000000000e+00,2.500000000000e+01,1.500000000000e-01
43,-1.200000000000e+00,2.500000000000e+01,1.850000000000e+00
44,1.200000000000e+00,2.500000000000e+01,2.150000000000e+00
45,-1.200000000000e+00,3.125000000000e+01,-5.740251485476e-02
46,-1.200000000000e+00,3.250000000000e+01,-1.060660171780e-01
47,-1.200000000000e+00,3.375000000000e+01,-1.385819298767e-01
48,-1.200000000000e+00,3.500000000000e+01,-1.500000000000e-01
49,-1.200000000000e+00,3.625000000000e+01,-1.385819298767e-01
50,-1.200000000000e+00,3.750000000000e+01,-1.060660171780e-01
51,-1.200000000000e+00,3.875000000000e+01,-5.740251485476e-02
52,1.200000000000e+00,3.125000000000e+01,5.740251485476e-02
53,1.200000000000e+00,3.250000000000e+01,1.060660171780e-01
54,1.200000000000e+00,3.375000000000e+01,1.385819298767e-01
55,1.200000000000e+00,3.500000000000e+01,1.500000000000e-01
56,1.200000000000e+00,3.625000000000e+01,1.385819298767e-01
57,1.200000000000e+00,3.750000000000e+01,1.060660171780e-01
58,1.200000000000e+00,3.875000000000e+01,5.740251485476e-02
59,-1.200000000000e+00,3.125000000000e+01,1.942597485145e+00
60,-1.200000000000e+00,3.250000000000e+01,1.893933982822e+00
61,-1.200000000000e+00,3.375000000000e+01,1.861418070123e+00
62,-1.200000000000e+00,3.500000000000e+01,1.850000000000e+00
63,-1.200000000000e+00,3.625000000000e+01,1.861418070123e+00
64,-1.200000000000e+00,3.750000000000e+01,1.893933982822e+00
65,-1.200000000000e+00,3.875000000000e+01,1.942597485145e+00
66,1.200000000000e+00,3.125000000000e+01,2.057402514855e+00
67,1.200000000000e+00,3.250000000000e+01,2.106066017178e+00
68,1.200000000000e+00,3.375000000000e+01,2.138581929877e+00
69,1.200000000000e+00,3.500000000000e+01,2.150000000000e+00
70,1.200000000000e+00,3.625000000000e+01,2.138581929877e+00
71,1.200000000000e+00,3.750000000000e+01,2.106066017178e+00
72,1.200000000000e+00,3.875000000000e+01,2.057402514855e+00
73,-1.200000000000e+00,4.125000000000e+01,-5.740251485476e-02
74,-1.200000000000e+00,4.250000000000e+01,-1.060660171780e-01
75,-1.200000000000e+00,4.375000000000e+01,-1.385819298767e-01
76,-1.200000000000e+00,4.500000000000e+01,-1.500000000000e-01
77,-1.200000000000e+00,4.625000000000e+01,-1.385819298767e-01
78,-1.200000000000e+00,4.750000000000e+01,-1.060660171780e-01
79,-1.200000000000e+00,4.875000000000e+01,-5.740251485476e-02
80,1.200000000000e+00,4.125000000000e+01,5.740251485476e-02
81,1.200000000000e+00,4.250000000000e+01,1.060660171780e-01
82,1.200000000000e+00,4.375000000000e+01,1.385819298767e-01
83,1.200000000000e+00,4.500000000000e+01,1.500000000000e-01
84,1.200000000000e+00,4.625000000000e+01,1.385819298767e-01
85,1.200000000000e+00,4.750000000000e+01,1.060660171780e-01
86,1.200000000000e+00,4.875000000000e+01,5.740251485476e-02
87,-1.200000000000e+00,4.125000000000e+01,1.942597485145e+00
88,-1.200000000000e+00,4.250000000000e+01,1.893933982822e+00
89,-1.200000000000e+00,4.375000000000e+01,1.861418070123e+00
90,-1.200000000000e+00,4.500000000000e+01,1.850000000000e+00
91,-1.200000000000e+00,4.625000000000e+01,1.861418070123e+00
92,-1.200000000000e+00,4.750000000000e+01,1.893933982822e+00
93,-1.200000000000e+00,4.875000000000e+01,1.942597485145e+00
94,1.200000000000e+00,4.125000000000e+01,2.057402514855e+00
95,1.200000000000e+00,4.250000000000e+01,2.106066017178e+00
96,1.200000000000e+00,4.375000000000e+01,2.138581929877e+00
97,1.200000000000e+00,4.500000000000e+01,2.150000000000e+00
98,1.200000000000e+00,4.625000000000e+01,2.138581929877e+00
99,1.200000000000e+00,4.750000000000e+01,2.106066017178e+00
100,1.200000000000e+00,4.875000000000e+01,2.057402514855e+00
101,0.000000000000e+00,-3.600000000000e-02,0.000000000000e+00
102,0.000000000000e+00,3.600000000000e-02,2.000000000000e+00
103,-1.200000000000e+00,3.000000000000e-02,1.000000000000e+00
104,1.200000000000e+00,-3.000000000000e-02,1.000000000000e+00
105,0.000000000000e+00,9.964000000000e+00,0.000000000000e+00
106,0.000000000000e+00,1.003600000000e+01,2.000000000000e+00
107,-1.200000000000e+00,1.003000000000e+01,1.000000000000e+00
108,1.200000000000e+00,9.970000000000e+00,1.000000000000e+00
109,-6.000000000000e-01,1.997454415588e+01,0.000000000000e+00
110,0.000000000000e+00,1.996400000000e+01,0.000000000000e+00
111,6.000000000000e-01,1.997454415588e+01,0.000000000000e+00
112,-6.000000000000e-01,2.002545584412e+01,2.000000000000e+00
113,0.000000000000e+00,2.003600000000e+01,2.000000000000e+00
114,6.000000000000e-01,2.002545584412e+01,2.000000000000e+00
115,-1.200000000000e+00,2.002121320344e+01,5.000000000000e-01
116,-1.200000000000e+00,2.003000000000e+01,1.000000000000e+00
117,-1.200000000000e+00,2.002121320344e+01,1.500000000000e+00
118,1.200000000000e+00,1.997878679656e+01,5.000000000000e-01
119,1.200000000000e+00,1.997000000000e+01,1.000000000000e+00
120,1.200000000000e+00,1.997878679656e+01,1.500000000000e+00
121,-6.000000000000e-01,2.997454415588e+01,0.000000000000e+00
122,0.000000000000e+00,2.996400000000e+01,0.000000000000e+00
123,6.000000000000e-01,2.997454415588e+01,0.000000000000e+00
124,-6.000000000000e-01,3.002545584412e+01,2.000000000000e+00
125,0.000000000000e+00,3.003600000000e+01,2.000000000000e+00
126,6.000000000000e-01,3.002545584412e+01,2.000000000000e+00
127,-1.200000000000e+00,3.002121320344e+01,5.000000000000e-01
128,-1.200000000000e+00,3.003000000000e+01,1.000000000000e+00
129,-1.200000000000e+00,3.002121320344e+01,1.500000000000e+00
130,1.200000000000e+00,2.997878679656e+01,5.000000000000e-01
131,1.200000000000e+00,2.997000000000e+01,1.000000000000e+00
132,1.200000000000e+00,2.997878679656e+01,1.500000000000e+00
133,-1.200000000000e+00,2.521213203436e+00,3.939339828220e-01
134,-1.200000000000e+00,5.030000000000e+00,8.500000000000e-01
135,-1.200000000000e+00,7.521213203436e+00,1.393933982822e+00
136,-1.200000000000e+00,2.521213203436e+00,1.606066017178e+00
137,-1.200000000000e+00,5.030000000000e+00,1.150000000000e+00
138,-1.200000000000e+00,7.521213203436e+00,6.060660171780e-01
139,1.200000000000e+00,2.521213203436e+00,3.939339828220e-01
140,1.200000000000e+00,5.030000000000e+00,8.500000000000e-01
141,1.200000000000e+00,7.521213203436e+00,1.393933982822e+00
142,1.200000000000e+00,2.521213203436e+00,1.606066017178e+00
143,1.200000000000e+00,5.030000000000e+00,1.150000000000e+00
144,1.200000000000e+00,7.521213203436e+00,6.060660171780e-01
145,-4.939339828220e-01,2.474544155877e+00,0.000000000000e+00
146,1.500000000000e-01,4.964000000000e+00,0.000000000000e+00
147,7.060660171780e-01,7.474544155877e+00,0.000000000000e+00
148,4.939339828220e-01,2.474544155877e+00,0.000000000000e+00
149,-1.500000000000e-01,4.964000000000e+00,0.000000000000e+00
150,-7.060660171780e-01,7.474544155877e+00,0.000000000000e+00
151,-4.939339828220e-01,2.474544155877e+00,2.000000000000e+00
152,1.500000000000e-01,4.964000000000e+00,2.000000000000e+00
153,7.060660171780e-01,7.474544155877e+00,2.000000000000e+00
154,4.939339828220e-01,2.474544155877e+00,2.000000000000e+00
155,-1.500000000000e-01,4.964000000000e+00,2.000000000000e+00
156,-7.060660171780e-01,7.474544155877e+00,2.000000000000e+00
157,-1.200000000000e+00,2.503000000000e+01,8.500000000000e-01
158,-1.200000000000e+00,2.503000000000e+01,1.150000000000e+00
159,1.200000000000e+00,2.503000000000e+01,8.500000000000e-01
160,1.200000000000e+00,2.503000000000e+01,1.150000000000e+00
161,1.500000000000e-01,2.496400000000e+01,0.000000000000e+00
162,-1.500000000000e-01,2.496400000000e+01,0.000000000000e+00
163,1.500000000000e-01,2.496400000000e+01,2.000000000000e+00
164,-1.500000000000e-01,2.496400000000e+01,2.000000000000e+00
165,-1.200000000000e+00,3.126148050297e+01,1.925974851452e-01
166,-1.200000000000e+00,3.252121320344e+01,3.939339828220e-01
167,-1.200000000000e+00,3.377771638598e+01,6.114180701233e-01
168,-1.200000000000e+00,3.503000000000e+01,8.500000000000e-01
169,-1.200000000000e+00,3.627771638598e+01,1.111418070123e+00
170,-1.200000000000e+00,3.752121320344e+01,1.393933982822e+00
171,-1.200000000000e+00,3.876148050297e+01,1.692597485145e+00
172,-1.200000000000e+00,3.126148050297e+01,1.807402514855e+00
173,-1.200000000000e+00,3.252121320344e+01,1.606066017178e+00
174,-1.200000000000e+00,3.377771638598e+01,1.388581929877e+00
175,-1.200000000000e+00,3.503000000000e+01,1.150000000000e+00
176,-1.200000000000e+00,3.627771638598e+01,8.885819298767e-01
177,-1.200000000000e+00,3.752121320344e+01,6.060660171780e-01
178,-1.200000000000e+00,3.876148050297e+01,3.074025148548e-01
179,1.200000000000e+00,3.126148050297e+01,1.925974851452e-01
180,1.200000000000e+00,3.252121320344e+01,3.939339828220e-01
181,1.200000000000e+00,3.377771638598e+01,6.114180701233e-01
182,1.200000000000e+00,3.503000000000e+01,8.500000000000e-01
183,1.200000000000e+00,3.627771638598e+01,1.111418070123e+00
184,1.200000000000e+00,3.752121320344e+01,1.393933982822e+00
185,1.200000000000e+00,3.876148050297e+01,1.692597485145e+00
186,1.200000000000e+00,3.126148050297e+01,1.807402514855e+00
187,1.200000000000e+00,3.252121320344e+01,1.606066017178e+00
188,1.200000000000e+00,3.377771638598e+01,1.388581929877e+00
189,1.200000000000e+00,3.503000000000e+01,1.150000000000e+00
190,1.200000000000e+00,3.627771638598e+01,8.885819298767e-01
191,1.200000000000e+00,3.752121320344e+01,6.060660171780e-01
192,1.200000000000e+00,3.876148050297e+01,3.074025148548e-01
193,-8.425974851452e-01,3.123622339643e+01,0.000000000000e+00
194,-4.939339828220e-01,3.247454415588e+01,0.000000000000e+00
195,-1.614180701233e-01,3.371674033683e+01,0.000000000000e+00
196,1.500000000000e-01,3.496400000000e+01,0.000000000000e+00
197,4.385819298767e-01,3.621674033683e+01,0.000000000000e+00
198,7.060660171780e-01,3.747454415588e+01,0.000000000000e+00
199,9.574025148548e-01,3.873622339643e+01,0.000000000000e+00
200,8.425974851452e-01,3.123622339643e+01,0.000000000000e+00
201,4.939339828220e-01,3.247454415588e+01,0.000000000000e+00
202,1.614180701233e-01,3.371674033683e+01,0.000000000000e+00
203,-1.500000000000e-01,3.496400000000e+01,0.000000000000e+00
204,-4.385819298767e-01,3.621674033683e+01,0.000000000000e+00
205,-7.060660171780e-01,3.747454415588e+01,0.000000000000e+00
206,-9.574025148548e-01,3.873622339643e+01,0.000000000000e+00
207,-8.425974851452e-01,3.123622339643e+01,2.000000000000e+00
208,-4.939339828220e-01,3.247454415588e+01,2.000000000000e+00
209,-1.614180701233e-01,3.371674033683e+01,2.000000000000e+00
210,1.500000000000e-01,3.496400000000e+01,2.000000000000e+00
211,4.385819298767e-01,3.621674033683e+01,2.000000000000e+00
212,7.060660171780e-01,3.747454415588e+01,2.000000000000e+00
213,9.574025148548e-01,3.873622339643e+01,2.000000000000e+00
214,8.425974851452e-01,3.123622339643e+01,2.000000000000e+00
215,4.939339828220e-01,3.247454415588e+01,2.000000000000e+00
216,1.614180701233e-01,3.371674033683e+01,2.000000000000e+00
217,-1.500000000000e-01,3.496400000000e+01,2.000000000000e+00
218,-4.385819298767e-01,3.621674033683e+01,2.000000000000e+00
219,-7.060660171780e-01,3.747454415588e+01,2.000000000000e+00
220,-9.574025148548e-01,3.873622339643e+01,2.000000000000e+00
221,-1.200000000000e+00,4.252121320344e+01,3.939339828220e-01
222,-1.200000000000e+00,4.503000000000e+01,8.500000000000e-01
223,-1.200000000000e+00,4.752121320344e+01,1.393933982822e+00
224,-1.200000000000e+00,4.252121320344e+01,1.606066017178e+00
225,-1.200000000000e+00,4.503000000000e+01,1.150000000000e+00
226,-1.200000000000e+00,4.752121320344e+01,6.060660171780e-01
227,1.200000000000e+00,4.252121320344e+01,3.939339828220e-01
228,1.200000000000e+00,4.503000000000e+01,8.500000000000e-01
229,1.200000000000e+00,4.752121320344e+01,1.393933982822e+00
230,1.200000000000e+00,4.252121320344e+01,1.606066017178e+00
231,1.200000000000e+00,4.503000000000e+01,1.150000000000e+00
232,1.200000000000e+00,4.752121320344e+01,6.060660171780e-01
233,-4.939339828220e-01,4.247454415588e+01,0.000000000000e+00
234,1.500000000000e-01,4.496400000000e+01,0.000000000000e+00
235,7.060660171780e-01,4.747454415588e+01,0.000000000000e+00
236,4.939339828220e-01,4.247454415588e+01,0.000000000000e+00
237,-1.500000000000e-01,4.496400000000e+01,0.000000000000e+00
238,-7.060660171780e-01,4.747454415588e+01,0.000000000000e+00
239,-4.939339828220e-01,4.247454415588e+01,2.000000000000e+00
240,1.500000000000e-01,4.496400000000e+01,2.000000000000e+00
241,7.060660171780e-01,4.747454415588e+01,2.000000000000e+00
242,4.939339828220e-01,4.247454415588e+01,2.000000000000e+00
243,-1.500000000000e-01,4.496400000000e+01,2.000000000000e+00
244,-7.060660171780e-01,4.747454415588e+01,2.000000000000e+00
*ELEMENT,TYPE=B31,ELSET=ALL
1,1,25
2,25,26
3,26,27
4,27,5
5,2,28
6,28,29
7,29,30
8,30,6
9,3,31
10,31,32
11,32,33
12,33,7
13,4,34
14,34,35
15,35,36
16,36,8
17,5,37
18,37,9
19,6,38
20,38,10
21,7,39
22,39,11
23,8,40
24,40,12
25,9,41
26,41,13
27,10,42
28,42,14
29,11,43
30,43,15
31,12,44
32,44,16
33,13,45
34,45,46
35,46,47
36,47,48
37,48,49
38,49,50
39,50,51
40,51,17
41,14,52
42,52,53
43,53,54
44,54,55
45,55,56
46,56,57
47,57,58
48,58,18
49,15,59
50,59,60
51,60,61
52,61,62
53,62,63
54,63,64
55,64,65
56,65,19
57,16,66
58,66,67
59,67,68
60,68,69
61,69,70
62,70,71
63,71,72
64,72,20
65,17,73
66,73,74
67,74,75
68,75,76
69,76,77
70,77,78
71,78,79
72,79,21
73,18,80
74,80,81
75,81,82
76,82,83
77,83,84
78,84,85
79,85,86
80,86,22
81,19,87
82,87,88
83,88,89
84,89,90
85,90,91
86,91,92
87,92,93
88,93,23
89,20,94
90,94,95
91,95,96
92,96,97
93,97,98
94,98,99
95,99,100
96,100,24
97,1,101
98,101,2
99,3,102
100,102,4
101,1,103
102,103,3
103,2,104
104,104,4
105,5,105
106,105,6
107,7,106
108,106,8
109,5,107
110,107,7
111,6,108
112,108,8
113,9,109
114,109,110
115,110,111
116,111,10
117,11,112
118,112,113
119,113,114
120,114,12
121,9,115
122,115,116
123,116,117
124,117,11
125,10,118
126,118,119
127,119,120
128,120,12
129,13,121
130,121,122
131,122,123
132,123,14
133,15,124
134,124,125
135,125,126
136,126,16
137,13,127
138,127,128
139,128,129
140,129,15
141,14,130
142,130,131
143,131,132
144,132,16
145,17,18
146,19,20
147,17,19
148,18,20
149,21,22
150,23,24
151,21,23
152,22,24
153,1,133
154,133,134
155,134,135
156,135,7
157,3,136
158,136,137
159,137,138
160,138,5
161,2,139
162,139,140
163,140,141
164,141,8
165,4,142
166,142,143
167,143,144
168,144,6
169,1,145
170,145,146
171,146,147
172,147,6
173,2,148
174,148,149
175,149,150
176,150,5
177,3,151
178,151,152
179,152,153
180,153,8
181,4,154
182,154,155
183,155,156
184,156,7
185,5,11
186,7,9
187,6,12
188,8,10
189,5,10
190,6,9
191,7,12
192,8,11
193,9,157
194,157,15
195,11,158
196,158,13
197,10,159
198,159,16
199,12,160
200,160,14
201,9,161
202,161,14
203,10,162
204,162,13
205,11,163
206,163,16
207,12,164
208,164,15
209,13,165
210,165,166
211,166,167
212,167,168
213,168,169
214,169,170
215,170,171
216,171,19
217,15,172
218,172,173
219,173,174
220,174,175
221,175,176
222,176,177
223,177,178
224,178,17
225,14,179
226,179,180
227,180,181
228,181,182
229,182,183
230,183,184
231,184,185
232,185,20
233,16,186
234,186,187
235,187,188
236,188,189
237,189,190
238,190,191
239,191,192
240,192,18
241,13,193
242,193,194
243,194,195
244,195,196
245,196,197
246,197,198
247,198,199
248,199,18
249,14,200
250,200,201
251,201,202
252,202,203
253,203,204
254,204,205
255,205,206
256,206,17
257,15,207
258,207,208
259,208,209
260,209,210
261,210,211
262,211,212
263,212,213
264,213,20
265,16,214
266,214,215
267,215,216
268,216,217
269,217,218
270,218,219
271,219,220
272,220,19
273,17,221
274,221,222
275,222,223
276,223,23
277,19,224
278,224,225
279,225,226
280,226,21
281,18,227
282,227,228
283,228,229
284,229,24
285,20,230
286,230,231
287,231,232
288,232,22
289,17,233
290,233,234
291,234,235
292,235,22
293,18,236
294,236,237
295,237,238
296,238,21
297,19,239
298,239,240
299,240,241
300,241,24
301,20,242
302,242,243
303,243,244
304,244,23
*NSET,NSET=NALL,GENERATE
1,244,1
*NSET,NSET=LEFT
1,2,3,4
*NSET,NSET=RIGHT
21,22,23,24
*MATERIAL,NAME=STEEL
*ELASTIC
2.100000000000e+11,0.300000000000
*BEAM SECTION,ELSET=ALL,MATERIAL=STEEL,SECTION=RECT
6.000000000000e-02,4.000000000000e-02
0.371390676354,0.557086014531,0.742781352708
*BOUNDARY
LEFT,1,6,0.0
*STEP
*STATIC
*BOUNDARY
21,1,1,5.000000000000e-03
21,2,2,0.0
21,3,3,-6.000000000000e-03
*BOUNDARY
22,1,1,5.000000000000e-03
22,2,2,0.0
22,3,3,6.000000000000e-03
*BOUNDARY
23,1,1,-5.000000000000e-03
23,2,2,0.0
23,3,3,-6.000000000000e-03
*BOUNDARY
24,1,1,-5.000000000000e-03
24,2,2,0.0
24,3,3,6.000000000000e-03
*NODE FILE,NSET=NALL
U
*NODE PRINT,NSET=NALL
U
*NODE PRINT,NSET=RIGHT
RF
*EL PRINT,ELSET=ALL,TOTALS=YES
ELSE
*END STEP
