*HEADING
Normalized cross-passage space-truss torsion benchmark
*NODE
1,-1.200000000000e+00,0.000000000000e+00,0.000000000000e+00
2,1.200000000000e+00,0.000000000000e+00,0.000000000000e+00
3,-1.200000000000e+00,0.000000000000e+00,2.000000000000e+00
4,1.200000000000e+00,0.000000000000e+00,2.000000000000e+00
5,-1.200000000000e+00,1.000000000000e+01,0.000000000000e+00
6,1.200000000000e+00,1.000000000000e+01,0.000000000000e+00
7,-1.200000000000e+00,1.000000000000e+01,2.000000000000e+00
8,1.200000000000e+00,1.000000000000e+01,2.000000000000e+00
9,-1.200000000000e+00,2.000000000000e+01,0.000000000000e+00
10,1.200000000000e+00,2.000000000000e+01,0.000000000000e+00
11,-1.200000000000e+00,2.000000000000e+01,2.000000000000e+00
12,1.200000000000e+00,2.000000000000e+01,2.000000000000e+00
13,-1.200000000000e+00,3.000000000000e+01,0.000000000000e+00
14,1.200000000000e+00,3.000000000000e+01,0.000000000000e+00
15,-1.200000000000e+00,3.000000000000e+01,2.000000000000e+00
16,1.200000000000e+00,3.000000000000e+01,2.000000000000e+00
17,-1.200000000000e+00,4.000000000000e+01,0.000000000000e+00
18,1.200000000000e+00,4.000000000000e+01,0.000000000000e+00
19,-1.200000000000e+00,4.000000000000e+01,2.000000000000e+00
20,1.200000000000e+00,4.000000000000e+01,2.000000000000e+00
21,-1.200000000000e+00,5.000000000000e+01,0.000000000000e+00
22,1.200000000000e+00,5.000000000000e+01,0.000000000000e+00
23,-1.200000000000e+00,5.000000000000e+01,2.000000000000e+00
24,1.200000000000e+00,5.000000000000e+01,2.000000000000e+00
25,-1.200000000000e+00,5.000000000000e+00,-1.500000000000e-01
26,1.200000000000e+00,5.000000000000e+00,1.500000000000e-01
27,-1.200000000000e+00,5.000000000000e+00,1.850000000000e+00
28,1.200000000000e+00,5.000000000000e+00,2.150000000000e+00
29,-1.200000000000e+00,2.250000000000e+01,-1.060660171780e-01
30,-1.200000000000e+00,2.500000000000e+01,-1.500000000000e-01
31,-1.200000000000e+00,2.750000000000e+01,-1.060660171780e-01
32,1.200000000000e+00,2.250000000000e+01,1.060660171780e-01
33,1.200000000000e+00,2.500000000000e+01,1.500000000000e-01
34,1.200000000000e+00,2.750000000000e+01,1.060660171780e-01
35,-1.200000000000e+00,2.250000000000e+01,1.893933982822e+00
36,-1.200000000000e+00,2.500000000000e+01,1.850000000000e+00
37,-1.200000000000e+00,2.750000000000e+01,1.893933982822e+00
38,1.200000000000e+00,2.250000000000e+01,2.106066017178e+00
39,1.200000000000e+00,2.500000000000e+01,2.150000000000e+00
40,1.200000000000e+00,2.750000000000e+01,2.106066017178e+00
41,-1.200000000000e+00,4.500000000000e+01,-1.500000000000e-01
42,1.200000000000e+00,4.500000000000e+01,1.500000000000e-01
43,-1.200000000000e+00,4.500000000000e+01,1.850000000000e+00
44,1.200000000000e+00,4.500000000000e+01,2.150000000000e+00
45,0.000000000000e+00,-3.600000000000e-02,0.000000000000e+00
46,0.000000000000e+00,3.600000000000e-02,2.000000000000e+00
47,-1.200000000000e+00,3.000000000000e-02,1.000000000000e+00
48,1.200000000000e+00,-3.000000000000e-02,1.000000000000e+00
49,0.000000000000e+00,1.996400000000e+01,0.000000000000e+00
50,0.000000000000e+00,2.003600000000e+01,2.000000000000e+00
51,-1.200000000000e+00,2.003000000000e+01,1.000000000000e+00
52,1.200000000000e+00,1.997000000000e+01,1.000000000000e+00
53,0.000000000000e+00,2.996400000000e+01,0.000000000000e+00
54,0.000000000000e+00,3.003600000000e+01,2.000000000000e+00
55,-1.200000000000e+00,3.003000000000e+01,1.000000000000e+00
56,1.200000000000e+00,2.997000000000e+01,1.000000000000e+00
57,-6.000000000000e-01,4.997454415588e+01,0.000000000000e+00
58,0.000000000000e+00,4.996400000000e+01,0.000000000000e+00
59,6.000000000000e-01,4.997454415588e+01,0.000000000000e+00
60,-6.000000000000e-01,5.002545584412e+01,2.000000000000e+00
61,0.000000000000e+00,5.003600000000e+01,2.000000000000e+00
62,6.000000000000e-01,5.002545584412e+01,2.000000000000e+00
63,-1.200000000000e+00,5.002121320344e+01,5.000000000000e-01
64,-1.200000000000e+00,5.003000000000e+01,1.000000000000e+00
65,-1.200000000000e+00,5.002121320344e+01,1.500000000000e+00
66,1.200000000000e+00,4.997878679656e+01,5.000000000000e-01
67,1.200000000000e+00,4.997000000000e+01,1.000000000000e+00
68,1.200000000000e+00,4.997878679656e+01,1.500000000000e+00
69,-1.200000000000e+00,2.521213203436e+00,3.939339828220e-01
70,-1.200000000000e+00,5.030000000000e+00,8.500000000000e-01
71,-1.200000000000e+00,7.521213203436e+00,1.393933982822e+00
72,-1.200000000000e+00,2.521213203436e+00,1.606066017178e+00
73,-1.200000000000e+00,5.030000000000e+00,1.150000000000e+00
74,-1.200000000000e+00,7.521213203436e+00,6.060660171780e-01
75,1.200000000000e+00,2.521213203436e+00,3.939339828220e-01
76,1.200000000000e+00,5.030000000000e+00,8.500000000000e-01
77,1.200000000000e+00,7.521213203436e+00,1.393933982822e+00
78,1.200000000000e+00,2.521213203436e+00,1.606066017178e+00
79,1.200000000000e+00,5.030000000000e+00,1.150000000000e+00
80,1.200000000000e+00,7.521213203436e+00,6.060660171780e-01
81,-4.939339828220e-01,2.474544155877e+00,0.000000000000e+00
82,1.500000000000e-01,4.964000000000e+00,0.000000000000e+00
83,7.060660171780e-01,7.474544155877e+00,0.000000000000e+00
84,4.939339828220e-01,2.474544155877e+00,0.000000000000e+00
85,-1.500000000000e-01,4.964000000000e+00,0.000000000000e+00
86,-7.060660171780e-01,7.474544155877e+00,0.000000000000e+00
87,-4.939339828220e-01,2.474544155877e+00,2.000000000000e+00
88,1.500000000000e-01,4.964000000000e+00,2.000000000000e+00
89,7.060660171780e-01,7.474544155877e+00,2.000000000000e+00
90,4.939339828220e-01,2.474544155877e+00,2.000000000000e+00
91,-1.500000000000e-01,4.964000000000e+00,2.000000000000e+00
92,-7.060660171780e-01,7.474544155877e+00,2.000000000000e+00
93,-1.200000000000e+00,1.252121320344e+01,3.939339828220e-01
94,-1.200000000000e+00,1.503000000000e+01,8.500000000000e-01
95,-1.200000000000e+00,1.752121320344e+01,1.393933982822e+00
96,-1.200000000000e+00,1.252121320344e+01,1.606066017178e+00
97,-1.200000000000e+00,1.503000000000e+01,1.150000000000e+00
98,-1.200000000000e+00,1.752121320344e+01,6.060660171780e-01
99,1.200000000000e+00,1.252121320344e+01,3.939339828220e-01
100,1.200000000000e+00,1.503000000000e+01,8.500000000000e-01
101,1.200000000000e+00,1.752121320344e+01,1.393933982822e+00
102,1.200000000000e+00,1.252121320344e+01,1.606066017178e+00
103,1.200000000000e+00,1.503000000000e+01,1.150000000000e+00
104,1.200000000000e+00,1.752121320344e+01,6.060660171780e-01
105,-4.939339828220e-01,1.247454415588e+01,0.000000000000e+00
106,1.500000000000e-01,1.496400000000e+01,0.000000000000e+00
107,7.060660171780e-01,1.747454415588e+01,0.000000000000e+00
108,4.939339828220e-01,1.247454415588e+01,0.000000000000e+00
109,-1.500000000000e-01,1.496400000000e+01,0.000000000000e+00
110,-7.060660171780e-01,1.747454415588e+01,0.000000000000e+00
111,-4.939339828220e-01,1.247454415588e+01,2.000000000000e+00
112,1.500000000000e-01,1.496400000000e+01,2.000000000000e+00
113,7.060660171780e-01,1.747454415588e+01,2.000000000000e+00
114,4.939339828220e-01,1.247454415588e+01,2.000000000000e+00
115,-1.500000000000e-01,1.496400000000e+01,2.000000000000e+00
116,-7.060660171780e-01,1.747454415588e+01,2.000000000000e+00
*ELEMENT,TYPE=B31,ELSET=ALL
1,1,25
2,25,5
3,2,26
4,26,6
5,3,27
6,27,7
7,4,28
8,28,8
9,5,9
10,6,10
11,7,11
12,8,12
13,9,29
14,29,30
15,30,31
16,31,13
17,10,32
18,32,33
19,33,34
20,34,14
21,11,35
22,35,36
23,36,37
24,37,15
25,12,38
26,38,39
27,39,40
28,40,16
29,13,17
30,14,18
31,15,19
32,16,20
33,17,41
34,41,21
35,18,42
36,42,22
37,19,43
38,43,23
39,20,44
40,44,24
41,1,45
42,45,2
43,3,46
44,46,4
45,1,47
46,47,3
47,2,48
48,48,4
49,5,6
50,7,8
51,5,7
52,6,8
53,9,49
54,49,10
55,11,50
56,50,12
57,9,51
58,51,11
59,10,52
60,52,12
61,13,53
62,53,14
63,15,54
64,54,16
65,13,55
66,55,15
67,14,56
68,56,16
69,17,18
70,19,20
71,17,19
72,18,20
73,21,57
74,57,58
75,58,59
76,59,22
77,23,60
78,60,61
79,61,62
80,62,24
81,21,63
82,63,64
83,64,65
84,65,23
85,22,66
86,66,67
87,67,68
88,68,24
89,1,69
90,69,70
91,70,71
92,71,7
93,3,72
94,72,73
95,73,74
96,74,5
97,2,75
98,75,76
99,76,77
100,77,8
101,4,78
102,78,79
103,79,80
104,80,6
105,1,81
106,81,82
107,82,83
108,83,6
109,2,84
110,84,85
111,85,86
112,86,5
113,3,87
114,87,88
115,88,89
116,89,8
117,4,90
118,90,91
119,91,92
120,92,7
121,5,93
122,93,94
123,94,95
124,95,11
125,7,96
126,96,97
127,97,98
128,98,9
129,6,99
130,99,100
131,100,101
132,101,12
133,8,102
134,102,103
135,103,104
136,104,10
137,5,105
138,105,106
139,106,107
140,107,10
141,6,108
142,108,109
143,109,110
144,110,9
145,7,111
146,111,112
147,112,113
148,113,12
149,8,114
150,114,115
151,115,116
152,116,11
153,9,15
154,11,13
155,10,16
156,12,14
157,9,14
158,10,13
159,11,16
160,12,15
161,13,19
162,15,17
163,14,20
164,16,18
165,13,18
166,14,17
167,15,20
168,16,19
169,17,23
170,19,21
171,18,24
172,20,22
173,17,22
174,18,21
175,19,24
176,20,23
*NSET,NSET=NALL,GENERATE
1,116,1
*NSET,NSET=LEFT
1,2,3,4
*NSET,NSET=RIGHT
21,22,23,24
*MATERIAL,NAME=STEEL
*ELASTIC
2.100000000000e+11,0.300000000000
*BEAM SECTION,ELSET=ALL,MATERIAL=STEEL,SECTION=RECT
6.000000000000e-02,4.000000000000e-02
0.371390676354,0.557086014531,0.742781352708
*BOUNDARY
LEFT,1,6,0.0
*STEP
*STATIC
*BOUNDARY
21,1,1,5.000000000000e-03
21,2,2,0.0
21,3,3,-6.000000000000e-03
*BOUNDARY
22,1,1,5.000000000000e-03
22,2,2,0.0
22,3,3,6.000000000000e-03
*BOUNDARY
23,1,1,-5.000000000000e-03
23,2,2,0.0
23,3,3,-6.000000000000e-03
*BOUNDARY
24,1,1,-5.000000000000e-03
24,2,2,0.0
24,3,3,6.000000000000e-03
*NODE FILE,NSET=NALL
U
*NODE PRINT,NSET=NALL
U
*NODE PRINT,NSET=RIGHT
RF
*EL PRINT,ELSET=ALL,TOTALS=YES
ELSE
*END STEP
