*HEADING
Normalized cross-passage space-truss torsion benchmark
*NODE
1,-1.200000000000e+00,0.000000000000e+00,0.000000000000e+00
2,1.200000000000e+00,0.000000000000e+00,0.000000000000e+00
3,-1.200000000000e+00,0.000000000000e+00,2.000000000000e+00
4,1.200000000000e+00,0.000000000000e+00,2.000000000000e+00
5,-1.200000000000e+00,1.000000000000e+01,0.000000000000e+00
6,1.200000000000e+00,1.000000000000e+01,0.000000000000e+00
7,-1.200000000000e+00,1.000000000000e+01,2.000000000000e+00
8,1.200000000000e+00,1.000000000000e+01,2.000000000000e+00
9,-1.200000000000e+00,2.000000000000e+01,0.000000000000e+00
10,1.200000000000e+00,2.000000000000e+01,0.000000000000e+00
11,-1.200000000000e+00,2.000000000000e+01,2.000000000000e+00
12,1.200000000000e+00,2.000000000000e+01,2.000000000000e+00
13,-1.200000000000e+00,3.000000000000e+01,0.000000000000e+00
14,1.200000000000e+00,3.000000000000e+01,0.000000000000e+00
15,-1.200000000000e+00,3.000000000000e+01,2.000000000000e+00
16,1.200000000000e+00,3.000000000000e+01,2.000000000000e+00
17,-1.200000000000e+00,4.000000000000e+01,0.000000000000e+00
18,1.200000000000e+00,4.000000000000e+01,0.000000000000e+00
19,-1.200000000000e+00,4.000000000000e+01,2.000000000000e+00
20,1.200000000000e+00,4.000000000000e+01,2.000000000000e+00
21,-1.200000000000e+00,5.000000000000e+01,0.000000000000e+00
22,1.200000000000e+00,5.000000000000e+01,0.000000000000e+00
23,-1.200000000000e+00,5.000000000000e+01,2.000000000000e+00
24,1.200000000000e+00,5.000000000000e+01,2.000000000000e+00
25,-1.200000000000e+00,2.500000000000e+01,-1.500000000000e-01
26,1.200000000000e+00,2.500000000000e+01,1.500000000000e-01
27,-1.200000000000e+00,2.500000000000e+01,1.850000000000e+00
28,1.200000000000e+00,2.500000000000e+01,2.150000000000e+00
29,-1.200000000000e+00,3.250000000000e+01,-1.060660171780e-01
30,-1.200000000000e+00,3.500000000000e+01,-1.500000000000e-01
31,-1.200000000000e+00,3.750000000000e+01,-1.060660171780e-01
32,1.200000000000e+00,3.250000000000e+01,1.060660171780e-01
33,1.200000000000e+00,3.500000000000e+01,1.500000000000e-01
34,1.200000000000e+00,3.750000000000e+01,1.060660171780e-01
35,-1.200000000000e+00,3.250000000000e+01,1.893933982822e+00
36,-1.200000000000e+00,3.500000000000e+01,1.850000000000e+00
37,-1.200000000000e+00,3.750000000000e+01,1.893933982822e+00
38,1.200000000000e+00,3.250000000000e+01,2.106066017178e+00
39,1.200000000000e+00,3.500000000000e+01,2.150000000000e+00
40,1.200000000000e+00,3.750000000000e+01,2.106066017178e+00
41,-1.200000000000e+00,4.125000000000e+01,-5.740251485476e-02
42,-1.200000000000e+00,4.250000000000e+01,-1.060660171780e-01
43,-1.200000000000e+00,4.375000000000e+01,-1.385819298767e-01
44,-1.200000000000e+00,4.500000000000e+01,-1.500000000000e-01
45,-1.200000000000e+00,4.625000000000e+01,-1.385819298767e-01
46,-1.200000000000e+00,4.750000000000e+01,-1.060660171780e-01
47,-1.200000000000e+00,4.875000000000e+01,-5.740251485476e-02
48,1.200000000000e+00,4.125000000000e+01,5.740251485476e-02
49,1.200000000000e+00,4.250000000000e+01,1.060660171780e-01
50,1.200000000000e+00,4.375000000000e+01,1.385819298767e-01
51,1.200000000000e+00,4.500000000000e+01,1.500000000000e-01
52,1.200000000000e+00,4.625000000000e+01,1.385819298767e-01
53,1.200000000000e+00,4.750000000000e+01,1.060660171780e-01
54,1.200000000000e+00,4.875000000000e+01,5.740251485476e-02
55,-1.200000000000e+00,4.125000000000e+01,1.942597485145e+00
56,-1.200000000000e+00,4.250000000000e+01,1.893933982822e+00
57,-1.200000000000e+00,4.375000000000e+01,1.861418070123e+00
58,-1.200000000000e+00,4.500000000000e+01,1.850000000000e+00
59,-1.200000000000e+00,4.625000000000e+01,1.861418070123e+00
60,-1.200000000000e+00,4.750000000000e+01,1.893933982822e+00
61,-1.200000000000e+00,4.875000000000e+01,1.942597485145e+00
62,1.200000000000e+00,4.125000000000e+01,2.057402514855e+00
63,1.200000000000e+00,4.250000000000e+01,2.106066017178e+00
64,1.200000000000e+00,4.375000000000e+01,2.138581929877e+00
65,1.200000000000e+00,4.500000000000e+01,2.150000000000e+00
66,1.200000000000e+00,4.625000000000e+01,2.138581929877e+00
67,1.200000000000e+00,4.750000000000e+01,2.106066017178e+00
68,1.200000000000e+00,4.875000000000e+01,2.057402514855e+00
69,-6.000000000000e-01,-2.545584412272e-02,0.000000000000e+00
70,0.000000000000e+00,-3.600000000000e-02,0.000000000000e+00
71,6.000000000000e-01,-2.545584412272e-02,0.000000000000e+00
72,-6.000000000000e-01,2.545584412272e-02,2.000000000000e+00
73,0.000000000000e+00,3.600000000000e-02,2.000000000000e+00
74,6.000000000000e-01,2.545584412272e-02,2.000000000000e+00
75,-1.200000000000e+00,2.121320343560e-02,5.000000000000e-01
76,-1.200000000000e+00,3.000000000000e-02,1.000000000000e+00
77,-1.200000000000e+00,2.121320343560e-02,1.500000000000e+00
78,1.200000000000e+00,-2.121320343560e-02,5.000000000000e-01
79,1.200000000000e+00,-3.000000000000e-02,1.000000000000e+00
80,1.200000000000e+00,-2.121320343560e-02,1.500000000000e+00
81,0.000000000000e+00,1.996400000000e+01,0.000000000000e+00
82,0.000000000000e+00,2.003600000000e+01,2.000000000000e+00
83,-1.200000000000e+00,2.003000000000e+01,1.000000000000e+00
84,1.200000000000e+00,1.997000000000e+01,1.000000000000e+00
85,-9.000000000000e-01,3.998622339643e+01,0.000000000000e+00
86,-6.000000000000e-01,3.997454415588e+01,0.000000000000e+00
87,-3.000000000000e-01,3.996674033683e+01,0.000000000000e+00
88,0.000000000000e+00,3.996400000000e+01,0.000000000000e+00
89,3.000000000000e-01,3.996674033683e+01,0.000000000000e+00
90,6.000000000000e-01,3.997454415588e+01,0.000000000000e+00
91,9.000000000000e-01,3.998622339643e+01,0.000000000000e+00
92,-9.000000000000e-01,4.001377660357e+01,2.000000000000e+00
93,-6.000000000000e-01,4.002545584412e+01,2.000000000000e+00
94,-3.000000000000e-01,4.003325966317e+01,2.000000000000e+00
95,0.000000000000e+00,4.003600000000e+01,2.000000000000e+00
96,3.000000000000e-01,4.003325966317e+01,2.000000000000e+00
97,6.000000000000e-01,4.002545584412e+01,2.000000000000e+00
98,9.000000000000e-01,4.001377660357e+01,2.000000000000e+00
99,-1.200000000000e+00,4.001148050297e+01,2.500000000000e-01
100,-1.200000000000e+00,4.002121320344e+01,5.000000000000e-01
101,-1.200000000000e+00,4.002771638598e+01,7.500000000000e-01
102,-1.200000000000e+00,4.003000000000e+01,1.000000000000e+00
103,-1.200000000000e+00,4.002771638598e+01,1.250000000000e+00
104,-1.200000000000e+00,4.002121320344e+01,1.500000000000e+00
105,-1.200000000000e+00,4.001148050297e+01,1.750000000000e+00
106,1.200000000000e+00,3.998851949703e+01,2.500000000000e-01
107,1.200000000000e+00,3.997878679656e+01,5.000000000000e-01
108,1.200000000000e+00,3.997228361402e+01,7.500000000000e-01
109,1.200000000000e+00,3.997000000000e+01,1.000000000000e+00
110,1.200000000000e+00,3.997228361402e+01,1.250000000000e+00
111,1.200000000000e+00,3.997878679656e+01,1.500000000000e+00
112,1.200000000000e+00,3.998851949703e+01,1.750000000000e+00
113,-9.000000000000e-01,4.998622339643e+01,0.000000000000e+00
114,-6.000000000000e-01,4.997454415588e+01,0.000000000000e+00
115,-3.000000000000e-01,4.996674033683e+01,0.000000000000e+00
116,0.000000000000e+00,4.996400000000e+01,0.000000000000e+00
117,3.000000000000e-01,4.996674033683e+01,0.000000000000e+00
118,6.000000000000e-01,4.997454415588e+01,0.000000000000e+00
119,9.000000000000e-01,4.998622339643e+01,0.000000000000e+00
120,-9.000000000000e-01,5.001377660357e+01,2.000000000000e+00
121,-6.000000000000e-01,5.002545584412e+01,2.000000000000e+00
122,-3.000000000000e-01,5.003325966317e+01,2.000000000000e+00
123,0.000000000000e+00,5.003600000000e+01,2.000000000000e+00
124,3.000000000000e-01,5.003325966317e+01,2.000000000000e+00
125,6.000000000000e-01,5.002545584412e+01,2.000000000000e+00
126,9.000000000000e-01,5.001377660357e+01,2.000000000000e+00
127,-1.200000000000e+00,5.001148050297e+01,2.500000000000e-01
128,-1.200000000000e+00,5.002121320344e+01,5.000000000000e-01
129,-1.200000000000e+00,5.002771638598e+01,7.500000000000e-01
130,-1.200000000000e+00,5.003000000000e+01,1.000000000000e+00
131,-1.200000000000e+00,5.002771638598e+01,1.250000000000e+00
132,-1.200000000000e+00,5.002121320344e+01,1.500000000000e+00
133,-1.200000000000e+00,5.001148050297e+01,1.750000000000e+00
134,1.200000000000e+00,4.998851949703e+01,2.500000000000e-01
135,1.200000000000e+00,4.997878679656e+01,5.000000000000e-01
136,1.200000000000e+00,4.997228361402e+01,7.500000000000e-01
137,1.200000000000e+00,4.997000000000e+01,1.000000000000e+00
138,1.200000000000e+00,4.997228361402e+01,1.250000000000e+00
139,1.200000000000e+00,4.997878679656e+01,1.500000000000e+00
140,1.200000000000e+00,4.998851949703e+01,1.750000000000e+00
141,-1.200000000000e+00,5.030000000000e+00,8.500000000000e-01
142,-1.200000000000e+00,5.030000000000e+00,1.150000000000e+00
143,1.200000000000e+00,5.030000000000e+00,8.500000000000e-01
144,1.200000000000e+00,5.030000000000e+00,1.150000000000e+00
145,1.500000000000e-01,4.964000000000e+00,0.000000000000e+00
146,-1.500000000000e-01,4.964000000000e+00,0.000000000000e+00
147,1.500000000000e-01,4.964000000000e+00,2.000000000000e+00
148,-1.500000000000e-01,4.964000000000e+00,2.000000000000e+00
149,-1.200000000000e+00,1.503000000000e+01,8.500000000000e-01
150,-1.200000000000e+00,1.503000000000e+01,1.150000000000e+00
151,1.200000000000e+00,1.503000000000e+01,8.500000000000e-01
152,1.200000000000e+00,1.503000000000e+01,1.150000000000e+00
153,1.500000000000e-01,1.496400000000e+01,0.000000000000e+00
154,-1.500000000000e-01,1.496400000000e+01,0.000000000000e+00
155,1.500000000000e-01,1.496400000000e+01,2.000000000000e+00
156,-1.500000000000e-01,1.496400000000e+01,2.000000000000e+00
157,-1.200000000000e+00,4.126148050297e+01,1.925974851452e-01
158,-1.200000000000e+00,4.252121320344e+01,3.939339828220e-01
159,-1.200000000000e+00,4.377771638598e+01,6.114180701233e-01
160,-1.200000000000e+00,4.503000000000e+01,8.500000000000e-01
161,-1.200000000000e+00,4.627771638598e+01,1.111418070123e+00
162,-1.200000000000e+00,4.752121320344e+01,1.393933982822e+00
163,-1.200000000000e+00,4.876148050297e+01,1.692597485145e+00
164,-1.200000000000e+00,4.126148050297e+01,1.807402514855e+00
165,-1.200000000000e+00,4.252121320344e+01,1.606066017178e+00
166,-1.200000000000e+00,4.377771638598e+01,1.388581929877e+00
167,-1.200000000000e+00,4.503000000000e+01,1.150000000000e+00
168,-1.200000000000e+00,4.627771638598e+01,8.885819298767e-01
169,-1.200000000000e+00,4.752121320344e+01,6.060660171780e-01
170,-1.200000000000e+00,4.876148050297e+01,3.074025148548e-01
171,1.200000000000e+00,4.126148050297e+01,1.925974851452e-01
172,1.200000000000e+00,4.252121320344e+01,3.939339828220e-01
173,1.200000000000e+00,4.377771638598e+01,6.114180701233e-01
174,1.200000000000e+00,4.503000000000e+01,8.500000000000e-01
175,1.200000000000e+00,4.627771638598e+01,1.111418070123e+00
176,1.200000000000e+00,4.752121320344e+01,1.393933982822e+00
177,1.200000000000e+00,4.876148050297e+01,1.692597485145e+00
178,1.200000000000e+00,4.126148050297e+01,1.807402514855e+00
179,1.200000000000e+00,4.252121320344e+01,1.606066017178e+00
180,1.200000000000e+00,4.377771638598e+01,1.388581929877e+00
181,1.200000000000e+00,4.503000000000e+01,1.150000000000e+00
182,1.200000000000e+00,4.627771638598e+01,8.885819298767e-01
183,1.200000000000e+00,4.752121320344e+01,6.060660171780e-01
184,1.200000000000e+00,4.876148050297e+01,3.074025148548e-01
185,-8.425974851452e-01,4.123622339643e+01,0.000000000000e+00
186,-4.939339828220e-01,4.247454415588e+01,0.000000000000e+00
187,-1.614180701233e-01,4.371674033683e+01,0.000000000000e+00
188,1.500000000000e-01,4.496400000000e+01,0.000000000000e+00
189,4.385819298767e-01,4.621674033683e+01,0.000000000000e+00
190,7.060660171780e-01,4.747454415588e+01,0.000000000000e+00
191,9.574025148548e-01,4.873622339643e+01,0.000000000000e+00
192,8.425974851452e-01,4.123622339643e+01,0.000000000000e+00
193,4.939339828220e-01,4.247454415588e+01,0.000000000000e+00
194,1.614180701233e-01,4.371674033683e+01,0.000000000000e+00
195,-1.500000000000e-01,4.496400000000e+01,0.000000000000e+00
196,-4.385819298767e-01,4.621674033683e+01,0.000000000000e+00
197,-7.060660171780e-01,4.747454415588e+01,0.000000000000e+00
198,-9.574025148548e-01,4.873622339643e+01,0.000000000000e+00
199,-8.425974851452e-01,4.123622339643e+01,2.000000000000e+00
200,-4.939339828220e-01,4.247454415588e+01,2.000000000000e+00
201,-1.614180701233e-01,4.371674033683e+01,2.000000000000e+00
202,1.500000000000e-01,4.496400000000e+01,2.000000000000e+00
203,4.385819298767e-01,4.621674033683e+01,2.000000000000e+00
204,7.060660171780e-01,4.747454415588e+01,2.000000000000e+00
205,9.574025148548e-01,4.873622339643e+01,2.000000000000e+00
206,8.425974851452e-01,4.123622339643e+01,2.000000000000e+00
207,4.939339828220e-01,4.247454415588e+01,2.000000000000e+00
208,1.614180701233e-01,4.371674033683e+01,2.000000000000e+00
209,-1.500000000000e-01,4.496400000000e+01,2.000000000000e+00
210,-4.385819298767e-01,4.621674033683e+01,2.000000000000e+00
211,-7.060660171780e-01,4.747454415588e+01,2.000000000000e+00
212,-9.574025148548e-01,4.873622339643e+01,2.000000000000e+00
*ELEMENT,TYPE=B31,ELSET=ALL
1,1,5
2,2,6
3,3,7
4,4,8
5,5,9
6,6,10
7,7,11
8,8,12
9,9,25
10,25,13
11,10,26
12,26,14
13,11,27
14,27,15
15,12,28
16,28,16
17,13,29
18,29,30
19,30,31
20,31,17
21,14,32
22,32,33
23,33,34
24,34,18
25,15,35
26,35,36
27,36,37
28,37,19
29,16,38
30,38,39
31,39,40
32,40,20
33,17,41
34,41,42
35,42,43
36,43,44
37,44,45
38,45,46
39,46,47
40,47,21
41,18,48
42,48,49
43,49,50
44,50,51
45,51,52
46,52,53
47,53,54
48,54,22
49,19,55
50,55,56
51,56,57
52,57,58
53,58,59
54,59,60
55,60,61
56,61,23
57,20,62
58,62,63
59,63,64
60,64,65
61,65,66
62,66,67
63,67,68
64,68,24
65,1,69
66,69,70
67,70,71
68,71,2
69,3,72
70,72,73
71,73,74
72,74,4
73,1,75
74,75,76
75,76,77
76,77,3
77,2,78
78,78,79
79,79,80
80,80,4
81,5,6
82,7,8
83,5,7
84,6,8
85,9,81
86,81,10
87,11,82
88,82,12
89,9,83
90,83,11
91,10,84
92,84,12
93,13,14
94,15,16
95,13,15
96,14,16
97,17,85
98,85,86
99,86,87
100,87,88
101,88,89
102,89,90
103,90,91
104,91,18
105,19,92
106,92,93
107,93,94
108,94,95
109,95,96
110,96,97
111,97,98
112,98,20
113,17,99
114,99,100
115,100,101
116,101,102
117,102,103
118,103,104
119,104,105
120,105,19
121,18,106
122,106,107
123,107,108
124,108,109
125,109,110
126,110,111
127,111,112
128,112,20
129,21,113
130,113,114
131,114,115
132,115,116
133,116,117
134,117,118
135,118,119
136,119,22
137,23,120
138,120,121
139,121,122
140,122,123
141,123,124
142,124,125
143,125,126
144,126,24
145,21,127
146,127,128
147,128,129
148,129,130
149,130,131
150,131,132
151,132,133
152,133,23
153,22,134
154,134,135
155,135,136
156,136,137
157,137,138
158,138,139
159,139,140
160,140,24
161,1,141
162,141,7
163,3,142
164,142,5
165,2,143
166,143,8
167,4,144
168,144,6
169,1,145
170,145,6
171,2,146
172,146,5
173,3,147
174,147,8
175,4,148
176,148,7
177,5,149
178,149,11
179,7,150
180,150,9
181,6,151
182,151,12
183,8,152
184,152,10
185,5,153
186,153,10
187,6,154
188,154,9
189,7,155
190,155,12
191,8,156
192,156,11
193,9,15
194,11,13
195,10,16
196,12,14
197,9,14
198,10,13
199,11,16
200,12,15
201,13,19
202,15,17
203,14,20
204,16,18
205,13,18
206,14,17
207,15,20
208,16,19
209,17,157
210,157,158
211,158,159
212,159,160
213,160,161
214,161,162
215,162,163
216,163,23
217,19,164
218,164,165
219,165,166
220,166,167
221,167,168
222,168,169
223,169,170
224,170,21
225,18,171
226,171,172
227,172,173
228,173,174
229,174,175
230,175,176
231,176,177
232,177,24
233,20,178
234,178,179
235,179,180
236,180,181
237,181,182
238,182,183
239,183,184
240,184,22
241,17,185
242,185,186
243,186,187
244,187,188
245,188,189
246,189,190
247,190,191
248,191,22
249,18,192
250,192,193
251,193,194
252,194,195
253,195,196
254,196,197
255,197,198
256,198,21
257,19,199
258,199,200
259,200,201
260,201,202
261,202,203
262,203,204
263,204,205
264,205,24
265,20,206
266,206,207
267,207,208
268,208,209
269,209,210
270,210,211
271,211,212
272,212,23
*NSET,NSET=NALL,GENERATE
1,212,1
*NSET,NSET=LEFT
1,2,3,4
*NSET,NSET=RIGHT
21,22,23,24
*MATERIAL,NAME=STEEL
*ELASTIC
2.100000000000e+11,0.300000000000
*BEAM SECTION,ELSET=ALL,MATERIAL=STEEL,SECTION=RECT
6.000000000000e-02,4.000000000000e-02
0.371390676354,0.557086014531,0.742781352708
*BOUNDARY
LEFT,1,6,0.0
*STEP
*STATIC
*BOUNDARY
21,1,1,5.000000000000e-03
21,2,2,0.0
21,3,3,-6.000000000000e-03
*BOUNDARY
22,1,1,5.000000000000e-03
22,2,2,0.0
22,3,3,6.000000000000e-03
*BOUNDARY
23,1,1,-5.000000000000e-03
23,2,2,0.0
23,3,3,-6.000000000000e-03
*BOUNDARY
24,1,1,-5.000000000000e-03
24,2,2,0.0
24,3,3,6.000000000000e-03
*NODE FILE,NSET=NALL
U
*NODE PRINT,NSET=NALL
U
*NODE PRINT,NSET=RIGHT
RF
*EL PRINT,ELSET=ALL,TOTALS=YES
ELSE
*END STEP
