*HEADING
Normalized cross-passage space-truss torsion benchmark
*NODE
1,-1.200000000000e+00,0.000000000000e+00,0.000000000000e+00
2,1.200000000000e+00,0.000000000000e+00,0.000000000000e+00
3,-1.200000000000e+00,0.000000000000e+00,2.000000000000e+00
4,1.200000000000e+00,0.000000000000e+00,2.000000000000e+00
5,-1.200000000000e+00,1.000000000000e+01,0.000000000000e+00
6,1.200000000000e+00,1.000000000000e+01,0.000000000000e+00
7,-1.200000000000e+00,1.000000000000e+01,2.000000000000e+00
8,1.200000000000e+00,1.000000000000e+01,2.000000000000e+00
9,-1.200000000000e+00,2.000000000000e+01,0.000000000000e+00
10,1.200000000000e+00,2.000000000000e+01,0.000000000000e+00
11,-1.200000000000e+00,2.000000000000e+01,2.000000000000e+00
12,1.200000000000e+00,2.000000000000e+01,2.000000000000e+00
13,-1.200000000000e+00,3.000000000000e+01,0.000000000000e+00
14,1.200000000000e+00,3.000000000000e+01,0.000000000000e+00
15,-1.200000000000e+00,3.000000000000e+01,2.000000000000e+00
16,1.200000000000e+00,3.000000000000e+01,2.000000000000e+00
17,-1.200000000000e+00,4.000000000000e+01,0.000000000000e+00
18,1.200000000000e+00,4.000000000000e+01,0.000000000000e+00
19,-1.200000000000e+00,4.000000000000e+01,2.000000000000e+00
20,1.200000000000e+00,4.000000000000e+01,2.000000000000e+00
21,-1.200000000000e+00,5.000000000000e+01,0.000000000000e+00
22,1.200000000000e+00,5.000000000000e+01,0.000000000000e+00
23,-1.200000000000e+00,5.000000000000e+01,2.000000000000e+00
24,1.200000000000e+00,5.000000000000e+01,2.000000000000e+00
25,-1.200000000000e+00,5.000000000000e+00,-1.500000000000e-01
26,1.200000000000e+00,5.000000000000e+00,1.500000000000e-01
27,-1.200000000000e+00,5.000000000000e+00,1.850000000000e+00
28,1.200000000000e+00,5.000000000000e+00,2.150000000000e+00
29,-1.200000000000e+00,1.500000000000e+01,-1.500000000000e-01
30,1.200000000000e+00,1.500000000000e+01,1.500000000000e-01
31,-1.200000000000e+00,1.500000000000e+01,1.850000000000e+00
32,1.200000000000e+00,1.500000000000e+01,2.150000000000e+00
33,-1.200000000000e+00,2.250000000000e+01,-1.060660171780e-01
34,-1.200000000000e+00,2.500000000000e+01,-1.500000000000e-01
35,-1.200000000000e+00,2.750000000000e+01,-1.060660171780e-01
36,1.200000000000e+00,2.250000000000e+01,1.060660171780e-01
37,1.200000000000e+00,2.500000000000e+01,1.500000000000e-01
38,1.200000000000e+00,2.750000000000e+01,1.060660171780e-01
39,-1.200000000000e+00,2.250000000000e+01,1.893933982822e+00
40,-1.200000000000e+00,2.500000000000e+01,1.850000000000e+00
41,-1.200000000000e+00,2.750000000000e+01,1.893933982822e+00
42,1.200000000000e+00,2.250000000000e+01,2.106066017178e+00
43,1.200000000000e+00,2.500000000000e+01,2.150000000000e+00
44,1.200000000000e+00,2.750000000000e+01,2.106066017178e+00
45,-1.200000000000e+00,3.500000000000e+01,-1.500000000000e-01
46,1.200000000000e+00,3.500000000000e+01,1.500000000000e-01
47,-1.200000000000e+00,3.500000000000e+01,1.850000000000e+00
48,1.200000000000e+00,3.500000000000e+01,2.150000000000e+00
49,-1.200000000000e+00,4.500000000000e+01,-1.500000000000e-01
50,1.200000000000e+00,4.500000000000e+01,1.500000000000e-01
51,-1.200000000000e+00,4.500000000000e+01,1.850000000000e+00
52,1.200000000000e+00,4.500000000000e+01,2.150000000000e+00
53,0.000000000000e+00,-3.600000000000e-02,0.000000000000e+00
54,0.000000000000e+00,3.600000000000e-02,2.000000000000e+00
55,-1.200000000000e+00,3.000000000000e-02,1.000000000000e+00
56,1.200000000000e+00,-3.000000000000e-02,1.000000000000e+00
57,0.000000000000e+00,9.964000000000e+00,0.000000000000e+00
58,0.000000000000e+00,1.003600000000e+01,2.000000000000e+00
59,-1.200000000000e+00,1.003000000000e+01,1.000000000000e+00
60,1.200000000000e+00,9.970000000000e+00,1.000000000000e+00
61,0.000000000000e+00,1.996400000000e+01,0.000000000000e+00
62,0.000000000000e+00,2.003600000000e+01,2.000000000000e+00
63,-1.200000000000e+00,2.003000000000e+01,1.000000000000e+00
64,1.200000000000e+00,1.997000000000e+01,1.000000000000e+00
65,0.000000000000e+00,2.996400000000e+01,0.000000000000e+00
66,0.000000000000e+00,3.003600000000e+01,2.000000000000e+00
67,-1.200000000000e+00,3.003000000000e+01,1.000000000000e+00
68,1.200000000000e+00,2.997000000000e+01,1.000000000000e+00
69,0.000000000000e+00,3.996400000000e+01,0.000000000000e+00
70,0.000000000000e+00,4.003600000000e+01,2.000000000000e+00
71,-1.200000000000e+00,4.003000000000e+01,1.000000000000e+00
72,1.200000000000e+00,3.997000000000e+01,1.000000000000e+00
73,0.000000000000e+00,4.996400000000e+01,0.000000000000e+00
74,0.000000000000e+00,5.003600000000e+01,2.000000000000e+00
75,-1.200000000000e+00,5.003000000000e+01,1.000000000000e+00
76,1.200000000000e+00,4.997000000000e+01,1.000000000000e+00
77,-1.200000000000e+00,1.261480502971e+00,1.925974851452e-01
78,-1.200000000000e+00,2.521213203436e+00,3.939339828220e-01
79,-1.200000000000e+00,3.777716385975e+00,6.114180701233e-01
80,-1.200000000000e+00,5.030000000000e+00,8.500000000000e-01
81,-1.200000000000e+00,6.277716385975e+00,1.111418070123e+00
82,-1.200000000000e+00,7.521213203436e+00,1.393933982822e+00
83,-1.200000000000e+00,8.761480502971e+00,1.692597485145e+00
84,-1.200000000000e+00,1.261480502971e+00,1.807402514855e+00
85,-1.200000000000e+00,2.521213203436e+00,1.606066017178e+00
86,-1.200000000000e+00,3.777716385975e+00,1.388581929877e+00
87,-1.200000000000e+00,5.030000000000e+00,1.150000000000e+00
88,-1.200000000000e+00,6.277716385975e+00,8.885819298767e-01
89,-1.200000000000e+00,7.521213203436e+00,6.060660171780e-01
90,-1.200000000000e+00,8.761480502971e+00,3.074025148548e-01
91,1.200000000000e+00,1.261480502971e+00,1.925974851452e-01
92,1.200000000000e+00,2.521213203436e+00,3.939339828220e-01
93,1.200000000000e+00,3.777716385975e+00,6.114180701233e-01
94,1.200000000000e+00,5.030000000000e+00,8.500000000000e-01
95,1.200000000000e+00,6.277716385975e+00,1.111418070123e+00
96,1.200000000000e+00,7.521213203436e+00,1.393933982822e+00
97,1.200000000000e+00,8.761480502971e+00,1.692597485145e+00
98,1.200000000000e+00,1.261480502971e+00,1.807402514855e+00
99,1.200000000000e+00,2.521213203436e+00,1.606066017178e+00
100,1.200000000000e+00,3.777716385975e+00,1.388581929877e+00
101,1.200000000000e+00,5.030000000000e+00,1.150000000000e+00
102,1.200000000000e+00,6.277716385975e+00,8.885819298767e-01
103,1.200000000000e+00,7.521213203436e+00,6.060660171780e-01
104,1.200000000000e+00,8.761480502971e+00,3.074025148548e-01
105,-8.425974851452e-01,1.236223396435e+00,0.000000000000e+00
106,-4.939339828220e-01,2.474544155877e+00,0.000000000000e+00
107,-1.614180701233e-01,3.716740336830e+00,0.000000000000e+00
108,1.500000000000e-01,4.964000000000e+00,0.000000000000e+00
109,4.385819298767e-01,6.216740336830e+00,0.000000000000e+00
110,7.060660171780e-01,7.474544155877e+00,0.000000000000e+00
111,9.574025148548e-01,8.736223396435e+00,0.000000000000e+00
112,8.425974851452e-01,1.236223396435e+00,0.000000000000e+00
113,4.939339828220e-01,2.474544155877e+00,0.000000000000e+00
114,1.614180701233e-01,3.716740336830e+00,0.000000000000e+00
115,-1.500000000000e-01,4.964000000000e+00,0.000000000000e+00
116,-4.385819298767e-01,6.216740336830e+00,0.000000000000e+00
117,-7.060660171780e-01,7.474544155877e+00,0.000000000000e+00
118,-9.574025148548e-01,8.736223396435e+00,0.000000000000e+00
119,-8.425974851452e-01,1.236223396435e+00,2.000000000000e+00
120,-4.939339828220e-01,2.474544155877e+00,2.000000000000e+00
121,-1.614180701233e-01,3.716740336830e+00,2.000000000000e+00
122,1.500000000000e-01,4.964000000000e+00,2.000000000000e+00
123,4.385819298767e-01,6.216740336830e+00,2.000000000000e+00
124,7.060660171780e-01,7.474544155877e+00,2.000000000000e+00
125,9.574025148548e-01,8.736223396435e+00,2.000000000000e+00
126,8.425974851452e-01,1.236223396435e+00,2.000000000000e+00
127,4.939339828220e-01,2.474544155877e+00,2.000000000000e+00
128,1.614180701233e-01,3.716740336830e+00,2.000000000000e+00
129,-1.500000000000e-01,4.964000000000e+00,2.000000000000e+00
130,-4.385819298767e-01,6.216740336830e+00,2.000000000000e+00
131,-7.060660171780e-01,7.474544155877e+00,2.000000000000e+00
132,-9.574025148548e-01,8.736223396435e+00,2.000000000000e+00
133,-1.200000000000e+00,1.503000000000e+01,8.500000000000e-01
134,-1.200000000000e+00,1.503000000000e+01,1.150000000000e+00
135,1.200000000000e+00,1.503000000000e+01,8.500000000000e-01
136,1.200000000000e+00,1.503000000000e+01,1.150000000000e+00
137,1.500000000000e-01,1.496400000000e+01,0.000000000000e+00
138,-1.500000000000e-01,1.496400000000e+01,0.000000000000e+00
139,1.500000000000e-01,1.496400000000e+01,2.000000000000e+00
140,-1.500000000000e-01,1.496400000000e+01,2.000000000000e+00
141,-1.200000000000e+00,2.126148050297e+01,1.925974851452e-01
142,-1.200000000000e+00,2.252121320344e+01,3.939339828220e-01
143,-1.200000000000e+00,2.377771638598e+01,6.114180701233e-01
144,-1.200000000000e+00,2.503000000000e+01,8.500000000000e-01
145,-1.200000000000e+00,2.627771638598e+01,1.111418070123e+00
146,-1.200000000000e+00,2.752121320344e+01,1.393933982822e+00
147,-1.200000000000e+00,2.876148050297e+01,1.692597485145e+00
148,-1.200000000000e+00,2.126148050297e+01,1.807402514855e+00
149,-1.200000000000e+00,2.252121320344e+01,1.606066017178e+00
150,-1.200000000000e+00,2.377771638598e+01,1.388581929877e+00
151,-1.200000000000e+00,2.503000000000e+01,1.150000000000e+00
152,-1.200000000000e+00,2.627771638598e+01,8.885819298767e-01
153,-1.200000000000e+00,2.752121320344e+01,6.060660171780e-01
154,-1.200000000000e+00,2.876148050297e+01,3.074025148548e-01
155,1.200000000000e+00,2.126148050297e+01,1.925974851452e-01
156,1.200000000000e+00,2.252121320344e+01,3.939339828220e-01
157,1.200000000000e+00,2.377771638598e+01,6.114180701233e-01
158,1.200000000000e+00,2.503000000000e+01,8.500000000000e-01
159,1.200000000000e+00,2.627771638598e+01,1.111418070123e+00
160,1.200000000000e+00,2.752121320344e+01,1.393933982822e+00
161,1.200000000000e+00,2.876148050297e+01,1.692597485145e+00
162,1.200000000000e+00,2.126148050297e+01,1.807402514855e+00
163,1.200000000000e+00,2.252121320344e+01,1.606066017178e+00
164,1.200000000000e+00,2.377771638598e+01,1.388581929877e+00
165,1.200000000000e+00,2.503000000000e+01,1.150000000000e+00
166,1.200000000000e+00,2.627771638598e+01,8.885819298767e-01
167,1.200000000000e+00,2.752121320344e+01,6.060660171780e-01
168,1.200000000000e+00,2.876148050297e+01,3.074025148548e-01
169,-8.425974851452e-01,2.123622339643e+01,0.000000000000e+00
170,-4.939339828220e-01,2.247454415588e+01,0.000000000000e+00
171,-1.614180701233e-01,2.371674033683e+01,0.000000000000e+00
172,1.500000000000e-01,2.496400000000e+01,0.000000000000e+00
173,4.385819298767e-01,2.621674033683e+01,0.000000000000e+00
174,7.060660171780e-01,2.747454415588e+01,0.000000000000e+00
175,9.574025148548e-01,2.873622339643e+01,0.000000000000e+00
176,8.425974851452e-01,2.123622339643e+01,0.000000000000e+00
177,4.939339828220e-01,2.247454415588e+01,0.000000000000e+00
178,1.614180701233e-01,2.371674033683e+01,0.000000000000e+00
179,-1.500000000000e-01,2.496400000000e+01,0.000000000000e+00
180,-4.385819298767e-01,2.621674033683e+01,0.000000000000e+00
181,-7.060660171780e-01,2.747454415588e+01,0.000000000000e+00
182,-9.574025148548e-01,2.873622339643e+01,0.000000000000e+00
183,-8.425974851452e-01,2.123622339643e+01,2.000000000000e+00
184,-4.939339828220e-01,2.247454415588e+01,2.000000000000e+00
185,-1.614180701233e-01,2.371674033683e+01,2.000000000000e+00
186,1.500000000000e-01,2.496400000000e+01,2.000000000000e+00
187,4.385819298767e-01,2.621674033683e+01,2.000000000000e+00
188,7.060660171780e-01,2.747454415588e+01,2.000000000000e+00
189,9.574025148548e-01,2.873622339643e+01,2.000000000000e+00
190,8.425974851452e-01,2.123622339643e+01,2.000000000000e+00
191,4.939339828220e-01,2.247454415588e+01,2.000000000000e+00
192,1.614180701233e-01,2.371674033683e+01,2.000000000000e+00
193,-1.500000000000e-01,2.496400000000e+01,2.000000000000e+00
194,-4.385819298767e-01,2.621674033683e+01,2.000000000000e+00
195,-7.060660171780e-01,2.747454415588e+01,2.000000000000e+00
196,-9.574025148548e-01,2.873622339643e+01,2.000000000000e+00
197,-1.200000000000e+00,3.126148050297e+01,1.925974851452e-01
198,-1.200000000000e+00,3.252121320344e+01,3.939339828220e-01
199,-1.200000000000e+00,3.377771638598e+01,6.114180701233e-01
200,-1.200000000000e+00,3.503000000000e+01,8.500000000000e-01
201,-1.200000000000e+00,3.627771638598e+01,1.111418070123e+00
202,-1.200000000000e+00,3.752121320344e+01,1.393933982822e+00
203,-1.200000000000e+00,3.876148050297e+01,1.692597485145e+00
204,-1.200000000000e+00,3.126148050297e+01,1.807402514855e+00
205,-1.200000000000e+00,3.252121320344e+01,1.606066017178e+00
206,-1.200000000000e+00,3.377771638598e+01,1.388581929877e+00
207,-1.200000000000e+00,3.503000000000e+01,1.150000000000e+00
208,-1.200000000000e+00,3.627771638598e+01,8.885819298767e-01
209,-1.200000000000e+00,3.752121320344e+01,6.060660171780e-01
210,-1.200000000000e+00,3.876148050297e+01,3.074025148548e-01
211,1.200000000000e+00,3.126148050297e+01,1.925974851452e-01
212,1.200000000000e+00,3.252121320344e+01,3.939339828220e-01
213,1.200000000000e+00,3.377771638598e+01,6.114180701233e-01
214,1.200000000000e+00,3.503000000000e+01,8.500000000000e-01
215,1.200000000000e+00,3.627771638598e+01,1.111418070123e+00
216,1.200000000000e+00,3.752121320344e+01,1.393933982822e+00
217,1.200000000000e+00,3.876148050297e+01,1.692597485145e+00
218,1.200000000000e+00,3.126148050297e+01,1.807402514855e+00
219,1.200000000000e+00,3.252121320344e+01,1.606066017178e+00
220,1.200000000000e+00,3.377771638598e+01,1.388581929877e+00
221,1.200000000000e+00,3.503000000000e+01,1.150000000000e+00
222,1.200000000000e+00,3.627771638598e+01,8.885819298767e-01
223,1.200000000000e+00,3.752121320344e+01,6.060660171780e-01
224,1.200000000000e+00,3.876148050297e+01,3.074025148548e-01
225,-8.425974851452e-01,3.123622339643e+01,0.000000000000e+00
226,-4.939339828220e-01,3.247454415588e+01,0.000000000000e+00
227,-1.614180701233e-01,3.371674033683e+01,0.000000000000e+00
228,1.500000000000e-01,3.496400000000e+01,0.000000000000e+00
229,4.385819298767e-01,3.621674033683e+01,0.000000000000e+00
230,7.060660171780e-01,3.747454415588e+01,0.000000000000e+00
231,9.574025148548e-01,3.873622339643e+01,0.000000000000e+00
232,8.425974851452e-01,3.123622339643e+01,0.000000000000e+00
233,4.939339828220e-01,3.247454415588e+01,0.000000000000e+00
234,1.614180701233e-01,3.371674033683e+01,0.000000000000e+00
235,-1.500000000000e-01,3.496400000000e+01,0.000000000000e+00
236,-4.385819298767e-01,3.621674033683e+01,0.000000000000e+00
237,-7.060660171780e-01,3.747454415588e+01,0.000000000000e+00
238,-9.574025148548e-01,3.873622339643e+01,0.000000000000e+00
239,-8.425974851452e-01,3.123622339643e+01,2.000000000000e+00
240,-4.939339828220e-01,3.247454415588e+01,2.000000000000e+00
241,-1.614180701233e-01,3.371674033683e+01,2.000000000000e+00
242,1.500000000000e-01,3.496400000000e+01,2.000000000000e+00
243,4.385819298767e-01,3.621674033683e+01,2.000000000000e+00
244,7.060660171780e-01,3.747454415588e+01,2.000000000000e+00
245,9.574025148548e-01,3.873622339643e+01,2.000000000000e+00
246,8.425974851452e-01,3.123622339643e+01,2.000000000000e+00
247,4.939339828220e-01,3.247454415588e+01,2.000000000000e+00
248,1.614180701233e-01,3.371674033683e+01,2.000000000000e+00
249,-1.500000000000e-01,3.496400000000e+01,2.000000000000e+00
250,-4.385819298767e-01,3.621674033683e+01,2.000000000000e+00
251,-7.060660171780e-01,3.747454415588e+01,2.000000000000e+00
252,-9.574025148548e-01,3.873622339643e+01,2.000000000000e+00
253,-1.200000000000e+00,4.503000000000e+01,8.500000000000e-01
254,-1.200000000000e+00,4.503000000000e+01,1.150000000000e+00
255,1.200000000000e+00,4.503000000000e+01,8.500000000000e-01
256,1.200000000000e+00,4.503000000000e+01,1.150000000000e+00
257,1.500000000000e-01,4.496400000000e+01,0.000000000000e+00
258,-1.500000000000e-01,4.496400000000e+01,0.000000000000e+00
259,1.500000000000e-01,4.496400000000e+01,2.000000000000e+00
260,-1.500000000000e-01,4.496400000000e+01,2.000000000000e+00
*ELEMENT,TYPE=B31,ELSET=ALL
1,1,25
2,25,5
3,2,26
4,26,6
5,3,27
6,27,7
7,4,28
8,28,8
9,5,29
10,29,9
11,6,30
12,30,10
13,7,31
14,31,11
15,8,32
16,32,12
17,9,33
18,33,34
19,34,35
20,35,13
21,10,36
22,36,37
23,37,38
24,38,14
25,11,39
26,39,40
27,40,41
28,41,15
29,12,42
30,42,43
31,43,44
32,44,16
33,13,45
34,45,17
35,14,46
36,46,18
37,15,47
38,47,19
39,16,48
40,48,20
41,17,49
42,49,21
43,18,50
44,50,22
45,19,51
46,51,23
47,20,52
48,52,24
49,1,53
50,53,2
51,3,54
52,54,4
53,1,55
54,55,3
55,2,56
56,56,4
57,5,57
58,57,6
59,7,58
60,58,8
61,5,59
62,59,7
63,6,60
64,60,8
65,9,61
66,61,10
67,11,62
68,62,12
69,9,63
70,63,11
71,10,64
72,64,12
73,13,65
74,65,14
75,15,66
76,66,16
77,13,67
78,67,15
79,14,68
80,68,16
81,17,69
82,69,18
83,19,70
84,70,20
85,17,71
86,71,19
87,18,72
88,72,20
89,21,73
90,73,22
91,23,74
92,74,24
93,21,75
94,75,23
95,22,76
96,76,24
97,1,77
98,77,78
99,78,79
100,79,80
101,80,81
102,81,82
103,82,83
104,83,7
105,3,84
106,84,85
107,85,86
108,86,87
109,87,88
110,88,89
111,89,90
112,90,5
113,2,91
114,91,92
115,92,93
116,93,94
117,94,95
118,95,96
119,96,97
120,97,8
121,4,98
122,98,99
123,99,100
124,100,101
125,101,102
126,102,103
127,103,104
128,104,6
129,1,105
130,105,106
131,106,107
132,107,108
133,108,109
134,109,110
135,110,111
136,111,6
137,2,112
138,112,113
139,113,114
140,114,115
141,115,116
142,116,117
143,117,118
144,118,5
145,3,119
146,119,120
147,120,121
148,121,122
149,122,123
150,123,124
151,124,125
152,125,8
153,4,126
154,126,127
155,127,128
156,128,129
157,129,130
158,130,131
159,131,132
160,132,7
161,5,133
162,133,11
163,7,134
164,134,9
165,6,135
166,135,12
167,8,136
168,136,10
169,5,137
170,137,10
171,6,138
172,138,9
173,7,139
174,139,12
175,8,140
176,140,11
177,9,141
178,141,142
179,142,143
180,143,144
181,144,145
182,145,146
183,146,147
184,147,15
185,11,148
186,148,149
187,149,150
188,150,151
189,151,152
190,152,153
191,153,154
192,154,13
193,10,155
194,155,156
195,156,157
196,157,158
197,158,159
198,159,160
199,160,161
200,161,16
201,12,162
202,162,163
203,163,164
204,164,165
205,165,166
206,166,167
207,167,168
208,168,14
209,9,169
210,169,170
211,170,171
212,171,172
213,172,173
214,173,174
215,174,175
216,175,14
217,10,176
218,176,177
219,177,178
220,178,179
221,179,180
222,180,181
223,181,182
224,182,13
225,11,183
226,183,184
227,184,185
228,185,186
229,186,187
230,187,188
231,188,189
232,189,16
233,12,190
234,190,191
235,191,192
236,192,193
237,193,194
238,194,195
239,195,196
240,196,15
241,13,197
242,197,198
243,198,199
244,199,200
245,200,201
246,201,202
247,202,203
248,203,19
249,15,204
250,204,205
251,205,206
252,206,207
253,207,208
254,208,209
255,209,210
256,210,17
257,14,211
258,211,212
259,212,213
260,213,214
261,214,215
262,215,216
263,216,217
264,217,20
265,16,218
266,218,219
267,219,220
268,220,221
269,221,222
270,222,223
271,223,224
272,224,18
273,13,225
274,225,226
275,226,227
276,227,228
277,228,229
278,229,230
279,230,231
280,231,18
281,14,232
282,232,233
283,233,234
284,234,235
285,235,236
286,236,237
287,237,238
288,238,17
289,15,239
290,239,240
291,240,241
292,241,242
293,242,243
294,243,244
295,244,245
296,245,20
297,16,246
298,246,247
299,247,248
300,248,249
301,249,250
302,250,251
303,251,252
304,252,19
305,17,253
306,253,23
307,19,254
308,254,21
309,18,255
310,255,24
311,20,256
312,256,22
313,17,257
314,257,22
315,18,258
316,258,21
317,19,259
318,259,24
319,20,260
320,260,23
*NSET,NSET=NALL,GENERATE
1,260,1
*NSET,NSET=LEFT
1,2,3,4
*NSET,NSET=RIGHT
21,22,23,24
*MATERIAL,NAME=STEEL
*ELASTIC
2.100000000000e+11,0.300000000000
*BEAM SECTION,ELSET=ALL,MATERIAL=STEEL,SECTION=RECT
6.000000000000e-02,4.000000000000e-02
0.371390676354,0.557086014531,0.742781352708
*BOUNDARY
LEFT,1,6,0.0
*STEP
*STATIC
*BOUNDARY
21,1,1,5.000000000000e-03
21,2,2,0.0
21,3,3,-6.000000000000e-03
*BOUNDARY
22,1,1,5.000000000000e-03
22,2,2,0.0
22,3,3,6.000000000000e-03
*BOUNDARY
23,1,1,-5.000000000000e-03
23,2,2,0.0
23,3,3,-6.000000000000e-03
*BOUNDARY
24,1,1,-5.000000000000e-03
24,2,2,0.0
24,3,3,6.000000000000e-03
*NODE FILE,NSET=NALL
U
*NODE PRINT,NSET=NALL
U
*NODE PRINT,NSET=RIGHT
RF
*EL PRINT,ELSET=ALL,TOTALS=YES
ELSE
*END STEP
