*HEADING
T04 S-LIN hanging 8-split zz cycle 2
units: mm, N, s, MPa. Material is illustrative steel, not a coupon card.
E=210000.0 nu=0.3. load -5000.0 N on TIP_TOP.
*NODE, NSET=NALL
1, 0, -10, 0
2, 111.111111111, -10, 0
3, 111.111111111, 0, 0
4, 0, 0, 0
5, 0, -10, 18
6, 111.111111111, -10, 22.5148526193
7, 111.111111111, 0, 22.5148526193
8, 0, 0, 18
9, 0, -10, 36
10, 111.111111111, -10, 45.0297052387
11, 111.111111111, 0, 45.0297052387
12, 0, 0, 36
13, 0, -10, 54
14, 111.111111111, -10, 67.544557858
15, 111.111111111, 0, 67.544557858
16, 0, 0, 54
17, 0, -10, 72
18, 111.111111111, -10, 90.0594104774
19, 111.111111111, 0, 90.0594104774
20, 0, 0, 72
21, 0, -10, 90
22, 111.111111111, -10, 112.574263097
23, 111.111111111, 0, 112.574263097
24, 0, 0, 90
25, 111.111111111, 10, 0
26, 0, 10, 0
27, 111.111111111, 10, 22.5148526193
28, 0, 10, 18
29, 111.111111111, 10, 45.0297052387
30, 0, 10, 36
31, 111.111111111, 10, 67.544557858
32, 0, 10, 54
33, 111.111111111, 10, 90.0594104774
34, 0, 10, 72
35, 111.111111111, 10, 112.574263097
36, 0, 10, 90
37, 0, -120, 90
38, 111.111111111, -120, 112.574263097
39, 111.111111111, -92.5, 112.574263097
40, 0, -92.5, 90
41, 0, -120, 100
42, 111.111111111, -120, 122.574263097
43, 111.111111111, -92.5, 122.574263097
44, 0, -92.5, 100
45, 0, -120, 110
46, 111.111111111, -120, 132.574263097
47, 111.111111111, -92.5, 132.574263097
48, 0, -92.5, 110
49, 111.111111111, -65, 112.574263097
50, 0, -65, 90
51, 111.111111111, -65, 122.574263097
52, 0, -65, 100
53, 111.111111111, -65, 132.574263097
54, 0, -65, 110
55, 111.111111111, -37.5, 112.574263097
56, 0, -37.5, 90
57, 111.111111111, -37.5, 122.574263097
58, 0, -37.5, 100
59, 111.111111111, -37.5, 132.574263097
60, 0, -37.5, 110
61, 111.111111111, -10, 122.574263097
62, 0, -10, 100
63, 111.111111111, -10, 132.574263097
64, 0, -10, 110
65, 111.111111111, 0, 122.574263097
66, 0, 0, 100
67, 111.111111111, 0, 132.574263097
68, 0, 0, 110
69, 111.111111111, 10, 122.574263097
70, 0, 10, 100
71, 111.111111111, 10, 132.574263097
72, 0, 10, 110
73, 111.111111111, 37.5, 112.574263097
74, 0, 37.5, 90
75, 111.111111111, 37.5, 122.574263097
76, 0, 37.5, 100
77, 111.111111111, 37.5, 132.574263097
78, 0, 37.5, 110
79, 111.111111111, 65, 112.574263097
80, 0, 65, 90
81, 111.111111111, 65, 122.574263097
82, 0, 65, 100
83, 111.111111111, 65, 132.574263097
84, 0, 65, 110
85, 111.111111111, 92.5, 112.574263097
86, 0, 92.5, 90
87, 111.111111111, 92.5, 122.574263097
88, 0, 92.5, 100
89, 111.111111111, 92.5, 132.574263097
90, 0, 92.5, 110
91, 111.111111111, 120, 112.574263097
92, 0, 120, 90
93, 111.111111111, 120, 122.574263097
94, 0, 120, 100
95, 111.111111111, 120, 132.574263097
96, 0, 120, 110
97, 222.222222222, -10, 0
98, 222.222222222, 0, 0
99, 222.222222222, -10, 26.8925237265
100, 222.222222222, 0, 26.8925237265
101, 222.222222222, -10, 53.7850474529
102, 222.222222222, 0, 53.7850474529
103, 222.222222222, -10, 80.6775711794
104, 222.222222222, 0, 80.6775711794
105, 222.222222222, -10, 107.570094906
106, 222.222222222, 0, 107.570094906
107, 222.222222222, -10, 134.462618632
108, 222.222222222, 0, 134.462618632
109, 222.222222222, 10, 0
110, 222.222222222, 10, 26.8925237265
111, 222.222222222, 10, 53.7850474529
112, 222.222222222, 10, 80.6775711794
113, 222.222222222, 10, 107.570094906
114, 222.222222222, 10, 134.462618632
115, 222.222222222, -120, 134.462618632
116, 222.222222222, -92.5, 134.462618632
117, 222.222222222, -120, 144.462618632
118, 222.222222222, -92.5, 144.462618632
119, 222.222222222, -120, 154.462618632
120, 222.222222222, -92.5, 154.462618632
121, 222.222222222, -65, 134.462618632
122, 222.222222222, -65, 144.462618632
123, 222.222222222, -65, 154.462618632
124, 222.222222222, -37.5, 134.462618632
125, 222.222222222, -37.5, 144.462618632
126, 222.222222222, -37.5, 154.462618632
127, 222.222222222, -10, 144.462618632
128, 222.222222222, -10, 154.462618632
129, 222.222222222, 0, 144.462618632
130, 222.222222222, 0, 154.462618632
131, 222.222222222, 10, 144.462618632
132, 222.222222222, 10, 154.462618632
133, 222.222222222, 37.5, 134.462618632
134, 222.222222222, 37.5, 144.462618632
135, 222.222222222, 37.5, 154.462618632
136, 222.222222222, 65, 134.462618632
137, 222.222222222, 65, 144.462618632
138, 222.222222222, 65, 154.462618632
139, 222.222222222, 92.5, 134.462618632
140, 222.222222222, 92.5, 144.462618632
141, 222.222222222, 92.5, 154.462618632
142, 222.222222222, 120, 134.462618632
143, 222.222222222, 120, 144.462618632
144, 222.222222222, 120, 154.462618632
145, 333.333333333, -10, 0
146, 333.333333333, 0, 0
147, 333.333333333, -10, 31
148, 333.333333333, 0, 31
149, 333.333333333, -10, 62
150, 333.333333333, 0, 62
151, 333.333333333, -10, 93
152, 333.333333333, 0, 93
153, 333.333333333, -10, 124
154, 333.333333333, 0, 124
155, 333.333333333, -10, 155
156, 333.333333333, 0, 155
157, 333.333333333, 10, 0
158, 333.333333333, 10, 31
159, 333.333333333, 10, 62
160, 333.333333333, 10, 93
161, 333.333333333, 10, 124
162, 333.333333333, 10, 155
163, 333.333333333, -120, 155
164, 333.333333333, -92.5, 155
165, 333.333333333, -120, 165
166, 333.333333333, -92.5, 165
167, 333.333333333, -120, 175
168, 333.333333333, -92.5, 175
169, 333.333333333, -65, 155
170, 333.333333333, -65, 165
171, 333.333333333, -65, 175
172, 333.333333333, -37.5, 155
173, 333.333333333, -37.5, 165
174, 333.333333333, -37.5, 175
175, 333.333333333, -10, 165
176, 333.333333333, -10, 175
177, 333.333333333, 0, 165
178, 333.333333333, 0, 175
179, 333.333333333, 10, 165
180, 333.333333333, 10, 175
181, 333.333333333, 37.5, 155
182, 333.333333333, 37.5, 165
183, 333.333333333, 37.5, 175
184, 333.333333333, 65, 155
185, 333.333333333, 65, 165
186, 333.333333333, 65, 175
187, 333.333333333, 92.5, 155
188, 333.333333333, 92.5, 165
189, 333.333333333, 92.5, 175
190, 333.333333333, 120, 155
191, 333.333333333, 120, 165
192, 333.333333333, 120, 175
193, 444.444444444, -10, 0
194, 444.444444444, 0, 0
195, 444.444444444, -10, 34.7124778519
196, 444.444444444, 0, 34.7124778519
197, 444.444444444, -10, 69.4249557037
198, 444.444444444, 0, 69.4249557037
199, 444.444444444, -10, 104.137433556
200, 444.444444444, 0, 104.137433556
201, 444.444444444, -10, 138.849911407
202, 444.444444444, 0, 138.849911407
203, 444.444444444, -10, 173.562389259
204, 444.444444444, 0, 173.562389259
205, 444.444444444, 10, 0
206, 444.444444444, 10, 34.7124778519
207, 444.444444444, 10, 69.4249557037
208, 444.444444444, 10, 104.137433556
209, 444.444444444, 10, 138.849911407
210, 444.444444444, 10, 173.562389259
211, 444.444444444, -120, 173.562389259
212, 444.444444444, -92.5, 173.562389259
213, 444.444444444, -120, 183.562389259
214, 444.444444444, -92.5, 183.562389259
215, 444.444444444, -120, 193.562389259
216, 444.444444444, -92.5, 193.562389259
217, 444.444444444, -65, 173.562389259
218, 444.444444444, -65, 183.562389259
219, 444.444444444, -65, 193.562389259
220, 444.444444444, -37.5, 173.562389259
221, 444.444444444, -37.5, 183.562389259
222, 444.444444444, -37.5, 193.562389259
223, 444.444444444, -10, 183.562389259
224, 444.444444444, -10, 193.562389259
225, 444.444444444, 0, 183.562389259
226, 444.444444444, 0, 193.562389259
227, 444.444444444, 10, 183.562389259
228, 444.444444444, 10, 193.562389259
229, 444.444444444, 37.5, 173.562389259
230, 444.444444444, 37.5, 183.562389259
231, 444.444444444, 37.5, 193.562389259
232, 444.444444444, 65, 173.562389259
233, 444.444444444, 65, 183.562389259
234, 444.444444444, 65, 193.562389259
235, 444.444444444, 92.5, 173.562389259
236, 444.444444444, 92.5, 183.562389259
237, 444.444444444, 92.5, 193.562389259
238, 444.444444444, 120, 173.562389259
239, 444.444444444, 120, 183.562389259
240, 444.444444444, 120, 193.562389259
241, 555.555555556, -10, 0
242, 555.555555556, 0, 0
243, 555.555555556, -10, 37.9171555211
244, 555.555555556, 0, 37.9171555211
245, 555.555555556, -10, 75.8343110422
246, 555.555555556, 0, 75.8343110422
247, 555.555555556, -10, 113.751466563
248, 555.555555556, 0, 113.751466563
249, 555.555555556, -10, 151.668622084
250, 555.555555556, 0, 151.668622084
251, 555.555555556, -10, 189.585777605
252, 555.555555556, 0, 189.585777605
253, 555.555555556, 10, 0
254, 555.555555556, 10, 37.9171555211
255, 555.555555556, 10, 75.8343110422
256, 555.555555556, 10, 113.751466563
257, 555.555555556, 10, 151.668622084
258, 555.555555556, 10, 189.585777605
259, 555.555555556, -120, 189.585777605
260, 555.555555556, -92.5, 189.585777605
261, 555.555555556, -120, 199.585777605
262, 555.555555556, -92.5, 199.585777605
263, 555.555555556, -120, 209.585777605
264, 555.555555556, -92.5, 209.585777605
265, 555.555555556, -65, 189.585777605
266, 555.555555556, -65, 199.585777605
267, 555.555555556, -65, 209.585777605
268, 555.555555556, -37.5, 189.585777605
269, 555.555555556, -37.5, 199.585777605
270, 555.555555556, -37.5, 209.585777605
271, 555.555555556, -10, 199.585777605
272, 555.555555556, -10, 209.585777605
273, 555.555555556, 0, 199.585777605
274, 555.555555556, 0, 209.585777605
275, 555.555555556, 10, 199.585777605
276, 555.555555556, 10, 209.585777605
277, 555.555555556, 37.5, 189.585777605
278, 555.555555556, 37.5, 199.585777605
279, 555.555555556, 37.5, 209.585777605
280, 555.555555556, 65, 189.585777605
281, 555.555555556, 65, 199.585777605
282, 555.555555556, 65, 209.585777605
283, 555.555555556, 92.5, 189.585777605
284, 555.555555556, 92.5, 199.585777605
285, 555.555555556, 92.5, 209.585777605
286, 555.555555556, 120, 189.585777605
287, 555.555555556, 120, 199.585777605
288, 555.555555556, 120, 209.585777605
289, 666.666666667, -10, 0
290, 666.666666667, 0, 0
291, 666.666666667, -10, 40.5166604984
292, 666.666666667, 0, 40.5166604984
293, 666.666666667, -10, 81.0333209968
294, 666.666666667, 0, 81.0333209968
295, 666.666666667, -10, 121.549981495
296, 666.666666667, 0, 121.549981495
297, 666.666666667, -10, 162.066641994
298, 666.666666667, 0, 162.066641994
299, 666.666666667, -10, 202.583302492
300, 666.666666667, 0, 202.583302492
301, 666.666666667, 10, 0
302, 666.666666667, 10, 40.5166604984
303, 666.666666667, 10, 81.0333209968
304, 666.666666667, 10, 121.549981495
305, 666.666666667, 10, 162.066641994
306, 666.666666667, 10, 202.583302492
307, 666.666666667, -120, 202.583302492
308, 666.666666667, -92.5, 202.583302492
309, 666.666666667, -120, 212.583302492
310, 666.666666667, -92.5, 212.583302492
311, 666.666666667, -120, 222.583302492
312, 666.666666667, -92.5, 222.583302492
313, 666.666666667, -65, 202.583302492
314, 666.666666667, -65, 212.583302492
315, 666.666666667, -65, 222.583302492
316, 666.666666667, -37.5, 202.583302492
317, 666.666666667, -37.5, 212.583302492
318, 666.666666667, -37.5, 222.583302492
319, 666.666666667, -10, 212.583302492
320, 666.666666667, -10, 222.583302492
321, 666.666666667, 0, 212.583302492
322, 666.666666667, 0, 222.583302492
323, 666.666666667, 10, 212.583302492
324, 666.666666667, 10, 222.583302492
325, 666.666666667, 37.5, 202.583302492
326, 666.666666667, 37.5, 212.583302492
327, 666.666666667, 37.5, 222.583302492
328, 666.666666667, 65, 202.583302492
329, 666.666666667, 65, 212.583302492
330, 666.666666667, 65, 222.583302492
331, 666.666666667, 92.5, 202.583302492
332, 666.666666667, 92.5, 212.583302492
333, 666.666666667, 92.5, 222.583302492
334, 666.666666667, 120, 202.583302492
335, 666.666666667, 120, 212.583302492
336, 666.666666667, 120, 222.583302492
337, 777.777777778, -10, 0
338, 777.777777778, 0, 0
339, 777.777777778, -10, 42.4320081404
340, 777.777777778, 0, 42.4320081404
341, 777.777777778, -10, 84.8640162809
342, 777.777777778, 0, 84.8640162809
343, 777.777777778, -10, 127.296024421
344, 777.777777778, 0, 127.296024421
345, 777.777777778, -10, 169.728032562
346, 777.777777778, 0, 169.728032562
347, 777.777777778, -10, 212.160040702
348, 777.777777778, 0, 212.160040702
349, 777.777777778, 10, 0
350, 777.777777778, 10, 42.4320081404
351, 777.777777778, 10, 84.8640162809
352, 777.777777778, 10, 127.296024421
353, 777.777777778, 10, 169.728032562
354, 777.777777778, 10, 212.160040702
355, 777.777777778, -120, 212.160040702
356, 777.777777778, -92.5, 212.160040702
357, 777.777777778, -120, 222.160040702
358, 777.777777778, -92.5, 222.160040702
359, 777.777777778, -120, 232.160040702
360, 777.777777778, -92.5, 232.160040702
361, 777.777777778, -65, 212.160040702
362, 777.777777778, -65, 222.160040702
363, 777.777777778, -65, 232.160040702
364, 777.777777778, -37.5, 212.160040702
365, 777.777777778, -37.5, 222.160040702
366, 777.777777778, -37.5, 232.160040702
367, 777.777777778, -10, 222.160040702
368, 777.777777778, -10, 232.160040702
369, 777.777777778, 0, 222.160040702
370, 777.777777778, 0, 232.160040702
371, 777.777777778, 10, 222.160040702
372, 777.777777778, 10, 232.160040702
373, 777.777777778, 37.5, 212.160040702
374, 777.777777778, 37.5, 222.160040702
375, 777.777777778, 37.5, 232.160040702
376, 777.777777778, 65, 212.160040702
377, 777.777777778, 65, 222.160040702
378, 777.777777778, 65, 232.160040702
379, 777.777777778, 92.5, 212.160040702
380, 777.777777778, 92.5, 222.160040702
381, 777.777777778, 92.5, 232.160040702
382, 777.777777778, 120, 212.160040702
383, 777.777777778, 120, 222.160040702
384, 777.777777778, 120, 232.160040702
385, 888.888888889, -10, 0
386, 888.888888889, 0, 0
387, 888.888888889, -10, 43.6050015783
388, 888.888888889, 0, 43.6050015783
389, 888.888888889, -10, 87.2100031566
390, 888.888888889, 0, 87.2100031566
391, 888.888888889, -10, 130.815004735
392, 888.888888889, 0, 130.815004735
393, 888.888888889, -10, 174.420006313
394, 888.888888889, 0, 174.420006313
395, 888.888888889, -10, 218.025007892
396, 888.888888889, 0, 218.025007892
397, 888.888888889, 10, 0
398, 888.888888889, 10, 43.6050015783
399, 888.888888889, 10, 87.2100031566
400, 888.888888889, 10, 130.815004735
401, 888.888888889, 10, 174.420006313
402, 888.888888889, 10, 218.025007892
403, 888.888888889, -120, 218.025007892
404, 888.888888889, -92.5, 218.025007892
405, 888.888888889, -120, 228.025007892
406, 888.888888889, -92.5, 228.025007892
407, 888.888888889, -120, 238.025007892
408, 888.888888889, -92.5, 238.025007892
409, 888.888888889, -65, 218.025007892
410, 888.888888889, -65, 228.025007892
411, 888.888888889, -65, 238.025007892
412, 888.888888889, -37.5, 218.025007892
413, 888.888888889, -37.5, 228.025007892
414, 888.888888889, -37.5, 238.025007892
415, 888.888888889, -10, 228.025007892
416, 888.888888889, -10, 238.025007892
417, 888.888888889, 0, 228.025007892
418, 888.888888889, 0, 238.025007892
419, 888.888888889, 10, 228.025007892
420, 888.888888889, 10, 238.025007892
421, 888.888888889, 37.5, 218.025007892
422, 888.888888889, 37.5, 228.025007892
423, 888.888888889, 37.5, 238.025007892
424, 888.888888889, 65, 218.025007892
425, 888.888888889, 65, 228.025007892
426, 888.888888889, 65, 238.025007892
427, 888.888888889, 92.5, 218.025007892
428, 888.888888889, 92.5, 228.025007892
429, 888.888888889, 92.5, 238.025007892
430, 888.888888889, 120, 218.025007892
431, 888.888888889, 120, 228.025007892
432, 888.888888889, 120, 238.025007892
433, 1000, -10, 0
434, 1000, 0, 0
435, 1000, -10, 44
436, 1000, 0, 44
437, 1000, -10, 88
438, 1000, 0, 88
439, 1000, -10, 132
440, 1000, 0, 132
441, 1000, -10, 176
442, 1000, 0, 176
443, 1000, -10, 220
444, 1000, 0, 220
445, 1000, 10, 0
446, 1000, 10, 44
447, 1000, 10, 88
448, 1000, 10, 132
449, 1000, 10, 176
450, 1000, 10, 220
451, 1000, -120, 220
452, 1000, -92.5, 220
453, 1000, -120, 230
454, 1000, -92.5, 230
455, 1000, -120, 240
456, 1000, -92.5, 240
457, 1000, -65, 220
458, 1000, -65, 230
459, 1000, -65, 240
460, 1000, -37.5, 220
461, 1000, -37.5, 230
462, 1000, -37.5, 240
463, 1000, -10, 230
464, 1000, -10, 240
465, 1000, 0, 230
466, 1000, 0, 240
467, 1000, 10, 230
468, 1000, 10, 240
469, 1000, 37.5, 220
470, 1000, 37.5, 230
471, 1000, 37.5, 240
472, 1000, 65, 220
473, 1000, 65, 230
474, 1000, 65, 240
475, 1000, 92.5, 220
476, 1000, 92.5, 230
477, 1000, 92.5, 240
478, 1000, 120, 220
479, 1000, 120, 230
480, 1000, 120, 240
481, 1111.11111111, -10, 0
482, 1111.11111111, 0, 0
483, 1111.11111111, -10, 43.6050015783
484, 1111.11111111, 0, 43.6050015783
485, 1111.11111111, -10, 87.2100031566
486, 1111.11111111, 0, 87.2100031566
487, 1111.11111111, -10, 130.815004735
488, 1111.11111111, 0, 130.815004735
489, 1111.11111111, -10, 174.420006313
490, 1111.11111111, 0, 174.420006313
491, 1111.11111111, -10, 218.025007892
492, 1111.11111111, 0, 218.025007892
493, 1111.11111111, 10, 0
494, 1111.11111111, 10, 43.6050015783
495, 1111.11111111, 10, 87.2100031566
496, 1111.11111111, 10, 130.815004735
497, 1111.11111111, 10, 174.420006313
498, 1111.11111111, 10, 218.025007892
499, 1111.11111111, -120, 218.025007892
500, 1111.11111111, -92.5, 218.025007892
501, 1111.11111111, -120, 228.025007892
502, 1111.11111111, -92.5, 228.025007892
503, 1111.11111111, -120, 238.025007892
504, 1111.11111111, -92.5, 238.025007892
505, 1111.11111111, -65, 218.025007892
506, 1111.11111111, -65, 228.025007892
507, 1111.11111111, -65, 238.025007892
508, 1111.11111111, -37.5, 218.025007892
509, 1111.11111111, -37.5, 228.025007892
510, 1111.11111111, -37.5, 238.025007892
511, 1111.11111111, -10, 228.025007892
512, 1111.11111111, -10, 238.025007892
513, 1111.11111111, 0, 228.025007892
514, 1111.11111111, 0, 238.025007892
515, 1111.11111111, 10, 228.025007892
516, 1111.11111111, 10, 238.025007892
517, 1111.11111111, 37.5, 218.025007892
518, 1111.11111111, 37.5, 228.025007892
519, 1111.11111111, 37.5, 238.025007892
520, 1111.11111111, 65, 218.025007892
521, 1111.11111111, 65, 228.025007892
522, 1111.11111111, 65, 238.025007892
523, 1111.11111111, 92.5, 218.025007892
524, 1111.11111111, 92.5, 228.025007892
525, 1111.11111111, 92.5, 238.025007892
526, 1111.11111111, 120, 218.025007892
527, 1111.11111111, 120, 228.025007892
528, 1111.11111111, 120, 238.025007892
529, 1222.22222222, -10, 0
530, 1222.22222222, 0, 0
531, 1222.22222222, -10, 42.4320081404
532, 1222.22222222, 0, 42.4320081404
533, 1222.22222222, -10, 84.8640162809
534, 1222.22222222, 0, 84.8640162809
535, 1222.22222222, -10, 127.296024421
536, 1222.22222222, 0, 127.296024421
537, 1222.22222222, -10, 169.728032562
538, 1222.22222222, 0, 169.728032562
539, 1222.22222222, -10, 212.160040702
540, 1222.22222222, 0, 212.160040702
541, 1222.22222222, 10, 0
542, 1222.22222222, 10, 42.4320081404
543, 1222.22222222, 10, 84.8640162809
544, 1222.22222222, 10, 127.296024421
545, 1222.22222222, 10, 169.728032562
546, 1222.22222222, 10, 212.160040702
547, 1222.22222222, -120, 212.160040702
548, 1222.22222222, -92.5, 212.160040702
549, 1222.22222222, -120, 222.160040702
550, 1222.22222222, -92.5, 222.160040702
551, 1222.22222222, -120, 232.160040702
552, 1222.22222222, -92.5, 232.160040702
553, 1222.22222222, -65, 212.160040702
554, 1222.22222222, -65, 222.160040702
555, 1222.22222222, -65, 232.160040702
556, 1222.22222222, -37.5, 212.160040702
557, 1222.22222222, -37.5, 222.160040702
558, 1222.22222222, -37.5, 232.160040702
559, 1222.22222222, -10, 222.160040702
560, 1222.22222222, -10, 232.160040702
561, 1222.22222222, 0, 222.160040702
562, 1222.22222222, 0, 232.160040702
563, 1222.22222222, 10, 222.160040702
564, 1222.22222222, 10, 232.160040702
565, 1222.22222222, 37.5, 212.160040702
566, 1222.22222222, 37.5, 222.160040702
567, 1222.22222222, 37.5, 232.160040702
568, 1222.22222222, 65, 212.160040702
569, 1222.22222222, 65, 222.160040702
570, 1222.22222222, 65, 232.160040702
571, 1222.22222222, 92.5, 212.160040702
572, 1222.22222222, 92.5, 222.160040702
573, 1222.22222222, 92.5, 232.160040702
574, 1222.22222222, 120, 212.160040702
575, 1222.22222222, 120, 222.160040702
576, 1222.22222222, 120, 232.160040702
577, 1333.33333333, -10, 0
578, 1333.33333333, 0, 0
579, 1333.33333333, -10, 40.5166604984
580, 1333.33333333, 0, 40.5166604984
581, 1333.33333333, -10, 81.0333209968
582, 1333.33333333, 0, 81.0333209968
583, 1333.33333333, -10, 121.549981495
584, 1333.33333333, 0, 121.549981495
585, 1333.33333333, -10, 162.066641994
586, 1333.33333333, 0, 162.066641994
587, 1333.33333333, -10, 202.583302492
588, 1333.33333333, 0, 202.583302492
589, 1333.33333333, 10, 0
590, 1333.33333333, 10, 40.5166604984
591, 1333.33333333, 10, 81.0333209968
592, 1333.33333333, 10, 121.549981495
593, 1333.33333333, 10, 162.066641994
594, 1333.33333333, 10, 202.583302492
595, 1333.33333333, -120, 202.583302492
596, 1333.33333333, -92.5, 202.583302492
597, 1333.33333333, -120, 212.583302492
598, 1333.33333333, -92.5, 212.583302492
599, 1333.33333333, -120, 222.583302492
600, 1333.33333333, -92.5, 222.583302492
601, 1333.33333333, -65, 202.583302492
602, 1333.33333333, -65, 212.583302492
603, 1333.33333333, -65, 222.583302492
604, 1333.33333333, -37.5, 202.583302492
605, 1333.33333333, -37.5, 212.583302492
606, 1333.33333333, -37.5, 222.583302492
607, 1333.33333333, -10, 212.583302492
608, 1333.33333333, -10, 222.583302492
609, 1333.33333333, 0, 212.583302492
610, 1333.33333333, 0, 222.583302492
611, 1333.33333333, 10, 212.583302492
612, 1333.33333333, 10, 222.583302492
613, 1333.33333333, 37.5, 202.583302492
614, 1333.33333333, 37.5, 212.583302492
615, 1333.33333333, 37.5, 222.583302492
616, 1333.33333333, 65, 202.583302492
617, 1333.33333333, 65, 212.583302492
618, 1333.33333333, 65, 222.583302492
619, 1333.33333333, 92.5, 202.583302492
620, 1333.33333333, 92.5, 212.583302492
621, 1333.33333333, 92.5, 222.583302492
622, 1333.33333333, 120, 202.583302492
623, 1333.33333333, 120, 212.583302492
624, 1333.33333333, 120, 222.583302492
625, 1444.44444444, -10, 0
626, 1444.44444444, 0, 0
627, 1444.44444444, -10, 37.9171555211
628, 1444.44444444, 0, 37.9171555211
629, 1444.44444444, -10, 75.8343110422
630, 1444.44444444, 0, 75.8343110422
631, 1444.44444444, -10, 113.751466563
632, 1444.44444444, 0, 113.751466563
633, 1444.44444444, -10, 151.668622084
634, 1444.44444444, 0, 151.668622084
635, 1444.44444444, -10, 189.585777605
636, 1444.44444444, 0, 189.585777605
637, 1444.44444444, 10, 0
638, 1444.44444444, 10, 37.9171555211
639, 1444.44444444, 10, 75.8343110422
640, 1444.44444444, 10, 113.751466563
641, 1444.44444444, 10, 151.668622084
642, 1444.44444444, 10, 189.585777605
643, 1444.44444444, -120, 189.585777605
644, 1444.44444444, -92.5, 189.585777605
645, 1444.44444444, -120, 199.585777605
646, 1444.44444444, -92.5, 199.585777605
647, 1444.44444444, -120, 209.585777605
648, 1444.44444444, -92.5, 209.585777605
649, 1444.44444444, -65, 189.585777605
650, 1444.44444444, -65, 199.585777605
651, 1444.44444444, -65, 209.585777605
652, 1444.44444444, -37.5, 189.585777605
653, 1444.44444444, -37.5, 199.585777605
654, 1444.44444444, -37.5, 209.585777605
655, 1444.44444444, -10, 199.585777605
656, 1444.44444444, -10, 209.585777605
657, 1444.44444444, 0, 199.585777605
658, 1444.44444444, 0, 209.585777605
659, 1444.44444444, 10, 199.585777605
660, 1444.44444444, 10, 209.585777605
661, 1444.44444444, 37.5, 189.585777605
662, 1444.44444444, 37.5, 199.585777605
663, 1444.44444444, 37.5, 209.585777605
664, 1444.44444444, 65, 189.585777605
665, 1444.44444444, 65, 199.585777605
666, 1444.44444444, 65, 209.585777605
667, 1444.44444444, 92.5, 189.585777605
668, 1444.44444444, 92.5, 199.585777605
669, 1444.44444444, 92.5, 209.585777605
670, 1444.44444444, 120, 189.585777605
671, 1444.44444444, 120, 199.585777605
672, 1444.44444444, 120, 209.585777605
673, 1555.55555556, -10, 0
674, 1555.55555556, 0, 0
675, 1555.55555556, -10, 34.7124778519
676, 1555.55555556, 0, 34.7124778519
677, 1555.55555556, -10, 69.4249557037
678, 1555.55555556, 0, 69.4249557037
679, 1555.55555556, -10, 104.137433556
680, 1555.55555556, 0, 104.137433556
681, 1555.55555556, -10, 138.849911407
682, 1555.55555556, 0, 138.849911407
683, 1555.55555556, -10, 173.562389259
684, 1555.55555556, 0, 173.562389259
685, 1555.55555556, 10, 0
686, 1555.55555556, 10, 34.7124778519
687, 1555.55555556, 10, 69.4249557037
688, 1555.55555556, 10, 104.137433556
689, 1555.55555556, 10, 138.849911407
690, 1555.55555556, 10, 173.562389259
691, 1555.55555556, -120, 173.562389259
692, 1555.55555556, -92.5, 173.562389259
693, 1555.55555556, -120, 183.562389259
694, 1555.55555556, -92.5, 183.562389259
695, 1555.55555556, -120, 193.562389259
696, 1555.55555556, -92.5, 193.562389259
697, 1555.55555556, -65, 173.562389259
698, 1555.55555556, -65, 183.562389259
699, 1555.55555556, -65, 193.562389259
700, 1555.55555556, -37.5, 173.562389259
701, 1555.55555556, -37.5, 183.562389259
702, 1555.55555556, -37.5, 193.562389259
703, 1555.55555556, -10, 183.562389259
704, 1555.55555556, -10, 193.562389259
705, 1555.55555556, 0, 183.562389259
706, 1555.55555556, 0, 193.562389259
707, 1555.55555556, 10, 183.562389259
708, 1555.55555556, 10, 193.562389259
709, 1555.55555556, 37.5, 173.562389259
710, 1555.55555556, 37.5, 183.562389259
711, 1555.55555556, 37.5, 193.562389259
712, 1555.55555556, 65, 173.562389259
713, 1555.55555556, 65, 183.562389259
714, 1555.55555556, 65, 193.562389259
715, 1555.55555556, 92.5, 173.562389259
716, 1555.55555556, 92.5, 183.562389259
717, 1555.55555556, 92.5, 193.562389259
718, 1555.55555556, 120, 173.562389259
719, 1555.55555556, 120, 183.562389259
720, 1555.55555556, 120, 193.562389259
721, 1666.66666667, -10, 0
722, 1666.66666667, 0, 0
723, 1666.66666667, -10, 31
724, 1666.66666667, 0, 31
725, 1666.66666667, -10, 62
726, 1666.66666667, 0, 62
727, 1666.66666667, -10, 93
728, 1666.66666667, 0, 93
729, 1666.66666667, -10, 124
730, 1666.66666667, 0, 124
731, 1666.66666667, -10, 155
732, 1666.66666667, 0, 155
733, 1666.66666667, 10, 0
734, 1666.66666667, 10, 31
735, 1666.66666667, 10, 62
736, 1666.66666667, 10, 93
737, 1666.66666667, 10, 124
738, 1666.66666667, 10, 155
739, 1666.66666667, -120, 155
740, 1666.66666667, -92.5, 155
741, 1666.66666667, -120, 165
742, 1666.66666667, -92.5, 165
743, 1666.66666667, -120, 175
744, 1666.66666667, -92.5, 175
745, 1666.66666667, -65, 155
746, 1666.66666667, -65, 165
747, 1666.66666667, -65, 175
748, 1666.66666667, -37.5, 155
749, 1666.66666667, -37.5, 165
750, 1666.66666667, -37.5, 175
751, 1666.66666667, -10, 165
752, 1666.66666667, -10, 175
753, 1666.66666667, 0, 165
754, 1666.66666667, 0, 175
755, 1666.66666667, 10, 165
756, 1666.66666667, 10, 175
757, 1666.66666667, 37.5, 155
758, 1666.66666667, 37.5, 165
759, 1666.66666667, 37.5, 175
760, 1666.66666667, 65, 155
761, 1666.66666667, 65, 165
762, 1666.66666667, 65, 175
763, 1666.66666667, 92.5, 155
764, 1666.66666667, 92.5, 165
765, 1666.66666667, 92.5, 175
766, 1666.66666667, 120, 155
767, 1666.66666667, 120, 165
768, 1666.66666667, 120, 175
769, 1777.77777778, -10, 0
770, 1777.77777778, 0, 0
771, 1777.77777778, -10, 26.8925237265
772, 1777.77777778, 0, 26.8925237265
773, 1777.77777778, -10, 53.7850474529
774, 1777.77777778, 0, 53.7850474529
775, 1777.77777778, -10, 80.6775711794
776, 1777.77777778, 0, 80.6775711794
777, 1777.77777778, -10, 107.570094906
778, 1777.77777778, 0, 107.570094906
779, 1777.77777778, -10, 134.462618632
780, 1777.77777778, 0, 134.462618632
781, 1777.77777778, 10, 0
782, 1777.77777778, 10, 26.8925237265
783, 1777.77777778, 10, 53.7850474529
784, 1777.77777778, 10, 80.6775711794
785, 1777.77777778, 10, 107.570094906
786, 1777.77777778, 10, 134.462618632
787, 1777.77777778, -120, 134.462618632
788, 1777.77777778, -92.5, 134.462618632
789, 1777.77777778, -120, 144.462618632
790, 1777.77777778, -92.5, 144.462618632
791, 1777.77777778, -120, 154.462618632
792, 1777.77777778, -92.5, 154.462618632
793, 1777.77777778, -65, 134.462618632
794, 1777.77777778, -65, 144.462618632
795, 1777.77777778, -65, 154.462618632
796, 1777.77777778, -37.5, 134.462618632
797, 1777.77777778, -37.5, 144.462618632
798, 1777.77777778, -37.5, 154.462618632
799, 1777.77777778, -10, 144.462618632
800, 1777.77777778, -10, 154.462618632
801, 1777.77777778, 0, 144.462618632
802, 1777.77777778, 0, 154.462618632
803, 1777.77777778, 10, 144.462618632
804, 1777.77777778, 10, 154.462618632
805, 1777.77777778, 37.5, 134.462618632
806, 1777.77777778, 37.5, 144.462618632
807, 1777.77777778, 37.5, 154.462618632
808, 1777.77777778, 65, 134.462618632
809, 1777.77777778, 65, 144.462618632
810, 1777.77777778, 65, 154.462618632
811, 1777.77777778, 92.5, 134.462618632
812, 1777.77777778, 92.5, 144.462618632
813, 1777.77777778, 92.5, 154.462618632
814, 1777.77777778, 120, 134.462618632
815, 1777.77777778, 120, 144.462618632
816, 1777.77777778, 120, 154.462618632
817, 1888.88888889, -10, 0
818, 1888.88888889, 0, 0
819, 1888.88888889, -10, 22.5148526193
820, 1888.88888889, 0, 22.5148526193
821, 1888.88888889, -10, 45.0297052387
822, 1888.88888889, 0, 45.0297052387
823, 1888.88888889, -10, 67.544557858
824, 1888.88888889, 0, 67.544557858
825, 1888.88888889, -10, 90.0594104774
826, 1888.88888889, 0, 90.0594104774
827, 1888.88888889, -10, 112.574263097
828, 1888.88888889, 0, 112.574263097
829, 1888.88888889, 10, 0
830, 1888.88888889, 10, 22.5148526193
831, 1888.88888889, 10, 45.0297052387
832, 1888.88888889, 10, 67.544557858
833, 1888.88888889, 10, 90.0594104774
834, 1888.88888889, 10, 112.574263097
835, 1888.88888889, -120, 112.574263097
836, 1888.88888889, -92.5, 112.574263097
837, 1888.88888889, -120, 122.574263097
838, 1888.88888889, -92.5, 122.574263097
839, 1888.88888889, -120, 132.574263097
840, 1888.88888889, -92.5, 132.574263097
841, 1888.88888889, -65, 112.574263097
842, 1888.88888889, -65, 122.574263097
843, 1888.88888889, -65, 132.574263097
844, 1888.88888889, -37.5, 112.574263097
845, 1888.88888889, -37.5, 122.574263097
846, 1888.88888889, -37.5, 132.574263097
847, 1888.88888889, -10, 122.574263097
848, 1888.88888889, -10, 132.574263097
849, 1888.88888889, 0, 122.574263097
850, 1888.88888889, 0, 132.574263097
851, 1888.88888889, 10, 122.574263097
852, 1888.88888889, 10, 132.574263097
853, 1888.88888889, 37.5, 112.574263097
854, 1888.88888889, 37.5, 122.574263097
855, 1888.88888889, 37.5, 132.574263097
856, 1888.88888889, 65, 112.574263097
857, 1888.88888889, 65, 122.574263097
858, 1888.88888889, 65, 132.574263097
859, 1888.88888889, 92.5, 112.574263097
860, 1888.88888889, 92.5, 122.574263097
861, 1888.88888889, 92.5, 132.574263097
862, 1888.88888889, 120, 112.574263097
863, 1888.88888889, 120, 122.574263097
864, 1888.88888889, 120, 132.574263097
865, 2000, -10, 0
866, 2000, 0, 0
867, 2000, -10, 18
868, 2000, 0, 18
869, 2000, -10, 36
870, 2000, 0, 36
871, 2000, -10, 54
872, 2000, 0, 54
873, 2000, -10, 72
874, 2000, 0, 72
875, 2000, -10, 90
876, 2000, 0, 90
877, 2000, 10, 0
878, 2000, 10, 18
879, 2000, 10, 36
880, 2000, 10, 54
881, 2000, 10, 72
882, 2000, 10, 90
883, 2000, -120, 90
884, 2000, -92.5, 90
885, 2000, -120, 100
886, 2000, -92.5, 100
887, 2000, -120, 110
888, 2000, -92.5, 110
889, 2000, -65, 90
890, 2000, -65, 100
891, 2000, -65, 110
892, 2000, -37.5, 90
893, 2000, -37.5, 100
894, 2000, -37.5, 110
895, 2000, -10, 100
896, 2000, -10, 110
897, 2000, 0, 100
898, 2000, 0, 110
899, 2000, 10, 100
900, 2000, 10, 110
901, 2000, 37.5, 90
902, 2000, 37.5, 100
903, 2000, 37.5, 110
904, 2000, 65, 90
905, 2000, 65, 100
906, 2000, 65, 110
907, 2000, 92.5, 90
908, 2000, 92.5, 100
909, 2000, 92.5, 110
910, 2000, 120, 90
911, 2000, 120, 100
912, 2000, 120, 110
913, 333.333333333, -10, 160
914, 333.333333333, -5, 155
915, 333.333333333, -5, 160
916, 333.333333333, -5, 165
917, 333.333333333, 0, 160
918, 388.888888889, -10, 164.28119463
919, 388.888888889, -10, 169.28119463
920, 388.888888889, -10, 174.28119463
921, 388.888888889, -5, 164.28119463
922, 388.888888889, -5, 169.28119463
923, 388.888888889, -5, 174.28119463
924, 388.888888889, 0, 164.28119463
925, 388.888888889, 0, 169.28119463
926, 388.888888889, 0, 174.28119463
927, 444.444444444, -10, 178.562389259
928, 444.444444444, -5, 173.562389259
929, 444.444444444, -5, 178.562389259
930, 444.444444444, -5, 183.562389259
931, 444.444444444, 0, 178.562389259
932, 333.333333333, 5, 155
933, 333.333333333, 5, 160
934, 333.333333333, 5, 165
935, 333.333333333, 10, 160
936, 388.888888889, 5, 164.28119463
937, 388.888888889, 5, 169.28119463
938, 388.888888889, 5, 174.28119463
939, 388.888888889, 10, 164.28119463
940, 388.888888889, 10, 169.28119463
941, 388.888888889, 10, 174.28119463
942, 444.444444444, 5, 173.562389259
943, 444.444444444, 5, 178.562389259
944, 444.444444444, 5, 183.562389259
945, 444.444444444, 10, 178.562389259
946, 500, -10, 181.574083432
947, 500, -10, 186.574083432
948, 500, -10, 191.574083432
949, 500, -5, 181.574083432
950, 500, -5, 186.574083432
951, 500, -5, 191.574083432
952, 500, 0, 181.574083432
953, 500, 0, 186.574083432
954, 500, 0, 191.574083432
955, 555.555555556, -10, 194.585777605
956, 555.555555556, -5, 189.585777605
957, 555.555555556, -5, 194.585777605
958, 555.555555556, -5, 199.585777605
959, 555.555555556, 0, 194.585777605
960, 500, 5, 181.574083432
961, 500, 5, 186.574083432
962, 500, 5, 191.574083432
963, 500, 10, 181.574083432
964, 500, 10, 186.574083432
965, 500, 10, 191.574083432
966, 555.555555556, 5, 189.585777605
967, 555.555555556, 5, 194.585777605
968, 555.555555556, 5, 199.585777605
969, 555.555555556, 10, 194.585777605
970, 1333.33333333, -10, 182.324972243
971, 1333.33333333, -5, 162.066641994
972, 1333.33333333, -5, 182.324972243
973, 1333.33333333, -5, 202.583302492
974, 1333.33333333, 0, 182.324972243
975, 1388.88888889, -10, 156.867632039
976, 1388.88888889, -10, 176.476086044
977, 1388.88888889, -10, 196.084540049
978, 1388.88888889, -5, 156.867632039
979, 1388.88888889, -5, 176.476086044
980, 1388.88888889, -5, 196.084540049
981, 1388.88888889, 0, 156.867632039
982, 1388.88888889, 0, 176.476086044
983, 1388.88888889, 0, 196.084540049
984, 1444.44444444, -10, 170.627199845
985, 1444.44444444, -5, 151.668622084
986, 1444.44444444, -5, 170.627199845
987, 1444.44444444, -5, 189.585777605
988, 1444.44444444, 0, 170.627199845
989, 1333.33333333, 5, 162.066641994
990, 1333.33333333, 5, 182.324972243
991, 1333.33333333, 5, 202.583302492
992, 1333.33333333, 10, 182.324972243
993, 1388.88888889, 5, 156.867632039
994, 1388.88888889, 5, 176.476086044
995, 1388.88888889, 5, 196.084540049
996, 1388.88888889, 10, 156.867632039
997, 1388.88888889, 10, 176.476086044
998, 1388.88888889, 10, 196.084540049
999, 1444.44444444, 5, 151.668622084
1000, 1444.44444444, 5, 170.627199845
1001, 1444.44444444, 5, 189.585777605
1002, 1444.44444444, 10, 170.627199845
1003, 1333.33333333, -10, 207.583302492
1004, 1333.33333333, -5, 207.583302492
1005, 1333.33333333, -5, 212.583302492
1006, 1333.33333333, 0, 207.583302492
1007, 1388.88888889, -10, 201.084540049
1008, 1388.88888889, -10, 206.084540049
1009, 1388.88888889, -5, 201.084540049
1010, 1388.88888889, -5, 206.084540049
1011, 1388.88888889, 0, 201.084540049
1012, 1388.88888889, 0, 206.084540049
1013, 1444.44444444, -10, 194.585777605
1014, 1444.44444444, -5, 194.585777605
1015, 1444.44444444, -5, 199.585777605
1016, 1444.44444444, 0, 194.585777605
1017, 1333.33333333, 5, 207.583302492
1018, 1333.33333333, 5, 212.583302492
1019, 1333.33333333, 10, 207.583302492
1020, 1388.88888889, 5, 201.084540049
1021, 1388.88888889, 5, 206.084540049
1022, 1388.88888889, 10, 201.084540049
1023, 1388.88888889, 10, 206.084540049
1024, 1444.44444444, 5, 194.585777605
1025, 1444.44444444, 5, 199.585777605
1026, 1444.44444444, 10, 194.585777605
1027, 1500, -10, 145.259266746
1028, 1500, -10, 163.416675089
1029, 1500, -10, 181.574083432
1030, 1500, -5, 145.259266746
1031, 1500, -5, 163.416675089
1032, 1500, -5, 181.574083432
1033, 1500, 0, 145.259266746
1034, 1500, 0, 163.416675089
1035, 1500, 0, 181.574083432
1036, 1555.55555556, -10, 156.206150333
1037, 1555.55555556, -5, 138.849911407
1038, 1555.55555556, -5, 156.206150333
1039, 1555.55555556, -5, 173.562389259
1040, 1555.55555556, 0, 156.206150333
1041, 1500, 5, 145.259266746
1042, 1500, 5, 163.416675089
1043, 1500, 5, 181.574083432
1044, 1500, 10, 145.259266746
1045, 1500, 10, 163.416675089
1046, 1500, 10, 181.574083432
1047, 1555.55555556, 5, 138.849911407
1048, 1555.55555556, 5, 156.206150333
1049, 1555.55555556, 5, 173.562389259
1050, 1555.55555556, 10, 156.206150333
1051, 1500, -10, 186.574083432
1052, 1500, -10, 191.574083432
1053, 1500, -5, 186.574083432
1054, 1500, -5, 191.574083432
1055, 1500, 0, 186.574083432
1056, 1500, 0, 191.574083432
1057, 1555.55555556, -10, 178.562389259
1058, 1555.55555556, -5, 178.562389259
1059, 1555.55555556, -5, 183.562389259
1060, 1555.55555556, 0, 178.562389259
1061, 1500, 5, 186.574083432
1062, 1500, 5, 191.574083432
1063, 1500, 10, 186.574083432
1064, 1500, 10, 191.574083432
1065, 1555.55555556, 5, 178.562389259
1066, 1555.55555556, 5, 183.562389259
1067, 1555.55555556, 10, 178.562389259
1068, 1611.11111111, -10, 131.424955704
1069, 1611.11111111, -10, 147.853075167
1070, 1611.11111111, -10, 164.28119463
1071, 1611.11111111, -5, 131.424955704
1072, 1611.11111111, -5, 147.853075167
1073, 1611.11111111, -5, 164.28119463
1074, 1611.11111111, 0, 131.424955704
1075, 1611.11111111, 0, 147.853075167
1076, 1611.11111111, 0, 164.28119463
1077, 1666.66666667, -10, 139.5
1078, 1666.66666667, -5, 124
1079, 1666.66666667, -5, 139.5
1080, 1666.66666667, -5, 155
1081, 1666.66666667, 0, 139.5
1082, 1611.11111111, 5, 131.424955704
1083, 1611.11111111, 5, 147.853075167
1084, 1611.11111111, 5, 164.28119463
1085, 1611.11111111, 10, 131.424955704
1086, 1611.11111111, 10, 147.853075167
1087, 1611.11111111, 10, 164.28119463
1088, 1666.66666667, 5, 124
1089, 1666.66666667, 5, 139.5
1090, 1666.66666667, 5, 155
1091, 1666.66666667, 10, 139.5
1092, 1611.11111111, -10, 169.28119463
1093, 1611.11111111, -10, 174.28119463
1094, 1611.11111111, -5, 169.28119463
1095, 1611.11111111, -5, 174.28119463
1096, 1611.11111111, 0, 169.28119463
1097, 1611.11111111, 0, 174.28119463
1098, 1666.66666667, -10, 160
1099, 1666.66666667, -5, 160
1100, 1666.66666667, -5, 165
1101, 1666.66666667, 0, 160
1102, 1611.11111111, 5, 169.28119463
1103, 1611.11111111, 5, 174.28119463
1104, 1611.11111111, 10, 169.28119463
1105, 1611.11111111, 10, 174.28119463
1106, 1666.66666667, 5, 160
1107, 1666.66666667, 5, 165
1108, 1666.66666667, 10, 160
1109, 1722.22222222, -10, 115.785047453
1110, 1722.22222222, -10, 130.258178385
1111, 1722.22222222, -10, 144.731309316
1112, 1722.22222222, -5, 115.785047453
1113, 1722.22222222, -5, 130.258178385
1114, 1722.22222222, -5, 144.731309316
1115, 1722.22222222, 0, 115.785047453
1116, 1722.22222222, 0, 130.258178385
1117, 1722.22222222, 0, 144.731309316
1118, 1777.77777778, -10, 121.016356769
1119, 1777.77777778, -5, 107.570094906
1120, 1777.77777778, -5, 121.016356769
1121, 1777.77777778, -5, 134.462618632
1122, 1777.77777778, 0, 121.016356769
1123, 1722.22222222, 5, 115.785047453
1124, 1722.22222222, 5, 130.258178385
1125, 1722.22222222, 5, 144.731309316
1126, 1722.22222222, 10, 115.785047453
1127, 1722.22222222, 10, 130.258178385
1128, 1722.22222222, 10, 144.731309316
1129, 1777.77777778, 5, 107.570094906
1130, 1777.77777778, 5, 121.016356769
1131, 1777.77777778, 5, 134.462618632
1132, 1777.77777778, 10, 121.016356769
1133, 1666.66666667, -37.5, 160
1134, 1666.66666667, -23.75, 155
1135, 1666.66666667, -23.75, 160
1136, 1666.66666667, -23.75, 165
1137, 1722.22222222, -37.5, 144.731309316
1138, 1722.22222222, -37.5, 149.731309316
1139, 1722.22222222, -37.5, 154.731309316
1140, 1722.22222222, -23.75, 144.731309316
1141, 1722.22222222, -23.75, 149.731309316
1142, 1722.22222222, -23.75, 154.731309316
1143, 1722.22222222, -10, 149.731309316
1144, 1722.22222222, -10, 154.731309316
1145, 1777.77777778, -37.5, 139.462618632
1146, 1777.77777778, -23.75, 134.462618632
1147, 1777.77777778, -23.75, 139.462618632
1148, 1777.77777778, -23.75, 144.462618632
1149, 1777.77777778, -10, 139.462618632
1150, 1722.22222222, -5, 149.731309316
1151, 1722.22222222, -5, 154.731309316
1152, 1722.22222222, 0, 149.731309316
1153, 1722.22222222, 0, 154.731309316
1154, 1777.77777778, -5, 139.462618632
1155, 1777.77777778, -5, 144.462618632
1156, 1777.77777778, 0, 139.462618632
1157, 1722.22222222, 5, 149.731309316
1158, 1722.22222222, 5, 154.731309316
1159, 1722.22222222, 10, 149.731309316
1160, 1722.22222222, 10, 154.731309316
1161, 1777.77777778, 5, 139.462618632
1162, 1777.77777778, 5, 144.462618632
1163, 1777.77777778, 10, 139.462618632
1164, 1666.66666667, 23.75, 155
1165, 1666.66666667, 23.75, 160
1166, 1666.66666667, 23.75, 165
1167, 1666.66666667, 37.5, 160
1168, 1722.22222222, 23.75, 144.731309316
1169, 1722.22222222, 23.75, 149.731309316
1170, 1722.22222222, 23.75, 154.731309316
1171, 1722.22222222, 37.5, 144.731309316
1172, 1722.22222222, 37.5, 149.731309316
1173, 1722.22222222, 37.5, 154.731309316
1174, 1777.77777778, 23.75, 134.462618632
1175, 1777.77777778, 23.75, 139.462618632
1176, 1777.77777778, 23.75, 144.462618632
1177, 1777.77777778, 37.5, 139.462618632
1178, 1833.33333333, -10, 98.8147526916
1179, 1833.33333333, -10, 111.166596778
1180, 1833.33333333, -10, 123.518440865
1181, 1833.33333333, -5, 98.8147526916
1182, 1833.33333333, -5, 111.166596778
1183, 1833.33333333, -5, 123.518440865
1184, 1833.33333333, 0, 98.8147526916
1185, 1833.33333333, 0, 111.166596778
1186, 1833.33333333, 0, 123.518440865
1187, 1888.88888889, -10, 101.316836787
1188, 1888.88888889, -5, 90.0594104774
1189, 1888.88888889, -5, 101.316836787
1190, 1888.88888889, -5, 112.574263097
1191, 1888.88888889, 0, 101.316836787
1192, 1833.33333333, 5, 98.8147526916
1193, 1833.33333333, 5, 111.166596778
1194, 1833.33333333, 5, 123.518440865
1195, 1833.33333333, 10, 98.8147526916
1196, 1833.33333333, 10, 111.166596778
1197, 1833.33333333, 10, 123.518440865
1198, 1888.88888889, 5, 90.0594104774
1199, 1888.88888889, 5, 101.316836787
1200, 1888.88888889, 5, 112.574263097
1201, 1888.88888889, 10, 101.316836787
1202, 1833.33333333, -10, 128.518440865
1203, 1833.33333333, -10, 133.518440865
1204, 1833.33333333, -5, 128.518440865
1205, 1833.33333333, -5, 133.518440865
1206, 1833.33333333, 0, 128.518440865
1207, 1833.33333333, 0, 133.518440865
1208, 1888.88888889, -10, 117.574263097
1209, 1888.88888889, -5, 117.574263097
1210, 1888.88888889, -5, 122.574263097
1211, 1888.88888889, 0, 117.574263097
1212, 1833.33333333, 5, 128.518440865
1213, 1833.33333333, 5, 133.518440865
1214, 1833.33333333, 10, 128.518440865
1215, 1833.33333333, 10, 133.518440865
1216, 1888.88888889, 5, 117.574263097
1217, 1888.88888889, 5, 122.574263097
1218, 1888.88888889, 10, 117.574263097
1219, 1944.44444444, -10, 81.0297052387
1220, 1944.44444444, -10, 91.1584183935
1221, 1944.44444444, -10, 101.287131548
1222, 1944.44444444, -5, 81.0297052387
1223, 1944.44444444, -5, 91.1584183935
1224, 1944.44444444, -5, 101.287131548
1225, 1944.44444444, 0, 81.0297052387
1226, 1944.44444444, 0, 91.1584183935
1227, 1944.44444444, 0, 101.287131548
1228, 2000, -10, 81
1229, 2000, -5, 72
1230, 2000, -5, 81
1231, 2000, -5, 90
1232, 2000, 0, 81
1233, 1944.44444444, 5, 81.0297052387
1234, 1944.44444444, 5, 91.1584183935
1235, 1944.44444444, 5, 101.287131548
1236, 1944.44444444, 10, 81.0297052387
1237, 1944.44444444, 10, 91.1584183935
1238, 1944.44444444, 10, 101.287131548
1239, 2000, 5, 72
1240, 2000, 5, 81
1241, 2000, 5, 90
1242, 2000, 10, 81
1243, 1944.44444444, -10, 106.287131548
1244, 1944.44444444, -10, 111.287131548
1245, 1944.44444444, -5, 106.287131548
1246, 1944.44444444, -5, 111.287131548
1247, 1944.44444444, 0, 106.287131548
1248, 1944.44444444, 0, 111.287131548
1249, 2000, -10, 95
1250, 2000, -5, 95
1251, 2000, -5, 100
1252, 2000, 0, 95
1253, 1944.44444444, 5, 106.287131548
1254, 1944.44444444, 5, 111.287131548
1255, 1944.44444444, 10, 106.287131548
1256, 1944.44444444, 10, 111.287131548
1257, 2000, 5, 95
1258, 2000, 5, 100
1259, 2000, 10, 95
1260, 0, -120, 95
1261, 0, -106.25, 90
1262, 0, -106.25, 95
1263, 0, -106.25, 100
1264, 0, -92.5, 95
1265, 55.5555555556, -120, 101.287131548
1266, 55.5555555556, -120, 106.287131548
1267, 55.5555555556, -120, 111.287131548
1268, 55.5555555556, -106.25, 101.287131548
1269, 55.5555555556, -106.25, 106.287131548
1270, 55.5555555556, -106.25, 111.287131548
1271, 55.5555555556, -92.5, 101.287131548
1272, 55.5555555556, -92.5, 106.287131548
1273, 55.5555555556, -92.5, 111.287131548
1274, 111.111111111, -120, 117.574263097
1275, 111.111111111, -106.25, 112.574263097
1276, 111.111111111, -106.25, 117.574263097
1277, 111.111111111, -106.25, 122.574263097
1278, 111.111111111, -92.5, 117.574263097
1279, 0, -120, 105
1280, 0, -106.25, 105
1281, 0, -106.25, 110
1282, 0, -92.5, 105
1283, 55.5555555556, -120, 116.287131548
1284, 55.5555555556, -120, 121.287131548
1285, 55.5555555556, -106.25, 116.287131548
1286, 55.5555555556, -106.25, 121.287131548
1287, 55.5555555556, -92.5, 116.287131548
1288, 55.5555555556, -92.5, 121.287131548
1289, 111.111111111, -120, 127.574263097
1290, 111.111111111, -106.25, 127.574263097
1291, 111.111111111, -106.25, 132.574263097
1292, 111.111111111, -92.5, 127.574263097
1293, 0, -78.75, 90
1294, 0, -78.75, 95
1295, 0, -78.75, 100
1296, 0, -65, 95
1297, 55.5555555556, -78.75, 101.287131548
1298, 55.5555555556, -78.75, 106.287131548
1299, 55.5555555556, -78.75, 111.287131548
1300, 55.5555555556, -65, 101.287131548
1301, 55.5555555556, -65, 106.287131548
1302, 55.5555555556, -65, 111.287131548
1303, 111.111111111, -78.75, 112.574263097
1304, 111.111111111, -78.75, 117.574263097
1305, 111.111111111, -78.75, 122.574263097
1306, 111.111111111, -65, 117.574263097
1307, 0, -78.75, 105
1308, 0, -78.75, 110
1309, 0, -65, 105
1310, 55.5555555556, -78.75, 116.287131548
1311, 55.5555555556, -78.75, 121.287131548
1312, 55.5555555556, -65, 116.287131548
1313, 55.5555555556, -65, 121.287131548
1314, 111.111111111, -78.75, 127.574263097
1315, 111.111111111, -78.75, 132.574263097
1316, 111.111111111, -65, 127.574263097
1317, 0, -51.25, 90
1318, 0, -51.25, 95
1319, 0, -51.25, 100
1320, 0, -37.5, 95
1321, 55.5555555556, -51.25, 101.287131548
1322, 55.5555555556, -51.25, 106.287131548
1323, 55.5555555556, -51.25, 111.287131548
1324, 55.5555555556, -37.5, 101.287131548
1325, 55.5555555556, -37.5, 106.287131548
1326, 55.5555555556, -37.5, 111.287131548
1327, 111.111111111, -51.25, 112.574263097
1328, 111.111111111, -51.25, 117.574263097
1329, 111.111111111, -51.25, 122.574263097
1330, 111.111111111, -37.5, 117.574263097
1331, 0, -51.25, 105
1332, 0, -51.25, 110
1333, 0, -37.5, 105
1334, 55.5555555556, -51.25, 116.287131548
1335, 55.5555555556, -51.25, 121.287131548
1336, 55.5555555556, -37.5, 116.287131548
1337, 55.5555555556, -37.5, 121.287131548
1338, 111.111111111, -51.25, 127.574263097
1339, 111.111111111, -51.25, 132.574263097
1340, 111.111111111, -37.5, 127.574263097
1341, 0, -23.75, 90
1342, 0, -23.75, 95
1343, 0, -23.75, 100
1344, 0, -10, 95
1345, 55.5555555556, -23.75, 101.287131548
1346, 55.5555555556, -23.75, 106.287131548
1347, 55.5555555556, -23.75, 111.287131548
1348, 55.5555555556, -10, 101.287131548
1349, 55.5555555556, -10, 106.287131548
1350, 55.5555555556, -10, 111.287131548
1351, 111.111111111, -23.75, 112.574263097
1352, 111.111111111, -23.75, 117.574263097
1353, 111.111111111, -23.75, 122.574263097
1354, 111.111111111, -10, 117.574263097
1355, 0, -23.75, 105
1356, 0, -23.75, 110
1357, 0, -10, 105
1358, 55.5555555556, -23.75, 116.287131548
1359, 55.5555555556, -23.75, 121.287131548
1360, 55.5555555556, -10, 116.287131548
1361, 55.5555555556, -10, 121.287131548
1362, 111.111111111, -23.75, 127.574263097
1363, 111.111111111, -23.75, 132.574263097
1364, 111.111111111, -10, 127.574263097
1365, 0, 10, 95
1366, 0, 23.75, 90
1367, 0, 23.75, 95
1368, 0, 23.75, 100
1369, 0, 37.5, 95
1370, 55.5555555556, 10, 101.287131548
1371, 55.5555555556, 10, 106.287131548
1372, 55.5555555556, 10, 111.287131548
1373, 55.5555555556, 23.75, 101.287131548
1374, 55.5555555556, 23.75, 106.287131548
1375, 55.5555555556, 23.75, 111.287131548
1376, 55.5555555556, 37.5, 101.287131548
1377, 55.5555555556, 37.5, 106.287131548
1378, 55.5555555556, 37.5, 111.287131548
1379, 111.111111111, 10, 117.574263097
1380, 111.111111111, 23.75, 112.574263097
1381, 111.111111111, 23.75, 117.574263097
1382, 111.111111111, 23.75, 122.574263097
1383, 111.111111111, 37.5, 117.574263097
1384, 0, 10, 105
1385, 0, 23.75, 105
1386, 0, 23.75, 110
1387, 0, 37.5, 105
1388, 55.5555555556, 10, 116.287131548
1389, 55.5555555556, 10, 121.287131548
1390, 55.5555555556, 23.75, 116.287131548
1391, 55.5555555556, 23.75, 121.287131548
1392, 55.5555555556, 37.5, 116.287131548
1393, 55.5555555556, 37.5, 121.287131548
1394, 111.111111111, 10, 127.574263097
1395, 111.111111111, 23.75, 127.574263097
1396, 111.111111111, 23.75, 132.574263097
1397, 111.111111111, 37.5, 127.574263097
1398, 0, 51.25, 90
1399, 0, 51.25, 95
1400, 0, 51.25, 100
1401, 0, 65, 95
1402, 55.5555555556, 51.25, 101.287131548
1403, 55.5555555556, 51.25, 106.287131548
1404, 55.5555555556, 51.25, 111.287131548
1405, 55.5555555556, 65, 101.287131548
1406, 55.5555555556, 65, 106.287131548
1407, 55.5555555556, 65, 111.287131548
1408, 111.111111111, 51.25, 112.574263097
1409, 111.111111111, 51.25, 117.574263097
1410, 111.111111111, 51.25, 122.574263097
1411, 111.111111111, 65, 117.574263097
1412, 0, 51.25, 105
1413, 0, 51.25, 110
1414, 0, 65, 105
1415, 55.5555555556, 51.25, 116.287131548
1416, 55.5555555556, 51.25, 121.287131548
1417, 55.5555555556, 65, 116.287131548
1418, 55.5555555556, 65, 121.287131548
1419, 111.111111111, 51.25, 127.574263097
1420, 111.111111111, 51.25, 132.574263097
1421, 111.111111111, 65, 127.574263097
1422, 0, 78.75, 90
1423, 0, 78.75, 95
1424, 0, 78.75, 100
1425, 0, 92.5, 95
1426, 55.5555555556, 78.75, 101.287131548
1427, 55.5555555556, 78.75, 106.287131548
1428, 55.5555555556, 78.75, 111.287131548
1429, 55.5555555556, 92.5, 101.287131548
1430, 55.5555555556, 92.5, 106.287131548
1431, 55.5555555556, 92.5, 111.287131548
1432, 111.111111111, 78.75, 112.574263097
1433, 111.111111111, 78.75, 117.574263097
1434, 111.111111111, 78.75, 122.574263097
1435, 111.111111111, 92.5, 117.574263097
1436, 0, 78.75, 105
1437, 0, 78.75, 110
1438, 0, 92.5, 105
1439, 55.5555555556, 78.75, 116.287131548
1440, 55.5555555556, 78.75, 121.287131548
1441, 55.5555555556, 92.5, 116.287131548
1442, 55.5555555556, 92.5, 121.287131548
1443, 111.111111111, 78.75, 127.574263097
1444, 111.111111111, 78.75, 132.574263097
1445, 111.111111111, 92.5, 127.574263097
1446, 0, 106.25, 90
1447, 0, 106.25, 95
1448, 0, 106.25, 100
1449, 0, 120, 95
1450, 55.5555555556, 106.25, 101.287131548
1451, 55.5555555556, 106.25, 106.287131548
1452, 55.5555555556, 106.25, 111.287131548
1453, 55.5555555556, 120, 101.287131548
1454, 55.5555555556, 120, 106.287131548
1455, 55.5555555556, 120, 111.287131548
1456, 111.111111111, 106.25, 112.574263097
1457, 111.111111111, 106.25, 117.574263097
1458, 111.111111111, 106.25, 122.574263097
1459, 111.111111111, 120, 117.574263097
1460, 0, 106.25, 105
1461, 0, 106.25, 110
1462, 0, 120, 105
1463, 55.5555555556, 106.25, 116.287131548
1464, 55.5555555556, 106.25, 121.287131548
1465, 55.5555555556, 120, 116.287131548
1466, 55.5555555556, 120, 121.287131548
1467, 111.111111111, 106.25, 127.574263097
1468, 111.111111111, 106.25, 132.574263097
1469, 111.111111111, 120, 127.574263097
1470, 166.666666667, -37.5, 123.518440865
1471, 166.666666667, -37.5, 128.518440865
1472, 166.666666667, -37.5, 133.518440865
1473, 166.666666667, -23.75, 123.518440865
1474, 166.666666667, -23.75, 128.518440865
1475, 166.666666667, -23.75, 133.518440865
1476, 166.666666667, -10, 123.518440865
1477, 166.666666667, -10, 128.518440865
1478, 166.666666667, -10, 133.518440865
1479, 222.222222222, -37.5, 139.462618632
1480, 222.222222222, -23.75, 134.462618632
1481, 222.222222222, -23.75, 139.462618632
1482, 222.222222222, -23.75, 144.462618632
1483, 222.222222222, -10, 139.462618632
1484, 111.111111111, -5, 112.574263097
1485, 111.111111111, -5, 117.574263097
1486, 111.111111111, -5, 122.574263097
1487, 111.111111111, 0, 117.574263097
1488, 166.666666667, -5, 123.518440865
1489, 166.666666667, -5, 128.518440865
1490, 166.666666667, -5, 133.518440865
1491, 166.666666667, 0, 123.518440865
1492, 166.666666667, 0, 128.518440865
1493, 166.666666667, 0, 133.518440865
1494, 222.222222222, -5, 134.462618632
1495, 222.222222222, -5, 139.462618632
1496, 222.222222222, -5, 144.462618632
1497, 222.222222222, 0, 139.462618632
1498, 111.111111111, 5, 112.574263097
1499, 111.111111111, 5, 117.574263097
1500, 111.111111111, 5, 122.574263097
1501, 166.666666667, 5, 123.518440865
1502, 166.666666667, 5, 128.518440865
1503, 166.666666667, 5, 133.518440865
1504, 166.666666667, 10, 123.518440865
1505, 166.666666667, 10, 128.518440865
1506, 166.666666667, 10, 133.518440865
1507, 222.222222222, 5, 134.462618632
1508, 222.222222222, 5, 139.462618632
1509, 222.222222222, 5, 144.462618632
1510, 222.222222222, 10, 139.462618632
1511, 166.666666667, 23.75, 123.518440865
1512, 166.666666667, 23.75, 128.518440865
1513, 166.666666667, 23.75, 133.518440865
1514, 166.666666667, 37.5, 123.518440865
1515, 166.666666667, 37.5, 128.518440865
1516, 166.666666667, 37.5, 133.518440865
1517, 222.222222222, 23.75, 134.462618632
1518, 222.222222222, 23.75, 139.462618632
1519, 222.222222222, 23.75, 144.462618632
1520, 222.222222222, 37.5, 139.462618632
1521, 222.222222222, -10, 121.016356769
1522, 222.222222222, -5, 107.570094906
1523, 222.222222222, -5, 121.016356769
1524, 222.222222222, 0, 121.016356769
1525, 277.777777778, -10, 115.785047453
1526, 277.777777778, -10, 130.258178385
1527, 277.777777778, -10, 144.731309316
1528, 277.777777778, -5, 115.785047453
1529, 277.777777778, -5, 130.258178385
1530, 277.777777778, -5, 144.731309316
1531, 277.777777778, 0, 115.785047453
1532, 277.777777778, 0, 130.258178385
1533, 277.777777778, 0, 144.731309316
1534, 333.333333333, -10, 139.5
1535, 333.333333333, -5, 124
1536, 333.333333333, -5, 139.5
1537, 333.333333333, 0, 139.5
1538, 222.222222222, 5, 107.570094906
1539, 222.222222222, 5, 121.016356769
1540, 222.222222222, 10, 121.016356769
1541, 277.777777778, 5, 115.785047453
1542, 277.777777778, 5, 130.258178385
1543, 277.777777778, 5, 144.731309316
1544, 277.777777778, 10, 115.785047453
1545, 277.777777778, 10, 130.258178385
1546, 277.777777778, 10, 144.731309316
1547, 333.333333333, 5, 124
1548, 333.333333333, 5, 139.5
1549, 333.333333333, 10, 139.5
1550, 277.777777778, -37.5, 144.731309316
1551, 277.777777778, -37.5, 149.731309316
1552, 277.777777778, -37.5, 154.731309316
1553, 277.777777778, -23.75, 144.731309316
1554, 277.777777778, -23.75, 149.731309316
1555, 277.777777778, -23.75, 154.731309316
1556, 277.777777778, -10, 149.731309316
1557, 277.777777778, -10, 154.731309316
1558, 333.333333333, -37.5, 160
1559, 333.333333333, -23.75, 155
1560, 333.333333333, -23.75, 160
1561, 333.333333333, -23.75, 165
1562, 277.777777778, -5, 149.731309316
1563, 277.777777778, -5, 154.731309316
1564, 277.777777778, 0, 149.731309316
1565, 277.777777778, 0, 154.731309316
1566, 277.777777778, 5, 149.731309316
1567, 277.777777778, 5, 154.731309316
1568, 277.777777778, 10, 149.731309316
1569, 277.777777778, 10, 154.731309316
1570, 277.777777778, 23.75, 144.731309316
1571, 277.777777778, 23.75, 149.731309316
1572, 277.777777778, 23.75, 154.731309316
1573, 277.777777778, 37.5, 144.731309316
1574, 277.777777778, 37.5, 149.731309316
1575, 277.777777778, 37.5, 154.731309316
1576, 333.333333333, 23.75, 155
1577, 333.333333333, 23.75, 160
1578, 333.333333333, 23.75, 165
1579, 333.333333333, 37.5, 160
1580, 388.888888889, -37.5, 164.28119463
1581, 388.888888889, -37.5, 169.28119463
1582, 388.888888889, -37.5, 174.28119463
1583, 388.888888889, -23.75, 164.28119463
1584, 388.888888889, -23.75, 169.28119463
1585, 388.888888889, -23.75, 174.28119463
1586, 444.444444444, -37.5, 178.562389259
1587, 444.444444444, -23.75, 173.562389259
1588, 444.444444444, -23.75, 178.562389259
1589, 444.444444444, -23.75, 183.562389259
1590, 388.888888889, 23.75, 164.28119463
1591, 388.888888889, 23.75, 169.28119463
1592, 388.888888889, 23.75, 174.28119463
1593, 388.888888889, 37.5, 164.28119463
1594, 388.888888889, 37.5, 169.28119463
1595, 388.888888889, 37.5, 174.28119463
1596, 444.444444444, 23.75, 173.562389259
1597, 444.444444444, 23.75, 178.562389259
1598, 444.444444444, 23.75, 183.562389259
1599, 444.444444444, 37.5, 178.562389259
1600, 444.444444444, -10, 156.206150333
1601, 444.444444444, -5, 138.849911407
1602, 444.444444444, -5, 156.206150333
1603, 444.444444444, 0, 156.206150333
1604, 500, -10, 145.259266746
1605, 500, -10, 163.416675089
1606, 500, -5, 145.259266746
1607, 500, -5, 163.416675089
1608, 500, 0, 145.259266746
1609, 500, 0, 163.416675089
1610, 555.555555556, -10, 170.627199845
1611, 555.555555556, -5, 151.668622084
1612, 555.555555556, -5, 170.627199845
1613, 555.555555556, 0, 170.627199845
1614, 444.444444444, 5, 138.849911407
1615, 444.444444444, 5, 156.206150333
1616, 444.444444444, 10, 156.206150333
1617, 500, 5, 145.259266746
1618, 500, 5, 163.416675089
1619, 500, 10, 145.259266746
1620, 500, 10, 163.416675089
1621, 555.555555556, 5, 151.668622084
1622, 555.555555556, 5, 170.627199845
1623, 555.555555556, 10, 170.627199845
1624, 500, -37.5, 181.574083432
1625, 500, -37.5, 186.574083432
1626, 500, -37.5, 191.574083432
1627, 500, -23.75, 181.574083432
1628, 500, -23.75, 186.574083432
1629, 500, -23.75, 191.574083432
1630, 555.555555556, -37.5, 194.585777605
1631, 555.555555556, -23.75, 189.585777605
1632, 555.555555556, -23.75, 194.585777605
1633, 555.555555556, -23.75, 199.585777605
1634, 500, 23.75, 181.574083432
1635, 500, 23.75, 186.574083432
1636, 500, 23.75, 191.574083432
1637, 500, 37.5, 181.574083432
1638, 500, 37.5, 186.574083432
1639, 500, 37.5, 191.574083432
1640, 555.555555556, 23.75, 189.585777605
1641, 555.555555556, 23.75, 194.585777605
1642, 555.555555556, 23.75, 199.585777605
1643, 555.555555556, 37.5, 194.585777605
1644, 611.111111111, -10, 156.867632039
1645, 611.111111111, -10, 176.476086044
1646, 611.111111111, -10, 196.084540049
1647, 611.111111111, -5, 156.867632039
1648, 611.111111111, -5, 176.476086044
1649, 611.111111111, -5, 196.084540049
1650, 611.111111111, 0, 156.867632039
1651, 611.111111111, 0, 176.476086044
1652, 611.111111111, 0, 196.084540049
1653, 666.666666667, -10, 182.324972243
1654, 666.666666667, -5, 162.066641994
1655, 666.666666667, -5, 182.324972243
1656, 666.666666667, -5, 202.583302492
1657, 666.666666667, 0, 182.324972243
1658, 611.111111111, 5, 156.867632039
1659, 611.111111111, 5, 176.476086044
1660, 611.111111111, 5, 196.084540049
1661, 611.111111111, 10, 156.867632039
1662, 611.111111111, 10, 176.476086044
1663, 611.111111111, 10, 196.084540049
1664, 666.666666667, 5, 162.066641994
1665, 666.666666667, 5, 182.324972243
1666, 666.666666667, 5, 202.583302492
1667, 666.666666667, 10, 182.324972243
1668, 611.111111111, -37.5, 196.084540049
1669, 611.111111111, -37.5, 201.084540049
1670, 611.111111111, -37.5, 206.084540049
1671, 611.111111111, -23.75, 196.084540049
1672, 611.111111111, -23.75, 201.084540049
1673, 611.111111111, -23.75, 206.084540049
1674, 611.111111111, -10, 201.084540049
1675, 611.111111111, -10, 206.084540049
1676, 666.666666667, -37.5, 207.583302492
1677, 666.666666667, -23.75, 202.583302492
1678, 666.666666667, -23.75, 207.583302492
1679, 666.666666667, -23.75, 212.583302492
1680, 666.666666667, -10, 207.583302492
1681, 611.111111111, -5, 201.084540049
1682, 611.111111111, -5, 206.084540049
1683, 611.111111111, 0, 201.084540049
1684, 611.111111111, 0, 206.084540049
1685, 666.666666667, -5, 207.583302492
1686, 666.666666667, -5, 212.583302492
1687, 666.666666667, 0, 207.583302492
1688, 611.111111111, 5, 201.084540049
1689, 611.111111111, 5, 206.084540049
1690, 611.111111111, 10, 201.084540049
1691, 611.111111111, 10, 206.084540049
1692, 666.666666667, 5, 207.583302492
1693, 666.666666667, 5, 212.583302492
1694, 666.666666667, 10, 207.583302492
1695, 611.111111111, 23.75, 196.084540049
1696, 611.111111111, 23.75, 201.084540049
1697, 611.111111111, 23.75, 206.084540049
1698, 611.111111111, 37.5, 196.084540049
1699, 611.111111111, 37.5, 201.084540049
1700, 611.111111111, 37.5, 206.084540049
1701, 666.666666667, 23.75, 202.583302492
1702, 666.666666667, 23.75, 207.583302492
1703, 666.666666667, 23.75, 212.583302492
1704, 666.666666667, 37.5, 207.583302492
1705, 722.222222222, -10, 165.897337278
1706, 722.222222222, -10, 186.634504437
1707, 722.222222222, -10, 207.371671597
1708, 722.222222222, -5, 165.897337278
1709, 722.222222222, -5, 186.634504437
1710, 722.222222222, -5, 207.371671597
1711, 722.222222222, 0, 165.897337278
1712, 722.222222222, 0, 186.634504437
1713, 722.222222222, 0, 207.371671597
1714, 777.777777778, -10, 190.944036632
1715, 777.777777778, -5, 169.728032562
1716, 777.777777778, -5, 190.944036632
1717, 777.777777778, -5, 212.160040702
1718, 777.777777778, 0, 190.944036632
1719, 722.222222222, 5, 165.897337278
1720, 722.222222222, 5, 186.634504437
1721, 722.222222222, 5, 207.371671597
1722, 722.222222222, 10, 165.897337278
1723, 722.222222222, 10, 186.634504437
1724, 722.222222222, 10, 207.371671597
1725, 777.777777778, 5, 169.728032562
1726, 777.777777778, 5, 190.944036632
1727, 777.777777778, 5, 212.160040702
1728, 777.777777778, 10, 190.944036632
1729, 722.222222222, -10, 212.371671597
1730, 722.222222222, -10, 217.371671597
1731, 722.222222222, -5, 212.371671597
1732, 722.222222222, -5, 217.371671597
1733, 722.222222222, 0, 212.371671597
1734, 722.222222222, 0, 217.371671597
1735, 777.777777778, -10, 217.160040702
1736, 777.777777778, -5, 217.160040702
1737, 777.777777778, -5, 222.160040702
1738, 777.777777778, 0, 217.160040702
1739, 722.222222222, 5, 212.371671597
1740, 722.222222222, 5, 217.371671597
1741, 722.222222222, 10, 212.371671597
1742, 722.222222222, 10, 217.371671597
1743, 777.777777778, 5, 217.160040702
1744, 777.777777778, 5, 222.160040702
1745, 777.777777778, 10, 217.160040702
1746, 1222.22222222, -10, 190.944036632
1747, 1222.22222222, -5, 169.728032562
1748, 1222.22222222, -5, 190.944036632
1749, 1222.22222222, -5, 212.160040702
1750, 1222.22222222, 0, 190.944036632
1751, 1277.77777778, -10, 165.897337278
1752, 1277.77777778, -10, 186.634504437
1753, 1277.77777778, -10, 207.371671597
1754, 1277.77777778, -5, 165.897337278
1755, 1277.77777778, -5, 186.634504437
1756, 1277.77777778, -5, 207.371671597
1757, 1277.77777778, 0, 165.897337278
1758, 1277.77777778, 0, 186.634504437
1759, 1277.77777778, 0, 207.371671597
1760, 1222.22222222, 5, 169.728032562
1761, 1222.22222222, 5, 190.944036632
1762, 1222.22222222, 5, 212.160040702
1763, 1222.22222222, 10, 190.944036632
1764, 1277.77777778, 5, 165.897337278
1765, 1277.77777778, 5, 186.634504437
1766, 1277.77777778, 5, 207.371671597
1767, 1277.77777778, 10, 165.897337278
1768, 1277.77777778, 10, 186.634504437
1769, 1277.77777778, 10, 207.371671597
1770, 1222.22222222, -10, 217.160040702
1771, 1222.22222222, -5, 217.160040702
1772, 1222.22222222, -5, 222.160040702
1773, 1222.22222222, 0, 217.160040702
1774, 1277.77777778, -10, 212.371671597
1775, 1277.77777778, -10, 217.371671597
1776, 1277.77777778, -5, 212.371671597
1777, 1277.77777778, -5, 217.371671597
1778, 1277.77777778, 0, 212.371671597
1779, 1277.77777778, 0, 217.371671597
1780, 1222.22222222, 5, 217.160040702
1781, 1222.22222222, 5, 222.160040702
1782, 1222.22222222, 10, 217.160040702
1783, 1277.77777778, 5, 212.371671597
1784, 1277.77777778, 5, 217.371671597
1785, 1277.77777778, 10, 212.371671597
1786, 1277.77777778, 10, 217.371671597
1787, 1444.44444444, -5, 192.085777605
1788, 1444.44444444, -2.5, 189.585777605
1789, 1444.44444444, -2.5, 192.085777605
1790, 1444.44444444, -2.5, 194.585777605
1791, 1444.44444444, 0, 192.085777605
1792, 1472.22222222, -5, 185.579930519
1793, 1472.22222222, -5, 188.079930519
1794, 1472.22222222, -5, 190.579930519
1795, 1472.22222222, -2.5, 185.579930519
1796, 1472.22222222, -2.5, 188.079930519
1797, 1472.22222222, -2.5, 190.579930519
1798, 1472.22222222, 0, 185.579930519
1799, 1472.22222222, 0, 188.079930519
1800, 1472.22222222, 0, 190.579930519
1801, 1500, -5, 184.074083432
1802, 1500, -2.5, 181.574083432
1803, 1500, -2.5, 184.074083432
1804, 1500, -2.5, 186.574083432
1805, 1500, 0, 184.074083432
1806, 1444.44444444, 2.5, 189.585777605
1807, 1444.44444444, 2.5, 192.085777605
1808, 1444.44444444, 2.5, 194.585777605
1809, 1444.44444444, 5, 192.085777605
1810, 1472.22222222, 2.5, 185.579930519
1811, 1472.22222222, 2.5, 188.079930519
1812, 1472.22222222, 2.5, 190.579930519
1813, 1472.22222222, 5, 185.579930519
1814, 1472.22222222, 5, 188.079930519
1815, 1472.22222222, 5, 190.579930519
1816, 1500, 2.5, 181.574083432
1817, 1500, 2.5, 184.074083432
1818, 1500, 2.5, 186.574083432
1819, 1500, 5, 184.074083432
1820, 1555.55555556, -5, 176.062389259
1821, 1555.55555556, -2.5, 173.562389259
1822, 1555.55555556, -2.5, 176.062389259
1823, 1555.55555556, -2.5, 178.562389259
1824, 1555.55555556, 0, 176.062389259
1825, 1583.33333333, -5, 168.921791944
1826, 1583.33333333, -5, 171.421791944
1827, 1583.33333333, -5, 173.921791944
1828, 1583.33333333, -2.5, 168.921791944
1829, 1583.33333333, -2.5, 171.421791944
1830, 1583.33333333, -2.5, 173.921791944
1831, 1583.33333333, 0, 168.921791944
1832, 1583.33333333, 0, 171.421791944
1833, 1583.33333333, 0, 173.921791944
1834, 1611.11111111, -5, 166.78119463
1835, 1611.11111111, -2.5, 164.28119463
1836, 1611.11111111, -2.5, 166.78119463
1837, 1611.11111111, -2.5, 169.28119463
1838, 1611.11111111, 0, 166.78119463
1839, 1555.55555556, 2.5, 173.562389259
1840, 1555.55555556, 2.5, 176.062389259
1841, 1555.55555556, 2.5, 178.562389259
1842, 1555.55555556, 5, 176.062389259
1843, 1583.33333333, 2.5, 168.921791944
1844, 1583.33333333, 2.5, 171.421791944
1845, 1583.33333333, 2.5, 173.921791944
1846, 1583.33333333, 5, 168.921791944
1847, 1583.33333333, 5, 171.421791944
1848, 1583.33333333, 5, 173.921791944
1849, 1611.11111111, 2.5, 164.28119463
1850, 1611.11111111, 2.5, 166.78119463
1851, 1611.11111111, 2.5, 169.28119463
1852, 1611.11111111, 5, 166.78119463
1853, 1722.22222222, -10, 137.49474385
1854, 1722.22222222, -7.5, 130.258178385
1855, 1722.22222222, -7.5, 137.49474385
1856, 1722.22222222, -7.5, 144.731309316
1857, 1722.22222222, -5, 137.49474385
1858, 1750, -10, 125.637267577
1859, 1750, -10, 132.617115776
1860, 1750, -10, 139.596963974
1861, 1750, -7.5, 125.637267577
1862, 1750, -7.5, 132.617115776
1863, 1750, -7.5, 139.596963974
1864, 1750, -5, 125.637267577
1865, 1750, -5, 132.617115776
1866, 1750, -5, 139.596963974
1867, 1777.77777778, -10, 127.739487701
1868, 1777.77777778, -7.5, 121.016356769
1869, 1777.77777778, -7.5, 127.739487701
1870, 1777.77777778, -7.5, 134.462618632
1871, 1777.77777778, -5, 127.739487701
1872, 1666.66666667, 5, 147.25
1873, 1666.66666667, 7.5, 139.5
1874, 1666.66666667, 7.5, 147.25
1875, 1666.66666667, 7.5, 155
1876, 1666.66666667, 10, 147.25
1877, 1694.44444444, 5, 134.879089192
1878, 1694.44444444, 5, 142.372371925
1879, 1694.44444444, 5, 149.865654658
1880, 1694.44444444, 7.5, 134.879089192
1881, 1694.44444444, 7.5, 142.372371925
1882, 1694.44444444, 7.5, 149.865654658
1883, 1694.44444444, 10, 134.879089192
1884, 1694.44444444, 10, 142.372371925
1885, 1694.44444444, 10, 149.865654658
1886, 1722.22222222, 5, 137.49474385
1887, 1722.22222222, 7.5, 130.258178385
1888, 1722.22222222, 7.5, 137.49474385
1889, 1722.22222222, 7.5, 144.731309316
1890, 1722.22222222, 10, 137.49474385
1891, 1750, 5, 125.637267577
1892, 1750, 5, 132.617115776
1893, 1750, 5, 139.596963974
1894, 1750, 7.5, 125.637267577
1895, 1750, 7.5, 132.617115776
1896, 1750, 7.5, 139.596963974
1897, 1750, 10, 125.637267577
1898, 1750, 10, 132.617115776
1899, 1750, 10, 139.596963974
1900, 1777.77777778, 5, 127.739487701
1901, 1777.77777778, 7.5, 121.016356769
1902, 1777.77777778, 7.5, 127.739487701
1903, 1777.77777778, 7.5, 134.462618632
1904, 1777.77777778, 10, 127.739487701
1905, 1666.66666667, -10, 170
1906, 1666.66666667, -5, 170
1907, 1666.66666667, -5, 175
1908, 1666.66666667, 0, 170
1909, 1722.22222222, -10, 159.731309316
1910, 1722.22222222, -10, 164.731309316
1911, 1722.22222222, -5, 159.731309316
1912, 1722.22222222, -5, 164.731309316
1913, 1722.22222222, 0, 159.731309316
1914, 1722.22222222, 0, 164.731309316
1915, 1777.77777778, -10, 149.462618632
1916, 1777.77777778, -5, 149.462618632
1917, 1777.77777778, -5, 154.462618632
1918, 1777.77777778, 0, 149.462618632
1919, 1666.66666667, 5, 170
1920, 1666.66666667, 5, 175
1921, 1666.66666667, 10, 170
1922, 1722.22222222, 5, 159.731309316
1923, 1722.22222222, 5, 164.731309316
1924, 1722.22222222, 10, 159.731309316
1925, 1722.22222222, 10, 164.731309316
1926, 1777.77777778, 5, 149.462618632
1927, 1777.77777778, 5, 154.462618632
1928, 1777.77777778, 10, 149.462618632
1929, 1833.33333333, -10, 138.518440865
1930, 1833.33333333, -10, 143.518440865
1931, 1833.33333333, -5, 138.518440865
1932, 1833.33333333, -5, 143.518440865
1933, 1833.33333333, 0, 138.518440865
1934, 1833.33333333, 0, 143.518440865
1935, 1888.88888889, -10, 127.574263097
1936, 1888.88888889, -5, 127.574263097
1937, 1888.88888889, -5, 132.574263097
1938, 1888.88888889, 0, 127.574263097
1939, 1833.33333333, 5, 138.518440865
1940, 1833.33333333, 5, 143.518440865
1941, 1833.33333333, 10, 138.518440865
1942, 1833.33333333, 10, 143.518440865
1943, 1888.88888889, 5, 127.574263097
1944, 1888.88888889, 5, 132.574263097
1945, 1888.88888889, 10, 127.574263097
*ELEMENT, TYPE=C3D8, ELSET=EALL
1, 1, 2, 3, 4, 5, 6, 7, 8
2, 5, 6, 7, 8, 9, 10, 11, 12
3, 9, 10, 11, 12, 13, 14, 15, 16
4, 13, 14, 15, 16, 17, 18, 19, 20
5, 17, 18, 19, 20, 21, 22, 23, 24
6, 4, 3, 25, 26, 8, 7, 27, 28
7, 8, 7, 27, 28, 12, 11, 29, 30
8, 12, 11, 29, 30, 16, 15, 31, 32
9, 16, 15, 31, 32, 20, 19, 33, 34
10, 20, 19, 33, 34, 24, 23, 35, 36
11, 37, 1265, 1268, 1261, 1260, 1266, 1269, 1262
12, 1260, 1266, 1269, 1262, 41, 1267, 1270, 1263
13, 1261, 1268, 1271, 40, 1262, 1269, 1272, 1264
14, 1262, 1269, 1272, 1264, 1263, 1270, 1273, 44
15, 1265, 38, 1275, 1268, 1266, 1274, 1276, 1269
16, 1266, 1274, 1276, 1269, 1267, 42, 1277, 1270
17, 1268, 1275, 39, 1271, 1269, 1276, 1278, 1272
18, 1269, 1276, 1278, 1272, 1270, 1277, 43, 1273
19, 41, 1267, 1270, 1263, 1279, 1283, 1285, 1280
20, 1279, 1283, 1285, 1280, 45, 1284, 1286, 1281
21, 1263, 1270, 1273, 44, 1280, 1285, 1287, 1282
22, 1280, 1285, 1287, 1282, 1281, 1286, 1288, 48
23, 1267, 42, 1277, 1270, 1283, 1289, 1290, 1285
24, 1283, 1289, 1290, 1285, 1284, 46, 1291, 1286
25, 1270, 1277, 43, 1273, 1285, 1290, 1292, 1287
26, 1285, 1290, 1292, 1287, 1286, 1291, 47, 1288
27, 40, 1271, 1297, 1293, 1264, 1272, 1298, 1294
28, 1264, 1272, 1298, 1294, 44, 1273, 1299, 1295
29, 1293, 1297, 1300, 50, 1294, 1298, 1301, 1296
30, 1294, 1298, 1301, 1296, 1295, 1299, 1302, 52
31, 1271, 39, 1303, 1297, 1272, 1278, 1304, 1298
32, 1272, 1278, 1304, 1298, 1273, 43, 1305, 1299
33, 1297, 1303, 49, 1300, 1298, 1304, 1306, 1301
34, 1298, 1304, 1306, 1301, 1299, 1305, 51, 1302
35, 44, 1273, 1299, 1295, 1282, 1287, 1310, 1307
36, 1282, 1287, 1310, 1307, 48, 1288, 1311, 1308
37, 1295, 1299, 1302, 52, 1307, 1310, 1312, 1309
38, 1307, 1310, 1312, 1309, 1308, 1311, 1313, 54
39, 1273, 43, 1305, 1299, 1287, 1292, 1314, 1310
40, 1287, 1292, 1314, 1310, 1288, 47, 1315, 1311
41, 1299, 1305, 51, 1302, 1310, 1314, 1316, 1312
42, 1310, 1314, 1316, 1312, 1311, 1315, 53, 1313
43, 50, 1300, 1321, 1317, 1296, 1301, 1322, 1318
44, 1296, 1301, 1322, 1318, 52, 1302, 1323, 1319
45, 1317, 1321, 1324, 56, 1318, 1322, 1325, 1320
46, 1318, 1322, 1325, 1320, 1319, 1323, 1326, 58
47, 1300, 49, 1327, 1321, 1301, 1306, 1328, 1322
48, 1301, 1306, 1328, 1322, 1302, 51, 1329, 1323
49, 1321, 1327, 55, 1324, 1322, 1328, 1330, 1325
50, 1322, 1328, 1330, 1325, 1323, 1329, 57, 1326
51, 52, 1302, 1323, 1319, 1309, 1312, 1334, 1331
52, 1309, 1312, 1334, 1331, 54, 1313, 1335, 1332
53, 1319, 1323, 1326, 58, 1331, 1334, 1336, 1333
54, 1331, 1334, 1336, 1333, 1332, 1335, 1337, 60
55, 1302, 51, 1329, 1323, 1312, 1316, 1338, 1334
56, 1312, 1316, 1338, 1334, 1313, 53, 1339, 1335
57, 1323, 1329, 57, 1326, 1334, 1338, 1340, 1336
58, 1334, 1338, 1340, 1336, 1335, 1339, 59, 1337
59, 56, 1324, 1345, 1341, 1320, 1325, 1346, 1342
60, 1320, 1325, 1346, 1342, 58, 1326, 1347, 1343
61, 1341, 1345, 1348, 21, 1342, 1346, 1349, 1344
62, 1342, 1346, 1349, 1344, 1343, 1347, 1350, 62
63, 1324, 55, 1351, 1345, 1325, 1330, 1352, 1346
64, 1325, 1330, 1352, 1346, 1326, 57, 1353, 1347
65, 1345, 1351, 22, 1348, 1346, 1352, 1354, 1349
66, 1346, 1352, 1354, 1349, 1347, 1353, 61, 1350
67, 58, 1326, 1347, 1343, 1333, 1336, 1358, 1355
68, 1333, 1336, 1358, 1355, 60, 1337, 1359, 1356
69, 1343, 1347, 1350, 62, 1355, 1358, 1360, 1357
70, 1355, 1358, 1360, 1357, 1356, 1359, 1361, 64
71, 1326, 57, 1353, 1347, 1336, 1340, 1362, 1358
72, 1336, 1340, 1362, 1358, 1337, 59, 1363, 1359
73, 1347, 1353, 61, 1350, 1358, 1362, 1364, 1360
74, 1358, 1362, 1364, 1360, 1359, 1363, 63, 1361
75, 21, 22, 23, 24, 62, 61, 65, 66
76, 62, 61, 65, 66, 64, 63, 67, 68
77, 24, 23, 35, 36, 66, 65, 69, 70
78, 66, 65, 69, 70, 68, 67, 71, 72
79, 36, 1370, 1373, 1366, 1365, 1371, 1374, 1367
80, 1365, 1371, 1374, 1367, 70, 1372, 1375, 1368
81, 1366, 1373, 1376, 74, 1367, 1374, 1377, 1369
82, 1367, 1374, 1377, 1369, 1368, 1375, 1378, 76
83, 1370, 35, 1380, 1373, 1371, 1379, 1381, 1374
84, 1371, 1379, 1381, 1374, 1372, 69, 1382, 1375
85, 1373, 1380, 73, 1376, 1374, 1381, 1383, 1377
86, 1374, 1381, 1383, 1377, 1375, 1382, 75, 1378
87, 70, 1372, 1375, 1368, 1384, 1388, 1390, 1385
88, 1384, 1388, 1390, 1385, 72, 1389, 1391, 1386
89, 1368, 1375, 1378, 76, 1385, 1390, 1392, 1387
90, 1385, 1390, 1392, 1387, 1386, 1391, 1393, 78
91, 1372, 69, 1382, 1375, 1388, 1394, 1395, 1390
92, 1388, 1394, 1395, 1390, 1389, 71, 1396, 1391
93, 1375, 1382, 75, 1378, 1390, 1395, 1397, 1392
94, 1390, 1395, 1397, 1392, 1391, 1396, 77, 1393
95, 74, 1376, 1402, 1398, 1369, 1377, 1403, 1399
96, 1369, 1377, 1403, 1399, 76, 1378, 1404, 1400
97, 1398, 1402, 1405, 80, 1399, 1403, 1406, 1401
98, 1399, 1403, 1406, 1401, 1400, 1404, 1407, 82
99, 1376, 73, 1408, 1402, 1377, 1383, 1409, 1403
100, 1377, 1383, 1409, 1403, 1378, 75, 1410, 1404
101, 1402, 1408, 79, 1405, 1403, 1409, 1411, 1406
102, 1403, 1409, 1411, 1406, 1404, 1410, 81, 1407
103, 76, 1378, 1404, 1400, 1387, 1392, 1415, 1412
104, 1387, 1392, 1415, 1412, 78, 1393, 1416, 1413
105, 1400, 1404, 1407, 82, 1412, 1415, 1417, 1414
106, 1412, 1415, 1417, 1414, 1413, 1416, 1418, 84
107, 1378, 75, 1410, 1404, 1392, 1397, 1419, 1415
108, 1392, 1397, 1419, 1415, 1393, 77, 1420, 1416
109, 1404, 1410, 81, 1407, 1415, 1419, 1421, 1417
110, 1415, 1419, 1421, 1417, 1416, 1420, 83, 1418
111, 80, 1405, 1426, 1422, 1401, 1406, 1427, 1423
112, 1401, 1406, 1427, 1423, 82, 1407, 1428, 1424
113, 1422, 1426, 1429, 86, 1423, 1427, 1430, 1425
114, 1423, 1427, 1430, 1425, 1424, 1428, 1431, 88
115, 1405, 79, 1432, 1426, 1406, 1411, 1433, 1427
116, 1406, 1411, 1433, 1427, 1407, 81, 1434, 1428
117, 1426, 1432, 85, 1429, 1427, 1433, 1435, 1430
118, 1427, 1433, 1435, 1430, 1428, 1434, 87, 1431
119, 82, 1407, 1428, 1424, 1414, 1417, 1439, 1436
120, 1414, 1417, 1439, 1436, 84, 1418, 1440, 1437
121, 1424, 1428, 1431, 88, 1436, 1439, 1441, 1438
122, 1436, 1439, 1441, 1438, 1437, 1440, 1442, 90
123, 1407, 81, 1434, 1428, 1417, 1421, 1443, 1439
124, 1417, 1421, 1443, 1439, 1418, 83, 1444, 1440
125, 1428, 1434, 87, 1431, 1439, 1443, 1445, 1441
126, 1439, 1443, 1445, 1441, 1440, 1444, 89, 1442
127, 86, 1429, 1450, 1446, 1425, 1430, 1451, 1447
128, 1425, 1430, 1451, 1447, 88, 1431, 1452, 1448
129, 1446, 1450, 1453, 92, 1447, 1451, 1454, 1449
130, 1447, 1451, 1454, 1449, 1448, 1452, 1455, 94
131, 1429, 85, 1456, 1450, 1430, 1435, 1457, 1451
132, 1430, 1435, 1457, 1451, 1431, 87, 1458, 1452
133, 1450, 1456, 91, 1453, 1451, 1457, 1459, 1454
134, 1451, 1457, 1459, 1454, 1452, 1458, 93, 1455
135, 88, 1431, 1452, 1448, 1438, 1441, 1463, 1460
136, 1438, 1441, 1463, 1460, 90, 1442, 1464, 1461
137, 1448, 1452, 1455, 94, 1460, 1463, 1465, 1462
138, 1460, 1463, 1465, 1462, 1461, 1464, 1466, 96
139, 1431, 87, 1458, 1452, 1441, 1445, 1467, 1463
140, 1441, 1445, 1467, 1463, 1442, 89, 1468, 1464
141, 1452, 1458, 93, 1455, 1463, 1467, 1469, 1465
142, 1463, 1467, 1469, 1465, 1464, 1468, 95, 1466
143, 2, 97, 98, 3, 6, 99, 100, 7
144, 6, 99, 100, 7, 10, 101, 102, 11
145, 10, 101, 102, 11, 14, 103, 104, 15
146, 14, 103, 104, 15, 18, 105, 106, 19
147, 18, 105, 106, 19, 22, 107, 108, 23
148, 3, 98, 109, 25, 7, 100, 110, 27
149, 7, 100, 110, 27, 11, 102, 111, 29
150, 11, 102, 111, 29, 15, 104, 112, 31
151, 15, 104, 112, 31, 19, 106, 113, 33
152, 19, 106, 113, 33, 23, 108, 114, 35
153, 38, 115, 116, 39, 42, 117, 118, 43
154, 42, 117, 118, 43, 46, 119, 120, 47
155, 39, 116, 121, 49, 43, 118, 122, 51
156, 43, 118, 122, 51, 47, 120, 123, 53
157, 49, 121, 124, 55, 51, 122, 125, 57
158, 51, 122, 125, 57, 53, 123, 126, 59
159, 55, 1470, 1473, 1351, 1330, 1471, 1474, 1352
160, 1330, 1471, 1474, 1352, 57, 1472, 1475, 1353
161, 1351, 1473, 1476, 22, 1352, 1474, 1477, 1354
162, 1352, 1474, 1477, 1354, 1353, 1475, 1478, 61
163, 1470, 124, 1480, 1473, 1471, 1479, 1481, 1474
164, 1471, 1479, 1481, 1474, 1472, 125, 1482, 1475
165, 1473, 1480, 107, 1476, 1474, 1481, 1483, 1477
166, 1474, 1481, 1483, 1477, 1475, 1482, 127, 1478
167, 57, 125, 127, 61, 59, 126, 128, 63
168, 22, 1476, 1488, 1484, 1354, 1477, 1489, 1485
169, 1354, 1477, 1489, 1485, 61, 1478, 1490, 1486
170, 1484, 1488, 1491, 23, 1485, 1489, 1492, 1487
171, 1485, 1489, 1492, 1487, 1486, 1490, 1493, 65
172, 1476, 107, 1494, 1488, 1477, 1483, 1495, 1489
173, 1477, 1483, 1495, 1489, 1478, 127, 1496, 1490
174, 1488, 1494, 108, 1491, 1489, 1495, 1497, 1492
175, 1489, 1495, 1497, 1492, 1490, 1496, 129, 1493
176, 61, 127, 129, 65, 63, 128, 130, 67
177, 23, 1491, 1501, 1498, 1487, 1492, 1502, 1499
178, 1487, 1492, 1502, 1499, 65, 1493, 1503, 1500
179, 1498, 1501, 1504, 35, 1499, 1502, 1505, 1379
180, 1499, 1502, 1505, 1379, 1500, 1503, 1506, 69
181, 1491, 108, 1507, 1501, 1492, 1497, 1508, 1502
182, 1492, 1497, 1508, 1502, 1493, 129, 1509, 1503
183, 1501, 1507, 114, 1504, 1502, 1508, 1510, 1505
184, 1502, 1508, 1510, 1505, 1503, 1509, 131, 1506
185, 65, 129, 131, 69, 67, 130, 132, 71
186, 35, 1504, 1511, 1380, 1379, 1505, 1512, 1381
187, 1379, 1505, 1512, 1381, 69, 1506, 1513, 1382
188, 1380, 1511, 1514, 73, 1381, 1512, 1515, 1383
189, 1381, 1512, 1515, 1383, 1382, 1513, 1516, 75
190, 1504, 114, 1517, 1511, 1505, 1510, 1518, 1512
191, 1505, 1510, 1518, 1512, 1506, 131, 1519, 1513
192, 1511, 1517, 133, 1514, 1512, 1518, 1520, 1515
193, 1512, 1518, 1520, 1515, 1513, 1519, 134, 1516
194, 69, 131, 134, 75, 71, 132, 135, 77
195, 73, 133, 136, 79, 75, 134, 137, 81
196, 75, 134, 137, 81, 77, 135, 138, 83
197, 79, 136, 139, 85, 81, 137, 140, 87
198, 81, 137, 140, 87, 83, 138, 141, 89
199, 85, 139, 142, 91, 87, 140, 143, 93
200, 87, 140, 143, 93, 89, 141, 144, 95
201, 97, 145, 146, 98, 99, 147, 148, 100
202, 99, 147, 148, 100, 101, 149, 150, 102
203, 101, 149, 150, 102, 103, 151, 152, 104
204, 103, 151, 152, 104, 105, 153, 154, 106
205, 105, 1525, 1528, 1522, 1521, 1526, 1529, 1523
206, 1521, 1526, 1529, 1523, 107, 1527, 1530, 1494
207, 1522, 1528, 1531, 106, 1523, 1529, 1532, 1524
208, 1523, 1529, 1532, 1524, 1494, 1530, 1533, 108
209, 1525, 153, 1535, 1528, 1526, 1534, 1536, 1529
210, 1526, 1534, 1536, 1529, 1527, 155, 914, 1530
211, 1528, 1535, 154, 1531, 1529, 1536, 1537, 1532
212, 1529, 1536, 1537, 1532, 1530, 914, 156, 1533
213, 98, 146, 157, 109, 100, 148, 158, 110
214, 100, 148, 158, 110, 102, 150, 159, 111
215, 102, 150, 159, 111, 104, 152, 160, 112
216, 104, 152, 160, 112, 106, 154, 161, 113
217, 106, 1531, 1541, 1538, 1524, 1532, 1542, 1539
218, 1524, 1532, 1542, 1539, 108, 1533, 1543, 1507
219, 1538, 1541, 1544, 113, 1539, 1542, 1545, 1540
220, 1539, 1542, 1545, 1540, 1507, 1543, 1546, 114
221, 1531, 154, 1547, 1541, 1532, 1537, 1548, 1542
222, 1532, 1537, 1548, 1542, 1533, 156, 932, 1543
223, 1541, 1547, 161, 1544, 1542, 1548, 1549, 1545
224, 1542, 1548, 1549, 1545, 1543, 932, 162, 1546
225, 115, 163, 164, 116, 117, 165, 166, 118
226, 117, 165, 166, 118, 119, 167, 168, 120
227, 116, 164, 169, 121, 118, 166, 170, 122
228, 118, 166, 170, 122, 120, 168, 171, 123
229, 121, 169, 172, 124, 122, 170, 173, 125
230, 122, 170, 173, 125, 123, 171, 174, 126
231, 124, 1550, 1553, 1480, 1479, 1551, 1554, 1481
232, 1479, 1551, 1554, 1481, 125, 1552, 1555, 1482
233, 1480, 1553, 1527, 107, 1481, 1554, 1556, 1483
234, 1481, 1554, 1556, 1483, 1482, 1555, 1557, 127
235, 1550, 172, 1559, 1553, 1551, 1558, 1560, 1554
236, 1551, 1558, 1560, 1554, 1552, 173, 1561, 1555
237, 1553, 1559, 155, 1527, 1554, 1560, 913, 1556
238, 1554, 1560, 913, 1556, 1555, 1561, 175, 1557
239, 125, 173, 175, 127, 126, 174, 176, 128
240, 107, 1527, 1530, 1494, 1483, 1556, 1562, 1495
241, 1483, 1556, 1562, 1495, 127, 1557, 1563, 1496
242, 1494, 1530, 1533, 108, 1495, 1562, 1564, 1497
243, 1495, 1562, 1564, 1497, 1496, 1563, 1565, 129
244, 1527, 155, 914, 1530, 1556, 913, 915, 1562
245, 1556, 913, 915, 1562, 1557, 175, 916, 1563
246, 1530, 914, 156, 1533, 1562, 915, 917, 1564
247, 1562, 915, 917, 1564, 1563, 916, 177, 1565
248, 127, 175, 177, 129, 128, 176, 178, 130
249, 108, 1533, 1543, 1507, 1497, 1564, 1566, 1508
250, 1497, 1564, 1566, 1508, 129, 1565, 1567, 1509
251, 1507, 1543, 1546, 114, 1508, 1566, 1568, 1510
252, 1508, 1566, 1568, 1510, 1509, 1567, 1569, 131
253, 1533, 156, 932, 1543, 1564, 917, 933, 1566
254, 1564, 917, 933, 1566, 1565, 177, 934, 1567
255, 1543, 932, 162, 1546, 1566, 933, 935, 1568
256, 1566, 933, 935, 1568, 1567, 934, 179, 1569
257, 129, 177, 179, 131, 130, 178, 180, 132
258, 114, 1546, 1570, 1517, 1510, 1568, 1571, 1518
259, 1510, 1568, 1571, 1518, 131, 1569, 1572, 1519
260, 1517, 1570, 1573, 133, 1518, 1571, 1574, 1520
261, 1518, 1571, 1574, 1520, 1519, 1572, 1575, 134
262, 1546, 162, 1576, 1570, 1568, 935, 1577, 1571
263, 1568, 935, 1577, 1571, 1569, 179, 1578, 1572
264, 1570, 1576, 181, 1573, 1571, 1577, 1579, 1574
265, 1571, 1577, 1579, 1574, 1572, 1578, 182, 1575
266, 131, 179, 182, 134, 132, 180, 183, 135
267, 133, 181, 184, 136, 134, 182, 185, 137
268, 134, 182, 185, 137, 135, 183, 186, 138
269, 136, 184, 187, 139, 137, 185, 188, 140
270, 137, 185, 188, 140, 138, 186, 189, 141
271, 139, 187, 190, 142, 140, 188, 191, 143
272, 140, 188, 191, 143, 141, 189, 192, 144
273, 145, 193, 194, 146, 147, 195, 196, 148
274, 147, 195, 196, 148, 149, 197, 198, 150
275, 149, 197, 198, 150, 151, 199, 200, 152
276, 151, 199, 200, 152, 153, 201, 202, 154
277, 153, 201, 202, 154, 155, 203, 204, 156
278, 146, 194, 205, 157, 148, 196, 206, 158
279, 148, 196, 206, 158, 150, 198, 207, 159
280, 150, 198, 207, 159, 152, 200, 208, 160
281, 152, 200, 208, 160, 154, 202, 209, 161
282, 154, 202, 209, 161, 156, 204, 210, 162
283, 163, 211, 212, 164, 165, 213, 214, 166
284, 165, 213, 214, 166, 167, 215, 216, 168
285, 164, 212, 217, 169, 166, 214, 218, 170
286, 166, 214, 218, 170, 168, 216, 219, 171
287, 169, 217, 220, 172, 170, 218, 221, 173
288, 170, 218, 221, 173, 171, 219, 222, 174
289, 172, 1580, 1583, 1559, 1558, 1581, 1584, 1560
290, 1558, 1581, 1584, 1560, 173, 1582, 1585, 1561
291, 1559, 1583, 918, 155, 1560, 1584, 919, 913
292, 1560, 1584, 919, 913, 1561, 1585, 920, 175
293, 1580, 220, 1587, 1583, 1581, 1586, 1588, 1584
294, 1581, 1586, 1588, 1584, 1582, 221, 1589, 1585
295, 1583, 1587, 203, 918, 1584, 1588, 927, 919
296, 1584, 1588, 927, 919, 1585, 1589, 223, 920
297, 173, 221, 223, 175, 174, 222, 224, 176
298, 155, 918, 921, 914, 913, 919, 922, 915
299, 913, 919, 922, 915, 175, 920, 923, 916
300, 914, 921, 924, 156, 915, 922, 925, 917
301, 915, 922, 925, 917, 916, 923, 926, 177
302, 918, 203, 928, 921, 919, 927, 929, 922
303, 919, 927, 929, 922, 920, 223, 930, 923
304, 921, 928, 204, 924, 922, 929, 931, 925
305, 922, 929, 931, 925, 923, 930, 225, 926
306, 175, 223, 225, 177, 176, 224, 226, 178
307, 156, 924, 936, 932, 917, 925, 937, 933
308, 917, 925, 937, 933, 177, 926, 938, 934
309, 932, 936, 939, 162, 933, 937, 940, 935
310, 933, 937, 940, 935, 934, 938, 941, 179
311, 924, 204, 942, 936, 925, 931, 943, 937
312, 925, 931, 943, 937, 926, 225, 944, 938
313, 936, 942, 210, 939, 937, 943, 945, 940
314, 937, 943, 945, 940, 938, 944, 227, 941
315, 177, 225, 227, 179, 178, 226, 228, 180
316, 162, 939, 1590, 1576, 935, 940, 1591, 1577
317, 935, 940, 1591, 1577, 179, 941, 1592, 1578
318, 1576, 1590, 1593, 181, 1577, 1591, 1594, 1579
319, 1577, 1591, 1594, 1579, 1578, 1592, 1595, 182
320, 939, 210, 1596, 1590, 940, 945, 1597, 1591
321, 940, 945, 1597, 1591, 941, 227, 1598, 1592
322, 1590, 1596, 229, 1593, 1591, 1597, 1599, 1594
323, 1591, 1597, 1599, 1594, 1592, 1598, 230, 1595
324, 179, 227, 230, 182, 180, 228, 231, 183
325, 181, 229, 232, 184, 182, 230, 233, 185
326, 182, 230, 233, 185, 183, 231, 234, 186
327, 184, 232, 235, 187, 185, 233, 236, 188
328, 185, 233, 236, 188, 186, 234, 237, 189
329, 187, 235, 238, 190, 188, 236, 239, 191
330, 188, 236, 239, 191, 189, 237, 240, 192
331, 193, 241, 242, 194, 195, 243, 244, 196
332, 195, 243, 244, 196, 197, 245, 246, 198
333, 197, 245, 246, 198, 199, 247, 248, 200
334, 199, 247, 248, 200, 201, 249, 250, 202
335, 201, 1604, 1606, 1601, 1600, 1605, 1607, 1602
336, 1600, 1605, 1607, 1602, 203, 946, 949, 928
337, 1601, 1606, 1608, 202, 1602, 1607, 1609, 1603
338, 1602, 1607, 1609, 1603, 928, 949, 952, 204
339, 1604, 249, 1611, 1606, 1605, 1610, 1612, 1607
340, 1605, 1610, 1612, 1607, 946, 251, 956, 949
341, 1606, 1611, 250, 1608, 1607, 1612, 1613, 1609
342, 1607, 1612, 1613, 1609, 949, 956, 252, 952
343, 194, 242, 253, 205, 196, 244, 254, 206
344, 196, 244, 254, 206, 198, 246, 255, 207
345, 198, 246, 255, 207, 200, 248, 256, 208
346, 200, 248, 256, 208, 202, 250, 257, 209
347, 202, 1608, 1617, 1614, 1603, 1609, 1618, 1615
348, 1603, 1609, 1618, 1615, 204, 952, 960, 942
349, 1614, 1617, 1619, 209, 1615, 1618, 1620, 1616
350, 1615, 1618, 1620, 1616, 942, 960, 963, 210
351, 1608, 250, 1621, 1617, 1609, 1613, 1622, 1618
352, 1609, 1613, 1622, 1618, 952, 252, 966, 960
353, 1617, 1621, 257, 1619, 1618, 1622, 1623, 1620
354, 1618, 1622, 1623, 1620, 960, 966, 258, 963
355, 211, 259, 260, 212, 213, 261, 262, 214
356, 213, 261, 262, 214, 215, 263, 264, 216
357, 212, 260, 265, 217, 214, 262, 266, 218
358, 214, 262, 266, 218, 216, 264, 267, 219
359, 217, 265, 268, 220, 218, 266, 269, 221
360, 218, 266, 269, 221, 219, 267, 270, 222
361, 220, 1624, 1627, 1587, 1586, 1625, 1628, 1588
362, 1586, 1625, 1628, 1588, 221, 1626, 1629, 1589
363, 1587, 1627, 946, 203, 1588, 1628, 947, 927
364, 1588, 1628, 947, 927, 1589, 1629, 948, 223
365, 1624, 268, 1631, 1627, 1625, 1630, 1632, 1628
366, 1625, 1630, 1632, 1628, 1626, 269, 1633, 1629
367, 1627, 1631, 251, 946, 1628, 1632, 955, 947
368, 1628, 1632, 955, 947, 1629, 1633, 271, 948
369, 221, 269, 271, 223, 222, 270, 272, 224
370, 203, 946, 949, 928, 927, 947, 950, 929
371, 927, 947, 950, 929, 223, 948, 951, 930
372, 928, 949, 952, 204, 929, 950, 953, 931
373, 929, 950, 953, 931, 930, 951, 954, 225
374, 946, 251, 956, 949, 947, 955, 957, 950
375, 947, 955, 957, 950, 948, 271, 958, 951
376, 949, 956, 252, 952, 950, 957, 959, 953
377, 950, 957, 959, 953, 951, 958, 273, 954
378, 223, 271, 273, 225, 224, 272, 274, 226
379, 204, 952, 960, 942, 931, 953, 961, 943
380, 931, 953, 961, 943, 225, 954, 962, 944
381, 942, 960, 963, 210, 943, 961, 964, 945
382, 943, 961, 964, 945, 944, 962, 965, 227
383, 952, 252, 966, 960, 953, 959, 967, 961
384, 953, 959, 967, 961, 954, 273, 968, 962
385, 960, 966, 258, 963, 961, 967, 969, 964
386, 961, 967, 969, 964, 962, 968, 275, 965
387, 225, 273, 275, 227, 226, 274, 276, 228
388, 210, 963, 1634, 1596, 945, 964, 1635, 1597
389, 945, 964, 1635, 1597, 227, 965, 1636, 1598
390, 1596, 1634, 1637, 229, 1597, 1635, 1638, 1599
391, 1597, 1635, 1638, 1599, 1598, 1636, 1639, 230
392, 963, 258, 1640, 1634, 964, 969, 1641, 1635
393, 964, 969, 1641, 1635, 965, 275, 1642, 1636
394, 1634, 1640, 277, 1637, 1635, 1641, 1643, 1638
395, 1635, 1641, 1643, 1638, 1636, 1642, 278, 1639
396, 227, 275, 278, 230, 228, 276, 279, 231
397, 229, 277, 280, 232, 230, 278, 281, 233
398, 230, 278, 281, 233, 231, 279, 282, 234
399, 232, 280, 283, 235, 233, 281, 284, 236
400, 233, 281, 284, 236, 234, 282, 285, 237
401, 235, 283, 286, 238, 236, 284, 287, 239
402, 236, 284, 287, 239, 237, 285, 288, 240
403, 241, 289, 290, 242, 243, 291, 292, 244
404, 243, 291, 292, 244, 245, 293, 294, 246
405, 245, 293, 294, 246, 247, 295, 296, 248
406, 247, 295, 296, 248, 249, 297, 298, 250
407, 249, 1644, 1647, 1611, 1610, 1645, 1648, 1612
408, 1610, 1645, 1648, 1612, 251, 1646, 1649, 956
409, 1611, 1647, 1650, 250, 1612, 1648, 1651, 1613
410, 1612, 1648, 1651, 1613, 956, 1649, 1652, 252
411, 1644, 297, 1654, 1647, 1645, 1653, 1655, 1648
412, 1645, 1653, 1655, 1648, 1646, 299, 1656, 1649
413, 1647, 1654, 298, 1650, 1648, 1655, 1657, 1651
414, 1648, 1655, 1657, 1651, 1649, 1656, 300, 1652
415, 242, 290, 301, 253, 244, 292, 302, 254
416, 244, 292, 302, 254, 246, 294, 303, 255
417, 246, 294, 303, 255, 248, 296, 304, 256
418, 248, 296, 304, 256, 250, 298, 305, 257
419, 250, 1650, 1658, 1621, 1613, 1651, 1659, 1622
420, 1613, 1651, 1659, 1622, 252, 1652, 1660, 966
421, 1621, 1658, 1661, 257, 1622, 1659, 1662, 1623
422, 1622, 1659, 1662, 1623, 966, 1660, 1663, 258
423, 1650, 298, 1664, 1658, 1651, 1657, 1665, 1659
424, 1651, 1657, 1665, 1659, 1652, 300, 1666, 1660
425, 1658, 1664, 305, 1661, 1659, 1665, 1667, 1662
426, 1659, 1665, 1667, 1662, 1660, 1666, 306, 1663
427, 259, 307, 308, 260, 261, 309, 310, 262
428, 261, 309, 310, 262, 263, 311, 312, 264
429, 260, 308, 313, 265, 262, 310, 314, 266
430, 262, 310, 314, 266, 264, 312, 315, 267
431, 265, 313, 316, 268, 266, 314, 317, 269
432, 266, 314, 317, 269, 267, 315, 318, 270
433, 268, 1668, 1671, 1631, 1630, 1669, 1672, 1632
434, 1630, 1669, 1672, 1632, 269, 1670, 1673, 1633
435, 1631, 1671, 1646, 251, 1632, 1672, 1674, 955
436, 1632, 1672, 1674, 955, 1633, 1673, 1675, 271
437, 1668, 316, 1677, 1671, 1669, 1676, 1678, 1672
438, 1669, 1676, 1678, 1672, 1670, 317, 1679, 1673
439, 1671, 1677, 299, 1646, 1672, 1678, 1680, 1674
440, 1672, 1678, 1680, 1674, 1673, 1679, 319, 1675
441, 269, 317, 319, 271, 270, 318, 320, 272
442, 251, 1646, 1649, 956, 955, 1674, 1681, 957
443, 955, 1674, 1681, 957, 271, 1675, 1682, 958
444, 956, 1649, 1652, 252, 957, 1681, 1683, 959
445, 957, 1681, 1683, 959, 958, 1682, 1684, 273
446, 1646, 299, 1656, 1649, 1674, 1680, 1685, 1681
447, 1674, 1680, 1685, 1681, 1675, 319, 1686, 1682
448, 1649, 1656, 300, 1652, 1681, 1685, 1687, 1683
449, 1681, 1685, 1687, 1683, 1682, 1686, 321, 1684
450, 271, 319, 321, 273, 272, 320, 322, 274
451, 252, 1652, 1660, 966, 959, 1683, 1688, 967
452, 959, 1683, 1688, 967, 273, 1684, 1689, 968
453, 966, 1660, 1663, 258, 967, 1688, 1690, 969
454, 967, 1688, 1690, 969, 968, 1689, 1691, 275
455, 1652, 300, 1666, 1660, 1683, 1687, 1692, 1688
456, 1683, 1687, 1692, 1688, 1684, 321, 1693, 1689
457, 1660, 1666, 306, 1663, 1688, 1692, 1694, 1690
458, 1688, 1692, 1694, 1690, 1689, 1693, 323, 1691
459, 273, 321, 323, 275, 274, 322, 324, 276
460, 258, 1663, 1695, 1640, 969, 1690, 1696, 1641
461, 969, 1690, 1696, 1641, 275, 1691, 1697, 1642
462, 1640, 1695, 1698, 277, 1641, 1696, 1699, 1643
463, 1641, 1696, 1699, 1643, 1642, 1697, 1700, 278
464, 1663, 306, 1701, 1695, 1690, 1694, 1702, 1696
465, 1690, 1694, 1702, 1696, 1691, 323, 1703, 1697
466, 1695, 1701, 325, 1698, 1696, 1702, 1704, 1699
467, 1696, 1702, 1704, 1699, 1697, 1703, 326, 1700
468, 275, 323, 326, 278, 276, 324, 327, 279
469, 277, 325, 328, 280, 278, 326, 329, 281
470, 278, 326, 329, 281, 279, 327, 330, 282
471, 280, 328, 331, 283, 281, 329, 332, 284
472, 281, 329, 332, 284, 282, 330, 333, 285
473, 283, 331, 334, 286, 284, 332, 335, 287
474, 284, 332, 335, 287, 285, 333, 336, 288
475, 289, 337, 338, 290, 291, 339, 340, 292
476, 291, 339, 340, 292, 293, 341, 342, 294
477, 293, 341, 342, 294, 295, 343, 344, 296
478, 295, 343, 344, 296, 297, 345, 346, 298
479, 297, 1705, 1708, 1654, 1653, 1706, 1709, 1655
480, 1653, 1706, 1709, 1655, 299, 1707, 1710, 1656
481, 1654, 1708, 1711, 298, 1655, 1709, 1712, 1657
482, 1655, 1709, 1712, 1657, 1656, 1710, 1713, 300
483, 1705, 345, 1715, 1708, 1706, 1714, 1716, 1709
484, 1706, 1714, 1716, 1709, 1707, 347, 1717, 1710
485, 1708, 1715, 346, 1711, 1709, 1716, 1718, 1712
486, 1709, 1716, 1718, 1712, 1710, 1717, 348, 1713
487, 290, 338, 349, 301, 292, 340, 350, 302
488, 292, 340, 350, 302, 294, 342, 351, 303
489, 294, 342, 351, 303, 296, 344, 352, 304
490, 296, 344, 352, 304, 298, 346, 353, 305
491, 298, 1711, 1719, 1664, 1657, 1712, 1720, 1665
492, 1657, 1712, 1720, 1665, 300, 1713, 1721, 1666
493, 1664, 1719, 1722, 305, 1665, 1720, 1723, 1667
494, 1665, 1720, 1723, 1667, 1666, 1721, 1724, 306
495, 1711, 346, 1725, 1719, 1712, 1718, 1726, 1720
496, 1712, 1718, 1726, 1720, 1713, 348, 1727, 1721
497, 1719, 1725, 353, 1722, 1720, 1726, 1728, 1723
498, 1720, 1726, 1728, 1723, 1721, 1727, 354, 1724
499, 307, 355, 356, 308, 309, 357, 358, 310
500, 309, 357, 358, 310, 311, 359, 360, 312
501, 308, 356, 361, 313, 310, 358, 362, 314
502, 310, 358, 362, 314, 312, 360, 363, 315
503, 313, 361, 364, 316, 314, 362, 365, 317
504, 314, 362, 365, 317, 315, 363, 366, 318
505, 316, 364, 347, 299, 317, 365, 367, 319
506, 317, 365, 367, 319, 318, 366, 368, 320
507, 299, 1707, 1710, 1656, 1680, 1729, 1731, 1685
508, 1680, 1729, 1731, 1685, 319, 1730, 1732, 1686
509, 1656, 1710, 1713, 300, 1685, 1731, 1733, 1687
510, 1685, 1731, 1733, 1687, 1686, 1732, 1734, 321
511, 1707, 347, 1717, 1710, 1729, 1735, 1736, 1731
512, 1729, 1735, 1736, 1731, 1730, 367, 1737, 1732
513, 1710, 1717, 348, 1713, 1731, 1736, 1738, 1733
514, 1731, 1736, 1738, 1733, 1732, 1737, 369, 1734
515, 319, 367, 369, 321, 320, 368, 370, 322
516, 300, 1713, 1721, 1666, 1687, 1733, 1739, 1692
517, 1687, 1733, 1739, 1692, 321, 1734, 1740, 1693
518, 1666, 1721, 1724, 306, 1692, 1739, 1741, 1694
519, 1692, 1739, 1741, 1694, 1693, 1740, 1742, 323
520, 1713, 348, 1727, 1721, 1733, 1738, 1743, 1739
521, 1733, 1738, 1743, 1739, 1734, 369, 1744, 1740
522, 1721, 1727, 354, 1724, 1739, 1743, 1745, 1741
523, 1739, 1743, 1745, 1741, 1740, 1744, 371, 1742
524, 321, 369, 371, 323, 322, 370, 372, 324
525, 306, 354, 373, 325, 323, 371, 374, 326
526, 323, 371, 374, 326, 324, 372, 375, 327
527, 325, 373, 376, 328, 326, 374, 377, 329
528, 326, 374, 377, 329, 327, 375, 378, 330
529, 328, 376, 379, 331, 329, 377, 380, 332
530, 329, 377, 380, 332, 330, 378, 381, 333
531, 331, 379, 382, 334, 332, 380, 383, 335
532, 332, 380, 383, 335, 333, 381, 384, 336
533, 337, 385, 386, 338, 339, 387, 388, 340
534, 339, 387, 388, 340, 341, 389, 390, 342
535, 341, 389, 390, 342, 343, 391, 392, 344
536, 343, 391, 392, 344, 345, 393, 394, 346
537, 345, 393, 394, 346, 347, 395, 396, 348
538, 338, 386, 397, 349, 340, 388, 398, 350
539, 340, 388, 398, 350, 342, 390, 399, 351
540, 342, 390, 399, 351, 344, 392, 400, 352
541, 344, 392, 400, 352, 346, 394, 401, 353
542, 346, 394, 401, 353, 348, 396, 402, 354
543, 355, 403, 404, 356, 357, 405, 406, 358
544, 357, 405, 406, 358, 359, 407, 408, 360
545, 356, 404, 409, 361, 358, 406, 410, 362
546, 358, 406, 410, 362, 360, 408, 411, 363
547, 361, 409, 412, 364, 362, 410, 413, 365
548, 362, 410, 413, 365, 363, 411, 414, 366
549, 364, 412, 395, 347, 365, 413, 415, 367
550, 365, 413, 415, 367, 366, 414, 416, 368
551, 347, 395, 396, 348, 367, 415, 417, 369
552, 367, 415, 417, 369, 368, 416, 418, 370
553, 348, 396, 402, 354, 369, 417, 419, 371
554, 369, 417, 419, 371, 370, 418, 420, 372
555, 354, 402, 421, 373, 371, 419, 422, 374
556, 371, 419, 422, 374, 372, 420, 423, 375
557, 373, 421, 424, 376, 374, 422, 425, 377
558, 374, 422, 425, 377, 375, 423, 426, 378
559, 376, 424, 427, 379, 377, 425, 428, 380
560, 377, 425, 428, 380, 378, 426, 429, 381
561, 379, 427, 430, 382, 380, 428, 431, 383
562, 380, 428, 431, 383, 381, 429, 432, 384
563, 385, 433, 434, 386, 387, 435, 436, 388
564, 387, 435, 436, 388, 389, 437, 438, 390
565, 389, 437, 438, 390, 391, 439, 440, 392
566, 391, 439, 440, 392, 393, 441, 442, 394
567, 393, 441, 442, 394, 395, 443, 444, 396
568, 386, 434, 445, 397, 388, 436, 446, 398
569, 388, 436, 446, 398, 390, 438, 447, 399
570, 390, 438, 447, 399, 392, 440, 448, 400
571, 392, 440, 448, 400, 394, 442, 449, 401
572, 394, 442, 449, 401, 396, 444, 450, 402
573, 403, 451, 452, 404, 405, 453, 454, 406
574, 405, 453, 454, 406, 407, 455, 456, 408
575, 404, 452, 457, 409, 406, 454, 458, 410
576, 406, 454, 458, 410, 408, 456, 459, 411
577, 409, 457, 460, 412, 410, 458, 461, 413
578, 410, 458, 461, 413, 411, 459, 462, 414
579, 412, 460, 443, 395, 413, 461, 463, 415
580, 413, 461, 463, 415, 414, 462, 464, 416
581, 395, 443, 444, 396, 415, 463, 465, 417
582, 415, 463, 465, 417, 416, 464, 466, 418
583, 396, 444, 450, 402, 417, 465, 467, 419
584, 417, 465, 467, 419, 418, 466, 468, 420
585, 402, 450, 469, 421, 419, 467, 470, 422
586, 419, 467, 470, 422, 420, 468, 471, 423
587, 421, 469, 472, 424, 422, 470, 473, 425
588, 422, 470, 473, 425, 423, 471, 474, 426
589, 424, 472, 475, 427, 425, 473, 476, 428
590, 425, 473, 476, 428, 426, 474, 477, 429
591, 427, 475, 478, 430, 428, 476, 479, 431
592, 428, 476, 479, 431, 429, 477, 480, 432
593, 433, 481, 482, 434, 435, 483, 484, 436
594, 435, 483, 484, 436, 437, 485, 486, 438
595, 437, 485, 486, 438, 439, 487, 488, 440
596, 439, 487, 488, 440, 441, 489, 490, 442
597, 441, 489, 490, 442, 443, 491, 492, 444
598, 434, 482, 493, 445, 436, 484, 494, 446
599, 436, 484, 494, 446, 438, 486, 495, 447
600, 438, 486, 495, 447, 440, 488, 496, 448
601, 440, 488, 496, 448, 442, 490, 497, 449
602, 442, 490, 497, 449, 444, 492, 498, 450
603, 451, 499, 500, 452, 453, 501, 502, 454
604, 453, 501, 502, 454, 455, 503, 504, 456
605, 452, 500, 505, 457, 454, 502, 506, 458
606, 454, 502, 506, 458, 456, 504, 507, 459
607, 457, 505, 508, 460, 458, 506, 509, 461
608, 458, 506, 509, 461, 459, 507, 510, 462
609, 460, 508, 491, 443, 461, 509, 511, 463
610, 461, 509, 511, 463, 462, 510, 512, 464
611, 443, 491, 492, 444, 463, 511, 513, 465
612, 463, 511, 513, 465, 464, 512, 514, 466
613, 444, 492, 498, 450, 465, 513, 515, 467
614, 465, 513, 515, 467, 466, 514, 516, 468
615, 450, 498, 517, 469, 467, 515, 518, 470
616, 467, 515, 518, 470, 468, 516, 519, 471
617, 469, 517, 520, 472, 470, 518, 521, 473
618, 470, 518, 521, 473, 471, 519, 522, 474
619, 472, 520, 523, 475, 473, 521, 524, 476
620, 473, 521, 524, 476, 474, 522, 525, 477
621, 475, 523, 526, 478, 476, 524, 527, 479
622, 476, 524, 527, 479, 477, 525, 528, 480
623, 481, 529, 530, 482, 483, 531, 532, 484
624, 483, 531, 532, 484, 485, 533, 534, 486
625, 485, 533, 534, 486, 487, 535, 536, 488
626, 487, 535, 536, 488, 489, 537, 538, 490
627, 489, 537, 538, 490, 491, 539, 540, 492
628, 482, 530, 541, 493, 484, 532, 542, 494
629, 484, 532, 542, 494, 486, 534, 543, 495
630, 486, 534, 543, 495, 488, 536, 544, 496
631, 488, 536, 544, 496, 490, 538, 545, 497
632, 490, 538, 545, 497, 492, 540, 546, 498
633, 499, 547, 548, 500, 501, 549, 550, 502
634, 501, 549, 550, 502, 503, 551, 552, 504
635, 500, 548, 553, 505, 502, 550, 554, 506
636, 502, 550, 554, 506, 504, 552, 555, 507
637, 505, 553, 556, 508, 506, 554, 557, 509
638, 506, 554, 557, 509, 507, 555, 558, 510
639, 508, 556, 539, 491, 509, 557, 559, 511
640, 509, 557, 559, 511, 510, 558, 560, 512
641, 491, 539, 540, 492, 511, 559, 561, 513
642, 511, 559, 561, 513, 512, 560, 562, 514
643, 492, 540, 546, 498, 513, 561, 563, 515
644, 513, 561, 563, 515, 514, 562, 564, 516
645, 498, 546, 565, 517, 515, 563, 566, 518
646, 515, 563, 566, 518, 516, 564, 567, 519
647, 517, 565, 568, 520, 518, 566, 569, 521
648, 518, 566, 569, 521, 519, 567, 570, 522
649, 520, 568, 571, 523, 521, 569, 572, 524
650, 521, 569, 572, 524, 522, 570, 573, 525
651, 523, 571, 574, 526, 524, 572, 575, 527
652, 524, 572, 575, 527, 525, 573, 576, 528
653, 529, 577, 578, 530, 531, 579, 580, 532
654, 531, 579, 580, 532, 533, 581, 582, 534
655, 533, 581, 582, 534, 535, 583, 584, 536
656, 535, 583, 584, 536, 537, 585, 586, 538
657, 537, 1751, 1754, 1747, 1746, 1752, 1755, 1748
658, 1746, 1752, 1755, 1748, 539, 1753, 1756, 1749
659, 1747, 1754, 1757, 538, 1748, 1755, 1758, 1750
660, 1748, 1755, 1758, 1750, 1749, 1756, 1759, 540
661, 1751, 585, 971, 1754, 1752, 970, 972, 1755
662, 1752, 970, 972, 1755, 1753, 587, 973, 1756
663, 1754, 971, 586, 1757, 1755, 972, 974, 1758
664, 1755, 972, 974, 1758, 1756, 973, 588, 1759
665, 530, 578, 589, 541, 532, 580, 590, 542
666, 532, 580, 590, 542, 534, 582, 591, 543
667, 534, 582, 591, 543, 536, 584, 592, 544
668, 536, 584, 592, 544, 538, 586, 593, 545
669, 538, 1757, 1764, 1760, 1750, 1758, 1765, 1761
670, 1750, 1758, 1765, 1761, 540, 1759, 1766, 1762
671, 1760, 1764, 1767, 545, 1761, 1765, 1768, 1763
672, 1761, 1765, 1768, 1763, 1762, 1766, 1769, 546
673, 1757, 586, 989, 1764, 1758, 974, 990, 1765
674, 1758, 974, 990, 1765, 1759, 588, 991, 1766
675, 1764, 989, 593, 1767, 1765, 990, 992, 1768
676, 1765, 990, 992, 1768, 1766, 991, 594, 1769
677, 547, 595, 596, 548, 549, 597, 598, 550
678, 549, 597, 598, 550, 551, 599, 600, 552
679, 548, 596, 601, 553, 550, 598, 602, 554
680, 550, 598, 602, 554, 552, 600, 603, 555
681, 553, 601, 604, 556, 554, 602, 605, 557
682, 554, 602, 605, 557, 555, 603, 606, 558
683, 556, 604, 587, 539, 557, 605, 607, 559
684, 557, 605, 607, 559, 558, 606, 608, 560
685, 539, 1753, 1756, 1749, 1770, 1774, 1776, 1771
686, 1770, 1774, 1776, 1771, 559, 1775, 1777, 1772
687, 1749, 1756, 1759, 540, 1771, 1776, 1778, 1773
688, 1771, 1776, 1778, 1773, 1772, 1777, 1779, 561
689, 1753, 587, 973, 1756, 1774, 1003, 1004, 1776
690, 1774, 1003, 1004, 1776, 1775, 607, 1005, 1777
691, 1756, 973, 588, 1759, 1776, 1004, 1006, 1778
692, 1776, 1004, 1006, 1778, 1777, 1005, 609, 1779
693, 559, 607, 609, 561, 560, 608, 610, 562
694, 540, 1759, 1766, 1762, 1773, 1778, 1783, 1780
695, 1773, 1778, 1783, 1780, 561, 1779, 1784, 1781
696, 1762, 1766, 1769, 546, 1780, 1783, 1785, 1782
697, 1780, 1783, 1785, 1782, 1781, 1784, 1786, 563
698, 1759, 588, 991, 1766, 1778, 1006, 1017, 1783
699, 1778, 1006, 1017, 1783, 1779, 609, 1018, 1784
700, 1766, 991, 594, 1769, 1783, 1017, 1019, 1785
701, 1783, 1017, 1019, 1785, 1784, 1018, 611, 1786
702, 561, 609, 611, 563, 562, 610, 612, 564
703, 546, 594, 613, 565, 563, 611, 614, 566
704, 563, 611, 614, 566, 564, 612, 615, 567
705, 565, 613, 616, 568, 566, 614, 617, 569
706, 566, 614, 617, 569, 567, 615, 618, 570
707, 568, 616, 619, 571, 569, 617, 620, 572
708, 569, 617, 620, 572, 570, 618, 621, 573
709, 571, 619, 622, 574, 572, 620, 623, 575
710, 572, 620, 623, 575, 573, 621, 624, 576
711, 577, 625, 626, 578, 579, 627, 628, 580
712, 579, 627, 628, 580, 581, 629, 630, 582
713, 581, 629, 630, 582, 583, 631, 632, 584
714, 583, 631, 632, 584, 585, 633, 634, 586
715, 585, 975, 978, 971, 970, 976, 979, 972
716, 970, 976, 979, 972, 587, 977, 980, 973
717, 971, 978, 981, 586, 972, 979, 982, 974
718, 972, 979, 982, 974, 973, 980, 983, 588
719, 975, 633, 985, 978, 976, 984, 986, 979
720, 976, 984, 986, 979, 977, 635, 987, 980
721, 978, 985, 634, 981, 979, 986, 988, 982
722, 979, 986, 988, 982, 980, 987, 636, 983
723, 578, 626, 637, 589, 580, 628, 638, 590
724, 580, 628, 638, 590, 582, 630, 639, 591
725, 582, 630, 639, 591, 584, 632, 640, 592
726, 584, 632, 640, 592, 586, 634, 641, 593
727, 586, 981, 993, 989, 974, 982, 994, 990
728, 974, 982, 994, 990, 588, 983, 995, 991
729, 989, 993, 996, 593, 990, 994, 997, 992
730, 990, 994, 997, 992, 991, 995, 998, 594
731, 981, 634, 999, 993, 982, 988, 1000, 994
732, 982, 988, 1000, 994, 983, 636, 1001, 995
733, 993, 999, 641, 996, 994, 1000, 1002, 997
734, 994, 1000, 1002, 997, 995, 1001, 642, 998
735, 595, 643, 644, 596, 597, 645, 646, 598
736, 597, 645, 646, 598, 599, 647, 648, 600
737, 596, 644, 649, 601, 598, 646, 650, 602
738, 598, 646, 650, 602, 600, 648, 651, 603
739, 601, 649, 652, 604, 602, 650, 653, 605
740, 602, 650, 653, 605, 603, 651, 654, 606
741, 604, 652, 635, 587, 605, 653, 655, 607
742, 605, 653, 655, 607, 606, 654, 656, 608
743, 587, 977, 980, 973, 1003, 1007, 1009, 1004
744, 1003, 1007, 1009, 1004, 607, 1008, 1010, 1005
745, 973, 980, 983, 588, 1004, 1009, 1011, 1006
746, 1004, 1009, 1011, 1006, 1005, 1010, 1012, 609
747, 977, 635, 987, 980, 1007, 1013, 1014, 1009
748, 1007, 1013, 1014, 1009, 1008, 655, 1015, 1010
749, 980, 987, 636, 983, 1009, 1014, 1016, 1011
750, 1009, 1014, 1016, 1011, 1010, 1015, 657, 1012
751, 607, 655, 657, 609, 608, 656, 658, 610
752, 588, 983, 995, 991, 1006, 1011, 1020, 1017
753, 1006, 1011, 1020, 1017, 609, 1012, 1021, 1018
754, 991, 995, 998, 594, 1017, 1020, 1022, 1019
755, 1017, 1020, 1022, 1019, 1018, 1021, 1023, 611
756, 983, 636, 1001, 995, 1011, 1016, 1024, 1020
757, 1011, 1016, 1024, 1020, 1012, 657, 1025, 1021
758, 995, 1001, 642, 998, 1020, 1024, 1026, 1022
759, 1020, 1024, 1026, 1022, 1021, 1025, 659, 1023
760, 609, 657, 659, 611, 610, 658, 660, 612
761, 594, 642, 661, 613, 611, 659, 662, 614
762, 611, 659, 662, 614, 612, 660, 663, 615
763, 613, 661, 664, 616, 614, 662, 665, 617
764, 614, 662, 665, 617, 615, 663, 666, 618
765, 616, 664, 667, 619, 617, 665, 668, 620
766, 617, 665, 668, 620, 618, 666, 669, 621
767, 619, 667, 670, 622, 620, 668, 671, 623
768, 620, 668, 671, 623, 621, 669, 672, 624
769, 625, 673, 674, 626, 627, 675, 676, 628
770, 627, 675, 676, 628, 629, 677, 678, 630
771, 629, 677, 678, 630, 631, 679, 680, 632
772, 631, 679, 680, 632, 633, 681, 682, 634
773, 633, 1027, 1030, 985, 984, 1028, 1031, 986
774, 984, 1028, 1031, 986, 635, 1029, 1032, 987
775, 985, 1030, 1033, 634, 986, 1031, 1034, 988
776, 986, 1031, 1034, 988, 987, 1032, 1035, 636
777, 1027, 681, 1037, 1030, 1028, 1036, 1038, 1031
778, 1028, 1036, 1038, 1031, 1029, 683, 1039, 1032
779, 1030, 1037, 682, 1033, 1031, 1038, 1040, 1034
780, 1031, 1038, 1040, 1034, 1032, 1039, 684, 1035
781, 626, 674, 685, 637, 628, 676, 686, 638
782, 628, 676, 686, 638, 630, 678, 687, 639
783, 630, 678, 687, 639, 632, 680, 688, 640
784, 632, 680, 688, 640, 634, 682, 689, 641
785, 634, 1033, 1041, 999, 988, 1034, 1042, 1000
786, 988, 1034, 1042, 1000, 636, 1035, 1043, 1001
787, 999, 1041, 1044, 641, 1000, 1042, 1045, 1002
788, 1000, 1042, 1045, 1002, 1001, 1043, 1046, 642
789, 1033, 682, 1047, 1041, 1034, 1040, 1048, 1042
790, 1034, 1040, 1048, 1042, 1035, 684, 1049, 1043
791, 1041, 1047, 689, 1044, 1042, 1048, 1050, 1045
792, 1042, 1048, 1050, 1045, 1043, 1049, 690, 1046
793, 643, 691, 692, 644, 645, 693, 694, 646
794, 645, 693, 694, 646, 647, 695, 696, 648
795, 644, 692, 697, 649, 646, 694, 698, 650
796, 646, 694, 698, 650, 648, 696, 699, 651
797, 649, 697, 700, 652, 650, 698, 701, 653
798, 650, 698, 701, 653, 651, 699, 702, 654
799, 652, 700, 683, 635, 653, 701, 703, 655
800, 653, 701, 703, 655, 654, 702, 704, 656
801, 635, 1029, 1032, 987, 1013, 1051, 1053, 1014
802, 1013, 1051, 1053, 1014, 655, 1052, 1054, 1015
803, 987, 1792, 1795, 1788, 1787, 1793, 1796, 1789
804, 1787, 1793, 1796, 1789, 1014, 1794, 1797, 1790
805, 1788, 1795, 1798, 636, 1789, 1796, 1799, 1791
806, 1789, 1796, 1799, 1791, 1790, 1797, 1800, 1016
807, 1792, 1032, 1802, 1795, 1793, 1801, 1803, 1796
808, 1793, 1801, 1803, 1796, 1794, 1053, 1804, 1797
809, 1795, 1802, 1035, 1798, 1796, 1803, 1805, 1799
810, 1796, 1803, 1805, 1799, 1797, 1804, 1055, 1800
811, 1014, 1053, 1055, 1016, 1015, 1054, 1056, 657
812, 1029, 683, 1039, 1032, 1051, 1057, 1058, 1053
813, 1051, 1057, 1058, 1053, 1052, 703, 1059, 1054
814, 1032, 1039, 684, 1035, 1053, 1058, 1060, 1055
815, 1053, 1058, 1060, 1055, 1054, 1059, 705, 1056
816, 655, 703, 705, 657, 656, 704, 706, 658
817, 636, 1798, 1810, 1806, 1791, 1799, 1811, 1807
818, 1791, 1799, 1811, 1807, 1016, 1800, 1812, 1808
819, 1806, 1810, 1813, 1001, 1807, 1811, 1814, 1809
820, 1807, 1811, 1814, 1809, 1808, 1812, 1815, 1024
821, 1798, 1035, 1816, 1810, 1799, 1805, 1817, 1811
822, 1799, 1805, 1817, 1811, 1800, 1055, 1818, 1812
823, 1810, 1816, 1043, 1813, 1811, 1817, 1819, 1814
824, 1811, 1817, 1819, 1814, 1812, 1818, 1061, 1815
825, 1016, 1055, 1061, 1024, 657, 1056, 1062, 1025
826, 1001, 1043, 1046, 642, 1024, 1061, 1063, 1026
827, 1024, 1061, 1063, 1026, 1025, 1062, 1064, 659
828, 1035, 684, 1049, 1043, 1055, 1060, 1065, 1061
829, 1055, 1060, 1065, 1061, 1056, 705, 1066, 1062
830, 1043, 1049, 690, 1046, 1061, 1065, 1067, 1063
831, 1061, 1065, 1067, 1063, 1062, 1066, 707, 1064
832, 657, 705, 707, 659, 658, 706, 708, 660
833, 642, 690, 709, 661, 659, 707, 710, 662
834, 659, 707, 710, 662, 660, 708, 711, 663
835, 661, 709, 712, 664, 662, 710, 713, 665
836, 662, 710, 713, 665, 663, 711, 714, 666
837, 664, 712, 715, 667, 665, 713, 716, 668
838, 665, 713, 716, 668, 666, 714, 717, 669
839, 667, 715, 718, 670, 668, 716, 719, 671
840, 668, 716, 719, 671, 669, 717, 720, 672
841, 673, 721, 722, 674, 675, 723, 724, 676
842, 675, 723, 724, 676, 677, 725, 726, 678
843, 677, 725, 726, 678, 679, 727, 728, 680
844, 679, 727, 728, 680, 681, 729, 730, 682
845, 681, 1068, 1071, 1037, 1036, 1069, 1072, 1038
846, 1036, 1069, 1072, 1038, 683, 1070, 1073, 1039
847, 1037, 1071, 1074, 682, 1038, 1072, 1075, 1040
848, 1038, 1072, 1075, 1040, 1039, 1073, 1076, 684
849, 1068, 729, 1078, 1071, 1069, 1077, 1079, 1072
850, 1069, 1077, 1079, 1072, 1070, 731, 1080, 1073
851, 1071, 1078, 730, 1074, 1072, 1079, 1081, 1075
852, 1072, 1079, 1081, 1075, 1073, 1080, 732, 1076
853, 674, 722, 733, 685, 676, 724, 734, 686
854, 676, 724, 734, 686, 678, 726, 735, 687
855, 678, 726, 735, 687, 680, 728, 736, 688
856, 680, 728, 736, 688, 682, 730, 737, 689
857, 682, 1074, 1082, 1047, 1040, 1075, 1083, 1048
858, 1040, 1075, 1083, 1048, 684, 1076, 1084, 1049
859, 1047, 1082, 1085, 689, 1048, 1083, 1086, 1050
860, 1048, 1083, 1086, 1050, 1049, 1084, 1087, 690
861, 1074, 730, 1088, 1082, 1075, 1081, 1089, 1083
862, 1075, 1081, 1089, 1083, 1076, 732, 1090, 1084
863, 1082, 1088, 737, 1085, 1083, 1089, 1091, 1086
864, 1083, 1089, 1091, 1086, 1084, 1090, 738, 1087
865, 691, 739, 740, 692, 693, 741, 742, 694
866, 693, 741, 742, 694, 695, 743, 744, 696
867, 692, 740, 745, 697, 694, 742, 746, 698
868, 694, 742, 746, 698, 696, 744, 747, 699
869, 697, 745, 748, 700, 698, 746, 749, 701
870, 698, 746, 749, 701, 699, 747, 750, 702
871, 700, 748, 731, 683, 701, 749, 751, 703
872, 701, 749, 751, 703, 702, 750, 752, 704
873, 683, 1070, 1073, 1039, 1057, 1092, 1094, 1058
874, 1057, 1092, 1094, 1058, 703, 1093, 1095, 1059
875, 1039, 1825, 1828, 1821, 1820, 1826, 1829, 1822
876, 1820, 1826, 1829, 1822, 1058, 1827, 1830, 1823
877, 1821, 1828, 1831, 684, 1822, 1829, 1832, 1824
878, 1822, 1829, 1832, 1824, 1823, 1830, 1833, 1060
879, 1825, 1073, 1835, 1828, 1826, 1834, 1836, 1829
880, 1826, 1834, 1836, 1829, 1827, 1094, 1837, 1830
881, 1828, 1835, 1076, 1831, 1829, 1836, 1838, 1832
882, 1829, 1836, 1838, 1832, 1830, 1837, 1096, 1833
883, 1058, 1094, 1096, 1060, 1059, 1095, 1097, 705
884, 1070, 731, 1080, 1073, 1092, 1098, 1099, 1094
885, 1092, 1098, 1099, 1094, 1093, 751, 1100, 1095
886, 1073, 1080, 732, 1076, 1094, 1099, 1101, 1096
887, 1094, 1099, 1101, 1096, 1095, 1100, 753, 1097
888, 703, 751, 753, 705, 704, 752, 754, 706
889, 684, 1831, 1843, 1839, 1824, 1832, 1844, 1840
890, 1824, 1832, 1844, 1840, 1060, 1833, 1845, 1841
891, 1839, 1843, 1846, 1049, 1840, 1844, 1847, 1842
892, 1840, 1844, 1847, 1842, 1841, 1845, 1848, 1065
893, 1831, 1076, 1849, 1843, 1832, 1838, 1850, 1844
894, 1832, 1838, 1850, 1844, 1833, 1096, 1851, 1845
895, 1843, 1849, 1084, 1846, 1844, 1850, 1852, 1847
896, 1844, 1850, 1852, 1847, 1845, 1851, 1102, 1848
897, 1060, 1096, 1102, 1065, 705, 1097, 1103, 1066
898, 1049, 1084, 1087, 690, 1065, 1102, 1104, 1067
899, 1065, 1102, 1104, 1067, 1066, 1103, 1105, 707
900, 1076, 732, 1090, 1084, 1096, 1101, 1106, 1102
901, 1096, 1101, 1106, 1102, 1097, 753, 1107, 1103
902, 1084, 1090, 738, 1087, 1102, 1106, 1108, 1104
903, 1102, 1106, 1108, 1104, 1103, 1107, 755, 1105
904, 705, 753, 755, 707, 706, 754, 756, 708
905, 690, 738, 757, 709, 707, 755, 758, 710
906, 707, 755, 758, 710, 708, 756, 759, 711
907, 709, 757, 760, 712, 710, 758, 761, 713
908, 710, 758, 761, 713, 711, 759, 762, 714
909, 712, 760, 763, 715, 713, 761, 764, 716
910, 713, 761, 764, 716, 714, 762, 765, 717
911, 715, 763, 766, 718, 716, 764, 767, 719
912, 716, 764, 767, 719, 717, 765, 768, 720
913, 721, 769, 770, 722, 723, 771, 772, 724
914, 723, 771, 772, 724, 725, 773, 774, 726
915, 725, 773, 774, 726, 727, 775, 776, 728
916, 727, 775, 776, 728, 729, 777, 778, 730
917, 729, 1109, 1112, 1078, 1077, 1110, 1113, 1079
918, 1077, 1110, 1113, 1079, 731, 1111, 1114, 1080
919, 1078, 1112, 1115, 730, 1079, 1113, 1116, 1081
920, 1079, 1113, 1116, 1081, 1080, 1114, 1117, 732
921, 1109, 777, 1119, 1112, 1110, 1118, 1120, 1113
922, 1110, 1858, 1861, 1854, 1853, 1859, 1862, 1855
923, 1853, 1859, 1862, 1855, 1111, 1860, 1863, 1856
924, 1854, 1861, 1864, 1113, 1855, 1862, 1865, 1857
925, 1855, 1862, 1865, 1857, 1856, 1863, 1866, 1114
926, 1858, 1118, 1868, 1861, 1859, 1867, 1869, 1862
927, 1859, 1867, 1869, 1862, 1860, 779, 1870, 1863
928, 1861, 1868, 1120, 1864, 1862, 1869, 1871, 1865
929, 1862, 1869, 1871, 1865, 1863, 1870, 1121, 1866
930, 1112, 1119, 778, 1115, 1113, 1120, 1122, 1116
931, 1113, 1120, 1122, 1116, 1114, 1121, 780, 1117
932, 722, 770, 781, 733, 724, 772, 782, 734
933, 724, 772, 782, 734, 726, 774, 783, 735
934, 726, 774, 783, 735, 728, 776, 784, 736
935, 728, 776, 784, 736, 730, 778, 785, 737
936, 730, 1115, 1123, 1088, 1081, 1116, 1124, 1089
937, 1081, 1116, 1124, 1089, 732, 1117, 1125, 1090
938, 1088, 1123, 1126, 737, 1089, 1124, 1127, 1091
939, 1089, 1877, 1880, 1873, 1872, 1878, 1881, 1874
940, 1872, 1878, 1881, 1874, 1090, 1879, 1882, 1875
941, 1873, 1880, 1883, 1091, 1874, 1881, 1884, 1876
942, 1874, 1881, 1884, 1876, 1875, 1882, 1885, 738
943, 1877, 1124, 1887, 1880, 1878, 1886, 1888, 1881
944, 1878, 1886, 1888, 1881, 1879, 1125, 1889, 1882
945, 1880, 1887, 1127, 1883, 1881, 1888, 1890, 1884
946, 1881, 1888, 1890, 1884, 1882, 1889, 1128, 1885
947, 1115, 778, 1129, 1123, 1116, 1122, 1130, 1124
948, 1116, 1122, 1130, 1124, 1117, 780, 1131, 1125
949, 1123, 1129, 785, 1126, 1124, 1130, 1132, 1127
950, 1124, 1891, 1894, 1887, 1886, 1892, 1895, 1888
951, 1886, 1892, 1895, 1888, 1125, 1893, 1896, 1889
952, 1887, 1894, 1897, 1127, 1888, 1895, 1898, 1890
953, 1888, 1895, 1898, 1890, 1889, 1896, 1899, 1128
954, 1891, 1130, 1901, 1894, 1892, 1900, 1902, 1895
955, 1892, 1900, 1902, 1895, 1893, 1131, 1903, 1896
956, 1894, 1901, 1132, 1897, 1895, 1902, 1904, 1898
957, 1895, 1902, 1904, 1898, 1896, 1903, 786, 1899
958, 739, 787, 788, 740, 741, 789, 790, 742
959, 741, 789, 790, 742, 743, 791, 792, 744
960, 740, 788, 793, 745, 742, 790, 794, 746
961, 742, 790, 794, 746, 744, 792, 795, 747
962, 745, 793, 796, 748, 746, 794, 797, 749
963, 746, 794, 797, 749, 747, 795, 798, 750
964, 748, 1137, 1140, 1134, 1133, 1138, 1141, 1135
965, 1133, 1138, 1141, 1135, 749, 1139, 1142, 1136
966, 1134, 1140, 1111, 731, 1135, 1141, 1143, 1098
967, 1135, 1141, 1143, 1098, 1136, 1142, 1144, 751
968, 1137, 796, 1146, 1140, 1138, 1145, 1147, 1141
969, 1138, 1145, 1147, 1141, 1139, 797, 1148, 1142
970, 1140, 1146, 779, 1111, 1141, 1147, 1149, 1143
971, 1141, 1147, 1149, 1143, 1142, 1148, 799, 1144
972, 749, 797, 799, 751, 750, 798, 800, 752
973, 731, 1111, 1114, 1080, 1098, 1143, 1150, 1099
974, 1098, 1143, 1150, 1099, 751, 1144, 1151, 1100
975, 1080, 1114, 1117, 732, 1099, 1150, 1152, 1101
976, 1099, 1150, 1152, 1101, 1100, 1151, 1153, 753
977, 1111, 779, 1121, 1114, 1143, 1149, 1154, 1150
978, 1143, 1149, 1154, 1150, 1144, 799, 1155, 1151
979, 1114, 1121, 780, 1117, 1150, 1154, 1156, 1152
980, 1150, 1154, 1156, 1152, 1151, 1155, 801, 1153
981, 751, 1144, 1151, 1100, 1905, 1909, 1911, 1906
982, 1905, 1909, 1911, 1906, 752, 1910, 1912, 1907
983, 1100, 1151, 1153, 753, 1906, 1911, 1913, 1908
984, 1906, 1911, 1913, 1908, 1907, 1912, 1914, 754
985, 1144, 799, 1155, 1151, 1909, 1915, 1916, 1911
986, 1909, 1915, 1916, 1911, 1910, 800, 1917, 1912
987, 1151, 1155, 801, 1153, 1911, 1916, 1918, 1913
988, 1911, 1916, 1918, 1913, 1912, 1917, 802, 1914
989, 732, 1117, 1125, 1090, 1101, 1152, 1157, 1106
990, 1101, 1152, 1157, 1106, 753, 1153, 1158, 1107
991, 1090, 1125, 1128, 738, 1106, 1157, 1159, 1108
992, 1106, 1157, 1159, 1108, 1107, 1158, 1160, 755
993, 1117, 780, 1131, 1125, 1152, 1156, 1161, 1157
994, 1152, 1156, 1161, 1157, 1153, 801, 1162, 1158
995, 1125, 1131, 786, 1128, 1157, 1161, 1163, 1159
996, 1157, 1161, 1163, 1159, 1158, 1162, 803, 1160
997, 753, 1153, 1158, 1107, 1908, 1913, 1922, 1919
998, 1908, 1913, 1922, 1919, 754, 1914, 1923, 1920
999, 1107, 1158, 1160, 755, 1919, 1922, 1924, 1921
1000, 1919, 1922, 1924, 1921, 1920, 1923, 1925, 756
1001, 1153, 801, 1162, 1158, 1913, 1918, 1926, 1922
1002, 1913, 1918, 1926, 1922, 1914, 802, 1927, 1923
1003, 1158, 1162, 803, 1160, 1922, 1926, 1928, 1924
1004, 1922, 1926, 1928, 1924, 1923, 1927, 804, 1925
1005, 738, 1128, 1168, 1164, 1108, 1159, 1169, 1165
1006, 1108, 1159, 1169, 1165, 755, 1160, 1170, 1166
1007, 1164, 1168, 1171, 757, 1165, 1169, 1172, 1167
1008, 1165, 1169, 1172, 1167, 1166, 1170, 1173, 758
1009, 1128, 786, 1174, 1168, 1159, 1163, 1175, 1169
1010, 1159, 1163, 1175, 1169, 1160, 803, 1176, 1170
1011, 1168, 1174, 805, 1171, 1169, 1175, 1177, 1172
1012, 1169, 1175, 1177, 1172, 1170, 1176, 806, 1173
1013, 755, 803, 806, 758, 756, 804, 807, 759
1014, 757, 805, 808, 760, 758, 806, 809, 761
1015, 758, 806, 809, 761, 759, 807, 810, 762
1016, 760, 808, 811, 763, 761, 809, 812, 764
1017, 761, 809, 812, 764, 762, 810, 813, 765
1018, 763, 811, 814, 766, 764, 812, 815, 767
1019, 764, 812, 815, 767, 765, 813, 816, 768
1020, 769, 817, 818, 770, 771, 819, 820, 772
1021, 771, 819, 820, 772, 773, 821, 822, 774
1022, 773, 821, 822, 774, 775, 823, 824, 776
1023, 775, 823, 824, 776, 777, 825, 826, 778
1024, 777, 1178, 1181, 1119, 1118, 1179, 1182, 1120
1025, 1118, 1179, 1182, 1120, 779, 1180, 1183, 1121
1026, 1119, 1181, 1184, 778, 1120, 1182, 1185, 1122
1027, 1120, 1182, 1185, 1122, 1121, 1183, 1186, 780
1028, 1178, 825, 1188, 1181, 1179, 1187, 1189, 1182
1029, 1179, 1187, 1189, 1182, 1180, 827, 1190, 1183
1030, 1181, 1188, 826, 1184, 1182, 1189, 1191, 1185
1031, 1182, 1189, 1191, 1185, 1183, 1190, 828, 1186
1032, 770, 818, 829, 781, 772, 820, 830, 782
1033, 772, 820, 830, 782, 774, 822, 831, 783
1034, 774, 822, 831, 783, 776, 824, 832, 784
1035, 776, 824, 832, 784, 778, 826, 833, 785
1036, 778, 1184, 1192, 1129, 1122, 1185, 1193, 1130
1037, 1122, 1185, 1193, 1130, 780, 1186, 1194, 1131
1038, 1129, 1192, 1195, 785, 1130, 1193, 1196, 1132
1039, 1130, 1193, 1196, 1132, 1131, 1194, 1197, 786
1040, 1184, 826, 1198, 1192, 1185, 1191, 1199, 1193
1041, 1185, 1191, 1199, 1193, 1186, 828, 1200, 1194
1042, 1192, 1198, 833, 1195, 1193, 1199, 1201, 1196
1043, 1193, 1199, 1201, 1196, 1194, 1200, 834, 1197
1044, 787, 835, 836, 788, 789, 837, 838, 790
1045, 789, 837, 838, 790, 791, 839, 840, 792
1046, 788, 836, 841, 793, 790, 838, 842, 794
1047, 790, 838, 842, 794, 792, 840, 843, 795
1048, 793, 841, 844, 796, 794, 842, 845, 797
1049, 794, 842, 845, 797, 795, 843, 846, 798
1050, 796, 844, 827, 779, 797, 845, 847, 799
1051, 797, 845, 847, 799, 798, 846, 848, 800
1052, 779, 1180, 1183, 1121, 1149, 1202, 1204, 1154
1053, 1149, 1202, 1204, 1154, 799, 1203, 1205, 1155
1054, 1121, 1183, 1186, 780, 1154, 1204, 1206, 1156
1055, 1154, 1204, 1206, 1156, 1155, 1205, 1207, 801
1056, 1180, 827, 1190, 1183, 1202, 1208, 1209, 1204
1057, 1202, 1208, 1209, 1204, 1203, 847, 1210, 1205
1058, 1183, 1190, 828, 1186, 1204, 1209, 1211, 1206
1059, 1204, 1209, 1211, 1206, 1205, 1210, 849, 1207
1060, 799, 1203, 1205, 1155, 1915, 1929, 1931, 1916
1061, 1915, 1929, 1931, 1916, 800, 1930, 1932, 1917
1062, 1155, 1205, 1207, 801, 1916, 1931, 1933, 1918
1063, 1916, 1931, 1933, 1918, 1917, 1932, 1934, 802
1064, 1203, 847, 1210, 1205, 1929, 1935, 1936, 1931
1065, 1929, 1935, 1936, 1931, 1930, 848, 1937, 1932
1066, 1205, 1210, 849, 1207, 1931, 1936, 1938, 1933
1067, 1931, 1936, 1938, 1933, 1932, 1937, 850, 1934
1068, 780, 1186, 1194, 1131, 1156, 1206, 1212, 1161
1069, 1156, 1206, 1212, 1161, 801, 1207, 1213, 1162
1070, 1131, 1194, 1197, 786, 1161, 1212, 1214, 1163
1071, 1161, 1212, 1214, 1163, 1162, 1213, 1215, 803
1072, 1186, 828, 1200, 1194, 1206, 1211, 1216, 1212
1073, 1206, 1211, 1216, 1212, 1207, 849, 1217, 1213
1074, 1194, 1200, 834, 1197, 1212, 1216, 1218, 1214
1075, 1212, 1216, 1218, 1214, 1213, 1217, 851, 1215
1076, 801, 1207, 1213, 1162, 1918, 1933, 1939, 1926
1077, 1918, 1933, 1939, 1926, 802, 1934, 1940, 1927
1078, 1162, 1213, 1215, 803, 1926, 1939, 1941, 1928
1079, 1926, 1939, 1941, 1928, 1927, 1940, 1942, 804
1080, 1207, 849, 1217, 1213, 1933, 1938, 1943, 1939
1081, 1933, 1938, 1943, 1939, 1934, 850, 1944, 1940
1082, 1213, 1217, 851, 1215, 1939, 1943, 1945, 1941
1083, 1939, 1943, 1945, 1941, 1940, 1944, 852, 1942
1084, 786, 834, 853, 805, 803, 851, 854, 806
1085, 803, 851, 854, 806, 804, 852, 855, 807
1086, 805, 853, 856, 808, 806, 854, 857, 809
1087, 806, 854, 857, 809, 807, 855, 858, 810
1088, 808, 856, 859, 811, 809, 857, 860, 812
1089, 809, 857, 860, 812, 810, 858, 861, 813
1090, 811, 859, 862, 814, 812, 860, 863, 815
1091, 812, 860, 863, 815, 813, 861, 864, 816
1092, 817, 865, 866, 818, 819, 867, 868, 820
1093, 819, 867, 868, 820, 821, 869, 870, 822
1094, 821, 869, 870, 822, 823, 871, 872, 824
1095, 823, 871, 872, 824, 825, 873, 874, 826
1096, 825, 1219, 1222, 1188, 1187, 1220, 1223, 1189
1097, 1187, 1220, 1223, 1189, 827, 1221, 1224, 1190
1098, 1188, 1222, 1225, 826, 1189, 1223, 1226, 1191
1099, 1189, 1223, 1226, 1191, 1190, 1224, 1227, 828
1100, 1219, 873, 1229, 1222, 1220, 1228, 1230, 1223
1101, 1220, 1228, 1230, 1223, 1221, 875, 1231, 1224
1102, 1222, 1229, 874, 1225, 1223, 1230, 1232, 1226
1103, 1223, 1230, 1232, 1226, 1224, 1231, 876, 1227
1104, 818, 866, 877, 829, 820, 868, 878, 830
1105, 820, 868, 878, 830, 822, 870, 879, 831
1106, 822, 870, 879, 831, 824, 872, 880, 832
1107, 824, 872, 880, 832, 826, 874, 881, 833
1108, 826, 1225, 1233, 1198, 1191, 1226, 1234, 1199
1109, 1191, 1226, 1234, 1199, 828, 1227, 1235, 1200
1110, 1198, 1233, 1236, 833, 1199, 1234, 1237, 1201
1111, 1199, 1234, 1237, 1201, 1200, 1235, 1238, 834
1112, 1225, 874, 1239, 1233, 1226, 1232, 1240, 1234
1113, 1226, 1232, 1240, 1234, 1227, 876, 1241, 1235
1114, 1233, 1239, 881, 1236, 1234, 1240, 1242, 1237
1115, 1234, 1240, 1242, 1237, 1235, 1241, 882, 1238
1116, 835, 883, 884, 836, 837, 885, 886, 838
1117, 837, 885, 886, 838, 839, 887, 888, 840
1118, 836, 884, 889, 841, 838, 886, 890, 842
1119, 838, 886, 890, 842, 840, 888, 891, 843
1120, 841, 889, 892, 844, 842, 890, 893, 845
1121, 842, 890, 893, 845, 843, 891, 894, 846
1122, 844, 892, 875, 827, 845, 893, 895, 847
1123, 845, 893, 895, 847, 846, 894, 896, 848
1124, 827, 1221, 1224, 1190, 1208, 1243, 1245, 1209
1125, 1208, 1243, 1245, 1209, 847, 1244, 1246, 1210
1126, 1190, 1224, 1227, 828, 1209, 1245, 1247, 1211
1127, 1209, 1245, 1247, 1211, 1210, 1246, 1248, 849
1128, 1221, 875, 1231, 1224, 1243, 1249, 1250, 1245
1129, 1243, 1249, 1250, 1245, 1244, 895, 1251, 1246
1130, 1224, 1231, 876, 1227, 1245, 1250, 1252, 1247
1131, 1245, 1250, 1252, 1247, 1246, 1251, 897, 1248
1132, 847, 895, 897, 849, 848, 896, 898, 850
1133, 828, 1227, 1235, 1200, 1211, 1247, 1253, 1216
1134, 1211, 1247, 1253, 1216, 849, 1248, 1254, 1217
1135, 1200, 1235, 1238, 834, 1216, 1253, 1255, 1218
1136, 1216, 1253, 1255, 1218, 1217, 1254, 1256, 851
1137, 1227, 876, 1241, 1235, 1247, 1252, 1257, 1253
1138, 1247, 1252, 1257, 1253, 1248, 897, 1258, 1254
1139, 1235, 1241, 882, 1238, 1253, 1257, 1259, 1255
1140, 1253, 1257, 1259, 1255, 1254, 1258, 899, 1256
1141, 849, 897, 899, 851, 850, 898, 900, 852
1142, 834, 882, 901, 853, 851, 899, 902, 854
1143, 851, 899, 902, 854, 852, 900, 903, 855
1144, 853, 901, 904, 856, 854, 902, 905, 857
1145, 854, 902, 905, 857, 855, 903, 906, 858
1146, 856, 904, 907, 859, 857, 905, 908, 860
1147, 857, 905, 908, 860, 858, 906, 909, 861
1148, 859, 907, 910, 862, 860, 908, 911, 863
1149, 860, 908, 911, 863, 861, 909, 912, 864
*NSET, NSET=CLAMP
1, 4, 5, 8, 9, 12, 13, 16, 17, 20, 21, 24, 26, 28, 30, 32
34, 36, 37, 40, 41, 44, 45, 48, 50, 52, 54, 56, 58, 60, 62, 64
66, 68, 70, 72, 74, 76, 78, 80, 82, 84, 86, 88, 90, 92, 94, 96
1260, 1261, 1262, 1263, 1264, 1279, 1280, 1281, 1282, 1293, 1294, 1295, 1296, 1307, 1308, 1309
1317, 1318, 1319, 1320, 1331, 1332, 1333, 1341, 1342, 1343, 1344, 1355, 1356, 1357, 1365, 1366
1367, 1368, 1369, 1384, 1385, 1386, 1387, 1398, 1399, 1400, 1401, 1412, 1413, 1414, 1422, 1423
1424, 1425, 1436, 1437, 1438, 1446, 1447, 1448, 1449, 1460, 1461, 1462
*NSET, NSET=TIP_TOP
887, 888, 891, 894, 896, 898, 900, 903, 906, 909, 912
*MATERIAL, NAME=STEEL
*ELASTIC
210000, 0.3
*SOLID SECTION, ELSET=EALL, MATERIAL=STEEL
*EQUATION
3
914, 1, 1.0, 155, 1, -0.5, 156, 1, -0.5
*EQUATION
3
914, 2, 1.0, 155, 2, -0.5, 156, 2, -0.5
*EQUATION
3
914, 3, 1.0, 155, 3, -0.5, 156, 3, -0.5
*EQUATION
3
916, 1, 1.0, 175, 1, -0.5, 177, 1, -0.5
*EQUATION
3
916, 2, 1.0, 175, 2, -0.5, 177, 2, -0.5
*EQUATION
3
916, 3, 1.0, 175, 3, -0.5, 177, 3, -0.5
*EQUATION
3
918, 1, 1.0, 155, 1, -0.5, 203, 1, -0.5
*EQUATION
3
918, 2, 1.0, 155, 2, -0.5, 203, 2, -0.5
*EQUATION
3
918, 3, 1.0, 155, 3, -0.5, 203, 3, -0.5
*EQUATION
3
920, 1, 1.0, 175, 1, -0.5, 223, 1, -0.5
*EQUATION
3
920, 2, 1.0, 175, 2, -0.5, 223, 2, -0.5
*EQUATION
3
920, 3, 1.0, 175, 3, -0.5, 223, 3, -0.5
*EQUATION
5
921, 1, 1.0, 155, 1, -0.25, 203, 1, -0.25, 204, 1, -0.25, 156, 1, -0.25
*EQUATION
5
921, 2, 1.0, 155, 2, -0.25, 203, 2, -0.25, 204, 2, -0.25, 156, 2, -0.25
*EQUATION
5
921, 3, 1.0, 155, 3, -0.25, 203, 3, -0.25, 204, 3, -0.25, 156, 3, -0.25
*EQUATION
5
923, 1, 1.0, 175, 1, -0.25, 223, 1, -0.25, 225, 1, -0.25, 177, 1, -0.25
*EQUATION
5
923, 2, 1.0, 175, 2, -0.25, 223, 2, -0.25, 225, 2, -0.25, 177, 2, -0.25
*EQUATION
5
923, 3, 1.0, 175, 3, -0.25, 223, 3, -0.25, 225, 3, -0.25, 177, 3, -0.25
*EQUATION
3
924, 1, 1.0, 156, 1, -0.5, 204, 1, -0.5
*EQUATION
3
924, 2, 1.0, 156, 2, -0.5, 204, 2, -0.5
*EQUATION
3
924, 3, 1.0, 156, 3, -0.5, 204, 3, -0.5
*EQUATION
3
926, 1, 1.0, 177, 1, -0.5, 225, 1, -0.5
*EQUATION
3
926, 2, 1.0, 177, 2, -0.5, 225, 2, -0.5
*EQUATION
3
926, 3, 1.0, 177, 3, -0.5, 225, 3, -0.5
*EQUATION
3
928, 1, 1.0, 203, 1, -0.5, 204, 1, -0.5
*EQUATION
3
928, 2, 1.0, 203, 2, -0.5, 204, 2, -0.5
*EQUATION
3
928, 3, 1.0, 203, 3, -0.5, 204, 3, -0.5
*EQUATION
3
930, 1, 1.0, 223, 1, -0.5, 225, 1, -0.5
*EQUATION
3
930, 2, 1.0, 223, 2, -0.5, 225, 2, -0.5
*EQUATION
3
930, 3, 1.0, 223, 3, -0.5, 225, 3, -0.5
*EQUATION
3
932, 1, 1.0, 156, 1, -0.5, 162, 1, -0.5
*EQUATION
3
932, 2, 1.0, 156, 2, -0.5, 162, 2, -0.5
*EQUATION
3
932, 3, 1.0, 156, 3, -0.5, 162, 3, -0.5
*EQUATION
3
934, 1, 1.0, 177, 1, -0.5, 179, 1, -0.5
*EQUATION
3
934, 2, 1.0, 177, 2, -0.5, 179, 2, -0.5
*EQUATION
3
934, 3, 1.0, 177, 3, -0.5, 179, 3, -0.5
*EQUATION
5
936, 1, 1.0, 156, 1, -0.25, 204, 1, -0.25, 210, 1, -0.25, 162, 1, -0.25
*EQUATION
5
936, 2, 1.0, 156, 2, -0.25, 204, 2, -0.25, 210, 2, -0.25, 162, 2, -0.25
*EQUATION
5
936, 3, 1.0, 156, 3, -0.25, 204, 3, -0.25, 210, 3, -0.25, 162, 3, -0.25
*EQUATION
5
938, 1, 1.0, 177, 1, -0.25, 225, 1, -0.25, 227, 1, -0.25, 179, 1, -0.25
*EQUATION
5
938, 2, 1.0, 177, 2, -0.25, 225, 2, -0.25, 227, 2, -0.25, 179, 2, -0.25
*EQUATION
5
938, 3, 1.0, 177, 3, -0.25, 225, 3, -0.25, 227, 3, -0.25, 179, 3, -0.25
*EQUATION
3
939, 1, 1.0, 162, 1, -0.5, 210, 1, -0.5
*EQUATION
3
939, 2, 1.0, 162, 2, -0.5, 210, 2, -0.5
*EQUATION
3
939, 3, 1.0, 162, 3, -0.5, 210, 3, -0.5
*EQUATION
3
941, 1, 1.0, 179, 1, -0.5, 227, 1, -0.5
*EQUATION
3
941, 2, 1.0, 179, 2, -0.5, 227, 2, -0.5
*EQUATION
3
941, 3, 1.0, 179, 3, -0.5, 227, 3, -0.5
*EQUATION
3
942, 1, 1.0, 204, 1, -0.5, 210, 1, -0.5
*EQUATION
3
942, 2, 1.0, 204, 2, -0.5, 210, 2, -0.5
*EQUATION
3
942, 3, 1.0, 204, 3, -0.5, 210, 3, -0.5
*EQUATION
3
944, 1, 1.0, 225, 1, -0.5, 227, 1, -0.5
*EQUATION
3
944, 2, 1.0, 225, 2, -0.5, 227, 2, -0.5
*EQUATION
3
944, 3, 1.0, 225, 3, -0.5, 227, 3, -0.5
*EQUATION
3
948, 1, 1.0, 223, 1, -0.5, 271, 1, -0.5
*EQUATION
3
948, 2, 1.0, 223, 2, -0.5, 271, 2, -0.5
*EQUATION
3
948, 3, 1.0, 223, 3, -0.5, 271, 3, -0.5
*EQUATION
5
951, 1, 1.0, 223, 1, -0.25, 271, 1, -0.25, 273, 1, -0.25, 225, 1, -0.25
*EQUATION
5
951, 2, 1.0, 223, 2, -0.25, 271, 2, -0.25, 273, 2, -0.25, 225, 2, -0.25
*EQUATION
5
951, 3, 1.0, 223, 3, -0.25, 271, 3, -0.25, 273, 3, -0.25, 225, 3, -0.25
*EQUATION
3
954, 1, 1.0, 225, 1, -0.5, 273, 1, -0.5
*EQUATION
3
954, 2, 1.0, 225, 2, -0.5, 273, 2, -0.5
*EQUATION
3
954, 3, 1.0, 225, 3, -0.5, 273, 3, -0.5
*EQUATION
3
958, 1, 1.0, 271, 1, -0.5, 273, 1, -0.5
*EQUATION
3
958, 2, 1.0, 271, 2, -0.5, 273, 2, -0.5
*EQUATION
3
958, 3, 1.0, 271, 3, -0.5, 273, 3, -0.5
*EQUATION
5
962, 1, 1.0, 225, 1, -0.25, 273, 1, -0.25, 275, 1, -0.25, 227, 1, -0.25
*EQUATION
5
962, 2, 1.0, 225, 2, -0.25, 273, 2, -0.25, 275, 2, -0.25, 227, 2, -0.25
*EQUATION
5
962, 3, 1.0, 225, 3, -0.25, 273, 3, -0.25, 275, 3, -0.25, 227, 3, -0.25
*EQUATION
3
965, 1, 1.0, 227, 1, -0.5, 275, 1, -0.5
*EQUATION
3
965, 2, 1.0, 227, 2, -0.5, 275, 2, -0.5
*EQUATION
3
965, 3, 1.0, 227, 3, -0.5, 275, 3, -0.5
*EQUATION
3
968, 1, 1.0, 273, 1, -0.5, 275, 1, -0.5
*EQUATION
3
968, 2, 1.0, 273, 2, -0.5, 275, 2, -0.5
*EQUATION
3
968, 3, 1.0, 273, 3, -0.5, 275, 3, -0.5
*EQUATION
3
971, 1, 1.0, 585, 1, -0.5, 586, 1, -0.5
*EQUATION
3
971, 2, 1.0, 585, 2, -0.5, 586, 2, -0.5
*EQUATION
3
971, 3, 1.0, 585, 3, -0.5, 586, 3, -0.5
*EQUATION
3
975, 1, 1.0, 585, 1, -0.5, 633, 1, -0.5
*EQUATION
3
975, 2, 1.0, 585, 2, -0.5, 633, 2, -0.5
*EQUATION
3
975, 3, 1.0, 585, 3, -0.5, 633, 3, -0.5
*EQUATION
3
977, 1, 1.0, 587, 1, -0.5, 635, 1, -0.5
*EQUATION
3
977, 2, 1.0, 587, 2, -0.5, 635, 2, -0.5
*EQUATION
3
977, 3, 1.0, 587, 3, -0.5, 635, 3, -0.5
*EQUATION
5
978, 1, 1.0, 585, 1, -0.25, 633, 1, -0.25, 634, 1, -0.25, 586, 1, -0.25
*EQUATION
5
978, 2, 1.0, 585, 2, -0.25, 633, 2, -0.25, 634, 2, -0.25, 586, 2, -0.25
*EQUATION
5
978, 3, 1.0, 585, 3, -0.25, 633, 3, -0.25, 634, 3, -0.25, 586, 3, -0.25
*EQUATION
3
981, 1, 1.0, 586, 1, -0.5, 634, 1, -0.5
*EQUATION
3
981, 2, 1.0, 586, 2, -0.5, 634, 2, -0.5
*EQUATION
3
981, 3, 1.0, 586, 3, -0.5, 634, 3, -0.5
*EQUATION
3
985, 1, 1.0, 633, 1, -0.5, 634, 1, -0.5
*EQUATION
3
985, 2, 1.0, 633, 2, -0.5, 634, 2, -0.5
*EQUATION
3
985, 3, 1.0, 633, 3, -0.5, 634, 3, -0.5
*EQUATION
3
989, 1, 1.0, 586, 1, -0.5, 593, 1, -0.5
*EQUATION
3
989, 2, 1.0, 586, 2, -0.5, 593, 2, -0.5
*EQUATION
3
989, 3, 1.0, 586, 3, -0.5, 593, 3, -0.5
*EQUATION
5
993, 1, 1.0, 586, 1, -0.25, 634, 1, -0.25, 641, 1, -0.25, 593, 1, -0.25
*EQUATION
5
993, 2, 1.0, 586, 2, -0.25, 634, 2, -0.25, 641, 2, -0.25, 593, 2, -0.25
*EQUATION
5
993, 3, 1.0, 586, 3, -0.25, 634, 3, -0.25, 641, 3, -0.25, 593, 3, -0.25
*EQUATION
3
996, 1, 1.0, 593, 1, -0.5, 641, 1, -0.5
*EQUATION
3
996, 2, 1.0, 593, 2, -0.5, 641, 2, -0.5
*EQUATION
3
996, 3, 1.0, 593, 3, -0.5, 641, 3, -0.5
*EQUATION
3
998, 1, 1.0, 594, 1, -0.5, 642, 1, -0.5
*EQUATION
3
998, 2, 1.0, 594, 2, -0.5, 642, 2, -0.5
*EQUATION
3
998, 3, 1.0, 594, 3, -0.5, 642, 3, -0.5
*EQUATION
3
999, 1, 1.0, 634, 1, -0.5, 641, 1, -0.5
*EQUATION
3
999, 2, 1.0, 634, 2, -0.5, 641, 2, -0.5
*EQUATION
3
999, 3, 1.0, 634, 3, -0.5, 641, 3, -0.5
*EQUATION
3
1003, 1, 1.0, 587, 1, -0.5, 607, 1, -0.5
*EQUATION
3
1003, 2, 1.0, 587, 2, -0.5, 607, 2, -0.5
*EQUATION
3
1003, 3, 1.0, 587, 3, -0.5, 607, 3, -0.5
*EQUATION
3
1005, 1, 1.0, 607, 1, -0.5, 609, 1, -0.5
*EQUATION
3
1005, 2, 1.0, 607, 2, -0.5, 609, 2, -0.5
*EQUATION
3
1005, 3, 1.0, 607, 3, -0.5, 609, 3, -0.5
*EQUATION
5
1007, 1, 1.0, 587, 1, -0.25, 635, 1, -0.25, 655, 1, -0.25, 607, 1, -0.25
*EQUATION
5
1007, 2, 1.0, 587, 2, -0.25, 635, 2, -0.25, 655, 2, -0.25, 607, 2, -0.25
*EQUATION
5
1007, 3, 1.0, 587, 3, -0.25, 635, 3, -0.25, 655, 3, -0.25, 607, 3, -0.25
*EQUATION
3
1008, 1, 1.0, 607, 1, -0.5, 655, 1, -0.5
*EQUATION
3
1008, 2, 1.0, 607, 2, -0.5, 655, 2, -0.5
*EQUATION
3
1008, 3, 1.0, 607, 3, -0.5, 655, 3, -0.5
*EQUATION
5
1010, 1, 1.0, 607, 1, -0.25, 655, 1, -0.25, 657, 1, -0.25, 609, 1, -0.25
*EQUATION
5
1010, 2, 1.0, 607, 2, -0.25, 655, 2, -0.25, 657, 2, -0.25, 609, 2, -0.25
*EQUATION
5
1010, 3, 1.0, 607, 3, -0.25, 655, 3, -0.25, 657, 3, -0.25, 609, 3, -0.25
*EQUATION
3
1012, 1, 1.0, 609, 1, -0.5, 657, 1, -0.5
*EQUATION
3
1012, 2, 1.0, 609, 2, -0.5, 657, 2, -0.5
*EQUATION
3
1012, 3, 1.0, 609, 3, -0.5, 657, 3, -0.5
*EQUATION
3
1013, 1, 1.0, 635, 1, -0.5, 655, 1, -0.5
*EQUATION
3
1013, 2, 1.0, 635, 2, -0.5, 655, 2, -0.5
*EQUATION
3
1013, 3, 1.0, 635, 3, -0.5, 655, 3, -0.5
*EQUATION
3
1015, 1, 1.0, 655, 1, -0.5, 657, 1, -0.5
*EQUATION
3
1015, 2, 1.0, 655, 2, -0.5, 657, 2, -0.5
*EQUATION
3
1015, 3, 1.0, 655, 3, -0.5, 657, 3, -0.5
*EQUATION
3
1018, 1, 1.0, 609, 1, -0.5, 611, 1, -0.5
*EQUATION
3
1018, 2, 1.0, 609, 2, -0.5, 611, 2, -0.5
*EQUATION
3
1018, 3, 1.0, 609, 3, -0.5, 611, 3, -0.5
*EQUATION
3
1019, 1, 1.0, 594, 1, -0.5, 611, 1, -0.5
*EQUATION
3
1019, 2, 1.0, 594, 2, -0.5, 611, 2, -0.5
*EQUATION
3
1019, 3, 1.0, 594, 3, -0.5, 611, 3, -0.5
*EQUATION
5
1021, 1, 1.0, 609, 1, -0.25, 657, 1, -0.25, 659, 1, -0.25, 611, 1, -0.25
*EQUATION
5
1021, 2, 1.0, 609, 2, -0.25, 657, 2, -0.25, 659, 2, -0.25, 611, 2, -0.25
*EQUATION
5
1021, 3, 1.0, 609, 3, -0.25, 657, 3, -0.25, 659, 3, -0.25, 611, 3, -0.25
*EQUATION
5
1022, 1, 1.0, 594, 1, -0.25, 642, 1, -0.25, 659, 1, -0.25, 611, 1, -0.25
*EQUATION
5
1022, 2, 1.0, 594, 2, -0.25, 642, 2, -0.25, 659, 2, -0.25, 611, 2, -0.25
*EQUATION
5
1022, 3, 1.0, 594, 3, -0.25, 642, 3, -0.25, 659, 3, -0.25, 611, 3, -0.25
*EQUATION
3
1023, 1, 1.0, 611, 1, -0.5, 659, 1, -0.5
*EQUATION
3
1023, 2, 1.0, 611, 2, -0.5, 659, 2, -0.5
*EQUATION
3
1023, 3, 1.0, 611, 3, -0.5, 659, 3, -0.5
*EQUATION
3
1025, 1, 1.0, 657, 1, -0.5, 659, 1, -0.5
*EQUATION
3
1025, 2, 1.0, 657, 2, -0.5, 659, 2, -0.5
*EQUATION
3
1025, 3, 1.0, 657, 3, -0.5, 659, 3, -0.5
*EQUATION
3
1026, 1, 1.0, 642, 1, -0.5, 659, 1, -0.5
*EQUATION
3
1026, 2, 1.0, 642, 2, -0.5, 659, 2, -0.5
*EQUATION
3
1026, 3, 1.0, 642, 3, -0.5, 659, 3, -0.5
*EQUATION
3
1027, 1, 1.0, 633, 1, -0.5, 681, 1, -0.5
*EQUATION
3
1027, 2, 1.0, 633, 2, -0.5, 681, 2, -0.5
*EQUATION
3
1027, 3, 1.0, 633, 3, -0.5, 681, 3, -0.5
*EQUATION
3
1029, 1, 1.0, 635, 1, -0.5, 683, 1, -0.5
*EQUATION
3
1029, 2, 1.0, 635, 2, -0.5, 683, 2, -0.5
*EQUATION
3
1029, 3, 1.0, 635, 3, -0.5, 683, 3, -0.5
*EQUATION
5
1030, 1, 1.0, 633, 1, -0.25, 681, 1, -0.25, 682, 1, -0.25, 634, 1, -0.25
*EQUATION
5
1030, 2, 1.0, 633, 2, -0.25, 681, 2, -0.25, 682, 2, -0.25, 634, 2, -0.25
*EQUATION
5
1030, 3, 1.0, 633, 3, -0.25, 681, 3, -0.25, 682, 3, -0.25, 634, 3, -0.25
*EQUATION
3
1033, 1, 1.0, 634, 1, -0.5, 682, 1, -0.5
*EQUATION
3
1033, 2, 1.0, 634, 2, -0.5, 682, 2, -0.5
*EQUATION
3
1033, 3, 1.0, 634, 3, -0.5, 682, 3, -0.5
*EQUATION
3
1037, 1, 1.0, 681, 1, -0.5, 682, 1, -0.5
*EQUATION
3
1037, 2, 1.0, 681, 2, -0.5, 682, 2, -0.5
*EQUATION
3
1037, 3, 1.0, 681, 3, -0.5, 682, 3, -0.5
*EQUATION
5
1041, 1, 1.0, 634, 1, -0.25, 682, 1, -0.25, 689, 1, -0.25, 641, 1, -0.25
*EQUATION
5
1041, 2, 1.0, 634, 2, -0.25, 682, 2, -0.25, 689, 2, -0.25, 641, 2, -0.25
*EQUATION
5
1041, 3, 1.0, 634, 3, -0.25, 682, 3, -0.25, 689, 3, -0.25, 641, 3, -0.25
*EQUATION
3
1044, 1, 1.0, 641, 1, -0.5, 689, 1, -0.5
*EQUATION
3
1044, 2, 1.0, 641, 2, -0.5, 689, 2, -0.5
*EQUATION
3
1044, 3, 1.0, 641, 3, -0.5, 689, 3, -0.5
*EQUATION
3
1046, 1, 1.0, 642, 1, -0.5, 690, 1, -0.5
*EQUATION
3
1046, 2, 1.0, 642, 2, -0.5, 690, 2, -0.5
*EQUATION
3
1046, 3, 1.0, 642, 3, -0.5, 690, 3, -0.5
*EQUATION
3
1047, 1, 1.0, 682, 1, -0.5, 689, 1, -0.5
*EQUATION
3
1047, 2, 1.0, 682, 2, -0.5, 689, 2, -0.5
*EQUATION
3
1047, 3, 1.0, 682, 3, -0.5, 689, 3, -0.5
*EQUATION
5
1051, 1, 1.0, 635, 1, -0.25, 683, 1, -0.25, 703, 1, -0.25, 655, 1, -0.25
*EQUATION
5
1051, 2, 1.0, 635, 2, -0.25, 683, 2, -0.25, 703, 2, -0.25, 655, 2, -0.25
*EQUATION
5
1051, 3, 1.0, 635, 3, -0.25, 683, 3, -0.25, 703, 3, -0.25, 655, 3, -0.25
*EQUATION
3
1052, 1, 1.0, 655, 1, -0.5, 703, 1, -0.5
*EQUATION
3
1052, 2, 1.0, 655, 2, -0.5, 703, 2, -0.5
*EQUATION
3
1052, 3, 1.0, 655, 3, -0.5, 703, 3, -0.5
*EQUATION
5
1054, 1, 1.0, 655, 1, -0.25, 703, 1, -0.25, 705, 1, -0.25, 657, 1, -0.25
*EQUATION
5
1054, 2, 1.0, 655, 2, -0.25, 703, 2, -0.25, 705, 2, -0.25, 657, 2, -0.25
*EQUATION
5
1054, 3, 1.0, 655, 3, -0.25, 703, 3, -0.25, 705, 3, -0.25, 657, 3, -0.25
*EQUATION
3
1056, 1, 1.0, 657, 1, -0.5, 705, 1, -0.5
*EQUATION
3
1056, 2, 1.0, 657, 2, -0.5, 705, 2, -0.5
*EQUATION
3
1056, 3, 1.0, 657, 3, -0.5, 705, 3, -0.5
*EQUATION
3
1057, 1, 1.0, 683, 1, -0.5, 703, 1, -0.5
*EQUATION
3
1057, 2, 1.0, 683, 2, -0.5, 703, 2, -0.5
*EQUATION
3
1057, 3, 1.0, 683, 3, -0.5, 703, 3, -0.5
*EQUATION
3
1059, 1, 1.0, 703, 1, -0.5, 705, 1, -0.5
*EQUATION
3
1059, 2, 1.0, 703, 2, -0.5, 705, 2, -0.5
*EQUATION
3
1059, 3, 1.0, 703, 3, -0.5, 705, 3, -0.5
*EQUATION
5
1062, 1, 1.0, 657, 1, -0.25, 705, 1, -0.25, 707, 1, -0.25, 659, 1, -0.25
*EQUATION
5
1062, 2, 1.0, 657, 2, -0.25, 705, 2, -0.25, 707, 2, -0.25, 659, 2, -0.25
*EQUATION
5
1062, 3, 1.0, 657, 3, -0.25, 705, 3, -0.25, 707, 3, -0.25, 659, 3, -0.25
*EQUATION
5
1063, 1, 1.0, 642, 1, -0.25, 690, 1, -0.25, 707, 1, -0.25, 659, 1, -0.25
*EQUATION
5
1063, 2, 1.0, 642, 2, -0.25, 690, 2, -0.25, 707, 2, -0.25, 659, 2, -0.25
*EQUATION
5
1063, 3, 1.0, 642, 3, -0.25, 690, 3, -0.25, 707, 3, -0.25, 659, 3, -0.25
*EQUATION
3
1064, 1, 1.0, 659, 1, -0.5, 707, 1, -0.5
*EQUATION
3
1064, 2, 1.0, 659, 2, -0.5, 707, 2, -0.5
*EQUATION
3
1064, 3, 1.0, 659, 3, -0.5, 707, 3, -0.5
*EQUATION
3
1066, 1, 1.0, 705, 1, -0.5, 707, 1, -0.5
*EQUATION
3
1066, 2, 1.0, 705, 2, -0.5, 707, 2, -0.5
*EQUATION
3
1066, 3, 1.0, 705, 3, -0.5, 707, 3, -0.5
*EQUATION
3
1067, 1, 1.0, 690, 1, -0.5, 707, 1, -0.5
*EQUATION
3
1067, 2, 1.0, 690, 2, -0.5, 707, 2, -0.5
*EQUATION
3
1067, 3, 1.0, 690, 3, -0.5, 707, 3, -0.5
*EQUATION
3
1068, 1, 1.0, 681, 1, -0.5, 729, 1, -0.5
*EQUATION
3
1068, 2, 1.0, 681, 2, -0.5, 729, 2, -0.5
*EQUATION
3
1068, 3, 1.0, 681, 3, -0.5, 729, 3, -0.5
*EQUATION
3
1070, 1, 1.0, 683, 1, -0.5, 731, 1, -0.5
*EQUATION
3
1070, 2, 1.0, 683, 2, -0.5, 731, 2, -0.5
*EQUATION
3
1070, 3, 1.0, 683, 3, -0.5, 731, 3, -0.5
*EQUATION
5
1071, 1, 1.0, 681, 1, -0.25, 729, 1, -0.25, 730, 1, -0.25, 682, 1, -0.25
*EQUATION
5
1071, 2, 1.0, 681, 2, -0.25, 729, 2, -0.25, 730, 2, -0.25, 682, 2, -0.25
*EQUATION
5
1071, 3, 1.0, 681, 3, -0.25, 729, 3, -0.25, 730, 3, -0.25, 682, 3, -0.25
*EQUATION
3
1074, 1, 1.0, 682, 1, -0.5, 730, 1, -0.5
*EQUATION
3
1074, 2, 1.0, 682, 2, -0.5, 730, 2, -0.5
*EQUATION
3
1074, 3, 1.0, 682, 3, -0.5, 730, 3, -0.5
*EQUATION
3
1078, 1, 1.0, 729, 1, -0.5, 730, 1, -0.5
*EQUATION
3
1078, 2, 1.0, 729, 2, -0.5, 730, 2, -0.5
*EQUATION
3
1078, 3, 1.0, 729, 3, -0.5, 730, 3, -0.5
*EQUATION
5
1082, 1, 1.0, 682, 1, -0.25, 730, 1, -0.25, 737, 1, -0.25, 689, 1, -0.25
*EQUATION
5
1082, 2, 1.0, 682, 2, -0.25, 730, 2, -0.25, 737, 2, -0.25, 689, 2, -0.25
*EQUATION
5
1082, 3, 1.0, 682, 3, -0.25, 730, 3, -0.25, 737, 3, -0.25, 689, 3, -0.25
*EQUATION
3
1085, 1, 1.0, 689, 1, -0.5, 737, 1, -0.5
*EQUATION
3
1085, 2, 1.0, 689, 2, -0.5, 737, 2, -0.5
*EQUATION
3
1085, 3, 1.0, 689, 3, -0.5, 737, 3, -0.5
*EQUATION
3
1087, 1, 1.0, 690, 1, -0.5, 738, 1, -0.5
*EQUATION
3
1087, 2, 1.0, 690, 2, -0.5, 738, 2, -0.5
*EQUATION
3
1087, 3, 1.0, 690, 3, -0.5, 738, 3, -0.5
*EQUATION
3
1088, 1, 1.0, 730, 1, -0.5, 737, 1, -0.5
*EQUATION
3
1088, 2, 1.0, 730, 2, -0.5, 737, 2, -0.5
*EQUATION
3
1088, 3, 1.0, 730, 3, -0.5, 737, 3, -0.5
*EQUATION
5
1092, 1, 1.0, 683, 1, -0.25, 731, 1, -0.25, 751, 1, -0.25, 703, 1, -0.25
*EQUATION
5
1092, 2, 1.0, 683, 2, -0.25, 731, 2, -0.25, 751, 2, -0.25, 703, 2, -0.25
*EQUATION
5
1092, 3, 1.0, 683, 3, -0.25, 731, 3, -0.25, 751, 3, -0.25, 703, 3, -0.25
*EQUATION
3
1093, 1, 1.0, 703, 1, -0.5, 751, 1, -0.5
*EQUATION
3
1093, 2, 1.0, 703, 2, -0.5, 751, 2, -0.5
*EQUATION
3
1093, 3, 1.0, 703, 3, -0.5, 751, 3, -0.5
*EQUATION
5
1095, 1, 1.0, 703, 1, -0.25, 751, 1, -0.25, 753, 1, -0.25, 705, 1, -0.25
*EQUATION
5
1095, 2, 1.0, 703, 2, -0.25, 751, 2, -0.25, 753, 2, -0.25, 705, 2, -0.25
*EQUATION
5
1095, 3, 1.0, 703, 3, -0.25, 751, 3, -0.25, 753, 3, -0.25, 705, 3, -0.25
*EQUATION
3
1097, 1, 1.0, 705, 1, -0.5, 753, 1, -0.5
*EQUATION
3
1097, 2, 1.0, 705, 2, -0.5, 753, 2, -0.5
*EQUATION
3
1097, 3, 1.0, 705, 3, -0.5, 753, 3, -0.5
*EQUATION
3
1098, 1, 1.0, 731, 1, -0.5, 751, 1, -0.5
*EQUATION
3
1098, 2, 1.0, 731, 2, -0.5, 751, 2, -0.5
*EQUATION
3
1098, 3, 1.0, 731, 3, -0.5, 751, 3, -0.5
*EQUATION
3
1100, 1, 1.0, 751, 1, -0.5, 753, 1, -0.5
*EQUATION
3
1100, 2, 1.0, 751, 2, -0.5, 753, 2, -0.5
*EQUATION
3
1100, 3, 1.0, 751, 3, -0.5, 753, 3, -0.5
*EQUATION
5
1103, 1, 1.0, 705, 1, -0.25, 753, 1, -0.25, 755, 1, -0.25, 707, 1, -0.25
*EQUATION
5
1103, 2, 1.0, 705, 2, -0.25, 753, 2, -0.25, 755, 2, -0.25, 707, 2, -0.25
*EQUATION
5
1103, 3, 1.0, 705, 3, -0.25, 753, 3, -0.25, 755, 3, -0.25, 707, 3, -0.25
*EQUATION
5
1104, 1, 1.0, 690, 1, -0.25, 738, 1, -0.25, 755, 1, -0.25, 707, 1, -0.25
*EQUATION
5
1104, 2, 1.0, 690, 2, -0.25, 738, 2, -0.25, 755, 2, -0.25, 707, 2, -0.25
*EQUATION
5
1104, 3, 1.0, 690, 3, -0.25, 738, 3, -0.25, 755, 3, -0.25, 707, 3, -0.25
*EQUATION
3
1105, 1, 1.0, 707, 1, -0.5, 755, 1, -0.5
*EQUATION
3
1105, 2, 1.0, 707, 2, -0.5, 755, 2, -0.5
*EQUATION
3
1105, 3, 1.0, 707, 3, -0.5, 755, 3, -0.5
*EQUATION
3
1107, 1, 1.0, 753, 1, -0.5, 755, 1, -0.5
*EQUATION
3
1107, 2, 1.0, 753, 2, -0.5, 755, 2, -0.5
*EQUATION
3
1107, 3, 1.0, 753, 3, -0.5, 755, 3, -0.5
*EQUATION
3
1108, 1, 1.0, 738, 1, -0.5, 755, 1, -0.5
*EQUATION
3
1108, 2, 1.0, 738, 2, -0.5, 755, 2, -0.5
*EQUATION
3
1108, 3, 1.0, 738, 3, -0.5, 755, 3, -0.5
*EQUATION
3
1109, 1, 1.0, 729, 1, -0.5, 777, 1, -0.5
*EQUATION
3
1109, 2, 1.0, 729, 2, -0.5, 777, 2, -0.5
*EQUATION
3
1109, 3, 1.0, 729, 3, -0.5, 777, 3, -0.5
*EQUATION
5
1112, 1, 1.0, 729, 1, -0.25, 777, 1, -0.25, 778, 1, -0.25, 730, 1, -0.25
*EQUATION
5
1112, 2, 1.0, 729, 2, -0.25, 777, 2, -0.25, 778, 2, -0.25, 730, 2, -0.25
*EQUATION
5
1112, 3, 1.0, 729, 3, -0.25, 777, 3, -0.25, 778, 3, -0.25, 730, 3, -0.25
*EQUATION
3
1115, 1, 1.0, 730, 1, -0.5, 778, 1, -0.5
*EQUATION
3
1115, 2, 1.0, 730, 2, -0.5, 778, 2, -0.5
*EQUATION
3
1115, 3, 1.0, 730, 3, -0.5, 778, 3, -0.5
*EQUATION
3
1119, 1, 1.0, 777, 1, -0.5, 778, 1, -0.5
*EQUATION
3
1119, 2, 1.0, 777, 2, -0.5, 778, 2, -0.5
*EQUATION
3
1119, 3, 1.0, 777, 3, -0.5, 778, 3, -0.5
*EQUATION
5
1123, 1, 1.0, 730, 1, -0.25, 778, 1, -0.25, 785, 1, -0.25, 737, 1, -0.25
*EQUATION
5
1123, 2, 1.0, 730, 2, -0.25, 778, 2, -0.25, 785, 2, -0.25, 737, 2, -0.25
*EQUATION
5
1123, 3, 1.0, 730, 3, -0.25, 778, 3, -0.25, 785, 3, -0.25, 737, 3, -0.25
*EQUATION
3
1126, 1, 1.0, 737, 1, -0.5, 785, 1, -0.5
*EQUATION
3
1126, 2, 1.0, 737, 2, -0.5, 785, 2, -0.5
*EQUATION
3
1126, 3, 1.0, 737, 3, -0.5, 785, 3, -0.5
*EQUATION
3
1129, 1, 1.0, 778, 1, -0.5, 785, 1, -0.5
*EQUATION
3
1129, 2, 1.0, 778, 2, -0.5, 785, 2, -0.5
*EQUATION
3
1129, 3, 1.0, 778, 3, -0.5, 785, 3, -0.5
*EQUATION
3
1133, 1, 1.0, 748, 1, -0.5, 749, 1, -0.5
*EQUATION
3
1133, 2, 1.0, 748, 2, -0.5, 749, 2, -0.5
*EQUATION
3
1133, 3, 1.0, 748, 3, -0.5, 749, 3, -0.5
*EQUATION
3
1134, 1, 1.0, 731, 1, -0.5, 748, 1, -0.5
*EQUATION
3
1134, 2, 1.0, 731, 2, -0.5, 748, 2, -0.5
*EQUATION
3
1134, 3, 1.0, 731, 3, -0.5, 748, 3, -0.5
*EQUATION
5
1135, 1, 1.0, 748, 1, -0.25, 731, 1, -0.25, 751, 1, -0.25, 749, 1, -0.25
*EQUATION
5
1135, 2, 1.0, 748, 2, -0.25, 731, 2, -0.25, 751, 2, -0.25, 749, 2, -0.25
*EQUATION
5
1135, 3, 1.0, 748, 3, -0.25, 731, 3, -0.25, 751, 3, -0.25, 749, 3, -0.25
*EQUATION
3
1136, 1, 1.0, 749, 1, -0.5, 751, 1, -0.5
*EQUATION
3
1136, 2, 1.0, 749, 2, -0.5, 751, 2, -0.5
*EQUATION
3
1136, 3, 1.0, 749, 3, -0.5, 751, 3, -0.5
*EQUATION
3
1137, 1, 1.0, 748, 1, -0.5, 796, 1, -0.5
*EQUATION
3
1137, 2, 1.0, 748, 2, -0.5, 796, 2, -0.5
*EQUATION
3
1137, 3, 1.0, 748, 3, -0.5, 796, 3, -0.5
*EQUATION
5
1138, 1, 1.0, 748, 1, -0.25, 796, 1, -0.25, 797, 1, -0.25, 749, 1, -0.25
*EQUATION
5
1138, 2, 1.0, 748, 2, -0.25, 796, 2, -0.25, 797, 2, -0.25, 749, 2, -0.25
*EQUATION
5
1138, 3, 1.0, 748, 3, -0.25, 796, 3, -0.25, 797, 3, -0.25, 749, 3, -0.25
*EQUATION
3
1139, 1, 1.0, 749, 1, -0.5, 797, 1, -0.5
*EQUATION
3
1139, 2, 1.0, 749, 2, -0.5, 797, 2, -0.5
*EQUATION
3
1139, 3, 1.0, 749, 3, -0.5, 797, 3, -0.5
*EQUATION
5
1142, 1, 1.0, 749, 1, -0.25, 797, 1, -0.25, 799, 1, -0.25, 751, 1, -0.25
*EQUATION
5
1142, 2, 1.0, 749, 2, -0.25, 797, 2, -0.25, 799, 2, -0.25, 751, 2, -0.25
*EQUATION
5
1142, 3, 1.0, 749, 3, -0.25, 797, 3, -0.25, 799, 3, -0.25, 751, 3, -0.25
*EQUATION
3
1144, 1, 1.0, 751, 1, -0.5, 799, 1, -0.5
*EQUATION
3
1144, 2, 1.0, 751, 2, -0.5, 799, 2, -0.5
*EQUATION
3
1144, 3, 1.0, 751, 3, -0.5, 799, 3, -0.5
*EQUATION
3
1145, 1, 1.0, 796, 1, -0.5, 797, 1, -0.5
*EQUATION
3
1145, 2, 1.0, 796, 2, -0.5, 797, 2, -0.5
*EQUATION
3
1145, 3, 1.0, 796, 3, -0.5, 797, 3, -0.5
*EQUATION
3
1146, 1, 1.0, 779, 1, -0.5, 796, 1, -0.5
*EQUATION
3
1146, 2, 1.0, 779, 2, -0.5, 796, 2, -0.5
*EQUATION
3
1146, 3, 1.0, 779, 3, -0.5, 796, 3, -0.5
*EQUATION
5
1147, 1, 1.0, 796, 1, -0.25, 779, 1, -0.25, 799, 1, -0.25, 797, 1, -0.25
*EQUATION
5
1147, 2, 1.0, 796, 2, -0.25, 779, 2, -0.25, 799, 2, -0.25, 797, 2, -0.25
*EQUATION
5
1147, 3, 1.0, 796, 3, -0.25, 779, 3, -0.25, 799, 3, -0.25, 797, 3, -0.25
*EQUATION
3
1148, 1, 1.0, 797, 1, -0.5, 799, 1, -0.5
*EQUATION
3
1148, 2, 1.0, 797, 2, -0.5, 799, 2, -0.5
*EQUATION
3
1148, 3, 1.0, 797, 3, -0.5, 799, 3, -0.5
*EQUATION
3
1149, 1, 1.0, 779, 1, -0.5, 799, 1, -0.5
*EQUATION
3
1149, 2, 1.0, 779, 2, -0.5, 799, 2, -0.5
*EQUATION
3
1149, 3, 1.0, 779, 3, -0.5, 799, 3, -0.5
*EQUATION
3
1160, 1, 1.0, 755, 1, -0.5, 803, 1, -0.5
*EQUATION
3
1160, 2, 1.0, 755, 2, -0.5, 803, 2, -0.5
*EQUATION
3
1160, 3, 1.0, 755, 3, -0.5, 803, 3, -0.5
*EQUATION
3
1163, 1, 1.0, 786, 1, -0.5, 803, 1, -0.5
*EQUATION
3
1163, 2, 1.0, 786, 2, -0.5, 803, 2, -0.5
*EQUATION
3
1163, 3, 1.0, 786, 3, -0.5, 803, 3, -0.5
*EQUATION
3
1164, 1, 1.0, 738, 1, -0.5, 757, 1, -0.5
*EQUATION
3
1164, 2, 1.0, 738, 2, -0.5, 757, 2, -0.5
*EQUATION
3
1164, 3, 1.0, 738, 3, -0.5, 757, 3, -0.5
*EQUATION
5
1165, 1, 1.0, 738, 1, -0.25, 757, 1, -0.25, 758, 1, -0.25, 755, 1, -0.25
*EQUATION
5
1165, 2, 1.0, 738, 2, -0.25, 757, 2, -0.25, 758, 2, -0.25, 755, 2, -0.25
*EQUATION
5
1165, 3, 1.0, 738, 3, -0.25, 757, 3, -0.25, 758, 3, -0.25, 755, 3, -0.25
*EQUATION
3
1166, 1, 1.0, 755, 1, -0.5, 758, 1, -0.5
*EQUATION
3
1166, 2, 1.0, 755, 2, -0.5, 758, 2, -0.5
*EQUATION
3
1166, 3, 1.0, 755, 3, -0.5, 758, 3, -0.5
*EQUATION
3
1167, 1, 1.0, 757, 1, -0.5, 758, 1, -0.5
*EQUATION
3
1167, 2, 1.0, 757, 2, -0.5, 758, 2, -0.5
*EQUATION
3
1167, 3, 1.0, 757, 3, -0.5, 758, 3, -0.5
*EQUATION
5
1170, 1, 1.0, 755, 1, -0.25, 803, 1, -0.25, 806, 1, -0.25, 758, 1, -0.25
*EQUATION
5
1170, 2, 1.0, 755, 2, -0.25, 803, 2, -0.25, 806, 2, -0.25, 758, 2, -0.25
*EQUATION
5
1170, 3, 1.0, 755, 3, -0.25, 803, 3, -0.25, 806, 3, -0.25, 758, 3, -0.25
*EQUATION
3
1171, 1, 1.0, 757, 1, -0.5, 805, 1, -0.5
*EQUATION
3
1171, 2, 1.0, 757, 2, -0.5, 805, 2, -0.5
*EQUATION
3
1171, 3, 1.0, 757, 3, -0.5, 805, 3, -0.5
*EQUATION
5
1172, 1, 1.0, 757, 1, -0.25, 805, 1, -0.25, 806, 1, -0.25, 758, 1, -0.25
*EQUATION
5
1172, 2, 1.0, 757, 2, -0.25, 805, 2, -0.25, 806, 2, -0.25, 758, 2, -0.25
*EQUATION
5
1172, 3, 1.0, 757, 3, -0.25, 805, 3, -0.25, 806, 3, -0.25, 758, 3, -0.25
*EQUATION
3
1173, 1, 1.0, 758, 1, -0.5, 806, 1, -0.5
*EQUATION
3
1173, 2, 1.0, 758, 2, -0.5, 806, 2, -0.5
*EQUATION
3
1173, 3, 1.0, 758, 3, -0.5, 806, 3, -0.5
*EQUATION
3
1174, 1, 1.0, 786, 1, -0.5, 805, 1, -0.5
*EQUATION
3
1174, 2, 1.0, 786, 2, -0.5, 805, 2, -0.5
*EQUATION
3
1174, 3, 1.0, 786, 3, -0.5, 805, 3, -0.5
*EQUATION
5
1175, 1, 1.0, 786, 1, -0.25, 805, 1, -0.25, 806, 1, -0.25, 803, 1, -0.25
*EQUATION
5
1175, 2, 1.0, 786, 2, -0.25, 805, 2, -0.25, 806, 2, -0.25, 803, 2, -0.25
*EQUATION
5
1175, 3, 1.0, 786, 3, -0.25, 805, 3, -0.25, 806, 3, -0.25, 803, 3, -0.25
*EQUATION
3
1176, 1, 1.0, 803, 1, -0.5, 806, 1, -0.5
*EQUATION
3
1176, 2, 1.0, 803, 2, -0.5, 806, 2, -0.5
*EQUATION
3
1176, 3, 1.0, 803, 3, -0.5, 806, 3, -0.5
*EQUATION
3
1177, 1, 1.0, 805, 1, -0.5, 806, 1, -0.5
*EQUATION
3
1177, 2, 1.0, 805, 2, -0.5, 806, 2, -0.5
*EQUATION
3
1177, 3, 1.0, 805, 3, -0.5, 806, 3, -0.5
*EQUATION
3
1178, 1, 1.0, 777, 1, -0.5, 825, 1, -0.5
*EQUATION
3
1178, 2, 1.0, 777, 2, -0.5, 825, 2, -0.5
*EQUATION
3
1178, 3, 1.0, 777, 3, -0.5, 825, 3, -0.5
*EQUATION
3
1180, 1, 1.0, 779, 1, -0.5, 827, 1, -0.5
*EQUATION
3
1180, 2, 1.0, 779, 2, -0.5, 827, 2, -0.5
*EQUATION
3
1180, 3, 1.0, 779, 3, -0.5, 827, 3, -0.5
*EQUATION
5
1181, 1, 1.0, 777, 1, -0.25, 825, 1, -0.25, 826, 1, -0.25, 778, 1, -0.25
*EQUATION
5
1181, 2, 1.0, 777, 2, -0.25, 825, 2, -0.25, 826, 2, -0.25, 778, 2, -0.25
*EQUATION
5
1181, 3, 1.0, 777, 3, -0.25, 825, 3, -0.25, 826, 3, -0.25, 778, 3, -0.25
*EQUATION
3
1184, 1, 1.0, 778, 1, -0.5, 826, 1, -0.5
*EQUATION
3
1184, 2, 1.0, 778, 2, -0.5, 826, 2, -0.5
*EQUATION
3
1184, 3, 1.0, 778, 3, -0.5, 826, 3, -0.5
*EQUATION
3
1188, 1, 1.0, 825, 1, -0.5, 826, 1, -0.5
*EQUATION
3
1188, 2, 1.0, 825, 2, -0.5, 826, 2, -0.5
*EQUATION
3
1188, 3, 1.0, 825, 3, -0.5, 826, 3, -0.5
*EQUATION
5
1192, 1, 1.0, 778, 1, -0.25, 826, 1, -0.25, 833, 1, -0.25, 785, 1, -0.25
*EQUATION
5
1192, 2, 1.0, 778, 2, -0.25, 826, 2, -0.25, 833, 2, -0.25, 785, 2, -0.25
*EQUATION
5
1192, 3, 1.0, 778, 3, -0.25, 826, 3, -0.25, 833, 3, -0.25, 785, 3, -0.25
*EQUATION
3
1195, 1, 1.0, 785, 1, -0.5, 833, 1, -0.5
*EQUATION
3
1195, 2, 1.0, 785, 2, -0.5, 833, 2, -0.5
*EQUATION
3
1195, 3, 1.0, 785, 3, -0.5, 833, 3, -0.5
*EQUATION
3
1197, 1, 1.0, 786, 1, -0.5, 834, 1, -0.5
*EQUATION
3
1197, 2, 1.0, 786, 2, -0.5, 834, 2, -0.5
*EQUATION
3
1197, 3, 1.0, 786, 3, -0.5, 834, 3, -0.5
*EQUATION
3
1198, 1, 1.0, 826, 1, -0.5, 833, 1, -0.5
*EQUATION
3
1198, 2, 1.0, 826, 2, -0.5, 833, 2, -0.5
*EQUATION
3
1198, 3, 1.0, 826, 3, -0.5, 833, 3, -0.5
*EQUATION
5
1202, 1, 1.0, 779, 1, -0.25, 827, 1, -0.25, 847, 1, -0.25, 799, 1, -0.25
*EQUATION
5
1202, 2, 1.0, 779, 2, -0.25, 827, 2, -0.25, 847, 2, -0.25, 799, 2, -0.25
*EQUATION
5
1202, 3, 1.0, 779, 3, -0.25, 827, 3, -0.25, 847, 3, -0.25, 799, 3, -0.25
*EQUATION
3
1203, 1, 1.0, 799, 1, -0.5, 847, 1, -0.5
*EQUATION
3
1203, 2, 1.0, 799, 2, -0.5, 847, 2, -0.5
*EQUATION
3
1203, 3, 1.0, 799, 3, -0.5, 847, 3, -0.5
*EQUATION
3
1208, 1, 1.0, 827, 1, -0.5, 847, 1, -0.5
*EQUATION
3
1208, 2, 1.0, 827, 2, -0.5, 847, 2, -0.5
*EQUATION
3
1208, 3, 1.0, 827, 3, -0.5, 847, 3, -0.5
*EQUATION
3
1210, 1, 1.0, 847, 1, -0.5, 849, 1, -0.5
*EQUATION
3
1210, 2, 1.0, 847, 2, -0.5, 849, 2, -0.5
*EQUATION
3
1210, 3, 1.0, 847, 3, -0.5, 849, 3, -0.5
*EQUATION
5
1214, 1, 1.0, 786, 1, -0.25, 834, 1, -0.25, 851, 1, -0.25, 803, 1, -0.25
*EQUATION
5
1214, 2, 1.0, 786, 2, -0.25, 834, 2, -0.25, 851, 2, -0.25, 803, 2, -0.25
*EQUATION
5
1214, 3, 1.0, 786, 3, -0.25, 834, 3, -0.25, 851, 3, -0.25, 803, 3, -0.25
*EQUATION
3
1215, 1, 1.0, 803, 1, -0.5, 851, 1, -0.5
*EQUATION
3
1215, 2, 1.0, 803, 2, -0.5, 851, 2, -0.5
*EQUATION
3
1215, 3, 1.0, 803, 3, -0.5, 851, 3, -0.5
*EQUATION
3
1217, 1, 1.0, 849, 1, -0.5, 851, 1, -0.5
*EQUATION
3
1217, 2, 1.0, 849, 2, -0.5, 851, 2, -0.5
*EQUATION
3
1217, 3, 1.0, 849, 3, -0.5, 851, 3, -0.5
*EQUATION
3
1218, 1, 1.0, 834, 1, -0.5, 851, 1, -0.5
*EQUATION
3
1218, 2, 1.0, 834, 2, -0.5, 851, 2, -0.5
*EQUATION
3
1218, 3, 1.0, 834, 3, -0.5, 851, 3, -0.5
*EQUATION
3
1219, 1, 1.0, 825, 1, -0.5, 873, 1, -0.5
*EQUATION
3
1219, 2, 1.0, 825, 2, -0.5, 873, 2, -0.5
*EQUATION
3
1219, 3, 1.0, 825, 3, -0.5, 873, 3, -0.5
*EQUATION
3
1221, 1, 1.0, 827, 1, -0.5, 875, 1, -0.5
*EQUATION
3
1221, 2, 1.0, 827, 2, -0.5, 875, 2, -0.5
*EQUATION
3
1221, 3, 1.0, 827, 3, -0.5, 875, 3, -0.5
*EQUATION
5
1222, 1, 1.0, 825, 1, -0.25, 873, 1, -0.25, 874, 1, -0.25, 826, 1, -0.25
*EQUATION
5
1222, 2, 1.0, 825, 2, -0.25, 873, 2, -0.25, 874, 2, -0.25, 826, 2, -0.25
*EQUATION
5
1222, 3, 1.0, 825, 3, -0.25, 873, 3, -0.25, 874, 3, -0.25, 826, 3, -0.25
*EQUATION
3
1225, 1, 1.0, 826, 1, -0.5, 874, 1, -0.5
*EQUATION
3
1225, 2, 1.0, 826, 2, -0.5, 874, 2, -0.5
*EQUATION
3
1225, 3, 1.0, 826, 3, -0.5, 874, 3, -0.5
*EQUATION
3
1229, 1, 1.0, 873, 1, -0.5, 874, 1, -0.5
*EQUATION
3
1229, 2, 1.0, 873, 2, -0.5, 874, 2, -0.5
*EQUATION
3
1229, 3, 1.0, 873, 3, -0.5, 874, 3, -0.5
*EQUATION
5
1233, 1, 1.0, 826, 1, -0.25, 874, 1, -0.25, 881, 1, -0.25, 833, 1, -0.25
*EQUATION
5
1233, 2, 1.0, 826, 2, -0.25, 874, 2, -0.25, 881, 2, -0.25, 833, 2, -0.25
*EQUATION
5
1233, 3, 1.0, 826, 3, -0.25, 874, 3, -0.25, 881, 3, -0.25, 833, 3, -0.25
*EQUATION
3
1236, 1, 1.0, 833, 1, -0.5, 881, 1, -0.5
*EQUATION
3
1236, 2, 1.0, 833, 2, -0.5, 881, 2, -0.5
*EQUATION
3
1236, 3, 1.0, 833, 3, -0.5, 881, 3, -0.5
*EQUATION
3
1238, 1, 1.0, 834, 1, -0.5, 882, 1, -0.5
*EQUATION
3
1238, 2, 1.0, 834, 2, -0.5, 882, 2, -0.5
*EQUATION
3
1238, 3, 1.0, 834, 3, -0.5, 882, 3, -0.5
*EQUATION
3
1239, 1, 1.0, 874, 1, -0.5, 881, 1, -0.5
*EQUATION
3
1239, 2, 1.0, 874, 2, -0.5, 881, 2, -0.5
*EQUATION
3
1239, 3, 1.0, 874, 3, -0.5, 881, 3, -0.5
*EQUATION
5
1243, 1, 1.0, 827, 1, -0.25, 875, 1, -0.25, 895, 1, -0.25, 847, 1, -0.25
*EQUATION
5
1243, 2, 1.0, 827, 2, -0.25, 875, 2, -0.25, 895, 2, -0.25, 847, 2, -0.25
*EQUATION
5
1243, 3, 1.0, 827, 3, -0.25, 875, 3, -0.25, 895, 3, -0.25, 847, 3, -0.25
*EQUATION
3
1244, 1, 1.0, 847, 1, -0.5, 895, 1, -0.5
*EQUATION
3
1244, 2, 1.0, 847, 2, -0.5, 895, 2, -0.5
*EQUATION
3
1244, 3, 1.0, 847, 3, -0.5, 895, 3, -0.5
*EQUATION
5
1246, 1, 1.0, 847, 1, -0.25, 895, 1, -0.25, 897, 1, -0.25, 849, 1, -0.25
*EQUATION
5
1246, 2, 1.0, 847, 2, -0.25, 895, 2, -0.25, 897, 2, -0.25, 849, 2, -0.25
*EQUATION
5
1246, 3, 1.0, 847, 3, -0.25, 895, 3, -0.25, 897, 3, -0.25, 849, 3, -0.25
*EQUATION
3
1248, 1, 1.0, 849, 1, -0.5, 897, 1, -0.5
*EQUATION
3
1248, 2, 1.0, 849, 2, -0.5, 897, 2, -0.5
*EQUATION
3
1248, 3, 1.0, 849, 3, -0.5, 897, 3, -0.5
*EQUATION
3
1249, 1, 1.0, 875, 1, -0.5, 895, 1, -0.5
*EQUATION
3
1249, 2, 1.0, 875, 2, -0.5, 895, 2, -0.5
*EQUATION
3
1249, 3, 1.0, 875, 3, -0.5, 895, 3, -0.5
*EQUATION
3
1251, 1, 1.0, 895, 1, -0.5, 897, 1, -0.5
*EQUATION
3
1251, 2, 1.0, 895, 2, -0.5, 897, 2, -0.5
*EQUATION
3
1251, 3, 1.0, 895, 3, -0.5, 897, 3, -0.5
*EQUATION
5
1254, 1, 1.0, 849, 1, -0.25, 897, 1, -0.25, 899, 1, -0.25, 851, 1, -0.25
*EQUATION
5
1254, 2, 1.0, 849, 2, -0.25, 897, 2, -0.25, 899, 2, -0.25, 851, 2, -0.25
*EQUATION
5
1254, 3, 1.0, 849, 3, -0.25, 897, 3, -0.25, 899, 3, -0.25, 851, 3, -0.25
*EQUATION
5
1255, 1, 1.0, 834, 1, -0.25, 882, 1, -0.25, 899, 1, -0.25, 851, 1, -0.25
*EQUATION
5
1255, 2, 1.0, 834, 2, -0.25, 882, 2, -0.25, 899, 2, -0.25, 851, 2, -0.25
*EQUATION
5
1255, 3, 1.0, 834, 3, -0.25, 882, 3, -0.25, 899, 3, -0.25, 851, 3, -0.25
*EQUATION
3
1256, 1, 1.0, 851, 1, -0.5, 899, 1, -0.5
*EQUATION
3
1256, 2, 1.0, 851, 2, -0.5, 899, 2, -0.5
*EQUATION
3
1256, 3, 1.0, 851, 3, -0.5, 899, 3, -0.5
*EQUATION
3
1258, 1, 1.0, 897, 1, -0.5, 899, 1, -0.5
*EQUATION
3
1258, 2, 1.0, 897, 2, -0.5, 899, 2, -0.5
*EQUATION
3
1258, 3, 1.0, 897, 3, -0.5, 899, 3, -0.5
*EQUATION
3
1259, 1, 1.0, 882, 1, -0.5, 899, 1, -0.5
*EQUATION
3
1259, 2, 1.0, 882, 2, -0.5, 899, 2, -0.5
*EQUATION
3
1259, 3, 1.0, 882, 3, -0.5, 899, 3, -0.5
*EQUATION
3
1274, 1, 1.0, 38, 1, -0.5, 42, 1, -0.5
*EQUATION
3
1274, 2, 1.0, 38, 2, -0.5, 42, 2, -0.5
*EQUATION
3
1274, 3, 1.0, 38, 3, -0.5, 42, 3, -0.5
*EQUATION
3
1275, 1, 1.0, 38, 1, -0.5, 39, 1, -0.5
*EQUATION
3
1275, 2, 1.0, 38, 2, -0.5, 39, 2, -0.5
*EQUATION
3
1275, 3, 1.0, 38, 3, -0.5, 39, 3, -0.5
*EQUATION
5
1276, 1, 1.0, 38, 1, -0.25, 39, 1, -0.25, 43, 1, -0.25, 42, 1, -0.25
*EQUATION
5
1276, 2, 1.0, 38, 2, -0.25, 39, 2, -0.25, 43, 2, -0.25, 42, 2, -0.25
*EQUATION
5
1276, 3, 1.0, 38, 3, -0.25, 39, 3, -0.25, 43, 3, -0.25, 42, 3, -0.25
*EQUATION
3
1277, 1, 1.0, 42, 1, -0.5, 43, 1, -0.5
*EQUATION
3
1277, 2, 1.0, 42, 2, -0.5, 43, 2, -0.5
*EQUATION
3
1277, 3, 1.0, 42, 3, -0.5, 43, 3, -0.5
*EQUATION
3
1278, 1, 1.0, 39, 1, -0.5, 43, 1, -0.5
*EQUATION
3
1278, 2, 1.0, 39, 2, -0.5, 43, 2, -0.5
*EQUATION
3
1278, 3, 1.0, 39, 3, -0.5, 43, 3, -0.5
*EQUATION
3
1289, 1, 1.0, 42, 1, -0.5, 46, 1, -0.5
*EQUATION
3
1289, 2, 1.0, 42, 2, -0.5, 46, 2, -0.5
*EQUATION
3
1289, 3, 1.0, 42, 3, -0.5, 46, 3, -0.5
*EQUATION
5
1290, 1, 1.0, 42, 1, -0.25, 43, 1, -0.25, 47, 1, -0.25, 46, 1, -0.25
*EQUATION
5
1290, 2, 1.0, 42, 2, -0.25, 43, 2, -0.25, 47, 2, -0.25, 46, 2, -0.25
*EQUATION
5
1290, 3, 1.0, 42, 3, -0.25, 43, 3, -0.25, 47, 3, -0.25, 46, 3, -0.25
*EQUATION
3
1291, 1, 1.0, 46, 1, -0.5, 47, 1, -0.5
*EQUATION
3
1291, 2, 1.0, 46, 2, -0.5, 47, 2, -0.5
*EQUATION
3
1291, 3, 1.0, 46, 3, -0.5, 47, 3, -0.5
*EQUATION
3
1292, 1, 1.0, 43, 1, -0.5, 47, 1, -0.5
*EQUATION
3
1292, 2, 1.0, 43, 2, -0.5, 47, 2, -0.5
*EQUATION
3
1292, 3, 1.0, 43, 3, -0.5, 47, 3, -0.5
*EQUATION
3
1303, 1, 1.0, 39, 1, -0.5, 49, 1, -0.5
*EQUATION
3
1303, 2, 1.0, 39, 2, -0.5, 49, 2, -0.5
*EQUATION
3
1303, 3, 1.0, 39, 3, -0.5, 49, 3, -0.5
*EQUATION
5
1304, 1, 1.0, 39, 1, -0.25, 49, 1, -0.25, 51, 1, -0.25, 43, 1, -0.25
*EQUATION
5
1304, 2, 1.0, 39, 2, -0.25, 49, 2, -0.25, 51, 2, -0.25, 43, 2, -0.25
*EQUATION
5
1304, 3, 1.0, 39, 3, -0.25, 49, 3, -0.25, 51, 3, -0.25, 43, 3, -0.25
*EQUATION
3
1305, 1, 1.0, 43, 1, -0.5, 51, 1, -0.5
*EQUATION
3
1305, 2, 1.0, 43, 2, -0.5, 51, 2, -0.5
*EQUATION
3
1305, 3, 1.0, 43, 3, -0.5, 51, 3, -0.5
*EQUATION
3
1306, 1, 1.0, 49, 1, -0.5, 51, 1, -0.5
*EQUATION
3
1306, 2, 1.0, 49, 2, -0.5, 51, 2, -0.5
*EQUATION
3
1306, 3, 1.0, 49, 3, -0.5, 51, 3, -0.5
*EQUATION
5
1314, 1, 1.0, 43, 1, -0.25, 51, 1, -0.25, 53, 1, -0.25, 47, 1, -0.25
*EQUATION
5
1314, 2, 1.0, 43, 2, -0.25, 51, 2, -0.25, 53, 2, -0.25, 47, 2, -0.25
*EQUATION
5
1314, 3, 1.0, 43, 3, -0.25, 51, 3, -0.25, 53, 3, -0.25, 47, 3, -0.25
*EQUATION
3
1315, 1, 1.0, 47, 1, -0.5, 53, 1, -0.5
*EQUATION
3
1315, 2, 1.0, 47, 2, -0.5, 53, 2, -0.5
*EQUATION
3
1315, 3, 1.0, 47, 3, -0.5, 53, 3, -0.5
*EQUATION
3
1316, 1, 1.0, 51, 1, -0.5, 53, 1, -0.5
*EQUATION
3
1316, 2, 1.0, 51, 2, -0.5, 53, 2, -0.5
*EQUATION
3
1316, 3, 1.0, 51, 3, -0.5, 53, 3, -0.5
*EQUATION
3
1327, 1, 1.0, 49, 1, -0.5, 55, 1, -0.5
*EQUATION
3
1327, 2, 1.0, 49, 2, -0.5, 55, 2, -0.5
*EQUATION
3
1327, 3, 1.0, 49, 3, -0.5, 55, 3, -0.5
*EQUATION
5
1328, 1, 1.0, 49, 1, -0.25, 55, 1, -0.25, 57, 1, -0.25, 51, 1, -0.25
*EQUATION
5
1328, 2, 1.0, 49, 2, -0.25, 55, 2, -0.25, 57, 2, -0.25, 51, 2, -0.25
*EQUATION
5
1328, 3, 1.0, 49, 3, -0.25, 55, 3, -0.25, 57, 3, -0.25, 51, 3, -0.25
*EQUATION
3
1329, 1, 1.0, 51, 1, -0.5, 57, 1, -0.5
*EQUATION
3
1329, 2, 1.0, 51, 2, -0.5, 57, 2, -0.5
*EQUATION
3
1329, 3, 1.0, 51, 3, -0.5, 57, 3, -0.5
*EQUATION
3
1330, 1, 1.0, 55, 1, -0.5, 57, 1, -0.5
*EQUATION
3
1330, 2, 1.0, 55, 2, -0.5, 57, 2, -0.5
*EQUATION
3
1330, 3, 1.0, 55, 3, -0.5, 57, 3, -0.5
*EQUATION
5
1338, 1, 1.0, 51, 1, -0.25, 57, 1, -0.25, 59, 1, -0.25, 53, 1, -0.25
*EQUATION
5
1338, 2, 1.0, 51, 2, -0.25, 57, 2, -0.25, 59, 2, -0.25, 53, 2, -0.25
*EQUATION
5
1338, 3, 1.0, 51, 3, -0.25, 57, 3, -0.25, 59, 3, -0.25, 53, 3, -0.25
*EQUATION
3
1339, 1, 1.0, 53, 1, -0.5, 59, 1, -0.5
*EQUATION
3
1339, 2, 1.0, 53, 2, -0.5, 59, 2, -0.5
*EQUATION
3
1339, 3, 1.0, 53, 3, -0.5, 59, 3, -0.5
*EQUATION
3
1340, 1, 1.0, 57, 1, -0.5, 59, 1, -0.5
*EQUATION
3
1340, 2, 1.0, 57, 2, -0.5, 59, 2, -0.5
*EQUATION
3
1340, 3, 1.0, 57, 3, -0.5, 59, 3, -0.5
*EQUATION
3
1348, 1, 1.0, 21, 1, -0.5, 22, 1, -0.5
*EQUATION
3
1348, 2, 1.0, 21, 2, -0.5, 22, 2, -0.5
*EQUATION
3
1348, 3, 1.0, 21, 3, -0.5, 22, 3, -0.5
*EQUATION
5
1349, 1, 1.0, 21, 1, -0.25, 22, 1, -0.25, 61, 1, -0.25, 62, 1, -0.25
*EQUATION
5
1349, 2, 1.0, 21, 2, -0.25, 22, 2, -0.25, 61, 2, -0.25, 62, 2, -0.25
*EQUATION
5
1349, 3, 1.0, 21, 3, -0.25, 22, 3, -0.25, 61, 3, -0.25, 62, 3, -0.25
*EQUATION
3
1350, 1, 1.0, 61, 1, -0.5, 62, 1, -0.5
*EQUATION
3
1350, 2, 1.0, 61, 2, -0.5, 62, 2, -0.5
*EQUATION
3
1350, 3, 1.0, 61, 3, -0.5, 62, 3, -0.5
*EQUATION
3
1353, 1, 1.0, 57, 1, -0.5, 61, 1, -0.5
*EQUATION
3
1353, 2, 1.0, 57, 2, -0.5, 61, 2, -0.5
*EQUATION
3
1353, 3, 1.0, 57, 3, -0.5, 61, 3, -0.5
*EQUATION
3
1354, 1, 1.0, 22, 1, -0.5, 61, 1, -0.5
*EQUATION
3
1354, 2, 1.0, 22, 2, -0.5, 61, 2, -0.5
*EQUATION
3
1354, 3, 1.0, 22, 3, -0.5, 61, 3, -0.5
*EQUATION
5
1360, 1, 1.0, 62, 1, -0.25, 61, 1, -0.25, 63, 1, -0.25, 64, 1, -0.25
*EQUATION
5
1360, 2, 1.0, 62, 2, -0.25, 61, 2, -0.25, 63, 2, -0.25, 64, 2, -0.25
*EQUATION
5
1360, 3, 1.0, 62, 3, -0.25, 61, 3, -0.25, 63, 3, -0.25, 64, 3, -0.25
*EQUATION
3
1361, 1, 1.0, 63, 1, -0.5, 64, 1, -0.5
*EQUATION
3
1361, 2, 1.0, 63, 2, -0.5, 64, 2, -0.5
*EQUATION
3
1361, 3, 1.0, 63, 3, -0.5, 64, 3, -0.5
*EQUATION
5
1362, 1, 1.0, 57, 1, -0.25, 61, 1, -0.25, 63, 1, -0.25, 59, 1, -0.25
*EQUATION
5
1362, 2, 1.0, 57, 2, -0.25, 61, 2, -0.25, 63, 2, -0.25, 59, 2, -0.25
*EQUATION
5
1362, 3, 1.0, 57, 3, -0.25, 61, 3, -0.25, 63, 3, -0.25, 59, 3, -0.25
*EQUATION
3
1363, 1, 1.0, 59, 1, -0.5, 63, 1, -0.5
*EQUATION
3
1363, 2, 1.0, 59, 2, -0.5, 63, 2, -0.5
*EQUATION
3
1363, 3, 1.0, 59, 3, -0.5, 63, 3, -0.5
*EQUATION
3
1364, 1, 1.0, 61, 1, -0.5, 63, 1, -0.5
*EQUATION
3
1364, 2, 1.0, 61, 2, -0.5, 63, 2, -0.5
*EQUATION
3
1364, 3, 1.0, 61, 3, -0.5, 63, 3, -0.5
*EQUATION
3
1370, 1, 1.0, 35, 1, -0.5, 36, 1, -0.5
*EQUATION
3
1370, 2, 1.0, 35, 2, -0.5, 36, 2, -0.5
*EQUATION
3
1370, 3, 1.0, 35, 3, -0.5, 36, 3, -0.5
*EQUATION
5
1371, 1, 1.0, 36, 1, -0.25, 35, 1, -0.25, 69, 1, -0.25, 70, 1, -0.25
*EQUATION
5
1371, 2, 1.0, 36, 2, -0.25, 35, 2, -0.25, 69, 2, -0.25, 70, 2, -0.25
*EQUATION
5
1371, 3, 1.0, 36, 3, -0.25, 35, 3, -0.25, 69, 3, -0.25, 70, 3, -0.25
*EQUATION
3
1372, 1, 1.0, 69, 1, -0.5, 70, 1, -0.5
*EQUATION
3
1372, 2, 1.0, 69, 2, -0.5, 70, 2, -0.5
*EQUATION
3
1372, 3, 1.0, 69, 3, -0.5, 70, 3, -0.5
*EQUATION
3
1379, 1, 1.0, 35, 1, -0.5, 69, 1, -0.5
*EQUATION
3
1379, 2, 1.0, 35, 2, -0.5, 69, 2, -0.5
*EQUATION
3
1379, 3, 1.0, 35, 3, -0.5, 69, 3, -0.5
*EQUATION
3
1382, 1, 1.0, 69, 1, -0.5, 75, 1, -0.5
*EQUATION
3
1382, 2, 1.0, 69, 2, -0.5, 75, 2, -0.5
*EQUATION
3
1382, 3, 1.0, 69, 3, -0.5, 75, 3, -0.5
*EQUATION
3
1383, 1, 1.0, 73, 1, -0.5, 75, 1, -0.5
*EQUATION
3
1383, 2, 1.0, 73, 2, -0.5, 75, 2, -0.5
*EQUATION
3
1383, 3, 1.0, 73, 3, -0.5, 75, 3, -0.5
*EQUATION
5
1388, 1, 1.0, 70, 1, -0.25, 69, 1, -0.25, 71, 1, -0.25, 72, 1, -0.25
*EQUATION
5
1388, 2, 1.0, 70, 2, -0.25, 69, 2, -0.25, 71, 2, -0.25, 72, 2, -0.25
*EQUATION
5
1388, 3, 1.0, 70, 3, -0.25, 69, 3, -0.25, 71, 3, -0.25, 72, 3, -0.25
*EQUATION
3
1389, 1, 1.0, 71, 1, -0.5, 72, 1, -0.5
*EQUATION
3
1389, 2, 1.0, 71, 2, -0.5, 72, 2, -0.5
*EQUATION
3
1389, 3, 1.0, 71, 3, -0.5, 72, 3, -0.5
*EQUATION
3
1394, 1, 1.0, 69, 1, -0.5, 71, 1, -0.5
*EQUATION
3
1394, 2, 1.0, 69, 2, -0.5, 71, 2, -0.5
*EQUATION
3
1394, 3, 1.0, 69, 3, -0.5, 71, 3, -0.5
*EQUATION
5
1395, 1, 1.0, 69, 1, -0.25, 75, 1, -0.25, 77, 1, -0.25, 71, 1, -0.25
*EQUATION
5
1395, 2, 1.0, 69, 2, -0.25, 75, 2, -0.25, 77, 2, -0.25, 71, 2, -0.25
*EQUATION
5
1395, 3, 1.0, 69, 3, -0.25, 75, 3, -0.25, 77, 3, -0.25, 71, 3, -0.25
*EQUATION
3
1396, 1, 1.0, 71, 1, -0.5, 77, 1, -0.5
*EQUATION
3
1396, 2, 1.0, 71, 2, -0.5, 77, 2, -0.5
*EQUATION
3
1396, 3, 1.0, 71, 3, -0.5, 77, 3, -0.5
*EQUATION
3
1397, 1, 1.0, 75, 1, -0.5, 77, 1, -0.5
*EQUATION
3
1397, 2, 1.0, 75, 2, -0.5, 77, 2, -0.5
*EQUATION
3
1397, 3, 1.0, 75, 3, -0.5, 77, 3, -0.5
*EQUATION
3
1408, 1, 1.0, 73, 1, -0.5, 79, 1, -0.5
*EQUATION
3
1408, 2, 1.0, 73, 2, -0.5, 79, 2, -0.5
*EQUATION
3
1408, 3, 1.0, 73, 3, -0.5, 79, 3, -0.5
*EQUATION
5
1409, 1, 1.0, 73, 1, -0.25, 79, 1, -0.25, 81, 1, -0.25, 75, 1, -0.25
*EQUATION
5
1409, 2, 1.0, 73, 2, -0.25, 79, 2, -0.25, 81, 2, -0.25, 75, 2, -0.25
*EQUATION
5
1409, 3, 1.0, 73, 3, -0.25, 79, 3, -0.25, 81, 3, -0.25, 75, 3, -0.25
*EQUATION
3
1410, 1, 1.0, 75, 1, -0.5, 81, 1, -0.5
*EQUATION
3
1410, 2, 1.0, 75, 2, -0.5, 81, 2, -0.5
*EQUATION
3
1410, 3, 1.0, 75, 3, -0.5, 81, 3, -0.5
*EQUATION
3
1411, 1, 1.0, 79, 1, -0.5, 81, 1, -0.5
*EQUATION
3
1411, 2, 1.0, 79, 2, -0.5, 81, 2, -0.5
*EQUATION
3
1411, 3, 1.0, 79, 3, -0.5, 81, 3, -0.5
*EQUATION
5
1419, 1, 1.0, 75, 1, -0.25, 81, 1, -0.25, 83, 1, -0.25, 77, 1, -0.25
*EQUATION
5
1419, 2, 1.0, 75, 2, -0.25, 81, 2, -0.25, 83, 2, -0.25, 77, 2, -0.25
*EQUATION
5
1419, 3, 1.0, 75, 3, -0.25, 81, 3, -0.25, 83, 3, -0.25, 77, 3, -0.25
*EQUATION
3
1420, 1, 1.0, 77, 1, -0.5, 83, 1, -0.5
*EQUATION
3
1420, 2, 1.0, 77, 2, -0.5, 83, 2, -0.5
*EQUATION
3
1420, 3, 1.0, 77, 3, -0.5, 83, 3, -0.5
*EQUATION
3
1421, 1, 1.0, 81, 1, -0.5, 83, 1, -0.5
*EQUATION
3
1421, 2, 1.0, 81, 2, -0.5, 83, 2, -0.5
*EQUATION
3
1421, 3, 1.0, 81, 3, -0.5, 83, 3, -0.5
*EQUATION
3
1432, 1, 1.0, 79, 1, -0.5, 85, 1, -0.5
*EQUATION
3
1432, 2, 1.0, 79, 2, -0.5, 85, 2, -0.5
*EQUATION
3
1432, 3, 1.0, 79, 3, -0.5, 85, 3, -0.5
*EQUATION
5
1433, 1, 1.0, 79, 1, -0.25, 85, 1, -0.25, 87, 1, -0.25, 81, 1, -0.25
*EQUATION
5
1433, 2, 1.0, 79, 2, -0.25, 85, 2, -0.25, 87, 2, -0.25, 81, 2, -0.25
*EQUATION
5
1433, 3, 1.0, 79, 3, -0.25, 85, 3, -0.25, 87, 3, -0.25, 81, 3, -0.25
*EQUATION
3
1434, 1, 1.0, 81, 1, -0.5, 87, 1, -0.5
*EQUATION
3
1434, 2, 1.0, 81, 2, -0.5, 87, 2, -0.5
*EQUATION
3
1434, 3, 1.0, 81, 3, -0.5, 87, 3, -0.5
*EQUATION
3
1435, 1, 1.0, 85, 1, -0.5, 87, 1, -0.5
*EQUATION
3
1435, 2, 1.0, 85, 2, -0.5, 87, 2, -0.5
*EQUATION
3
1435, 3, 1.0, 85, 3, -0.5, 87, 3, -0.5
*EQUATION
5
1443, 1, 1.0, 81, 1, -0.25, 87, 1, -0.25, 89, 1, -0.25, 83, 1, -0.25
*EQUATION
5
1443, 2, 1.0, 81, 2, -0.25, 87, 2, -0.25, 89, 2, -0.25, 83, 2, -0.25
*EQUATION
5
1443, 3, 1.0, 81, 3, -0.25, 87, 3, -0.25, 89, 3, -0.25, 83, 3, -0.25
*EQUATION
3
1444, 1, 1.0, 83, 1, -0.5, 89, 1, -0.5
*EQUATION
3
1444, 2, 1.0, 83, 2, -0.5, 89, 2, -0.5
*EQUATION
3
1444, 3, 1.0, 83, 3, -0.5, 89, 3, -0.5
*EQUATION
3
1445, 1, 1.0, 87, 1, -0.5, 89, 1, -0.5
*EQUATION
3
1445, 2, 1.0, 87, 2, -0.5, 89, 2, -0.5
*EQUATION
3
1445, 3, 1.0, 87, 3, -0.5, 89, 3, -0.5
*EQUATION
3
1456, 1, 1.0, 85, 1, -0.5, 91, 1, -0.5
*EQUATION
3
1456, 2, 1.0, 85, 2, -0.5, 91, 2, -0.5
*EQUATION
3
1456, 3, 1.0, 85, 3, -0.5, 91, 3, -0.5
*EQUATION
5
1457, 1, 1.0, 85, 1, -0.25, 91, 1, -0.25, 93, 1, -0.25, 87, 1, -0.25
*EQUATION
5
1457, 2, 1.0, 85, 2, -0.25, 91, 2, -0.25, 93, 2, -0.25, 87, 2, -0.25
*EQUATION
5
1457, 3, 1.0, 85, 3, -0.25, 91, 3, -0.25, 93, 3, -0.25, 87, 3, -0.25
*EQUATION
3
1458, 1, 1.0, 87, 1, -0.5, 93, 1, -0.5
*EQUATION
3
1458, 2, 1.0, 87, 2, -0.5, 93, 2, -0.5
*EQUATION
3
1458, 3, 1.0, 87, 3, -0.5, 93, 3, -0.5
*EQUATION
3
1459, 1, 1.0, 91, 1, -0.5, 93, 1, -0.5
*EQUATION
3
1459, 2, 1.0, 91, 2, -0.5, 93, 2, -0.5
*EQUATION
3
1459, 3, 1.0, 91, 3, -0.5, 93, 3, -0.5
*EQUATION
5
1467, 1, 1.0, 87, 1, -0.25, 93, 1, -0.25, 95, 1, -0.25, 89, 1, -0.25
*EQUATION
5
1467, 2, 1.0, 87, 2, -0.25, 93, 2, -0.25, 95, 2, -0.25, 89, 2, -0.25
*EQUATION
5
1467, 3, 1.0, 87, 3, -0.25, 93, 3, -0.25, 95, 3, -0.25, 89, 3, -0.25
*EQUATION
3
1468, 1, 1.0, 89, 1, -0.5, 95, 1, -0.5
*EQUATION
3
1468, 2, 1.0, 89, 2, -0.5, 95, 2, -0.5
*EQUATION
3
1468, 3, 1.0, 89, 3, -0.5, 95, 3, -0.5
*EQUATION
3
1469, 1, 1.0, 93, 1, -0.5, 95, 1, -0.5
*EQUATION
3
1469, 2, 1.0, 93, 2, -0.5, 95, 2, -0.5
*EQUATION
3
1469, 3, 1.0, 93, 3, -0.5, 95, 3, -0.5
*EQUATION
3
1470, 1, 1.0, 55, 1, -0.5, 124, 1, -0.5
*EQUATION
3
1470, 2, 1.0, 55, 2, -0.5, 124, 2, -0.5
*EQUATION
3
1470, 3, 1.0, 55, 3, -0.5, 124, 3, -0.5
*EQUATION
5
1471, 1, 1.0, 55, 1, -0.25, 124, 1, -0.25, 125, 1, -0.25, 57, 1, -0.25
*EQUATION
5
1471, 2, 1.0, 55, 2, -0.25, 124, 2, -0.25, 125, 2, -0.25, 57, 2, -0.25
*EQUATION
5
1471, 3, 1.0, 55, 3, -0.25, 124, 3, -0.25, 125, 3, -0.25, 57, 3, -0.25
*EQUATION
3
1472, 1, 1.0, 57, 1, -0.5, 125, 1, -0.5
*EQUATION
3
1472, 2, 1.0, 57, 2, -0.5, 125, 2, -0.5
*EQUATION
3
1472, 3, 1.0, 57, 3, -0.5, 125, 3, -0.5
*EQUATION
5
1475, 1, 1.0, 57, 1, -0.25, 125, 1, -0.25, 127, 1, -0.25, 61, 1, -0.25
*EQUATION
5
1475, 2, 1.0, 57, 2, -0.25, 125, 2, -0.25, 127, 2, -0.25, 61, 2, -0.25
*EQUATION
5
1475, 3, 1.0, 57, 3, -0.25, 125, 3, -0.25, 127, 3, -0.25, 61, 3, -0.25
*EQUATION
3
1476, 1, 1.0, 22, 1, -0.5, 107, 1, -0.5
*EQUATION
3
1476, 2, 1.0, 22, 2, -0.5, 107, 2, -0.5
*EQUATION
3
1476, 3, 1.0, 22, 3, -0.5, 107, 3, -0.5
*EQUATION
3
1478, 1, 1.0, 61, 1, -0.5, 127, 1, -0.5
*EQUATION
3
1478, 2, 1.0, 61, 2, -0.5, 127, 2, -0.5
*EQUATION
3
1478, 3, 1.0, 61, 3, -0.5, 127, 3, -0.5
*EQUATION
3
1479, 1, 1.0, 124, 1, -0.5, 125, 1, -0.5
*EQUATION
3
1479, 2, 1.0, 124, 2, -0.5, 125, 2, -0.5
*EQUATION
3
1479, 3, 1.0, 124, 3, -0.5, 125, 3, -0.5
*EQUATION
3
1482, 1, 1.0, 125, 1, -0.5, 127, 1, -0.5
*EQUATION
3
1482, 2, 1.0, 125, 2, -0.5, 127, 2, -0.5
*EQUATION
3
1482, 3, 1.0, 125, 3, -0.5, 127, 3, -0.5
*EQUATION
3
1484, 1, 1.0, 22, 1, -0.5, 23, 1, -0.5
*EQUATION
3
1484, 2, 1.0, 22, 2, -0.5, 23, 2, -0.5
*EQUATION
3
1484, 3, 1.0, 22, 3, -0.5, 23, 3, -0.5
*EQUATION
5
1485, 1, 1.0, 22, 1, -0.25, 23, 1, -0.25, 65, 1, -0.25, 61, 1, -0.25
*EQUATION
5
1485, 2, 1.0, 22, 2, -0.25, 23, 2, -0.25, 65, 2, -0.25, 61, 2, -0.25
*EQUATION
5
1485, 3, 1.0, 22, 3, -0.25, 23, 3, -0.25, 65, 3, -0.25, 61, 3, -0.25
*EQUATION
3
1486, 1, 1.0, 61, 1, -0.5, 65, 1, -0.5
*EQUATION
3
1486, 2, 1.0, 61, 2, -0.5, 65, 2, -0.5
*EQUATION
3
1486, 3, 1.0, 61, 3, -0.5, 65, 3, -0.5
*EQUATION
3
1487, 1, 1.0, 23, 1, -0.5, 65, 1, -0.5
*EQUATION
3
1487, 2, 1.0, 23, 2, -0.5, 65, 2, -0.5
*EQUATION
3
1487, 3, 1.0, 23, 3, -0.5, 65, 3, -0.5
*EQUATION
5
1488, 1, 1.0, 22, 1, -0.25, 107, 1, -0.25, 108, 1, -0.25, 23, 1, -0.25
*EQUATION
5
1488, 2, 1.0, 22, 2, -0.25, 107, 2, -0.25, 108, 2, -0.25, 23, 2, -0.25
*EQUATION
5
1488, 3, 1.0, 22, 3, -0.25, 107, 3, -0.25, 108, 3, -0.25, 23, 3, -0.25
*EQUATION
5
1490, 1, 1.0, 61, 1, -0.25, 127, 1, -0.25, 129, 1, -0.25, 65, 1, -0.25
*EQUATION
5
1490, 2, 1.0, 61, 2, -0.25, 127, 2, -0.25, 129, 2, -0.25, 65, 2, -0.25
*EQUATION
5
1490, 3, 1.0, 61, 3, -0.25, 127, 3, -0.25, 129, 3, -0.25, 65, 3, -0.25
*EQUATION
3
1491, 1, 1.0, 23, 1, -0.5, 108, 1, -0.5
*EQUATION
3
1491, 2, 1.0, 23, 2, -0.5, 108, 2, -0.5
*EQUATION
3
1491, 3, 1.0, 23, 3, -0.5, 108, 3, -0.5
*EQUATION
3
1493, 1, 1.0, 65, 1, -0.5, 129, 1, -0.5
*EQUATION
3
1493, 2, 1.0, 65, 2, -0.5, 129, 2, -0.5
*EQUATION
3
1493, 3, 1.0, 65, 3, -0.5, 129, 3, -0.5
*EQUATION
3
1494, 1, 1.0, 107, 1, -0.5, 108, 1, -0.5
*EQUATION
3
1494, 2, 1.0, 107, 2, -0.5, 108, 2, -0.5
*EQUATION
3
1494, 3, 1.0, 107, 3, -0.5, 108, 3, -0.5
*EQUATION
3
1496, 1, 1.0, 127, 1, -0.5, 129, 1, -0.5
*EQUATION
3
1496, 2, 1.0, 127, 2, -0.5, 129, 2, -0.5
*EQUATION
3
1496, 3, 1.0, 127, 3, -0.5, 129, 3, -0.5
*EQUATION
3
1498, 1, 1.0, 23, 1, -0.5, 35, 1, -0.5
*EQUATION
3
1498, 2, 1.0, 23, 2, -0.5, 35, 2, -0.5
*EQUATION
3
1498, 3, 1.0, 23, 3, -0.5, 35, 3, -0.5
*EQUATION
5
1499, 1, 1.0, 23, 1, -0.25, 35, 1, -0.25, 69, 1, -0.25, 65, 1, -0.25
*EQUATION
5
1499, 2, 1.0, 23, 2, -0.25, 35, 2, -0.25, 69, 2, -0.25, 65, 2, -0.25
*EQUATION
5
1499, 3, 1.0, 23, 3, -0.25, 35, 3, -0.25, 69, 3, -0.25, 65, 3, -0.25
*EQUATION
3
1500, 1, 1.0, 65, 1, -0.5, 69, 1, -0.5
*EQUATION
3
1500, 2, 1.0, 65, 2, -0.5, 69, 2, -0.5
*EQUATION
3
1500, 3, 1.0, 65, 3, -0.5, 69, 3, -0.5
*EQUATION
5
1501, 1, 1.0, 23, 1, -0.25, 108, 1, -0.25, 114, 1, -0.25, 35, 1, -0.25
*EQUATION
5
1501, 2, 1.0, 23, 2, -0.25, 108, 2, -0.25, 114, 2, -0.25, 35, 2, -0.25
*EQUATION
5
1501, 3, 1.0, 23, 3, -0.25, 108, 3, -0.25, 114, 3, -0.25, 35, 3, -0.25
*EQUATION
5
1503, 1, 1.0, 65, 1, -0.25, 129, 1, -0.25, 131, 1, -0.25, 69, 1, -0.25
*EQUATION
5
1503, 2, 1.0, 65, 2, -0.25, 129, 2, -0.25, 131, 2, -0.25, 69, 2, -0.25
*EQUATION
5
1503, 3, 1.0, 65, 3, -0.25, 129, 3, -0.25, 131, 3, -0.25, 69, 3, -0.25
*EQUATION
3
1504, 1, 1.0, 35, 1, -0.5, 114, 1, -0.5
*EQUATION
3
1504, 2, 1.0, 35, 2, -0.5, 114, 2, -0.5
*EQUATION
3
1504, 3, 1.0, 35, 3, -0.5, 114, 3, -0.5
*EQUATION
3
1506, 1, 1.0, 69, 1, -0.5, 131, 1, -0.5
*EQUATION
3
1506, 2, 1.0, 69, 2, -0.5, 131, 2, -0.5
*EQUATION
3
1506, 3, 1.0, 69, 3, -0.5, 131, 3, -0.5
*EQUATION
3
1507, 1, 1.0, 108, 1, -0.5, 114, 1, -0.5
*EQUATION
3
1507, 2, 1.0, 108, 2, -0.5, 114, 2, -0.5
*EQUATION
3
1507, 3, 1.0, 108, 3, -0.5, 114, 3, -0.5
*EQUATION
3
1509, 1, 1.0, 129, 1, -0.5, 131, 1, -0.5
*EQUATION
3
1509, 2, 1.0, 129, 2, -0.5, 131, 2, -0.5
*EQUATION
3
1509, 3, 1.0, 129, 3, -0.5, 131, 3, -0.5
*EQUATION
5
1513, 1, 1.0, 69, 1, -0.25, 131, 1, -0.25, 134, 1, -0.25, 75, 1, -0.25
*EQUATION
5
1513, 2, 1.0, 69, 2, -0.25, 131, 2, -0.25, 134, 2, -0.25, 75, 2, -0.25
*EQUATION
5
1513, 3, 1.0, 69, 3, -0.25, 131, 3, -0.25, 134, 3, -0.25, 75, 3, -0.25
*EQUATION
3
1514, 1, 1.0, 73, 1, -0.5, 133, 1, -0.5
*EQUATION
3
1514, 2, 1.0, 73, 2, -0.5, 133, 2, -0.5
*EQUATION
3
1514, 3, 1.0, 73, 3, -0.5, 133, 3, -0.5
*EQUATION
5
1515, 1, 1.0, 73, 1, -0.25, 133, 1, -0.25, 134, 1, -0.25, 75, 1, -0.25
*EQUATION
5
1515, 2, 1.0, 73, 2, -0.25, 133, 2, -0.25, 134, 2, -0.25, 75, 2, -0.25
*EQUATION
5
1515, 3, 1.0, 73, 3, -0.25, 133, 3, -0.25, 134, 3, -0.25, 75, 3, -0.25
*EQUATION
3
1516, 1, 1.0, 75, 1, -0.5, 134, 1, -0.5
*EQUATION
3
1516, 2, 1.0, 75, 2, -0.5, 134, 2, -0.5
*EQUATION
3
1516, 3, 1.0, 75, 3, -0.5, 134, 3, -0.5
*EQUATION
3
1519, 1, 1.0, 131, 1, -0.5, 134, 1, -0.5
*EQUATION
3
1519, 2, 1.0, 131, 2, -0.5, 134, 2, -0.5
*EQUATION
3
1519, 3, 1.0, 131, 3, -0.5, 134, 3, -0.5
*EQUATION
3
1520, 1, 1.0, 133, 1, -0.5, 134, 1, -0.5
*EQUATION
3
1520, 2, 1.0, 133, 2, -0.5, 134, 2, -0.5
*EQUATION
3
1520, 3, 1.0, 133, 3, -0.5, 134, 3, -0.5
*EQUATION
3
1521, 1, 1.0, 105, 1, -0.5, 107, 1, -0.5
*EQUATION
3
1521, 2, 1.0, 105, 2, -0.5, 107, 2, -0.5
*EQUATION
3
1521, 3, 1.0, 105, 3, -0.5, 107, 3, -0.5
*EQUATION
3
1522, 1, 1.0, 105, 1, -0.5, 106, 1, -0.5
*EQUATION
3
1522, 2, 1.0, 105, 2, -0.5, 106, 2, -0.5
*EQUATION
3
1522, 3, 1.0, 105, 3, -0.5, 106, 3, -0.5
*EQUATION
5
1523, 1, 1.0, 105, 1, -0.25, 106, 1, -0.25, 108, 1, -0.25, 107, 1, -0.25
*EQUATION
5
1523, 2, 1.0, 105, 2, -0.25, 106, 2, -0.25, 108, 2, -0.25, 107, 2, -0.25
*EQUATION
5
1523, 3, 1.0, 105, 3, -0.25, 106, 3, -0.25, 108, 3, -0.25, 107, 3, -0.25
*EQUATION
3
1524, 1, 1.0, 106, 1, -0.5, 108, 1, -0.5
*EQUATION
3
1524, 2, 1.0, 106, 2, -0.5, 108, 2, -0.5
*EQUATION
3
1524, 3, 1.0, 106, 3, -0.5, 108, 3, -0.5
*EQUATION
3
1525, 1, 1.0, 105, 1, -0.5, 153, 1, -0.5
*EQUATION
3
1525, 2, 1.0, 105, 2, -0.5, 153, 2, -0.5
*EQUATION
3
1525, 3, 1.0, 105, 3, -0.5, 153, 3, -0.5
*EQUATION
5
1528, 1, 1.0, 105, 1, -0.25, 153, 1, -0.25, 154, 1, -0.25, 106, 1, -0.25
*EQUATION
5
1528, 2, 1.0, 105, 2, -0.25, 153, 2, -0.25, 154, 2, -0.25, 106, 2, -0.25
*EQUATION
5
1528, 3, 1.0, 105, 3, -0.25, 153, 3, -0.25, 154, 3, -0.25, 106, 3, -0.25
*EQUATION
3
1531, 1, 1.0, 106, 1, -0.5, 154, 1, -0.5
*EQUATION
3
1531, 2, 1.0, 106, 2, -0.5, 154, 2, -0.5
*EQUATION
3
1531, 3, 1.0, 106, 3, -0.5, 154, 3, -0.5
*EQUATION
3
1534, 1, 1.0, 153, 1, -0.5, 155, 1, -0.5
*EQUATION
3
1534, 2, 1.0, 153, 2, -0.5, 155, 2, -0.5
*EQUATION
3
1534, 3, 1.0, 153, 3, -0.5, 155, 3, -0.5
*EQUATION
3
1535, 1, 1.0, 153, 1, -0.5, 154, 1, -0.5
*EQUATION
3
1535, 2, 1.0, 153, 2, -0.5, 154, 2, -0.5
*EQUATION
3
1535, 3, 1.0, 153, 3, -0.5, 154, 3, -0.5
*EQUATION
5
1536, 1, 1.0, 153, 1, -0.25, 154, 1, -0.25, 156, 1, -0.25, 155, 1, -0.25
*EQUATION
5
1536, 2, 1.0, 153, 2, -0.25, 154, 2, -0.25, 156, 2, -0.25, 155, 2, -0.25
*EQUATION
5
1536, 3, 1.0, 153, 3, -0.25, 154, 3, -0.25, 156, 3, -0.25, 155, 3, -0.25
*EQUATION
3
1537, 1, 1.0, 154, 1, -0.5, 156, 1, -0.5
*EQUATION
3
1537, 2, 1.0, 154, 2, -0.5, 156, 2, -0.5
*EQUATION
3
1537, 3, 1.0, 154, 3, -0.5, 156, 3, -0.5
*EQUATION
3
1538, 1, 1.0, 106, 1, -0.5, 113, 1, -0.5
*EQUATION
3
1538, 2, 1.0, 106, 2, -0.5, 113, 2, -0.5
*EQUATION
3
1538, 3, 1.0, 106, 3, -0.5, 113, 3, -0.5
*EQUATION
5
1539, 1, 1.0, 106, 1, -0.25, 113, 1, -0.25, 114, 1, -0.25, 108, 1, -0.25
*EQUATION
5
1539, 2, 1.0, 106, 2, -0.25, 113, 2, -0.25, 114, 2, -0.25, 108, 2, -0.25
*EQUATION
5
1539, 3, 1.0, 106, 3, -0.25, 113, 3, -0.25, 114, 3, -0.25, 108, 3, -0.25
*EQUATION
3
1540, 1, 1.0, 113, 1, -0.5, 114, 1, -0.5
*EQUATION
3
1540, 2, 1.0, 113, 2, -0.5, 114, 2, -0.5
*EQUATION
3
1540, 3, 1.0, 113, 3, -0.5, 114, 3, -0.5
*EQUATION
5
1541, 1, 1.0, 106, 1, -0.25, 154, 1, -0.25, 161, 1, -0.25, 113, 1, -0.25
*EQUATION
5
1541, 2, 1.0, 106, 2, -0.25, 154, 2, -0.25, 161, 2, -0.25, 113, 2, -0.25
*EQUATION
5
1541, 3, 1.0, 106, 3, -0.25, 154, 3, -0.25, 161, 3, -0.25, 113, 3, -0.25
*EQUATION
3
1544, 1, 1.0, 113, 1, -0.5, 161, 1, -0.5
*EQUATION
3
1544, 2, 1.0, 113, 2, -0.5, 161, 2, -0.5
*EQUATION
3
1544, 3, 1.0, 113, 3, -0.5, 161, 3, -0.5
*EQUATION
3
1547, 1, 1.0, 154, 1, -0.5, 161, 1, -0.5
*EQUATION
3
1547, 2, 1.0, 154, 2, -0.5, 161, 2, -0.5
*EQUATION
3
1547, 3, 1.0, 154, 3, -0.5, 161, 3, -0.5
*EQUATION
5
1548, 1, 1.0, 154, 1, -0.25, 161, 1, -0.25, 162, 1, -0.25, 156, 1, -0.25
*EQUATION
5
1548, 2, 1.0, 154, 2, -0.25, 161, 2, -0.25, 162, 2, -0.25, 156, 2, -0.25
*EQUATION
5
1548, 3, 1.0, 154, 3, -0.25, 161, 3, -0.25, 162, 3, -0.25, 156, 3, -0.25
*EQUATION
3
1549, 1, 1.0, 161, 1, -0.5, 162, 1, -0.5
*EQUATION
3
1549, 2, 1.0, 161, 2, -0.5, 162, 2, -0.5
*EQUATION
3
1549, 3, 1.0, 161, 3, -0.5, 162, 3, -0.5
*EQUATION
3
1550, 1, 1.0, 124, 1, -0.5, 172, 1, -0.5
*EQUATION
3
1550, 2, 1.0, 124, 2, -0.5, 172, 2, -0.5
*EQUATION
3
1550, 3, 1.0, 124, 3, -0.5, 172, 3, -0.5
*EQUATION
5
1551, 1, 1.0, 124, 1, -0.25, 172, 1, -0.25, 173, 1, -0.25, 125, 1, -0.25
*EQUATION
5
1551, 2, 1.0, 124, 2, -0.25, 172, 2, -0.25, 173, 2, -0.25, 125, 2, -0.25
*EQUATION
5
1551, 3, 1.0, 124, 3, -0.25, 172, 3, -0.25, 173, 3, -0.25, 125, 3, -0.25
*EQUATION
3
1552, 1, 1.0, 125, 1, -0.5, 173, 1, -0.5
*EQUATION
3
1552, 2, 1.0, 125, 2, -0.5, 173, 2, -0.5
*EQUATION
3
1552, 3, 1.0, 125, 3, -0.5, 173, 3, -0.5
*EQUATION
5
1555, 1, 1.0, 125, 1, -0.25, 173, 1, -0.25, 175, 1, -0.25, 127, 1, -0.25
*EQUATION
5
1555, 2, 1.0, 125, 2, -0.25, 173, 2, -0.25, 175, 2, -0.25, 127, 2, -0.25
*EQUATION
5
1555, 3, 1.0, 125, 3, -0.25, 173, 3, -0.25, 175, 3, -0.25, 127, 3, -0.25
*EQUATION
3
1557, 1, 1.0, 127, 1, -0.5, 175, 1, -0.5
*EQUATION
3
1557, 2, 1.0, 127, 2, -0.5, 175, 2, -0.5
*EQUATION
3
1557, 3, 1.0, 127, 3, -0.5, 175, 3, -0.5
*EQUATION
3
1558, 1, 1.0, 172, 1, -0.5, 173, 1, -0.5
*EQUATION
3
1558, 2, 1.0, 172, 2, -0.5, 173, 2, -0.5
*EQUATION
3
1558, 3, 1.0, 172, 3, -0.5, 173, 3, -0.5
*EQUATION
3
1561, 1, 1.0, 173, 1, -0.5, 175, 1, -0.5
*EQUATION
3
1561, 2, 1.0, 173, 2, -0.5, 175, 2, -0.5
*EQUATION
3
1561, 3, 1.0, 173, 3, -0.5, 175, 3, -0.5
*EQUATION
5
1563, 1, 1.0, 127, 1, -0.25, 175, 1, -0.25, 177, 1, -0.25, 129, 1, -0.25
*EQUATION
5
1563, 2, 1.0, 127, 2, -0.25, 175, 2, -0.25, 177, 2, -0.25, 129, 2, -0.25
*EQUATION
5
1563, 3, 1.0, 127, 3, -0.25, 175, 3, -0.25, 177, 3, -0.25, 129, 3, -0.25
*EQUATION
3
1565, 1, 1.0, 129, 1, -0.5, 177, 1, -0.5
*EQUATION
3
1565, 2, 1.0, 129, 2, -0.5, 177, 2, -0.5
*EQUATION
3
1565, 3, 1.0, 129, 3, -0.5, 177, 3, -0.5
*EQUATION
5
1567, 1, 1.0, 129, 1, -0.25, 177, 1, -0.25, 179, 1, -0.25, 131, 1, -0.25
*EQUATION
5
1567, 2, 1.0, 129, 2, -0.25, 177, 2, -0.25, 179, 2, -0.25, 131, 2, -0.25
*EQUATION
5
1567, 3, 1.0, 129, 3, -0.25, 177, 3, -0.25, 179, 3, -0.25, 131, 3, -0.25
*EQUATION
3
1569, 1, 1.0, 131, 1, -0.5, 179, 1, -0.5
*EQUATION
3
1569, 2, 1.0, 131, 2, -0.5, 179, 2, -0.5
*EQUATION
3
1569, 3, 1.0, 131, 3, -0.5, 179, 3, -0.5
*EQUATION
5
1572, 1, 1.0, 131, 1, -0.25, 179, 1, -0.25, 182, 1, -0.25, 134, 1, -0.25
*EQUATION
5
1572, 2, 1.0, 131, 2, -0.25, 179, 2, -0.25, 182, 2, -0.25, 134, 2, -0.25
*EQUATION
5
1572, 3, 1.0, 131, 3, -0.25, 179, 3, -0.25, 182, 3, -0.25, 134, 3, -0.25
*EQUATION
3
1573, 1, 1.0, 133, 1, -0.5, 181, 1, -0.5
*EQUATION
3
1573, 2, 1.0, 133, 2, -0.5, 181, 2, -0.5
*EQUATION
3
1573, 3, 1.0, 133, 3, -0.5, 181, 3, -0.5
*EQUATION
5
1574, 1, 1.0, 133, 1, -0.25, 181, 1, -0.25, 182, 1, -0.25, 134, 1, -0.25
*EQUATION
5
1574, 2, 1.0, 133, 2, -0.25, 181, 2, -0.25, 182, 2, -0.25, 134, 2, -0.25
*EQUATION
5
1574, 3, 1.0, 133, 3, -0.25, 181, 3, -0.25, 182, 3, -0.25, 134, 3, -0.25
*EQUATION
3
1575, 1, 1.0, 134, 1, -0.5, 182, 1, -0.5
*EQUATION
3
1575, 2, 1.0, 134, 2, -0.5, 182, 2, -0.5
*EQUATION
3
1575, 3, 1.0, 134, 3, -0.5, 182, 3, -0.5
*EQUATION
3
1578, 1, 1.0, 179, 1, -0.5, 182, 1, -0.5
*EQUATION
3
1578, 2, 1.0, 179, 2, -0.5, 182, 2, -0.5
*EQUATION
3
1578, 3, 1.0, 179, 3, -0.5, 182, 3, -0.5
*EQUATION
3
1579, 1, 1.0, 181, 1, -0.5, 182, 1, -0.5
*EQUATION
3
1579, 2, 1.0, 181, 2, -0.5, 182, 2, -0.5
*EQUATION
3
1579, 3, 1.0, 181, 3, -0.5, 182, 3, -0.5
*EQUATION
3
1580, 1, 1.0, 172, 1, -0.5, 220, 1, -0.5
*EQUATION
3
1580, 2, 1.0, 172, 2, -0.5, 220, 2, -0.5
*EQUATION
3
1580, 3, 1.0, 172, 3, -0.5, 220, 3, -0.5
*EQUATION
5
1581, 1, 1.0, 172, 1, -0.25, 220, 1, -0.25, 221, 1, -0.25, 173, 1, -0.25
*EQUATION
5
1581, 2, 1.0, 172, 2, -0.25, 220, 2, -0.25, 221, 2, -0.25, 173, 2, -0.25
*EQUATION
5
1581, 3, 1.0, 172, 3, -0.25, 220, 3, -0.25, 221, 3, -0.25, 173, 3, -0.25
*EQUATION
3
1582, 1, 1.0, 173, 1, -0.5, 221, 1, -0.5
*EQUATION
3
1582, 2, 1.0, 173, 2, -0.5, 221, 2, -0.5
*EQUATION
3
1582, 3, 1.0, 173, 3, -0.5, 221, 3, -0.5
*EQUATION
5
1585, 1, 1.0, 173, 1, -0.25, 221, 1, -0.25, 223, 1, -0.25, 175, 1, -0.25
*EQUATION
5
1585, 2, 1.0, 173, 2, -0.25, 221, 2, -0.25, 223, 2, -0.25, 175, 2, -0.25
*EQUATION
5
1585, 3, 1.0, 173, 3, -0.25, 221, 3, -0.25, 223, 3, -0.25, 175, 3, -0.25
*EQUATION
3
1586, 1, 1.0, 220, 1, -0.5, 221, 1, -0.5
*EQUATION
3
1586, 2, 1.0, 220, 2, -0.5, 221, 2, -0.5
*EQUATION
3
1586, 3, 1.0, 220, 3, -0.5, 221, 3, -0.5
*EQUATION
3
1589, 1, 1.0, 221, 1, -0.5, 223, 1, -0.5
*EQUATION
3
1589, 2, 1.0, 221, 2, -0.5, 223, 2, -0.5
*EQUATION
3
1589, 3, 1.0, 221, 3, -0.5, 223, 3, -0.5
*EQUATION
5
1592, 1, 1.0, 179, 1, -0.25, 227, 1, -0.25, 230, 1, -0.25, 182, 1, -0.25
*EQUATION
5
1592, 2, 1.0, 179, 2, -0.25, 227, 2, -0.25, 230, 2, -0.25, 182, 2, -0.25
*EQUATION
5
1592, 3, 1.0, 179, 3, -0.25, 227, 3, -0.25, 230, 3, -0.25, 182, 3, -0.25
*EQUATION
3
1593, 1, 1.0, 181, 1, -0.5, 229, 1, -0.5
*EQUATION
3
1593, 2, 1.0, 181, 2, -0.5, 229, 2, -0.5
*EQUATION
3
1593, 3, 1.0, 181, 3, -0.5, 229, 3, -0.5
*EQUATION
5
1594, 1, 1.0, 181, 1, -0.25, 229, 1, -0.25, 230, 1, -0.25, 182, 1, -0.25
*EQUATION
5
1594, 2, 1.0, 181, 2, -0.25, 229, 2, -0.25, 230, 2, -0.25, 182, 2, -0.25
*EQUATION
5
1594, 3, 1.0, 181, 3, -0.25, 229, 3, -0.25, 230, 3, -0.25, 182, 3, -0.25
*EQUATION
3
1595, 1, 1.0, 182, 1, -0.5, 230, 1, -0.5
*EQUATION
3
1595, 2, 1.0, 182, 2, -0.5, 230, 2, -0.5
*EQUATION
3
1595, 3, 1.0, 182, 3, -0.5, 230, 3, -0.5
*EQUATION
3
1598, 1, 1.0, 227, 1, -0.5, 230, 1, -0.5
*EQUATION
3
1598, 2, 1.0, 227, 2, -0.5, 230, 2, -0.5
*EQUATION
3
1598, 3, 1.0, 227, 3, -0.5, 230, 3, -0.5
*EQUATION
3
1599, 1, 1.0, 229, 1, -0.5, 230, 1, -0.5
*EQUATION
3
1599, 2, 1.0, 229, 2, -0.5, 230, 2, -0.5
*EQUATION
3
1599, 3, 1.0, 229, 3, -0.5, 230, 3, -0.5
*EQUATION
3
1600, 1, 1.0, 201, 1, -0.5, 203, 1, -0.5
*EQUATION
3
1600, 2, 1.0, 201, 2, -0.5, 203, 2, -0.5
*EQUATION
3
1600, 3, 1.0, 201, 3, -0.5, 203, 3, -0.5
*EQUATION
3
1601, 1, 1.0, 201, 1, -0.5, 202, 1, -0.5
*EQUATION
3
1601, 2, 1.0, 201, 2, -0.5, 202, 2, -0.5
*EQUATION
3
1601, 3, 1.0, 201, 3, -0.5, 202, 3, -0.5
*EQUATION
5
1602, 1, 1.0, 201, 1, -0.25, 202, 1, -0.25, 204, 1, -0.25, 203, 1, -0.25
*EQUATION
5
1602, 2, 1.0, 201, 2, -0.25, 202, 2, -0.25, 204, 2, -0.25, 203, 2, -0.25
*EQUATION
5
1602, 3, 1.0, 201, 3, -0.25, 202, 3, -0.25, 204, 3, -0.25, 203, 3, -0.25
*EQUATION
3
1603, 1, 1.0, 202, 1, -0.5, 204, 1, -0.5
*EQUATION
3
1603, 2, 1.0, 202, 2, -0.5, 204, 2, -0.5
*EQUATION
3
1603, 3, 1.0, 202, 3, -0.5, 204, 3, -0.5
*EQUATION
3
1604, 1, 1.0, 201, 1, -0.5, 249, 1, -0.5
*EQUATION
3
1604, 2, 1.0, 201, 2, -0.5, 249, 2, -0.5
*EQUATION
3
1604, 3, 1.0, 201, 3, -0.5, 249, 3, -0.5
*EQUATION
5
1606, 1, 1.0, 201, 1, -0.25, 249, 1, -0.25, 250, 1, -0.25, 202, 1, -0.25
*EQUATION
5
1606, 2, 1.0, 201, 2, -0.25, 249, 2, -0.25, 250, 2, -0.25, 202, 2, -0.25
*EQUATION
5
1606, 3, 1.0, 201, 3, -0.25, 249, 3, -0.25, 250, 3, -0.25, 202, 3, -0.25
*EQUATION
3
1608, 1, 1.0, 202, 1, -0.5, 250, 1, -0.5
*EQUATION
3
1608, 2, 1.0, 202, 2, -0.5, 250, 2, -0.5
*EQUATION
3
1608, 3, 1.0, 202, 3, -0.5, 250, 3, -0.5
*EQUATION
3
1611, 1, 1.0, 249, 1, -0.5, 250, 1, -0.5
*EQUATION
3
1611, 2, 1.0, 249, 2, -0.5, 250, 2, -0.5
*EQUATION
3
1611, 3, 1.0, 249, 3, -0.5, 250, 3, -0.5
*EQUATION
3
1614, 1, 1.0, 202, 1, -0.5, 209, 1, -0.5
*EQUATION
3
1614, 2, 1.0, 202, 2, -0.5, 209, 2, -0.5
*EQUATION
3
1614, 3, 1.0, 202, 3, -0.5, 209, 3, -0.5
*EQUATION
5
1615, 1, 1.0, 202, 1, -0.25, 209, 1, -0.25, 210, 1, -0.25, 204, 1, -0.25
*EQUATION
5
1615, 2, 1.0, 202, 2, -0.25, 209, 2, -0.25, 210, 2, -0.25, 204, 2, -0.25
*EQUATION
5
1615, 3, 1.0, 202, 3, -0.25, 209, 3, -0.25, 210, 3, -0.25, 204, 3, -0.25
*EQUATION
3
1616, 1, 1.0, 209, 1, -0.5, 210, 1, -0.5
*EQUATION
3
1616, 2, 1.0, 209, 2, -0.5, 210, 2, -0.5
*EQUATION
3
1616, 3, 1.0, 209, 3, -0.5, 210, 3, -0.5
*EQUATION
5
1617, 1, 1.0, 202, 1, -0.25, 250, 1, -0.25, 257, 1, -0.25, 209, 1, -0.25
*EQUATION
5
1617, 2, 1.0, 202, 2, -0.25, 250, 2, -0.25, 257, 2, -0.25, 209, 2, -0.25
*EQUATION
5
1617, 3, 1.0, 202, 3, -0.25, 250, 3, -0.25, 257, 3, -0.25, 209, 3, -0.25
*EQUATION
3
1619, 1, 1.0, 209, 1, -0.5, 257, 1, -0.5
*EQUATION
3
1619, 2, 1.0, 209, 2, -0.5, 257, 2, -0.5
*EQUATION
3
1619, 3, 1.0, 209, 3, -0.5, 257, 3, -0.5
*EQUATION
3
1621, 1, 1.0, 250, 1, -0.5, 257, 1, -0.5
*EQUATION
3
1621, 2, 1.0, 250, 2, -0.5, 257, 2, -0.5
*EQUATION
3
1621, 3, 1.0, 250, 3, -0.5, 257, 3, -0.5
*EQUATION
3
1624, 1, 1.0, 220, 1, -0.5, 268, 1, -0.5
*EQUATION
3
1624, 2, 1.0, 220, 2, -0.5, 268, 2, -0.5
*EQUATION
3
1624, 3, 1.0, 220, 3, -0.5, 268, 3, -0.5
*EQUATION
5
1625, 1, 1.0, 220, 1, -0.25, 268, 1, -0.25, 269, 1, -0.25, 221, 1, -0.25
*EQUATION
5
1625, 2, 1.0, 220, 2, -0.25, 268, 2, -0.25, 269, 2, -0.25, 221, 2, -0.25
*EQUATION
5
1625, 3, 1.0, 220, 3, -0.25, 268, 3, -0.25, 269, 3, -0.25, 221, 3, -0.25
*EQUATION
3
1626, 1, 1.0, 221, 1, -0.5, 269, 1, -0.5
*EQUATION
3
1626, 2, 1.0, 221, 2, -0.5, 269, 2, -0.5
*EQUATION
3
1626, 3, 1.0, 221, 3, -0.5, 269, 3, -0.5
*EQUATION
5
1629, 1, 1.0, 221, 1, -0.25, 269, 1, -0.25, 271, 1, -0.25, 223, 1, -0.25
*EQUATION
5
1629, 2, 1.0, 221, 2, -0.25, 269, 2, -0.25, 271, 2, -0.25, 223, 2, -0.25
*EQUATION
5
1629, 3, 1.0, 221, 3, -0.25, 269, 3, -0.25, 271, 3, -0.25, 223, 3, -0.25
*EQUATION
3
1630, 1, 1.0, 268, 1, -0.5, 269, 1, -0.5
*EQUATION
3
1630, 2, 1.0, 268, 2, -0.5, 269, 2, -0.5
*EQUATION
3
1630, 3, 1.0, 268, 3, -0.5, 269, 3, -0.5
*EQUATION
3
1633, 1, 1.0, 269, 1, -0.5, 271, 1, -0.5
*EQUATION
3
1633, 2, 1.0, 269, 2, -0.5, 271, 2, -0.5
*EQUATION
3
1633, 3, 1.0, 269, 3, -0.5, 271, 3, -0.5
*EQUATION
5
1636, 1, 1.0, 227, 1, -0.25, 275, 1, -0.25, 278, 1, -0.25, 230, 1, -0.25
*EQUATION
5
1636, 2, 1.0, 227, 2, -0.25, 275, 2, -0.25, 278, 2, -0.25, 230, 2, -0.25
*EQUATION
5
1636, 3, 1.0, 227, 3, -0.25, 275, 3, -0.25, 278, 3, -0.25, 230, 3, -0.25
*EQUATION
3
1637, 1, 1.0, 229, 1, -0.5, 277, 1, -0.5
*EQUATION
3
1637, 2, 1.0, 229, 2, -0.5, 277, 2, -0.5
*EQUATION
3
1637, 3, 1.0, 229, 3, -0.5, 277, 3, -0.5
*EQUATION
5
1638, 1, 1.0, 229, 1, -0.25, 277, 1, -0.25, 278, 1, -0.25, 230, 1, -0.25
*EQUATION
5
1638, 2, 1.0, 229, 2, -0.25, 277, 2, -0.25, 278, 2, -0.25, 230, 2, -0.25
*EQUATION
5
1638, 3, 1.0, 229, 3, -0.25, 277, 3, -0.25, 278, 3, -0.25, 230, 3, -0.25
*EQUATION
3
1639, 1, 1.0, 230, 1, -0.5, 278, 1, -0.5
*EQUATION
3
1639, 2, 1.0, 230, 2, -0.5, 278, 2, -0.5
*EQUATION
3
1639, 3, 1.0, 230, 3, -0.5, 278, 3, -0.5
*EQUATION
3
1642, 1, 1.0, 275, 1, -0.5, 278, 1, -0.5
*EQUATION
3
1642, 2, 1.0, 275, 2, -0.5, 278, 2, -0.5
*EQUATION
3
1642, 3, 1.0, 275, 3, -0.5, 278, 3, -0.5
*EQUATION
3
1643, 1, 1.0, 277, 1, -0.5, 278, 1, -0.5
*EQUATION
3
1643, 2, 1.0, 277, 2, -0.5, 278, 2, -0.5
*EQUATION
3
1643, 3, 1.0, 277, 3, -0.5, 278, 3, -0.5
*EQUATION
3
1644, 1, 1.0, 249, 1, -0.5, 297, 1, -0.5
*EQUATION
3
1644, 2, 1.0, 249, 2, -0.5, 297, 2, -0.5
*EQUATION
3
1644, 3, 1.0, 249, 3, -0.5, 297, 3, -0.5
*EQUATION
5
1647, 1, 1.0, 249, 1, -0.25, 297, 1, -0.25, 298, 1, -0.25, 250, 1, -0.25
*EQUATION
5
1647, 2, 1.0, 249, 2, -0.25, 297, 2, -0.25, 298, 2, -0.25, 250, 2, -0.25
*EQUATION
5
1647, 3, 1.0, 249, 3, -0.25, 297, 3, -0.25, 298, 3, -0.25, 250, 3, -0.25
*EQUATION
3
1650, 1, 1.0, 250, 1, -0.5, 298, 1, -0.5
*EQUATION
3
1650, 2, 1.0, 250, 2, -0.5, 298, 2, -0.5
*EQUATION
3
1650, 3, 1.0, 250, 3, -0.5, 298, 3, -0.5
*EQUATION
3
1654, 1, 1.0, 297, 1, -0.5, 298, 1, -0.5
*EQUATION
3
1654, 2, 1.0, 297, 2, -0.5, 298, 2, -0.5
*EQUATION
3
1654, 3, 1.0, 297, 3, -0.5, 298, 3, -0.5
*EQUATION
5
1658, 1, 1.0, 250, 1, -0.25, 298, 1, -0.25, 305, 1, -0.25, 257, 1, -0.25
*EQUATION
5
1658, 2, 1.0, 250, 2, -0.25, 298, 2, -0.25, 305, 2, -0.25, 257, 2, -0.25
*EQUATION
5
1658, 3, 1.0, 250, 3, -0.25, 298, 3, -0.25, 305, 3, -0.25, 257, 3, -0.25
*EQUATION
3
1661, 1, 1.0, 257, 1, -0.5, 305, 1, -0.5
*EQUATION
3
1661, 2, 1.0, 257, 2, -0.5, 305, 2, -0.5
*EQUATION
3
1661, 3, 1.0, 257, 3, -0.5, 305, 3, -0.5
*EQUATION
3
1664, 1, 1.0, 298, 1, -0.5, 305, 1, -0.5
*EQUATION
3
1664, 2, 1.0, 298, 2, -0.5, 305, 2, -0.5
*EQUATION
3
1664, 3, 1.0, 298, 3, -0.5, 305, 3, -0.5
*EQUATION
3
1668, 1, 1.0, 268, 1, -0.5, 316, 1, -0.5
*EQUATION
3
1668, 2, 1.0, 268, 2, -0.5, 316, 2, -0.5
*EQUATION
3
1668, 3, 1.0, 268, 3, -0.5, 316, 3, -0.5
*EQUATION
5
1669, 1, 1.0, 268, 1, -0.25, 316, 1, -0.25, 317, 1, -0.25, 269, 1, -0.25
*EQUATION
5
1669, 2, 1.0, 268, 2, -0.25, 316, 2, -0.25, 317, 2, -0.25, 269, 2, -0.25
*EQUATION
5
1669, 3, 1.0, 268, 3, -0.25, 316, 3, -0.25, 317, 3, -0.25, 269, 3, -0.25
*EQUATION
3
1670, 1, 1.0, 269, 1, -0.5, 317, 1, -0.5
*EQUATION
3
1670, 2, 1.0, 269, 2, -0.5, 317, 2, -0.5
*EQUATION
3
1670, 3, 1.0, 269, 3, -0.5, 317, 3, -0.5
*EQUATION
5
1673, 1, 1.0, 269, 1, -0.25, 317, 1, -0.25, 319, 1, -0.25, 271, 1, -0.25
*EQUATION
5
1673, 2, 1.0, 269, 2, -0.25, 317, 2, -0.25, 319, 2, -0.25, 271, 2, -0.25
*EQUATION
5
1673, 3, 1.0, 269, 3, -0.25, 317, 3, -0.25, 319, 3, -0.25, 271, 3, -0.25
*EQUATION
3
1675, 1, 1.0, 271, 1, -0.5, 319, 1, -0.5
*EQUATION
3
1675, 2, 1.0, 271, 2, -0.5, 319, 2, -0.5
*EQUATION
3
1675, 3, 1.0, 271, 3, -0.5, 319, 3, -0.5
*EQUATION
3
1676, 1, 1.0, 316, 1, -0.5, 317, 1, -0.5
*EQUATION
3
1676, 2, 1.0, 316, 2, -0.5, 317, 2, -0.5
*EQUATION
3
1676, 3, 1.0, 316, 3, -0.5, 317, 3, -0.5
*EQUATION
3
1677, 1, 1.0, 299, 1, -0.5, 316, 1, -0.5
*EQUATION
3
1677, 2, 1.0, 299, 2, -0.5, 316, 2, -0.5
*EQUATION
3
1677, 3, 1.0, 299, 3, -0.5, 316, 3, -0.5
*EQUATION
5
1678, 1, 1.0, 316, 1, -0.25, 299, 1, -0.25, 319, 1, -0.25, 317, 1, -0.25
*EQUATION
5
1678, 2, 1.0, 316, 2, -0.25, 299, 2, -0.25, 319, 2, -0.25, 317, 2, -0.25
*EQUATION
5
1678, 3, 1.0, 316, 3, -0.25, 299, 3, -0.25, 319, 3, -0.25, 317, 3, -0.25
*EQUATION
3
1679, 1, 1.0, 317, 1, -0.5, 319, 1, -0.5
*EQUATION
3
1679, 2, 1.0, 317, 2, -0.5, 319, 2, -0.5
*EQUATION
3
1679, 3, 1.0, 317, 3, -0.5, 319, 3, -0.5
*EQUATION
3
1680, 1, 1.0, 299, 1, -0.5, 319, 1, -0.5
*EQUATION
3
1680, 2, 1.0, 299, 2, -0.5, 319, 2, -0.5
*EQUATION
3
1680, 3, 1.0, 299, 3, -0.5, 319, 3, -0.5
*EQUATION
5
1682, 1, 1.0, 271, 1, -0.25, 319, 1, -0.25, 321, 1, -0.25, 273, 1, -0.25
*EQUATION
5
1682, 2, 1.0, 271, 2, -0.25, 319, 2, -0.25, 321, 2, -0.25, 273, 2, -0.25
*EQUATION
5
1682, 3, 1.0, 271, 3, -0.25, 319, 3, -0.25, 321, 3, -0.25, 273, 3, -0.25
*EQUATION
3
1684, 1, 1.0, 273, 1, -0.5, 321, 1, -0.5
*EQUATION
3
1684, 2, 1.0, 273, 2, -0.5, 321, 2, -0.5
*EQUATION
3
1684, 3, 1.0, 273, 3, -0.5, 321, 3, -0.5
*EQUATION
3
1686, 1, 1.0, 319, 1, -0.5, 321, 1, -0.5
*EQUATION
3
1686, 2, 1.0, 319, 2, -0.5, 321, 2, -0.5
*EQUATION
3
1686, 3, 1.0, 319, 3, -0.5, 321, 3, -0.5
*EQUATION
5
1689, 1, 1.0, 273, 1, -0.25, 321, 1, -0.25, 323, 1, -0.25, 275, 1, -0.25
*EQUATION
5
1689, 2, 1.0, 273, 2, -0.25, 321, 2, -0.25, 323, 2, -0.25, 275, 2, -0.25
*EQUATION
5
1689, 3, 1.0, 273, 3, -0.25, 321, 3, -0.25, 323, 3, -0.25, 275, 3, -0.25
*EQUATION
3
1691, 1, 1.0, 275, 1, -0.5, 323, 1, -0.5
*EQUATION
3
1691, 2, 1.0, 275, 2, -0.5, 323, 2, -0.5
*EQUATION
3
1691, 3, 1.0, 275, 3, -0.5, 323, 3, -0.5
*EQUATION
3
1693, 1, 1.0, 321, 1, -0.5, 323, 1, -0.5
*EQUATION
3
1693, 2, 1.0, 321, 2, -0.5, 323, 2, -0.5
*EQUATION
3
1693, 3, 1.0, 321, 3, -0.5, 323, 3, -0.5
*EQUATION
3
1694, 1, 1.0, 306, 1, -0.5, 323, 1, -0.5
*EQUATION
3
1694, 2, 1.0, 306, 2, -0.5, 323, 2, -0.5
*EQUATION
3
1694, 3, 1.0, 306, 3, -0.5, 323, 3, -0.5
*EQUATION
5
1697, 1, 1.0, 275, 1, -0.25, 323, 1, -0.25, 326, 1, -0.25, 278, 1, -0.25
*EQUATION
5
1697, 2, 1.0, 275, 2, -0.25, 323, 2, -0.25, 326, 2, -0.25, 278, 2, -0.25
*EQUATION
5
1697, 3, 1.0, 275, 3, -0.25, 323, 3, -0.25, 326, 3, -0.25, 278, 3, -0.25
*EQUATION
3
1698, 1, 1.0, 277, 1, -0.5, 325, 1, -0.5
*EQUATION
3
1698, 2, 1.0, 277, 2, -0.5, 325, 2, -0.5
*EQUATION
3
1698, 3, 1.0, 277, 3, -0.5, 325, 3, -0.5
*EQUATION
5
1699, 1, 1.0, 277, 1, -0.25, 325, 1, -0.25, 326, 1, -0.25, 278, 1, -0.25
*EQUATION
5
1699, 2, 1.0, 277, 2, -0.25, 325, 2, -0.25, 326, 2, -0.25, 278, 2, -0.25
*EQUATION
5
1699, 3, 1.0, 277, 3, -0.25, 325, 3, -0.25, 326, 3, -0.25, 278, 3, -0.25
*EQUATION
3
1700, 1, 1.0, 278, 1, -0.5, 326, 1, -0.5
*EQUATION
3
1700, 2, 1.0, 278, 2, -0.5, 326, 2, -0.5
*EQUATION
3
1700, 3, 1.0, 278, 3, -0.5, 326, 3, -0.5
*EQUATION
3
1701, 1, 1.0, 306, 1, -0.5, 325, 1, -0.5
*EQUATION
3
1701, 2, 1.0, 306, 2, -0.5, 325, 2, -0.5
*EQUATION
3
1701, 3, 1.0, 306, 3, -0.5, 325, 3, -0.5
*EQUATION
5
1702, 1, 1.0, 306, 1, -0.25, 325, 1, -0.25, 326, 1, -0.25, 323, 1, -0.25
*EQUATION
5
1702, 2, 1.0, 306, 2, -0.25, 325, 2, -0.25, 326, 2, -0.25, 323, 2, -0.25
*EQUATION
5
1702, 3, 1.0, 306, 3, -0.25, 325, 3, -0.25, 326, 3, -0.25, 323, 3, -0.25
*EQUATION
3
1703, 1, 1.0, 323, 1, -0.5, 326, 1, -0.5
*EQUATION
3
1703, 2, 1.0, 323, 2, -0.5, 326, 2, -0.5
*EQUATION
3
1703, 3, 1.0, 323, 3, -0.5, 326, 3, -0.5
*EQUATION
3
1704, 1, 1.0, 325, 1, -0.5, 326, 1, -0.5
*EQUATION
3
1704, 2, 1.0, 325, 2, -0.5, 326, 2, -0.5
*EQUATION
3
1704, 3, 1.0, 325, 3, -0.5, 326, 3, -0.5
*EQUATION
3
1705, 1, 1.0, 297, 1, -0.5, 345, 1, -0.5
*EQUATION
3
1705, 2, 1.0, 297, 2, -0.5, 345, 2, -0.5
*EQUATION
3
1705, 3, 1.0, 297, 3, -0.5, 345, 3, -0.5
*EQUATION
3
1707, 1, 1.0, 299, 1, -0.5, 347, 1, -0.5
*EQUATION
3
1707, 2, 1.0, 299, 2, -0.5, 347, 2, -0.5
*EQUATION
3
1707, 3, 1.0, 299, 3, -0.5, 347, 3, -0.5
*EQUATION
5
1708, 1, 1.0, 297, 1, -0.25, 345, 1, -0.25, 346, 1, -0.25, 298, 1, -0.25
*EQUATION
5
1708, 2, 1.0, 297, 2, -0.25, 345, 2, -0.25, 346, 2, -0.25, 298, 2, -0.25
*EQUATION
5
1708, 3, 1.0, 297, 3, -0.25, 345, 3, -0.25, 346, 3, -0.25, 298, 3, -0.25
*EQUATION
3
1711, 1, 1.0, 298, 1, -0.5, 346, 1, -0.5
*EQUATION
3
1711, 2, 1.0, 298, 2, -0.5, 346, 2, -0.5
*EQUATION
3
1711, 3, 1.0, 298, 3, -0.5, 346, 3, -0.5
*EQUATION
3
1714, 1, 1.0, 345, 1, -0.5, 347, 1, -0.5
*EQUATION
3
1714, 2, 1.0, 345, 2, -0.5, 347, 2, -0.5
*EQUATION
3
1714, 3, 1.0, 345, 3, -0.5, 347, 3, -0.5
*EQUATION
3
1715, 1, 1.0, 345, 1, -0.5, 346, 1, -0.5
*EQUATION
3
1715, 2, 1.0, 345, 2, -0.5, 346, 2, -0.5
*EQUATION
3
1715, 3, 1.0, 345, 3, -0.5, 346, 3, -0.5
*EQUATION
5
1716, 1, 1.0, 345, 1, -0.25, 346, 1, -0.25, 348, 1, -0.25, 347, 1, -0.25
*EQUATION
5
1716, 2, 1.0, 345, 2, -0.25, 346, 2, -0.25, 348, 2, -0.25, 347, 2, -0.25
*EQUATION
5
1716, 3, 1.0, 345, 3, -0.25, 346, 3, -0.25, 348, 3, -0.25, 347, 3, -0.25
*EQUATION
3
1717, 1, 1.0, 347, 1, -0.5, 348, 1, -0.5
*EQUATION
3
1717, 2, 1.0, 347, 2, -0.5, 348, 2, -0.5
*EQUATION
3
1717, 3, 1.0, 347, 3, -0.5, 348, 3, -0.5
*EQUATION
3
1718, 1, 1.0, 346, 1, -0.5, 348, 1, -0.5
*EQUATION
3
1718, 2, 1.0, 346, 2, -0.5, 348, 2, -0.5
*EQUATION
3
1718, 3, 1.0, 346, 3, -0.5, 348, 3, -0.5
*EQUATION
5
1719, 1, 1.0, 298, 1, -0.25, 346, 1, -0.25, 353, 1, -0.25, 305, 1, -0.25
*EQUATION
5
1719, 2, 1.0, 298, 2, -0.25, 346, 2, -0.25, 353, 2, -0.25, 305, 2, -0.25
*EQUATION
5
1719, 3, 1.0, 298, 3, -0.25, 346, 3, -0.25, 353, 3, -0.25, 305, 3, -0.25
*EQUATION
3
1722, 1, 1.0, 305, 1, -0.5, 353, 1, -0.5
*EQUATION
3
1722, 2, 1.0, 305, 2, -0.5, 353, 2, -0.5
*EQUATION
3
1722, 3, 1.0, 305, 3, -0.5, 353, 3, -0.5
*EQUATION
3
1724, 1, 1.0, 306, 1, -0.5, 354, 1, -0.5
*EQUATION
3
1724, 2, 1.0, 306, 2, -0.5, 354, 2, -0.5
*EQUATION
3
1724, 3, 1.0, 306, 3, -0.5, 354, 3, -0.5
*EQUATION
3
1725, 1, 1.0, 346, 1, -0.5, 353, 1, -0.5
*EQUATION
3
1725, 2, 1.0, 346, 2, -0.5, 353, 2, -0.5
*EQUATION
3
1725, 3, 1.0, 346, 3, -0.5, 353, 3, -0.5
*EQUATION
5
1726, 1, 1.0, 346, 1, -0.25, 353, 1, -0.25, 354, 1, -0.25, 348, 1, -0.25
*EQUATION
5
1726, 2, 1.0, 346, 2, -0.25, 353, 2, -0.25, 354, 2, -0.25, 348, 2, -0.25
*EQUATION
5
1726, 3, 1.0, 346, 3, -0.25, 353, 3, -0.25, 354, 3, -0.25, 348, 3, -0.25
*EQUATION
3
1727, 1, 1.0, 348, 1, -0.5, 354, 1, -0.5
*EQUATION
3
1727, 2, 1.0, 348, 2, -0.5, 354, 2, -0.5
*EQUATION
3
1727, 3, 1.0, 348, 3, -0.5, 354, 3, -0.5
*EQUATION
3
1728, 1, 1.0, 353, 1, -0.5, 354, 1, -0.5
*EQUATION
3
1728, 2, 1.0, 353, 2, -0.5, 354, 2, -0.5
*EQUATION
3
1728, 3, 1.0, 353, 3, -0.5, 354, 3, -0.5
*EQUATION
5
1729, 1, 1.0, 299, 1, -0.25, 347, 1, -0.25, 367, 1, -0.25, 319, 1, -0.25
*EQUATION
5
1729, 2, 1.0, 299, 2, -0.25, 347, 2, -0.25, 367, 2, -0.25, 319, 2, -0.25
*EQUATION
5
1729, 3, 1.0, 299, 3, -0.25, 347, 3, -0.25, 367, 3, -0.25, 319, 3, -0.25
*EQUATION
3
1730, 1, 1.0, 319, 1, -0.5, 367, 1, -0.5
*EQUATION
3
1730, 2, 1.0, 319, 2, -0.5, 367, 2, -0.5
*EQUATION
3
1730, 3, 1.0, 319, 3, -0.5, 367, 3, -0.5
*EQUATION
5
1732, 1, 1.0, 319, 1, -0.25, 367, 1, -0.25, 369, 1, -0.25, 321, 1, -0.25
*EQUATION
5
1732, 2, 1.0, 319, 2, -0.25, 367, 2, -0.25, 369, 2, -0.25, 321, 2, -0.25
*EQUATION
5
1732, 3, 1.0, 319, 3, -0.25, 367, 3, -0.25, 369, 3, -0.25, 321, 3, -0.25
*EQUATION
3
1734, 1, 1.0, 321, 1, -0.5, 369, 1, -0.5
*EQUATION
3
1734, 2, 1.0, 321, 2, -0.5, 369, 2, -0.5
*EQUATION
3
1734, 3, 1.0, 321, 3, -0.5, 369, 3, -0.5
*EQUATION
3
1735, 1, 1.0, 347, 1, -0.5, 367, 1, -0.5
*EQUATION
3
1735, 2, 1.0, 347, 2, -0.5, 367, 2, -0.5
*EQUATION
3
1735, 3, 1.0, 347, 3, -0.5, 367, 3, -0.5
*EQUATION
5
1736, 1, 1.0, 347, 1, -0.25, 348, 1, -0.25, 369, 1, -0.25, 367, 1, -0.25
*EQUATION
5
1736, 2, 1.0, 347, 2, -0.25, 348, 2, -0.25, 369, 2, -0.25, 367, 2, -0.25
*EQUATION
5
1736, 3, 1.0, 347, 3, -0.25, 348, 3, -0.25, 369, 3, -0.25, 367, 3, -0.25
*EQUATION
3
1737, 1, 1.0, 367, 1, -0.5, 369, 1, -0.5
*EQUATION
3
1737, 2, 1.0, 367, 2, -0.5, 369, 2, -0.5
*EQUATION
3
1737, 3, 1.0, 367, 3, -0.5, 369, 3, -0.5
*EQUATION
3
1738, 1, 1.0, 348, 1, -0.5, 369, 1, -0.5
*EQUATION
3
1738, 2, 1.0, 348, 2, -0.5, 369, 2, -0.5
*EQUATION
3
1738, 3, 1.0, 348, 3, -0.5, 369, 3, -0.5
*EQUATION
5
1740, 1, 1.0, 321, 1, -0.25, 369, 1, -0.25, 371, 1, -0.25, 323, 1, -0.25
*EQUATION
5
1740, 2, 1.0, 321, 2, -0.25, 369, 2, -0.25, 371, 2, -0.25, 323, 2, -0.25
*EQUATION
5
1740, 3, 1.0, 321, 3, -0.25, 369, 3, -0.25, 371, 3, -0.25, 323, 3, -0.25
*EQUATION
5
1741, 1, 1.0, 306, 1, -0.25, 354, 1, -0.25, 371, 1, -0.25, 323, 1, -0.25
*EQUATION
5
1741, 2, 1.0, 306, 2, -0.25, 354, 2, -0.25, 371, 2, -0.25, 323, 2, -0.25
*EQUATION
5
1741, 3, 1.0, 306, 3, -0.25, 354, 3, -0.25, 371, 3, -0.25, 323, 3, -0.25
*EQUATION
3
1742, 1, 1.0, 323, 1, -0.5, 371, 1, -0.5
*EQUATION
3
1742, 2, 1.0, 323, 2, -0.5, 371, 2, -0.5
*EQUATION
3
1742, 3, 1.0, 323, 3, -0.5, 371, 3, -0.5
*EQUATION
5
1743, 1, 1.0, 348, 1, -0.25, 354, 1, -0.25, 371, 1, -0.25, 369, 1, -0.25
*EQUATION
5
1743, 2, 1.0, 348, 2, -0.25, 354, 2, -0.25, 371, 2, -0.25, 369, 2, -0.25
*EQUATION
5
1743, 3, 1.0, 348, 3, -0.25, 354, 3, -0.25, 371, 3, -0.25, 369, 3, -0.25
*EQUATION
3
1744, 1, 1.0, 369, 1, -0.5, 371, 1, -0.5
*EQUATION
3
1744, 2, 1.0, 369, 2, -0.5, 371, 2, -0.5
*EQUATION
3
1744, 3, 1.0, 369, 3, -0.5, 371, 3, -0.5
*EQUATION
3
1745, 1, 1.0, 354, 1, -0.5, 371, 1, -0.5
*EQUATION
3
1745, 2, 1.0, 354, 2, -0.5, 371, 2, -0.5
*EQUATION
3
1745, 3, 1.0, 354, 3, -0.5, 371, 3, -0.5
*EQUATION
3
1746, 1, 1.0, 537, 1, -0.5, 539, 1, -0.5
*EQUATION
3
1746, 2, 1.0, 537, 2, -0.5, 539, 2, -0.5
*EQUATION
3
1746, 3, 1.0, 537, 3, -0.5, 539, 3, -0.5
*EQUATION
3
1747, 1, 1.0, 537, 1, -0.5, 538, 1, -0.5
*EQUATION
3
1747, 2, 1.0, 537, 2, -0.5, 538, 2, -0.5
*EQUATION
3
1747, 3, 1.0, 537, 3, -0.5, 538, 3, -0.5
*EQUATION
5
1748, 1, 1.0, 537, 1, -0.25, 538, 1, -0.25, 540, 1, -0.25, 539, 1, -0.25
*EQUATION
5
1748, 2, 1.0, 537, 2, -0.25, 538, 2, -0.25, 540, 2, -0.25, 539, 2, -0.25
*EQUATION
5
1748, 3, 1.0, 537, 3, -0.25, 538, 3, -0.25, 540, 3, -0.25, 539, 3, -0.25
*EQUATION
3
1749, 1, 1.0, 539, 1, -0.5, 540, 1, -0.5
*EQUATION
3
1749, 2, 1.0, 539, 2, -0.5, 540, 2, -0.5
*EQUATION
3
1749, 3, 1.0, 539, 3, -0.5, 540, 3, -0.5
*EQUATION
3
1750, 1, 1.0, 538, 1, -0.5, 540, 1, -0.5
*EQUATION
3
1750, 2, 1.0, 538, 2, -0.5, 540, 2, -0.5
*EQUATION
3
1750, 3, 1.0, 538, 3, -0.5, 540, 3, -0.5
*EQUATION
3
1751, 1, 1.0, 537, 1, -0.5, 585, 1, -0.5
*EQUATION
3
1751, 2, 1.0, 537, 2, -0.5, 585, 2, -0.5
*EQUATION
3
1751, 3, 1.0, 537, 3, -0.5, 585, 3, -0.5
*EQUATION
3
1753, 1, 1.0, 539, 1, -0.5, 587, 1, -0.5
*EQUATION
3
1753, 2, 1.0, 539, 2, -0.5, 587, 2, -0.5
*EQUATION
3
1753, 3, 1.0, 539, 3, -0.5, 587, 3, -0.5
*EQUATION
5
1754, 1, 1.0, 537, 1, -0.25, 585, 1, -0.25, 586, 1, -0.25, 538, 1, -0.25
*EQUATION
5
1754, 2, 1.0, 537, 2, -0.25, 585, 2, -0.25, 586, 2, -0.25, 538, 2, -0.25
*EQUATION
5
1754, 3, 1.0, 537, 3, -0.25, 585, 3, -0.25, 586, 3, -0.25, 538, 3, -0.25
*EQUATION
3
1757, 1, 1.0, 538, 1, -0.5, 586, 1, -0.5
*EQUATION
3
1757, 2, 1.0, 538, 2, -0.5, 586, 2, -0.5
*EQUATION
3
1757, 3, 1.0, 538, 3, -0.5, 586, 3, -0.5
*EQUATION
3
1760, 1, 1.0, 538, 1, -0.5, 545, 1, -0.5
*EQUATION
3
1760, 2, 1.0, 538, 2, -0.5, 545, 2, -0.5
*EQUATION
3
1760, 3, 1.0, 538, 3, -0.5, 545, 3, -0.5
*EQUATION
5
1761, 1, 1.0, 538, 1, -0.25, 545, 1, -0.25, 546, 1, -0.25, 540, 1, -0.25
*EQUATION
5
1761, 2, 1.0, 538, 2, -0.25, 545, 2, -0.25, 546, 2, -0.25, 540, 2, -0.25
*EQUATION
5
1761, 3, 1.0, 538, 3, -0.25, 545, 3, -0.25, 546, 3, -0.25, 540, 3, -0.25
*EQUATION
3
1762, 1, 1.0, 540, 1, -0.5, 546, 1, -0.5
*EQUATION
3
1762, 2, 1.0, 540, 2, -0.5, 546, 2, -0.5
*EQUATION
3
1762, 3, 1.0, 540, 3, -0.5, 546, 3, -0.5
*EQUATION
3
1763, 1, 1.0, 545, 1, -0.5, 546, 1, -0.5
*EQUATION
3
1763, 2, 1.0, 545, 2, -0.5, 546, 2, -0.5
*EQUATION
3
1763, 3, 1.0, 545, 3, -0.5, 546, 3, -0.5
*EQUATION
5
1764, 1, 1.0, 538, 1, -0.25, 586, 1, -0.25, 593, 1, -0.25, 545, 1, -0.25
*EQUATION
5
1764, 2, 1.0, 538, 2, -0.25, 586, 2, -0.25, 593, 2, -0.25, 545, 2, -0.25
*EQUATION
5
1764, 3, 1.0, 538, 3, -0.25, 586, 3, -0.25, 593, 3, -0.25, 545, 3, -0.25
*EQUATION
3
1767, 1, 1.0, 545, 1, -0.5, 593, 1, -0.5
*EQUATION
3
1767, 2, 1.0, 545, 2, -0.5, 593, 2, -0.5
*EQUATION
3
1767, 3, 1.0, 545, 3, -0.5, 593, 3, -0.5
*EQUATION
3
1769, 1, 1.0, 546, 1, -0.5, 594, 1, -0.5
*EQUATION
3
1769, 2, 1.0, 546, 2, -0.5, 594, 2, -0.5
*EQUATION
3
1769, 3, 1.0, 546, 3, -0.5, 594, 3, -0.5
*EQUATION
3
1770, 1, 1.0, 539, 1, -0.5, 559, 1, -0.5
*EQUATION
3
1770, 2, 1.0, 539, 2, -0.5, 559, 2, -0.5
*EQUATION
3
1770, 3, 1.0, 539, 3, -0.5, 559, 3, -0.5
*EQUATION
5
1771, 1, 1.0, 539, 1, -0.25, 540, 1, -0.25, 561, 1, -0.25, 559, 1, -0.25
*EQUATION
5
1771, 2, 1.0, 539, 2, -0.25, 540, 2, -0.25, 561, 2, -0.25, 559, 2, -0.25
*EQUATION
5
1771, 3, 1.0, 539, 3, -0.25, 540, 3, -0.25, 561, 3, -0.25, 559, 3, -0.25
*EQUATION
3
1772, 1, 1.0, 559, 1, -0.5, 561, 1, -0.5
*EQUATION
3
1772, 2, 1.0, 559, 2, -0.5, 561, 2, -0.5
*EQUATION
3
1772, 3, 1.0, 559, 3, -0.5, 561, 3, -0.5
*EQUATION
3
1773, 1, 1.0, 540, 1, -0.5, 561, 1, -0.5
*EQUATION
3
1773, 2, 1.0, 540, 2, -0.5, 561, 2, -0.5
*EQUATION
3
1773, 3, 1.0, 540, 3, -0.5, 561, 3, -0.5
*EQUATION
5
1774, 1, 1.0, 539, 1, -0.25, 587, 1, -0.25, 607, 1, -0.25, 559, 1, -0.25
*EQUATION
5
1774, 2, 1.0, 539, 2, -0.25, 587, 2, -0.25, 607, 2, -0.25, 559, 2, -0.25
*EQUATION
5
1774, 3, 1.0, 539, 3, -0.25, 587, 3, -0.25, 607, 3, -0.25, 559, 3, -0.25
*EQUATION
3
1775, 1, 1.0, 559, 1, -0.5, 607, 1, -0.5
*EQUATION
3
1775, 2, 1.0, 559, 2, -0.5, 607, 2, -0.5
*EQUATION
3
1775, 3, 1.0, 559, 3, -0.5, 607, 3, -0.5
*EQUATION
5
1777, 1, 1.0, 559, 1, -0.25, 607, 1, -0.25, 609, 1, -0.25, 561, 1, -0.25
*EQUATION
5
1777, 2, 1.0, 559, 2, -0.25, 607, 2, -0.25, 609, 2, -0.25, 561, 2, -0.25
*EQUATION
5
1777, 3, 1.0, 559, 3, -0.25, 607, 3, -0.25, 609, 3, -0.25, 561, 3, -0.25
*EQUATION
3
1779, 1, 1.0, 561, 1, -0.5, 609, 1, -0.5
*EQUATION
3
1779, 2, 1.0, 561, 2, -0.5, 609, 2, -0.5
*EQUATION
3
1779, 3, 1.0, 561, 3, -0.5, 609, 3, -0.5
*EQUATION
5
1780, 1, 1.0, 540, 1, -0.25, 546, 1, -0.25, 563, 1, -0.25, 561, 1, -0.25
*EQUATION
5
1780, 2, 1.0, 540, 2, -0.25, 546, 2, -0.25, 563, 2, -0.25, 561, 2, -0.25
*EQUATION
5
1780, 3, 1.0, 540, 3, -0.25, 546, 3, -0.25, 563, 3, -0.25, 561, 3, -0.25
*EQUATION
3
1781, 1, 1.0, 561, 1, -0.5, 563, 1, -0.5
*EQUATION
3
1781, 2, 1.0, 561, 2, -0.5, 563, 2, -0.5
*EQUATION
3
1781, 3, 1.0, 561, 3, -0.5, 563, 3, -0.5
*EQUATION
3
1782, 1, 1.0, 546, 1, -0.5, 563, 1, -0.5
*EQUATION
3
1782, 2, 1.0, 546, 2, -0.5, 563, 2, -0.5
*EQUATION
3
1782, 3, 1.0, 546, 3, -0.5, 563, 3, -0.5
*EQUATION
5
1784, 1, 1.0, 561, 1, -0.25, 609, 1, -0.25, 611, 1, -0.25, 563, 1, -0.25
*EQUATION
5
1784, 2, 1.0, 561, 2, -0.25, 609, 2, -0.25, 611, 2, -0.25, 563, 2, -0.25
*EQUATION
5
1784, 3, 1.0, 561, 3, -0.25, 609, 3, -0.25, 611, 3, -0.25, 563, 3, -0.25
*EQUATION
5
1785, 1, 1.0, 546, 1, -0.25, 594, 1, -0.25, 611, 1, -0.25, 563, 1, -0.25
*EQUATION
5
1785, 2, 1.0, 546, 2, -0.25, 594, 2, -0.25, 611, 2, -0.25, 563, 2, -0.25
*EQUATION
5
1785, 3, 1.0, 546, 3, -0.25, 594, 3, -0.25, 611, 3, -0.25, 563, 3, -0.25
*EQUATION
3
1786, 1, 1.0, 563, 1, -0.5, 611, 1, -0.5
*EQUATION
3
1786, 2, 1.0, 563, 2, -0.5, 611, 2, -0.5
*EQUATION
3
1786, 3, 1.0, 563, 3, -0.5, 611, 3, -0.5
*EQUATION
3
1787, 1, 1.0, 987, 1, -0.5, 1014, 1, -0.5
*EQUATION
3
1787, 2, 1.0, 987, 2, -0.5, 1014, 2, -0.5
*EQUATION
3
1787, 3, 1.0, 987, 3, -0.5, 1014, 3, -0.5
*EQUATION
3
1788, 1, 1.0, 636, 1, -0.5, 987, 1, -0.5
*EQUATION
3
1788, 2, 1.0, 636, 2, -0.5, 987, 2, -0.5
*EQUATION
3
1788, 3, 1.0, 636, 3, -0.5, 987, 3, -0.5
*EQUATION
5
1789, 1, 1.0, 987, 1, -0.25, 636, 1, -0.25, 1016, 1, -0.25, 1014, 1, -0.25
*EQUATION
5
1789, 2, 1.0, 987, 2, -0.25, 636, 2, -0.25, 1016, 2, -0.25, 1014, 2, -0.25
*EQUATION
5
1789, 3, 1.0, 987, 3, -0.25, 636, 3, -0.25, 1016, 3, -0.25, 1014, 3, -0.25
*EQUATION
3
1790, 1, 1.0, 1014, 1, -0.5, 1016, 1, -0.5
*EQUATION
3
1790, 2, 1.0, 1014, 2, -0.5, 1016, 2, -0.5
*EQUATION
3
1790, 3, 1.0, 1014, 3, -0.5, 1016, 3, -0.5
*EQUATION
3
1791, 1, 1.0, 636, 1, -0.5, 1016, 1, -0.5
*EQUATION
3
1791, 2, 1.0, 636, 2, -0.5, 1016, 2, -0.5
*EQUATION
3
1791, 3, 1.0, 636, 3, -0.5, 1016, 3, -0.5
*EQUATION
3
1792, 1, 1.0, 987, 1, -0.5, 1032, 1, -0.5
*EQUATION
3
1792, 2, 1.0, 987, 2, -0.5, 1032, 2, -0.5
*EQUATION
3
1792, 3, 1.0, 987, 3, -0.5, 1032, 3, -0.5
*EQUATION
5
1793, 1, 1.0, 987, 1, -0.25, 1032, 1, -0.25, 1053, 1, -0.25, 1014, 1, -0.25
*EQUATION
5
1793, 2, 1.0, 987, 2, -0.25, 1032, 2, -0.25, 1053, 2, -0.25, 1014, 2, -0.25
*EQUATION
5
1793, 3, 1.0, 987, 3, -0.25, 1032, 3, -0.25, 1053, 3, -0.25, 1014, 3, -0.25
*EQUATION
3
1794, 1, 1.0, 1014, 1, -0.5, 1053, 1, -0.5
*EQUATION
3
1794, 2, 1.0, 1014, 2, -0.5, 1053, 2, -0.5
*EQUATION
3
1794, 3, 1.0, 1014, 3, -0.5, 1053, 3, -0.5
*EQUATION
5
1795, 1, 1.0, 987, 1, -0.25, 1032, 1, -0.25, 1035, 1, -0.25, 636, 1, -0.25
*EQUATION
5
1795, 2, 1.0, 987, 2, -0.25, 1032, 2, -0.25, 1035, 2, -0.25, 636, 2, -0.25
*EQUATION
5
1795, 3, 1.0, 987, 3, -0.25, 1032, 3, -0.25, 1035, 3, -0.25, 636, 3, -0.25
*EQUATION
5
1797, 1, 1.0, 1014, 1, -0.25, 1053, 1, -0.25, 1055, 1, -0.25, 1016, 1, -0.25
*EQUATION
5
1797, 2, 1.0, 1014, 2, -0.25, 1053, 2, -0.25, 1055, 2, -0.25, 1016, 2, -0.25
*EQUATION
5
1797, 3, 1.0, 1014, 3, -0.25, 1053, 3, -0.25, 1055, 3, -0.25, 1016, 3, -0.25
*EQUATION
3
1798, 1, 1.0, 636, 1, -0.5, 1035, 1, -0.5
*EQUATION
3
1798, 2, 1.0, 636, 2, -0.5, 1035, 2, -0.5
*EQUATION
3
1798, 3, 1.0, 636, 3, -0.5, 1035, 3, -0.5
*EQUATION
3
1800, 1, 1.0, 1016, 1, -0.5, 1055, 1, -0.5
*EQUATION
3
1800, 2, 1.0, 1016, 2, -0.5, 1055, 2, -0.5
*EQUATION
3
1800, 3, 1.0, 1016, 3, -0.5, 1055, 3, -0.5
*EQUATION
3
1801, 1, 1.0, 1032, 1, -0.5, 1053, 1, -0.5
*EQUATION
3
1801, 2, 1.0, 1032, 2, -0.5, 1053, 2, -0.5
*EQUATION
3
1801, 3, 1.0, 1032, 3, -0.5, 1053, 3, -0.5
*EQUATION
3
1802, 1, 1.0, 1032, 1, -0.5, 1035, 1, -0.5
*EQUATION
3
1802, 2, 1.0, 1032, 2, -0.5, 1035, 2, -0.5
*EQUATION
3
1802, 3, 1.0, 1032, 3, -0.5, 1035, 3, -0.5
*EQUATION
5
1803, 1, 1.0, 1032, 1, -0.25, 1035, 1, -0.25, 1055, 1, -0.25, 1053, 1, -0.25
*EQUATION
5
1803, 2, 1.0, 1032, 2, -0.25, 1035, 2, -0.25, 1055, 2, -0.25, 1053, 2, -0.25
*EQUATION
5
1803, 3, 1.0, 1032, 3, -0.25, 1035, 3, -0.25, 1055, 3, -0.25, 1053, 3, -0.25
*EQUATION
3
1804, 1, 1.0, 1053, 1, -0.5, 1055, 1, -0.5
*EQUATION
3
1804, 2, 1.0, 1053, 2, -0.5, 1055, 2, -0.5
*EQUATION
3
1804, 3, 1.0, 1053, 3, -0.5, 1055, 3, -0.5
*EQUATION
3
1805, 1, 1.0, 1035, 1, -0.5, 1055, 1, -0.5
*EQUATION
3
1805, 2, 1.0, 1035, 2, -0.5, 1055, 2, -0.5
*EQUATION
3
1805, 3, 1.0, 1035, 3, -0.5, 1055, 3, -0.5
*EQUATION
3
1806, 1, 1.0, 636, 1, -0.5, 1001, 1, -0.5
*EQUATION
3
1806, 2, 1.0, 636, 2, -0.5, 1001, 2, -0.5
*EQUATION
3
1806, 3, 1.0, 636, 3, -0.5, 1001, 3, -0.5
*EQUATION
5
1807, 1, 1.0, 636, 1, -0.25, 1001, 1, -0.25, 1024, 1, -0.25, 1016, 1, -0.25
*EQUATION
5
1807, 2, 1.0, 636, 2, -0.25, 1001, 2, -0.25, 1024, 2, -0.25, 1016, 2, -0.25
*EQUATION
5
1807, 3, 1.0, 636, 3, -0.25, 1001, 3, -0.25, 1024, 3, -0.25, 1016, 3, -0.25
*EQUATION
3
1808, 1, 1.0, 1016, 1, -0.5, 1024, 1, -0.5
*EQUATION
3
1808, 2, 1.0, 1016, 2, -0.5, 1024, 2, -0.5
*EQUATION
3
1808, 3, 1.0, 1016, 3, -0.5, 1024, 3, -0.5
*EQUATION
3
1809, 1, 1.0, 1001, 1, -0.5, 1024, 1, -0.5
*EQUATION
3
1809, 2, 1.0, 1001, 2, -0.5, 1024, 2, -0.5
*EQUATION
3
1809, 3, 1.0, 1001, 3, -0.5, 1024, 3, -0.5
*EQUATION
5
1810, 1, 1.0, 636, 1, -0.25, 1035, 1, -0.25, 1043, 1, -0.25, 1001, 1, -0.25
*EQUATION
5
1810, 2, 1.0, 636, 2, -0.25, 1035, 2, -0.25, 1043, 2, -0.25, 1001, 2, -0.25
*EQUATION
5
1810, 3, 1.0, 636, 3, -0.25, 1035, 3, -0.25, 1043, 3, -0.25, 1001, 3, -0.25
*EQUATION
5
1812, 1, 1.0, 1016, 1, -0.25, 1055, 1, -0.25, 1061, 1, -0.25, 1024, 1, -0.25
*EQUATION
5
1812, 2, 1.0, 1016, 2, -0.25, 1055, 2, -0.25, 1061, 2, -0.25, 1024, 2, -0.25
*EQUATION
5
1812, 3, 1.0, 1016, 3, -0.25, 1055, 3, -0.25, 1061, 3, -0.25, 1024, 3, -0.25
*EQUATION
3
1813, 1, 1.0, 1001, 1, -0.5, 1043, 1, -0.5
*EQUATION
3
1813, 2, 1.0, 1001, 2, -0.5, 1043, 2, -0.5
*EQUATION
3
1813, 3, 1.0, 1001, 3, -0.5, 1043, 3, -0.5
*EQUATION
5
1814, 1, 1.0, 1001, 1, -0.25, 1043, 1, -0.25, 1061, 1, -0.25, 1024, 1, -0.25
*EQUATION
5
1814, 2, 1.0, 1001, 2, -0.25, 1043, 2, -0.25, 1061, 2, -0.25, 1024, 2, -0.25
*EQUATION
5
1814, 3, 1.0, 1001, 3, -0.25, 1043, 3, -0.25, 1061, 3, -0.25, 1024, 3, -0.25
*EQUATION
3
1815, 1, 1.0, 1024, 1, -0.5, 1061, 1, -0.5
*EQUATION
3
1815, 2, 1.0, 1024, 2, -0.5, 1061, 2, -0.5
*EQUATION
3
1815, 3, 1.0, 1024, 3, -0.5, 1061, 3, -0.5
*EQUATION
3
1816, 1, 1.0, 1035, 1, -0.5, 1043, 1, -0.5
*EQUATION
3
1816, 2, 1.0, 1035, 2, -0.5, 1043, 2, -0.5
*EQUATION
3
1816, 3, 1.0, 1035, 3, -0.5, 1043, 3, -0.5
*EQUATION
5
1817, 1, 1.0, 1035, 1, -0.25, 1043, 1, -0.25, 1061, 1, -0.25, 1055, 1, -0.25
*EQUATION
5
1817, 2, 1.0, 1035, 2, -0.25, 1043, 2, -0.25, 1061, 2, -0.25, 1055, 2, -0.25
*EQUATION
5
1817, 3, 1.0, 1035, 3, -0.25, 1043, 3, -0.25, 1061, 3, -0.25, 1055, 3, -0.25
*EQUATION
3
1818, 1, 1.0, 1055, 1, -0.5, 1061, 1, -0.5
*EQUATION
3
1818, 2, 1.0, 1055, 2, -0.5, 1061, 2, -0.5
*EQUATION
3
1818, 3, 1.0, 1055, 3, -0.5, 1061, 3, -0.5
*EQUATION
3
1819, 1, 1.0, 1043, 1, -0.5, 1061, 1, -0.5
*EQUATION
3
1819, 2, 1.0, 1043, 2, -0.5, 1061, 2, -0.5
*EQUATION
3
1819, 3, 1.0, 1043, 3, -0.5, 1061, 3, -0.5
*EQUATION
3
1820, 1, 1.0, 1039, 1, -0.5, 1058, 1, -0.5
*EQUATION
3
1820, 2, 1.0, 1039, 2, -0.5, 1058, 2, -0.5
*EQUATION
3
1820, 3, 1.0, 1039, 3, -0.5, 1058, 3, -0.5
*EQUATION
3
1821, 1, 1.0, 684, 1, -0.5, 1039, 1, -0.5
*EQUATION
3
1821, 2, 1.0, 684, 2, -0.5, 1039, 2, -0.5
*EQUATION
3
1821, 3, 1.0, 684, 3, -0.5, 1039, 3, -0.5
*EQUATION
5
1822, 1, 1.0, 1039, 1, -0.25, 684, 1, -0.25, 1060, 1, -0.25, 1058, 1, -0.25
*EQUATION
5
1822, 2, 1.0, 1039, 2, -0.25, 684, 2, -0.25, 1060, 2, -0.25, 1058, 2, -0.25
*EQUATION
5
1822, 3, 1.0, 1039, 3, -0.25, 684, 3, -0.25, 1060, 3, -0.25, 1058, 3, -0.25
*EQUATION
3
1823, 1, 1.0, 1058, 1, -0.5, 1060, 1, -0.5
*EQUATION
3
1823, 2, 1.0, 1058, 2, -0.5, 1060, 2, -0.5
*EQUATION
3
1823, 3, 1.0, 1058, 3, -0.5, 1060, 3, -0.5
*EQUATION
3
1824, 1, 1.0, 684, 1, -0.5, 1060, 1, -0.5
*EQUATION
3
1824, 2, 1.0, 684, 2, -0.5, 1060, 2, -0.5
*EQUATION
3
1824, 3, 1.0, 684, 3, -0.5, 1060, 3, -0.5
*EQUATION
3
1825, 1, 1.0, 1039, 1, -0.5, 1073, 1, -0.5
*EQUATION
3
1825, 2, 1.0, 1039, 2, -0.5, 1073, 2, -0.5
*EQUATION
3
1825, 3, 1.0, 1039, 3, -0.5, 1073, 3, -0.5
*EQUATION
5
1826, 1, 1.0, 1039, 1, -0.25, 1073, 1, -0.25, 1094, 1, -0.25, 1058, 1, -0.25
*EQUATION
5
1826, 2, 1.0, 1039, 2, -0.25, 1073, 2, -0.25, 1094, 2, -0.25, 1058, 2, -0.25
*EQUATION
5
1826, 3, 1.0, 1039, 3, -0.25, 1073, 3, -0.25, 1094, 3, -0.25, 1058, 3, -0.25
*EQUATION
3
1827, 1, 1.0, 1058, 1, -0.5, 1094, 1, -0.5
*EQUATION
3
1827, 2, 1.0, 1058, 2, -0.5, 1094, 2, -0.5
*EQUATION
3
1827, 3, 1.0, 1058, 3, -0.5, 1094, 3, -0.5
*EQUATION
5
1828, 1, 1.0, 1039, 1, -0.25, 1073, 1, -0.25, 1076, 1, -0.25, 684, 1, -0.25
*EQUATION
5
1828, 2, 1.0, 1039, 2, -0.25, 1073, 2, -0.25, 1076, 2, -0.25, 684, 2, -0.25
*EQUATION
5
1828, 3, 1.0, 1039, 3, -0.25, 1073, 3, -0.25, 1076, 3, -0.25, 684, 3, -0.25
*EQUATION
5
1830, 1, 1.0, 1058, 1, -0.25, 1094, 1, -0.25, 1096, 1, -0.25, 1060, 1, -0.25
*EQUATION
5
1830, 2, 1.0, 1058, 2, -0.25, 1094, 2, -0.25, 1096, 2, -0.25, 1060, 2, -0.25
*EQUATION
5
1830, 3, 1.0, 1058, 3, -0.25, 1094, 3, -0.25, 1096, 3, -0.25, 1060, 3, -0.25
*EQUATION
3
1831, 1, 1.0, 684, 1, -0.5, 1076, 1, -0.5
*EQUATION
3
1831, 2, 1.0, 684, 2, -0.5, 1076, 2, -0.5
*EQUATION
3
1831, 3, 1.0, 684, 3, -0.5, 1076, 3, -0.5
*EQUATION
3
1833, 1, 1.0, 1060, 1, -0.5, 1096, 1, -0.5
*EQUATION
3
1833, 2, 1.0, 1060, 2, -0.5, 1096, 2, -0.5
*EQUATION
3
1833, 3, 1.0, 1060, 3, -0.5, 1096, 3, -0.5
*EQUATION
3
1834, 1, 1.0, 1073, 1, -0.5, 1094, 1, -0.5
*EQUATION
3
1834, 2, 1.0, 1073, 2, -0.5, 1094, 2, -0.5
*EQUATION
3
1834, 3, 1.0, 1073, 3, -0.5, 1094, 3, -0.5
*EQUATION
3
1835, 1, 1.0, 1073, 1, -0.5, 1076, 1, -0.5
*EQUATION
3
1835, 2, 1.0, 1073, 2, -0.5, 1076, 2, -0.5
*EQUATION
3
1835, 3, 1.0, 1073, 3, -0.5, 1076, 3, -0.5
*EQUATION
5
1836, 1, 1.0, 1073, 1, -0.25, 1076, 1, -0.25, 1096, 1, -0.25, 1094, 1, -0.25
*EQUATION
5
1836, 2, 1.0, 1073, 2, -0.25, 1076, 2, -0.25, 1096, 2, -0.25, 1094, 2, -0.25
*EQUATION
5
1836, 3, 1.0, 1073, 3, -0.25, 1076, 3, -0.25, 1096, 3, -0.25, 1094, 3, -0.25
*EQUATION
3
1837, 1, 1.0, 1094, 1, -0.5, 1096, 1, -0.5
*EQUATION
3
1837, 2, 1.0, 1094, 2, -0.5, 1096, 2, -0.5
*EQUATION
3
1837, 3, 1.0, 1094, 3, -0.5, 1096, 3, -0.5
*EQUATION
3
1838, 1, 1.0, 1076, 1, -0.5, 1096, 1, -0.5
*EQUATION
3
1838, 2, 1.0, 1076, 2, -0.5, 1096, 2, -0.5
*EQUATION
3
1838, 3, 1.0, 1076, 3, -0.5, 1096, 3, -0.5
*EQUATION
3
1839, 1, 1.0, 684, 1, -0.5, 1049, 1, -0.5
*EQUATION
3
1839, 2, 1.0, 684, 2, -0.5, 1049, 2, -0.5
*EQUATION
3
1839, 3, 1.0, 684, 3, -0.5, 1049, 3, -0.5
*EQUATION
5
1840, 1, 1.0, 684, 1, -0.25, 1049, 1, -0.25, 1065, 1, -0.25, 1060, 1, -0.25
*EQUATION
5
1840, 2, 1.0, 684, 2, -0.25, 1049, 2, -0.25, 1065, 2, -0.25, 1060, 2, -0.25
*EQUATION
5
1840, 3, 1.0, 684, 3, -0.25, 1049, 3, -0.25, 1065, 3, -0.25, 1060, 3, -0.25
*EQUATION
3
1841, 1, 1.0, 1060, 1, -0.5, 1065, 1, -0.5
*EQUATION
3
1841, 2, 1.0, 1060, 2, -0.5, 1065, 2, -0.5
*EQUATION
3
1841, 3, 1.0, 1060, 3, -0.5, 1065, 3, -0.5
*EQUATION
3
1842, 1, 1.0, 1049, 1, -0.5, 1065, 1, -0.5
*EQUATION
3
1842, 2, 1.0, 1049, 2, -0.5, 1065, 2, -0.5
*EQUATION
3
1842, 3, 1.0, 1049, 3, -0.5, 1065, 3, -0.5
*EQUATION
5
1843, 1, 1.0, 684, 1, -0.25, 1076, 1, -0.25, 1084, 1, -0.25, 1049, 1, -0.25
*EQUATION
5
1843, 2, 1.0, 684, 2, -0.25, 1076, 2, -0.25, 1084, 2, -0.25, 1049, 2, -0.25
*EQUATION
5
1843, 3, 1.0, 684, 3, -0.25, 1076, 3, -0.25, 1084, 3, -0.25, 1049, 3, -0.25
*EQUATION
5
1845, 1, 1.0, 1060, 1, -0.25, 1096, 1, -0.25, 1102, 1, -0.25, 1065, 1, -0.25
*EQUATION
5
1845, 2, 1.0, 1060, 2, -0.25, 1096, 2, -0.25, 1102, 2, -0.25, 1065, 2, -0.25
*EQUATION
5
1845, 3, 1.0, 1060, 3, -0.25, 1096, 3, -0.25, 1102, 3, -0.25, 1065, 3, -0.25
*EQUATION
3
1846, 1, 1.0, 1049, 1, -0.5, 1084, 1, -0.5
*EQUATION
3
1846, 2, 1.0, 1049, 2, -0.5, 1084, 2, -0.5
*EQUATION
3
1846, 3, 1.0, 1049, 3, -0.5, 1084, 3, -0.5
*EQUATION
5
1847, 1, 1.0, 1049, 1, -0.25, 1084, 1, -0.25, 1102, 1, -0.25, 1065, 1, -0.25
*EQUATION
5
1847, 2, 1.0, 1049, 2, -0.25, 1084, 2, -0.25, 1102, 2, -0.25, 1065, 2, -0.25
*EQUATION
5
1847, 3, 1.0, 1049, 3, -0.25, 1084, 3, -0.25, 1102, 3, -0.25, 1065, 3, -0.25
*EQUATION
3
1848, 1, 1.0, 1065, 1, -0.5, 1102, 1, -0.5
*EQUATION
3
1848, 2, 1.0, 1065, 2, -0.5, 1102, 2, -0.5
*EQUATION
3
1848, 3, 1.0, 1065, 3, -0.5, 1102, 3, -0.5
*EQUATION
3
1849, 1, 1.0, 1076, 1, -0.5, 1084, 1, -0.5
*EQUATION
3
1849, 2, 1.0, 1076, 2, -0.5, 1084, 2, -0.5
*EQUATION
3
1849, 3, 1.0, 1076, 3, -0.5, 1084, 3, -0.5
*EQUATION
5
1850, 1, 1.0, 1076, 1, -0.25, 1084, 1, -0.25, 1102, 1, -0.25, 1096, 1, -0.25
*EQUATION
5
1850, 2, 1.0, 1076, 2, -0.25, 1084, 2, -0.25, 1102, 2, -0.25, 1096, 2, -0.25
*EQUATION
5
1850, 3, 1.0, 1076, 3, -0.25, 1084, 3, -0.25, 1102, 3, -0.25, 1096, 3, -0.25
*EQUATION
3
1851, 1, 1.0, 1096, 1, -0.5, 1102, 1, -0.5
*EQUATION
3
1851, 2, 1.0, 1096, 2, -0.5, 1102, 2, -0.5
*EQUATION
3
1851, 3, 1.0, 1096, 3, -0.5, 1102, 3, -0.5
*EQUATION
3
1852, 1, 1.0, 1084, 1, -0.5, 1102, 1, -0.5
*EQUATION
3
1852, 2, 1.0, 1084, 2, -0.5, 1102, 2, -0.5
*EQUATION
3
1852, 3, 1.0, 1084, 3, -0.5, 1102, 3, -0.5
*EQUATION
3
1853, 1, 1.0, 1110, 1, -0.5, 1111, 1, -0.5
*EQUATION
3
1853, 2, 1.0, 1110, 2, -0.5, 1111, 2, -0.5
*EQUATION
3
1853, 3, 1.0, 1110, 3, -0.5, 1111, 3, -0.5
*EQUATION
3
1854, 1, 1.0, 1110, 1, -0.5, 1113, 1, -0.5
*EQUATION
3
1854, 2, 1.0, 1110, 2, -0.5, 1113, 2, -0.5
*EQUATION
3
1854, 3, 1.0, 1110, 3, -0.5, 1113, 3, -0.5
*EQUATION
5
1855, 1, 1.0, 1110, 1, -0.25, 1113, 1, -0.25, 1114, 1, -0.25, 1111, 1, -0.25
*EQUATION
5
1855, 2, 1.0, 1110, 2, -0.25, 1113, 2, -0.25, 1114, 2, -0.25, 1111, 2, -0.25
*EQUATION
5
1855, 3, 1.0, 1110, 3, -0.25, 1113, 3, -0.25, 1114, 3, -0.25, 1111, 3, -0.25
*EQUATION
3
1856, 1, 1.0, 1111, 1, -0.5, 1114, 1, -0.5
*EQUATION
3
1856, 2, 1.0, 1111, 2, -0.5, 1114, 2, -0.5
*EQUATION
3
1856, 3, 1.0, 1111, 3, -0.5, 1114, 3, -0.5
*EQUATION
3
1857, 1, 1.0, 1113, 1, -0.5, 1114, 1, -0.5
*EQUATION
3
1857, 2, 1.0, 1113, 2, -0.5, 1114, 2, -0.5
*EQUATION
3
1857, 3, 1.0, 1113, 3, -0.5, 1114, 3, -0.5
*EQUATION
3
1858, 1, 1.0, 1110, 1, -0.5, 1118, 1, -0.5
*EQUATION
3
1858, 2, 1.0, 1110, 2, -0.5, 1118, 2, -0.5
*EQUATION
3
1858, 3, 1.0, 1110, 3, -0.5, 1118, 3, -0.5
*EQUATION
3
1860, 1, 1.0, 779, 1, -0.5, 1111, 1, -0.5
*EQUATION
3
1860, 2, 1.0, 779, 2, -0.5, 1111, 2, -0.5
*EQUATION
3
1860, 3, 1.0, 779, 3, -0.5, 1111, 3, -0.5
*EQUATION
5
1861, 1, 1.0, 1110, 1, -0.25, 1118, 1, -0.25, 1120, 1, -0.25, 1113, 1, -0.25
*EQUATION
5
1861, 2, 1.0, 1110, 2, -0.25, 1118, 2, -0.25, 1120, 2, -0.25, 1113, 2, -0.25
*EQUATION
5
1861, 3, 1.0, 1110, 3, -0.25, 1118, 3, -0.25, 1120, 3, -0.25, 1113, 3, -0.25
*EQUATION
5
1863, 1, 1.0, 1111, 1, -0.25, 779, 1, -0.25, 1121, 1, -0.25, 1114, 1, -0.25
*EQUATION
5
1863, 2, 1.0, 1111, 2, -0.25, 779, 2, -0.25, 1121, 2, -0.25, 1114, 2, -0.25
*EQUATION
5
1863, 3, 1.0, 1111, 3, -0.25, 779, 3, -0.25, 1121, 3, -0.25, 1114, 3, -0.25
*EQUATION
3
1864, 1, 1.0, 1113, 1, -0.5, 1120, 1, -0.5
*EQUATION
3
1864, 2, 1.0, 1113, 2, -0.5, 1120, 2, -0.5
*EQUATION
3
1864, 3, 1.0, 1113, 3, -0.5, 1120, 3, -0.5
*EQUATION
5
1865, 1, 1.0, 1113, 1, -0.25, 1120, 1, -0.25, 1121, 1, -0.25, 1114, 1, -0.25
*EQUATION
5
1865, 2, 1.0, 1113, 2, -0.25, 1120, 2, -0.25, 1121, 2, -0.25, 1114, 2, -0.25
*EQUATION
5
1865, 3, 1.0, 1113, 3, -0.25, 1120, 3, -0.25, 1121, 3, -0.25, 1114, 3, -0.25
*EQUATION
3
1866, 1, 1.0, 1114, 1, -0.5, 1121, 1, -0.5
*EQUATION
3
1866, 2, 1.0, 1114, 2, -0.5, 1121, 2, -0.5
*EQUATION
3
1866, 3, 1.0, 1114, 3, -0.5, 1121, 3, -0.5
*EQUATION
3
1867, 1, 1.0, 779, 1, -0.5, 1118, 1, -0.5
*EQUATION
3
1867, 2, 1.0, 779, 2, -0.5, 1118, 2, -0.5
*EQUATION
3
1867, 3, 1.0, 779, 3, -0.5, 1118, 3, -0.5
*EQUATION
3
1868, 1, 1.0, 1118, 1, -0.5, 1120, 1, -0.5
*EQUATION
3
1868, 2, 1.0, 1118, 2, -0.5, 1120, 2, -0.5
*EQUATION
3
1868, 3, 1.0, 1118, 3, -0.5, 1120, 3, -0.5
*EQUATION
5
1869, 1, 1.0, 1118, 1, -0.25, 1120, 1, -0.25, 1121, 1, -0.25, 779, 1, -0.25
*EQUATION
5
1869, 2, 1.0, 1118, 2, -0.25, 1120, 2, -0.25, 1121, 2, -0.25, 779, 2, -0.25
*EQUATION
5
1869, 3, 1.0, 1118, 3, -0.25, 1120, 3, -0.25, 1121, 3, -0.25, 779, 3, -0.25
*EQUATION
3
1870, 1, 1.0, 779, 1, -0.5, 1121, 1, -0.5
*EQUATION
3
1870, 2, 1.0, 779, 2, -0.5, 1121, 2, -0.5
*EQUATION
3
1870, 3, 1.0, 779, 3, -0.5, 1121, 3, -0.5
*EQUATION
3
1871, 1, 1.0, 1120, 1, -0.5, 1121, 1, -0.5
*EQUATION
3
1871, 2, 1.0, 1120, 2, -0.5, 1121, 2, -0.5
*EQUATION
3
1871, 3, 1.0, 1120, 3, -0.5, 1121, 3, -0.5
*EQUATION
3
1872, 1, 1.0, 1089, 1, -0.5, 1090, 1, -0.5
*EQUATION
3
1872, 2, 1.0, 1089, 2, -0.5, 1090, 2, -0.5
*EQUATION
3
1872, 3, 1.0, 1089, 3, -0.5, 1090, 3, -0.5
*EQUATION
3
1873, 1, 1.0, 1089, 1, -0.5, 1091, 1, -0.5
*EQUATION
3
1873, 2, 1.0, 1089, 2, -0.5, 1091, 2, -0.5
*EQUATION
3
1873, 3, 1.0, 1089, 3, -0.5, 1091, 3, -0.5
*EQUATION
5
1874, 1, 1.0, 1089, 1, -0.25, 1091, 1, -0.25, 738, 1, -0.25, 1090, 1, -0.25
*EQUATION
5
1874, 2, 1.0, 1089, 2, -0.25, 1091, 2, -0.25, 738, 2, -0.25, 1090, 2, -0.25
*EQUATION
5
1874, 3, 1.0, 1089, 3, -0.25, 1091, 3, -0.25, 738, 3, -0.25, 1090, 3, -0.25
*EQUATION
3
1875, 1, 1.0, 738, 1, -0.5, 1090, 1, -0.5
*EQUATION
3
1875, 2, 1.0, 738, 2, -0.5, 1090, 2, -0.5
*EQUATION
3
1875, 3, 1.0, 738, 3, -0.5, 1090, 3, -0.5
*EQUATION
3
1876, 1, 1.0, 738, 1, -0.5, 1091, 1, -0.5
*EQUATION
3
1876, 2, 1.0, 738, 2, -0.5, 1091, 2, -0.5
*EQUATION
3
1876, 3, 1.0, 738, 3, -0.5, 1091, 3, -0.5
*EQUATION
3
1877, 1, 1.0, 1089, 1, -0.5, 1124, 1, -0.5
*EQUATION
3
1877, 2, 1.0, 1089, 2, -0.5, 1124, 2, -0.5
*EQUATION
3
1877, 3, 1.0, 1089, 3, -0.5, 1124, 3, -0.5
*EQUATION
5
1878, 1, 1.0, 1089, 1, -0.25, 1124, 1, -0.25, 1125, 1, -0.25, 1090, 1, -0.25
*EQUATION
5
1878, 2, 1.0, 1089, 2, -0.25, 1124, 2, -0.25, 1125, 2, -0.25, 1090, 2, -0.25
*EQUATION
5
1878, 3, 1.0, 1089, 3, -0.25, 1124, 3, -0.25, 1125, 3, -0.25, 1090, 3, -0.25
*EQUATION
3
1879, 1, 1.0, 1090, 1, -0.5, 1125, 1, -0.5
*EQUATION
3
1879, 2, 1.0, 1090, 2, -0.5, 1125, 2, -0.5
*EQUATION
3
1879, 3, 1.0, 1090, 3, -0.5, 1125, 3, -0.5
*EQUATION
5
1880, 1, 1.0, 1089, 1, -0.25, 1124, 1, -0.25, 1127, 1, -0.25, 1091, 1, -0.25
*EQUATION
5
1880, 2, 1.0, 1089, 2, -0.25, 1124, 2, -0.25, 1127, 2, -0.25, 1091, 2, -0.25
*EQUATION
5
1880, 3, 1.0, 1089, 3, -0.25, 1124, 3, -0.25, 1127, 3, -0.25, 1091, 3, -0.25
*EQUATION
5
1882, 1, 1.0, 1090, 1, -0.25, 1125, 1, -0.25, 1128, 1, -0.25, 738, 1, -0.25
*EQUATION
5
1882, 2, 1.0, 1090, 2, -0.25, 1125, 2, -0.25, 1128, 2, -0.25, 738, 2, -0.25
*EQUATION
5
1882, 3, 1.0, 1090, 3, -0.25, 1125, 3, -0.25, 1128, 3, -0.25, 738, 3, -0.25
*EQUATION
3
1883, 1, 1.0, 1091, 1, -0.5, 1127, 1, -0.5
*EQUATION
3
1883, 2, 1.0, 1091, 2, -0.5, 1127, 2, -0.5
*EQUATION
3
1883, 3, 1.0, 1091, 3, -0.5, 1127, 3, -0.5
*EQUATION
3
1885, 1, 1.0, 738, 1, -0.5, 1128, 1, -0.5
*EQUATION
3
1885, 2, 1.0, 738, 2, -0.5, 1128, 2, -0.5
*EQUATION
3
1885, 3, 1.0, 738, 3, -0.5, 1128, 3, -0.5
*EQUATION
3
1886, 1, 1.0, 1124, 1, -0.5, 1125, 1, -0.5
*EQUATION
3
1886, 2, 1.0, 1124, 2, -0.5, 1125, 2, -0.5
*EQUATION
3
1886, 3, 1.0, 1124, 3, -0.5, 1125, 3, -0.5
*EQUATION
3
1887, 1, 1.0, 1124, 1, -0.5, 1127, 1, -0.5
*EQUATION
3
1887, 2, 1.0, 1124, 2, -0.5, 1127, 2, -0.5
*EQUATION
3
1887, 3, 1.0, 1124, 3, -0.5, 1127, 3, -0.5
*EQUATION
3
1889, 1, 1.0, 1125, 1, -0.5, 1128, 1, -0.5
*EQUATION
3
1889, 2, 1.0, 1125, 2, -0.5, 1128, 2, -0.5
*EQUATION
3
1889, 3, 1.0, 1125, 3, -0.5, 1128, 3, -0.5
*EQUATION
3
1891, 1, 1.0, 1124, 1, -0.5, 1130, 1, -0.5
*EQUATION
3
1891, 2, 1.0, 1124, 2, -0.5, 1130, 2, -0.5
*EQUATION
3
1891, 3, 1.0, 1124, 3, -0.5, 1130, 3, -0.5
*EQUATION
5
1892, 1, 1.0, 1124, 1, -0.25, 1130, 1, -0.25, 1131, 1, -0.25, 1125, 1, -0.25
*EQUATION
5
1892, 2, 1.0, 1124, 2, -0.25, 1130, 2, -0.25, 1131, 2, -0.25, 1125, 2, -0.25
*EQUATION
5
1892, 3, 1.0, 1124, 3, -0.25, 1130, 3, -0.25, 1131, 3, -0.25, 1125, 3, -0.25
*EQUATION
3
1893, 1, 1.0, 1125, 1, -0.5, 1131, 1, -0.5
*EQUATION
3
1893, 2, 1.0, 1125, 2, -0.5, 1131, 2, -0.5
*EQUATION
3
1893, 3, 1.0, 1125, 3, -0.5, 1131, 3, -0.5
*EQUATION
5
1894, 1, 1.0, 1124, 1, -0.25, 1130, 1, -0.25, 1132, 1, -0.25, 1127, 1, -0.25
*EQUATION
5
1894, 2, 1.0, 1124, 2, -0.25, 1130, 2, -0.25, 1132, 2, -0.25, 1127, 2, -0.25
*EQUATION
5
1894, 3, 1.0, 1124, 3, -0.25, 1130, 3, -0.25, 1132, 3, -0.25, 1127, 3, -0.25
*EQUATION
5
1896, 1, 1.0, 1125, 1, -0.25, 1131, 1, -0.25, 786, 1, -0.25, 1128, 1, -0.25
*EQUATION
5
1896, 2, 1.0, 1125, 2, -0.25, 1131, 2, -0.25, 786, 2, -0.25, 1128, 2, -0.25
*EQUATION
5
1896, 3, 1.0, 1125, 3, -0.25, 1131, 3, -0.25, 786, 3, -0.25, 1128, 3, -0.25
*EQUATION
3
1897, 1, 1.0, 1127, 1, -0.5, 1132, 1, -0.5
*EQUATION
3
1897, 2, 1.0, 1127, 2, -0.5, 1132, 2, -0.5
*EQUATION
3
1897, 3, 1.0, 1127, 3, -0.5, 1132, 3, -0.5
*EQUATION
3
1899, 1, 1.0, 786, 1, -0.5, 1128, 1, -0.5
*EQUATION
3
1899, 2, 1.0, 786, 2, -0.5, 1128, 2, -0.5
*EQUATION
3
1899, 3, 1.0, 786, 3, -0.5, 1128, 3, -0.5
*EQUATION
3
1900, 1, 1.0, 1130, 1, -0.5, 1131, 1, -0.5
*EQUATION
3
1900, 2, 1.0, 1130, 2, -0.5, 1131, 2, -0.5
*EQUATION
3
1900, 3, 1.0, 1130, 3, -0.5, 1131, 3, -0.5
*EQUATION
3
1901, 1, 1.0, 1130, 1, -0.5, 1132, 1, -0.5
*EQUATION
3
1901, 2, 1.0, 1130, 2, -0.5, 1132, 2, -0.5
*EQUATION
3
1901, 3, 1.0, 1130, 3, -0.5, 1132, 3, -0.5
*EQUATION
5
1902, 1, 1.0, 1130, 1, -0.25, 1132, 1, -0.25, 786, 1, -0.25, 1131, 1, -0.25
*EQUATION
5
1902, 2, 1.0, 1130, 2, -0.25, 1132, 2, -0.25, 786, 2, -0.25, 1131, 2, -0.25
*EQUATION
5
1902, 3, 1.0, 1130, 3, -0.25, 1132, 3, -0.25, 786, 3, -0.25, 1131, 3, -0.25
*EQUATION
3
1903, 1, 1.0, 786, 1, -0.5, 1131, 1, -0.5
*EQUATION
3
1903, 2, 1.0, 786, 2, -0.5, 1131, 2, -0.5
*EQUATION
3
1903, 3, 1.0, 786, 3, -0.5, 1131, 3, -0.5
*EQUATION
3
1904, 1, 1.0, 786, 1, -0.5, 1132, 1, -0.5
*EQUATION
3
1904, 2, 1.0, 786, 2, -0.5, 1132, 2, -0.5
*EQUATION
3
1904, 3, 1.0, 786, 3, -0.5, 1132, 3, -0.5
*EQUATION
3
1905, 1, 1.0, 751, 1, -0.5, 752, 1, -0.5
*EQUATION
3
1905, 2, 1.0, 751, 2, -0.5, 752, 2, -0.5
*EQUATION
3
1905, 3, 1.0, 751, 3, -0.5, 752, 3, -0.5
*EQUATION
5
1906, 1, 1.0, 751, 1, -0.25, 753, 1, -0.25, 754, 1, -0.25, 752, 1, -0.25
*EQUATION
5
1906, 2, 1.0, 751, 2, -0.25, 753, 2, -0.25, 754, 2, -0.25, 752, 2, -0.25
*EQUATION
5
1906, 3, 1.0, 751, 3, -0.25, 753, 3, -0.25, 754, 3, -0.25, 752, 3, -0.25
*EQUATION
3
1907, 1, 1.0, 752, 1, -0.5, 754, 1, -0.5
*EQUATION
3
1907, 2, 1.0, 752, 2, -0.5, 754, 2, -0.5
*EQUATION
3
1907, 3, 1.0, 752, 3, -0.5, 754, 3, -0.5
*EQUATION
3
1908, 1, 1.0, 753, 1, -0.5, 754, 1, -0.5
*EQUATION
3
1908, 2, 1.0, 753, 2, -0.5, 754, 2, -0.5
*EQUATION
3
1908, 3, 1.0, 753, 3, -0.5, 754, 3, -0.5
*EQUATION
5
1909, 1, 1.0, 751, 1, -0.25, 799, 1, -0.25, 800, 1, -0.25, 752, 1, -0.25
*EQUATION
5
1909, 2, 1.0, 751, 2, -0.25, 799, 2, -0.25, 800, 2, -0.25, 752, 2, -0.25
*EQUATION
5
1909, 3, 1.0, 751, 3, -0.25, 799, 3, -0.25, 800, 3, -0.25, 752, 3, -0.25
*EQUATION
3
1910, 1, 1.0, 752, 1, -0.5, 800, 1, -0.5
*EQUATION
3
1910, 2, 1.0, 752, 2, -0.5, 800, 2, -0.5
*EQUATION
3
1910, 3, 1.0, 752, 3, -0.5, 800, 3, -0.5
*EQUATION
3
1915, 1, 1.0, 799, 1, -0.5, 800, 1, -0.5
*EQUATION
3
1915, 2, 1.0, 799, 2, -0.5, 800, 2, -0.5
*EQUATION
3
1915, 3, 1.0, 799, 3, -0.5, 800, 3, -0.5
*EQUATION
5
1919, 1, 1.0, 753, 1, -0.25, 755, 1, -0.25, 756, 1, -0.25, 754, 1, -0.25
*EQUATION
5
1919, 2, 1.0, 753, 2, -0.25, 755, 2, -0.25, 756, 2, -0.25, 754, 2, -0.25
*EQUATION
5
1919, 3, 1.0, 753, 3, -0.25, 755, 3, -0.25, 756, 3, -0.25, 754, 3, -0.25
*EQUATION
3
1920, 1, 1.0, 754, 1, -0.5, 756, 1, -0.5
*EQUATION
3
1920, 2, 1.0, 754, 2, -0.5, 756, 2, -0.5
*EQUATION
3
1920, 3, 1.0, 754, 3, -0.5, 756, 3, -0.5
*EQUATION
3
1921, 1, 1.0, 755, 1, -0.5, 756, 1, -0.5
*EQUATION
3
1921, 2, 1.0, 755, 2, -0.5, 756, 2, -0.5
*EQUATION
3
1921, 3, 1.0, 755, 3, -0.5, 756, 3, -0.5
*EQUATION
5
1924, 1, 1.0, 755, 1, -0.25, 803, 1, -0.25, 804, 1, -0.25, 756, 1, -0.25
*EQUATION
5
1924, 2, 1.0, 755, 2, -0.25, 803, 2, -0.25, 804, 2, -0.25, 756, 2, -0.25
*EQUATION
5
1924, 3, 1.0, 755, 3, -0.25, 803, 3, -0.25, 804, 3, -0.25, 756, 3, -0.25
*EQUATION
3
1925, 1, 1.0, 756, 1, -0.5, 804, 1, -0.5
*EQUATION
3
1925, 2, 1.0, 756, 2, -0.5, 804, 2, -0.5
*EQUATION
3
1925, 3, 1.0, 756, 3, -0.5, 804, 3, -0.5
*EQUATION
3
1928, 1, 1.0, 803, 1, -0.5, 804, 1, -0.5
*EQUATION
3
1928, 2, 1.0, 803, 2, -0.5, 804, 2, -0.5
*EQUATION
3
1928, 3, 1.0, 803, 3, -0.5, 804, 3, -0.5
*EQUATION
5
1929, 1, 1.0, 799, 1, -0.25, 847, 1, -0.25, 848, 1, -0.25, 800, 1, -0.25
*EQUATION
5
1929, 2, 1.0, 799, 2, -0.25, 847, 2, -0.25, 848, 2, -0.25, 800, 2, -0.25
*EQUATION
5
1929, 3, 1.0, 799, 3, -0.25, 847, 3, -0.25, 848, 3, -0.25, 800, 3, -0.25
*EQUATION
3
1930, 1, 1.0, 800, 1, -0.5, 848, 1, -0.5
*EQUATION
3
1930, 2, 1.0, 800, 2, -0.5, 848, 2, -0.5
*EQUATION
3
1930, 3, 1.0, 800, 3, -0.5, 848, 3, -0.5
*EQUATION
3
1935, 1, 1.0, 847, 1, -0.5, 848, 1, -0.5
*EQUATION
3
1935, 2, 1.0, 847, 2, -0.5, 848, 2, -0.5
*EQUATION
3
1935, 3, 1.0, 847, 3, -0.5, 848, 3, -0.5
*EQUATION
5
1936, 1, 1.0, 847, 1, -0.25, 849, 1, -0.25, 850, 1, -0.25, 848, 1, -0.25
*EQUATION
5
1936, 2, 1.0, 847, 2, -0.25, 849, 2, -0.25, 850, 2, -0.25, 848, 2, -0.25
*EQUATION
5
1936, 3, 1.0, 847, 3, -0.25, 849, 3, -0.25, 850, 3, -0.25, 848, 3, -0.25
*EQUATION
3
1937, 1, 1.0, 848, 1, -0.5, 850, 1, -0.5
*EQUATION
3
1937, 2, 1.0, 848, 2, -0.5, 850, 2, -0.5
*EQUATION
3
1937, 3, 1.0, 848, 3, -0.5, 850, 3, -0.5
*EQUATION
3
1938, 1, 1.0, 849, 1, -0.5, 850, 1, -0.5
*EQUATION
3
1938, 2, 1.0, 849, 2, -0.5, 850, 2, -0.5
*EQUATION
3
1938, 3, 1.0, 849, 3, -0.5, 850, 3, -0.5
*EQUATION
5
1941, 1, 1.0, 803, 1, -0.25, 851, 1, -0.25, 852, 1, -0.25, 804, 1, -0.25
*EQUATION
5
1941, 2, 1.0, 803, 2, -0.25, 851, 2, -0.25, 852, 2, -0.25, 804, 2, -0.25
*EQUATION
5
1941, 3, 1.0, 803, 3, -0.25, 851, 3, -0.25, 852, 3, -0.25, 804, 3, -0.25
*EQUATION
3
1942, 1, 1.0, 804, 1, -0.5, 852, 1, -0.5
*EQUATION
3
1942, 2, 1.0, 804, 2, -0.5, 852, 2, -0.5
*EQUATION
3
1942, 3, 1.0, 804, 3, -0.5, 852, 3, -0.5
*EQUATION
5
1943, 1, 1.0, 849, 1, -0.25, 851, 1, -0.25, 852, 1, -0.25, 850, 1, -0.25
*EQUATION
5
1943, 2, 1.0, 849, 2, -0.25, 851, 2, -0.25, 852, 2, -0.25, 850, 2, -0.25
*EQUATION
5
1943, 3, 1.0, 849, 3, -0.25, 851, 3, -0.25, 852, 3, -0.25, 850, 3, -0.25
*EQUATION
3
1944, 1, 1.0, 850, 1, -0.5, 852, 1, -0.5
*EQUATION
3
1944, 2, 1.0, 850, 2, -0.5, 852, 2, -0.5
*EQUATION
3
1944, 3, 1.0, 850, 3, -0.5, 852, 3, -0.5
*EQUATION
3
1945, 1, 1.0, 851, 1, -0.5, 852, 1, -0.5
*EQUATION
3
1945, 2, 1.0, 851, 2, -0.5, 852, 2, -0.5
*EQUATION
3
1945, 3, 1.0, 851, 3, -0.5, 852, 3, -0.5
*BOUNDARY
CLAMP, 1, 3, 0.0
*STEP
*STATIC
*CLOAD
887, 3, -454.545454545
888, 3, -454.545454545
891, 3, -454.545454545
894, 3, -454.545454545
896, 3, -454.545454545
898, 3, -454.545454545
900, 3, -454.545454545
903, 3, -454.545454545
906, 3, -454.545454545
909, 3, -454.545454545
912, 3, -454.545454545
*NODE FILE
U
*EL FILE
S, ENER
*NODE PRINT, NSET=TIP_TOP
U
*NODE PRINT, NSET=CLAMP
RF
*EL PRINT, ELSET=EALL
ELSE
*ENERGY PRINT
*END STEP
