*HEADING
Normalized cross-passage space-truss torsion benchmark
*NODE
1,-1.200000000000e+00,0.000000000000e+00,0.000000000000e+00
2,1.200000000000e+00,0.000000000000e+00,0.000000000000e+00
3,-1.200000000000e+00,0.000000000000e+00,2.000000000000e+00
4,1.200000000000e+00,0.000000000000e+00,2.000000000000e+00
5,-1.200000000000e+00,1.000000000000e+01,0.000000000000e+00
6,1.200000000000e+00,1.000000000000e+01,0.000000000000e+00
7,-1.200000000000e+00,1.000000000000e+01,2.000000000000e+00
8,1.200000000000e+00,1.000000000000e+01,2.000000000000e+00
9,-1.200000000000e+00,2.000000000000e+01,0.000000000000e+00
10,1.200000000000e+00,2.000000000000e+01,0.000000000000e+00
11,-1.200000000000e+00,2.000000000000e+01,2.000000000000e+00
12,1.200000000000e+00,2.000000000000e+01,2.000000000000e+00
13,-1.200000000000e+00,3.000000000000e+01,0.000000000000e+00
14,1.200000000000e+00,3.000000000000e+01,0.000000000000e+00
15,-1.200000000000e+00,3.000000000000e+01,2.000000000000e+00
16,1.200000000000e+00,3.000000000000e+01,2.000000000000e+00
17,-1.200000000000e+00,4.000000000000e+01,0.000000000000e+00
18,1.200000000000e+00,4.000000000000e+01,0.000000000000e+00
19,-1.200000000000e+00,4.000000000000e+01,2.000000000000e+00
20,1.200000000000e+00,4.000000000000e+01,2.000000000000e+00
21,-1.200000000000e+00,5.000000000000e+01,0.000000000000e+00
22,1.200000000000e+00,5.000000000000e+01,0.000000000000e+00
23,-1.200000000000e+00,5.000000000000e+01,2.000000000000e+00
24,1.200000000000e+00,5.000000000000e+01,2.000000000000e+00
25,-1.200000000000e+00,1.250000000000e+00,-5.740251485476e-02
26,-1.200000000000e+00,2.500000000000e+00,-1.060660171780e-01
27,-1.200000000000e+00,3.750000000000e+00,-1.385819298767e-01
28,-1.200000000000e+00,5.000000000000e+00,-1.500000000000e-01
29,-1.200000000000e+00,6.250000000000e+00,-1.385819298767e-01
30,-1.200000000000e+00,7.500000000000e+00,-1.060660171780e-01
31,-1.200000000000e+00,8.750000000000e+00,-5.740251485476e-02
32,1.200000000000e+00,1.250000000000e+00,5.740251485476e-02
33,1.200000000000e+00,2.500000000000e+00,1.060660171780e-01
34,1.200000000000e+00,3.750000000000e+00,1.385819298767e-01
35,1.200000000000e+00,5.000000000000e+00,1.500000000000e-01
36,1.200000000000e+00,6.250000000000e+00,1.385819298767e-01
37,1.200000000000e+00,7.500000000000e+00,1.060660171780e-01
38,1.200000000000e+00,8.750000000000e+00,5.740251485476e-02
39,-1.200000000000e+00,1.250000000000e+00,1.942597485145e+00
40,-1.200000000000e+00,2.500000000000e+00,1.893933982822e+00
41,-1.200000000000e+00,3.750000000000e+00,1.861418070123e+00
42,-1.200000000000e+00,5.000000000000e+00,1.850000000000e+00
43,-1.200000000000e+00,6.250000000000e+00,1.861418070123e+00
44,-1.200000000000e+00,7.500000000000e+00,1.893933982822e+00
45,-1.200000000000e+00,8.750000000000e+00,1.942597485145e+00
46,1.200000000000e+00,1.250000000000e+00,2.057402514855e+00
47,1.200000000000e+00,2.500000000000e+00,2.106066017178e+00
48,1.200000000000e+00,3.750000000000e+00,2.138581929877e+00
49,1.200000000000e+00,5.000000000000e+00,2.150000000000e+00
50,1.200000000000e+00,6.250000000000e+00,2.138581929877e+00
51,1.200000000000e+00,7.500000000000e+00,2.106066017178e+00
52,1.200000000000e+00,8.750000000000e+00,2.057402514855e+00
53,-1.200000000000e+00,1.250000000000e+01,-1.060660171780e-01
54,-1.200000000000e+00,1.500000000000e+01,-1.500000000000e-01
55,-1.200000000000e+00,1.750000000000e+01,-1.060660171780e-01
56,1.200000000000e+00,1.250000000000e+01,1.060660171780e-01
57,1.200000000000e+00,1.500000000000e+01,1.500000000000e-01
58,1.200000000000e+00,1.750000000000e+01,1.060660171780e-01
59,-1.200000000000e+00,1.250000000000e+01,1.893933982822e+00
60,-1.200000000000e+00,1.500000000000e+01,1.850000000000e+00
61,-1.200000000000e+00,1.750000000000e+01,1.893933982822e+00
62,1.200000000000e+00,1.250000000000e+01,2.106066017178e+00
63,1.200000000000e+00,1.500000000000e+01,2.150000000000e+00
64,1.200000000000e+00,1.750000000000e+01,2.106066017178e+00
65,-1.200000000000e+00,4.250000000000e+01,-1.060660171780e-01
66,-1.200000000000e+00,4.500000000000e+01,-1.500000000000e-01
67,-1.200000000000e+00,4.750000000000e+01,-1.060660171780e-01
68,1.200000000000e+00,4.250000000000e+01,1.060660171780e-01
69,1.200000000000e+00,4.500000000000e+01,1.500000000000e-01
70,1.200000000000e+00,4.750000000000e+01,1.060660171780e-01
71,-1.200000000000e+00,4.250000000000e+01,1.893933982822e+00
72,-1.200000000000e+00,4.500000000000e+01,1.850000000000e+00
73,-1.200000000000e+00,4.750000000000e+01,1.893933982822e+00
74,1.200000000000e+00,4.250000000000e+01,2.106066017178e+00
75,1.200000000000e+00,4.500000000000e+01,2.150000000000e+00
76,1.200000000000e+00,4.750000000000e+01,2.106066017178e+00
77,-6.000000000000e-01,-2.545584412272e-02,0.000000000000e+00
78,0.000000000000e+00,-3.600000000000e-02,0.000000000000e+00
79,6.000000000000e-01,-2.545584412272e-02,0.000000000000e+00
80,-6.000000000000e-01,2.545584412272e-02,2.000000000000e+00
81,0.000000000000e+00,3.600000000000e-02,2.000000000000e+00
82,6.000000000000e-01,2.545584412272e-02,2.000000000000e+00
83,-1.200000000000e+00,2.121320343560e-02,5.000000000000e-01
84,-1.200000000000e+00,3.000000000000e-02,1.000000000000e+00
85,-1.200000000000e+00,2.121320343560e-02,1.500000000000e+00
86,1.200000000000e+00,-2.121320343560e-02,5.000000000000e-01
87,1.200000000000e+00,-3.000000000000e-02,1.000000000000e+00
88,1.200000000000e+00,-2.121320343560e-02,1.500000000000e+00
89,-6.000000000000e-01,9.974544155877e+00,0.000000000000e+00
90,0.000000000000e+00,9.964000000000e+00,0.000000000000e+00
91,6.000000000000e-01,9.974544155877e+00,0.000000000000e+00
92,-6.000000000000e-01,1.002545584412e+01,2.000000000000e+00
93,0.000000000000e+00,1.003600000000e+01,2.000000000000e+00
94,6.000000000000e-01,1.002545584412e+01,2.000000000000e+00
95,-1.200000000000e+00,1.002121320344e+01,5.000000000000e-01
96,-1.200000000000e+00,1.003000000000e+01,1.000000000000e+00
97,-1.200000000000e+00,1.002121320344e+01,1.500000000000e+00
98,1.200000000000e+00,9.978786796564e+00,5.000000000000e-01
99,1.200000000000e+00,9.970000000000e+00,1.000000000000e+00
100,1.200000000000e+00,9.978786796564e+00,1.500000000000e+00
101,0.000000000000e+00,1.996400000000e+01,0.000000000000e+00
102,0.000000000000e+00,2.003600000000e+01,2.000000000000e+00
103,-1.200000000000e+00,2.003000000000e+01,1.000000000000e+00
104,1.200000000000e+00,1.997000000000e+01,1.000000000000e+00
105,-9.000000000000e-01,2.998622339643e+01,0.000000000000e+00
106,-6.000000000000e-01,2.997454415588e+01,0.000000000000e+00
107,-3.000000000000e-01,2.996674033683e+01,0.000000000000e+00
108,0.000000000000e+00,2.996400000000e+01,0.000000000000e+00
109,3.000000000000e-01,2.996674033683e+01,0.000000000000e+00
110,6.000000000000e-01,2.997454415588e+01,0.000000000000e+00
111,9.000000000000e-01,2.998622339643e+01,0.000000000000e+00
112,-9.000000000000e-01,3.001377660357e+01,2.000000000000e+00
113,-6.000000000000e-01,3.002545584412e+01,2.000000000000e+00
114,-3.000000000000e-01,3.003325966317e+01,2.000000000000e+00
115,0.000000000000e+00,3.003600000000e+01,2.000000000000e+00
116,3.000000000000e-01,3.003325966317e+01,2.000000000000e+00
117,6.000000000000e-01,3.002545584412e+01,2.000000000000e+00
118,9.000000000000e-01,3.001377660357e+01,2.000000000000e+00
119,-1.200000000000e+00,3.001148050297e+01,2.500000000000e-01
120,-1.200000000000e+00,3.002121320344e+01,5.000000000000e-01
121,-1.200000000000e+00,3.002771638598e+01,7.500000000000e-01
122,-1.200000000000e+00,3.003000000000e+01,1.000000000000e+00
123,-1.200000000000e+00,3.002771638598e+01,1.250000000000e+00
124,-1.200000000000e+00,3.002121320344e+01,1.500000000000e+00
125,-1.200000000000e+00,3.001148050297e+01,1.750000000000e+00
126,1.200000000000e+00,2.998851949703e+01,2.500000000000e-01
127,1.200000000000e+00,2.997878679656e+01,5.000000000000e-01
128,1.200000000000e+00,2.997228361402e+01,7.500000000000e-01
129,1.200000000000e+00,2.997000000000e+01,1.000000000000e+00
130,1.200000000000e+00,2.997228361402e+01,1.250000000000e+00
131,1.200000000000e+00,2.997878679656e+01,1.500000000000e+00
132,1.200000000000e+00,2.998851949703e+01,1.750000000000e+00
133,-6.000000000000e-01,3.997454415588e+01,0.000000000000e+00
134,0.000000000000e+00,3.996400000000e+01,0.000000000000e+00
135,6.000000000000e-01,3.997454415588e+01,0.000000000000e+00
136,-6.000000000000e-01,4.002545584412e+01,2.000000000000e+00
137,0.000000000000e+00,4.003600000000e+01,2.000000000000e+00
138,6.000000000000e-01,4.002545584412e+01,2.000000000000e+00
139,-1.200000000000e+00,4.002121320344e+01,5.000000000000e-01
140,-1.200000000000e+00,4.003000000000e+01,1.000000000000e+00
141,-1.200000000000e+00,4.002121320344e+01,1.500000000000e+00
142,1.200000000000e+00,3.997878679656e+01,5.000000000000e-01
143,1.200000000000e+00,3.997000000000e+01,1.000000000000e+00
144,1.200000000000e+00,3.997878679656e+01,1.500000000000e+00
145,-9.000000000000e-01,4.998622339643e+01,0.000000000000e+00
146,-6.000000000000e-01,4.997454415588e+01,0.000000000000e+00
147,-3.000000000000e-01,4.996674033683e+01,0.000000000000e+00
148,0.000000000000e+00,4.996400000000e+01,0.000000000000e+00
149,3.000000000000e-01,4.996674033683e+01,0.000000000000e+00
150,6.000000000000e-01,4.997454415588e+01,0.000000000000e+00
151,9.000000000000e-01,4.998622339643e+01,0.000000000000e+00
152,-9.000000000000e-01,5.001377660357e+01,2.000000000000e+00
153,-6.000000000000e-01,5.002545584412e+01,2.000000000000e+00
154,-3.000000000000e-01,5.003325966317e+01,2.000000000000e+00
155,0.000000000000e+00,5.003600000000e+01,2.000000000000e+00
156,3.000000000000e-01,5.003325966317e+01,2.000000000000e+00
157,6.000000000000e-01,5.002545584412e+01,2.000000000000e+00
158,9.000000000000e-01,5.001377660357e+01,2.000000000000e+00
159,-1.200000000000e+00,5.001148050297e+01,2.500000000000e-01
160,-1.200000000000e+00,5.002121320344e+01,5.000000000000e-01
161,-1.200000000000e+00,5.002771638598e+01,7.500000000000e-01
162,-1.200000000000e+00,5.003000000000e+01,1.000000000000e+00
163,-1.200000000000e+00,5.002771638598e+01,1.250000000000e+00
164,-1.200000000000e+00,5.002121320344e+01,1.500000000000e+00
165,-1.200000000000e+00,5.001148050297e+01,1.750000000000e+00
166,1.200000000000e+00,4.998851949703e+01,2.500000000000e-01
167,1.200000000000e+00,4.997878679656e+01,5.000000000000e-01
168,1.200000000000e+00,4.997228361402e+01,7.500000000000e-01
169,1.200000000000e+00,4.997000000000e+01,1.000000000000e+00
170,1.200000000000e+00,4.997228361402e+01,1.250000000000e+00
171,1.200000000000e+00,4.997878679656e+01,1.500000000000e+00
172,1.200000000000e+00,4.998851949703e+01,1.750000000000e+00
173,-1.200000000000e+00,1.261480502971e+00,1.925974851452e-01
174,-1.200000000000e+00,2.521213203436e+00,3.939339828220e-01
175,-1.200000000000e+00,3.777716385975e+00,6.114180701233e-01
176,-1.200000000000e+00,5.030000000000e+00,8.500000000000e-01
177,-1.200000000000e+00,6.277716385975e+00,1.111418070123e+00
178,-1.200000000000e+00,7.521213203436e+00,1.393933982822e+00
179,-1.200000000000e+00,8.761480502971e+00,1.692597485145e+00
180,-1.200000000000e+00,1.261480502971e+00,1.807402514855e+00
181,-1.200000000000e+00,2.521213203436e+00,1.606066017178e+00
182,-1.200000000000e+00,3.777716385975e+00,1.388581929877e+00
183,-1.200000000000e+00,5.030000000000e+00,1.150000000000e+00
184,-1.200000000000e+00,6.277716385975e+00,8.885819298767e-01
185,-1.200000000000e+00,7.521213203436e+00,6.060660171780e-01
186,-1.200000000000e+00,8.761480502971e+00,3.074025148548e-01
187,1.200000000000e+00,1.261480502971e+00,1.925974851452e-01
188,1.200000000000e+00,2.521213203436e+00,3.939339828220e-01
189,1.200000000000e+00,3.777716385975e+00,6.114180701233e-01
190,1.200000000000e+00,5.030000000000e+00,8.500000000000e-01
191,1.200000000000e+00,6.277716385975e+00,1.111418070123e+00
192,1.200000000000e+00,7.521213203436e+00,1.393933982822e+00
193,1.200000000000e+00,8.761480502971e+00,1.692597485145e+00
194,1.200000000000e+00,1.261480502971e+00,1.807402514855e+00
195,1.200000000000e+00,2.521213203436e+00,1.606066017178e+00
196,1.200000000000e+00,3.777716385975e+00,1.388581929877e+00
197,1.200000000000e+00,5.030000000000e+00,1.150000000000e+00
198,1.200000000000e+00,6.277716385975e+00,8.885819298767e-01
199,1.200000000000e+00,7.521213203436e+00,6.060660171780e-01
200,1.200000000000e+00,8.761480502971e+00,3.074025148548e-01
201,-8.425974851452e-01,1.236223396435e+00,0.000000000000e+00
202,-4.939339828220e-01,2.474544155877e+00,0.000000000000e+00
203,-1.614180701233e-01,3.716740336830e+00,0.000000000000e+00
204,1.500000000000e-01,4.964000000000e+00,0.000000000000e+00
205,4.385819298767e-01,6.216740336830e+00,0.000000000000e+00
206,7.060660171780e-01,7.474544155877e+00,0.000000000000e+00
207,9.574025148548e-01,8.736223396435e+00,0.000000000000e+00
208,8.425974851452e-01,1.236223396435e+00,0.000000000000e+00
209,4.939339828220e-01,2.474544155877e+00,0.000000000000e+00
210,1.614180701233e-01,3.716740336830e+00,0.000000000000e+00
211,-1.500000000000e-01,4.964000000000e+00,0.000000000000e+00
212,-4.385819298767e-01,6.216740336830e+00,0.000000000000e+00
213,-7.060660171780e-01,7.474544155877e+00,0.000000000000e+00
214,-9.574025148548e-01,8.736223396435e+00,0.000000000000e+00
215,-8.425974851452e-01,1.236223396435e+00,2.000000000000e+00
216,-4.939339828220e-01,2.474544155877e+00,2.000000000000e+00
217,-1.614180701233e-01,3.716740336830e+00,2.000000000000e+00
218,1.500000000000e-01,4.964000000000e+00,2.000000000000e+00
219,4.385819298767e-01,6.216740336830e+00,2.000000000000e+00
220,7.060660171780e-01,7.474544155877e+00,2.000000000000e+00
221,9.574025148548e-01,8.736223396435e+00,2.000000000000e+00
222,8.425974851452e-01,1.236223396435e+00,2.000000000000e+00
223,4.939339828220e-01,2.474544155877e+00,2.000000000000e+00
224,1.614180701233e-01,3.716740336830e+00,2.000000000000e+00
225,-1.500000000000e-01,4.964000000000e+00,2.000000000000e+00
226,-4.385819298767e-01,6.216740336830e+00,2.000000000000e+00
227,-7.060660171780e-01,7.474544155877e+00,2.000000000000e+00
228,-9.574025148548e-01,8.736223396435e+00,2.000000000000e+00
229,-1.200000000000e+00,1.503000000000e+01,8.500000000000e-01
230,-1.200000000000e+00,1.503000000000e+01,1.150000000000e+00
231,1.200000000000e+00,1.503000000000e+01,8.500000000000e-01
232,1.200000000000e+00,1.503000000000e+01,1.150000000000e+00
233,1.500000000000e-01,1.496400000000e+01,0.000000000000e+00
234,-1.500000000000e-01,1.496400000000e+01,0.000000000000e+00
235,1.500000000000e-01,1.496400000000e+01,2.000000000000e+00
236,-1.500000000000e-01,1.496400000000e+01,2.000000000000e+00
237,-1.200000000000e+00,2.503000000000e+01,8.500000000000e-01
238,-1.200000000000e+00,2.503000000000e+01,1.150000000000e+00
239,1.200000000000e+00,2.503000000000e+01,8.500000000000e-01
240,1.200000000000e+00,2.503000000000e+01,1.150000000000e+00
241,1.500000000000e-01,2.496400000000e+01,0.000000000000e+00
242,-1.500000000000e-01,2.496400000000e+01,0.000000000000e+00
243,1.500000000000e-01,2.496400000000e+01,2.000000000000e+00
244,-1.500000000000e-01,2.496400000000e+01,2.000000000000e+00
245,-1.200000000000e+00,3.252121320344e+01,3.939339828220e-01
246,-1.200000000000e+00,3.503000000000e+01,8.500000000000e-01
247,-1.200000000000e+00,3.752121320344e+01,1.393933982822e+00
248,-1.200000000000e+00,3.252121320344e+01,1.606066017178e+00
249,-1.200000000000e+00,3.503000000000e+01,1.150000000000e+00
250,-1.200000000000e+00,3.752121320344e+01,6.060660171780e-01
251,1.200000000000e+00,3.252121320344e+01,3.939339828220e-01
252,1.200000000000e+00,3.503000000000e+01,8.500000000000e-01
253,1.200000000000e+00,3.752121320344e+01,1.393933982822e+00
254,1.200000000000e+00,3.252121320344e+01,1.606066017178e+00
255,1.200000000000e+00,3.503000000000e+01,1.150000000000e+00
256,1.200000000000e+00,3.752121320344e+01,6.060660171780e-01
257,-4.939339828220e-01,3.247454415588e+01,0.000000000000e+00
258,1.500000000000e-01,3.496400000000e+01,0.000000000000e+00
259,7.060660171780e-01,3.747454415588e+01,0.000000000000e+00
260,4.939339828220e-01,3.247454415588e+01,0.000000000000e+00
261,-1.500000000000e-01,3.496400000000e+01,0.000000000000e+00
262,-7.060660171780e-01,3.747454415588e+01,0.000000000000e+00
263,-4.939339828220e-01,3.247454415588e+01,2.000000000000e+00
264,1.500000000000e-01,3.496400000000e+01,2.000000000000e+00
265,7.060660171780e-01,3.747454415588e+01,2.000000000000e+00
266,4.939339828220e-01,3.247454415588e+01,2.000000000000e+00
267,-1.500000000000e-01,3.496400000000e+01,2.000000000000e+00
268,-7.060660171780e-01,3.747454415588e+01,2.000000000000e+00
*ELEMENT,TYPE=B31,ELSET=ALL
1,1,25
2,25,26
3,26,27
4,27,28
5,28,29
6,29,30
7,30,31
8,31,5
9,2,32
10,32,33
11,33,34
12,34,35
13,35,36
14,36,37
15,37,38
16,38,6
17,3,39
18,39,40
19,40,41
20,41,42
21,42,43
22,43,44
23,44,45
24,45,7
25,4,46
26,46,47
27,47,48
28,48,49
29,49,50
30,50,51
31,51,52
32,52,8
33,5,53
34,53,54
35,54,55
36,55,9
37,6,56
38,56,57
39,57,58
40,58,10
41,7,59
42,59,60
43,60,61
44,61,11
45,8,62
46,62,63
47,63,64
48,64,12
49,9,13
50,10,14
51,11,15
52,12,16
53,13,17
54,14,18
55,15,19
56,16,20
57,17,65
58,65,66
59,66,67
60,67,21
61,18,68
62,68,69
63,69,70
64,70,22
65,19,71
66,71,72
67,72,73
68,73,23
69,20,74
70,74,75
71,75,76
72,76,24
73,1,77
74,77,78
75,78,79
76,79,2
77,3,80
78,80,81
79,81,82
80,82,4
81,1,83
82,83,84
83,84,85
84,85,3
85,2,86
86,86,87
87,87,88
88,88,4
89,5,89
90,89,90
91,90,91
92,91,6
93,7,92
94,92,93
95,93,94
96,94,8
97,5,95
98,95,96
99,96,97
100,97,7
101,6,98
102,98,99
103,99,100
104,100,8
105,9,101
106,101,10
107,11,102
108,102,12
109,9,103
110,103,11
111,10,104
112,104,12
113,13,105
114,105,106
115,106,107
116,107,108
117,108,109
118,109,110
119,110,111
120,111,14
121,15,112
122,112,113
123,113,114
124,114,115
125,115,116
126,116,117
127,117,118
128,118,16
129,13,119
130,119,120
131,120,121
132,121,122
133,122,123
134,123,124
135,124,125
136,125,15
137,14,126
138,126,127
139,127,128
140,128,129
141,129,130
142,130,131
143,131,132
144,132,16
145,17,133
146,133,134
147,134,135
148,135,18
149,19,136
150,136,137
151,137,138
152,138,20
153,17,139
154,139,140
155,140,141
156,141,19
157,18,142
158,142,143
159,143,144
160,144,20
161,21,145
162,145,146
163,146,147
164,147,148
165,148,149
166,149,150
167,150,151
168,151,22
169,23,152
170,152,153
171,153,154
172,154,155
173,155,156
174,156,157
175,157,158
176,158,24
177,21,159
178,159,160
179,160,161
180,161,162
181,162,163
182,163,164
183,164,165
184,165,23
185,22,166
186,166,167
187,167,168
188,168,169
189,169,170
190,170,171
191,171,172
192,172,24
193,1,173
194,173,174
195,174,175
196,175,176
197,176,177
198,177,178
199,178,179
200,179,7
201,3,180
202,180,181
203,181,182
204,182,183
205,183,184
206,184,185
207,185,186
208,186,5
209,2,187
210,187,188
211,188,189
212,189,190
213,190,191
214,191,192
215,192,193
216,193,8
217,4,194
218,194,195
219,195,196
220,196,197
221,197,198
222,198,199
223,199,200
224,200,6
225,1,201
226,201,202
227,202,203
228,203,204
229,204,205
230,205,206
231,206,207
232,207,6
233,2,208
234,208,209
235,209,210
236,210,211
237,211,212
238,212,213
239,213,214
240,214,5
241,3,215
242,215,216
243,216,217
244,217,218
245,218,219
246,219,220
247,220,221
248,221,8
249,4,222
250,222,223
251,223,224
252,224,225
253,225,226
254,226,227
255,227,228
256,228,7
257,5,229
258,229,11
259,7,230
260,230,9
261,6,231
262,231,12
263,8,232
264,232,10
265,5,233
266,233,10
267,6,234
268,234,9
269,7,235
270,235,12
271,8,236
272,236,11
273,9,237
274,237,15
275,11,238
276,238,13
277,10,239
278,239,16
279,12,240
280,240,14
281,9,241
282,241,14
283,10,242
284,242,13
285,11,243
286,243,16
287,12,244
288,244,15
289,13,245
290,245,246
291,246,247
292,247,19
293,15,248
294,248,249
295,249,250
296,250,17
297,14,251
298,251,252
299,252,253
300,253,20
301,16,254
302,254,255
303,255,256
304,256,18
305,13,257
306,257,258
307,258,259
308,259,18
309,14,260
310,260,261
311,261,262
312,262,17
313,15,263
314,263,264
315,264,265
316,265,20
317,16,266
318,266,267
319,267,268
320,268,19
321,17,23
322,19,21
323,18,24
324,20,22
325,17,22
326,18,21
327,19,24
328,20,23
*NSET,NSET=NALL,GENERATE
1,268,1
*NSET,NSET=LEFT
1,2,3,4
*NSET,NSET=RIGHT
21,22,23,24
*MATERIAL,NAME=STEEL
*ELASTIC
2.100000000000e+11,0.300000000000
*BEAM SECTION,ELSET=ALL,MATERIAL=STEEL,SECTION=RECT
6.000000000000e-02,4.000000000000e-02
0.371390676354,0.557086014531,0.742781352708
*BOUNDARY
LEFT,1,6,0.0
*STEP
*STATIC
*BOUNDARY
21,1,1,5.000000000000e-03
21,2,2,0.0
21,3,3,-6.000000000000e-03
*BOUNDARY
22,1,1,5.000000000000e-03
22,2,2,0.0
22,3,3,6.000000000000e-03
*BOUNDARY
23,1,1,-5.000000000000e-03
23,2,2,0.0
23,3,3,-6.000000000000e-03
*BOUNDARY
24,1,1,-5.000000000000e-03
24,2,2,0.0
24,3,3,6.000000000000e-03
*NODE FILE,NSET=NALL
U
*NODE PRINT,NSET=NALL
U
*NODE PRINT,NSET=RIGHT
RF
*EL PRINT,ELSET=ALL,TOTALS=YES
ELSE
*END STEP
