*HEADING
Normalized cross-passage space-truss torsion benchmark
*NODE
1,-1.200000000000e+00,0.000000000000e+00,0.000000000000e+00
2,1.200000000000e+00,0.000000000000e+00,0.000000000000e+00
3,-1.200000000000e+00,0.000000000000e+00,2.000000000000e+00
4,1.200000000000e+00,0.000000000000e+00,2.000000000000e+00
5,-1.200000000000e+00,1.000000000000e+01,0.000000000000e+00
6,1.200000000000e+00,1.000000000000e+01,0.000000000000e+00
7,-1.200000000000e+00,1.000000000000e+01,2.000000000000e+00
8,1.200000000000e+00,1.000000000000e+01,2.000000000000e+00
9,-1.200000000000e+00,2.000000000000e+01,0.000000000000e+00
10,1.200000000000e+00,2.000000000000e+01,0.000000000000e+00
11,-1.200000000000e+00,2.000000000000e+01,2.000000000000e+00
12,1.200000000000e+00,2.000000000000e+01,2.000000000000e+00
13,-1.200000000000e+00,3.000000000000e+01,0.000000000000e+00
14,1.200000000000e+00,3.000000000000e+01,0.000000000000e+00
15,-1.200000000000e+00,3.000000000000e+01,2.000000000000e+00
16,1.200000000000e+00,3.000000000000e+01,2.000000000000e+00
17,-1.200000000000e+00,4.000000000000e+01,0.000000000000e+00
18,1.200000000000e+00,4.000000000000e+01,0.000000000000e+00
19,-1.200000000000e+00,4.000000000000e+01,2.000000000000e+00
20,1.200000000000e+00,4.000000000000e+01,2.000000000000e+00
21,-1.200000000000e+00,5.000000000000e+01,0.000000000000e+00
22,1.200000000000e+00,5.000000000000e+01,0.000000000000e+00
23,-1.200000000000e+00,5.000000000000e+01,2.000000000000e+00
24,1.200000000000e+00,5.000000000000e+01,2.000000000000e+00
25,-1.200000000000e+00,5.000000000000e+00,-1.500000000000e-01
26,1.200000000000e+00,5.000000000000e+00,1.500000000000e-01
27,-1.200000000000e+00,5.000000000000e+00,1.850000000000e+00
28,1.200000000000e+00,5.000000000000e+00,2.150000000000e+00
29,-1.200000000000e+00,1.500000000000e+01,-1.500000000000e-01
30,1.200000000000e+00,1.500000000000e+01,1.500000000000e-01
31,-1.200000000000e+00,1.500000000000e+01,1.850000000000e+00
32,1.200000000000e+00,1.500000000000e+01,2.150000000000e+00
33,-1.200000000000e+00,2.500000000000e+01,-1.500000000000e-01
34,1.200000000000e+00,2.500000000000e+01,1.500000000000e-01
35,-1.200000000000e+00,2.500000000000e+01,1.850000000000e+00
36,1.200000000000e+00,2.500000000000e+01,2.150000000000e+00
37,-1.200000000000e+00,3.500000000000e+01,-1.500000000000e-01
38,1.200000000000e+00,3.500000000000e+01,1.500000000000e-01
39,-1.200000000000e+00,3.500000000000e+01,1.850000000000e+00
40,1.200000000000e+00,3.500000000000e+01,2.150000000000e+00
41,-1.200000000000e+00,4.250000000000e+01,-1.060660171780e-01
42,-1.200000000000e+00,4.500000000000e+01,-1.500000000000e-01
43,-1.200000000000e+00,4.750000000000e+01,-1.060660171780e-01
44,1.200000000000e+00,4.250000000000e+01,1.060660171780e-01
45,1.200000000000e+00,4.500000000000e+01,1.500000000000e-01
46,1.200000000000e+00,4.750000000000e+01,1.060660171780e-01
47,-1.200000000000e+00,4.250000000000e+01,1.893933982822e+00
48,-1.200000000000e+00,4.500000000000e+01,1.850000000000e+00
49,-1.200000000000e+00,4.750000000000e+01,1.893933982822e+00
50,1.200000000000e+00,4.250000000000e+01,2.106066017178e+00
51,1.200000000000e+00,4.500000000000e+01,2.150000000000e+00
52,1.200000000000e+00,4.750000000000e+01,2.106066017178e+00
53,0.000000000000e+00,-3.600000000000e-02,0.000000000000e+00
54,0.000000000000e+00,3.600000000000e-02,2.000000000000e+00
55,-1.200000000000e+00,3.000000000000e-02,1.000000000000e+00
56,1.200000000000e+00,-3.000000000000e-02,1.000000000000e+00
57,0.000000000000e+00,9.964000000000e+00,0.000000000000e+00
58,0.000000000000e+00,1.003600000000e+01,2.000000000000e+00
59,-1.200000000000e+00,1.003000000000e+01,1.000000000000e+00
60,1.200000000000e+00,9.970000000000e+00,1.000000000000e+00
61,0.000000000000e+00,1.996400000000e+01,0.000000000000e+00
62,0.000000000000e+00,2.003600000000e+01,2.000000000000e+00
63,-1.200000000000e+00,2.003000000000e+01,1.000000000000e+00
64,1.200000000000e+00,1.997000000000e+01,1.000000000000e+00
65,0.000000000000e+00,2.996400000000e+01,0.000000000000e+00
66,0.000000000000e+00,3.003600000000e+01,2.000000000000e+00
67,-1.200000000000e+00,3.003000000000e+01,1.000000000000e+00
68,1.200000000000e+00,2.997000000000e+01,1.000000000000e+00
69,-6.000000000000e-01,3.997454415588e+01,0.000000000000e+00
70,0.000000000000e+00,3.996400000000e+01,0.000000000000e+00
71,6.000000000000e-01,3.997454415588e+01,0.000000000000e+00
72,-6.000000000000e-01,4.002545584412e+01,2.000000000000e+00
73,0.000000000000e+00,4.003600000000e+01,2.000000000000e+00
74,6.000000000000e-01,4.002545584412e+01,2.000000000000e+00
75,-1.200000000000e+00,4.002121320344e+01,5.000000000000e-01
76,-1.200000000000e+00,4.003000000000e+01,1.000000000000e+00
77,-1.200000000000e+00,4.002121320344e+01,1.500000000000e+00
78,1.200000000000e+00,3.997878679656e+01,5.000000000000e-01
79,1.200000000000e+00,3.997000000000e+01,1.000000000000e+00
80,1.200000000000e+00,3.997878679656e+01,1.500000000000e+00
81,-6.000000000000e-01,4.997454415588e+01,0.000000000000e+00
82,0.000000000000e+00,4.996400000000e+01,0.000000000000e+00
83,6.000000000000e-01,4.997454415588e+01,0.000000000000e+00
84,-6.000000000000e-01,5.002545584412e+01,2.000000000000e+00
85,0.000000000000e+00,5.003600000000e+01,2.000000000000e+00
86,6.000000000000e-01,5.002545584412e+01,2.000000000000e+00
87,-1.200000000000e+00,5.002121320344e+01,5.000000000000e-01
88,-1.200000000000e+00,5.003000000000e+01,1.000000000000e+00
89,-1.200000000000e+00,5.002121320344e+01,1.500000000000e+00
90,1.200000000000e+00,4.997878679656e+01,5.000000000000e-01
91,1.200000000000e+00,4.997000000000e+01,1.000000000000e+00
92,1.200000000000e+00,4.997878679656e+01,1.500000000000e+00
93,-1.200000000000e+00,2.521213203436e+00,3.939339828220e-01
94,-1.200000000000e+00,5.030000000000e+00,8.500000000000e-01
95,-1.200000000000e+00,7.521213203436e+00,1.393933982822e+00
96,-1.200000000000e+00,2.521213203436e+00,1.606066017178e+00
97,-1.200000000000e+00,5.030000000000e+00,1.150000000000e+00
98,-1.200000000000e+00,7.521213203436e+00,6.060660171780e-01
99,1.200000000000e+00,2.521213203436e+00,3.939339828220e-01
100,1.200000000000e+00,5.030000000000e+00,8.500000000000e-01
101,1.200000000000e+00,7.521213203436e+00,1.393933982822e+00
102,1.200000000000e+00,2.521213203436e+00,1.606066017178e+00
103,1.200000000000e+00,5.030000000000e+00,1.150000000000e+00
104,1.200000000000e+00,7.521213203436e+00,6.060660171780e-01
105,-4.939339828220e-01,2.474544155877e+00,0.000000000000e+00
106,1.500000000000e-01,4.964000000000e+00,0.000000000000e+00
107,7.060660171780e-01,7.474544155877e+00,0.000000000000e+00
108,4.939339828220e-01,2.474544155877e+00,0.000000000000e+00
109,-1.500000000000e-01,4.964000000000e+00,0.000000000000e+00
110,-7.060660171780e-01,7.474544155877e+00,0.000000000000e+00
111,-4.939339828220e-01,2.474544155877e+00,2.000000000000e+00
112,1.500000000000e-01,4.964000000000e+00,2.000000000000e+00
113,7.060660171780e-01,7.474544155877e+00,2.000000000000e+00
114,4.939339828220e-01,2.474544155877e+00,2.000000000000e+00
115,-1.500000000000e-01,4.964000000000e+00,2.000000000000e+00
116,-7.060660171780e-01,7.474544155877e+00,2.000000000000e+00
117,-1.200000000000e+00,1.252121320344e+01,3.939339828220e-01
118,-1.200000000000e+00,1.503000000000e+01,8.500000000000e-01
119,-1.200000000000e+00,1.752121320344e+01,1.393933982822e+00
120,-1.200000000000e+00,1.252121320344e+01,1.606066017178e+00
121,-1.200000000000e+00,1.503000000000e+01,1.150000000000e+00
122,-1.200000000000e+00,1.752121320344e+01,6.060660171780e-01
123,1.200000000000e+00,1.252121320344e+01,3.939339828220e-01
124,1.200000000000e+00,1.503000000000e+01,8.500000000000e-01
125,1.200000000000e+00,1.752121320344e+01,1.393933982822e+00
126,1.200000000000e+00,1.252121320344e+01,1.606066017178e+00
127,1.200000000000e+00,1.503000000000e+01,1.150000000000e+00
128,1.200000000000e+00,1.752121320344e+01,6.060660171780e-01
129,-4.939339828220e-01,1.247454415588e+01,0.000000000000e+00
130,1.500000000000e-01,1.496400000000e+01,0.000000000000e+00
131,7.060660171780e-01,1.747454415588e+01,0.000000000000e+00
132,4.939339828220e-01,1.247454415588e+01,0.000000000000e+00
133,-1.500000000000e-01,1.496400000000e+01,0.000000000000e+00
134,-7.060660171780e-01,1.747454415588e+01,0.000000000000e+00
135,-4.939339828220e-01,1.247454415588e+01,2.000000000000e+00
136,1.500000000000e-01,1.496400000000e+01,2.000000000000e+00
137,7.060660171780e-01,1.747454415588e+01,2.000000000000e+00
138,4.939339828220e-01,1.247454415588e+01,2.000000000000e+00
139,-1.500000000000e-01,1.496400000000e+01,2.000000000000e+00
140,-7.060660171780e-01,1.747454415588e+01,2.000000000000e+00
141,-1.200000000000e+00,2.252121320344e+01,3.939339828220e-01
142,-1.200000000000e+00,2.503000000000e+01,8.500000000000e-01
143,-1.200000000000e+00,2.752121320344e+01,1.393933982822e+00
144,-1.200000000000e+00,2.252121320344e+01,1.606066017178e+00
145,-1.200000000000e+00,2.503000000000e+01,1.150000000000e+00
146,-1.200000000000e+00,2.752121320344e+01,6.060660171780e-01
147,1.200000000000e+00,2.252121320344e+01,3.939339828220e-01
148,1.200000000000e+00,2.503000000000e+01,8.500000000000e-01
149,1.200000000000e+00,2.752121320344e+01,1.393933982822e+00
150,1.200000000000e+00,2.252121320344e+01,1.606066017178e+00
151,1.200000000000e+00,2.503000000000e+01,1.150000000000e+00
152,1.200000000000e+00,2.752121320344e+01,6.060660171780e-01
153,-4.939339828220e-01,2.247454415588e+01,0.000000000000e+00
154,1.500000000000e-01,2.496400000000e+01,0.000000000000e+00
155,7.060660171780e-01,2.747454415588e+01,0.000000000000e+00
156,4.939339828220e-01,2.247454415588e+01,0.000000000000e+00
157,-1.500000000000e-01,2.496400000000e+01,0.000000000000e+00
158,-7.060660171780e-01,2.747454415588e+01,0.000000000000e+00
159,-4.939339828220e-01,2.247454415588e+01,2.000000000000e+00
160,1.500000000000e-01,2.496400000000e+01,2.000000000000e+00
161,7.060660171780e-01,2.747454415588e+01,2.000000000000e+00
162,4.939339828220e-01,2.247454415588e+01,2.000000000000e+00
163,-1.500000000000e-01,2.496400000000e+01,2.000000000000e+00
164,-7.060660171780e-01,2.747454415588e+01,2.000000000000e+00
165,-1.200000000000e+00,3.252121320344e+01,3.939339828220e-01
166,-1.200000000000e+00,3.503000000000e+01,8.500000000000e-01
167,-1.200000000000e+00,3.752121320344e+01,1.393933982822e+00
168,-1.200000000000e+00,3.252121320344e+01,1.606066017178e+00
169,-1.200000000000e+00,3.503000000000e+01,1.150000000000e+00
170,-1.200000000000e+00,3.752121320344e+01,6.060660171780e-01
171,1.200000000000e+00,3.252121320344e+01,3.939339828220e-01
172,1.200000000000e+00,3.503000000000e+01,8.500000000000e-01
173,1.200000000000e+00,3.752121320344e+01,1.393933982822e+00
174,1.200000000000e+00,3.252121320344e+01,1.606066017178e+00
175,1.200000000000e+00,3.503000000000e+01,1.150000000000e+00
176,1.200000000000e+00,3.752121320344e+01,6.060660171780e-01
177,-4.939339828220e-01,3.247454415588e+01,0.000000000000e+00
178,1.500000000000e-01,3.496400000000e+01,0.000000000000e+00
179,7.060660171780e-01,3.747454415588e+01,0.000000000000e+00
180,4.939339828220e-01,3.247454415588e+01,0.000000000000e+00
181,-1.500000000000e-01,3.496400000000e+01,0.000000000000e+00
182,-7.060660171780e-01,3.747454415588e+01,0.000000000000e+00
183,-4.939339828220e-01,3.247454415588e+01,2.000000000000e+00
184,1.500000000000e-01,3.496400000000e+01,2.000000000000e+00
185,7.060660171780e-01,3.747454415588e+01,2.000000000000e+00
186,4.939339828220e-01,3.247454415588e+01,2.000000000000e+00
187,-1.500000000000e-01,3.496400000000e+01,2.000000000000e+00
188,-7.060660171780e-01,3.747454415588e+01,2.000000000000e+00
189,-1.200000000000e+00,4.252121320344e+01,3.939339828220e-01
190,-1.200000000000e+00,4.503000000000e+01,8.500000000000e-01
191,-1.200000000000e+00,4.752121320344e+01,1.393933982822e+00
192,-1.200000000000e+00,4.252121320344e+01,1.606066017178e+00
193,-1.200000000000e+00,4.503000000000e+01,1.150000000000e+00
194,-1.200000000000e+00,4.752121320344e+01,6.060660171780e-01
195,1.200000000000e+00,4.252121320344e+01,3.939339828220e-01
196,1.200000000000e+00,4.503000000000e+01,8.500000000000e-01
197,1.200000000000e+00,4.752121320344e+01,1.393933982822e+00
198,1.200000000000e+00,4.252121320344e+01,1.606066017178e+00
199,1.200000000000e+00,4.503000000000e+01,1.150000000000e+00
200,1.200000000000e+00,4.752121320344e+01,6.060660171780e-01
201,-4.939339828220e-01,4.247454415588e+01,0.000000000000e+00
202,1.500000000000e-01,4.496400000000e+01,0.000000000000e+00
203,7.060660171780e-01,4.747454415588e+01,0.000000000000e+00
204,4.939339828220e-01,4.247454415588e+01,0.000000000000e+00
205,-1.500000000000e-01,4.496400000000e+01,0.000000000000e+00
206,-7.060660171780e-01,4.747454415588e+01,0.000000000000e+00
207,-4.939339828220e-01,4.247454415588e+01,2.000000000000e+00
208,1.500000000000e-01,4.496400000000e+01,2.000000000000e+00
209,7.060660171780e-01,4.747454415588e+01,2.000000000000e+00
210,4.939339828220e-01,4.247454415588e+01,2.000000000000e+00
211,-1.500000000000e-01,4.496400000000e+01,2.000000000000e+00
212,-7.060660171780e-01,4.747454415588e+01,2.000000000000e+00
*ELEMENT,TYPE=B31,ELSET=ALL
1,1,25
2,25,5
3,2,26
4,26,6
5,3,27
6,27,7
7,4,28
8,28,8
9,5,29
10,29,9
11,6,30
12,30,10
13,7,31
14,31,11
15,8,32
16,32,12
17,9,33
18,33,13
19,10,34
20,34,14
21,11,35
22,35,15
23,12,36
24,36,16
25,13,37
26,37,17
27,14,38
28,38,18
29,15,39
30,39,19
31,16,40
32,40,20
33,17,41
34,41,42
35,42,43
36,43,21
37,18,44
38,44,45
39,45,46
40,46,22
41,19,47
42,47,48
43,48,49
44,49,23
45,20,50
46,50,51
47,51,52
48,52,24
49,1,53
50,53,2
51,3,54
52,54,4
53,1,55
54,55,3
55,2,56
56,56,4
57,5,57
58,57,6
59,7,58
60,58,8
61,5,59
62,59,7
63,6,60
64,60,8
65,9,61
66,61,10
67,11,62
68,62,12
69,9,63
70,63,11
71,10,64
72,64,12
73,13,65
74,65,14
75,15,66
76,66,16
77,13,67
78,67,15
79,14,68
80,68,16
81,17,69
82,69,70
83,70,71
84,71,18
85,19,72
86,72,73
87,73,74
88,74,20
89,17,75
90,75,76
91,76,77
92,77,19
93,18,78
94,78,79
95,79,80
96,80,20
97,21,81
98,81,82
99,82,83
100,83,22
101,23,84
102,84,85
103,85,86
104,86,24
105,21,87
106,87,88
107,88,89
108,89,23
109,22,90
110,90,91
111,91,92
112,92,24
113,1,93
114,93,94
115,94,95
116,95,7
117,3,96
118,96,97
119,97,98
120,98,5
121,2,99
122,99,100
123,100,101
124,101,8
125,4,102
126,102,103
127,103,104
128,104,6
129,1,105
130,105,106
131,106,107
132,107,6
133,2,108
134,108,109
135,109,110
136,110,5
137,3,111
138,111,112
139,112,113
140,113,8
141,4,114
142,114,115
143,115,116
144,116,7
145,5,117
146,117,118
147,118,119
148,119,11
149,7,120
150,120,121
151,121,122
152,122,9
153,6,123
154,123,124
155,124,125
156,125,12
157,8,126
158,126,127
159,127,128
160,128,10
161,5,129
162,129,130
163,130,131
164,131,10
165,6,132
166,132,133
167,133,134
168,134,9
169,7,135
170,135,136
171,136,137
172,137,12
173,8,138
174,138,139
175,139,140
176,140,11
177,9,141
178,141,142
179,142,143
180,143,15
181,11,144
182,144,145
183,145,146
184,146,13
185,10,147
186,147,148
187,148,149
188,149,16
189,12,150
190,150,151
191,151,152
192,152,14
193,9,153
194,153,154
195,154,155
196,155,14
197,10,156
198,156,157
199,157,158
200,158,13
201,11,159
202,159,160
203,160,161
204,161,16
205,12,162
206,162,163
207,163,164
208,164,15
209,13,165
210,165,166
211,166,167
212,167,19
213,15,168
214,168,169
215,169,170
216,170,17
217,14,171
218,171,172
219,172,173
220,173,20
221,16,174
222,174,175
223,175,176
224,176,18
225,13,177
226,177,178
227,178,179
228,179,18
229,14,180
230,180,181
231,181,182
232,182,17
233,15,183
234,183,184
235,184,185
236,185,20
237,16,186
238,186,187
239,187,188
240,188,19
241,17,189
242,189,190
243,190,191
244,191,23
245,19,192
246,192,193
247,193,194
248,194,21
249,18,195
250,195,196
251,196,197
252,197,24
253,20,198
254,198,199
255,199,200
256,200,22
257,17,201
258,201,202
259,202,203
260,203,22
261,18,204
262,204,205
263,205,206
264,206,21
265,19,207
266,207,208
267,208,209
268,209,24
269,20,210
270,210,211
271,211,212
272,212,23
*NSET,NSET=NALL,GENERATE
1,212,1
*NSET,NSET=LEFT
1,2,3,4
*NSET,NSET=RIGHT
21,22,23,24
*MATERIAL,NAME=STEEL
*ELASTIC
2.100000000000e+11,0.300000000000
*BEAM SECTION,ELSET=ALL,MATERIAL=STEEL,SECTION=RECT
6.000000000000e-02,4.000000000000e-02
0.371390676354,0.557086014531,0.742781352708
*BOUNDARY
LEFT,1,6,0.0
*STEP
*STATIC
*BOUNDARY
21,1,1,5.000000000000e-03
21,2,2,0.0
21,3,3,-6.000000000000e-03
*BOUNDARY
22,1,1,5.000000000000e-03
22,2,2,0.0
22,3,3,6.000000000000e-03
*BOUNDARY
23,1,1,-5.000000000000e-03
23,2,2,0.0
23,3,3,-6.000000000000e-03
*BOUNDARY
24,1,1,-5.000000000000e-03
24,2,2,0.0
24,3,3,6.000000000000e-03
*NODE FILE,NSET=NALL
U
*NODE PRINT,NSET=NALL
U
*NODE PRINT,NSET=RIGHT
RF
*EL PRINT,ELSET=ALL,TOTALS=YES
ELSE
*END STEP
