*HEADING
Normalized cross-passage space-truss torsion benchmark
*NODE
1,-1.200000000000e+00,0.000000000000e+00,0.000000000000e+00
2,1.200000000000e+00,0.000000000000e+00,0.000000000000e+00
3,-1.200000000000e+00,0.000000000000e+00,2.000000000000e+00
4,1.200000000000e+00,0.000000000000e+00,2.000000000000e+00
5,-1.200000000000e+00,1.000000000000e+01,0.000000000000e+00
6,1.200000000000e+00,1.000000000000e+01,0.000000000000e+00
7,-1.200000000000e+00,1.000000000000e+01,2.000000000000e+00
8,1.200000000000e+00,1.000000000000e+01,2.000000000000e+00
9,-1.200000000000e+00,2.000000000000e+01,0.000000000000e+00
10,1.200000000000e+00,2.000000000000e+01,0.000000000000e+00
11,-1.200000000000e+00,2.000000000000e+01,2.000000000000e+00
12,1.200000000000e+00,2.000000000000e+01,2.000000000000e+00
13,-1.200000000000e+00,3.000000000000e+01,0.000000000000e+00
14,1.200000000000e+00,3.000000000000e+01,0.000000000000e+00
15,-1.200000000000e+00,3.000000000000e+01,2.000000000000e+00
16,1.200000000000e+00,3.000000000000e+01,2.000000000000e+00
17,-1.200000000000e+00,4.000000000000e+01,0.000000000000e+00
18,1.200000000000e+00,4.000000000000e+01,0.000000000000e+00
19,-1.200000000000e+00,4.000000000000e+01,2.000000000000e+00
20,1.200000000000e+00,4.000000000000e+01,2.000000000000e+00
21,-1.200000000000e+00,5.000000000000e+01,0.000000000000e+00
22,1.200000000000e+00,5.000000000000e+01,0.000000000000e+00
23,-1.200000000000e+00,5.000000000000e+01,2.000000000000e+00
24,1.200000000000e+00,5.000000000000e+01,2.000000000000e+00
25,-1.200000000000e+00,2.500000000000e+01,-1.500000000000e-01
26,1.200000000000e+00,2.500000000000e+01,1.500000000000e-01
27,-1.200000000000e+00,2.500000000000e+01,1.850000000000e+00
28,1.200000000000e+00,2.500000000000e+01,2.150000000000e+00
29,-1.200000000000e+00,3.250000000000e+01,-1.060660171780e-01
30,-1.200000000000e+00,3.500000000000e+01,-1.500000000000e-01
31,-1.200000000000e+00,3.750000000000e+01,-1.060660171780e-01
32,1.200000000000e+00,3.250000000000e+01,1.060660171780e-01
33,1.200000000000e+00,3.500000000000e+01,1.500000000000e-01
34,1.200000000000e+00,3.750000000000e+01,1.060660171780e-01
35,-1.200000000000e+00,3.250000000000e+01,1.893933982822e+00
36,-1.200000000000e+00,3.500000000000e+01,1.850000000000e+00
37,-1.200000000000e+00,3.750000000000e+01,1.893933982822e+00
38,1.200000000000e+00,3.250000000000e+01,2.106066017178e+00
39,1.200000000000e+00,3.500000000000e+01,2.150000000000e+00
40,1.200000000000e+00,3.750000000000e+01,2.106066017178e+00
41,-1.200000000000e+00,4.250000000000e+01,-1.060660171780e-01
42,-1.200000000000e+00,4.500000000000e+01,-1.500000000000e-01
43,-1.200000000000e+00,4.750000000000e+01,-1.060660171780e-01
44,1.200000000000e+00,4.250000000000e+01,1.060660171780e-01
45,1.200000000000e+00,4.500000000000e+01,1.500000000000e-01
46,1.200000000000e+00,4.750000000000e+01,1.060660171780e-01
47,-1.200000000000e+00,4.250000000000e+01,1.893933982822e+00
48,-1.200000000000e+00,4.500000000000e+01,1.850000000000e+00
49,-1.200000000000e+00,4.750000000000e+01,1.893933982822e+00
50,1.200000000000e+00,4.250000000000e+01,2.106066017178e+00
51,1.200000000000e+00,4.500000000000e+01,2.150000000000e+00
52,1.200000000000e+00,4.750000000000e+01,2.106066017178e+00
53,-6.000000000000e-01,-2.545584412272e-02,0.000000000000e+00
54,0.000000000000e+00,-3.600000000000e-02,0.000000000000e+00
55,6.000000000000e-01,-2.545584412272e-02,0.000000000000e+00
56,-6.000000000000e-01,2.545584412272e-02,2.000000000000e+00
57,0.000000000000e+00,3.600000000000e-02,2.000000000000e+00
58,6.000000000000e-01,2.545584412272e-02,2.000000000000e+00
59,-1.200000000000e+00,2.121320343560e-02,5.000000000000e-01
60,-1.200000000000e+00,3.000000000000e-02,1.000000000000e+00
61,-1.200000000000e+00,2.121320343560e-02,1.500000000000e+00
62,1.200000000000e+00,-2.121320343560e-02,5.000000000000e-01
63,1.200000000000e+00,-3.000000000000e-02,1.000000000000e+00
64,1.200000000000e+00,-2.121320343560e-02,1.500000000000e+00
65,0.000000000000e+00,1.996400000000e+01,0.000000000000e+00
66,0.000000000000e+00,2.003600000000e+01,2.000000000000e+00
67,-1.200000000000e+00,2.003000000000e+01,1.000000000000e+00
68,1.200000000000e+00,1.997000000000e+01,1.000000000000e+00
69,-6.000000000000e-01,3.997454415588e+01,0.000000000000e+00
70,0.000000000000e+00,3.996400000000e+01,0.000000000000e+00
71,6.000000000000e-01,3.997454415588e+01,0.000000000000e+00
72,-6.000000000000e-01,4.002545584412e+01,2.000000000000e+00
73,0.000000000000e+00,4.003600000000e+01,2.000000000000e+00
74,6.000000000000e-01,4.002545584412e+01,2.000000000000e+00
75,-1.200000000000e+00,4.002121320344e+01,5.000000000000e-01
76,-1.200000000000e+00,4.003000000000e+01,1.000000000000e+00
77,-1.200000000000e+00,4.002121320344e+01,1.500000000000e+00
78,1.200000000000e+00,3.997878679656e+01,5.000000000000e-01
79,1.200000000000e+00,3.997000000000e+01,1.000000000000e+00
80,1.200000000000e+00,3.997878679656e+01,1.500000000000e+00
81,-6.000000000000e-01,4.997454415588e+01,0.000000000000e+00
82,0.000000000000e+00,4.996400000000e+01,0.000000000000e+00
83,6.000000000000e-01,4.997454415588e+01,0.000000000000e+00
84,-6.000000000000e-01,5.002545584412e+01,2.000000000000e+00
85,0.000000000000e+00,5.003600000000e+01,2.000000000000e+00
86,6.000000000000e-01,5.002545584412e+01,2.000000000000e+00
87,-1.200000000000e+00,5.002121320344e+01,5.000000000000e-01
88,-1.200000000000e+00,5.003000000000e+01,1.000000000000e+00
89,-1.200000000000e+00,5.002121320344e+01,1.500000000000e+00
90,1.200000000000e+00,4.997878679656e+01,5.000000000000e-01
91,1.200000000000e+00,4.997000000000e+01,1.000000000000e+00
92,1.200000000000e+00,4.997878679656e+01,1.500000000000e+00
93,-1.200000000000e+00,5.030000000000e+00,8.500000000000e-01
94,-1.200000000000e+00,5.030000000000e+00,1.150000000000e+00
95,1.200000000000e+00,5.030000000000e+00,8.500000000000e-01
96,1.200000000000e+00,5.030000000000e+00,1.150000000000e+00
97,1.500000000000e-01,4.964000000000e+00,0.000000000000e+00
98,-1.500000000000e-01,4.964000000000e+00,0.000000000000e+00
99,1.500000000000e-01,4.964000000000e+00,2.000000000000e+00
100,-1.500000000000e-01,4.964000000000e+00,2.000000000000e+00
101,-1.200000000000e+00,1.503000000000e+01,8.500000000000e-01
102,-1.200000000000e+00,1.503000000000e+01,1.150000000000e+00
103,1.200000000000e+00,1.503000000000e+01,8.500000000000e-01
104,1.200000000000e+00,1.503000000000e+01,1.150000000000e+00
105,1.500000000000e-01,1.496400000000e+01,0.000000000000e+00
106,-1.500000000000e-01,1.496400000000e+01,0.000000000000e+00
107,1.500000000000e-01,1.496400000000e+01,2.000000000000e+00
108,-1.500000000000e-01,1.496400000000e+01,2.000000000000e+00
109,-1.200000000000e+00,4.126148050297e+01,1.925974851452e-01
110,-1.200000000000e+00,4.252121320344e+01,3.939339828220e-01
111,-1.200000000000e+00,4.377771638598e+01,6.114180701233e-01
112,-1.200000000000e+00,4.503000000000e+01,8.500000000000e-01
113,-1.200000000000e+00,4.627771638598e+01,1.111418070123e+00
114,-1.200000000000e+00,4.752121320344e+01,1.393933982822e+00
115,-1.200000000000e+00,4.876148050297e+01,1.692597485145e+00
116,-1.200000000000e+00,4.126148050297e+01,1.807402514855e+00
117,-1.200000000000e+00,4.252121320344e+01,1.606066017178e+00
118,-1.200000000000e+00,4.377771638598e+01,1.388581929877e+00
119,-1.200000000000e+00,4.503000000000e+01,1.150000000000e+00
120,-1.200000000000e+00,4.627771638598e+01,8.885819298767e-01
121,-1.200000000000e+00,4.752121320344e+01,6.060660171780e-01
122,-1.200000000000e+00,4.876148050297e+01,3.074025148548e-01
123,1.200000000000e+00,4.126148050297e+01,1.925974851452e-01
124,1.200000000000e+00,4.252121320344e+01,3.939339828220e-01
125,1.200000000000e+00,4.377771638598e+01,6.114180701233e-01
126,1.200000000000e+00,4.503000000000e+01,8.500000000000e-01
127,1.200000000000e+00,4.627771638598e+01,1.111418070123e+00
128,1.200000000000e+00,4.752121320344e+01,1.393933982822e+00
129,1.200000000000e+00,4.876148050297e+01,1.692597485145e+00
130,1.200000000000e+00,4.126148050297e+01,1.807402514855e+00
131,1.200000000000e+00,4.252121320344e+01,1.606066017178e+00
132,1.200000000000e+00,4.377771638598e+01,1.388581929877e+00
133,1.200000000000e+00,4.503000000000e+01,1.150000000000e+00
134,1.200000000000e+00,4.627771638598e+01,8.885819298767e-01
135,1.200000000000e+00,4.752121320344e+01,6.060660171780e-01
136,1.200000000000e+00,4.876148050297e+01,3.074025148548e-01
137,-8.425974851452e-01,4.123622339643e+01,0.000000000000e+00
138,-4.939339828220e-01,4.247454415588e+01,0.000000000000e+00
139,-1.614180701233e-01,4.371674033683e+01,0.000000000000e+00
140,1.500000000000e-01,4.496400000000e+01,0.000000000000e+00
141,4.385819298767e-01,4.621674033683e+01,0.000000000000e+00
142,7.060660171780e-01,4.747454415588e+01,0.000000000000e+00
143,9.574025148548e-01,4.873622339643e+01,0.000000000000e+00
144,8.425974851452e-01,4.123622339643e+01,0.000000000000e+00
145,4.939339828220e-01,4.247454415588e+01,0.000000000000e+00
146,1.614180701233e-01,4.371674033683e+01,0.000000000000e+00
147,-1.500000000000e-01,4.496400000000e+01,0.000000000000e+00
148,-4.385819298767e-01,4.621674033683e+01,0.000000000000e+00
149,-7.060660171780e-01,4.747454415588e+01,0.000000000000e+00
150,-9.574025148548e-01,4.873622339643e+01,0.000000000000e+00
151,-8.425974851452e-01,4.123622339643e+01,2.000000000000e+00
152,-4.939339828220e-01,4.247454415588e+01,2.000000000000e+00
153,-1.614180701233e-01,4.371674033683e+01,2.000000000000e+00
154,1.500000000000e-01,4.496400000000e+01,2.000000000000e+00
155,4.385819298767e-01,4.621674033683e+01,2.000000000000e+00
156,7.060660171780e-01,4.747454415588e+01,2.000000000000e+00
157,9.574025148548e-01,4.873622339643e+01,2.000000000000e+00
158,8.425974851452e-01,4.123622339643e+01,2.000000000000e+00
159,4.939339828220e-01,4.247454415588e+01,2.000000000000e+00
160,1.614180701233e-01,4.371674033683e+01,2.000000000000e+00
161,-1.500000000000e-01,4.496400000000e+01,2.000000000000e+00
162,-4.385819298767e-01,4.621674033683e+01,2.000000000000e+00
163,-7.060660171780e-01,4.747454415588e+01,2.000000000000e+00
164,-9.574025148548e-01,4.873622339643e+01,2.000000000000e+00
*ELEMENT,TYPE=B31,ELSET=ALL
1,1,5
2,2,6
3,3,7
4,4,8
5,5,9
6,6,10
7,7,11
8,8,12
9,9,25
10,25,13
11,10,26
12,26,14
13,11,27
14,27,15
15,12,28
16,28,16
17,13,29
18,29,30
19,30,31
20,31,17
21,14,32
22,32,33
23,33,34
24,34,18
25,15,35
26,35,36
27,36,37
28,37,19
29,16,38
30,38,39
31,39,40
32,40,20
33,17,41
34,41,42
35,42,43
36,43,21
37,18,44
38,44,45
39,45,46
40,46,22
41,19,47
42,47,48
43,48,49
44,49,23
45,20,50
46,50,51
47,51,52
48,52,24
49,1,53
50,53,54
51,54,55
52,55,2
53,3,56
54,56,57
55,57,58
56,58,4
57,1,59
58,59,60
59,60,61
60,61,3
61,2,62
62,62,63
63,63,64
64,64,4
65,5,6
66,7,8
67,5,7
68,6,8
69,9,65
70,65,10
71,11,66
72,66,12
73,9,67
74,67,11
75,10,68
76,68,12
77,13,14
78,15,16
79,13,15
80,14,16
81,17,69
82,69,70
83,70,71
84,71,18
85,19,72
86,72,73
87,73,74
88,74,20
89,17,75
90,75,76
91,76,77
92,77,19
93,18,78
94,78,79
95,79,80
96,80,20
97,21,81
98,81,82
99,82,83
100,83,22
101,23,84
102,84,85
103,85,86
104,86,24
105,21,87
106,87,88
107,88,89
108,89,23
109,22,90
110,90,91
111,91,92
112,92,24
113,1,93
114,93,7
115,3,94
116,94,5
117,2,95
118,95,8
119,4,96
120,96,6
121,1,97
122,97,6
123,2,98
124,98,5
125,3,99
126,99,8
127,4,100
128,100,7
129,5,101
130,101,11
131,7,102
132,102,9
133,6,103
134,103,12
135,8,104
136,104,10
137,5,105
138,105,10
139,6,106
140,106,9
141,7,107
142,107,12
143,8,108
144,108,11
145,9,15
146,11,13
147,10,16
148,12,14
149,9,14
150,10,13
151,11,16
152,12,15
153,13,19
154,15,17
155,14,20
156,16,18
157,13,18
158,14,17
159,15,20
160,16,19
161,17,109
162,109,110
163,110,111
164,111,112
165,112,113
166,113,114
167,114,115
168,115,23
169,19,116
170,116,117
171,117,118
172,118,119
173,119,120
174,120,121
175,121,122
176,122,21
177,18,123
178,123,124
179,124,125
180,125,126
181,126,127
182,127,128
183,128,129
184,129,24
185,20,130
186,130,131
187,131,132
188,132,133
189,133,134
190,134,135
191,135,136
192,136,22
193,17,137
194,137,138
195,138,139
196,139,140
197,140,141
198,141,142
199,142,143
200,143,22
201,18,144
202,144,145
203,145,146
204,146,147
205,147,148
206,148,149
207,149,150
208,150,21
209,19,151
210,151,152
211,152,153
212,153,154
213,154,155
214,155,156
215,156,157
216,157,24
217,20,158
218,158,159
219,159,160
220,160,161
221,161,162
222,162,163
223,163,164
224,164,23
*NSET,NSET=NALL,GENERATE
1,164,1
*NSET,NSET=LEFT
1,2,3,4
*NSET,NSET=RIGHT
21,22,23,24
*MATERIAL,NAME=STEEL
*ELASTIC
2.100000000000e+11,0.300000000000
*BEAM SECTION,ELSET=ALL,MATERIAL=STEEL,SECTION=RECT
6.000000000000e-02,4.000000000000e-02
0.371390676354,0.557086014531,0.742781352708
*BOUNDARY
LEFT,1,6,0.0
*STEP
*STATIC
*BOUNDARY
21,1,1,5.000000000000e-03
21,2,2,0.0
21,3,3,-6.000000000000e-03
*BOUNDARY
22,1,1,5.000000000000e-03
22,2,2,0.0
22,3,3,6.000000000000e-03
*BOUNDARY
23,1,1,-5.000000000000e-03
23,2,2,0.0
23,3,3,-6.000000000000e-03
*BOUNDARY
24,1,1,-5.000000000000e-03
24,2,2,0.0
24,3,3,6.000000000000e-03
*NODE FILE,NSET=NALL
U
*NODE PRINT,NSET=NALL
U
*NODE PRINT,NSET=RIGHT
RF
*EL PRINT,ELSET=ALL,TOTALS=YES
ELSE
*END STEP
