*HEADING
Normalized cross-passage space-truss torsion benchmark
*NODE
1,-1.200000000000e+00,0.000000000000e+00,0.000000000000e+00
2,1.200000000000e+00,0.000000000000e+00,0.000000000000e+00
3,-1.200000000000e+00,0.000000000000e+00,2.000000000000e+00
4,1.200000000000e+00,0.000000000000e+00,2.000000000000e+00
5,-1.200000000000e+00,1.000000000000e+01,0.000000000000e+00
6,1.200000000000e+00,1.000000000000e+01,0.000000000000e+00
7,-1.200000000000e+00,1.000000000000e+01,2.000000000000e+00
8,1.200000000000e+00,1.000000000000e+01,2.000000000000e+00
9,-1.200000000000e+00,2.000000000000e+01,0.000000000000e+00
10,1.200000000000e+00,2.000000000000e+01,0.000000000000e+00
11,-1.200000000000e+00,2.000000000000e+01,2.000000000000e+00
12,1.200000000000e+00,2.000000000000e+01,2.000000000000e+00
13,-1.200000000000e+00,3.000000000000e+01,0.000000000000e+00
14,1.200000000000e+00,3.000000000000e+01,0.000000000000e+00
15,-1.200000000000e+00,3.000000000000e+01,2.000000000000e+00
16,1.200000000000e+00,3.000000000000e+01,2.000000000000e+00
17,-1.200000000000e+00,4.000000000000e+01,0.000000000000e+00
18,1.200000000000e+00,4.000000000000e+01,0.000000000000e+00
19,-1.200000000000e+00,4.000000000000e+01,2.000000000000e+00
20,1.200000000000e+00,4.000000000000e+01,2.000000000000e+00
21,-1.200000000000e+00,5.000000000000e+01,0.000000000000e+00
22,1.200000000000e+00,5.000000000000e+01,0.000000000000e+00
23,-1.200000000000e+00,5.000000000000e+01,2.000000000000e+00
24,1.200000000000e+00,5.000000000000e+01,2.000000000000e+00
25,-1.200000000000e+00,5.000000000000e+00,-1.500000000000e-01
26,1.200000000000e+00,5.000000000000e+00,1.500000000000e-01
27,-1.200000000000e+00,5.000000000000e+00,1.850000000000e+00
28,1.200000000000e+00,5.000000000000e+00,2.150000000000e+00
29,-1.200000000000e+00,1.500000000000e+01,-1.500000000000e-01
30,1.200000000000e+00,1.500000000000e+01,1.500000000000e-01
31,-1.200000000000e+00,1.500000000000e+01,1.850000000000e+00
32,1.200000000000e+00,1.500000000000e+01,2.150000000000e+00
33,-1.200000000000e+00,2.250000000000e+01,-1.060660171780e-01
34,-1.200000000000e+00,2.500000000000e+01,-1.500000000000e-01
35,-1.200000000000e+00,2.750000000000e+01,-1.060660171780e-01
36,1.200000000000e+00,2.250000000000e+01,1.060660171780e-01
37,1.200000000000e+00,2.500000000000e+01,1.500000000000e-01
38,1.200000000000e+00,2.750000000000e+01,1.060660171780e-01
39,-1.200000000000e+00,2.250000000000e+01,1.893933982822e+00
40,-1.200000000000e+00,2.500000000000e+01,1.850000000000e+00
41,-1.200000000000e+00,2.750000000000e+01,1.893933982822e+00
42,1.200000000000e+00,2.250000000000e+01,2.106066017178e+00
43,1.200000000000e+00,2.500000000000e+01,2.150000000000e+00
44,1.200000000000e+00,2.750000000000e+01,2.106066017178e+00
45,-1.200000000000e+00,3.125000000000e+01,-5.740251485476e-02
46,-1.200000000000e+00,3.250000000000e+01,-1.060660171780e-01
47,-1.200000000000e+00,3.375000000000e+01,-1.385819298767e-01
48,-1.200000000000e+00,3.500000000000e+01,-1.500000000000e-01
49,-1.200000000000e+00,3.625000000000e+01,-1.385819298767e-01
50,-1.200000000000e+00,3.750000000000e+01,-1.060660171780e-01
51,-1.200000000000e+00,3.875000000000e+01,-5.740251485476e-02
52,1.200000000000e+00,3.125000000000e+01,5.740251485476e-02
53,1.200000000000e+00,3.250000000000e+01,1.060660171780e-01
54,1.200000000000e+00,3.375000000000e+01,1.385819298767e-01
55,1.200000000000e+00,3.500000000000e+01,1.500000000000e-01
56,1.200000000000e+00,3.625000000000e+01,1.385819298767e-01
57,1.200000000000e+00,3.750000000000e+01,1.060660171780e-01
58,1.200000000000e+00,3.875000000000e+01,5.740251485476e-02
59,-1.200000000000e+00,3.125000000000e+01,1.942597485145e+00
60,-1.200000000000e+00,3.250000000000e+01,1.893933982822e+00
61,-1.200000000000e+00,3.375000000000e+01,1.861418070123e+00
62,-1.200000000000e+00,3.500000000000e+01,1.850000000000e+00
63,-1.200000000000e+00,3.625000000000e+01,1.861418070123e+00
64,-1.200000000000e+00,3.750000000000e+01,1.893933982822e+00
65,-1.200000000000e+00,3.875000000000e+01,1.942597485145e+00
66,1.200000000000e+00,3.125000000000e+01,2.057402514855e+00
67,1.200000000000e+00,3.250000000000e+01,2.106066017178e+00
68,1.200000000000e+00,3.375000000000e+01,2.138581929877e+00
69,1.200000000000e+00,3.500000000000e+01,2.150000000000e+00
70,1.200000000000e+00,3.625000000000e+01,2.138581929877e+00
71,1.200000000000e+00,3.750000000000e+01,2.106066017178e+00
72,1.200000000000e+00,3.875000000000e+01,2.057402514855e+00
73,-1.200000000000e+00,4.250000000000e+01,-1.060660171780e-01
74,-1.200000000000e+00,4.500000000000e+01,-1.500000000000e-01
75,-1.200000000000e+00,4.750000000000e+01,-1.060660171780e-01
76,1.200000000000e+00,4.250000000000e+01,1.060660171780e-01
77,1.200000000000e+00,4.500000000000e+01,1.500000000000e-01
78,1.200000000000e+00,4.750000000000e+01,1.060660171780e-01
79,-1.200000000000e+00,4.250000000000e+01,1.893933982822e+00
80,-1.200000000000e+00,4.500000000000e+01,1.850000000000e+00
81,-1.200000000000e+00,4.750000000000e+01,1.893933982822e+00
82,1.200000000000e+00,4.250000000000e+01,2.106066017178e+00
83,1.200000000000e+00,4.500000000000e+01,2.150000000000e+00
84,1.200000000000e+00,4.750000000000e+01,2.106066017178e+00
85,0.000000000000e+00,-3.600000000000e-02,0.000000000000e+00
86,0.000000000000e+00,3.600000000000e-02,2.000000000000e+00
87,-1.200000000000e+00,3.000000000000e-02,1.000000000000e+00
88,1.200000000000e+00,-3.000000000000e-02,1.000000000000e+00
89,0.000000000000e+00,9.964000000000e+00,0.000000000000e+00
90,0.000000000000e+00,1.003600000000e+01,2.000000000000e+00
91,-1.200000000000e+00,1.003000000000e+01,1.000000000000e+00
92,1.200000000000e+00,9.970000000000e+00,1.000000000000e+00
93,0.000000000000e+00,1.996400000000e+01,0.000000000000e+00
94,0.000000000000e+00,2.003600000000e+01,2.000000000000e+00
95,-1.200000000000e+00,2.003000000000e+01,1.000000000000e+00
96,1.200000000000e+00,1.997000000000e+01,1.000000000000e+00
97,0.000000000000e+00,2.996400000000e+01,0.000000000000e+00
98,0.000000000000e+00,3.003600000000e+01,2.000000000000e+00
99,-1.200000000000e+00,3.003000000000e+01,1.000000000000e+00
100,1.200000000000e+00,2.997000000000e+01,1.000000000000e+00
101,0.000000000000e+00,4.996400000000e+01,0.000000000000e+00
102,0.000000000000e+00,5.003600000000e+01,2.000000000000e+00
103,-1.200000000000e+00,5.003000000000e+01,1.000000000000e+00
104,1.200000000000e+00,4.997000000000e+01,1.000000000000e+00
105,-1.200000000000e+00,5.030000000000e+00,8.500000000000e-01
106,-1.200000000000e+00,5.030000000000e+00,1.150000000000e+00
107,1.200000000000e+00,5.030000000000e+00,8.500000000000e-01
108,1.200000000000e+00,5.030000000000e+00,1.150000000000e+00
109,1.500000000000e-01,4.964000000000e+00,0.000000000000e+00
110,-1.500000000000e-01,4.964000000000e+00,0.000000000000e+00
111,1.500000000000e-01,4.964000000000e+00,2.000000000000e+00
112,-1.500000000000e-01,4.964000000000e+00,2.000000000000e+00
113,-1.200000000000e+00,1.503000000000e+01,8.500000000000e-01
114,-1.200000000000e+00,1.503000000000e+01,1.150000000000e+00
115,1.200000000000e+00,1.503000000000e+01,8.500000000000e-01
116,1.200000000000e+00,1.503000000000e+01,1.150000000000e+00
117,1.500000000000e-01,1.496400000000e+01,0.000000000000e+00
118,-1.500000000000e-01,1.496400000000e+01,0.000000000000e+00
119,1.500000000000e-01,1.496400000000e+01,2.000000000000e+00
120,-1.500000000000e-01,1.496400000000e+01,2.000000000000e+00
121,-1.200000000000e+00,2.503000000000e+01,8.500000000000e-01
122,-1.200000000000e+00,2.503000000000e+01,1.150000000000e+00
123,1.200000000000e+00,2.503000000000e+01,8.500000000000e-01
124,1.200000000000e+00,2.503000000000e+01,1.150000000000e+00
125,1.500000000000e-01,2.496400000000e+01,0.000000000000e+00
126,-1.500000000000e-01,2.496400000000e+01,0.000000000000e+00
127,1.500000000000e-01,2.496400000000e+01,2.000000000000e+00
128,-1.500000000000e-01,2.496400000000e+01,2.000000000000e+00
129,-1.200000000000e+00,3.503000000000e+01,8.500000000000e-01
130,-1.200000000000e+00,3.503000000000e+01,1.150000000000e+00
131,1.200000000000e+00,3.503000000000e+01,8.500000000000e-01
132,1.200000000000e+00,3.503000000000e+01,1.150000000000e+00
133,1.500000000000e-01,3.496400000000e+01,0.000000000000e+00
134,-1.500000000000e-01,3.496400000000e+01,0.000000000000e+00
135,1.500000000000e-01,3.496400000000e+01,2.000000000000e+00
136,-1.500000000000e-01,3.496400000000e+01,2.000000000000e+00
137,-1.200000000000e+00,4.503000000000e+01,8.500000000000e-01
138,-1.200000000000e+00,4.503000000000e+01,1.150000000000e+00
139,1.200000000000e+00,4.503000000000e+01,8.500000000000e-01
140,1.200000000000e+00,4.503000000000e+01,1.150000000000e+00
141,1.500000000000e-01,4.496400000000e+01,0.000000000000e+00
142,-1.500000000000e-01,4.496400000000e+01,0.000000000000e+00
143,1.500000000000e-01,4.496400000000e+01,2.000000000000e+00
144,-1.500000000000e-01,4.496400000000e+01,2.000000000000e+00
*ELEMENT,TYPE=B31,ELSET=ALL
1,1,25
2,25,5
3,2,26
4,26,6
5,3,27
6,27,7
7,4,28
8,28,8
9,5,29
10,29,9
11,6,30
12,30,10
13,7,31
14,31,11
15,8,32
16,32,12
17,9,33
18,33,34
19,34,35
20,35,13
21,10,36
22,36,37
23,37,38
24,38,14
25,11,39
26,39,40
27,40,41
28,41,15
29,12,42
30,42,43
31,43,44
32,44,16
33,13,45
34,45,46
35,46,47
36,47,48
37,48,49
38,49,50
39,50,51
40,51,17
41,14,52
42,52,53
43,53,54
44,54,55
45,55,56
46,56,57
47,57,58
48,58,18
49,15,59
50,59,60
51,60,61
52,61,62
53,62,63
54,63,64
55,64,65
56,65,19
57,16,66
58,66,67
59,67,68
60,68,69
61,69,70
62,70,71
63,71,72
64,72,20
65,17,73
66,73,74
67,74,75
68,75,21
69,18,76
70,76,77
71,77,78
72,78,22
73,19,79
74,79,80
75,80,81
76,81,23
77,20,82
78,82,83
79,83,84
80,84,24
81,1,85
82,85,2
83,3,86
84,86,4
85,1,87
86,87,3
87,2,88
88,88,4
89,5,89
90,89,6
91,7,90
92,90,8
93,5,91
94,91,7
95,6,92
96,92,8
97,9,93
98,93,10
99,11,94
100,94,12
101,9,95
102,95,11
103,10,96
104,96,12
105,13,97
106,97,14
107,15,98
108,98,16
109,13,99
110,99,15
111,14,100
112,100,16
113,17,18
114,19,20
115,17,19
116,18,20
117,21,101
118,101,22
119,23,102
120,102,24
121,21,103
122,103,23
123,22,104
124,104,24
125,1,105
126,105,7
127,3,106
128,106,5
129,2,107
130,107,8
131,4,108
132,108,6
133,1,109
134,109,6
135,2,110
136,110,5
137,3,111
138,111,8
139,4,112
140,112,7
141,5,113
142,113,11
143,7,114
144,114,9
145,6,115
146,115,12
147,8,116
148,116,10
149,5,117
150,117,10
151,6,118
152,118,9
153,7,119
154,119,12
155,8,120
156,120,11
157,9,121
158,121,15
159,11,122
160,122,13
161,10,123
162,123,16
163,12,124
164,124,14
165,9,125
166,125,14
167,10,126
168,126,13
169,11,127
170,127,16
171,12,128
172,128,15
173,13,129
174,129,19
175,15,130
176,130,17
177,14,131
178,131,20
179,16,132
180,132,18
181,13,133
182,133,18
183,14,134
184,134,17
185,15,135
186,135,20
187,16,136
188,136,19
189,17,137
190,137,23
191,19,138
192,138,21
193,18,139
194,139,24
195,20,140
196,140,22
197,17,141
198,141,22
199,18,142
200,142,21
201,19,143
202,143,24
203,20,144
204,144,23
*NSET,NSET=NALL,GENERATE
1,144,1
*NSET,NSET=LEFT
1,2,3,4
*NSET,NSET=RIGHT
21,22,23,24
*MATERIAL,NAME=STEEL
*ELASTIC
2.100000000000e+11,0.300000000000
*BEAM SECTION,ELSET=ALL,MATERIAL=STEEL,SECTION=RECT
6.000000000000e-02,4.000000000000e-02
0.371390676354,0.557086014531,0.742781352708
*BOUNDARY
LEFT,1,6,0.0
*STEP
*STATIC
*BOUNDARY
21,1,1,5.000000000000e-03
21,2,2,0.0
21,3,3,-6.000000000000e-03
*BOUNDARY
22,1,1,5.000000000000e-03
22,2,2,0.0
22,3,3,6.000000000000e-03
*BOUNDARY
23,1,1,-5.000000000000e-03
23,2,2,0.0
23,3,3,-6.000000000000e-03
*BOUNDARY
24,1,1,-5.000000000000e-03
24,2,2,0.0
24,3,3,6.000000000000e-03
*NODE FILE,NSET=NALL
U
*NODE PRINT,NSET=NALL
U
*NODE PRINT,NSET=RIGHT
RF
*EL PRINT,ELSET=ALL,TOTALS=YES
ELSE
*END STEP
