*HEADING
Normalized cross-passage space-truss torsion benchmark
*NODE
1,-1.200000000000e+00,0.000000000000e+00,0.000000000000e+00
2,1.200000000000e+00,0.000000000000e+00,0.000000000000e+00
3,-1.200000000000e+00,0.000000000000e+00,2.000000000000e+00
4,1.200000000000e+00,0.000000000000e+00,2.000000000000e+00
5,-1.200000000000e+00,1.000000000000e+01,0.000000000000e+00
6,1.200000000000e+00,1.000000000000e+01,0.000000000000e+00
7,-1.200000000000e+00,1.000000000000e+01,2.000000000000e+00
8,1.200000000000e+00,1.000000000000e+01,2.000000000000e+00
9,-1.200000000000e+00,2.000000000000e+01,0.000000000000e+00
10,1.200000000000e+00,2.000000000000e+01,0.000000000000e+00
11,-1.200000000000e+00,2.000000000000e+01,2.000000000000e+00
12,1.200000000000e+00,2.000000000000e+01,2.000000000000e+00
13,-1.200000000000e+00,3.000000000000e+01,0.000000000000e+00
14,1.200000000000e+00,3.000000000000e+01,0.000000000000e+00
15,-1.200000000000e+00,3.000000000000e+01,2.000000000000e+00
16,1.200000000000e+00,3.000000000000e+01,2.000000000000e+00
17,-1.200000000000e+00,4.000000000000e+01,0.000000000000e+00
18,1.200000000000e+00,4.000000000000e+01,0.000000000000e+00
19,-1.200000000000e+00,4.000000000000e+01,2.000000000000e+00
20,1.200000000000e+00,4.000000000000e+01,2.000000000000e+00
21,-1.200000000000e+00,5.000000000000e+01,0.000000000000e+00
22,1.200000000000e+00,5.000000000000e+01,0.000000000000e+00
23,-1.200000000000e+00,5.000000000000e+01,2.000000000000e+00
24,1.200000000000e+00,5.000000000000e+01,2.000000000000e+00
25,-1.200000000000e+00,5.000000000000e+00,-1.500000000000e-01
26,1.200000000000e+00,5.000000000000e+00,1.500000000000e-01
27,-1.200000000000e+00,5.000000000000e+00,1.850000000000e+00
28,1.200000000000e+00,5.000000000000e+00,2.150000000000e+00
29,-1.200000000000e+00,1.500000000000e+01,-1.500000000000e-01
30,1.200000000000e+00,1.500000000000e+01,1.500000000000e-01
31,-1.200000000000e+00,1.500000000000e+01,1.850000000000e+00
32,1.200000000000e+00,1.500000000000e+01,2.150000000000e+00
33,-1.200000000000e+00,2.250000000000e+01,-1.060660171780e-01
34,-1.200000000000e+00,2.500000000000e+01,-1.500000000000e-01
35,-1.200000000000e+00,2.750000000000e+01,-1.060660171780e-01
36,1.200000000000e+00,2.250000000000e+01,1.060660171780e-01
37,1.200000000000e+00,2.500000000000e+01,1.500000000000e-01
38,1.200000000000e+00,2.750000000000e+01,1.060660171780e-01
39,-1.200000000000e+00,2.250000000000e+01,1.893933982822e+00
40,-1.200000000000e+00,2.500000000000e+01,1.850000000000e+00
41,-1.200000000000e+00,2.750000000000e+01,1.893933982822e+00
42,1.200000000000e+00,2.250000000000e+01,2.106066017178e+00
43,1.200000000000e+00,2.500000000000e+01,2.150000000000e+00
44,1.200000000000e+00,2.750000000000e+01,2.106066017178e+00
45,-1.200000000000e+00,3.125000000000e+01,-5.740251485476e-02
46,-1.200000000000e+00,3.250000000000e+01,-1.060660171780e-01
47,-1.200000000000e+00,3.375000000000e+01,-1.385819298767e-01
48,-1.200000000000e+00,3.500000000000e+01,-1.500000000000e-01
49,-1.200000000000e+00,3.625000000000e+01,-1.385819298767e-01
50,-1.200000000000e+00,3.750000000000e+01,-1.060660171780e-01
51,-1.200000000000e+00,3.875000000000e+01,-5.740251485476e-02
52,1.200000000000e+00,3.125000000000e+01,5.740251485476e-02
53,1.200000000000e+00,3.250000000000e+01,1.060660171780e-01
54,1.200000000000e+00,3.375000000000e+01,1.385819298767e-01
55,1.200000000000e+00,3.500000000000e+01,1.500000000000e-01
56,1.200000000000e+00,3.625000000000e+01,1.385819298767e-01
57,1.200000000000e+00,3.750000000000e+01,1.060660171780e-01
58,1.200000000000e+00,3.875000000000e+01,5.740251485476e-02
59,-1.200000000000e+00,3.125000000000e+01,1.942597485145e+00
60,-1.200000000000e+00,3.250000000000e+01,1.893933982822e+00
61,-1.200000000000e+00,3.375000000000e+01,1.861418070123e+00
62,-1.200000000000e+00,3.500000000000e+01,1.850000000000e+00
63,-1.200000000000e+00,3.625000000000e+01,1.861418070123e+00
64,-1.200000000000e+00,3.750000000000e+01,1.893933982822e+00
65,-1.200000000000e+00,3.875000000000e+01,1.942597485145e+00
66,1.200000000000e+00,3.125000000000e+01,2.057402514855e+00
67,1.200000000000e+00,3.250000000000e+01,2.106066017178e+00
68,1.200000000000e+00,3.375000000000e+01,2.138581929877e+00
69,1.200000000000e+00,3.500000000000e+01,2.150000000000e+00
70,1.200000000000e+00,3.625000000000e+01,2.138581929877e+00
71,1.200000000000e+00,3.750000000000e+01,2.106066017178e+00
72,1.200000000000e+00,3.875000000000e+01,2.057402514855e+00
73,0.000000000000e+00,-3.600000000000e-02,0.000000000000e+00
74,0.000000000000e+00,3.600000000000e-02,2.000000000000e+00
75,-1.200000000000e+00,3.000000000000e-02,1.000000000000e+00
76,1.200000000000e+00,-3.000000000000e-02,1.000000000000e+00
77,0.000000000000e+00,9.964000000000e+00,0.000000000000e+00
78,0.000000000000e+00,1.003600000000e+01,2.000000000000e+00
79,-1.200000000000e+00,1.003000000000e+01,1.000000000000e+00
80,1.200000000000e+00,9.970000000000e+00,1.000000000000e+00
81,0.000000000000e+00,1.996400000000e+01,0.000000000000e+00
82,0.000000000000e+00,2.003600000000e+01,2.000000000000e+00
83,-1.200000000000e+00,2.003000000000e+01,1.000000000000e+00
84,1.200000000000e+00,1.997000000000e+01,1.000000000000e+00
85,0.000000000000e+00,2.996400000000e+01,0.000000000000e+00
86,0.000000000000e+00,3.003600000000e+01,2.000000000000e+00
87,-1.200000000000e+00,3.003000000000e+01,1.000000000000e+00
88,1.200000000000e+00,2.997000000000e+01,1.000000000000e+00
89,0.000000000000e+00,4.996400000000e+01,0.000000000000e+00
90,0.000000000000e+00,5.003600000000e+01,2.000000000000e+00
91,-1.200000000000e+00,5.003000000000e+01,1.000000000000e+00
92,1.200000000000e+00,4.997000000000e+01,1.000000000000e+00
93,-1.200000000000e+00,5.030000000000e+00,8.500000000000e-01
94,-1.200000000000e+00,5.030000000000e+00,1.150000000000e+00
95,1.200000000000e+00,5.030000000000e+00,8.500000000000e-01
96,1.200000000000e+00,5.030000000000e+00,1.150000000000e+00
97,1.500000000000e-01,4.964000000000e+00,0.000000000000e+00
98,-1.500000000000e-01,4.964000000000e+00,0.000000000000e+00
99,1.500000000000e-01,4.964000000000e+00,2.000000000000e+00
100,-1.500000000000e-01,4.964000000000e+00,2.000000000000e+00
101,-1.200000000000e+00,1.503000000000e+01,8.500000000000e-01
102,-1.200000000000e+00,1.503000000000e+01,1.150000000000e+00
103,1.200000000000e+00,1.503000000000e+01,8.500000000000e-01
104,1.200000000000e+00,1.503000000000e+01,1.150000000000e+00
105,1.500000000000e-01,1.496400000000e+01,0.000000000000e+00
106,-1.500000000000e-01,1.496400000000e+01,0.000000000000e+00
107,1.500000000000e-01,1.496400000000e+01,2.000000000000e+00
108,-1.500000000000e-01,1.496400000000e+01,2.000000000000e+00
109,-1.200000000000e+00,2.503000000000e+01,8.500000000000e-01
110,-1.200000000000e+00,2.503000000000e+01,1.150000000000e+00
111,1.200000000000e+00,2.503000000000e+01,8.500000000000e-01
112,1.200000000000e+00,2.503000000000e+01,1.150000000000e+00
113,1.500000000000e-01,2.496400000000e+01,0.000000000000e+00
114,-1.500000000000e-01,2.496400000000e+01,0.000000000000e+00
115,1.500000000000e-01,2.496400000000e+01,2.000000000000e+00
116,-1.500000000000e-01,2.496400000000e+01,2.000000000000e+00
117,-1.200000000000e+00,3.503000000000e+01,8.500000000000e-01
118,-1.200000000000e+00,3.503000000000e+01,1.150000000000e+00
119,1.200000000000e+00,3.503000000000e+01,8.500000000000e-01
120,1.200000000000e+00,3.503000000000e+01,1.150000000000e+00
121,1.500000000000e-01,3.496400000000e+01,0.000000000000e+00
122,-1.500000000000e-01,3.496400000000e+01,0.000000000000e+00
123,1.500000000000e-01,3.496400000000e+01,2.000000000000e+00
124,-1.500000000000e-01,3.496400000000e+01,2.000000000000e+00
125,-1.200000000000e+00,4.503000000000e+01,8.500000000000e-01
126,-1.200000000000e+00,4.503000000000e+01,1.150000000000e+00
127,1.200000000000e+00,4.503000000000e+01,8.500000000000e-01
128,1.200000000000e+00,4.503000000000e+01,1.150000000000e+00
129,1.500000000000e-01,4.496400000000e+01,0.000000000000e+00
130,-1.500000000000e-01,4.496400000000e+01,0.000000000000e+00
131,1.500000000000e-01,4.496400000000e+01,2.000000000000e+00
132,-1.500000000000e-01,4.496400000000e+01,2.000000000000e+00
*ELEMENT,TYPE=B31,ELSET=ALL
1,1,25
2,25,5
3,2,26
4,26,6
5,3,27
6,27,7
7,4,28
8,28,8
9,5,29
10,29,9
11,6,30
12,30,10
13,7,31
14,31,11
15,8,32
16,32,12
17,9,33
18,33,34
19,34,35
20,35,13
21,10,36
22,36,37
23,37,38
24,38,14
25,11,39
26,39,40
27,40,41
28,41,15
29,12,42
30,42,43
31,43,44
32,44,16
33,13,45
34,45,46
35,46,47
36,47,48
37,48,49
38,49,50
39,50,51
40,51,17
41,14,52
42,52,53
43,53,54
44,54,55
45,55,56
46,56,57
47,57,58
48,58,18
49,15,59
50,59,60
51,60,61
52,61,62
53,62,63
54,63,64
55,64,65
56,65,19
57,16,66
58,66,67
59,67,68
60,68,69
61,69,70
62,70,71
63,71,72
64,72,20
65,17,21
66,18,22
67,19,23
68,20,24
69,1,73
70,73,2
71,3,74
72,74,4
73,1,75
74,75,3
75,2,76
76,76,4
77,5,77
78,77,6
79,7,78
80,78,8
81,5,79
82,79,7
83,6,80
84,80,8
85,9,81
86,81,10
87,11,82
88,82,12
89,9,83
90,83,11
91,10,84
92,84,12
93,13,85
94,85,14
95,15,86
96,86,16
97,13,87
98,87,15
99,14,88
100,88,16
101,17,18
102,19,20
103,17,19
104,18,20
105,21,89
106,89,22
107,23,90
108,90,24
109,21,91
110,91,23
111,22,92
112,92,24
113,1,93
114,93,7
115,3,94
116,94,5
117,2,95
118,95,8
119,4,96
120,96,6
121,1,97
122,97,6
123,2,98
124,98,5
125,3,99
126,99,8
127,4,100
128,100,7
129,5,101
130,101,11
131,7,102
132,102,9
133,6,103
134,103,12
135,8,104
136,104,10
137,5,105
138,105,10
139,6,106
140,106,9
141,7,107
142,107,12
143,8,108
144,108,11
145,9,109
146,109,15
147,11,110
148,110,13
149,10,111
150,111,16
151,12,112
152,112,14
153,9,113
154,113,14
155,10,114
156,114,13
157,11,115
158,115,16
159,12,116
160,116,15
161,13,117
162,117,19
163,15,118
164,118,17
165,14,119
166,119,20
167,16,120
168,120,18
169,13,121
170,121,18
171,14,122
172,122,17
173,15,123
174,123,20
175,16,124
176,124,19
177,17,125
178,125,23
179,19,126
180,126,21
181,18,127
182,127,24
183,20,128
184,128,22
185,17,129
186,129,22
187,18,130
188,130,21
189,19,131
190,131,24
191,20,132
192,132,23
*NSET,NSET=NALL,GENERATE
1,132,1
*NSET,NSET=LEFT
1,2,3,4
*NSET,NSET=RIGHT
21,22,23,24
*MATERIAL,NAME=STEEL
*ELASTIC
2.100000000000e+11,0.300000000000
*BEAM SECTION,ELSET=ALL,MATERIAL=STEEL,SECTION=RECT
6.000000000000e-02,4.000000000000e-02
0.371390676354,0.557086014531,0.742781352708
*BOUNDARY
LEFT,1,6,0.0
*STEP
*STATIC
*BOUNDARY
21,1,1,5.000000000000e-03
21,2,2,0.0
21,3,3,-6.000000000000e-03
*BOUNDARY
22,1,1,5.000000000000e-03
22,2,2,0.0
22,3,3,6.000000000000e-03
*BOUNDARY
23,1,1,-5.000000000000e-03
23,2,2,0.0
23,3,3,-6.000000000000e-03
*BOUNDARY
24,1,1,-5.000000000000e-03
24,2,2,0.0
24,3,3,6.000000000000e-03
*NODE FILE,NSET=NALL
U
*NODE PRINT,NSET=NALL
U
*NODE PRINT,NSET=RIGHT
RF
*EL PRINT,ELSET=ALL,TOTALS=YES
ELSE
*END STEP
