*HEADING
Normalized cross-passage space-truss torsion benchmark
*NODE
1,-1.200000000000e+00,0.000000000000e+00,0.000000000000e+00
2,1.200000000000e+00,0.000000000000e+00,0.000000000000e+00
3,-1.200000000000e+00,0.000000000000e+00,2.000000000000e+00
4,1.200000000000e+00,0.000000000000e+00,2.000000000000e+00
5,-1.200000000000e+00,1.000000000000e+01,0.000000000000e+00
6,1.200000000000e+00,1.000000000000e+01,0.000000000000e+00
7,-1.200000000000e+00,1.000000000000e+01,2.000000000000e+00
8,1.200000000000e+00,1.000000000000e+01,2.000000000000e+00
9,-1.200000000000e+00,2.000000000000e+01,0.000000000000e+00
10,1.200000000000e+00,2.000000000000e+01,0.000000000000e+00
11,-1.200000000000e+00,2.000000000000e+01,2.000000000000e+00
12,1.200000000000e+00,2.000000000000e+01,2.000000000000e+00
13,-1.200000000000e+00,3.000000000000e+01,0.000000000000e+00
14,1.200000000000e+00,3.000000000000e+01,0.000000000000e+00
15,-1.200000000000e+00,3.000000000000e+01,2.000000000000e+00
16,1.200000000000e+00,3.000000000000e+01,2.000000000000e+00
17,-1.200000000000e+00,4.000000000000e+01,0.000000000000e+00
18,1.200000000000e+00,4.000000000000e+01,0.000000000000e+00
19,-1.200000000000e+00,4.000000000000e+01,2.000000000000e+00
20,1.200000000000e+00,4.000000000000e+01,2.000000000000e+00
21,-1.200000000000e+00,5.000000000000e+01,0.000000000000e+00
22,1.200000000000e+00,5.000000000000e+01,0.000000000000e+00
23,-1.200000000000e+00,5.000000000000e+01,2.000000000000e+00
24,1.200000000000e+00,5.000000000000e+01,2.000000000000e+00
25,-1.200000000000e+00,1.250000000000e+00,-5.740251485476e-02
26,-1.200000000000e+00,2.500000000000e+00,-1.060660171780e-01
27,-1.200000000000e+00,3.750000000000e+00,-1.385819298767e-01
28,-1.200000000000e+00,5.000000000000e+00,-1.500000000000e-01
29,-1.200000000000e+00,6.250000000000e+00,-1.385819298767e-01
30,-1.200000000000e+00,7.500000000000e+00,-1.060660171780e-01
31,-1.200000000000e+00,8.750000000000e+00,-5.740251485476e-02
32,1.200000000000e+00,1.250000000000e+00,5.740251485476e-02
33,1.200000000000e+00,2.500000000000e+00,1.060660171780e-01
34,1.200000000000e+00,3.750000000000e+00,1.385819298767e-01
35,1.200000000000e+00,5.000000000000e+00,1.500000000000e-01
36,1.200000000000e+00,6.250000000000e+00,1.385819298767e-01
37,1.200000000000e+00,7.500000000000e+00,1.060660171780e-01
38,1.200000000000e+00,8.750000000000e+00,5.740251485476e-02
39,-1.200000000000e+00,1.250000000000e+00,1.942597485145e+00
40,-1.200000000000e+00,2.500000000000e+00,1.893933982822e+00
41,-1.200000000000e+00,3.750000000000e+00,1.861418070123e+00
42,-1.200000000000e+00,5.000000000000e+00,1.850000000000e+00
43,-1.200000000000e+00,6.250000000000e+00,1.861418070123e+00
44,-1.200000000000e+00,7.500000000000e+00,1.893933982822e+00
45,-1.200000000000e+00,8.750000000000e+00,1.942597485145e+00
46,1.200000000000e+00,1.250000000000e+00,2.057402514855e+00
47,1.200000000000e+00,2.500000000000e+00,2.106066017178e+00
48,1.200000000000e+00,3.750000000000e+00,2.138581929877e+00
49,1.200000000000e+00,5.000000000000e+00,2.150000000000e+00
50,1.200000000000e+00,6.250000000000e+00,2.138581929877e+00
51,1.200000000000e+00,7.500000000000e+00,2.106066017178e+00
52,1.200000000000e+00,8.750000000000e+00,2.057402514855e+00
53,-1.200000000000e+00,1.500000000000e+01,-1.500000000000e-01
54,1.200000000000e+00,1.500000000000e+01,1.500000000000e-01
55,-1.200000000000e+00,1.500000000000e+01,1.850000000000e+00
56,1.200000000000e+00,1.500000000000e+01,2.150000000000e+00
57,-1.200000000000e+00,3.500000000000e+01,-1.500000000000e-01
58,1.200000000000e+00,3.500000000000e+01,1.500000000000e-01
59,-1.200000000000e+00,3.500000000000e+01,1.850000000000e+00
60,1.200000000000e+00,3.500000000000e+01,2.150000000000e+00
61,-1.200000000000e+00,4.250000000000e+01,-1.060660171780e-01
62,-1.200000000000e+00,4.500000000000e+01,-1.500000000000e-01
63,-1.200000000000e+00,4.750000000000e+01,-1.060660171780e-01
64,1.200000000000e+00,4.250000000000e+01,1.060660171780e-01
65,1.200000000000e+00,4.500000000000e+01,1.500000000000e-01
66,1.200000000000e+00,4.750000000000e+01,1.060660171780e-01
67,-1.200000000000e+00,4.250000000000e+01,1.893933982822e+00
68,-1.200000000000e+00,4.500000000000e+01,1.850000000000e+00
69,-1.200000000000e+00,4.750000000000e+01,1.893933982822e+00
70,1.200000000000e+00,4.250000000000e+01,2.106066017178e+00
71,1.200000000000e+00,4.500000000000e+01,2.150000000000e+00
72,1.200000000000e+00,4.750000000000e+01,2.106066017178e+00
73,-6.000000000000e-01,-2.545584412272e-02,0.000000000000e+00
74,0.000000000000e+00,-3.600000000000e-02,0.000000000000e+00
75,6.000000000000e-01,-2.545584412272e-02,0.000000000000e+00
76,-6.000000000000e-01,2.545584412272e-02,2.000000000000e+00
77,0.000000000000e+00,3.600000000000e-02,2.000000000000e+00
78,6.000000000000e-01,2.545584412272e-02,2.000000000000e+00
79,-1.200000000000e+00,2.121320343560e-02,5.000000000000e-01
80,-1.200000000000e+00,3.000000000000e-02,1.000000000000e+00
81,-1.200000000000e+00,2.121320343560e-02,1.500000000000e+00
82,1.200000000000e+00,-2.121320343560e-02,5.000000000000e-01
83,1.200000000000e+00,-3.000000000000e-02,1.000000000000e+00
84,1.200000000000e+00,-2.121320343560e-02,1.500000000000e+00
85,0.000000000000e+00,1.996400000000e+01,0.000000000000e+00
86,0.000000000000e+00,2.003600000000e+01,2.000000000000e+00
87,-1.200000000000e+00,2.003000000000e+01,1.000000000000e+00
88,1.200000000000e+00,1.997000000000e+01,1.000000000000e+00
89,0.000000000000e+00,2.996400000000e+01,0.000000000000e+00
90,0.000000000000e+00,3.003600000000e+01,2.000000000000e+00
91,-1.200000000000e+00,3.003000000000e+01,1.000000000000e+00
92,1.200000000000e+00,2.997000000000e+01,1.000000000000e+00
93,0.000000000000e+00,3.996400000000e+01,0.000000000000e+00
94,0.000000000000e+00,4.003600000000e+01,2.000000000000e+00
95,-1.200000000000e+00,4.003000000000e+01,1.000000000000e+00
96,1.200000000000e+00,3.997000000000e+01,1.000000000000e+00
97,-6.000000000000e-01,4.997454415588e+01,0.000000000000e+00
98,0.000000000000e+00,4.996400000000e+01,0.000000000000e+00
99,6.000000000000e-01,4.997454415588e+01,0.000000000000e+00
100,-6.000000000000e-01,5.002545584412e+01,2.000000000000e+00
101,0.000000000000e+00,5.003600000000e+01,2.000000000000e+00
102,6.000000000000e-01,5.002545584412e+01,2.000000000000e+00
103,-1.200000000000e+00,5.002121320344e+01,5.000000000000e-01
104,-1.200000000000e+00,5.003000000000e+01,1.000000000000e+00
105,-1.200000000000e+00,5.002121320344e+01,1.500000000000e+00
106,1.200000000000e+00,4.997878679656e+01,5.000000000000e-01
107,1.200000000000e+00,4.997000000000e+01,1.000000000000e+00
108,1.200000000000e+00,4.997878679656e+01,1.500000000000e+00
109,-1.200000000000e+00,1.261480502971e+00,1.925974851452e-01
110,-1.200000000000e+00,2.521213203436e+00,3.939339828220e-01
111,-1.200000000000e+00,3.777716385975e+00,6.114180701233e-01
112,-1.200000000000e+00,5.030000000000e+00,8.500000000000e-01
113,-1.200000000000e+00,6.277716385975e+00,1.111418070123e+00
114,-1.200000000000e+00,7.521213203436e+00,1.393933982822e+00
115,-1.200000000000e+00,8.761480502971e+00,1.692597485145e+00
116,-1.200000000000e+00,1.261480502971e+00,1.807402514855e+00
117,-1.200000000000e+00,2.521213203436e+00,1.606066017178e+00
118,-1.200000000000e+00,3.777716385975e+00,1.388581929877e+00
119,-1.200000000000e+00,5.030000000000e+00,1.150000000000e+00
120,-1.200000000000e+00,6.277716385975e+00,8.885819298767e-01
121,-1.200000000000e+00,7.521213203436e+00,6.060660171780e-01
122,-1.200000000000e+00,8.761480502971e+00,3.074025148548e-01
123,1.200000000000e+00,1.261480502971e+00,1.925974851452e-01
124,1.200000000000e+00,2.521213203436e+00,3.939339828220e-01
125,1.200000000000e+00,3.777716385975e+00,6.114180701233e-01
126,1.200000000000e+00,5.030000000000e+00,8.500000000000e-01
127,1.200000000000e+00,6.277716385975e+00,1.111418070123e+00
128,1.200000000000e+00,7.521213203436e+00,1.393933982822e+00
129,1.200000000000e+00,8.761480502971e+00,1.692597485145e+00
130,1.200000000000e+00,1.261480502971e+00,1.807402514855e+00
131,1.200000000000e+00,2.521213203436e+00,1.606066017178e+00
132,1.200000000000e+00,3.777716385975e+00,1.388581929877e+00
133,1.200000000000e+00,5.030000000000e+00,1.150000000000e+00
134,1.200000000000e+00,6.277716385975e+00,8.885819298767e-01
135,1.200000000000e+00,7.521213203436e+00,6.060660171780e-01
136,1.200000000000e+00,8.761480502971e+00,3.074025148548e-01
137,-8.425974851452e-01,1.236223396435e+00,0.000000000000e+00
138,-4.939339828220e-01,2.474544155877e+00,0.000000000000e+00
139,-1.614180701233e-01,3.716740336830e+00,0.000000000000e+00
140,1.500000000000e-01,4.964000000000e+00,0.000000000000e+00
141,4.385819298767e-01,6.216740336830e+00,0.000000000000e+00
142,7.060660171780e-01,7.474544155877e+00,0.000000000000e+00
143,9.574025148548e-01,8.736223396435e+00,0.000000000000e+00
144,8.425974851452e-01,1.236223396435e+00,0.000000000000e+00
145,4.939339828220e-01,2.474544155877e+00,0.000000000000e+00
146,1.614180701233e-01,3.716740336830e+00,0.000000000000e+00
147,-1.500000000000e-01,4.964000000000e+00,0.000000000000e+00
148,-4.385819298767e-01,6.216740336830e+00,0.000000000000e+00
149,-7.060660171780e-01,7.474544155877e+00,0.000000000000e+00
150,-9.574025148548e-01,8.736223396435e+00,0.000000000000e+00
151,-8.425974851452e-01,1.236223396435e+00,2.000000000000e+00
152,-4.939339828220e-01,2.474544155877e+00,2.000000000000e+00
153,-1.614180701233e-01,3.716740336830e+00,2.000000000000e+00
154,1.500000000000e-01,4.964000000000e+00,2.000000000000e+00
155,4.385819298767e-01,6.216740336830e+00,2.000000000000e+00
156,7.060660171780e-01,7.474544155877e+00,2.000000000000e+00
157,9.574025148548e-01,8.736223396435e+00,2.000000000000e+00
158,8.425974851452e-01,1.236223396435e+00,2.000000000000e+00
159,4.939339828220e-01,2.474544155877e+00,2.000000000000e+00
160,1.614180701233e-01,3.716740336830e+00,2.000000000000e+00
161,-1.500000000000e-01,4.964000000000e+00,2.000000000000e+00
162,-4.385819298767e-01,6.216740336830e+00,2.000000000000e+00
163,-7.060660171780e-01,7.474544155877e+00,2.000000000000e+00
164,-9.574025148548e-01,8.736223396435e+00,2.000000000000e+00
165,-1.200000000000e+00,1.252121320344e+01,3.939339828220e-01
166,-1.200000000000e+00,1.503000000000e+01,8.500000000000e-01
167,-1.200000000000e+00,1.752121320344e+01,1.393933982822e+00
168,-1.200000000000e+00,1.252121320344e+01,1.606066017178e+00
169,-1.200000000000e+00,1.503000000000e+01,1.150000000000e+00
170,-1.200000000000e+00,1.752121320344e+01,6.060660171780e-01
171,1.200000000000e+00,1.252121320344e+01,3.939339828220e-01
172,1.200000000000e+00,1.503000000000e+01,8.500000000000e-01
173,1.200000000000e+00,1.752121320344e+01,1.393933982822e+00
174,1.200000000000e+00,1.252121320344e+01,1.606066017178e+00
175,1.200000000000e+00,1.503000000000e+01,1.150000000000e+00
176,1.200000000000e+00,1.752121320344e+01,6.060660171780e-01
177,-4.939339828220e-01,1.247454415588e+01,0.000000000000e+00
178,1.500000000000e-01,1.496400000000e+01,0.000000000000e+00
179,7.060660171780e-01,1.747454415588e+01,0.000000000000e+00
180,4.939339828220e-01,1.247454415588e+01,0.000000000000e+00
181,-1.500000000000e-01,1.496400000000e+01,0.000000000000e+00
182,-7.060660171780e-01,1.747454415588e+01,0.000000000000e+00
183,-4.939339828220e-01,1.247454415588e+01,2.000000000000e+00
184,1.500000000000e-01,1.496400000000e+01,2.000000000000e+00
185,7.060660171780e-01,1.747454415588e+01,2.000000000000e+00
186,4.939339828220e-01,1.247454415588e+01,2.000000000000e+00
187,-1.500000000000e-01,1.496400000000e+01,2.000000000000e+00
188,-7.060660171780e-01,1.747454415588e+01,2.000000000000e+00
189,-1.200000000000e+00,2.503000000000e+01,8.500000000000e-01
190,-1.200000000000e+00,2.503000000000e+01,1.150000000000e+00
191,1.200000000000e+00,2.503000000000e+01,8.500000000000e-01
192,1.200000000000e+00,2.503000000000e+01,1.150000000000e+00
193,1.500000000000e-01,2.496400000000e+01,0.000000000000e+00
194,-1.500000000000e-01,2.496400000000e+01,0.000000000000e+00
195,1.500000000000e-01,2.496400000000e+01,2.000000000000e+00
196,-1.500000000000e-01,2.496400000000e+01,2.000000000000e+00
197,-1.200000000000e+00,3.252121320344e+01,3.939339828220e-01
198,-1.200000000000e+00,3.503000000000e+01,8.500000000000e-01
199,-1.200000000000e+00,3.752121320344e+01,1.393933982822e+00
200,-1.200000000000e+00,3.252121320344e+01,1.606066017178e+00
201,-1.200000000000e+00,3.503000000000e+01,1.150000000000e+00
202,-1.200000000000e+00,3.752121320344e+01,6.060660171780e-01
203,1.200000000000e+00,3.252121320344e+01,3.939339828220e-01
204,1.200000000000e+00,3.503000000000e+01,8.500000000000e-01
205,1.200000000000e+00,3.752121320344e+01,1.393933982822e+00
206,1.200000000000e+00,3.252121320344e+01,1.606066017178e+00
207,1.200000000000e+00,3.503000000000e+01,1.150000000000e+00
208,1.200000000000e+00,3.752121320344e+01,6.060660171780e-01
209,-4.939339828220e-01,3.247454415588e+01,0.000000000000e+00
210,1.500000000000e-01,3.496400000000e+01,0.000000000000e+00
211,7.060660171780e-01,3.747454415588e+01,0.000000000000e+00
212,4.939339828220e-01,3.247454415588e+01,0.000000000000e+00
213,-1.500000000000e-01,3.496400000000e+01,0.000000000000e+00
214,-7.060660171780e-01,3.747454415588e+01,0.000000000000e+00
215,-4.939339828220e-01,3.247454415588e+01,2.000000000000e+00
216,1.500000000000e-01,3.496400000000e+01,2.000000000000e+00
217,7.060660171780e-01,3.747454415588e+01,2.000000000000e+00
218,4.939339828220e-01,3.247454415588e+01,2.000000000000e+00
219,-1.500000000000e-01,3.496400000000e+01,2.000000000000e+00
220,-7.060660171780e-01,3.747454415588e+01,2.000000000000e+00
221,-1.200000000000e+00,4.503000000000e+01,8.500000000000e-01
222,-1.200000000000e+00,4.503000000000e+01,1.150000000000e+00
223,1.200000000000e+00,4.503000000000e+01,8.500000000000e-01
224,1.200000000000e+00,4.503000000000e+01,1.150000000000e+00
225,1.500000000000e-01,4.496400000000e+01,0.000000000000e+00
226,-1.500000000000e-01,4.496400000000e+01,0.000000000000e+00
227,1.500000000000e-01,4.496400000000e+01,2.000000000000e+00
228,-1.500000000000e-01,4.496400000000e+01,2.000000000000e+00
*ELEMENT,TYPE=B31,ELSET=ALL
1,1,25
2,25,26
3,26,27
4,27,28
5,28,29
6,29,30
7,30,31
8,31,5
9,2,32
10,32,33
11,33,34
12,34,35
13,35,36
14,36,37
15,37,38
16,38,6
17,3,39
18,39,40
19,40,41
20,41,42
21,42,43
22,43,44
23,44,45
24,45,7
25,4,46
26,46,47
27,47,48
28,48,49
29,49,50
30,50,51
31,51,52
32,52,8
33,5,53
34,53,9
35,6,54
36,54,10
37,7,55
38,55,11
39,8,56
40,56,12
41,9,13
42,10,14
43,11,15
44,12,16
45,13,57
46,57,17
47,14,58
48,58,18
49,15,59
50,59,19
51,16,60
52,60,20
53,17,61
54,61,62
55,62,63
56,63,21
57,18,64
58,64,65
59,65,66
60,66,22
61,19,67
62,67,68
63,68,69
64,69,23
65,20,70
66,70,71
67,71,72
68,72,24
69,1,73
70,73,74
71,74,75
72,75,2
73,3,76
74,76,77
75,77,78
76,78,4
77,1,79
78,79,80
79,80,81
80,81,3
81,2,82
82,82,83
83,83,84
84,84,4
85,5,6
86,7,8
87,5,7
88,6,8
89,9,85
90,85,10
91,11,86
92,86,12
93,9,87
94,87,11
95,10,88
96,88,12
97,13,89
98,89,14
99,15,90
100,90,16
101,13,91
102,91,15
103,14,92
104,92,16
105,17,93
106,93,18
107,19,94
108,94,20
109,17,95
110,95,19
111,18,96
112,96,20
113,21,97
114,97,98
115,98,99
116,99,22
117,23,100
118,100,101
119,101,102
120,102,24
121,21,103
122,103,104
123,104,105
124,105,23
125,22,106
126,106,107
127,107,108
128,108,24
129,1,109
130,109,110
131,110,111
132,111,112
133,112,113
134,113,114
135,114,115
136,115,7
137,3,116
138,116,117
139,117,118
140,118,119
141,119,120
142,120,121
143,121,122
144,122,5
145,2,123
146,123,124
147,124,125
148,125,126
149,126,127
150,127,128
151,128,129
152,129,8
153,4,130
154,130,131
155,131,132
156,132,133
157,133,134
158,134,135
159,135,136
160,136,6
161,1,137
162,137,138
163,138,139
164,139,140
165,140,141
166,141,142
167,142,143
168,143,6
169,2,144
170,144,145
171,145,146
172,146,147
173,147,148
174,148,149
175,149,150
176,150,5
177,3,151
178,151,152
179,152,153
180,153,154
181,154,155
182,155,156
183,156,157
184,157,8
185,4,158
186,158,159
187,159,160
188,160,161
189,161,162
190,162,163
191,163,164
192,164,7
193,5,165
194,165,166
195,166,167
196,167,11
197,7,168
198,168,169
199,169,170
200,170,9
201,6,171
202,171,172
203,172,173
204,173,12
205,8,174
206,174,175
207,175,176
208,176,10
209,5,177
210,177,178
211,178,179
212,179,10
213,6,180
214,180,181
215,181,182
216,182,9
217,7,183
218,183,184
219,184,185
220,185,12
221,8,186
222,186,187
223,187,188
224,188,11
225,9,189
226,189,15
227,11,190
228,190,13
229,10,191
230,191,16
231,12,192
232,192,14
233,9,193
234,193,14
235,10,194
236,194,13
237,11,195
238,195,16
239,12,196
240,196,15
241,13,197
242,197,198
243,198,199
244,199,19
245,15,200
246,200,201
247,201,202
248,202,17
249,14,203
250,203,204
251,204,205
252,205,20
253,16,206
254,206,207
255,207,208
256,208,18
257,13,209
258,209,210
259,210,211
260,211,18
261,14,212
262,212,213
263,213,214
264,214,17
265,15,215
266,215,216
267,216,217
268,217,20
269,16,218
270,218,219
271,219,220
272,220,19
273,17,221
274,221,23
275,19,222
276,222,21
277,18,223
278,223,24
279,20,224
280,224,22
281,17,225
282,225,22
283,18,226
284,226,21
285,19,227
286,227,24
287,20,228
288,228,23
*NSET,NSET=NALL,GENERATE
1,228,1
*NSET,NSET=LEFT
1,2,3,4
*NSET,NSET=RIGHT
21,22,23,24
*MATERIAL,NAME=STEEL
*ELASTIC
2.100000000000e+11,0.300000000000
*BEAM SECTION,ELSET=ALL,MATERIAL=STEEL,SECTION=RECT
6.000000000000e-02,4.000000000000e-02
0.371390676354,0.557086014531,0.742781352708
*BOUNDARY
LEFT,1,6,0.0
*STEP
*STATIC
*BOUNDARY
21,1,1,5.000000000000e-03
21,2,2,0.0
21,3,3,-6.000000000000e-03
*BOUNDARY
22,1,1,5.000000000000e-03
22,2,2,0.0
22,3,3,6.000000000000e-03
*BOUNDARY
23,1,1,-5.000000000000e-03
23,2,2,0.0
23,3,3,-6.000000000000e-03
*BOUNDARY
24,1,1,-5.000000000000e-03
24,2,2,0.0
24,3,3,6.000000000000e-03
*NODE FILE,NSET=NALL
U
*NODE PRINT,NSET=NALL
U
*NODE PRINT,NSET=RIGHT
RF
*EL PRINT,ELSET=ALL,TOTALS=YES
ELSE
*END STEP
