*HEADING
Normalized cross-passage space-truss torsion benchmark
*NODE
1,-1.200000000000e+00,0.000000000000e+00,0.000000000000e+00
2,1.200000000000e+00,0.000000000000e+00,0.000000000000e+00
3,-1.200000000000e+00,0.000000000000e+00,2.000000000000e+00
4,1.200000000000e+00,0.000000000000e+00,2.000000000000e+00
5,-1.200000000000e+00,1.000000000000e+01,0.000000000000e+00
6,1.200000000000e+00,1.000000000000e+01,0.000000000000e+00
7,-1.200000000000e+00,1.000000000000e+01,2.000000000000e+00
8,1.200000000000e+00,1.000000000000e+01,2.000000000000e+00
9,-1.200000000000e+00,2.000000000000e+01,0.000000000000e+00
10,1.200000000000e+00,2.000000000000e+01,0.000000000000e+00
11,-1.200000000000e+00,2.000000000000e+01,2.000000000000e+00
12,1.200000000000e+00,2.000000000000e+01,2.000000000000e+00
13,-1.200000000000e+00,3.000000000000e+01,0.000000000000e+00
14,1.200000000000e+00,3.000000000000e+01,0.000000000000e+00
15,-1.200000000000e+00,3.000000000000e+01,2.000000000000e+00
16,1.200000000000e+00,3.000000000000e+01,2.000000000000e+00
17,-1.200000000000e+00,4.000000000000e+01,0.000000000000e+00
18,1.200000000000e+00,4.000000000000e+01,0.000000000000e+00
19,-1.200000000000e+00,4.000000000000e+01,2.000000000000e+00
20,1.200000000000e+00,4.000000000000e+01,2.000000000000e+00
21,-1.200000000000e+00,5.000000000000e+01,0.000000000000e+00
22,1.200000000000e+00,5.000000000000e+01,0.000000000000e+00
23,-1.200000000000e+00,5.000000000000e+01,2.000000000000e+00
24,1.200000000000e+00,5.000000000000e+01,2.000000000000e+00
25,-1.200000000000e+00,5.000000000000e+00,-1.500000000000e-01
26,1.200000000000e+00,5.000000000000e+00,1.500000000000e-01
27,-1.200000000000e+00,5.000000000000e+00,1.850000000000e+00
28,1.200000000000e+00,5.000000000000e+00,2.150000000000e+00
29,-1.200000000000e+00,1.500000000000e+01,-1.500000000000e-01
30,1.200000000000e+00,1.500000000000e+01,1.500000000000e-01
31,-1.200000000000e+00,1.500000000000e+01,1.850000000000e+00
32,1.200000000000e+00,1.500000000000e+01,2.150000000000e+00
33,-1.200000000000e+00,3.125000000000e+01,-5.740251485476e-02
34,-1.200000000000e+00,3.250000000000e+01,-1.060660171780e-01
35,-1.200000000000e+00,3.375000000000e+01,-1.385819298767e-01
36,-1.200000000000e+00,3.500000000000e+01,-1.500000000000e-01
37,-1.200000000000e+00,3.625000000000e+01,-1.385819298767e-01
38,-1.200000000000e+00,3.750000000000e+01,-1.060660171780e-01
39,-1.200000000000e+00,3.875000000000e+01,-5.740251485476e-02
40,1.200000000000e+00,3.125000000000e+01,5.740251485476e-02
41,1.200000000000e+00,3.250000000000e+01,1.060660171780e-01
42,1.200000000000e+00,3.375000000000e+01,1.385819298767e-01
43,1.200000000000e+00,3.500000000000e+01,1.500000000000e-01
44,1.200000000000e+00,3.625000000000e+01,1.385819298767e-01
45,1.200000000000e+00,3.750000000000e+01,1.060660171780e-01
46,1.200000000000e+00,3.875000000000e+01,5.740251485476e-02
47,-1.200000000000e+00,3.125000000000e+01,1.942597485145e+00
48,-1.200000000000e+00,3.250000000000e+01,1.893933982822e+00
49,-1.200000000000e+00,3.375000000000e+01,1.861418070123e+00
50,-1.200000000000e+00,3.500000000000e+01,1.850000000000e+00
51,-1.200000000000e+00,3.625000000000e+01,1.861418070123e+00
52,-1.200000000000e+00,3.750000000000e+01,1.893933982822e+00
53,-1.200000000000e+00,3.875000000000e+01,1.942597485145e+00
54,1.200000000000e+00,3.125000000000e+01,2.057402514855e+00
55,1.200000000000e+00,3.250000000000e+01,2.106066017178e+00
56,1.200000000000e+00,3.375000000000e+01,2.138581929877e+00
57,1.200000000000e+00,3.500000000000e+01,2.150000000000e+00
58,1.200000000000e+00,3.625000000000e+01,2.138581929877e+00
59,1.200000000000e+00,3.750000000000e+01,2.106066017178e+00
60,1.200000000000e+00,3.875000000000e+01,2.057402514855e+00
61,0.000000000000e+00,-3.600000000000e-02,0.000000000000e+00
62,0.000000000000e+00,3.600000000000e-02,2.000000000000e+00
63,-1.200000000000e+00,3.000000000000e-02,1.000000000000e+00
64,1.200000000000e+00,-3.000000000000e-02,1.000000000000e+00
65,0.000000000000e+00,9.964000000000e+00,0.000000000000e+00
66,0.000000000000e+00,1.003600000000e+01,2.000000000000e+00
67,-1.200000000000e+00,1.003000000000e+01,1.000000000000e+00
68,1.200000000000e+00,9.970000000000e+00,1.000000000000e+00
69,0.000000000000e+00,1.996400000000e+01,0.000000000000e+00
70,0.000000000000e+00,2.003600000000e+01,2.000000000000e+00
71,-1.200000000000e+00,2.003000000000e+01,1.000000000000e+00
72,1.200000000000e+00,1.997000000000e+01,1.000000000000e+00
73,0.000000000000e+00,2.996400000000e+01,0.000000000000e+00
74,0.000000000000e+00,3.003600000000e+01,2.000000000000e+00
75,-1.200000000000e+00,3.003000000000e+01,1.000000000000e+00
76,1.200000000000e+00,2.997000000000e+01,1.000000000000e+00
77,0.000000000000e+00,3.996400000000e+01,0.000000000000e+00
78,0.000000000000e+00,4.003600000000e+01,2.000000000000e+00
79,-1.200000000000e+00,4.003000000000e+01,1.000000000000e+00
80,1.200000000000e+00,3.997000000000e+01,1.000000000000e+00
81,0.000000000000e+00,4.996400000000e+01,0.000000000000e+00
82,0.000000000000e+00,5.003600000000e+01,2.000000000000e+00
83,-1.200000000000e+00,5.003000000000e+01,1.000000000000e+00
84,1.200000000000e+00,4.997000000000e+01,1.000000000000e+00
85,-1.200000000000e+00,5.030000000000e+00,8.500000000000e-01
86,-1.200000000000e+00,5.030000000000e+00,1.150000000000e+00
87,1.200000000000e+00,5.030000000000e+00,8.500000000000e-01
88,1.200000000000e+00,5.030000000000e+00,1.150000000000e+00
89,1.500000000000e-01,4.964000000000e+00,0.000000000000e+00
90,-1.500000000000e-01,4.964000000000e+00,0.000000000000e+00
91,1.500000000000e-01,4.964000000000e+00,2.000000000000e+00
92,-1.500000000000e-01,4.964000000000e+00,2.000000000000e+00
93,-1.200000000000e+00,1.503000000000e+01,8.500000000000e-01
94,-1.200000000000e+00,1.503000000000e+01,1.150000000000e+00
95,1.200000000000e+00,1.503000000000e+01,8.500000000000e-01
96,1.200000000000e+00,1.503000000000e+01,1.150000000000e+00
97,1.500000000000e-01,1.496400000000e+01,0.000000000000e+00
98,-1.500000000000e-01,1.496400000000e+01,0.000000000000e+00
99,1.500000000000e-01,1.496400000000e+01,2.000000000000e+00
100,-1.500000000000e-01,1.496400000000e+01,2.000000000000e+00
101,-1.200000000000e+00,2.252121320344e+01,3.939339828220e-01
102,-1.200000000000e+00,2.503000000000e+01,8.500000000000e-01
103,-1.200000000000e+00,2.752121320344e+01,1.393933982822e+00
104,-1.200000000000e+00,2.252121320344e+01,1.606066017178e+00
105,-1.200000000000e+00,2.503000000000e+01,1.150000000000e+00
106,-1.200000000000e+00,2.752121320344e+01,6.060660171780e-01
107,1.200000000000e+00,2.252121320344e+01,3.939339828220e-01
108,1.200000000000e+00,2.503000000000e+01,8.500000000000e-01
109,1.200000000000e+00,2.752121320344e+01,1.393933982822e+00
110,1.200000000000e+00,2.252121320344e+01,1.606066017178e+00
111,1.200000000000e+00,2.503000000000e+01,1.150000000000e+00
112,1.200000000000e+00,2.752121320344e+01,6.060660171780e-01
113,-4.939339828220e-01,2.247454415588e+01,0.000000000000e+00
114,1.500000000000e-01,2.496400000000e+01,0.000000000000e+00
115,7.060660171780e-01,2.747454415588e+01,0.000000000000e+00
116,4.939339828220e-01,2.247454415588e+01,0.000000000000e+00
117,-1.500000000000e-01,2.496400000000e+01,0.000000000000e+00
118,-7.060660171780e-01,2.747454415588e+01,0.000000000000e+00
119,-4.939339828220e-01,2.247454415588e+01,2.000000000000e+00
120,1.500000000000e-01,2.496400000000e+01,2.000000000000e+00
121,7.060660171780e-01,2.747454415588e+01,2.000000000000e+00
122,4.939339828220e-01,2.247454415588e+01,2.000000000000e+00
123,-1.500000000000e-01,2.496400000000e+01,2.000000000000e+00
124,-7.060660171780e-01,2.747454415588e+01,2.000000000000e+00
125,-1.200000000000e+00,3.126148050297e+01,1.925974851452e-01
126,-1.200000000000e+00,3.252121320344e+01,3.939339828220e-01
127,-1.200000000000e+00,3.377771638598e+01,6.114180701233e-01
128,-1.200000000000e+00,3.503000000000e+01,8.500000000000e-01
129,-1.200000000000e+00,3.627771638598e+01,1.111418070123e+00
130,-1.200000000000e+00,3.752121320344e+01,1.393933982822e+00
131,-1.200000000000e+00,3.876148050297e+01,1.692597485145e+00
132,-1.200000000000e+00,3.126148050297e+01,1.807402514855e+00
133,-1.200000000000e+00,3.252121320344e+01,1.606066017178e+00
134,-1.200000000000e+00,3.377771638598e+01,1.388581929877e+00
135,-1.200000000000e+00,3.503000000000e+01,1.150000000000e+00
136,-1.200000000000e+00,3.627771638598e+01,8.885819298767e-01
137,-1.200000000000e+00,3.752121320344e+01,6.060660171780e-01
138,-1.200000000000e+00,3.876148050297e+01,3.074025148548e-01
139,1.200000000000e+00,3.126148050297e+01,1.925974851452e-01
140,1.200000000000e+00,3.252121320344e+01,3.939339828220e-01
141,1.200000000000e+00,3.377771638598e+01,6.114180701233e-01
142,1.200000000000e+00,3.503000000000e+01,8.500000000000e-01
143,1.200000000000e+00,3.627771638598e+01,1.111418070123e+00
144,1.200000000000e+00,3.752121320344e+01,1.393933982822e+00
145,1.200000000000e+00,3.876148050297e+01,1.692597485145e+00
146,1.200000000000e+00,3.126148050297e+01,1.807402514855e+00
147,1.200000000000e+00,3.252121320344e+01,1.606066017178e+00
148,1.200000000000e+00,3.377771638598e+01,1.388581929877e+00
149,1.200000000000e+00,3.503000000000e+01,1.150000000000e+00
150,1.200000000000e+00,3.627771638598e+01,8.885819298767e-01
151,1.200000000000e+00,3.752121320344e+01,6.060660171780e-01
152,1.200000000000e+00,3.876148050297e+01,3.074025148548e-01
153,-8.425974851452e-01,3.123622339643e+01,0.000000000000e+00
154,-4.939339828220e-01,3.247454415588e+01,0.000000000000e+00
155,-1.614180701233e-01,3.371674033683e+01,0.000000000000e+00
156,1.500000000000e-01,3.496400000000e+01,0.000000000000e+00
157,4.385819298767e-01,3.621674033683e+01,0.000000000000e+00
158,7.060660171780e-01,3.747454415588e+01,0.000000000000e+00
159,9.574025148548e-01,3.873622339643e+01,0.000000000000e+00
160,8.425974851452e-01,3.123622339643e+01,0.000000000000e+00
161,4.939339828220e-01,3.247454415588e+01,0.000000000000e+00
162,1.614180701233e-01,3.371674033683e+01,0.000000000000e+00
163,-1.500000000000e-01,3.496400000000e+01,0.000000000000e+00
164,-4.385819298767e-01,3.621674033683e+01,0.000000000000e+00
165,-7.060660171780e-01,3.747454415588e+01,0.000000000000e+00
166,-9.574025148548e-01,3.873622339643e+01,0.000000000000e+00
167,-8.425974851452e-01,3.123622339643e+01,2.000000000000e+00
168,-4.939339828220e-01,3.247454415588e+01,2.000000000000e+00
169,-1.614180701233e-01,3.371674033683e+01,2.000000000000e+00
170,1.500000000000e-01,3.496400000000e+01,2.000000000000e+00
171,4.385819298767e-01,3.621674033683e+01,2.000000000000e+00
172,7.060660171780e-01,3.747454415588e+01,2.000000000000e+00
173,9.574025148548e-01,3.873622339643e+01,2.000000000000e+00
174,8.425974851452e-01,3.123622339643e+01,2.000000000000e+00
175,4.939339828220e-01,3.247454415588e+01,2.000000000000e+00
176,1.614180701233e-01,3.371674033683e+01,2.000000000000e+00
177,-1.500000000000e-01,3.496400000000e+01,2.000000000000e+00
178,-4.385819298767e-01,3.621674033683e+01,2.000000000000e+00
179,-7.060660171780e-01,3.747454415588e+01,2.000000000000e+00
180,-9.574025148548e-01,3.873622339643e+01,2.000000000000e+00
181,-1.200000000000e+00,4.252121320344e+01,3.939339828220e-01
182,-1.200000000000e+00,4.503000000000e+01,8.500000000000e-01
183,-1.200000000000e+00,4.752121320344e+01,1.393933982822e+00
184,-1.200000000000e+00,4.252121320344e+01,1.606066017178e+00
185,-1.200000000000e+00,4.503000000000e+01,1.150000000000e+00
186,-1.200000000000e+00,4.752121320344e+01,6.060660171780e-01
187,1.200000000000e+00,4.252121320344e+01,3.939339828220e-01
188,1.200000000000e+00,4.503000000000e+01,8.500000000000e-01
189,1.200000000000e+00,4.752121320344e+01,1.393933982822e+00
190,1.200000000000e+00,4.252121320344e+01,1.606066017178e+00
191,1.200000000000e+00,4.503000000000e+01,1.150000000000e+00
192,1.200000000000e+00,4.752121320344e+01,6.060660171780e-01
193,-4.939339828220e-01,4.247454415588e+01,0.000000000000e+00
194,1.500000000000e-01,4.496400000000e+01,0.000000000000e+00
195,7.060660171780e-01,4.747454415588e+01,0.000000000000e+00
196,4.939339828220e-01,4.247454415588e+01,0.000000000000e+00
197,-1.500000000000e-01,4.496400000000e+01,0.000000000000e+00
198,-7.060660171780e-01,4.747454415588e+01,0.000000000000e+00
199,-4.939339828220e-01,4.247454415588e+01,2.000000000000e+00
200,1.500000000000e-01,4.496400000000e+01,2.000000000000e+00
201,7.060660171780e-01,4.747454415588e+01,2.000000000000e+00
202,4.939339828220e-01,4.247454415588e+01,2.000000000000e+00
203,-1.500000000000e-01,4.496400000000e+01,2.000000000000e+00
204,-7.060660171780e-01,4.747454415588e+01,2.000000000000e+00
*ELEMENT,TYPE=B31,ELSET=ALL
1,1,25
2,25,5
3,2,26
4,26,6
5,3,27
6,27,7
7,4,28
8,28,8
9,5,29
10,29,9
11,6,30
12,30,10
13,7,31
14,31,11
15,8,32
16,32,12
17,9,13
18,10,14
19,11,15
20,12,16
21,13,33
22,33,34
23,34,35
24,35,36
25,36,37
26,37,38
27,38,39
28,39,17
29,14,40
30,40,41
31,41,42
32,42,43
33,43,44
34,44,45
35,45,46
36,46,18
37,15,47
38,47,48
39,48,49
40,49,50
41,50,51
42,51,52
43,52,53
44,53,19
45,16,54
46,54,55
47,55,56
48,56,57
49,57,58
50,58,59
51,59,60
52,60,20
53,17,21
54,18,22
55,19,23
56,20,24
57,1,61
58,61,2
59,3,62
60,62,4
61,1,63
62,63,3
63,2,64
64,64,4
65,5,65
66,65,6
67,7,66
68,66,8
69,5,67
70,67,7
71,6,68
72,68,8
73,9,69
74,69,10
75,11,70
76,70,12
77,9,71
78,71,11
79,10,72
80,72,12
81,13,73
82,73,14
83,15,74
84,74,16
85,13,75
86,75,15
87,14,76
88,76,16
89,17,77
90,77,18
91,19,78
92,78,20
93,17,79
94,79,19
95,18,80
96,80,20
97,21,81
98,81,22
99,23,82
100,82,24
101,21,83
102,83,23
103,22,84
104,84,24
105,1,85
106,85,7
107,3,86
108,86,5
109,2,87
110,87,8
111,4,88
112,88,6
113,1,89
114,89,6
115,2,90
116,90,5
117,3,91
118,91,8
119,4,92
120,92,7
121,5,93
122,93,11
123,7,94
124,94,9
125,6,95
126,95,12
127,8,96
128,96,10
129,5,97
130,97,10
131,6,98
132,98,9
133,7,99
134,99,12
135,8,100
136,100,11
137,9,101
138,101,102
139,102,103
140,103,15
141,11,104
142,104,105
143,105,106
144,106,13
145,10,107
146,107,108
147,108,109
148,109,16
149,12,110
150,110,111
151,111,112
152,112,14
153,9,113
154,113,114
155,114,115
156,115,14
157,10,116
158,116,117
159,117,118
160,118,13
161,11,119
162,119,120
163,120,121
164,121,16
165,12,122
166,122,123
167,123,124
168,124,15
169,13,125
170,125,126
171,126,127
172,127,128
173,128,129
174,129,130
175,130,131
176,131,19
177,15,132
178,132,133
179,133,134
180,134,135
181,135,136
182,136,137
183,137,138
184,138,17
185,14,139
186,139,140
187,140,141
188,141,142
189,142,143
190,143,144
191,144,145
192,145,20
193,16,146
194,146,147
195,147,148
196,148,149
197,149,150
198,150,151
199,151,152
200,152,18
201,13,153
202,153,154
203,154,155
204,155,156
205,156,157
206,157,158
207,158,159
208,159,18
209,14,160
210,160,161
211,161,162
212,162,163
213,163,164
214,164,165
215,165,166
216,166,17
217,15,167
218,167,168
219,168,169
220,169,170
221,170,171
222,171,172
223,172,173
224,173,20
225,16,174
226,174,175
227,175,176
228,176,177
229,177,178
230,178,179
231,179,180
232,180,19
233,17,181
234,181,182
235,182,183
236,183,23
237,19,184
238,184,185
239,185,186
240,186,21
241,18,187
242,187,188
243,188,189
244,189,24
245,20,190
246,190,191
247,191,192
248,192,22
249,17,193
250,193,194
251,194,195
252,195,22
253,18,196
254,196,197
255,197,198
256,198,21
257,19,199
258,199,200
259,200,201
260,201,24
261,20,202
262,202,203
263,203,204
264,204,23
*NSET,NSET=NALL,GENERATE
1,204,1
*NSET,NSET=LEFT
1,2,3,4
*NSET,NSET=RIGHT
21,22,23,24
*MATERIAL,NAME=STEEL
*ELASTIC
2.100000000000e+11,0.300000000000
*BEAM SECTION,ELSET=ALL,MATERIAL=STEEL,SECTION=RECT
6.000000000000e-02,4.000000000000e-02
0.371390676354,0.557086014531,0.742781352708
*BOUNDARY
LEFT,1,6,0.0
*STEP
*STATIC
*BOUNDARY
21,1,1,5.000000000000e-03
21,2,2,0.0
21,3,3,-6.000000000000e-03
*BOUNDARY
22,1,1,5.000000000000e-03
22,2,2,0.0
22,3,3,6.000000000000e-03
*BOUNDARY
23,1,1,-5.000000000000e-03
23,2,2,0.0
23,3,3,-6.000000000000e-03
*BOUNDARY
24,1,1,-5.000000000000e-03
24,2,2,0.0
24,3,3,6.000000000000e-03
*NODE FILE,NSET=NALL
U
*NODE PRINT,NSET=NALL
U
*NODE PRINT,NSET=RIGHT
RF
*EL PRINT,ELSET=ALL,TOTALS=YES
ELSE
*END STEP
