*HEADING
Normalized cross-passage space-truss torsion benchmark
*NODE
1,-1.200000000000e+00,0.000000000000e+00,0.000000000000e+00
2,1.200000000000e+00,0.000000000000e+00,0.000000000000e+00
3,-1.200000000000e+00,0.000000000000e+00,2.000000000000e+00
4,1.200000000000e+00,0.000000000000e+00,2.000000000000e+00
5,-1.200000000000e+00,1.000000000000e+01,0.000000000000e+00
6,1.200000000000e+00,1.000000000000e+01,0.000000000000e+00
7,-1.200000000000e+00,1.000000000000e+01,2.000000000000e+00
8,1.200000000000e+00,1.000000000000e+01,2.000000000000e+00
9,-1.200000000000e+00,2.000000000000e+01,0.000000000000e+00
10,1.200000000000e+00,2.000000000000e+01,0.000000000000e+00
11,-1.200000000000e+00,2.000000000000e+01,2.000000000000e+00
12,1.200000000000e+00,2.000000000000e+01,2.000000000000e+00
13,-1.200000000000e+00,3.000000000000e+01,0.000000000000e+00
14,1.200000000000e+00,3.000000000000e+01,0.000000000000e+00
15,-1.200000000000e+00,3.000000000000e+01,2.000000000000e+00
16,1.200000000000e+00,3.000000000000e+01,2.000000000000e+00
17,-1.200000000000e+00,4.000000000000e+01,0.000000000000e+00
18,1.200000000000e+00,4.000000000000e+01,0.000000000000e+00
19,-1.200000000000e+00,4.000000000000e+01,2.000000000000e+00
20,1.200000000000e+00,4.000000000000e+01,2.000000000000e+00
21,-1.200000000000e+00,5.000000000000e+01,0.000000000000e+00
22,1.200000000000e+00,5.000000000000e+01,0.000000000000e+00
23,-1.200000000000e+00,5.000000000000e+01,2.000000000000e+00
24,1.200000000000e+00,5.000000000000e+01,2.000000000000e+00
25,-1.200000000000e+00,5.000000000000e+00,-1.500000000000e-01
26,1.200000000000e+00,5.000000000000e+00,1.500000000000e-01
27,-1.200000000000e+00,5.000000000000e+00,1.850000000000e+00
28,1.200000000000e+00,5.000000000000e+00,2.150000000000e+00
29,-1.200000000000e+00,1.250000000000e+01,-1.060660171780e-01
30,-1.200000000000e+00,1.500000000000e+01,-1.500000000000e-01
31,-1.200000000000e+00,1.750000000000e+01,-1.060660171780e-01
32,1.200000000000e+00,1.250000000000e+01,1.060660171780e-01
33,1.200000000000e+00,1.500000000000e+01,1.500000000000e-01
34,1.200000000000e+00,1.750000000000e+01,1.060660171780e-01
35,-1.200000000000e+00,1.250000000000e+01,1.893933982822e+00
36,-1.200000000000e+00,1.500000000000e+01,1.850000000000e+00
37,-1.200000000000e+00,1.750000000000e+01,1.893933982822e+00
38,1.200000000000e+00,1.250000000000e+01,2.106066017178e+00
39,1.200000000000e+00,1.500000000000e+01,2.150000000000e+00
40,1.200000000000e+00,1.750000000000e+01,2.106066017178e+00
41,-1.200000000000e+00,2.500000000000e+01,-1.500000000000e-01
42,1.200000000000e+00,2.500000000000e+01,1.500000000000e-01
43,-1.200000000000e+00,2.500000000000e+01,1.850000000000e+00
44,1.200000000000e+00,2.500000000000e+01,2.150000000000e+00
45,-1.200000000000e+00,3.500000000000e+01,-1.500000000000e-01
46,1.200000000000e+00,3.500000000000e+01,1.500000000000e-01
47,-1.200000000000e+00,3.500000000000e+01,1.850000000000e+00
48,1.200000000000e+00,3.500000000000e+01,2.150000000000e+00
49,-1.200000000000e+00,4.250000000000e+01,-1.060660171780e-01
50,-1.200000000000e+00,4.500000000000e+01,-1.500000000000e-01
51,-1.200000000000e+00,4.750000000000e+01,-1.060660171780e-01
52,1.200000000000e+00,4.250000000000e+01,1.060660171780e-01
53,1.200000000000e+00,4.500000000000e+01,1.500000000000e-01
54,1.200000000000e+00,4.750000000000e+01,1.060660171780e-01
55,-1.200000000000e+00,4.250000000000e+01,1.893933982822e+00
56,-1.200000000000e+00,4.500000000000e+01,1.850000000000e+00
57,-1.200000000000e+00,4.750000000000e+01,1.893933982822e+00
58,1.200000000000e+00,4.250000000000e+01,2.106066017178e+00
59,1.200000000000e+00,4.500000000000e+01,2.150000000000e+00
60,1.200000000000e+00,4.750000000000e+01,2.106066017178e+00
61,-6.000000000000e-01,-2.545584412272e-02,0.000000000000e+00
62,0.000000000000e+00,-3.600000000000e-02,0.000000000000e+00
63,6.000000000000e-01,-2.545584412272e-02,0.000000000000e+00
64,-6.000000000000e-01,2.545584412272e-02,2.000000000000e+00
65,0.000000000000e+00,3.600000000000e-02,2.000000000000e+00
66,6.000000000000e-01,2.545584412272e-02,2.000000000000e+00
67,-1.200000000000e+00,2.121320343560e-02,5.000000000000e-01
68,-1.200000000000e+00,3.000000000000e-02,1.000000000000e+00
69,-1.200000000000e+00,2.121320343560e-02,1.500000000000e+00
70,1.200000000000e+00,-2.121320343560e-02,5.000000000000e-01
71,1.200000000000e+00,-3.000000000000e-02,1.000000000000e+00
72,1.200000000000e+00,-2.121320343560e-02,1.500000000000e+00
73,-6.000000000000e-01,9.974544155877e+00,0.000000000000e+00
74,0.000000000000e+00,9.964000000000e+00,0.000000000000e+00
75,6.000000000000e-01,9.974544155877e+00,0.000000000000e+00
76,-6.000000000000e-01,1.002545584412e+01,2.000000000000e+00
77,0.000000000000e+00,1.003600000000e+01,2.000000000000e+00
78,6.000000000000e-01,1.002545584412e+01,2.000000000000e+00
79,-1.200000000000e+00,1.002121320344e+01,5.000000000000e-01
80,-1.200000000000e+00,1.003000000000e+01,1.000000000000e+00
81,-1.200000000000e+00,1.002121320344e+01,1.500000000000e+00
82,1.200000000000e+00,9.978786796564e+00,5.000000000000e-01
83,1.200000000000e+00,9.970000000000e+00,1.000000000000e+00
84,1.200000000000e+00,9.978786796564e+00,1.500000000000e+00
85,-6.000000000000e-01,1.997454415588e+01,0.000000000000e+00
86,0.000000000000e+00,1.996400000000e+01,0.000000000000e+00
87,6.000000000000e-01,1.997454415588e+01,0.000000000000e+00
88,-6.000000000000e-01,2.002545584412e+01,2.000000000000e+00
89,0.000000000000e+00,2.003600000000e+01,2.000000000000e+00
90,6.000000000000e-01,2.002545584412e+01,2.000000000000e+00
91,-1.200000000000e+00,2.002121320344e+01,5.000000000000e-01
92,-1.200000000000e+00,2.003000000000e+01,1.000000000000e+00
93,-1.200000000000e+00,2.002121320344e+01,1.500000000000e+00
94,1.200000000000e+00,1.997878679656e+01,5.000000000000e-01
95,1.200000000000e+00,1.997000000000e+01,1.000000000000e+00
96,1.200000000000e+00,1.997878679656e+01,1.500000000000e+00
97,-6.000000000000e-01,2.997454415588e+01,0.000000000000e+00
98,0.000000000000e+00,2.996400000000e+01,0.000000000000e+00
99,6.000000000000e-01,2.997454415588e+01,0.000000000000e+00
100,-6.000000000000e-01,3.002545584412e+01,2.000000000000e+00
101,0.000000000000e+00,3.003600000000e+01,2.000000000000e+00
102,6.000000000000e-01,3.002545584412e+01,2.000000000000e+00
103,-1.200000000000e+00,3.002121320344e+01,5.000000000000e-01
104,-1.200000000000e+00,3.003000000000e+01,1.000000000000e+00
105,-1.200000000000e+00,3.002121320344e+01,1.500000000000e+00
106,1.200000000000e+00,2.997878679656e+01,5.000000000000e-01
107,1.200000000000e+00,2.997000000000e+01,1.000000000000e+00
108,1.200000000000e+00,2.997878679656e+01,1.500000000000e+00
109,-6.000000000000e-01,3.997454415588e+01,0.000000000000e+00
110,0.000000000000e+00,3.996400000000e+01,0.000000000000e+00
111,6.000000000000e-01,3.997454415588e+01,0.000000000000e+00
112,-6.000000000000e-01,4.002545584412e+01,2.000000000000e+00
113,0.000000000000e+00,4.003600000000e+01,2.000000000000e+00
114,6.000000000000e-01,4.002545584412e+01,2.000000000000e+00
115,-1.200000000000e+00,4.002121320344e+01,5.000000000000e-01
116,-1.200000000000e+00,4.003000000000e+01,1.000000000000e+00
117,-1.200000000000e+00,4.002121320344e+01,1.500000000000e+00
118,1.200000000000e+00,3.997878679656e+01,5.000000000000e-01
119,1.200000000000e+00,3.997000000000e+01,1.000000000000e+00
120,1.200000000000e+00,3.997878679656e+01,1.500000000000e+00
121,-6.000000000000e-01,4.997454415588e+01,0.000000000000e+00
122,0.000000000000e+00,4.996400000000e+01,0.000000000000e+00
123,6.000000000000e-01,4.997454415588e+01,0.000000000000e+00
124,-6.000000000000e-01,5.002545584412e+01,2.000000000000e+00
125,0.000000000000e+00,5.003600000000e+01,2.000000000000e+00
126,6.000000000000e-01,5.002545584412e+01,2.000000000000e+00
127,-1.200000000000e+00,5.002121320344e+01,5.000000000000e-01
128,-1.200000000000e+00,5.003000000000e+01,1.000000000000e+00
129,-1.200000000000e+00,5.002121320344e+01,1.500000000000e+00
130,1.200000000000e+00,4.997878679656e+01,5.000000000000e-01
131,1.200000000000e+00,4.997000000000e+01,1.000000000000e+00
132,1.200000000000e+00,4.997878679656e+01,1.500000000000e+00
133,-1.200000000000e+00,2.521213203436e+00,3.939339828220e-01
134,-1.200000000000e+00,5.030000000000e+00,8.500000000000e-01
135,-1.200000000000e+00,7.521213203436e+00,1.393933982822e+00
136,-1.200000000000e+00,2.521213203436e+00,1.606066017178e+00
137,-1.200000000000e+00,5.030000000000e+00,1.150000000000e+00
138,-1.200000000000e+00,7.521213203436e+00,6.060660171780e-01
139,1.200000000000e+00,2.521213203436e+00,3.939339828220e-01
140,1.200000000000e+00,5.030000000000e+00,8.500000000000e-01
141,1.200000000000e+00,7.521213203436e+00,1.393933982822e+00
142,1.200000000000e+00,2.521213203436e+00,1.606066017178e+00
143,1.200000000000e+00,5.030000000000e+00,1.150000000000e+00
144,1.200000000000e+00,7.521213203436e+00,6.060660171780e-01
145,-4.939339828220e-01,2.474544155877e+00,0.000000000000e+00
146,1.500000000000e-01,4.964000000000e+00,0.000000000000e+00
147,7.060660171780e-01,7.474544155877e+00,0.000000000000e+00
148,4.939339828220e-01,2.474544155877e+00,0.000000000000e+00
149,-1.500000000000e-01,4.964000000000e+00,0.000000000000e+00
150,-7.060660171780e-01,7.474544155877e+00,0.000000000000e+00
151,-4.939339828220e-01,2.474544155877e+00,2.000000000000e+00
152,1.500000000000e-01,4.964000000000e+00,2.000000000000e+00
153,7.060660171780e-01,7.474544155877e+00,2.000000000000e+00
154,4.939339828220e-01,2.474544155877e+00,2.000000000000e+00
155,-1.500000000000e-01,4.964000000000e+00,2.000000000000e+00
156,-7.060660171780e-01,7.474544155877e+00,2.000000000000e+00
157,-1.200000000000e+00,1.252121320344e+01,3.939339828220e-01
158,-1.200000000000e+00,1.503000000000e+01,8.500000000000e-01
159,-1.200000000000e+00,1.752121320344e+01,1.393933982822e+00
160,-1.200000000000e+00,1.252121320344e+01,1.606066017178e+00
161,-1.200000000000e+00,1.503000000000e+01,1.150000000000e+00
162,-1.200000000000e+00,1.752121320344e+01,6.060660171780e-01
163,1.200000000000e+00,1.252121320344e+01,3.939339828220e-01
164,1.200000000000e+00,1.503000000000e+01,8.500000000000e-01
165,1.200000000000e+00,1.752121320344e+01,1.393933982822e+00
166,1.200000000000e+00,1.252121320344e+01,1.606066017178e+00
167,1.200000000000e+00,1.503000000000e+01,1.150000000000e+00
168,1.200000000000e+00,1.752121320344e+01,6.060660171780e-01
169,-4.939339828220e-01,1.247454415588e+01,0.000000000000e+00
170,1.500000000000e-01,1.496400000000e+01,0.000000000000e+00
171,7.060660171780e-01,1.747454415588e+01,0.000000000000e+00
172,4.939339828220e-01,1.247454415588e+01,0.000000000000e+00
173,-1.500000000000e-01,1.496400000000e+01,0.000000000000e+00
174,-7.060660171780e-01,1.747454415588e+01,0.000000000000e+00
175,-4.939339828220e-01,1.247454415588e+01,2.000000000000e+00
176,1.500000000000e-01,1.496400000000e+01,2.000000000000e+00
177,7.060660171780e-01,1.747454415588e+01,2.000000000000e+00
178,4.939339828220e-01,1.247454415588e+01,2.000000000000e+00
179,-1.500000000000e-01,1.496400000000e+01,2.000000000000e+00
180,-7.060660171780e-01,1.747454415588e+01,2.000000000000e+00
181,-1.200000000000e+00,2.252121320344e+01,3.939339828220e-01
182,-1.200000000000e+00,2.503000000000e+01,8.500000000000e-01
183,-1.200000000000e+00,2.752121320344e+01,1.393933982822e+00
184,-1.200000000000e+00,2.252121320344e+01,1.606066017178e+00
185,-1.200000000000e+00,2.503000000000e+01,1.150000000000e+00
186,-1.200000000000e+00,2.752121320344e+01,6.060660171780e-01
187,1.200000000000e+00,2.252121320344e+01,3.939339828220e-01
188,1.200000000000e+00,2.503000000000e+01,8.500000000000e-01
189,1.200000000000e+00,2.752121320344e+01,1.393933982822e+00
190,1.200000000000e+00,2.252121320344e+01,1.606066017178e+00
191,1.200000000000e+00,2.503000000000e+01,1.150000000000e+00
192,1.200000000000e+00,2.752121320344e+01,6.060660171780e-01
193,-4.939339828220e-01,2.247454415588e+01,0.000000000000e+00
194,1.500000000000e-01,2.496400000000e+01,0.000000000000e+00
195,7.060660171780e-01,2.747454415588e+01,0.000000000000e+00
196,4.939339828220e-01,2.247454415588e+01,0.000000000000e+00
197,-1.500000000000e-01,2.496400000000e+01,0.000000000000e+00
198,-7.060660171780e-01,2.747454415588e+01,0.000000000000e+00
199,-4.939339828220e-01,2.247454415588e+01,2.000000000000e+00
200,1.500000000000e-01,2.496400000000e+01,2.000000000000e+00
201,7.060660171780e-01,2.747454415588e+01,2.000000000000e+00
202,4.939339828220e-01,2.247454415588e+01,2.000000000000e+00
203,-1.500000000000e-01,2.496400000000e+01,2.000000000000e+00
204,-7.060660171780e-01,2.747454415588e+01,2.000000000000e+00
205,-1.200000000000e+00,3.252121320344e+01,3.939339828220e-01
206,-1.200000000000e+00,3.503000000000e+01,8.500000000000e-01
207,-1.200000000000e+00,3.752121320344e+01,1.393933982822e+00
208,-1.200000000000e+00,3.252121320344e+01,1.606066017178e+00
209,-1.200000000000e+00,3.503000000000e+01,1.150000000000e+00
210,-1.200000000000e+00,3.752121320344e+01,6.060660171780e-01
211,1.200000000000e+00,3.252121320344e+01,3.939339828220e-01
212,1.200000000000e+00,3.503000000000e+01,8.500000000000e-01
213,1.200000000000e+00,3.752121320344e+01,1.393933982822e+00
214,1.200000000000e+00,3.252121320344e+01,1.606066017178e+00
215,1.200000000000e+00,3.503000000000e+01,1.150000000000e+00
216,1.200000000000e+00,3.752121320344e+01,6.060660171780e-01
217,-4.939339828220e-01,3.247454415588e+01,0.000000000000e+00
218,1.500000000000e-01,3.496400000000e+01,0.000000000000e+00
219,7.060660171780e-01,3.747454415588e+01,0.000000000000e+00
220,4.939339828220e-01,3.247454415588e+01,0.000000000000e+00
221,-1.500000000000e-01,3.496400000000e+01,0.000000000000e+00
222,-7.060660171780e-01,3.747454415588e+01,0.000000000000e+00
223,-4.939339828220e-01,3.247454415588e+01,2.000000000000e+00
224,1.500000000000e-01,3.496400000000e+01,2.000000000000e+00
225,7.060660171780e-01,3.747454415588e+01,2.000000000000e+00
226,4.939339828220e-01,3.247454415588e+01,2.000000000000e+00
227,-1.500000000000e-01,3.496400000000e+01,2.000000000000e+00
228,-7.060660171780e-01,3.747454415588e+01,2.000000000000e+00
229,-1.200000000000e+00,4.252121320344e+01,3.939339828220e-01
230,-1.200000000000e+00,4.503000000000e+01,8.500000000000e-01
231,-1.200000000000e+00,4.752121320344e+01,1.393933982822e+00
232,-1.200000000000e+00,4.252121320344e+01,1.606066017178e+00
233,-1.200000000000e+00,4.503000000000e+01,1.150000000000e+00
234,-1.200000000000e+00,4.752121320344e+01,6.060660171780e-01
235,1.200000000000e+00,4.252121320344e+01,3.939339828220e-01
236,1.200000000000e+00,4.503000000000e+01,8.500000000000e-01
237,1.200000000000e+00,4.752121320344e+01,1.393933982822e+00
238,1.200000000000e+00,4.252121320344e+01,1.606066017178e+00
239,1.200000000000e+00,4.503000000000e+01,1.150000000000e+00
240,1.200000000000e+00,4.752121320344e+01,6.060660171780e-01
241,-4.939339828220e-01,4.247454415588e+01,0.000000000000e+00
242,1.500000000000e-01,4.496400000000e+01,0.000000000000e+00
243,7.060660171780e-01,4.747454415588e+01,0.000000000000e+00
244,4.939339828220e-01,4.247454415588e+01,0.000000000000e+00
245,-1.500000000000e-01,4.496400000000e+01,0.000000000000e+00
246,-7.060660171780e-01,4.747454415588e+01,0.000000000000e+00
247,-4.939339828220e-01,4.247454415588e+01,2.000000000000e+00
248,1.500000000000e-01,4.496400000000e+01,2.000000000000e+00
249,7.060660171780e-01,4.747454415588e+01,2.000000000000e+00
250,4.939339828220e-01,4.247454415588e+01,2.000000000000e+00
251,-1.500000000000e-01,4.496400000000e+01,2.000000000000e+00
252,-7.060660171780e-01,4.747454415588e+01,2.000000000000e+00
*ELEMENT,TYPE=B31,ELSET=ALL
1,1,25
2,25,5
3,2,26
4,26,6
5,3,27
6,27,7
7,4,28
8,28,8
9,5,29
10,29,30
11,30,31
12,31,9
13,6,32
14,32,33
15,33,34
16,34,10
17,7,35
18,35,36
19,36,37
20,37,11
21,8,38
22,38,39
23,39,40
24,40,12
25,9,41
26,41,13
27,10,42
28,42,14
29,11,43
30,43,15
31,12,44
32,44,16
33,13,45
34,45,17
35,14,46
36,46,18
37,15,47
38,47,19
39,16,48
40,48,20
41,17,49
42,49,50
43,50,51
44,51,21
45,18,52
46,52,53
47,53,54
48,54,22
49,19,55
50,55,56
51,56,57
52,57,23
53,20,58
54,58,59
55,59,60
56,60,24
57,1,61
58,61,62
59,62,63
60,63,2
61,3,64
62,64,65
63,65,66
64,66,4
65,1,67
66,67,68
67,68,69
68,69,3
69,2,70
70,70,71
71,71,72
72,72,4
73,5,73
74,73,74
75,74,75
76,75,6
77,7,76
78,76,77
79,77,78
80,78,8
81,5,79
82,79,80
83,80,81
84,81,7
85,6,82
86,82,83
87,83,84
88,84,8
89,9,85
90,85,86
91,86,87
92,87,10
93,11,88
94,88,89
95,89,90
96,90,12
97,9,91
98,91,92
99,92,93
100,93,11
101,10,94
102,94,95
103,95,96
104,96,12
105,13,97
106,97,98
107,98,99
108,99,14
109,15,100
110,100,101
111,101,102
112,102,16
113,13,103
114,103,104
115,104,105
116,105,15
117,14,106
118,106,107
119,107,108
120,108,16
121,17,109
122,109,110
123,110,111
124,111,18
125,19,112
126,112,113
127,113,114
128,114,20
129,17,115
130,115,116
131,116,117
132,117,19
133,18,118
134,118,119
135,119,120
136,120,20
137,21,121
138,121,122
139,122,123
140,123,22
141,23,124
142,124,125
143,125,126
144,126,24
145,21,127
146,127,128
147,128,129
148,129,23
149,22,130
150,130,131
151,131,132
152,132,24
153,1,133
154,133,134
155,134,135
156,135,7
157,3,136
158,136,137
159,137,138
160,138,5
161,2,139
162,139,140
163,140,141
164,141,8
165,4,142
166,142,143
167,143,144
168,144,6
169,1,145
170,145,146
171,146,147
172,147,6
173,2,148
174,148,149
175,149,150
176,150,5
177,3,151
178,151,152
179,152,153
180,153,8
181,4,154
182,154,155
183,155,156
184,156,7
185,5,157
186,157,158
187,158,159
188,159,11
189,7,160
190,160,161
191,161,162
192,162,9
193,6,163
194,163,164
195,164,165
196,165,12
197,8,166
198,166,167
199,167,168
200,168,10
201,5,169
202,169,170
203,170,171
204,171,10
205,6,172
206,172,173
207,173,174
208,174,9
209,7,175
210,175,176
211,176,177
212,177,12
213,8,178
214,178,179
215,179,180
216,180,11
217,9,181
218,181,182
219,182,183
220,183,15
221,11,184
222,184,185
223,185,186
224,186,13
225,10,187
226,187,188
227,188,189
228,189,16
229,12,190
230,190,191
231,191,192
232,192,14
233,9,193
234,193,194
235,194,195
236,195,14
237,10,196
238,196,197
239,197,198
240,198,13
241,11,199
242,199,200
243,200,201
244,201,16
245,12,202
246,202,203
247,203,204
248,204,15
249,13,205
250,205,206
251,206,207
252,207,19
253,15,208
254,208,209
255,209,210
256,210,17
257,14,211
258,211,212
259,212,213
260,213,20
261,16,214
262,214,215
263,215,216
264,216,18
265,13,217
266,217,218
267,218,219
268,219,18
269,14,220
270,220,221
271,221,222
272,222,17
273,15,223
274,223,224
275,224,225
276,225,20
277,16,226
278,226,227
279,227,228
280,228,19
281,17,229
282,229,230
283,230,231
284,231,23
285,19,232
286,232,233
287,233,234
288,234,21
289,18,235
290,235,236
291,236,237
292,237,24
293,20,238
294,238,239
295,239,240
296,240,22
297,17,241
298,241,242
299,242,243
300,243,22
301,18,244
302,244,245
303,245,246
304,246,21
305,19,247
306,247,248
307,248,249
308,249,24
309,20,250
310,250,251
311,251,252
312,252,23
*NSET,NSET=NALL,GENERATE
1,252,1
*NSET,NSET=LEFT
1,2,3,4
*NSET,NSET=RIGHT
21,22,23,24
*MATERIAL,NAME=STEEL
*ELASTIC
2.100000000000e+11,0.300000000000
*BEAM SECTION,ELSET=ALL,MATERIAL=STEEL,SECTION=RECT
6.000000000000e-02,4.000000000000e-02
0.371390676354,0.557086014531,0.742781352708
*BOUNDARY
LEFT,1,6,0.0
*STEP
*STATIC
*BOUNDARY
21,1,1,5.000000000000e-03
21,2,2,0.0
21,3,3,-6.000000000000e-03
*BOUNDARY
22,1,1,5.000000000000e-03
22,2,2,0.0
22,3,3,6.000000000000e-03
*BOUNDARY
23,1,1,-5.000000000000e-03
23,2,2,0.0
23,3,3,-6.000000000000e-03
*BOUNDARY
24,1,1,-5.000000000000e-03
24,2,2,0.0
24,3,3,6.000000000000e-03
*NODE FILE,NSET=NALL
U
*NODE PRINT,NSET=NALL
U
*NODE PRINT,NSET=RIGHT
RF
*EL PRINT,ELSET=ALL,TOTALS=YES
ELSE
*END STEP
