*HEADING
Normalized cross-passage space-truss torsion benchmark
*NODE
1,-1.200000000000e+00,0.000000000000e+00,0.000000000000e+00
2,1.200000000000e+00,0.000000000000e+00,0.000000000000e+00
3,-1.200000000000e+00,0.000000000000e+00,2.000000000000e+00
4,1.200000000000e+00,0.000000000000e+00,2.000000000000e+00
5,-1.200000000000e+00,1.000000000000e+01,0.000000000000e+00
6,1.200000000000e+00,1.000000000000e+01,0.000000000000e+00
7,-1.200000000000e+00,1.000000000000e+01,2.000000000000e+00
8,1.200000000000e+00,1.000000000000e+01,2.000000000000e+00
9,-1.200000000000e+00,2.000000000000e+01,0.000000000000e+00
10,1.200000000000e+00,2.000000000000e+01,0.000000000000e+00
11,-1.200000000000e+00,2.000000000000e+01,2.000000000000e+00
12,1.200000000000e+00,2.000000000000e+01,2.000000000000e+00
13,-1.200000000000e+00,3.000000000000e+01,0.000000000000e+00
14,1.200000000000e+00,3.000000000000e+01,0.000000000000e+00
15,-1.200000000000e+00,3.000000000000e+01,2.000000000000e+00
16,1.200000000000e+00,3.000000000000e+01,2.000000000000e+00
17,-1.200000000000e+00,4.000000000000e+01,0.000000000000e+00
18,1.200000000000e+00,4.000000000000e+01,0.000000000000e+00
19,-1.200000000000e+00,4.000000000000e+01,2.000000000000e+00
20,1.200000000000e+00,4.000000000000e+01,2.000000000000e+00
21,-1.200000000000e+00,5.000000000000e+01,0.000000000000e+00
22,1.200000000000e+00,5.000000000000e+01,0.000000000000e+00
23,-1.200000000000e+00,5.000000000000e+01,2.000000000000e+00
24,1.200000000000e+00,5.000000000000e+01,2.000000000000e+00
25,-1.200000000000e+00,2.500000000000e+00,-1.060660171780e-01
26,-1.200000000000e+00,5.000000000000e+00,-1.500000000000e-01
27,-1.200000000000e+00,7.500000000000e+00,-1.060660171780e-01
28,1.200000000000e+00,2.500000000000e+00,1.060660171780e-01
29,1.200000000000e+00,5.000000000000e+00,1.500000000000e-01
30,1.200000000000e+00,7.500000000000e+00,1.060660171780e-01
31,-1.200000000000e+00,2.500000000000e+00,1.893933982822e+00
32,-1.200000000000e+00,5.000000000000e+00,1.850000000000e+00
33,-1.200000000000e+00,7.500000000000e+00,1.893933982822e+00
34,1.200000000000e+00,2.500000000000e+00,2.106066017178e+00
35,1.200000000000e+00,5.000000000000e+00,2.150000000000e+00
36,1.200000000000e+00,7.500000000000e+00,2.106066017178e+00
37,-1.200000000000e+00,1.500000000000e+01,-1.500000000000e-01
38,1.200000000000e+00,1.500000000000e+01,1.500000000000e-01
39,-1.200000000000e+00,1.500000000000e+01,1.850000000000e+00
40,1.200000000000e+00,1.500000000000e+01,2.150000000000e+00
41,-1.200000000000e+00,2.500000000000e+01,-1.500000000000e-01
42,1.200000000000e+00,2.500000000000e+01,1.500000000000e-01
43,-1.200000000000e+00,2.500000000000e+01,1.850000000000e+00
44,1.200000000000e+00,2.500000000000e+01,2.150000000000e+00
45,-1.200000000000e+00,3.500000000000e+01,-1.500000000000e-01
46,1.200000000000e+00,3.500000000000e+01,1.500000000000e-01
47,-1.200000000000e+00,3.500000000000e+01,1.850000000000e+00
48,1.200000000000e+00,3.500000000000e+01,2.150000000000e+00
49,-1.200000000000e+00,4.250000000000e+01,-1.060660171780e-01
50,-1.200000000000e+00,4.500000000000e+01,-1.500000000000e-01
51,-1.200000000000e+00,4.750000000000e+01,-1.060660171780e-01
52,1.200000000000e+00,4.250000000000e+01,1.060660171780e-01
53,1.200000000000e+00,4.500000000000e+01,1.500000000000e-01
54,1.200000000000e+00,4.750000000000e+01,1.060660171780e-01
55,-1.200000000000e+00,4.250000000000e+01,1.893933982822e+00
56,-1.200000000000e+00,4.500000000000e+01,1.850000000000e+00
57,-1.200000000000e+00,4.750000000000e+01,1.893933982822e+00
58,1.200000000000e+00,4.250000000000e+01,2.106066017178e+00
59,1.200000000000e+00,4.500000000000e+01,2.150000000000e+00
60,1.200000000000e+00,4.750000000000e+01,2.106066017178e+00
61,-6.000000000000e-01,-2.545584412272e-02,0.000000000000e+00
62,0.000000000000e+00,-3.600000000000e-02,0.000000000000e+00
63,6.000000000000e-01,-2.545584412272e-02,0.000000000000e+00
64,-6.000000000000e-01,2.545584412272e-02,2.000000000000e+00
65,0.000000000000e+00,3.600000000000e-02,2.000000000000e+00
66,6.000000000000e-01,2.545584412272e-02,2.000000000000e+00
67,-1.200000000000e+00,2.121320343560e-02,5.000000000000e-01
68,-1.200000000000e+00,3.000000000000e-02,1.000000000000e+00
69,-1.200000000000e+00,2.121320343560e-02,1.500000000000e+00
70,1.200000000000e+00,-2.121320343560e-02,5.000000000000e-01
71,1.200000000000e+00,-3.000000000000e-02,1.000000000000e+00
72,1.200000000000e+00,-2.121320343560e-02,1.500000000000e+00
73,0.000000000000e+00,1.996400000000e+01,0.000000000000e+00
74,0.000000000000e+00,2.003600000000e+01,2.000000000000e+00
75,-1.200000000000e+00,2.003000000000e+01,1.000000000000e+00
76,1.200000000000e+00,1.997000000000e+01,1.000000000000e+00
77,0.000000000000e+00,2.996400000000e+01,0.000000000000e+00
78,0.000000000000e+00,3.003600000000e+01,2.000000000000e+00
79,-1.200000000000e+00,3.003000000000e+01,1.000000000000e+00
80,1.200000000000e+00,2.997000000000e+01,1.000000000000e+00
81,0.000000000000e+00,3.996400000000e+01,0.000000000000e+00
82,0.000000000000e+00,4.003600000000e+01,2.000000000000e+00
83,-1.200000000000e+00,4.003000000000e+01,1.000000000000e+00
84,1.200000000000e+00,3.997000000000e+01,1.000000000000e+00
85,-6.000000000000e-01,4.997454415588e+01,0.000000000000e+00
86,0.000000000000e+00,4.996400000000e+01,0.000000000000e+00
87,6.000000000000e-01,4.997454415588e+01,0.000000000000e+00
88,-6.000000000000e-01,5.002545584412e+01,2.000000000000e+00
89,0.000000000000e+00,5.003600000000e+01,2.000000000000e+00
90,6.000000000000e-01,5.002545584412e+01,2.000000000000e+00
91,-1.200000000000e+00,5.002121320344e+01,5.000000000000e-01
92,-1.200000000000e+00,5.003000000000e+01,1.000000000000e+00
93,-1.200000000000e+00,5.002121320344e+01,1.500000000000e+00
94,1.200000000000e+00,4.997878679656e+01,5.000000000000e-01
95,1.200000000000e+00,4.997000000000e+01,1.000000000000e+00
96,1.200000000000e+00,4.997878679656e+01,1.500000000000e+00
97,-1.200000000000e+00,2.521213203436e+00,3.939339828220e-01
98,-1.200000000000e+00,5.030000000000e+00,8.500000000000e-01
99,-1.200000000000e+00,7.521213203436e+00,1.393933982822e+00
100,-1.200000000000e+00,2.521213203436e+00,1.606066017178e+00
101,-1.200000000000e+00,5.030000000000e+00,1.150000000000e+00
102,-1.200000000000e+00,7.521213203436e+00,6.060660171780e-01
103,1.200000000000e+00,2.521213203436e+00,3.939339828220e-01
104,1.200000000000e+00,5.030000000000e+00,8.500000000000e-01
105,1.200000000000e+00,7.521213203436e+00,1.393933982822e+00
106,1.200000000000e+00,2.521213203436e+00,1.606066017178e+00
107,1.200000000000e+00,5.030000000000e+00,1.150000000000e+00
108,1.200000000000e+00,7.521213203436e+00,6.060660171780e-01
109,-4.939339828220e-01,2.474544155877e+00,0.000000000000e+00
110,1.500000000000e-01,4.964000000000e+00,0.000000000000e+00
111,7.060660171780e-01,7.474544155877e+00,0.000000000000e+00
112,4.939339828220e-01,2.474544155877e+00,0.000000000000e+00
113,-1.500000000000e-01,4.964000000000e+00,0.000000000000e+00
114,-7.060660171780e-01,7.474544155877e+00,0.000000000000e+00
115,-4.939339828220e-01,2.474544155877e+00,2.000000000000e+00
116,1.500000000000e-01,4.964000000000e+00,2.000000000000e+00
117,7.060660171780e-01,7.474544155877e+00,2.000000000000e+00
118,4.939339828220e-01,2.474544155877e+00,2.000000000000e+00
119,-1.500000000000e-01,4.964000000000e+00,2.000000000000e+00
120,-7.060660171780e-01,7.474544155877e+00,2.000000000000e+00
121,-1.200000000000e+00,1.503000000000e+01,8.500000000000e-01
122,-1.200000000000e+00,1.503000000000e+01,1.150000000000e+00
123,1.200000000000e+00,1.503000000000e+01,8.500000000000e-01
124,1.200000000000e+00,1.503000000000e+01,1.150000000000e+00
125,1.500000000000e-01,1.496400000000e+01,0.000000000000e+00
126,-1.500000000000e-01,1.496400000000e+01,0.000000000000e+00
127,1.500000000000e-01,1.496400000000e+01,2.000000000000e+00
128,-1.500000000000e-01,1.496400000000e+01,2.000000000000e+00
129,-1.200000000000e+00,2.126148050297e+01,1.925974851452e-01
130,-1.200000000000e+00,2.252121320344e+01,3.939339828220e-01
131,-1.200000000000e+00,2.377771638598e+01,6.114180701233e-01
132,-1.200000000000e+00,2.503000000000e+01,8.500000000000e-01
133,-1.200000000000e+00,2.627771638598e+01,1.111418070123e+00
134,-1.200000000000e+00,2.752121320344e+01,1.393933982822e+00
135,-1.200000000000e+00,2.876148050297e+01,1.692597485145e+00
136,-1.200000000000e+00,2.126148050297e+01,1.807402514855e+00
137,-1.200000000000e+00,2.252121320344e+01,1.606066017178e+00
138,-1.200000000000e+00,2.377771638598e+01,1.388581929877e+00
139,-1.200000000000e+00,2.503000000000e+01,1.150000000000e+00
140,-1.200000000000e+00,2.627771638598e+01,8.885819298767e-01
141,-1.200000000000e+00,2.752121320344e+01,6.060660171780e-01
142,-1.200000000000e+00,2.876148050297e+01,3.074025148548e-01
143,1.200000000000e+00,2.126148050297e+01,1.925974851452e-01
144,1.200000000000e+00,2.252121320344e+01,3.939339828220e-01
145,1.200000000000e+00,2.377771638598e+01,6.114180701233e-01
146,1.200000000000e+00,2.503000000000e+01,8.500000000000e-01
147,1.200000000000e+00,2.627771638598e+01,1.111418070123e+00
148,1.200000000000e+00,2.752121320344e+01,1.393933982822e+00
149,1.200000000000e+00,2.876148050297e+01,1.692597485145e+00
150,1.200000000000e+00,2.126148050297e+01,1.807402514855e+00
151,1.200000000000e+00,2.252121320344e+01,1.606066017178e+00
152,1.200000000000e+00,2.377771638598e+01,1.388581929877e+00
153,1.200000000000e+00,2.503000000000e+01,1.150000000000e+00
154,1.200000000000e+00,2.627771638598e+01,8.885819298767e-01
155,1.200000000000e+00,2.752121320344e+01,6.060660171780e-01
156,1.200000000000e+00,2.876148050297e+01,3.074025148548e-01
157,-8.425974851452e-01,2.123622339643e+01,0.000000000000e+00
158,-4.939339828220e-01,2.247454415588e+01,0.000000000000e+00
159,-1.614180701233e-01,2.371674033683e+01,0.000000000000e+00
160,1.500000000000e-01,2.496400000000e+01,0.000000000000e+00
161,4.385819298767e-01,2.621674033683e+01,0.000000000000e+00
162,7.060660171780e-01,2.747454415588e+01,0.000000000000e+00
163,9.574025148548e-01,2.873622339643e+01,0.000000000000e+00
164,8.425974851452e-01,2.123622339643e+01,0.000000000000e+00
165,4.939339828220e-01,2.247454415588e+01,0.000000000000e+00
166,1.614180701233e-01,2.371674033683e+01,0.000000000000e+00
167,-1.500000000000e-01,2.496400000000e+01,0.000000000000e+00
168,-4.385819298767e-01,2.621674033683e+01,0.000000000000e+00
169,-7.060660171780e-01,2.747454415588e+01,0.000000000000e+00
170,-9.574025148548e-01,2.873622339643e+01,0.000000000000e+00
171,-8.425974851452e-01,2.123622339643e+01,2.000000000000e+00
172,-4.939339828220e-01,2.247454415588e+01,2.000000000000e+00
173,-1.614180701233e-01,2.371674033683e+01,2.000000000000e+00
174,1.500000000000e-01,2.496400000000e+01,2.000000000000e+00
175,4.385819298767e-01,2.621674033683e+01,2.000000000000e+00
176,7.060660171780e-01,2.747454415588e+01,2.000000000000e+00
177,9.574025148548e-01,2.873622339643e+01,2.000000000000e+00
178,8.425974851452e-01,2.123622339643e+01,2.000000000000e+00
179,4.939339828220e-01,2.247454415588e+01,2.000000000000e+00
180,1.614180701233e-01,2.371674033683e+01,2.000000000000e+00
181,-1.500000000000e-01,2.496400000000e+01,2.000000000000e+00
182,-4.385819298767e-01,2.621674033683e+01,2.000000000000e+00
183,-7.060660171780e-01,2.747454415588e+01,2.000000000000e+00
184,-9.574025148548e-01,2.873622339643e+01,2.000000000000e+00
185,-1.200000000000e+00,3.252121320344e+01,3.939339828220e-01
186,-1.200000000000e+00,3.503000000000e+01,8.500000000000e-01
187,-1.200000000000e+00,3.752121320344e+01,1.393933982822e+00
188,-1.200000000000e+00,3.252121320344e+01,1.606066017178e+00
189,-1.200000000000e+00,3.503000000000e+01,1.150000000000e+00
190,-1.200000000000e+00,3.752121320344e+01,6.060660171780e-01
191,1.200000000000e+00,3.252121320344e+01,3.939339828220e-01
192,1.200000000000e+00,3.503000000000e+01,8.500000000000e-01
193,1.200000000000e+00,3.752121320344e+01,1.393933982822e+00
194,1.200000000000e+00,3.252121320344e+01,1.606066017178e+00
195,1.200000000000e+00,3.503000000000e+01,1.150000000000e+00
196,1.200000000000e+00,3.752121320344e+01,6.060660171780e-01
197,-4.939339828220e-01,3.247454415588e+01,0.000000000000e+00
198,1.500000000000e-01,3.496400000000e+01,0.000000000000e+00
199,7.060660171780e-01,3.747454415588e+01,0.000000000000e+00
200,4.939339828220e-01,3.247454415588e+01,0.000000000000e+00
201,-1.500000000000e-01,3.496400000000e+01,0.000000000000e+00
202,-7.060660171780e-01,3.747454415588e+01,0.000000000000e+00
203,-4.939339828220e-01,3.247454415588e+01,2.000000000000e+00
204,1.500000000000e-01,3.496400000000e+01,2.000000000000e+00
205,7.060660171780e-01,3.747454415588e+01,2.000000000000e+00
206,4.939339828220e-01,3.247454415588e+01,2.000000000000e+00
207,-1.500000000000e-01,3.496400000000e+01,2.000000000000e+00
208,-7.060660171780e-01,3.747454415588e+01,2.000000000000e+00
209,-1.200000000000e+00,4.252121320344e+01,3.939339828220e-01
210,-1.200000000000e+00,4.503000000000e+01,8.500000000000e-01
211,-1.200000000000e+00,4.752121320344e+01,1.393933982822e+00
212,-1.200000000000e+00,4.252121320344e+01,1.606066017178e+00
213,-1.200000000000e+00,4.503000000000e+01,1.150000000000e+00
214,-1.200000000000e+00,4.752121320344e+01,6.060660171780e-01
215,1.200000000000e+00,4.252121320344e+01,3.939339828220e-01
216,1.200000000000e+00,4.503000000000e+01,8.500000000000e-01
217,1.200000000000e+00,4.752121320344e+01,1.393933982822e+00
218,1.200000000000e+00,4.252121320344e+01,1.606066017178e+00
219,1.200000000000e+00,4.503000000000e+01,1.150000000000e+00
220,1.200000000000e+00,4.752121320344e+01,6.060660171780e-01
221,-4.939339828220e-01,4.247454415588e+01,0.000000000000e+00
222,1.500000000000e-01,4.496400000000e+01,0.000000000000e+00
223,7.060660171780e-01,4.747454415588e+01,0.000000000000e+00
224,4.939339828220e-01,4.247454415588e+01,0.000000000000e+00
225,-1.500000000000e-01,4.496400000000e+01,0.000000000000e+00
226,-7.060660171780e-01,4.747454415588e+01,0.000000000000e+00
227,-4.939339828220e-01,4.247454415588e+01,2.000000000000e+00
228,1.500000000000e-01,4.496400000000e+01,2.000000000000e+00
229,7.060660171780e-01,4.747454415588e+01,2.000000000000e+00
230,4.939339828220e-01,4.247454415588e+01,2.000000000000e+00
231,-1.500000000000e-01,4.496400000000e+01,2.000000000000e+00
232,-7.060660171780e-01,4.747454415588e+01,2.000000000000e+00
*ELEMENT,TYPE=B31,ELSET=ALL
1,1,25
2,25,26
3,26,27
4,27,5
5,2,28
6,28,29
7,29,30
8,30,6
9,3,31
10,31,32
11,32,33
12,33,7
13,4,34
14,34,35
15,35,36
16,36,8
17,5,37
18,37,9
19,6,38
20,38,10
21,7,39
22,39,11
23,8,40
24,40,12
25,9,41
26,41,13
27,10,42
28,42,14
29,11,43
30,43,15
31,12,44
32,44,16
33,13,45
34,45,17
35,14,46
36,46,18
37,15,47
38,47,19
39,16,48
40,48,20
41,17,49
42,49,50
43,50,51
44,51,21
45,18,52
46,52,53
47,53,54
48,54,22
49,19,55
50,55,56
51,56,57
52,57,23
53,20,58
54,58,59
55,59,60
56,60,24
57,1,61
58,61,62
59,62,63
60,63,2
61,3,64
62,64,65
63,65,66
64,66,4
65,1,67
66,67,68
67,68,69
68,69,3
69,2,70
70,70,71
71,71,72
72,72,4
73,5,6
74,7,8
75,5,7
76,6,8
77,9,73
78,73,10
79,11,74
80,74,12
81,9,75
82,75,11
83,10,76
84,76,12
85,13,77
86,77,14
87,15,78
88,78,16
89,13,79
90,79,15
91,14,80
92,80,16
93,17,81
94,81,18
95,19,82
96,82,20
97,17,83
98,83,19
99,18,84
100,84,20
101,21,85
102,85,86
103,86,87
104,87,22
105,23,88
106,88,89
107,89,90
108,90,24
109,21,91
110,91,92
111,92,93
112,93,23
113,22,94
114,94,95
115,95,96
116,96,24
117,1,97
118,97,98
119,98,99
120,99,7
121,3,100
122,100,101
123,101,102
124,102,5
125,2,103
126,103,104
127,104,105
128,105,8
129,4,106
130,106,107
131,107,108
132,108,6
133,1,109
134,109,110
135,110,111
136,111,6
137,2,112
138,112,113
139,113,114
140,114,5
141,3,115
142,115,116
143,116,117
144,117,8
145,4,118
146,118,119
147,119,120
148,120,7
149,5,121
150,121,11
151,7,122
152,122,9
153,6,123
154,123,12
155,8,124
156,124,10
157,5,125
158,125,10
159,6,126
160,126,9
161,7,127
162,127,12
163,8,128
164,128,11
165,9,129
166,129,130
167,130,131
168,131,132
169,132,133
170,133,134
171,134,135
172,135,15
173,11,136
174,136,137
175,137,138
176,138,139
177,139,140
178,140,141
179,141,142
180,142,13
181,10,143
182,143,144
183,144,145
184,145,146
185,146,147
186,147,148
187,148,149
188,149,16
189,12,150
190,150,151
191,151,152
192,152,153
193,153,154
194,154,155
195,155,156
196,156,14
197,9,157
198,157,158
199,158,159
200,159,160
201,160,161
202,161,162
203,162,163
204,163,14
205,10,164
206,164,165
207,165,166
208,166,167
209,167,168
210,168,169
211,169,170
212,170,13
213,11,171
214,171,172
215,172,173
216,173,174
217,174,175
218,175,176
219,176,177
220,177,16
221,12,178
222,178,179
223,179,180
224,180,181
225,181,182
226,182,183
227,183,184
228,184,15
229,13,185
230,185,186
231,186,187
232,187,19
233,15,188
234,188,189
235,189,190
236,190,17
237,14,191
238,191,192
239,192,193
240,193,20
241,16,194
242,194,195
243,195,196
244,196,18
245,13,197
246,197,198
247,198,199
248,199,18
249,14,200
250,200,201
251,201,202
252,202,17
253,15,203
254,203,204
255,204,205
256,205,20
257,16,206
258,206,207
259,207,208
260,208,19
261,17,209
262,209,210
263,210,211
264,211,23
265,19,212
266,212,213
267,213,214
268,214,21
269,18,215
270,215,216
271,216,217
272,217,24
273,20,218
274,218,219
275,219,220
276,220,22
277,17,221
278,221,222
279,222,223
280,223,22
281,18,224
282,224,225
283,225,226
284,226,21
285,19,227
286,227,228
287,228,229
288,229,24
289,20,230
290,230,231
291,231,232
292,232,23
*NSET,NSET=NALL,GENERATE
1,232,1
*NSET,NSET=LEFT
1,2,3,4
*NSET,NSET=RIGHT
21,22,23,24
*MATERIAL,NAME=STEEL
*ELASTIC
2.100000000000e+11,0.300000000000
*BEAM SECTION,ELSET=ALL,MATERIAL=STEEL,SECTION=RECT
6.000000000000e-02,4.000000000000e-02
0.371390676354,0.557086014531,0.742781352708
*BOUNDARY
LEFT,1,6,0.0
*STEP
*STATIC
*BOUNDARY
21,1,1,5.000000000000e-03
21,2,2,0.0
21,3,3,-6.000000000000e-03
*BOUNDARY
22,1,1,5.000000000000e-03
22,2,2,0.0
22,3,3,6.000000000000e-03
*BOUNDARY
23,1,1,-5.000000000000e-03
23,2,2,0.0
23,3,3,-6.000000000000e-03
*BOUNDARY
24,1,1,-5.000000000000e-03
24,2,2,0.0
24,3,3,6.000000000000e-03
*NODE FILE,NSET=NALL
U
*NODE PRINT,NSET=NALL
U
*NODE PRINT,NSET=RIGHT
RF
*EL PRINT,ELSET=ALL,TOTALS=YES
ELSE
*END STEP
