*HEADING
Normalized cross-passage space-truss torsion benchmark
*NODE
1,-1.200000000000e+00,0.000000000000e+00,0.000000000000e+00
2,1.200000000000e+00,0.000000000000e+00,0.000000000000e+00
3,-1.200000000000e+00,0.000000000000e+00,2.000000000000e+00
4,1.200000000000e+00,0.000000000000e+00,2.000000000000e+00
5,-1.200000000000e+00,1.000000000000e+01,0.000000000000e+00
6,1.200000000000e+00,1.000000000000e+01,0.000000000000e+00
7,-1.200000000000e+00,1.000000000000e+01,2.000000000000e+00
8,1.200000000000e+00,1.000000000000e+01,2.000000000000e+00
9,-1.200000000000e+00,2.000000000000e+01,0.000000000000e+00
10,1.200000000000e+00,2.000000000000e+01,0.000000000000e+00
11,-1.200000000000e+00,2.000000000000e+01,2.000000000000e+00
12,1.200000000000e+00,2.000000000000e+01,2.000000000000e+00
13,-1.200000000000e+00,3.000000000000e+01,0.000000000000e+00
14,1.200000000000e+00,3.000000000000e+01,0.000000000000e+00
15,-1.200000000000e+00,3.000000000000e+01,2.000000000000e+00
16,1.200000000000e+00,3.000000000000e+01,2.000000000000e+00
17,-1.200000000000e+00,4.000000000000e+01,0.000000000000e+00
18,1.200000000000e+00,4.000000000000e+01,0.000000000000e+00
19,-1.200000000000e+00,4.000000000000e+01,2.000000000000e+00
20,1.200000000000e+00,4.000000000000e+01,2.000000000000e+00
21,-1.200000000000e+00,5.000000000000e+01,0.000000000000e+00
22,1.200000000000e+00,5.000000000000e+01,0.000000000000e+00
23,-1.200000000000e+00,5.000000000000e+01,2.000000000000e+00
24,1.200000000000e+00,5.000000000000e+01,2.000000000000e+00
25,-1.200000000000e+00,5.000000000000e+00,-1.500000000000e-01
26,1.200000000000e+00,5.000000000000e+00,1.500000000000e-01
27,-1.200000000000e+00,5.000000000000e+00,1.850000000000e+00
28,1.200000000000e+00,5.000000000000e+00,2.150000000000e+00
29,-1.200000000000e+00,2.250000000000e+01,-1.060660171780e-01
30,-1.200000000000e+00,2.500000000000e+01,-1.500000000000e-01
31,-1.200000000000e+00,2.750000000000e+01,-1.060660171780e-01
32,1.200000000000e+00,2.250000000000e+01,1.060660171780e-01
33,1.200000000000e+00,2.500000000000e+01,1.500000000000e-01
34,1.200000000000e+00,2.750000000000e+01,1.060660171780e-01
35,-1.200000000000e+00,2.250000000000e+01,1.893933982822e+00
36,-1.200000000000e+00,2.500000000000e+01,1.850000000000e+00
37,-1.200000000000e+00,2.750000000000e+01,1.893933982822e+00
38,1.200000000000e+00,2.250000000000e+01,2.106066017178e+00
39,1.200000000000e+00,2.500000000000e+01,2.150000000000e+00
40,1.200000000000e+00,2.750000000000e+01,2.106066017178e+00
41,-1.200000000000e+00,3.250000000000e+01,-1.060660171780e-01
42,-1.200000000000e+00,3.500000000000e+01,-1.500000000000e-01
43,-1.200000000000e+00,3.750000000000e+01,-1.060660171780e-01
44,1.200000000000e+00,3.250000000000e+01,1.060660171780e-01
45,1.200000000000e+00,3.500000000000e+01,1.500000000000e-01
46,1.200000000000e+00,3.750000000000e+01,1.060660171780e-01
47,-1.200000000000e+00,3.250000000000e+01,1.893933982822e+00
48,-1.200000000000e+00,3.500000000000e+01,1.850000000000e+00
49,-1.200000000000e+00,3.750000000000e+01,1.893933982822e+00
50,1.200000000000e+00,3.250000000000e+01,2.106066017178e+00
51,1.200000000000e+00,3.500000000000e+01,2.150000000000e+00
52,1.200000000000e+00,3.750000000000e+01,2.106066017178e+00
53,-1.200000000000e+00,4.250000000000e+01,-1.060660171780e-01
54,-1.200000000000e+00,4.500000000000e+01,-1.500000000000e-01
55,-1.200000000000e+00,4.750000000000e+01,-1.060660171780e-01
56,1.200000000000e+00,4.250000000000e+01,1.060660171780e-01
57,1.200000000000e+00,4.500000000000e+01,1.500000000000e-01
58,1.200000000000e+00,4.750000000000e+01,1.060660171780e-01
59,-1.200000000000e+00,4.250000000000e+01,1.893933982822e+00
60,-1.200000000000e+00,4.500000000000e+01,1.850000000000e+00
61,-1.200000000000e+00,4.750000000000e+01,1.893933982822e+00
62,1.200000000000e+00,4.250000000000e+01,2.106066017178e+00
63,1.200000000000e+00,4.500000000000e+01,2.150000000000e+00
64,1.200000000000e+00,4.750000000000e+01,2.106066017178e+00
65,0.000000000000e+00,-3.600000000000e-02,0.000000000000e+00
66,0.000000000000e+00,3.600000000000e-02,2.000000000000e+00
67,-1.200000000000e+00,3.000000000000e-02,1.000000000000e+00
68,1.200000000000e+00,-3.000000000000e-02,1.000000000000e+00
69,0.000000000000e+00,9.964000000000e+00,0.000000000000e+00
70,0.000000000000e+00,1.003600000000e+01,2.000000000000e+00
71,-1.200000000000e+00,1.003000000000e+01,1.000000000000e+00
72,1.200000000000e+00,9.970000000000e+00,1.000000000000e+00
73,0.000000000000e+00,1.996400000000e+01,0.000000000000e+00
74,0.000000000000e+00,2.003600000000e+01,2.000000000000e+00
75,-1.200000000000e+00,2.003000000000e+01,1.000000000000e+00
76,1.200000000000e+00,1.997000000000e+01,1.000000000000e+00
77,0.000000000000e+00,2.996400000000e+01,0.000000000000e+00
78,0.000000000000e+00,3.003600000000e+01,2.000000000000e+00
79,-1.200000000000e+00,3.003000000000e+01,1.000000000000e+00
80,1.200000000000e+00,2.997000000000e+01,1.000000000000e+00
81,-6.000000000000e-01,3.997454415588e+01,0.000000000000e+00
82,0.000000000000e+00,3.996400000000e+01,0.000000000000e+00
83,6.000000000000e-01,3.997454415588e+01,0.000000000000e+00
84,-6.000000000000e-01,4.002545584412e+01,2.000000000000e+00
85,0.000000000000e+00,4.003600000000e+01,2.000000000000e+00
86,6.000000000000e-01,4.002545584412e+01,2.000000000000e+00
87,-1.200000000000e+00,4.002121320344e+01,5.000000000000e-01
88,-1.200000000000e+00,4.003000000000e+01,1.000000000000e+00
89,-1.200000000000e+00,4.002121320344e+01,1.500000000000e+00
90,1.200000000000e+00,3.997878679656e+01,5.000000000000e-01
91,1.200000000000e+00,3.997000000000e+01,1.000000000000e+00
92,1.200000000000e+00,3.997878679656e+01,1.500000000000e+00
93,-9.000000000000e-01,4.998622339643e+01,0.000000000000e+00
94,-6.000000000000e-01,4.997454415588e+01,0.000000000000e+00
95,-3.000000000000e-01,4.996674033683e+01,0.000000000000e+00
96,0.000000000000e+00,4.996400000000e+01,0.000000000000e+00
97,3.000000000000e-01,4.996674033683e+01,0.000000000000e+00
98,6.000000000000e-01,4.997454415588e+01,0.000000000000e+00
99,9.000000000000e-01,4.998622339643e+01,0.000000000000e+00
100,-9.000000000000e-01,5.001377660357e+01,2.000000000000e+00
101,-6.000000000000e-01,5.002545584412e+01,2.000000000000e+00
102,-3.000000000000e-01,5.003325966317e+01,2.000000000000e+00
103,0.000000000000e+00,5.003600000000e+01,2.000000000000e+00
104,3.000000000000e-01,5.003325966317e+01,2.000000000000e+00
105,6.000000000000e-01,5.002545584412e+01,2.000000000000e+00
106,9.000000000000e-01,5.001377660357e+01,2.000000000000e+00
107,-1.200000000000e+00,5.001148050297e+01,2.500000000000e-01
108,-1.200000000000e+00,5.002121320344e+01,5.000000000000e-01
109,-1.200000000000e+00,5.002771638598e+01,7.500000000000e-01
110,-1.200000000000e+00,5.003000000000e+01,1.000000000000e+00
111,-1.200000000000e+00,5.002771638598e+01,1.250000000000e+00
112,-1.200000000000e+00,5.002121320344e+01,1.500000000000e+00
113,-1.200000000000e+00,5.001148050297e+01,1.750000000000e+00
114,1.200000000000e+00,4.998851949703e+01,2.500000000000e-01
115,1.200000000000e+00,4.997878679656e+01,5.000000000000e-01
116,1.200000000000e+00,4.997228361402e+01,7.500000000000e-01
117,1.200000000000e+00,4.997000000000e+01,1.000000000000e+00
118,1.200000000000e+00,4.997228361402e+01,1.250000000000e+00
119,1.200000000000e+00,4.997878679656e+01,1.500000000000e+00
120,1.200000000000e+00,4.998851949703e+01,1.750000000000e+00
121,-1.200000000000e+00,5.030000000000e+00,8.500000000000e-01
122,-1.200000000000e+00,5.030000000000e+00,1.150000000000e+00
123,1.200000000000e+00,5.030000000000e+00,8.500000000000e-01
124,1.200000000000e+00,5.030000000000e+00,1.150000000000e+00
125,1.500000000000e-01,4.964000000000e+00,0.000000000000e+00
126,-1.500000000000e-01,4.964000000000e+00,0.000000000000e+00
127,1.500000000000e-01,4.964000000000e+00,2.000000000000e+00
128,-1.500000000000e-01,4.964000000000e+00,2.000000000000e+00
129,-1.200000000000e+00,1.503000000000e+01,8.500000000000e-01
130,-1.200000000000e+00,1.503000000000e+01,1.150000000000e+00
131,1.200000000000e+00,1.503000000000e+01,8.500000000000e-01
132,1.200000000000e+00,1.503000000000e+01,1.150000000000e+00
133,1.500000000000e-01,1.496400000000e+01,0.000000000000e+00
134,-1.500000000000e-01,1.496400000000e+01,0.000000000000e+00
135,1.500000000000e-01,1.496400000000e+01,2.000000000000e+00
136,-1.500000000000e-01,1.496400000000e+01,2.000000000000e+00
137,-1.200000000000e+00,2.503000000000e+01,8.500000000000e-01
138,-1.200000000000e+00,2.503000000000e+01,1.150000000000e+00
139,1.200000000000e+00,2.503000000000e+01,8.500000000000e-01
140,1.200000000000e+00,2.503000000000e+01,1.150000000000e+00
141,1.500000000000e-01,2.496400000000e+01,0.000000000000e+00
142,-1.500000000000e-01,2.496400000000e+01,0.000000000000e+00
143,1.500000000000e-01,2.496400000000e+01,2.000000000000e+00
144,-1.500000000000e-01,2.496400000000e+01,2.000000000000e+00
145,-1.200000000000e+00,3.503000000000e+01,8.500000000000e-01
146,-1.200000000000e+00,3.503000000000e+01,1.150000000000e+00
147,1.200000000000e+00,3.503000000000e+01,8.500000000000e-01
148,1.200000000000e+00,3.503000000000e+01,1.150000000000e+00
149,1.500000000000e-01,3.496400000000e+01,0.000000000000e+00
150,-1.500000000000e-01,3.496400000000e+01,0.000000000000e+00
151,1.500000000000e-01,3.496400000000e+01,2.000000000000e+00
152,-1.500000000000e-01,3.496400000000e+01,2.000000000000e+00
153,-1.200000000000e+00,4.126148050297e+01,1.925974851452e-01
154,-1.200000000000e+00,4.252121320344e+01,3.939339828220e-01
155,-1.200000000000e+00,4.377771638598e+01,6.114180701233e-01
156,-1.200000000000e+00,4.503000000000e+01,8.500000000000e-01
157,-1.200000000000e+00,4.627771638598e+01,1.111418070123e+00
158,-1.200000000000e+00,4.752121320344e+01,1.393933982822e+00
159,-1.200000000000e+00,4.876148050297e+01,1.692597485145e+00
160,-1.200000000000e+00,4.126148050297e+01,1.807402514855e+00
161,-1.200000000000e+00,4.252121320344e+01,1.606066017178e+00
162,-1.200000000000e+00,4.377771638598e+01,1.388581929877e+00
163,-1.200000000000e+00,4.503000000000e+01,1.150000000000e+00
164,-1.200000000000e+00,4.627771638598e+01,8.885819298767e-01
165,-1.200000000000e+00,4.752121320344e+01,6.060660171780e-01
166,-1.200000000000e+00,4.876148050297e+01,3.074025148548e-01
167,1.200000000000e+00,4.126148050297e+01,1.925974851452e-01
168,1.200000000000e+00,4.252121320344e+01,3.939339828220e-01
169,1.200000000000e+00,4.377771638598e+01,6.114180701233e-01
170,1.200000000000e+00,4.503000000000e+01,8.500000000000e-01
171,1.200000000000e+00,4.627771638598e+01,1.111418070123e+00
172,1.200000000000e+00,4.752121320344e+01,1.393933982822e+00
173,1.200000000000e+00,4.876148050297e+01,1.692597485145e+00
174,1.200000000000e+00,4.126148050297e+01,1.807402514855e+00
175,1.200000000000e+00,4.252121320344e+01,1.606066017178e+00
176,1.200000000000e+00,4.377771638598e+01,1.388581929877e+00
177,1.200000000000e+00,4.503000000000e+01,1.150000000000e+00
178,1.200000000000e+00,4.627771638598e+01,8.885819298767e-01
179,1.200000000000e+00,4.752121320344e+01,6.060660171780e-01
180,1.200000000000e+00,4.876148050297e+01,3.074025148548e-01
181,-8.425974851452e-01,4.123622339643e+01,0.000000000000e+00
182,-4.939339828220e-01,4.247454415588e+01,0.000000000000e+00
183,-1.614180701233e-01,4.371674033683e+01,0.000000000000e+00
184,1.500000000000e-01,4.496400000000e+01,0.000000000000e+00
185,4.385819298767e-01,4.621674033683e+01,0.000000000000e+00
186,7.060660171780e-01,4.747454415588e+01,0.000000000000e+00
187,9.574025148548e-01,4.873622339643e+01,0.000000000000e+00
188,8.425974851452e-01,4.123622339643e+01,0.000000000000e+00
189,4.939339828220e-01,4.247454415588e+01,0.000000000000e+00
190,1.614180701233e-01,4.371674033683e+01,0.000000000000e+00
191,-1.500000000000e-01,4.496400000000e+01,0.000000000000e+00
192,-4.385819298767e-01,4.621674033683e+01,0.000000000000e+00
193,-7.060660171780e-01,4.747454415588e+01,0.000000000000e+00
194,-9.574025148548e-01,4.873622339643e+01,0.000000000000e+00
195,-8.425974851452e-01,4.123622339643e+01,2.000000000000e+00
196,-4.939339828220e-01,4.247454415588e+01,2.000000000000e+00
197,-1.614180701233e-01,4.371674033683e+01,2.000000000000e+00
198,1.500000000000e-01,4.496400000000e+01,2.000000000000e+00
199,4.385819298767e-01,4.621674033683e+01,2.000000000000e+00
200,7.060660171780e-01,4.747454415588e+01,2.000000000000e+00
201,9.574025148548e-01,4.873622339643e+01,2.000000000000e+00
202,8.425974851452e-01,4.123622339643e+01,2.000000000000e+00
203,4.939339828220e-01,4.247454415588e+01,2.000000000000e+00
204,1.614180701233e-01,4.371674033683e+01,2.000000000000e+00
205,-1.500000000000e-01,4.496400000000e+01,2.000000000000e+00
206,-4.385819298767e-01,4.621674033683e+01,2.000000000000e+00
207,-7.060660171780e-01,4.747454415588e+01,2.000000000000e+00
208,-9.574025148548e-01,4.873622339643e+01,2.000000000000e+00
*ELEMENT,TYPE=B31,ELSET=ALL
1,1,25
2,25,5
3,2,26
4,26,6
5,3,27
6,27,7
7,4,28
8,28,8
9,5,9
10,6,10
11,7,11
12,8,12
13,9,29
14,29,30
15,30,31
16,31,13
17,10,32
18,32,33
19,33,34
20,34,14
21,11,35
22,35,36
23,36,37
24,37,15
25,12,38
26,38,39
27,39,40
28,40,16
29,13,41
30,41,42
31,42,43
32,43,17
33,14,44
34,44,45
35,45,46
36,46,18
37,15,47
38,47,48
39,48,49
40,49,19
41,16,50
42,50,51
43,51,52
44,52,20
45,17,53
46,53,54
47,54,55
48,55,21
49,18,56
50,56,57
51,57,58
52,58,22
53,19,59
54,59,60
55,60,61
56,61,23
57,20,62
58,62,63
59,63,64
60,64,24
61,1,65
62,65,2
63,3,66
64,66,4
65,1,67
66,67,3
67,2,68
68,68,4
69,5,69
70,69,6
71,7,70
72,70,8
73,5,71
74,71,7
75,6,72
76,72,8
77,9,73
78,73,10
79,11,74
80,74,12
81,9,75
82,75,11
83,10,76
84,76,12
85,13,77
86,77,14
87,15,78
88,78,16
89,13,79
90,79,15
91,14,80
92,80,16
93,17,81
94,81,82
95,82,83
96,83,18
97,19,84
98,84,85
99,85,86
100,86,20
101,17,87
102,87,88
103,88,89
104,89,19
105,18,90
106,90,91
107,91,92
108,92,20
109,21,93
110,93,94
111,94,95
112,95,96
113,96,97
114,97,98
115,98,99
116,99,22
117,23,100
118,100,101
119,101,102
120,102,103
121,103,104
122,104,105
123,105,106
124,106,24
125,21,107
126,107,108
127,108,109
128,109,110
129,110,111
130,111,112
131,112,113
132,113,23
133,22,114
134,114,115
135,115,116
136,116,117
137,117,118
138,118,119
139,119,120
140,120,24
141,1,121
142,121,7
143,3,122
144,122,5
145,2,123
146,123,8
147,4,124
148,124,6
149,1,125
150,125,6
151,2,126
152,126,5
153,3,127
154,127,8
155,4,128
156,128,7
157,5,129
158,129,11
159,7,130
160,130,9
161,6,131
162,131,12
163,8,132
164,132,10
165,5,133
166,133,10
167,6,134
168,134,9
169,7,135
170,135,12
171,8,136
172,136,11
173,9,137
174,137,15
175,11,138
176,138,13
177,10,139
178,139,16
179,12,140
180,140,14
181,9,141
182,141,14
183,10,142
184,142,13
185,11,143
186,143,16
187,12,144
188,144,15
189,13,145
190,145,19
191,15,146
192,146,17
193,14,147
194,147,20
195,16,148
196,148,18
197,13,149
198,149,18
199,14,150
200,150,17
201,15,151
202,151,20
203,16,152
204,152,19
205,17,153
206,153,154
207,154,155
208,155,156
209,156,157
210,157,158
211,158,159
212,159,23
213,19,160
214,160,161
215,161,162
216,162,163
217,163,164
218,164,165
219,165,166
220,166,21
221,18,167
222,167,168
223,168,169
224,169,170
225,170,171
226,171,172
227,172,173
228,173,24
229,20,174
230,174,175
231,175,176
232,176,177
233,177,178
234,178,179
235,179,180
236,180,22
237,17,181
238,181,182
239,182,183
240,183,184
241,184,185
242,185,186
243,186,187
244,187,22
245,18,188
246,188,189
247,189,190
248,190,191
249,191,192
250,192,193
251,193,194
252,194,21
253,19,195
254,195,196
255,196,197
256,197,198
257,198,199
258,199,200
259,200,201
260,201,24
261,20,202
262,202,203
263,203,204
264,204,205
265,205,206
266,206,207
267,207,208
268,208,23
*NSET,NSET=NALL,GENERATE
1,208,1
*NSET,NSET=LEFT
1,2,3,4
*NSET,NSET=RIGHT
21,22,23,24
*MATERIAL,NAME=STEEL
*ELASTIC
2.100000000000e+11,0.300000000000
*BEAM SECTION,ELSET=ALL,MATERIAL=STEEL,SECTION=RECT
6.000000000000e-02,4.000000000000e-02
0.371390676354,0.557086014531,0.742781352708
*BOUNDARY
LEFT,1,6,0.0
*STEP
*STATIC
*BOUNDARY
21,1,1,5.000000000000e-03
21,2,2,0.0
21,3,3,-6.000000000000e-03
*BOUNDARY
22,1,1,5.000000000000e-03
22,2,2,0.0
22,3,3,6.000000000000e-03
*BOUNDARY
23,1,1,-5.000000000000e-03
23,2,2,0.0
23,3,3,-6.000000000000e-03
*BOUNDARY
24,1,1,-5.000000000000e-03
24,2,2,0.0
24,3,3,6.000000000000e-03
*NODE FILE,NSET=NALL
U
*NODE PRINT,NSET=NALL
U
*NODE PRINT,NSET=RIGHT
RF
*EL PRINT,ELSET=ALL,TOTALS=YES
ELSE
*END STEP
