*HEADING
Normalized cross-passage space-truss torsion benchmark
*NODE
1,-1.200000000000e+00,0.000000000000e+00,0.000000000000e+00
2,1.200000000000e+00,0.000000000000e+00,0.000000000000e+00
3,-1.200000000000e+00,0.000000000000e+00,2.000000000000e+00
4,1.200000000000e+00,0.000000000000e+00,2.000000000000e+00
5,-1.200000000000e+00,1.000000000000e+01,0.000000000000e+00
6,1.200000000000e+00,1.000000000000e+01,0.000000000000e+00
7,-1.200000000000e+00,1.000000000000e+01,2.000000000000e+00
8,1.200000000000e+00,1.000000000000e+01,2.000000000000e+00
9,-1.200000000000e+00,2.000000000000e+01,0.000000000000e+00
10,1.200000000000e+00,2.000000000000e+01,0.000000000000e+00
11,-1.200000000000e+00,2.000000000000e+01,2.000000000000e+00
12,1.200000000000e+00,2.000000000000e+01,2.000000000000e+00
13,-1.200000000000e+00,3.000000000000e+01,0.000000000000e+00
14,1.200000000000e+00,3.000000000000e+01,0.000000000000e+00
15,-1.200000000000e+00,3.000000000000e+01,2.000000000000e+00
16,1.200000000000e+00,3.000000000000e+01,2.000000000000e+00
17,-1.200000000000e+00,4.000000000000e+01,0.000000000000e+00
18,1.200000000000e+00,4.000000000000e+01,0.000000000000e+00
19,-1.200000000000e+00,4.000000000000e+01,2.000000000000e+00
20,1.200000000000e+00,4.000000000000e+01,2.000000000000e+00
21,-1.200000000000e+00,5.000000000000e+01,0.000000000000e+00
22,1.200000000000e+00,5.000000000000e+01,0.000000000000e+00
23,-1.200000000000e+00,5.000000000000e+01,2.000000000000e+00
24,1.200000000000e+00,5.000000000000e+01,2.000000000000e+00
25,-1.200000000000e+00,1.250000000000e+00,-5.740251485476e-02
26,-1.200000000000e+00,2.500000000000e+00,-1.060660171780e-01
27,-1.200000000000e+00,3.750000000000e+00,-1.385819298767e-01
28,-1.200000000000e+00,5.000000000000e+00,-1.500000000000e-01
29,-1.200000000000e+00,6.250000000000e+00,-1.385819298767e-01
30,-1.200000000000e+00,7.500000000000e+00,-1.060660171780e-01
31,-1.200000000000e+00,8.750000000000e+00,-5.740251485476e-02
32,1.200000000000e+00,1.250000000000e+00,5.740251485476e-02
33,1.200000000000e+00,2.500000000000e+00,1.060660171780e-01
34,1.200000000000e+00,3.750000000000e+00,1.385819298767e-01
35,1.200000000000e+00,5.000000000000e+00,1.500000000000e-01
36,1.200000000000e+00,6.250000000000e+00,1.385819298767e-01
37,1.200000000000e+00,7.500000000000e+00,1.060660171780e-01
38,1.200000000000e+00,8.750000000000e+00,5.740251485476e-02
39,-1.200000000000e+00,1.250000000000e+00,1.942597485145e+00
40,-1.200000000000e+00,2.500000000000e+00,1.893933982822e+00
41,-1.200000000000e+00,3.750000000000e+00,1.861418070123e+00
42,-1.200000000000e+00,5.000000000000e+00,1.850000000000e+00
43,-1.200000000000e+00,6.250000000000e+00,1.861418070123e+00
44,-1.200000000000e+00,7.500000000000e+00,1.893933982822e+00
45,-1.200000000000e+00,8.750000000000e+00,1.942597485145e+00
46,1.200000000000e+00,1.250000000000e+00,2.057402514855e+00
47,1.200000000000e+00,2.500000000000e+00,2.106066017178e+00
48,1.200000000000e+00,3.750000000000e+00,2.138581929877e+00
49,1.200000000000e+00,5.000000000000e+00,2.150000000000e+00
50,1.200000000000e+00,6.250000000000e+00,2.138581929877e+00
51,1.200000000000e+00,7.500000000000e+00,2.106066017178e+00
52,1.200000000000e+00,8.750000000000e+00,2.057402514855e+00
53,-1.200000000000e+00,3.500000000000e+01,-1.500000000000e-01
54,1.200000000000e+00,3.500000000000e+01,1.500000000000e-01
55,-1.200000000000e+00,3.500000000000e+01,1.850000000000e+00
56,1.200000000000e+00,3.500000000000e+01,2.150000000000e+00
57,-1.200000000000e+00,4.250000000000e+01,-1.060660171780e-01
58,-1.200000000000e+00,4.500000000000e+01,-1.500000000000e-01
59,-1.200000000000e+00,4.750000000000e+01,-1.060660171780e-01
60,1.200000000000e+00,4.250000000000e+01,1.060660171780e-01
61,1.200000000000e+00,4.500000000000e+01,1.500000000000e-01
62,1.200000000000e+00,4.750000000000e+01,1.060660171780e-01
63,-1.200000000000e+00,4.250000000000e+01,1.893933982822e+00
64,-1.200000000000e+00,4.500000000000e+01,1.850000000000e+00
65,-1.200000000000e+00,4.750000000000e+01,1.893933982822e+00
66,1.200000000000e+00,4.250000000000e+01,2.106066017178e+00
67,1.200000000000e+00,4.500000000000e+01,2.150000000000e+00
68,1.200000000000e+00,4.750000000000e+01,2.106066017178e+00
69,-6.000000000000e-01,-2.545584412272e-02,0.000000000000e+00
70,0.000000000000e+00,-3.600000000000e-02,0.000000000000e+00
71,6.000000000000e-01,-2.545584412272e-02,0.000000000000e+00
72,-6.000000000000e-01,2.545584412272e-02,2.000000000000e+00
73,0.000000000000e+00,3.600000000000e-02,2.000000000000e+00
74,6.000000000000e-01,2.545584412272e-02,2.000000000000e+00
75,-1.200000000000e+00,2.121320343560e-02,5.000000000000e-01
76,-1.200000000000e+00,3.000000000000e-02,1.000000000000e+00
77,-1.200000000000e+00,2.121320343560e-02,1.500000000000e+00
78,1.200000000000e+00,-2.121320343560e-02,5.000000000000e-01
79,1.200000000000e+00,-3.000000000000e-02,1.000000000000e+00
80,1.200000000000e+00,-2.121320343560e-02,1.500000000000e+00
81,-6.000000000000e-01,9.974544155877e+00,0.000000000000e+00
82,0.000000000000e+00,9.964000000000e+00,0.000000000000e+00
83,6.000000000000e-01,9.974544155877e+00,0.000000000000e+00
84,-6.000000000000e-01,1.002545584412e+01,2.000000000000e+00
85,0.000000000000e+00,1.003600000000e+01,2.000000000000e+00
86,6.000000000000e-01,1.002545584412e+01,2.000000000000e+00
87,-1.200000000000e+00,1.002121320344e+01,5.000000000000e-01
88,-1.200000000000e+00,1.003000000000e+01,1.000000000000e+00
89,-1.200000000000e+00,1.002121320344e+01,1.500000000000e+00
90,1.200000000000e+00,9.978786796564e+00,5.000000000000e-01
91,1.200000000000e+00,9.970000000000e+00,1.000000000000e+00
92,1.200000000000e+00,9.978786796564e+00,1.500000000000e+00
93,0.000000000000e+00,2.996400000000e+01,0.000000000000e+00
94,0.000000000000e+00,3.003600000000e+01,2.000000000000e+00
95,-1.200000000000e+00,3.003000000000e+01,1.000000000000e+00
96,1.200000000000e+00,2.997000000000e+01,1.000000000000e+00
97,-6.000000000000e-01,3.997454415588e+01,0.000000000000e+00
98,0.000000000000e+00,3.996400000000e+01,0.000000000000e+00
99,6.000000000000e-01,3.997454415588e+01,0.000000000000e+00
100,-6.000000000000e-01,4.002545584412e+01,2.000000000000e+00
101,0.000000000000e+00,4.003600000000e+01,2.000000000000e+00
102,6.000000000000e-01,4.002545584412e+01,2.000000000000e+00
103,-1.200000000000e+00,4.002121320344e+01,5.000000000000e-01
104,-1.200000000000e+00,4.003000000000e+01,1.000000000000e+00
105,-1.200000000000e+00,4.002121320344e+01,1.500000000000e+00
106,1.200000000000e+00,3.997878679656e+01,5.000000000000e-01
107,1.200000000000e+00,3.997000000000e+01,1.000000000000e+00
108,1.200000000000e+00,3.997878679656e+01,1.500000000000e+00
109,-6.000000000000e-01,4.997454415588e+01,0.000000000000e+00
110,0.000000000000e+00,4.996400000000e+01,0.000000000000e+00
111,6.000000000000e-01,4.997454415588e+01,0.000000000000e+00
112,-6.000000000000e-01,5.002545584412e+01,2.000000000000e+00
113,0.000000000000e+00,5.003600000000e+01,2.000000000000e+00
114,6.000000000000e-01,5.002545584412e+01,2.000000000000e+00
115,-1.200000000000e+00,5.002121320344e+01,5.000000000000e-01
116,-1.200000000000e+00,5.003000000000e+01,1.000000000000e+00
117,-1.200000000000e+00,5.002121320344e+01,1.500000000000e+00
118,1.200000000000e+00,4.997878679656e+01,5.000000000000e-01
119,1.200000000000e+00,4.997000000000e+01,1.000000000000e+00
120,1.200000000000e+00,4.997878679656e+01,1.500000000000e+00
121,-1.200000000000e+00,2.521213203436e+00,3.939339828220e-01
122,-1.200000000000e+00,5.030000000000e+00,8.500000000000e-01
123,-1.200000000000e+00,7.521213203436e+00,1.393933982822e+00
124,-1.200000000000e+00,2.521213203436e+00,1.606066017178e+00
125,-1.200000000000e+00,5.030000000000e+00,1.150000000000e+00
126,-1.200000000000e+00,7.521213203436e+00,6.060660171780e-01
127,1.200000000000e+00,2.521213203436e+00,3.939339828220e-01
128,1.200000000000e+00,5.030000000000e+00,8.500000000000e-01
129,1.200000000000e+00,7.521213203436e+00,1.393933982822e+00
130,1.200000000000e+00,2.521213203436e+00,1.606066017178e+00
131,1.200000000000e+00,5.030000000000e+00,1.150000000000e+00
132,1.200000000000e+00,7.521213203436e+00,6.060660171780e-01
133,-4.939339828220e-01,2.474544155877e+00,0.000000000000e+00
134,1.500000000000e-01,4.964000000000e+00,0.000000000000e+00
135,7.060660171780e-01,7.474544155877e+00,0.000000000000e+00
136,4.939339828220e-01,2.474544155877e+00,0.000000000000e+00
137,-1.500000000000e-01,4.964000000000e+00,0.000000000000e+00
138,-7.060660171780e-01,7.474544155877e+00,0.000000000000e+00
139,-4.939339828220e-01,2.474544155877e+00,2.000000000000e+00
140,1.500000000000e-01,4.964000000000e+00,2.000000000000e+00
141,7.060660171780e-01,7.474544155877e+00,2.000000000000e+00
142,4.939339828220e-01,2.474544155877e+00,2.000000000000e+00
143,-1.500000000000e-01,4.964000000000e+00,2.000000000000e+00
144,-7.060660171780e-01,7.474544155877e+00,2.000000000000e+00
145,-1.200000000000e+00,1.252121320344e+01,3.939339828220e-01
146,-1.200000000000e+00,1.503000000000e+01,8.500000000000e-01
147,-1.200000000000e+00,1.752121320344e+01,1.393933982822e+00
148,-1.200000000000e+00,1.252121320344e+01,1.606066017178e+00
149,-1.200000000000e+00,1.503000000000e+01,1.150000000000e+00
150,-1.200000000000e+00,1.752121320344e+01,6.060660171780e-01
151,1.200000000000e+00,1.252121320344e+01,3.939339828220e-01
152,1.200000000000e+00,1.503000000000e+01,8.500000000000e-01
153,1.200000000000e+00,1.752121320344e+01,1.393933982822e+00
154,1.200000000000e+00,1.252121320344e+01,1.606066017178e+00
155,1.200000000000e+00,1.503000000000e+01,1.150000000000e+00
156,1.200000000000e+00,1.752121320344e+01,6.060660171780e-01
157,-4.939339828220e-01,1.247454415588e+01,0.000000000000e+00
158,1.500000000000e-01,1.496400000000e+01,0.000000000000e+00
159,7.060660171780e-01,1.747454415588e+01,0.000000000000e+00
160,4.939339828220e-01,1.247454415588e+01,0.000000000000e+00
161,-1.500000000000e-01,1.496400000000e+01,0.000000000000e+00
162,-7.060660171780e-01,1.747454415588e+01,0.000000000000e+00
163,-4.939339828220e-01,1.247454415588e+01,2.000000000000e+00
164,1.500000000000e-01,1.496400000000e+01,2.000000000000e+00
165,7.060660171780e-01,1.747454415588e+01,2.000000000000e+00
166,4.939339828220e-01,1.247454415588e+01,2.000000000000e+00
167,-1.500000000000e-01,1.496400000000e+01,2.000000000000e+00
168,-7.060660171780e-01,1.747454415588e+01,2.000000000000e+00
169,-1.200000000000e+00,2.252121320344e+01,3.939339828220e-01
170,-1.200000000000e+00,2.503000000000e+01,8.500000000000e-01
171,-1.200000000000e+00,2.752121320344e+01,1.393933982822e+00
172,-1.200000000000e+00,2.252121320344e+01,1.606066017178e+00
173,-1.200000000000e+00,2.503000000000e+01,1.150000000000e+00
174,-1.200000000000e+00,2.752121320344e+01,6.060660171780e-01
175,1.200000000000e+00,2.252121320344e+01,3.939339828220e-01
176,1.200000000000e+00,2.503000000000e+01,8.500000000000e-01
177,1.200000000000e+00,2.752121320344e+01,1.393933982822e+00
178,1.200000000000e+00,2.252121320344e+01,1.606066017178e+00
179,1.200000000000e+00,2.503000000000e+01,1.150000000000e+00
180,1.200000000000e+00,2.752121320344e+01,6.060660171780e-01
181,-4.939339828220e-01,2.247454415588e+01,0.000000000000e+00
182,1.500000000000e-01,2.496400000000e+01,0.000000000000e+00
183,7.060660171780e-01,2.747454415588e+01,0.000000000000e+00
184,4.939339828220e-01,2.247454415588e+01,0.000000000000e+00
185,-1.500000000000e-01,2.496400000000e+01,0.000000000000e+00
186,-7.060660171780e-01,2.747454415588e+01,0.000000000000e+00
187,-4.939339828220e-01,2.247454415588e+01,2.000000000000e+00
188,1.500000000000e-01,2.496400000000e+01,2.000000000000e+00
189,7.060660171780e-01,2.747454415588e+01,2.000000000000e+00
190,4.939339828220e-01,2.247454415588e+01,2.000000000000e+00
191,-1.500000000000e-01,2.496400000000e+01,2.000000000000e+00
192,-7.060660171780e-01,2.747454415588e+01,2.000000000000e+00
193,-1.200000000000e+00,3.252121320344e+01,3.939339828220e-01
194,-1.200000000000e+00,3.503000000000e+01,8.500000000000e-01
195,-1.200000000000e+00,3.752121320344e+01,1.393933982822e+00
196,-1.200000000000e+00,3.252121320344e+01,1.606066017178e+00
197,-1.200000000000e+00,3.503000000000e+01,1.150000000000e+00
198,-1.200000000000e+00,3.752121320344e+01,6.060660171780e-01
199,1.200000000000e+00,3.252121320344e+01,3.939339828220e-01
200,1.200000000000e+00,3.503000000000e+01,8.500000000000e-01
201,1.200000000000e+00,3.752121320344e+01,1.393933982822e+00
202,1.200000000000e+00,3.252121320344e+01,1.606066017178e+00
203,1.200000000000e+00,3.503000000000e+01,1.150000000000e+00
204,1.200000000000e+00,3.752121320344e+01,6.060660171780e-01
205,-4.939339828220e-01,3.247454415588e+01,0.000000000000e+00
206,1.500000000000e-01,3.496400000000e+01,0.000000000000e+00
207,7.060660171780e-01,3.747454415588e+01,0.000000000000e+00
208,4.939339828220e-01,3.247454415588e+01,0.000000000000e+00
209,-1.500000000000e-01,3.496400000000e+01,0.000000000000e+00
210,-7.060660171780e-01,3.747454415588e+01,0.000000000000e+00
211,-4.939339828220e-01,3.247454415588e+01,2.000000000000e+00
212,1.500000000000e-01,3.496400000000e+01,2.000000000000e+00
213,7.060660171780e-01,3.747454415588e+01,2.000000000000e+00
214,4.939339828220e-01,3.247454415588e+01,2.000000000000e+00
215,-1.500000000000e-01,3.496400000000e+01,2.000000000000e+00
216,-7.060660171780e-01,3.747454415588e+01,2.000000000000e+00
217,-1.200000000000e+00,4.126148050297e+01,1.925974851452e-01
218,-1.200000000000e+00,4.252121320344e+01,3.939339828220e-01
219,-1.200000000000e+00,4.377771638598e+01,6.114180701233e-01
220,-1.200000000000e+00,4.503000000000e+01,8.500000000000e-01
221,-1.200000000000e+00,4.627771638598e+01,1.111418070123e+00
222,-1.200000000000e+00,4.752121320344e+01,1.393933982822e+00
223,-1.200000000000e+00,4.876148050297e+01,1.692597485145e+00
224,-1.200000000000e+00,4.126148050297e+01,1.807402514855e+00
225,-1.200000000000e+00,4.252121320344e+01,1.606066017178e+00
226,-1.200000000000e+00,4.377771638598e+01,1.388581929877e+00
227,-1.200000000000e+00,4.503000000000e+01,1.150000000000e+00
228,-1.200000000000e+00,4.627771638598e+01,8.885819298767e-01
229,-1.200000000000e+00,4.752121320344e+01,6.060660171780e-01
230,-1.200000000000e+00,4.876148050297e+01,3.074025148548e-01
231,1.200000000000e+00,4.126148050297e+01,1.925974851452e-01
232,1.200000000000e+00,4.252121320344e+01,3.939339828220e-01
233,1.200000000000e+00,4.377771638598e+01,6.114180701233e-01
234,1.200000000000e+00,4.503000000000e+01,8.500000000000e-01
235,1.200000000000e+00,4.627771638598e+01,1.111418070123e+00
236,1.200000000000e+00,4.752121320344e+01,1.393933982822e+00
237,1.200000000000e+00,4.876148050297e+01,1.692597485145e+00
238,1.200000000000e+00,4.126148050297e+01,1.807402514855e+00
239,1.200000000000e+00,4.252121320344e+01,1.606066017178e+00
240,1.200000000000e+00,4.377771638598e+01,1.388581929877e+00
241,1.200000000000e+00,4.503000000000e+01,1.150000000000e+00
242,1.200000000000e+00,4.627771638598e+01,8.885819298767e-01
243,1.200000000000e+00,4.752121320344e+01,6.060660171780e-01
244,1.200000000000e+00,4.876148050297e+01,3.074025148548e-01
245,-8.425974851452e-01,4.123622339643e+01,0.000000000000e+00
246,-4.939339828220e-01,4.247454415588e+01,0.000000000000e+00
247,-1.614180701233e-01,4.371674033683e+01,0.000000000000e+00
248,1.500000000000e-01,4.496400000000e+01,0.000000000000e+00
249,4.385819298767e-01,4.621674033683e+01,0.000000000000e+00
250,7.060660171780e-01,4.747454415588e+01,0.000000000000e+00
251,9.574025148548e-01,4.873622339643e+01,0.000000000000e+00
252,8.425974851452e-01,4.123622339643e+01,0.000000000000e+00
253,4.939339828220e-01,4.247454415588e+01,0.000000000000e+00
254,1.614180701233e-01,4.371674033683e+01,0.000000000000e+00
255,-1.500000000000e-01,4.496400000000e+01,0.000000000000e+00
256,-4.385819298767e-01,4.621674033683e+01,0.000000000000e+00
257,-7.060660171780e-01,4.747454415588e+01,0.000000000000e+00
258,-9.574025148548e-01,4.873622339643e+01,0.000000000000e+00
259,-8.425974851452e-01,4.123622339643e+01,2.000000000000e+00
260,-4.939339828220e-01,4.247454415588e+01,2.000000000000e+00
261,-1.614180701233e-01,4.371674033683e+01,2.000000000000e+00
262,1.500000000000e-01,4.496400000000e+01,2.000000000000e+00
263,4.385819298767e-01,4.621674033683e+01,2.000000000000e+00
264,7.060660171780e-01,4.747454415588e+01,2.000000000000e+00
265,9.574025148548e-01,4.873622339643e+01,2.000000000000e+00
266,8.425974851452e-01,4.123622339643e+01,2.000000000000e+00
267,4.939339828220e-01,4.247454415588e+01,2.000000000000e+00
268,1.614180701233e-01,4.371674033683e+01,2.000000000000e+00
269,-1.500000000000e-01,4.496400000000e+01,2.000000000000e+00
270,-4.385819298767e-01,4.621674033683e+01,2.000000000000e+00
271,-7.060660171780e-01,4.747454415588e+01,2.000000000000e+00
272,-9.574025148548e-01,4.873622339643e+01,2.000000000000e+00
*ELEMENT,TYPE=B31,ELSET=ALL
1,1,25
2,25,26
3,26,27
4,27,28
5,28,29
6,29,30
7,30,31
8,31,5
9,2,32
10,32,33
11,33,34
12,34,35
13,35,36
14,36,37
15,37,38
16,38,6
17,3,39
18,39,40
19,40,41
20,41,42
21,42,43
22,43,44
23,44,45
24,45,7
25,4,46
26,46,47
27,47,48
28,48,49
29,49,50
30,50,51
31,51,52
32,52,8
33,5,9
34,6,10
35,7,11
36,8,12
37,9,13
38,10,14
39,11,15
40,12,16
41,13,53
42,53,17
43,14,54
44,54,18
45,15,55
46,55,19
47,16,56
48,56,20
49,17,57
50,57,58
51,58,59
52,59,21
53,18,60
54,60,61
55,61,62
56,62,22
57,19,63
58,63,64
59,64,65
60,65,23
61,20,66
62,66,67
63,67,68
64,68,24
65,1,69
66,69,70
67,70,71
68,71,2
69,3,72
70,72,73
71,73,74
72,74,4
73,1,75
74,75,76
75,76,77
76,77,3
77,2,78
78,78,79
79,79,80
80,80,4
81,5,81
82,81,82
83,82,83
84,83,6
85,7,84
86,84,85
87,85,86
88,86,8
89,5,87
90,87,88
91,88,89
92,89,7
93,6,90
94,90,91
95,91,92
96,92,8
97,9,10
98,11,12
99,9,11
100,10,12
101,13,93
102,93,14
103,15,94
104,94,16
105,13,95
106,95,15
107,14,96
108,96,16
109,17,97
110,97,98
111,98,99
112,99,18
113,19,100
114,100,101
115,101,102
116,102,20
117,17,103
118,103,104
119,104,105
120,105,19
121,18,106
122,106,107
123,107,108
124,108,20
125,21,109
126,109,110
127,110,111
128,111,22
129,23,112
130,112,113
131,113,114
132,114,24
133,21,115
134,115,116
135,116,117
136,117,23
137,22,118
138,118,119
139,119,120
140,120,24
141,1,121
142,121,122
143,122,123
144,123,7
145,3,124
146,124,125
147,125,126
148,126,5
149,2,127
150,127,128
151,128,129
152,129,8
153,4,130
154,130,131
155,131,132
156,132,6
157,1,133
158,133,134
159,134,135
160,135,6
161,2,136
162,136,137
163,137,138
164,138,5
165,3,139
166,139,140
167,140,141
168,141,8
169,4,142
170,142,143
171,143,144
172,144,7
173,5,145
174,145,146
175,146,147
176,147,11
177,7,148
178,148,149
179,149,150
180,150,9
181,6,151
182,151,152
183,152,153
184,153,12
185,8,154
186,154,155
187,155,156
188,156,10
189,5,157
190,157,158
191,158,159
192,159,10
193,6,160
194,160,161
195,161,162
196,162,9
197,7,163
198,163,164
199,164,165
200,165,12
201,8,166
202,166,167
203,167,168
204,168,11
205,9,169
206,169,170
207,170,171
208,171,15
209,11,172
210,172,173
211,173,174
212,174,13
213,10,175
214,175,176
215,176,177
216,177,16
217,12,178
218,178,179
219,179,180
220,180,14
221,9,181
222,181,182
223,182,183
224,183,14
225,10,184
226,184,185
227,185,186
228,186,13
229,11,187
230,187,188
231,188,189
232,189,16
233,12,190
234,190,191
235,191,192
236,192,15
237,13,193
238,193,194
239,194,195
240,195,19
241,15,196
242,196,197
243,197,198
244,198,17
245,14,199
246,199,200
247,200,201
248,201,20
249,16,202
250,202,203
251,203,204
252,204,18
253,13,205
254,205,206
255,206,207
256,207,18
257,14,208
258,208,209
259,209,210
260,210,17
261,15,211
262,211,212
263,212,213
264,213,20
265,16,214
266,214,215
267,215,216
268,216,19
269,17,217
270,217,218
271,218,219
272,219,220
273,220,221
274,221,222
275,222,223
276,223,23
277,19,224
278,224,225
279,225,226
280,226,227
281,227,228
282,228,229
283,229,230
284,230,21
285,18,231
286,231,232
287,232,233
288,233,234
289,234,235
290,235,236
291,236,237
292,237,24
293,20,238
294,238,239
295,239,240
296,240,241
297,241,242
298,242,243
299,243,244
300,244,22
301,17,245
302,245,246
303,246,247
304,247,248
305,248,249
306,249,250
307,250,251
308,251,22
309,18,252
310,252,253
311,253,254
312,254,255
313,255,256
314,256,257
315,257,258
316,258,21
317,19,259
318,259,260
319,260,261
320,261,262
321,262,263
322,263,264
323,264,265
324,265,24
325,20,266
326,266,267
327,267,268
328,268,269
329,269,270
330,270,271
331,271,272
332,272,23
*NSET,NSET=NALL,GENERATE
1,272,1
*NSET,NSET=LEFT
1,2,3,4
*NSET,NSET=RIGHT
21,22,23,24
*MATERIAL,NAME=STEEL
*ELASTIC
2.100000000000e+11,0.300000000000
*BEAM SECTION,ELSET=ALL,MATERIAL=STEEL,SECTION=RECT
6.000000000000e-02,4.000000000000e-02
0.371390676354,0.557086014531,0.742781352708
*BOUNDARY
LEFT,1,6,0.0
*STEP
*STATIC
*BOUNDARY
21,1,1,5.000000000000e-03
21,2,2,0.0
21,3,3,-6.000000000000e-03
*BOUNDARY
22,1,1,5.000000000000e-03
22,2,2,0.0
22,3,3,6.000000000000e-03
*BOUNDARY
23,1,1,-5.000000000000e-03
23,2,2,0.0
23,3,3,-6.000000000000e-03
*BOUNDARY
24,1,1,-5.000000000000e-03
24,2,2,0.0
24,3,3,6.000000000000e-03
*NODE FILE,NSET=NALL
U
*NODE PRINT,NSET=NALL
U
*NODE PRINT,NSET=RIGHT
RF
*EL PRINT,ELSET=ALL,TOTALS=YES
ELSE
*END STEP
