*HEADING
Normalized cross-passage space-truss torsion benchmark
*NODE
1,-1.200000000000e+00,0.000000000000e+00,0.000000000000e+00
2,1.200000000000e+00,0.000000000000e+00,0.000000000000e+00
3,-1.200000000000e+00,0.000000000000e+00,2.000000000000e+00
4,1.200000000000e+00,0.000000000000e+00,2.000000000000e+00
5,-1.200000000000e+00,1.000000000000e+01,0.000000000000e+00
6,1.200000000000e+00,1.000000000000e+01,0.000000000000e+00
7,-1.200000000000e+00,1.000000000000e+01,2.000000000000e+00
8,1.200000000000e+00,1.000000000000e+01,2.000000000000e+00
9,-1.200000000000e+00,2.000000000000e+01,0.000000000000e+00
10,1.200000000000e+00,2.000000000000e+01,0.000000000000e+00
11,-1.200000000000e+00,2.000000000000e+01,2.000000000000e+00
12,1.200000000000e+00,2.000000000000e+01,2.000000000000e+00
13,-1.200000000000e+00,3.000000000000e+01,0.000000000000e+00
14,1.200000000000e+00,3.000000000000e+01,0.000000000000e+00
15,-1.200000000000e+00,3.000000000000e+01,2.000000000000e+00
16,1.200000000000e+00,3.000000000000e+01,2.000000000000e+00
17,-1.200000000000e+00,4.000000000000e+01,0.000000000000e+00
18,1.200000000000e+00,4.000000000000e+01,0.000000000000e+00
19,-1.200000000000e+00,4.000000000000e+01,2.000000000000e+00
20,1.200000000000e+00,4.000000000000e+01,2.000000000000e+00
21,-1.200000000000e+00,5.000000000000e+01,0.000000000000e+00
22,1.200000000000e+00,5.000000000000e+01,0.000000000000e+00
23,-1.200000000000e+00,5.000000000000e+01,2.000000000000e+00
24,1.200000000000e+00,5.000000000000e+01,2.000000000000e+00
25,-1.200000000000e+00,5.000000000000e+00,-1.500000000000e-01
26,1.200000000000e+00,5.000000000000e+00,1.500000000000e-01
27,-1.200000000000e+00,5.000000000000e+00,1.850000000000e+00
28,1.200000000000e+00,5.000000000000e+00,2.150000000000e+00
29,-1.200000000000e+00,4.250000000000e+01,-1.060660171780e-01
30,-1.200000000000e+00,4.500000000000e+01,-1.500000000000e-01
31,-1.200000000000e+00,4.750000000000e+01,-1.060660171780e-01
32,1.200000000000e+00,4.250000000000e+01,1.060660171780e-01
33,1.200000000000e+00,4.500000000000e+01,1.500000000000e-01
34,1.200000000000e+00,4.750000000000e+01,1.060660171780e-01
35,-1.200000000000e+00,4.250000000000e+01,1.893933982822e+00
36,-1.200000000000e+00,4.500000000000e+01,1.850000000000e+00
37,-1.200000000000e+00,4.750000000000e+01,1.893933982822e+00
38,1.200000000000e+00,4.250000000000e+01,2.106066017178e+00
39,1.200000000000e+00,4.500000000000e+01,2.150000000000e+00
40,1.200000000000e+00,4.750000000000e+01,2.106066017178e+00
41,-6.000000000000e-01,-2.545584412272e-02,0.000000000000e+00
42,0.000000000000e+00,-3.600000000000e-02,0.000000000000e+00
43,6.000000000000e-01,-2.545584412272e-02,0.000000000000e+00
44,-6.000000000000e-01,2.545584412272e-02,2.000000000000e+00
45,0.000000000000e+00,3.600000000000e-02,2.000000000000e+00
46,6.000000000000e-01,2.545584412272e-02,2.000000000000e+00
47,-1.200000000000e+00,2.121320343560e-02,5.000000000000e-01
48,-1.200000000000e+00,3.000000000000e-02,1.000000000000e+00
49,-1.200000000000e+00,2.121320343560e-02,1.500000000000e+00
50,1.200000000000e+00,-2.121320343560e-02,5.000000000000e-01
51,1.200000000000e+00,-3.000000000000e-02,1.000000000000e+00
52,1.200000000000e+00,-2.121320343560e-02,1.500000000000e+00
53,-6.000000000000e-01,9.974544155877e+00,0.000000000000e+00
54,0.000000000000e+00,9.964000000000e+00,0.000000000000e+00
55,6.000000000000e-01,9.974544155877e+00,0.000000000000e+00
56,-6.000000000000e-01,1.002545584412e+01,2.000000000000e+00
57,0.000000000000e+00,1.003600000000e+01,2.000000000000e+00
58,6.000000000000e-01,1.002545584412e+01,2.000000000000e+00
59,-1.200000000000e+00,1.002121320344e+01,5.000000000000e-01
60,-1.200000000000e+00,1.003000000000e+01,1.000000000000e+00
61,-1.200000000000e+00,1.002121320344e+01,1.500000000000e+00
62,1.200000000000e+00,9.978786796564e+00,5.000000000000e-01
63,1.200000000000e+00,9.970000000000e+00,1.000000000000e+00
64,1.200000000000e+00,9.978786796564e+00,1.500000000000e+00
65,-6.000000000000e-01,3.997454415588e+01,0.000000000000e+00
66,0.000000000000e+00,3.996400000000e+01,0.000000000000e+00
67,6.000000000000e-01,3.997454415588e+01,0.000000000000e+00
68,-6.000000000000e-01,4.002545584412e+01,2.000000000000e+00
69,0.000000000000e+00,4.003600000000e+01,2.000000000000e+00
70,6.000000000000e-01,4.002545584412e+01,2.000000000000e+00
71,-1.200000000000e+00,4.002121320344e+01,5.000000000000e-01
72,-1.200000000000e+00,4.003000000000e+01,1.000000000000e+00
73,-1.200000000000e+00,4.002121320344e+01,1.500000000000e+00
74,1.200000000000e+00,3.997878679656e+01,5.000000000000e-01
75,1.200000000000e+00,3.997000000000e+01,1.000000000000e+00
76,1.200000000000e+00,3.997878679656e+01,1.500000000000e+00
77,-6.000000000000e-01,4.997454415588e+01,0.000000000000e+00
78,0.000000000000e+00,4.996400000000e+01,0.000000000000e+00
79,6.000000000000e-01,4.997454415588e+01,0.000000000000e+00
80,-6.000000000000e-01,5.002545584412e+01,2.000000000000e+00
81,0.000000000000e+00,5.003600000000e+01,2.000000000000e+00
82,6.000000000000e-01,5.002545584412e+01,2.000000000000e+00
83,-1.200000000000e+00,5.002121320344e+01,5.000000000000e-01
84,-1.200000000000e+00,5.003000000000e+01,1.000000000000e+00
85,-1.200000000000e+00,5.002121320344e+01,1.500000000000e+00
86,1.200000000000e+00,4.997878679656e+01,5.000000000000e-01
87,1.200000000000e+00,4.997000000000e+01,1.000000000000e+00
88,1.200000000000e+00,4.997878679656e+01,1.500000000000e+00
89,-1.200000000000e+00,1.261480502971e+00,1.925974851452e-01
90,-1.200000000000e+00,2.521213203436e+00,3.939339828220e-01
91,-1.200000000000e+00,3.777716385975e+00,6.114180701233e-01
92,-1.200000000000e+00,5.030000000000e+00,8.500000000000e-01
93,-1.200000000000e+00,6.277716385975e+00,1.111418070123e+00
94,-1.200000000000e+00,7.521213203436e+00,1.393933982822e+00
95,-1.200000000000e+00,8.761480502971e+00,1.692597485145e+00
96,-1.200000000000e+00,1.261480502971e+00,1.807402514855e+00
97,-1.200000000000e+00,2.521213203436e+00,1.606066017178e+00
98,-1.200000000000e+00,3.777716385975e+00,1.388581929877e+00
99,-1.200000000000e+00,5.030000000000e+00,1.150000000000e+00
100,-1.200000000000e+00,6.277716385975e+00,8.885819298767e-01
101,-1.200000000000e+00,7.521213203436e+00,6.060660171780e-01
102,-1.200000000000e+00,8.761480502971e+00,3.074025148548e-01
103,1.200000000000e+00,1.261480502971e+00,1.925974851452e-01
104,1.200000000000e+00,2.521213203436e+00,3.939339828220e-01
105,1.200000000000e+00,3.777716385975e+00,6.114180701233e-01
106,1.200000000000e+00,5.030000000000e+00,8.500000000000e-01
107,1.200000000000e+00,6.277716385975e+00,1.111418070123e+00
108,1.200000000000e+00,7.521213203436e+00,1.393933982822e+00
109,1.200000000000e+00,8.761480502971e+00,1.692597485145e+00
110,1.200000000000e+00,1.261480502971e+00,1.807402514855e+00
111,1.200000000000e+00,2.521213203436e+00,1.606066017178e+00
112,1.200000000000e+00,3.777716385975e+00,1.388581929877e+00
113,1.200000000000e+00,5.030000000000e+00,1.150000000000e+00
114,1.200000000000e+00,6.277716385975e+00,8.885819298767e-01
115,1.200000000000e+00,7.521213203436e+00,6.060660171780e-01
116,1.200000000000e+00,8.761480502971e+00,3.074025148548e-01
117,-8.425974851452e-01,1.236223396435e+00,0.000000000000e+00
118,-4.939339828220e-01,2.474544155877e+00,0.000000000000e+00
119,-1.614180701233e-01,3.716740336830e+00,0.000000000000e+00
120,1.500000000000e-01,4.964000000000e+00,0.000000000000e+00
121,4.385819298767e-01,6.216740336830e+00,0.000000000000e+00
122,7.060660171780e-01,7.474544155877e+00,0.000000000000e+00
123,9.574025148548e-01,8.736223396435e+00,0.000000000000e+00
124,8.425974851452e-01,1.236223396435e+00,0.000000000000e+00
125,4.939339828220e-01,2.474544155877e+00,0.000000000000e+00
126,1.614180701233e-01,3.716740336830e+00,0.000000000000e+00
127,-1.500000000000e-01,4.964000000000e+00,0.000000000000e+00
128,-4.385819298767e-01,6.216740336830e+00,0.000000000000e+00
129,-7.060660171780e-01,7.474544155877e+00,0.000000000000e+00
130,-9.574025148548e-01,8.736223396435e+00,0.000000000000e+00
131,-8.425974851452e-01,1.236223396435e+00,2.000000000000e+00
132,-4.939339828220e-01,2.474544155877e+00,2.000000000000e+00
133,-1.614180701233e-01,3.716740336830e+00,2.000000000000e+00
134,1.500000000000e-01,4.964000000000e+00,2.000000000000e+00
135,4.385819298767e-01,6.216740336830e+00,2.000000000000e+00
136,7.060660171780e-01,7.474544155877e+00,2.000000000000e+00
137,9.574025148548e-01,8.736223396435e+00,2.000000000000e+00
138,8.425974851452e-01,1.236223396435e+00,2.000000000000e+00
139,4.939339828220e-01,2.474544155877e+00,2.000000000000e+00
140,1.614180701233e-01,3.716740336830e+00,2.000000000000e+00
141,-1.500000000000e-01,4.964000000000e+00,2.000000000000e+00
142,-4.385819298767e-01,6.216740336830e+00,2.000000000000e+00
143,-7.060660171780e-01,7.474544155877e+00,2.000000000000e+00
144,-9.574025148548e-01,8.736223396435e+00,2.000000000000e+00
145,-1.200000000000e+00,1.503000000000e+01,8.500000000000e-01
146,-1.200000000000e+00,1.503000000000e+01,1.150000000000e+00
147,1.200000000000e+00,1.503000000000e+01,8.500000000000e-01
148,1.200000000000e+00,1.503000000000e+01,1.150000000000e+00
149,1.500000000000e-01,1.496400000000e+01,0.000000000000e+00
150,-1.500000000000e-01,1.496400000000e+01,0.000000000000e+00
151,1.500000000000e-01,1.496400000000e+01,2.000000000000e+00
152,-1.500000000000e-01,1.496400000000e+01,2.000000000000e+00
153,-1.200000000000e+00,3.126148050297e+01,1.925974851452e-01
154,-1.200000000000e+00,3.252121320344e+01,3.939339828220e-01
155,-1.200000000000e+00,3.377771638598e+01,6.114180701233e-01
156,-1.200000000000e+00,3.503000000000e+01,8.500000000000e-01
157,-1.200000000000e+00,3.627771638598e+01,1.111418070123e+00
158,-1.200000000000e+00,3.752121320344e+01,1.393933982822e+00
159,-1.200000000000e+00,3.876148050297e+01,1.692597485145e+00
160,-1.200000000000e+00,3.126148050297e+01,1.807402514855e+00
161,-1.200000000000e+00,3.252121320344e+01,1.606066017178e+00
162,-1.200000000000e+00,3.377771638598e+01,1.388581929877e+00
163,-1.200000000000e+00,3.503000000000e+01,1.150000000000e+00
164,-1.200000000000e+00,3.627771638598e+01,8.885819298767e-01
165,-1.200000000000e+00,3.752121320344e+01,6.060660171780e-01
166,-1.200000000000e+00,3.876148050297e+01,3.074025148548e-01
167,1.200000000000e+00,3.126148050297e+01,1.925974851452e-01
168,1.200000000000e+00,3.252121320344e+01,3.939339828220e-01
169,1.200000000000e+00,3.377771638598e+01,6.114180701233e-01
170,1.200000000000e+00,3.503000000000e+01,8.500000000000e-01
171,1.200000000000e+00,3.627771638598e+01,1.111418070123e+00
172,1.200000000000e+00,3.752121320344e+01,1.393933982822e+00
173,1.200000000000e+00,3.876148050297e+01,1.692597485145e+00
174,1.200000000000e+00,3.126148050297e+01,1.807402514855e+00
175,1.200000000000e+00,3.252121320344e+01,1.606066017178e+00
176,1.200000000000e+00,3.377771638598e+01,1.388581929877e+00
177,1.200000000000e+00,3.503000000000e+01,1.150000000000e+00
178,1.200000000000e+00,3.627771638598e+01,8.885819298767e-01
179,1.200000000000e+00,3.752121320344e+01,6.060660171780e-01
180,1.200000000000e+00,3.876148050297e+01,3.074025148548e-01
181,-8.425974851452e-01,3.123622339643e+01,0.000000000000e+00
182,-4.939339828220e-01,3.247454415588e+01,0.000000000000e+00
183,-1.614180701233e-01,3.371674033683e+01,0.000000000000e+00
184,1.500000000000e-01,3.496400000000e+01,0.000000000000e+00
185,4.385819298767e-01,3.621674033683e+01,0.000000000000e+00
186,7.060660171780e-01,3.747454415588e+01,0.000000000000e+00
187,9.574025148548e-01,3.873622339643e+01,0.000000000000e+00
188,8.425974851452e-01,3.123622339643e+01,0.000000000000e+00
189,4.939339828220e-01,3.247454415588e+01,0.000000000000e+00
190,1.614180701233e-01,3.371674033683e+01,0.000000000000e+00
191,-1.500000000000e-01,3.496400000000e+01,0.000000000000e+00
192,-4.385819298767e-01,3.621674033683e+01,0.000000000000e+00
193,-7.060660171780e-01,3.747454415588e+01,0.000000000000e+00
194,-9.574025148548e-01,3.873622339643e+01,0.000000000000e+00
195,-8.425974851452e-01,3.123622339643e+01,2.000000000000e+00
196,-4.939339828220e-01,3.247454415588e+01,2.000000000000e+00
197,-1.614180701233e-01,3.371674033683e+01,2.000000000000e+00
198,1.500000000000e-01,3.496400000000e+01,2.000000000000e+00
199,4.385819298767e-01,3.621674033683e+01,2.000000000000e+00
200,7.060660171780e-01,3.747454415588e+01,2.000000000000e+00
201,9.574025148548e-01,3.873622339643e+01,2.000000000000e+00
202,8.425974851452e-01,3.123622339643e+01,2.000000000000e+00
203,4.939339828220e-01,3.247454415588e+01,2.000000000000e+00
204,1.614180701233e-01,3.371674033683e+01,2.000000000000e+00
205,-1.500000000000e-01,3.496400000000e+01,2.000000000000e+00
206,-4.385819298767e-01,3.621674033683e+01,2.000000000000e+00
207,-7.060660171780e-01,3.747454415588e+01,2.000000000000e+00
208,-9.574025148548e-01,3.873622339643e+01,2.000000000000e+00
209,-1.200000000000e+00,4.126148050297e+01,1.925974851452e-01
210,-1.200000000000e+00,4.252121320344e+01,3.939339828220e-01
211,-1.200000000000e+00,4.377771638598e+01,6.114180701233e-01
212,-1.200000000000e+00,4.503000000000e+01,8.500000000000e-01
213,-1.200000000000e+00,4.627771638598e+01,1.111418070123e+00
214,-1.200000000000e+00,4.752121320344e+01,1.393933982822e+00
215,-1.200000000000e+00,4.876148050297e+01,1.692597485145e+00
216,-1.200000000000e+00,4.126148050297e+01,1.807402514855e+00
217,-1.200000000000e+00,4.252121320344e+01,1.606066017178e+00
218,-1.200000000000e+00,4.377771638598e+01,1.388581929877e+00
219,-1.200000000000e+00,4.503000000000e+01,1.150000000000e+00
220,-1.200000000000e+00,4.627771638598e+01,8.885819298767e-01
221,-1.200000000000e+00,4.752121320344e+01,6.060660171780e-01
222,-1.200000000000e+00,4.876148050297e+01,3.074025148548e-01
223,1.200000000000e+00,4.126148050297e+01,1.925974851452e-01
224,1.200000000000e+00,4.252121320344e+01,3.939339828220e-01
225,1.200000000000e+00,4.377771638598e+01,6.114180701233e-01
226,1.200000000000e+00,4.503000000000e+01,8.500000000000e-01
227,1.200000000000e+00,4.627771638598e+01,1.111418070123e+00
228,1.200000000000e+00,4.752121320344e+01,1.393933982822e+00
229,1.200000000000e+00,4.876148050297e+01,1.692597485145e+00
230,1.200000000000e+00,4.126148050297e+01,1.807402514855e+00
231,1.200000000000e+00,4.252121320344e+01,1.606066017178e+00
232,1.200000000000e+00,4.377771638598e+01,1.388581929877e+00
233,1.200000000000e+00,4.503000000000e+01,1.150000000000e+00
234,1.200000000000e+00,4.627771638598e+01,8.885819298767e-01
235,1.200000000000e+00,4.752121320344e+01,6.060660171780e-01
236,1.200000000000e+00,4.876148050297e+01,3.074025148548e-01
237,-8.425974851452e-01,4.123622339643e+01,0.000000000000e+00
238,-4.939339828220e-01,4.247454415588e+01,0.000000000000e+00
239,-1.614180701233e-01,4.371674033683e+01,0.000000000000e+00
240,1.500000000000e-01,4.496400000000e+01,0.000000000000e+00
241,4.385819298767e-01,4.621674033683e+01,0.000000000000e+00
242,7.060660171780e-01,4.747454415588e+01,0.000000000000e+00
243,9.574025148548e-01,4.873622339643e+01,0.000000000000e+00
244,8.425974851452e-01,4.123622339643e+01,0.000000000000e+00
245,4.939339828220e-01,4.247454415588e+01,0.000000000000e+00
246,1.614180701233e-01,4.371674033683e+01,0.000000000000e+00
247,-1.500000000000e-01,4.496400000000e+01,0.000000000000e+00
248,-4.385819298767e-01,4.621674033683e+01,0.000000000000e+00
249,-7.060660171780e-01,4.747454415588e+01,0.000000000000e+00
250,-9.574025148548e-01,4.873622339643e+01,0.000000000000e+00
251,-8.425974851452e-01,4.123622339643e+01,2.000000000000e+00
252,-4.939339828220e-01,4.247454415588e+01,2.000000000000e+00
253,-1.614180701233e-01,4.371674033683e+01,2.000000000000e+00
254,1.500000000000e-01,4.496400000000e+01,2.000000000000e+00
255,4.385819298767e-01,4.621674033683e+01,2.000000000000e+00
256,7.060660171780e-01,4.747454415588e+01,2.000000000000e+00
257,9.574025148548e-01,4.873622339643e+01,2.000000000000e+00
258,8.425974851452e-01,4.123622339643e+01,2.000000000000e+00
259,4.939339828220e-01,4.247454415588e+01,2.000000000000e+00
260,1.614180701233e-01,4.371674033683e+01,2.000000000000e+00
261,-1.500000000000e-01,4.496400000000e+01,2.000000000000e+00
262,-4.385819298767e-01,4.621674033683e+01,2.000000000000e+00
263,-7.060660171780e-01,4.747454415588e+01,2.000000000000e+00
264,-9.574025148548e-01,4.873622339643e+01,2.000000000000e+00
*ELEMENT,TYPE=B31,ELSET=ALL
1,1,25
2,25,5
3,2,26
4,26,6
5,3,27
6,27,7
7,4,28
8,28,8
9,5,9
10,6,10
11,7,11
12,8,12
13,9,13
14,10,14
15,11,15
16,12,16
17,13,17
18,14,18
19,15,19
20,16,20
21,17,29
22,29,30
23,30,31
24,31,21
25,18,32
26,32,33
27,33,34
28,34,22
29,19,35
30,35,36
31,36,37
32,37,23
33,20,38
34,38,39
35,39,40
36,40,24
37,1,41
38,41,42
39,42,43
40,43,2
41,3,44
42,44,45
43,45,46
44,46,4
45,1,47
46,47,48
47,48,49
48,49,3
49,2,50
50,50,51
51,51,52
52,52,4
53,5,53
54,53,54
55,54,55
56,55,6
57,7,56
58,56,57
59,57,58
60,58,8
61,5,59
62,59,60
63,60,61
64,61,7
65,6,62
66,62,63
67,63,64
68,64,8
69,9,10
70,11,12
71,9,11
72,10,12
73,13,14
74,15,16
75,13,15
76,14,16
77,17,65
78,65,66
79,66,67
80,67,18
81,19,68
82,68,69
83,69,70
84,70,20
85,17,71
86,71,72
87,72,73
88,73,19
89,18,74
90,74,75
91,75,76
92,76,20
93,21,77
94,77,78
95,78,79
96,79,22
97,23,80
98,80,81
99,81,82
100,82,24
101,21,83
102,83,84
103,84,85
104,85,23
105,22,86
106,86,87
107,87,88
108,88,24
109,1,89
110,89,90
111,90,91
112,91,92
113,92,93
114,93,94
115,94,95
116,95,7
117,3,96
118,96,97
119,97,98
120,98,99
121,99,100
122,100,101
123,101,102
124,102,5
125,2,103
126,103,104
127,104,105
128,105,106
129,106,107
130,107,108
131,108,109
132,109,8
133,4,110
134,110,111
135,111,112
136,112,113
137,113,114
138,114,115
139,115,116
140,116,6
141,1,117
142,117,118
143,118,119
144,119,120
145,120,121
146,121,122
147,122,123
148,123,6
149,2,124
150,124,125
151,125,126
152,126,127
153,127,128
154,128,129
155,129,130
156,130,5
157,3,131
158,131,132
159,132,133
160,133,134
161,134,135
162,135,136
163,136,137
164,137,8
165,4,138
166,138,139
167,139,140
168,140,141
169,141,142
170,142,143
171,143,144
172,144,7
173,5,145
174,145,11
175,7,146
176,146,9
177,6,147
178,147,12
179,8,148
180,148,10
181,5,149
182,149,10
183,6,150
184,150,9
185,7,151
186,151,12
187,8,152
188,152,11
189,9,15
190,11,13
191,10,16
192,12,14
193,9,14
194,10,13
195,11,16
196,12,15
197,13,153
198,153,154
199,154,155
200,155,156
201,156,157
202,157,158
203,158,159
204,159,19
205,15,160
206,160,161
207,161,162
208,162,163
209,163,164
210,164,165
211,165,166
212,166,17
213,14,167
214,167,168
215,168,169
216,169,170
217,170,171
218,171,172
219,172,173
220,173,20
221,16,174
222,174,175
223,175,176
224,176,177
225,177,178
226,178,179
227,179,180
228,180,18
229,13,181
230,181,182
231,182,183
232,183,184
233,184,185
234,185,186
235,186,187
236,187,18
237,14,188
238,188,189
239,189,190
240,190,191
241,191,192
242,192,193
243,193,194
244,194,17
245,15,195
246,195,196
247,196,197
248,197,198
249,198,199
250,199,200
251,200,201
252,201,20
253,16,202
254,202,203
255,203,204
256,204,205
257,205,206
258,206,207
259,207,208
260,208,19
261,17,209
262,209,210
263,210,211
264,211,212
265,212,213
266,213,214
267,214,215
268,215,23
269,19,216
270,216,217
271,217,218
272,218,219
273,219,220
274,220,221
275,221,222
276,222,21
277,18,223
278,223,224
279,224,225
280,225,226
281,226,227
282,227,228
283,228,229
284,229,24
285,20,230
286,230,231
287,231,232
288,232,233
289,233,234
290,234,235
291,235,236
292,236,22
293,17,237
294,237,238
295,238,239
296,239,240
297,240,241
298,241,242
299,242,243
300,243,22
301,18,244
302,244,245
303,245,246
304,246,247
305,247,248
306,248,249
307,249,250
308,250,21
309,19,251
310,251,252
311,252,253
312,253,254
313,254,255
314,255,256
315,256,257
316,257,24
317,20,258
318,258,259
319,259,260
320,260,261
321,261,262
322,262,263
323,263,264
324,264,23
*NSET,NSET=NALL,GENERATE
1,264,1
*NSET,NSET=LEFT
1,2,3,4
*NSET,NSET=RIGHT
21,22,23,24
*MATERIAL,NAME=STEEL
*ELASTIC
2.100000000000e+11,0.300000000000
*BEAM SECTION,ELSET=ALL,MATERIAL=STEEL,SECTION=RECT
6.000000000000e-02,4.000000000000e-02
0.371390676354,0.557086014531,0.742781352708
*BOUNDARY
LEFT,1,6,0.0
*STEP
*STATIC
*BOUNDARY
21,1,1,5.000000000000e-03
21,2,2,0.0
21,3,3,-6.000000000000e-03
*BOUNDARY
22,1,1,5.000000000000e-03
22,2,2,0.0
22,3,3,6.000000000000e-03
*BOUNDARY
23,1,1,-5.000000000000e-03
23,2,2,0.0
23,3,3,-6.000000000000e-03
*BOUNDARY
24,1,1,-5.000000000000e-03
24,2,2,0.0
24,3,3,6.000000000000e-03
*NODE FILE,NSET=NALL
U
*NODE PRINT,NSET=NALL
U
*NODE PRINT,NSET=RIGHT
RF
*EL PRINT,ELSET=ALL,TOTALS=YES
ELSE
*END STEP
