*HEADING
Normalized cross-passage space-truss torsion benchmark
*NODE
1,-1.200000000000e+00,0.000000000000e+00,0.000000000000e+00
2,1.200000000000e+00,0.000000000000e+00,0.000000000000e+00
3,-1.200000000000e+00,0.000000000000e+00,2.000000000000e+00
4,1.200000000000e+00,0.000000000000e+00,2.000000000000e+00
5,-1.200000000000e+00,1.000000000000e+01,0.000000000000e+00
6,1.200000000000e+00,1.000000000000e+01,0.000000000000e+00
7,-1.200000000000e+00,1.000000000000e+01,2.000000000000e+00
8,1.200000000000e+00,1.000000000000e+01,2.000000000000e+00
9,-1.200000000000e+00,2.000000000000e+01,0.000000000000e+00
10,1.200000000000e+00,2.000000000000e+01,0.000000000000e+00
11,-1.200000000000e+00,2.000000000000e+01,2.000000000000e+00
12,1.200000000000e+00,2.000000000000e+01,2.000000000000e+00
13,-1.200000000000e+00,3.000000000000e+01,0.000000000000e+00
14,1.200000000000e+00,3.000000000000e+01,0.000000000000e+00
15,-1.200000000000e+00,3.000000000000e+01,2.000000000000e+00
16,1.200000000000e+00,3.000000000000e+01,2.000000000000e+00
17,-1.200000000000e+00,4.000000000000e+01,0.000000000000e+00
18,1.200000000000e+00,4.000000000000e+01,0.000000000000e+00
19,-1.200000000000e+00,4.000000000000e+01,2.000000000000e+00
20,1.200000000000e+00,4.000000000000e+01,2.000000000000e+00
21,-1.200000000000e+00,5.000000000000e+01,0.000000000000e+00
22,1.200000000000e+00,5.000000000000e+01,0.000000000000e+00
23,-1.200000000000e+00,5.000000000000e+01,2.000000000000e+00
24,1.200000000000e+00,5.000000000000e+01,2.000000000000e+00
25,-1.200000000000e+00,1.250000000000e+00,-5.740251485476e-02
26,-1.200000000000e+00,2.500000000000e+00,-1.060660171780e-01
27,-1.200000000000e+00,3.750000000000e+00,-1.385819298767e-01
28,-1.200000000000e+00,5.000000000000e+00,-1.500000000000e-01
29,-1.200000000000e+00,6.250000000000e+00,-1.385819298767e-01
30,-1.200000000000e+00,7.500000000000e+00,-1.060660171780e-01
31,-1.200000000000e+00,8.750000000000e+00,-5.740251485476e-02
32,1.200000000000e+00,1.250000000000e+00,5.740251485476e-02
33,1.200000000000e+00,2.500000000000e+00,1.060660171780e-01
34,1.200000000000e+00,3.750000000000e+00,1.385819298767e-01
35,1.200000000000e+00,5.000000000000e+00,1.500000000000e-01
36,1.200000000000e+00,6.250000000000e+00,1.385819298767e-01
37,1.200000000000e+00,7.500000000000e+00,1.060660171780e-01
38,1.200000000000e+00,8.750000000000e+00,5.740251485476e-02
39,-1.200000000000e+00,1.250000000000e+00,1.942597485145e+00
40,-1.200000000000e+00,2.500000000000e+00,1.893933982822e+00
41,-1.200000000000e+00,3.750000000000e+00,1.861418070123e+00
42,-1.200000000000e+00,5.000000000000e+00,1.850000000000e+00
43,-1.200000000000e+00,6.250000000000e+00,1.861418070123e+00
44,-1.200000000000e+00,7.500000000000e+00,1.893933982822e+00
45,-1.200000000000e+00,8.750000000000e+00,1.942597485145e+00
46,1.200000000000e+00,1.250000000000e+00,2.057402514855e+00
47,1.200000000000e+00,2.500000000000e+00,2.106066017178e+00
48,1.200000000000e+00,3.750000000000e+00,2.138581929877e+00
49,1.200000000000e+00,5.000000000000e+00,2.150000000000e+00
50,1.200000000000e+00,6.250000000000e+00,2.138581929877e+00
51,1.200000000000e+00,7.500000000000e+00,2.106066017178e+00
52,1.200000000000e+00,8.750000000000e+00,2.057402514855e+00
53,-1.200000000000e+00,1.500000000000e+01,-1.500000000000e-01
54,1.200000000000e+00,1.500000000000e+01,1.500000000000e-01
55,-1.200000000000e+00,1.500000000000e+01,1.850000000000e+00
56,1.200000000000e+00,1.500000000000e+01,2.150000000000e+00
57,-1.200000000000e+00,4.250000000000e+01,-1.060660171780e-01
58,-1.200000000000e+00,4.500000000000e+01,-1.500000000000e-01
59,-1.200000000000e+00,4.750000000000e+01,-1.060660171780e-01
60,1.200000000000e+00,4.250000000000e+01,1.060660171780e-01
61,1.200000000000e+00,4.500000000000e+01,1.500000000000e-01
62,1.200000000000e+00,4.750000000000e+01,1.060660171780e-01
63,-1.200000000000e+00,4.250000000000e+01,1.893933982822e+00
64,-1.200000000000e+00,4.500000000000e+01,1.850000000000e+00
65,-1.200000000000e+00,4.750000000000e+01,1.893933982822e+00
66,1.200000000000e+00,4.250000000000e+01,2.106066017178e+00
67,1.200000000000e+00,4.500000000000e+01,2.150000000000e+00
68,1.200000000000e+00,4.750000000000e+01,2.106066017178e+00
69,-6.000000000000e-01,-2.545584412272e-02,0.000000000000e+00
70,0.000000000000e+00,-3.600000000000e-02,0.000000000000e+00
71,6.000000000000e-01,-2.545584412272e-02,0.000000000000e+00
72,-6.000000000000e-01,2.545584412272e-02,2.000000000000e+00
73,0.000000000000e+00,3.600000000000e-02,2.000000000000e+00
74,6.000000000000e-01,2.545584412272e-02,2.000000000000e+00
75,-1.200000000000e+00,2.121320343560e-02,5.000000000000e-01
76,-1.200000000000e+00,3.000000000000e-02,1.000000000000e+00
77,-1.200000000000e+00,2.121320343560e-02,1.500000000000e+00
78,1.200000000000e+00,-2.121320343560e-02,5.000000000000e-01
79,1.200000000000e+00,-3.000000000000e-02,1.000000000000e+00
80,1.200000000000e+00,-2.121320343560e-02,1.500000000000e+00
81,-6.000000000000e-01,9.974544155877e+00,0.000000000000e+00
82,0.000000000000e+00,9.964000000000e+00,0.000000000000e+00
83,6.000000000000e-01,9.974544155877e+00,0.000000000000e+00
84,-6.000000000000e-01,1.002545584412e+01,2.000000000000e+00
85,0.000000000000e+00,1.003600000000e+01,2.000000000000e+00
86,6.000000000000e-01,1.002545584412e+01,2.000000000000e+00
87,-1.200000000000e+00,1.002121320344e+01,5.000000000000e-01
88,-1.200000000000e+00,1.003000000000e+01,1.000000000000e+00
89,-1.200000000000e+00,1.002121320344e+01,1.500000000000e+00
90,1.200000000000e+00,9.978786796564e+00,5.000000000000e-01
91,1.200000000000e+00,9.970000000000e+00,1.000000000000e+00
92,1.200000000000e+00,9.978786796564e+00,1.500000000000e+00
93,0.000000000000e+00,1.996400000000e+01,0.000000000000e+00
94,0.000000000000e+00,2.003600000000e+01,2.000000000000e+00
95,-1.200000000000e+00,2.003000000000e+01,1.000000000000e+00
96,1.200000000000e+00,1.997000000000e+01,1.000000000000e+00
97,-9.000000000000e-01,2.998622339643e+01,0.000000000000e+00
98,-6.000000000000e-01,2.997454415588e+01,0.000000000000e+00
99,-3.000000000000e-01,2.996674033683e+01,0.000000000000e+00
100,0.000000000000e+00,2.996400000000e+01,0.000000000000e+00
101,3.000000000000e-01,2.996674033683e+01,0.000000000000e+00
102,6.000000000000e-01,2.997454415588e+01,0.000000000000e+00
103,9.000000000000e-01,2.998622339643e+01,0.000000000000e+00
104,-9.000000000000e-01,3.001377660357e+01,2.000000000000e+00
105,-6.000000000000e-01,3.002545584412e+01,2.000000000000e+00
106,-3.000000000000e-01,3.003325966317e+01,2.000000000000e+00
107,0.000000000000e+00,3.003600000000e+01,2.000000000000e+00
108,3.000000000000e-01,3.003325966317e+01,2.000000000000e+00
109,6.000000000000e-01,3.002545584412e+01,2.000000000000e+00
110,9.000000000000e-01,3.001377660357e+01,2.000000000000e+00
111,-1.200000000000e+00,3.001148050297e+01,2.500000000000e-01
112,-1.200000000000e+00,3.002121320344e+01,5.000000000000e-01
113,-1.200000000000e+00,3.002771638598e+01,7.500000000000e-01
114,-1.200000000000e+00,3.003000000000e+01,1.000000000000e+00
115,-1.200000000000e+00,3.002771638598e+01,1.250000000000e+00
116,-1.200000000000e+00,3.002121320344e+01,1.500000000000e+00
117,-1.200000000000e+00,3.001148050297e+01,1.750000000000e+00
118,1.200000000000e+00,2.998851949703e+01,2.500000000000e-01
119,1.200000000000e+00,2.997878679656e+01,5.000000000000e-01
120,1.200000000000e+00,2.997228361402e+01,7.500000000000e-01
121,1.200000000000e+00,2.997000000000e+01,1.000000000000e+00
122,1.200000000000e+00,2.997228361402e+01,1.250000000000e+00
123,1.200000000000e+00,2.997878679656e+01,1.500000000000e+00
124,1.200000000000e+00,2.998851949703e+01,1.750000000000e+00
125,-6.000000000000e-01,3.997454415588e+01,0.000000000000e+00
126,0.000000000000e+00,3.996400000000e+01,0.000000000000e+00
127,6.000000000000e-01,3.997454415588e+01,0.000000000000e+00
128,-6.000000000000e-01,4.002545584412e+01,2.000000000000e+00
129,0.000000000000e+00,4.003600000000e+01,2.000000000000e+00
130,6.000000000000e-01,4.002545584412e+01,2.000000000000e+00
131,-1.200000000000e+00,4.002121320344e+01,5.000000000000e-01
132,-1.200000000000e+00,4.003000000000e+01,1.000000000000e+00
133,-1.200000000000e+00,4.002121320344e+01,1.500000000000e+00
134,1.200000000000e+00,3.997878679656e+01,5.000000000000e-01
135,1.200000000000e+00,3.997000000000e+01,1.000000000000e+00
136,1.200000000000e+00,3.997878679656e+01,1.500000000000e+00
137,-9.000000000000e-01,4.998622339643e+01,0.000000000000e+00
138,-6.000000000000e-01,4.997454415588e+01,0.000000000000e+00
139,-3.000000000000e-01,4.996674033683e+01,0.000000000000e+00
140,0.000000000000e+00,4.996400000000e+01,0.000000000000e+00
141,3.000000000000e-01,4.996674033683e+01,0.000000000000e+00
142,6.000000000000e-01,4.997454415588e+01,0.000000000000e+00
143,9.000000000000e-01,4.998622339643e+01,0.000000000000e+00
144,-9.000000000000e-01,5.001377660357e+01,2.000000000000e+00
145,-6.000000000000e-01,5.002545584412e+01,2.000000000000e+00
146,-3.000000000000e-01,5.003325966317e+01,2.000000000000e+00
147,0.000000000000e+00,5.003600000000e+01,2.000000000000e+00
148,3.000000000000e-01,5.003325966317e+01,2.000000000000e+00
149,6.000000000000e-01,5.002545584412e+01,2.000000000000e+00
150,9.000000000000e-01,5.001377660357e+01,2.000000000000e+00
151,-1.200000000000e+00,5.001148050297e+01,2.500000000000e-01
152,-1.200000000000e+00,5.002121320344e+01,5.000000000000e-01
153,-1.200000000000e+00,5.002771638598e+01,7.500000000000e-01
154,-1.200000000000e+00,5.003000000000e+01,1.000000000000e+00
155,-1.200000000000e+00,5.002771638598e+01,1.250000000000e+00
156,-1.200000000000e+00,5.002121320344e+01,1.500000000000e+00
157,-1.200000000000e+00,5.001148050297e+01,1.750000000000e+00
158,1.200000000000e+00,4.998851949703e+01,2.500000000000e-01
159,1.200000000000e+00,4.997878679656e+01,5.000000000000e-01
160,1.200000000000e+00,4.997228361402e+01,7.500000000000e-01
161,1.200000000000e+00,4.997000000000e+01,1.000000000000e+00
162,1.200000000000e+00,4.997228361402e+01,1.250000000000e+00
163,1.200000000000e+00,4.997878679656e+01,1.500000000000e+00
164,1.200000000000e+00,4.998851949703e+01,1.750000000000e+00
165,-1.200000000000e+00,2.521213203436e+00,3.939339828220e-01
166,-1.200000000000e+00,5.030000000000e+00,8.500000000000e-01
167,-1.200000000000e+00,7.521213203436e+00,1.393933982822e+00
168,-1.200000000000e+00,2.521213203436e+00,1.606066017178e+00
169,-1.200000000000e+00,5.030000000000e+00,1.150000000000e+00
170,-1.200000000000e+00,7.521213203436e+00,6.060660171780e-01
171,1.200000000000e+00,2.521213203436e+00,3.939339828220e-01
172,1.200000000000e+00,5.030000000000e+00,8.500000000000e-01
173,1.200000000000e+00,7.521213203436e+00,1.393933982822e+00
174,1.200000000000e+00,2.521213203436e+00,1.606066017178e+00
175,1.200000000000e+00,5.030000000000e+00,1.150000000000e+00
176,1.200000000000e+00,7.521213203436e+00,6.060660171780e-01
177,-4.939339828220e-01,2.474544155877e+00,0.000000000000e+00
178,1.500000000000e-01,4.964000000000e+00,0.000000000000e+00
179,7.060660171780e-01,7.474544155877e+00,0.000000000000e+00
180,4.939339828220e-01,2.474544155877e+00,0.000000000000e+00
181,-1.500000000000e-01,4.964000000000e+00,0.000000000000e+00
182,-7.060660171780e-01,7.474544155877e+00,0.000000000000e+00
183,-4.939339828220e-01,2.474544155877e+00,2.000000000000e+00
184,1.500000000000e-01,4.964000000000e+00,2.000000000000e+00
185,7.060660171780e-01,7.474544155877e+00,2.000000000000e+00
186,4.939339828220e-01,2.474544155877e+00,2.000000000000e+00
187,-1.500000000000e-01,4.964000000000e+00,2.000000000000e+00
188,-7.060660171780e-01,7.474544155877e+00,2.000000000000e+00
189,-1.200000000000e+00,1.503000000000e+01,8.500000000000e-01
190,-1.200000000000e+00,1.503000000000e+01,1.150000000000e+00
191,1.200000000000e+00,1.503000000000e+01,8.500000000000e-01
192,1.200000000000e+00,1.503000000000e+01,1.150000000000e+00
193,1.500000000000e-01,1.496400000000e+01,0.000000000000e+00
194,-1.500000000000e-01,1.496400000000e+01,0.000000000000e+00
195,1.500000000000e-01,1.496400000000e+01,2.000000000000e+00
196,-1.500000000000e-01,1.496400000000e+01,2.000000000000e+00
197,-1.200000000000e+00,2.503000000000e+01,8.500000000000e-01
198,-1.200000000000e+00,2.503000000000e+01,1.150000000000e+00
199,1.200000000000e+00,2.503000000000e+01,8.500000000000e-01
200,1.200000000000e+00,2.503000000000e+01,1.150000000000e+00
201,1.500000000000e-01,2.496400000000e+01,0.000000000000e+00
202,-1.500000000000e-01,2.496400000000e+01,0.000000000000e+00
203,1.500000000000e-01,2.496400000000e+01,2.000000000000e+00
204,-1.500000000000e-01,2.496400000000e+01,2.000000000000e+00
205,-1.200000000000e+00,3.252121320344e+01,3.939339828220e-01
206,-1.200000000000e+00,3.503000000000e+01,8.500000000000e-01
207,-1.200000000000e+00,3.752121320344e+01,1.393933982822e+00
208,-1.200000000000e+00,3.252121320344e+01,1.606066017178e+00
209,-1.200000000000e+00,3.503000000000e+01,1.150000000000e+00
210,-1.200000000000e+00,3.752121320344e+01,6.060660171780e-01
211,1.200000000000e+00,3.252121320344e+01,3.939339828220e-01
212,1.200000000000e+00,3.503000000000e+01,8.500000000000e-01
213,1.200000000000e+00,3.752121320344e+01,1.393933982822e+00
214,1.200000000000e+00,3.252121320344e+01,1.606066017178e+00
215,1.200000000000e+00,3.503000000000e+01,1.150000000000e+00
216,1.200000000000e+00,3.752121320344e+01,6.060660171780e-01
217,-4.939339828220e-01,3.247454415588e+01,0.000000000000e+00
218,1.500000000000e-01,3.496400000000e+01,0.000000000000e+00
219,7.060660171780e-01,3.747454415588e+01,0.000000000000e+00
220,4.939339828220e-01,3.247454415588e+01,0.000000000000e+00
221,-1.500000000000e-01,3.496400000000e+01,0.000000000000e+00
222,-7.060660171780e-01,3.747454415588e+01,0.000000000000e+00
223,-4.939339828220e-01,3.247454415588e+01,2.000000000000e+00
224,1.500000000000e-01,3.496400000000e+01,2.000000000000e+00
225,7.060660171780e-01,3.747454415588e+01,2.000000000000e+00
226,4.939339828220e-01,3.247454415588e+01,2.000000000000e+00
227,-1.500000000000e-01,3.496400000000e+01,2.000000000000e+00
228,-7.060660171780e-01,3.747454415588e+01,2.000000000000e+00
*ELEMENT,TYPE=B31,ELSET=ALL
1,1,25
2,25,26
3,26,27
4,27,28
5,28,29
6,29,30
7,30,31
8,31,5
9,2,32
10,32,33
11,33,34
12,34,35
13,35,36
14,36,37
15,37,38
16,38,6
17,3,39
18,39,40
19,40,41
20,41,42
21,42,43
22,43,44
23,44,45
24,45,7
25,4,46
26,46,47
27,47,48
28,48,49
29,49,50
30,50,51
31,51,52
32,52,8
33,5,53
34,53,9
35,6,54
36,54,10
37,7,55
38,55,11
39,8,56
40,56,12
41,9,13
42,10,14
43,11,15
44,12,16
45,13,17
46,14,18
47,15,19
48,16,20
49,17,57
50,57,58
51,58,59
52,59,21
53,18,60
54,60,61
55,61,62
56,62,22
57,19,63
58,63,64
59,64,65
60,65,23
61,20,66
62,66,67
63,67,68
64,68,24
65,1,69
66,69,70
67,70,71
68,71,2
69,3,72
70,72,73
71,73,74
72,74,4
73,1,75
74,75,76
75,76,77
76,77,3
77,2,78
78,78,79
79,79,80
80,80,4
81,5,81
82,81,82
83,82,83
84,83,6
85,7,84
86,84,85
87,85,86
88,86,8
89,5,87
90,87,88
91,88,89
92,89,7
93,6,90
94,90,91
95,91,92
96,92,8
97,9,93
98,93,10
99,11,94
100,94,12
101,9,95
102,95,11
103,10,96
104,96,12
105,13,97
106,97,98
107,98,99
108,99,100
109,100,101
110,101,102
111,102,103
112,103,14
113,15,104
114,104,105
115,105,106
116,106,107
117,107,108
118,108,109
119,109,110
120,110,16
121,13,111
122,111,112
123,112,113
124,113,114
125,114,115
126,115,116
127,116,117
128,117,15
129,14,118
130,118,119
131,119,120
132,120,121
133,121,122
134,122,123
135,123,124
136,124,16
137,17,125
138,125,126
139,126,127
140,127,18
141,19,128
142,128,129
143,129,130
144,130,20
145,17,131
146,131,132
147,132,133
148,133,19
149,18,134
150,134,135
151,135,136
152,136,20
153,21,137
154,137,138
155,138,139
156,139,140
157,140,141
158,141,142
159,142,143
160,143,22
161,23,144
162,144,145
163,145,146
164,146,147
165,147,148
166,148,149
167,149,150
168,150,24
169,21,151
170,151,152
171,152,153
172,153,154
173,154,155
174,155,156
175,156,157
176,157,23
177,22,158
178,158,159
179,159,160
180,160,161
181,161,162
182,162,163
183,163,164
184,164,24
185,1,165
186,165,166
187,166,167
188,167,7
189,3,168
190,168,169
191,169,170
192,170,5
193,2,171
194,171,172
195,172,173
196,173,8
197,4,174
198,174,175
199,175,176
200,176,6
201,1,177
202,177,178
203,178,179
204,179,6
205,2,180
206,180,181
207,181,182
208,182,5
209,3,183
210,183,184
211,184,185
212,185,8
213,4,186
214,186,187
215,187,188
216,188,7
217,5,189
218,189,11
219,7,190
220,190,9
221,6,191
222,191,12
223,8,192
224,192,10
225,5,193
226,193,10
227,6,194
228,194,9
229,7,195
230,195,12
231,8,196
232,196,11
233,9,197
234,197,15
235,11,198
236,198,13
237,10,199
238,199,16
239,12,200
240,200,14
241,9,201
242,201,14
243,10,202
244,202,13
245,11,203
246,203,16
247,12,204
248,204,15
249,13,205
250,205,206
251,206,207
252,207,19
253,15,208
254,208,209
255,209,210
256,210,17
257,14,211
258,211,212
259,212,213
260,213,20
261,16,214
262,214,215
263,215,216
264,216,18
265,13,217
266,217,218
267,218,219
268,219,18
269,14,220
270,220,221
271,221,222
272,222,17
273,15,223
274,223,224
275,224,225
276,225,20
277,16,226
278,226,227
279,227,228
280,228,19
281,17,23
282,19,21
283,18,24
284,20,22
285,17,22
286,18,21
287,19,24
288,20,23
*NSET,NSET=NALL,GENERATE
1,228,1
*NSET,NSET=LEFT
1,2,3,4
*NSET,NSET=RIGHT
21,22,23,24
*MATERIAL,NAME=STEEL
*ELASTIC
2.100000000000e+11,0.300000000000
*BEAM SECTION,ELSET=ALL,MATERIAL=STEEL,SECTION=RECT
6.000000000000e-02,4.000000000000e-02
0.371390676354,0.557086014531,0.742781352708
*BOUNDARY
LEFT,1,6,0.0
*STEP
*STATIC
*BOUNDARY
21,1,1,5.000000000000e-03
21,2,2,0.0
21,3,3,-6.000000000000e-03
*BOUNDARY
22,1,1,5.000000000000e-03
22,2,2,0.0
22,3,3,6.000000000000e-03
*BOUNDARY
23,1,1,-5.000000000000e-03
23,2,2,0.0
23,3,3,-6.000000000000e-03
*BOUNDARY
24,1,1,-5.000000000000e-03
24,2,2,0.0
24,3,3,6.000000000000e-03
*NODE FILE,NSET=NALL
U
*NODE PRINT,NSET=NALL
U
*NODE PRINT,NSET=RIGHT
RF
*EL PRINT,ELSET=ALL,TOTALS=YES
ELSE
*END STEP
