*HEADING
Normalized cross-passage space-truss torsion benchmark
*NODE
1,-1.200000000000e+00,0.000000000000e+00,0.000000000000e+00
2,1.200000000000e+00,0.000000000000e+00,0.000000000000e+00
3,-1.200000000000e+00,0.000000000000e+00,2.000000000000e+00
4,1.200000000000e+00,0.000000000000e+00,2.000000000000e+00
5,-1.200000000000e+00,1.000000000000e+01,0.000000000000e+00
6,1.200000000000e+00,1.000000000000e+01,0.000000000000e+00
7,-1.200000000000e+00,1.000000000000e+01,2.000000000000e+00
8,1.200000000000e+00,1.000000000000e+01,2.000000000000e+00
9,-1.200000000000e+00,2.000000000000e+01,0.000000000000e+00
10,1.200000000000e+00,2.000000000000e+01,0.000000000000e+00
11,-1.200000000000e+00,2.000000000000e+01,2.000000000000e+00
12,1.200000000000e+00,2.000000000000e+01,2.000000000000e+00
13,-1.200000000000e+00,3.000000000000e+01,0.000000000000e+00
14,1.200000000000e+00,3.000000000000e+01,0.000000000000e+00
15,-1.200000000000e+00,3.000000000000e+01,2.000000000000e+00
16,1.200000000000e+00,3.000000000000e+01,2.000000000000e+00
17,-1.200000000000e+00,4.000000000000e+01,0.000000000000e+00
18,1.200000000000e+00,4.000000000000e+01,0.000000000000e+00
19,-1.200000000000e+00,4.000000000000e+01,2.000000000000e+00
20,1.200000000000e+00,4.000000000000e+01,2.000000000000e+00
21,-1.200000000000e+00,5.000000000000e+01,0.000000000000e+00
22,1.200000000000e+00,5.000000000000e+01,0.000000000000e+00
23,-1.200000000000e+00,5.000000000000e+01,2.000000000000e+00
24,1.200000000000e+00,5.000000000000e+01,2.000000000000e+00
25,-1.200000000000e+00,1.500000000000e+01,-1.500000000000e-01
26,1.200000000000e+00,1.500000000000e+01,1.500000000000e-01
27,-1.200000000000e+00,1.500000000000e+01,1.850000000000e+00
28,1.200000000000e+00,1.500000000000e+01,2.150000000000e+00
29,-1.200000000000e+00,2.500000000000e+01,-1.500000000000e-01
30,1.200000000000e+00,2.500000000000e+01,1.500000000000e-01
31,-1.200000000000e+00,2.500000000000e+01,1.850000000000e+00
32,1.200000000000e+00,2.500000000000e+01,2.150000000000e+00
33,-1.200000000000e+00,3.250000000000e+01,-1.060660171780e-01
34,-1.200000000000e+00,3.500000000000e+01,-1.500000000000e-01
35,-1.200000000000e+00,3.750000000000e+01,-1.060660171780e-01
36,1.200000000000e+00,3.250000000000e+01,1.060660171780e-01
37,1.200000000000e+00,3.500000000000e+01,1.500000000000e-01
38,1.200000000000e+00,3.750000000000e+01,1.060660171780e-01
39,-1.200000000000e+00,3.250000000000e+01,1.893933982822e+00
40,-1.200000000000e+00,3.500000000000e+01,1.850000000000e+00
41,-1.200000000000e+00,3.750000000000e+01,1.893933982822e+00
42,1.200000000000e+00,3.250000000000e+01,2.106066017178e+00
43,1.200000000000e+00,3.500000000000e+01,2.150000000000e+00
44,1.200000000000e+00,3.750000000000e+01,2.106066017178e+00
45,-1.200000000000e+00,4.250000000000e+01,-1.060660171780e-01
46,-1.200000000000e+00,4.500000000000e+01,-1.500000000000e-01
47,-1.200000000000e+00,4.750000000000e+01,-1.060660171780e-01
48,1.200000000000e+00,4.250000000000e+01,1.060660171780e-01
49,1.200000000000e+00,4.500000000000e+01,1.500000000000e-01
50,1.200000000000e+00,4.750000000000e+01,1.060660171780e-01
51,-1.200000000000e+00,4.250000000000e+01,1.893933982822e+00
52,-1.200000000000e+00,4.500000000000e+01,1.850000000000e+00
53,-1.200000000000e+00,4.750000000000e+01,1.893933982822e+00
54,1.200000000000e+00,4.250000000000e+01,2.106066017178e+00
55,1.200000000000e+00,4.500000000000e+01,2.150000000000e+00
56,1.200000000000e+00,4.750000000000e+01,2.106066017178e+00
57,-6.000000000000e-01,-2.545584412272e-02,0.000000000000e+00
58,0.000000000000e+00,-3.600000000000e-02,0.000000000000e+00
59,6.000000000000e-01,-2.545584412272e-02,0.000000000000e+00
60,-6.000000000000e-01,2.545584412272e-02,2.000000000000e+00
61,0.000000000000e+00,3.600000000000e-02,2.000000000000e+00
62,6.000000000000e-01,2.545584412272e-02,2.000000000000e+00
63,-1.200000000000e+00,2.121320343560e-02,5.000000000000e-01
64,-1.200000000000e+00,3.000000000000e-02,1.000000000000e+00
65,-1.200000000000e+00,2.121320343560e-02,1.500000000000e+00
66,1.200000000000e+00,-2.121320343560e-02,5.000000000000e-01
67,1.200000000000e+00,-3.000000000000e-02,1.000000000000e+00
68,1.200000000000e+00,-2.121320343560e-02,1.500000000000e+00
69,0.000000000000e+00,9.964000000000e+00,0.000000000000e+00
70,0.000000000000e+00,1.003600000000e+01,2.000000000000e+00
71,-1.200000000000e+00,1.003000000000e+01,1.000000000000e+00
72,1.200000000000e+00,9.970000000000e+00,1.000000000000e+00
73,0.000000000000e+00,1.996400000000e+01,0.000000000000e+00
74,0.000000000000e+00,2.003600000000e+01,2.000000000000e+00
75,-1.200000000000e+00,2.003000000000e+01,1.000000000000e+00
76,1.200000000000e+00,1.997000000000e+01,1.000000000000e+00
77,0.000000000000e+00,2.996400000000e+01,0.000000000000e+00
78,0.000000000000e+00,3.003600000000e+01,2.000000000000e+00
79,-1.200000000000e+00,3.003000000000e+01,1.000000000000e+00
80,1.200000000000e+00,2.997000000000e+01,1.000000000000e+00
81,0.000000000000e+00,3.996400000000e+01,0.000000000000e+00
82,0.000000000000e+00,4.003600000000e+01,2.000000000000e+00
83,-1.200000000000e+00,4.003000000000e+01,1.000000000000e+00
84,1.200000000000e+00,3.997000000000e+01,1.000000000000e+00
85,-6.000000000000e-01,4.997454415588e+01,0.000000000000e+00
86,0.000000000000e+00,4.996400000000e+01,0.000000000000e+00
87,6.000000000000e-01,4.997454415588e+01,0.000000000000e+00
88,-6.000000000000e-01,5.002545584412e+01,2.000000000000e+00
89,0.000000000000e+00,5.003600000000e+01,2.000000000000e+00
90,6.000000000000e-01,5.002545584412e+01,2.000000000000e+00
91,-1.200000000000e+00,5.002121320344e+01,5.000000000000e-01
92,-1.200000000000e+00,5.003000000000e+01,1.000000000000e+00
93,-1.200000000000e+00,5.002121320344e+01,1.500000000000e+00
94,1.200000000000e+00,4.997878679656e+01,5.000000000000e-01
95,1.200000000000e+00,4.997000000000e+01,1.000000000000e+00
96,1.200000000000e+00,4.997878679656e+01,1.500000000000e+00
97,-1.200000000000e+00,2.521213203436e+00,3.939339828220e-01
98,-1.200000000000e+00,5.030000000000e+00,8.500000000000e-01
99,-1.200000000000e+00,7.521213203436e+00,1.393933982822e+00
100,-1.200000000000e+00,2.521213203436e+00,1.606066017178e+00
101,-1.200000000000e+00,5.030000000000e+00,1.150000000000e+00
102,-1.200000000000e+00,7.521213203436e+00,6.060660171780e-01
103,1.200000000000e+00,2.521213203436e+00,3.939339828220e-01
104,1.200000000000e+00,5.030000000000e+00,8.500000000000e-01
105,1.200000000000e+00,7.521213203436e+00,1.393933982822e+00
106,1.200000000000e+00,2.521213203436e+00,1.606066017178e+00
107,1.200000000000e+00,5.030000000000e+00,1.150000000000e+00
108,1.200000000000e+00,7.521213203436e+00,6.060660171780e-01
109,-4.939339828220e-01,2.474544155877e+00,0.000000000000e+00
110,1.500000000000e-01,4.964000000000e+00,0.000000000000e+00
111,7.060660171780e-01,7.474544155877e+00,0.000000000000e+00
112,4.939339828220e-01,2.474544155877e+00,0.000000000000e+00
113,-1.500000000000e-01,4.964000000000e+00,0.000000000000e+00
114,-7.060660171780e-01,7.474544155877e+00,0.000000000000e+00
115,-4.939339828220e-01,2.474544155877e+00,2.000000000000e+00
116,1.500000000000e-01,4.964000000000e+00,2.000000000000e+00
117,7.060660171780e-01,7.474544155877e+00,2.000000000000e+00
118,4.939339828220e-01,2.474544155877e+00,2.000000000000e+00
119,-1.500000000000e-01,4.964000000000e+00,2.000000000000e+00
120,-7.060660171780e-01,7.474544155877e+00,2.000000000000e+00
121,-1.200000000000e+00,1.503000000000e+01,8.500000000000e-01
122,-1.200000000000e+00,1.503000000000e+01,1.150000000000e+00
123,1.200000000000e+00,1.503000000000e+01,8.500000000000e-01
124,1.200000000000e+00,1.503000000000e+01,1.150000000000e+00
125,1.500000000000e-01,1.496400000000e+01,0.000000000000e+00
126,-1.500000000000e-01,1.496400000000e+01,0.000000000000e+00
127,1.500000000000e-01,1.496400000000e+01,2.000000000000e+00
128,-1.500000000000e-01,1.496400000000e+01,2.000000000000e+00
129,-1.200000000000e+00,2.126148050297e+01,1.925974851452e-01
130,-1.200000000000e+00,2.252121320344e+01,3.939339828220e-01
131,-1.200000000000e+00,2.377771638598e+01,6.114180701233e-01
132,-1.200000000000e+00,2.503000000000e+01,8.500000000000e-01
133,-1.200000000000e+00,2.627771638598e+01,1.111418070123e+00
134,-1.200000000000e+00,2.752121320344e+01,1.393933982822e+00
135,-1.200000000000e+00,2.876148050297e+01,1.692597485145e+00
136,-1.200000000000e+00,2.126148050297e+01,1.807402514855e+00
137,-1.200000000000e+00,2.252121320344e+01,1.606066017178e+00
138,-1.200000000000e+00,2.377771638598e+01,1.388581929877e+00
139,-1.200000000000e+00,2.503000000000e+01,1.150000000000e+00
140,-1.200000000000e+00,2.627771638598e+01,8.885819298767e-01
141,-1.200000000000e+00,2.752121320344e+01,6.060660171780e-01
142,-1.200000000000e+00,2.876148050297e+01,3.074025148548e-01
143,1.200000000000e+00,2.126148050297e+01,1.925974851452e-01
144,1.200000000000e+00,2.252121320344e+01,3.939339828220e-01
145,1.200000000000e+00,2.377771638598e+01,6.114180701233e-01
146,1.200000000000e+00,2.503000000000e+01,8.500000000000e-01
147,1.200000000000e+00,2.627771638598e+01,1.111418070123e+00
148,1.200000000000e+00,2.752121320344e+01,1.393933982822e+00
149,1.200000000000e+00,2.876148050297e+01,1.692597485145e+00
150,1.200000000000e+00,2.126148050297e+01,1.807402514855e+00
151,1.200000000000e+00,2.252121320344e+01,1.606066017178e+00
152,1.200000000000e+00,2.377771638598e+01,1.388581929877e+00
153,1.200000000000e+00,2.503000000000e+01,1.150000000000e+00
154,1.200000000000e+00,2.627771638598e+01,8.885819298767e-01
155,1.200000000000e+00,2.752121320344e+01,6.060660171780e-01
156,1.200000000000e+00,2.876148050297e+01,3.074025148548e-01
157,-8.425974851452e-01,2.123622339643e+01,0.000000000000e+00
158,-4.939339828220e-01,2.247454415588e+01,0.000000000000e+00
159,-1.614180701233e-01,2.371674033683e+01,0.000000000000e+00
160,1.500000000000e-01,2.496400000000e+01,0.000000000000e+00
161,4.385819298767e-01,2.621674033683e+01,0.000000000000e+00
162,7.060660171780e-01,2.747454415588e+01,0.000000000000e+00
163,9.574025148548e-01,2.873622339643e+01,0.000000000000e+00
164,8.425974851452e-01,2.123622339643e+01,0.000000000000e+00
165,4.939339828220e-01,2.247454415588e+01,0.000000000000e+00
166,1.614180701233e-01,2.371674033683e+01,0.000000000000e+00
167,-1.500000000000e-01,2.496400000000e+01,0.000000000000e+00
168,-4.385819298767e-01,2.621674033683e+01,0.000000000000e+00
169,-7.060660171780e-01,2.747454415588e+01,0.000000000000e+00
170,-9.574025148548e-01,2.873622339643e+01,0.000000000000e+00
171,-8.425974851452e-01,2.123622339643e+01,2.000000000000e+00
172,-4.939339828220e-01,2.247454415588e+01,2.000000000000e+00
173,-1.614180701233e-01,2.371674033683e+01,2.000000000000e+00
174,1.500000000000e-01,2.496400000000e+01,2.000000000000e+00
175,4.385819298767e-01,2.621674033683e+01,2.000000000000e+00
176,7.060660171780e-01,2.747454415588e+01,2.000000000000e+00
177,9.574025148548e-01,2.873622339643e+01,2.000000000000e+00
178,8.425974851452e-01,2.123622339643e+01,2.000000000000e+00
179,4.939339828220e-01,2.247454415588e+01,2.000000000000e+00
180,1.614180701233e-01,2.371674033683e+01,2.000000000000e+00
181,-1.500000000000e-01,2.496400000000e+01,2.000000000000e+00
182,-4.385819298767e-01,2.621674033683e+01,2.000000000000e+00
183,-7.060660171780e-01,2.747454415588e+01,2.000000000000e+00
184,-9.574025148548e-01,2.873622339643e+01,2.000000000000e+00
185,-1.200000000000e+00,3.126148050297e+01,1.925974851452e-01
186,-1.200000000000e+00,3.252121320344e+01,3.939339828220e-01
187,-1.200000000000e+00,3.377771638598e+01,6.114180701233e-01
188,-1.200000000000e+00,3.503000000000e+01,8.500000000000e-01
189,-1.200000000000e+00,3.627771638598e+01,1.111418070123e+00
190,-1.200000000000e+00,3.752121320344e+01,1.393933982822e+00
191,-1.200000000000e+00,3.876148050297e+01,1.692597485145e+00
192,-1.200000000000e+00,3.126148050297e+01,1.807402514855e+00
193,-1.200000000000e+00,3.252121320344e+01,1.606066017178e+00
194,-1.200000000000e+00,3.377771638598e+01,1.388581929877e+00
195,-1.200000000000e+00,3.503000000000e+01,1.150000000000e+00
196,-1.200000000000e+00,3.627771638598e+01,8.885819298767e-01
197,-1.200000000000e+00,3.752121320344e+01,6.060660171780e-01
198,-1.200000000000e+00,3.876148050297e+01,3.074025148548e-01
199,1.200000000000e+00,3.126148050297e+01,1.925974851452e-01
200,1.200000000000e+00,3.252121320344e+01,3.939339828220e-01
201,1.200000000000e+00,3.377771638598e+01,6.114180701233e-01
202,1.200000000000e+00,3.503000000000e+01,8.500000000000e-01
203,1.200000000000e+00,3.627771638598e+01,1.111418070123e+00
204,1.200000000000e+00,3.752121320344e+01,1.393933982822e+00
205,1.200000000000e+00,3.876148050297e+01,1.692597485145e+00
206,1.200000000000e+00,3.126148050297e+01,1.807402514855e+00
207,1.200000000000e+00,3.252121320344e+01,1.606066017178e+00
208,1.200000000000e+00,3.377771638598e+01,1.388581929877e+00
209,1.200000000000e+00,3.503000000000e+01,1.150000000000e+00
210,1.200000000000e+00,3.627771638598e+01,8.885819298767e-01
211,1.200000000000e+00,3.752121320344e+01,6.060660171780e-01
212,1.200000000000e+00,3.876148050297e+01,3.074025148548e-01
213,-8.425974851452e-01,3.123622339643e+01,0.000000000000e+00
214,-4.939339828220e-01,3.247454415588e+01,0.000000000000e+00
215,-1.614180701233e-01,3.371674033683e+01,0.000000000000e+00
216,1.500000000000e-01,3.496400000000e+01,0.000000000000e+00
217,4.385819298767e-01,3.621674033683e+01,0.000000000000e+00
218,7.060660171780e-01,3.747454415588e+01,0.000000000000e+00
219,9.574025148548e-01,3.873622339643e+01,0.000000000000e+00
220,8.425974851452e-01,3.123622339643e+01,0.000000000000e+00
221,4.939339828220e-01,3.247454415588e+01,0.000000000000e+00
222,1.614180701233e-01,3.371674033683e+01,0.000000000000e+00
223,-1.500000000000e-01,3.496400000000e+01,0.000000000000e+00
224,-4.385819298767e-01,3.621674033683e+01,0.000000000000e+00
225,-7.060660171780e-01,3.747454415588e+01,0.000000000000e+00
226,-9.574025148548e-01,3.873622339643e+01,0.000000000000e+00
227,-8.425974851452e-01,3.123622339643e+01,2.000000000000e+00
228,-4.939339828220e-01,3.247454415588e+01,2.000000000000e+00
229,-1.614180701233e-01,3.371674033683e+01,2.000000000000e+00
230,1.500000000000e-01,3.496400000000e+01,2.000000000000e+00
231,4.385819298767e-01,3.621674033683e+01,2.000000000000e+00
232,7.060660171780e-01,3.747454415588e+01,2.000000000000e+00
233,9.574025148548e-01,3.873622339643e+01,2.000000000000e+00
234,8.425974851452e-01,3.123622339643e+01,2.000000000000e+00
235,4.939339828220e-01,3.247454415588e+01,2.000000000000e+00
236,1.614180701233e-01,3.371674033683e+01,2.000000000000e+00
237,-1.500000000000e-01,3.496400000000e+01,2.000000000000e+00
238,-4.385819298767e-01,3.621674033683e+01,2.000000000000e+00
239,-7.060660171780e-01,3.747454415588e+01,2.000000000000e+00
240,-9.574025148548e-01,3.873622339643e+01,2.000000000000e+00
241,-1.200000000000e+00,4.252121320344e+01,3.939339828220e-01
242,-1.200000000000e+00,4.503000000000e+01,8.500000000000e-01
243,-1.200000000000e+00,4.752121320344e+01,1.393933982822e+00
244,-1.200000000000e+00,4.252121320344e+01,1.606066017178e+00
245,-1.200000000000e+00,4.503000000000e+01,1.150000000000e+00
246,-1.200000000000e+00,4.752121320344e+01,6.060660171780e-01
247,1.200000000000e+00,4.252121320344e+01,3.939339828220e-01
248,1.200000000000e+00,4.503000000000e+01,8.500000000000e-01
249,1.200000000000e+00,4.752121320344e+01,1.393933982822e+00
250,1.200000000000e+00,4.252121320344e+01,1.606066017178e+00
251,1.200000000000e+00,4.503000000000e+01,1.150000000000e+00
252,1.200000000000e+00,4.752121320344e+01,6.060660171780e-01
253,-4.939339828220e-01,4.247454415588e+01,0.000000000000e+00
254,1.500000000000e-01,4.496400000000e+01,0.000000000000e+00
255,7.060660171780e-01,4.747454415588e+01,0.000000000000e+00
256,4.939339828220e-01,4.247454415588e+01,0.000000000000e+00
257,-1.500000000000e-01,4.496400000000e+01,0.000000000000e+00
258,-7.060660171780e-01,4.747454415588e+01,0.000000000000e+00
259,-4.939339828220e-01,4.247454415588e+01,2.000000000000e+00
260,1.500000000000e-01,4.496400000000e+01,2.000000000000e+00
261,7.060660171780e-01,4.747454415588e+01,2.000000000000e+00
262,4.939339828220e-01,4.247454415588e+01,2.000000000000e+00
263,-1.500000000000e-01,4.496400000000e+01,2.000000000000e+00
264,-7.060660171780e-01,4.747454415588e+01,2.000000000000e+00
*ELEMENT,TYPE=B31,ELSET=ALL
1,1,5
2,2,6
3,3,7
4,4,8
5,5,25
6,25,9
7,6,26
8,26,10
9,7,27
10,27,11
11,8,28
12,28,12
13,9,29
14,29,13
15,10,30
16,30,14
17,11,31
18,31,15
19,12,32
20,32,16
21,13,33
22,33,34
23,34,35
24,35,17
25,14,36
26,36,37
27,37,38
28,38,18
29,15,39
30,39,40
31,40,41
32,41,19
33,16,42
34,42,43
35,43,44
36,44,20
37,17,45
38,45,46
39,46,47
40,47,21
41,18,48
42,48,49
43,49,50
44,50,22
45,19,51
46,51,52
47,52,53
48,53,23
49,20,54
50,54,55
51,55,56
52,56,24
53,1,57
54,57,58
55,58,59
56,59,2
57,3,60
58,60,61
59,61,62
60,62,4
61,1,63
62,63,64
63,64,65
64,65,3
65,2,66
66,66,67
67,67,68
68,68,4
69,5,69
70,69,6
71,7,70
72,70,8
73,5,71
74,71,7
75,6,72
76,72,8
77,9,73
78,73,10
79,11,74
80,74,12
81,9,75
82,75,11
83,10,76
84,76,12
85,13,77
86,77,14
87,15,78
88,78,16
89,13,79
90,79,15
91,14,80
92,80,16
93,17,81
94,81,18
95,19,82
96,82,20
97,17,83
98,83,19
99,18,84
100,84,20
101,21,85
102,85,86
103,86,87
104,87,22
105,23,88
106,88,89
107,89,90
108,90,24
109,21,91
110,91,92
111,92,93
112,93,23
113,22,94
114,94,95
115,95,96
116,96,24
117,1,97
118,97,98
119,98,99
120,99,7
121,3,100
122,100,101
123,101,102
124,102,5
125,2,103
126,103,104
127,104,105
128,105,8
129,4,106
130,106,107
131,107,108
132,108,6
133,1,109
134,109,110
135,110,111
136,111,6
137,2,112
138,112,113
139,113,114
140,114,5
141,3,115
142,115,116
143,116,117
144,117,8
145,4,118
146,118,119
147,119,120
148,120,7
149,5,121
150,121,11
151,7,122
152,122,9
153,6,123
154,123,12
155,8,124
156,124,10
157,5,125
158,125,10
159,6,126
160,126,9
161,7,127
162,127,12
163,8,128
164,128,11
165,9,129
166,129,130
167,130,131
168,131,132
169,132,133
170,133,134
171,134,135
172,135,15
173,11,136
174,136,137
175,137,138
176,138,139
177,139,140
178,140,141
179,141,142
180,142,13
181,10,143
182,143,144
183,144,145
184,145,146
185,146,147
186,147,148
187,148,149
188,149,16
189,12,150
190,150,151
191,151,152
192,152,153
193,153,154
194,154,155
195,155,156
196,156,14
197,9,157
198,157,158
199,158,159
200,159,160
201,160,161
202,161,162
203,162,163
204,163,14
205,10,164
206,164,165
207,165,166
208,166,167
209,167,168
210,168,169
211,169,170
212,170,13
213,11,171
214,171,172
215,172,173
216,173,174
217,174,175
218,175,176
219,176,177
220,177,16
221,12,178
222,178,179
223,179,180
224,180,181
225,181,182
226,182,183
227,183,184
228,184,15
229,13,185
230,185,186
231,186,187
232,187,188
233,188,189
234,189,190
235,190,191
236,191,19
237,15,192
238,192,193
239,193,194
240,194,195
241,195,196
242,196,197
243,197,198
244,198,17
245,14,199
246,199,200
247,200,201
248,201,202
249,202,203
250,203,204
251,204,205
252,205,20
253,16,206
254,206,207
255,207,208
256,208,209
257,209,210
258,210,211
259,211,212
260,212,18
261,13,213
262,213,214
263,214,215
264,215,216
265,216,217
266,217,218
267,218,219
268,219,18
269,14,220
270,220,221
271,221,222
272,222,223
273,223,224
274,224,225
275,225,226
276,226,17
277,15,227
278,227,228
279,228,229
280,229,230
281,230,231
282,231,232
283,232,233
284,233,20
285,16,234
286,234,235
287,235,236
288,236,237
289,237,238
290,238,239
291,239,240
292,240,19
293,17,241
294,241,242
295,242,243
296,243,23
297,19,244
298,244,245
299,245,246
300,246,21
301,18,247
302,247,248
303,248,249
304,249,24
305,20,250
306,250,251
307,251,252
308,252,22
309,17,253
310,253,254
311,254,255
312,255,22
313,18,256
314,256,257
315,257,258
316,258,21
317,19,259
318,259,260
319,260,261
320,261,24
321,20,262
322,262,263
323,263,264
324,264,23
*NSET,NSET=NALL,GENERATE
1,264,1
*NSET,NSET=LEFT
1,2,3,4
*NSET,NSET=RIGHT
21,22,23,24
*MATERIAL,NAME=STEEL
*ELASTIC
2.100000000000e+11,0.300000000000
*BEAM SECTION,ELSET=ALL,MATERIAL=STEEL,SECTION=RECT
6.000000000000e-02,4.000000000000e-02
0.371390676354,0.557086014531,0.742781352708
*BOUNDARY
LEFT,1,6,0.0
*STEP
*STATIC
*BOUNDARY
21,1,1,5.000000000000e-03
21,2,2,0.0
21,3,3,-6.000000000000e-03
*BOUNDARY
22,1,1,5.000000000000e-03
22,2,2,0.0
22,3,3,6.000000000000e-03
*BOUNDARY
23,1,1,-5.000000000000e-03
23,2,2,0.0
23,3,3,-6.000000000000e-03
*BOUNDARY
24,1,1,-5.000000000000e-03
24,2,2,0.0
24,3,3,6.000000000000e-03
*NODE FILE,NSET=NALL
U
*NODE PRINT,NSET=NALL
U
*NODE PRINT,NSET=RIGHT
RF
*EL PRINT,ELSET=ALL,TOTALS=YES
ELSE
*END STEP
