*HEADING
Normalized cross-passage space-truss torsion benchmark
*NODE
1,-1.200000000000e+00,0.000000000000e+00,0.000000000000e+00
2,1.200000000000e+00,0.000000000000e+00,0.000000000000e+00
3,-1.200000000000e+00,0.000000000000e+00,2.000000000000e+00
4,1.200000000000e+00,0.000000000000e+00,2.000000000000e+00
5,-1.200000000000e+00,1.000000000000e+01,0.000000000000e+00
6,1.200000000000e+00,1.000000000000e+01,0.000000000000e+00
7,-1.200000000000e+00,1.000000000000e+01,2.000000000000e+00
8,1.200000000000e+00,1.000000000000e+01,2.000000000000e+00
9,-1.200000000000e+00,2.000000000000e+01,0.000000000000e+00
10,1.200000000000e+00,2.000000000000e+01,0.000000000000e+00
11,-1.200000000000e+00,2.000000000000e+01,2.000000000000e+00
12,1.200000000000e+00,2.000000000000e+01,2.000000000000e+00
13,-1.200000000000e+00,3.000000000000e+01,0.000000000000e+00
14,1.200000000000e+00,3.000000000000e+01,0.000000000000e+00
15,-1.200000000000e+00,3.000000000000e+01,2.000000000000e+00
16,1.200000000000e+00,3.000000000000e+01,2.000000000000e+00
17,-1.200000000000e+00,4.000000000000e+01,0.000000000000e+00
18,1.200000000000e+00,4.000000000000e+01,0.000000000000e+00
19,-1.200000000000e+00,4.000000000000e+01,2.000000000000e+00
20,1.200000000000e+00,4.000000000000e+01,2.000000000000e+00
21,-1.200000000000e+00,5.000000000000e+01,0.000000000000e+00
22,1.200000000000e+00,5.000000000000e+01,0.000000000000e+00
23,-1.200000000000e+00,5.000000000000e+01,2.000000000000e+00
24,1.200000000000e+00,5.000000000000e+01,2.000000000000e+00
25,-1.200000000000e+00,5.000000000000e+00,-1.500000000000e-01
26,1.200000000000e+00,5.000000000000e+00,1.500000000000e-01
27,-1.200000000000e+00,5.000000000000e+00,1.850000000000e+00
28,1.200000000000e+00,5.000000000000e+00,2.150000000000e+00
29,-1.200000000000e+00,1.500000000000e+01,-1.500000000000e-01
30,1.200000000000e+00,1.500000000000e+01,1.500000000000e-01
31,-1.200000000000e+00,1.500000000000e+01,1.850000000000e+00
32,1.200000000000e+00,1.500000000000e+01,2.150000000000e+00
33,-1.200000000000e+00,2.500000000000e+01,-1.500000000000e-01
34,1.200000000000e+00,2.500000000000e+01,1.500000000000e-01
35,-1.200000000000e+00,2.500000000000e+01,1.850000000000e+00
36,1.200000000000e+00,2.500000000000e+01,2.150000000000e+00
37,-1.200000000000e+00,3.500000000000e+01,-1.500000000000e-01
38,1.200000000000e+00,3.500000000000e+01,1.500000000000e-01
39,-1.200000000000e+00,3.500000000000e+01,1.850000000000e+00
40,1.200000000000e+00,3.500000000000e+01,2.150000000000e+00
41,-1.200000000000e+00,4.250000000000e+01,-1.060660171780e-01
42,-1.200000000000e+00,4.500000000000e+01,-1.500000000000e-01
43,-1.200000000000e+00,4.750000000000e+01,-1.060660171780e-01
44,1.200000000000e+00,4.250000000000e+01,1.060660171780e-01
45,1.200000000000e+00,4.500000000000e+01,1.500000000000e-01
46,1.200000000000e+00,4.750000000000e+01,1.060660171780e-01
47,-1.200000000000e+00,4.250000000000e+01,1.893933982822e+00
48,-1.200000000000e+00,4.500000000000e+01,1.850000000000e+00
49,-1.200000000000e+00,4.750000000000e+01,1.893933982822e+00
50,1.200000000000e+00,4.250000000000e+01,2.106066017178e+00
51,1.200000000000e+00,4.500000000000e+01,2.150000000000e+00
52,1.200000000000e+00,4.750000000000e+01,2.106066017178e+00
53,0.000000000000e+00,-3.600000000000e-02,0.000000000000e+00
54,0.000000000000e+00,3.600000000000e-02,2.000000000000e+00
55,-1.200000000000e+00,3.000000000000e-02,1.000000000000e+00
56,1.200000000000e+00,-3.000000000000e-02,1.000000000000e+00
57,0.000000000000e+00,9.964000000000e+00,0.000000000000e+00
58,0.000000000000e+00,1.003600000000e+01,2.000000000000e+00
59,-1.200000000000e+00,1.003000000000e+01,1.000000000000e+00
60,1.200000000000e+00,9.970000000000e+00,1.000000000000e+00
61,0.000000000000e+00,1.996400000000e+01,0.000000000000e+00
62,0.000000000000e+00,2.003600000000e+01,2.000000000000e+00
63,-1.200000000000e+00,2.003000000000e+01,1.000000000000e+00
64,1.200000000000e+00,1.997000000000e+01,1.000000000000e+00
65,0.000000000000e+00,2.996400000000e+01,0.000000000000e+00
66,0.000000000000e+00,3.003600000000e+01,2.000000000000e+00
67,-1.200000000000e+00,3.003000000000e+01,1.000000000000e+00
68,1.200000000000e+00,2.997000000000e+01,1.000000000000e+00
69,0.000000000000e+00,3.996400000000e+01,0.000000000000e+00
70,0.000000000000e+00,4.003600000000e+01,2.000000000000e+00
71,-1.200000000000e+00,4.003000000000e+01,1.000000000000e+00
72,1.200000000000e+00,3.997000000000e+01,1.000000000000e+00
73,-6.000000000000e-01,4.997454415588e+01,0.000000000000e+00
74,0.000000000000e+00,4.996400000000e+01,0.000000000000e+00
75,6.000000000000e-01,4.997454415588e+01,0.000000000000e+00
76,-6.000000000000e-01,5.002545584412e+01,2.000000000000e+00
77,0.000000000000e+00,5.003600000000e+01,2.000000000000e+00
78,6.000000000000e-01,5.002545584412e+01,2.000000000000e+00
79,-1.200000000000e+00,5.002121320344e+01,5.000000000000e-01
80,-1.200000000000e+00,5.003000000000e+01,1.000000000000e+00
81,-1.200000000000e+00,5.002121320344e+01,1.500000000000e+00
82,1.200000000000e+00,4.997878679656e+01,5.000000000000e-01
83,1.200000000000e+00,4.997000000000e+01,1.000000000000e+00
84,1.200000000000e+00,4.997878679656e+01,1.500000000000e+00
85,-1.200000000000e+00,2.521213203436e+00,3.939339828220e-01
86,-1.200000000000e+00,5.030000000000e+00,8.500000000000e-01
87,-1.200000000000e+00,7.521213203436e+00,1.393933982822e+00
88,-1.200000000000e+00,2.521213203436e+00,1.606066017178e+00
89,-1.200000000000e+00,5.030000000000e+00,1.150000000000e+00
90,-1.200000000000e+00,7.521213203436e+00,6.060660171780e-01
91,1.200000000000e+00,2.521213203436e+00,3.939339828220e-01
92,1.200000000000e+00,5.030000000000e+00,8.500000000000e-01
93,1.200000000000e+00,7.521213203436e+00,1.393933982822e+00
94,1.200000000000e+00,2.521213203436e+00,1.606066017178e+00
95,1.200000000000e+00,5.030000000000e+00,1.150000000000e+00
96,1.200000000000e+00,7.521213203436e+00,6.060660171780e-01
97,-4.939339828220e-01,2.474544155877e+00,0.000000000000e+00
98,1.500000000000e-01,4.964000000000e+00,0.000000000000e+00
99,7.060660171780e-01,7.474544155877e+00,0.000000000000e+00
100,4.939339828220e-01,2.474544155877e+00,0.000000000000e+00
101,-1.500000000000e-01,4.964000000000e+00,0.000000000000e+00
102,-7.060660171780e-01,7.474544155877e+00,0.000000000000e+00
103,-4.939339828220e-01,2.474544155877e+00,2.000000000000e+00
104,1.500000000000e-01,4.964000000000e+00,2.000000000000e+00
105,7.060660171780e-01,7.474544155877e+00,2.000000000000e+00
106,4.939339828220e-01,2.474544155877e+00,2.000000000000e+00
107,-1.500000000000e-01,4.964000000000e+00,2.000000000000e+00
108,-7.060660171780e-01,7.474544155877e+00,2.000000000000e+00
109,-1.200000000000e+00,1.252121320344e+01,3.939339828220e-01
110,-1.200000000000e+00,1.503000000000e+01,8.500000000000e-01
111,-1.200000000000e+00,1.752121320344e+01,1.393933982822e+00
112,-1.200000000000e+00,1.252121320344e+01,1.606066017178e+00
113,-1.200000000000e+00,1.503000000000e+01,1.150000000000e+00
114,-1.200000000000e+00,1.752121320344e+01,6.060660171780e-01
115,1.200000000000e+00,1.252121320344e+01,3.939339828220e-01
116,1.200000000000e+00,1.503000000000e+01,8.500000000000e-01
117,1.200000000000e+00,1.752121320344e+01,1.393933982822e+00
118,1.200000000000e+00,1.252121320344e+01,1.606066017178e+00
119,1.200000000000e+00,1.503000000000e+01,1.150000000000e+00
120,1.200000000000e+00,1.752121320344e+01,6.060660171780e-01
121,-4.939339828220e-01,1.247454415588e+01,0.000000000000e+00
122,1.500000000000e-01,1.496400000000e+01,0.000000000000e+00
123,7.060660171780e-01,1.747454415588e+01,0.000000000000e+00
124,4.939339828220e-01,1.247454415588e+01,0.000000000000e+00
125,-1.500000000000e-01,1.496400000000e+01,0.000000000000e+00
126,-7.060660171780e-01,1.747454415588e+01,0.000000000000e+00
127,-4.939339828220e-01,1.247454415588e+01,2.000000000000e+00
128,1.500000000000e-01,1.496400000000e+01,2.000000000000e+00
129,7.060660171780e-01,1.747454415588e+01,2.000000000000e+00
130,4.939339828220e-01,1.247454415588e+01,2.000000000000e+00
131,-1.500000000000e-01,1.496400000000e+01,2.000000000000e+00
132,-7.060660171780e-01,1.747454415588e+01,2.000000000000e+00
133,-1.200000000000e+00,2.252121320344e+01,3.939339828220e-01
134,-1.200000000000e+00,2.503000000000e+01,8.500000000000e-01
135,-1.200000000000e+00,2.752121320344e+01,1.393933982822e+00
136,-1.200000000000e+00,2.252121320344e+01,1.606066017178e+00
137,-1.200000000000e+00,2.503000000000e+01,1.150000000000e+00
138,-1.200000000000e+00,2.752121320344e+01,6.060660171780e-01
139,1.200000000000e+00,2.252121320344e+01,3.939339828220e-01
140,1.200000000000e+00,2.503000000000e+01,8.500000000000e-01
141,1.200000000000e+00,2.752121320344e+01,1.393933982822e+00
142,1.200000000000e+00,2.252121320344e+01,1.606066017178e+00
143,1.200000000000e+00,2.503000000000e+01,1.150000000000e+00
144,1.200000000000e+00,2.752121320344e+01,6.060660171780e-01
145,-4.939339828220e-01,2.247454415588e+01,0.000000000000e+00
146,1.500000000000e-01,2.496400000000e+01,0.000000000000e+00
147,7.060660171780e-01,2.747454415588e+01,0.000000000000e+00
148,4.939339828220e-01,2.247454415588e+01,0.000000000000e+00
149,-1.500000000000e-01,2.496400000000e+01,0.000000000000e+00
150,-7.060660171780e-01,2.747454415588e+01,0.000000000000e+00
151,-4.939339828220e-01,2.247454415588e+01,2.000000000000e+00
152,1.500000000000e-01,2.496400000000e+01,2.000000000000e+00
153,7.060660171780e-01,2.747454415588e+01,2.000000000000e+00
154,4.939339828220e-01,2.247454415588e+01,2.000000000000e+00
155,-1.500000000000e-01,2.496400000000e+01,2.000000000000e+00
156,-7.060660171780e-01,2.747454415588e+01,2.000000000000e+00
157,-1.200000000000e+00,3.252121320344e+01,3.939339828220e-01
158,-1.200000000000e+00,3.503000000000e+01,8.500000000000e-01
159,-1.200000000000e+00,3.752121320344e+01,1.393933982822e+00
160,-1.200000000000e+00,3.252121320344e+01,1.606066017178e+00
161,-1.200000000000e+00,3.503000000000e+01,1.150000000000e+00
162,-1.200000000000e+00,3.752121320344e+01,6.060660171780e-01
163,1.200000000000e+00,3.252121320344e+01,3.939339828220e-01
164,1.200000000000e+00,3.503000000000e+01,8.500000000000e-01
165,1.200000000000e+00,3.752121320344e+01,1.393933982822e+00
166,1.200000000000e+00,3.252121320344e+01,1.606066017178e+00
167,1.200000000000e+00,3.503000000000e+01,1.150000000000e+00
168,1.200000000000e+00,3.752121320344e+01,6.060660171780e-01
169,-4.939339828220e-01,3.247454415588e+01,0.000000000000e+00
170,1.500000000000e-01,3.496400000000e+01,0.000000000000e+00
171,7.060660171780e-01,3.747454415588e+01,0.000000000000e+00
172,4.939339828220e-01,3.247454415588e+01,0.000000000000e+00
173,-1.500000000000e-01,3.496400000000e+01,0.000000000000e+00
174,-7.060660171780e-01,3.747454415588e+01,0.000000000000e+00
175,-4.939339828220e-01,3.247454415588e+01,2.000000000000e+00
176,1.500000000000e-01,3.496400000000e+01,2.000000000000e+00
177,7.060660171780e-01,3.747454415588e+01,2.000000000000e+00
178,4.939339828220e-01,3.247454415588e+01,2.000000000000e+00
179,-1.500000000000e-01,3.496400000000e+01,2.000000000000e+00
180,-7.060660171780e-01,3.747454415588e+01,2.000000000000e+00
181,-1.200000000000e+00,4.252121320344e+01,3.939339828220e-01
182,-1.200000000000e+00,4.503000000000e+01,8.500000000000e-01
183,-1.200000000000e+00,4.752121320344e+01,1.393933982822e+00
184,-1.200000000000e+00,4.252121320344e+01,1.606066017178e+00
185,-1.200000000000e+00,4.503000000000e+01,1.150000000000e+00
186,-1.200000000000e+00,4.752121320344e+01,6.060660171780e-01
187,1.200000000000e+00,4.252121320344e+01,3.939339828220e-01
188,1.200000000000e+00,4.503000000000e+01,8.500000000000e-01
189,1.200000000000e+00,4.752121320344e+01,1.393933982822e+00
190,1.200000000000e+00,4.252121320344e+01,1.606066017178e+00
191,1.200000000000e+00,4.503000000000e+01,1.150000000000e+00
192,1.200000000000e+00,4.752121320344e+01,6.060660171780e-01
193,-4.939339828220e-01,4.247454415588e+01,0.000000000000e+00
194,1.500000000000e-01,4.496400000000e+01,0.000000000000e+00
195,7.060660171780e-01,4.747454415588e+01,0.000000000000e+00
196,4.939339828220e-01,4.247454415588e+01,0.000000000000e+00
197,-1.500000000000e-01,4.496400000000e+01,0.000000000000e+00
198,-7.060660171780e-01,4.747454415588e+01,0.000000000000e+00
199,-4.939339828220e-01,4.247454415588e+01,2.000000000000e+00
200,1.500000000000e-01,4.496400000000e+01,2.000000000000e+00
201,7.060660171780e-01,4.747454415588e+01,2.000000000000e+00
202,4.939339828220e-01,4.247454415588e+01,2.000000000000e+00
203,-1.500000000000e-01,4.496400000000e+01,2.000000000000e+00
204,-7.060660171780e-01,4.747454415588e+01,2.000000000000e+00
*ELEMENT,TYPE=B31,ELSET=ALL
1,1,25
2,25,5
3,2,26
4,26,6
5,3,27
6,27,7
7,4,28
8,28,8
9,5,29
10,29,9
11,6,30
12,30,10
13,7,31
14,31,11
15,8,32
16,32,12
17,9,33
18,33,13
19,10,34
20,34,14
21,11,35
22,35,15
23,12,36
24,36,16
25,13,37
26,37,17
27,14,38
28,38,18
29,15,39
30,39,19
31,16,40
32,40,20
33,17,41
34,41,42
35,42,43
36,43,21
37,18,44
38,44,45
39,45,46
40,46,22
41,19,47
42,47,48
43,48,49
44,49,23
45,20,50
46,50,51
47,51,52
48,52,24
49,1,53
50,53,2
51,3,54
52,54,4
53,1,55
54,55,3
55,2,56
56,56,4
57,5,57
58,57,6
59,7,58
60,58,8
61,5,59
62,59,7
63,6,60
64,60,8
65,9,61
66,61,10
67,11,62
68,62,12
69,9,63
70,63,11
71,10,64
72,64,12
73,13,65
74,65,14
75,15,66
76,66,16
77,13,67
78,67,15
79,14,68
80,68,16
81,17,69
82,69,18
83,19,70
84,70,20
85,17,71
86,71,19
87,18,72
88,72,20
89,21,73
90,73,74
91,74,75
92,75,22
93,23,76
94,76,77
95,77,78
96,78,24
97,21,79
98,79,80
99,80,81
100,81,23
101,22,82
102,82,83
103,83,84
104,84,24
105,1,85
106,85,86
107,86,87
108,87,7
109,3,88
110,88,89
111,89,90
112,90,5
113,2,91
114,91,92
115,92,93
116,93,8
117,4,94
118,94,95
119,95,96
120,96,6
121,1,97
122,97,98
123,98,99
124,99,6
125,2,100
126,100,101
127,101,102
128,102,5
129,3,103
130,103,104
131,104,105
132,105,8
133,4,106
134,106,107
135,107,108
136,108,7
137,5,109
138,109,110
139,110,111
140,111,11
141,7,112
142,112,113
143,113,114
144,114,9
145,6,115
146,115,116
147,116,117
148,117,12
149,8,118
150,118,119
151,119,120
152,120,10
153,5,121
154,121,122
155,122,123
156,123,10
157,6,124
158,124,125
159,125,126
160,126,9
161,7,127
162,127,128
163,128,129
164,129,12
165,8,130
166,130,131
167,131,132
168,132,11
169,9,133
170,133,134
171,134,135
172,135,15
173,11,136
174,136,137
175,137,138
176,138,13
177,10,139
178,139,140
179,140,141
180,141,16
181,12,142
182,142,143
183,143,144
184,144,14
185,9,145
186,145,146
187,146,147
188,147,14
189,10,148
190,148,149
191,149,150
192,150,13
193,11,151
194,151,152
195,152,153
196,153,16
197,12,154
198,154,155
199,155,156
200,156,15
201,13,157
202,157,158
203,158,159
204,159,19
205,15,160
206,160,161
207,161,162
208,162,17
209,14,163
210,163,164
211,164,165
212,165,20
213,16,166
214,166,167
215,167,168
216,168,18
217,13,169
218,169,170
219,170,171
220,171,18
221,14,172
222,172,173
223,173,174
224,174,17
225,15,175
226,175,176
227,176,177
228,177,20
229,16,178
230,178,179
231,179,180
232,180,19
233,17,181
234,181,182
235,182,183
236,183,23
237,19,184
238,184,185
239,185,186
240,186,21
241,18,187
242,187,188
243,188,189
244,189,24
245,20,190
246,190,191
247,191,192
248,192,22
249,17,193
250,193,194
251,194,195
252,195,22
253,18,196
254,196,197
255,197,198
256,198,21
257,19,199
258,199,200
259,200,201
260,201,24
261,20,202
262,202,203
263,203,204
264,204,23
*NSET,NSET=NALL,GENERATE
1,204,1
*NSET,NSET=LEFT
1,2,3,4
*NSET,NSET=RIGHT
21,22,23,24
*MATERIAL,NAME=STEEL
*ELASTIC
2.100000000000e+11,0.300000000000
*BEAM SECTION,ELSET=ALL,MATERIAL=STEEL,SECTION=RECT
6.000000000000e-02,4.000000000000e-02
0.371390676354,0.557086014531,0.742781352708
*BOUNDARY
LEFT,1,6,0.0
*STEP
*STATIC
*BOUNDARY
21,1,1,5.000000000000e-03
21,2,2,0.0
21,3,3,-6.000000000000e-03
*BOUNDARY
22,1,1,5.000000000000e-03
22,2,2,0.0
22,3,3,6.000000000000e-03
*BOUNDARY
23,1,1,-5.000000000000e-03
23,2,2,0.0
23,3,3,-6.000000000000e-03
*BOUNDARY
24,1,1,-5.000000000000e-03
24,2,2,0.0
24,3,3,6.000000000000e-03
*NODE FILE,NSET=NALL
U
*NODE PRINT,NSET=NALL
U
*NODE PRINT,NSET=RIGHT
RF
*EL PRINT,ELSET=ALL,TOTALS=YES
ELSE
*END STEP
