*HEADING
Normalized cross-passage space-truss torsion benchmark
*NODE
1,-1.200000000000e+00,0.000000000000e+00,0.000000000000e+00
2,1.200000000000e+00,0.000000000000e+00,0.000000000000e+00
3,-1.200000000000e+00,0.000000000000e+00,2.000000000000e+00
4,1.200000000000e+00,0.000000000000e+00,2.000000000000e+00
5,-1.200000000000e+00,1.000000000000e+01,0.000000000000e+00
6,1.200000000000e+00,1.000000000000e+01,0.000000000000e+00
7,-1.200000000000e+00,1.000000000000e+01,2.000000000000e+00
8,1.200000000000e+00,1.000000000000e+01,2.000000000000e+00
9,-1.200000000000e+00,2.000000000000e+01,0.000000000000e+00
10,1.200000000000e+00,2.000000000000e+01,0.000000000000e+00
11,-1.200000000000e+00,2.000000000000e+01,2.000000000000e+00
12,1.200000000000e+00,2.000000000000e+01,2.000000000000e+00
13,-1.200000000000e+00,3.000000000000e+01,0.000000000000e+00
14,1.200000000000e+00,3.000000000000e+01,0.000000000000e+00
15,-1.200000000000e+00,3.000000000000e+01,2.000000000000e+00
16,1.200000000000e+00,3.000000000000e+01,2.000000000000e+00
17,-1.200000000000e+00,4.000000000000e+01,0.000000000000e+00
18,1.200000000000e+00,4.000000000000e+01,0.000000000000e+00
19,-1.200000000000e+00,4.000000000000e+01,2.000000000000e+00
20,1.200000000000e+00,4.000000000000e+01,2.000000000000e+00
21,-1.200000000000e+00,5.000000000000e+01,0.000000000000e+00
22,1.200000000000e+00,5.000000000000e+01,0.000000000000e+00
23,-1.200000000000e+00,5.000000000000e+01,2.000000000000e+00
24,1.200000000000e+00,5.000000000000e+01,2.000000000000e+00
25,-1.200000000000e+00,5.000000000000e+00,-1.500000000000e-01
26,1.200000000000e+00,5.000000000000e+00,1.500000000000e-01
27,-1.200000000000e+00,5.000000000000e+00,1.850000000000e+00
28,1.200000000000e+00,5.000000000000e+00,2.150000000000e+00
29,-1.200000000000e+00,1.500000000000e+01,-1.500000000000e-01
30,1.200000000000e+00,1.500000000000e+01,1.500000000000e-01
31,-1.200000000000e+00,1.500000000000e+01,1.850000000000e+00
32,1.200000000000e+00,1.500000000000e+01,2.150000000000e+00
33,-1.200000000000e+00,4.125000000000e+01,-5.740251485476e-02
34,-1.200000000000e+00,4.250000000000e+01,-1.060660171780e-01
35,-1.200000000000e+00,4.375000000000e+01,-1.385819298767e-01
36,-1.200000000000e+00,4.500000000000e+01,-1.500000000000e-01
37,-1.200000000000e+00,4.625000000000e+01,-1.385819298767e-01
38,-1.200000000000e+00,4.750000000000e+01,-1.060660171780e-01
39,-1.200000000000e+00,4.875000000000e+01,-5.740251485476e-02
40,1.200000000000e+00,4.125000000000e+01,5.740251485476e-02
41,1.200000000000e+00,4.250000000000e+01,1.060660171780e-01
42,1.200000000000e+00,4.375000000000e+01,1.385819298767e-01
43,1.200000000000e+00,4.500000000000e+01,1.500000000000e-01
44,1.200000000000e+00,4.625000000000e+01,1.385819298767e-01
45,1.200000000000e+00,4.750000000000e+01,1.060660171780e-01
46,1.200000000000e+00,4.875000000000e+01,5.740251485476e-02
47,-1.200000000000e+00,4.125000000000e+01,1.942597485145e+00
48,-1.200000000000e+00,4.250000000000e+01,1.893933982822e+00
49,-1.200000000000e+00,4.375000000000e+01,1.861418070123e+00
50,-1.200000000000e+00,4.500000000000e+01,1.850000000000e+00
51,-1.200000000000e+00,4.625000000000e+01,1.861418070123e+00
52,-1.200000000000e+00,4.750000000000e+01,1.893933982822e+00
53,-1.200000000000e+00,4.875000000000e+01,1.942597485145e+00
54,1.200000000000e+00,4.125000000000e+01,2.057402514855e+00
55,1.200000000000e+00,4.250000000000e+01,2.106066017178e+00
56,1.200000000000e+00,4.375000000000e+01,2.138581929877e+00
57,1.200000000000e+00,4.500000000000e+01,2.150000000000e+00
58,1.200000000000e+00,4.625000000000e+01,2.138581929877e+00
59,1.200000000000e+00,4.750000000000e+01,2.106066017178e+00
60,1.200000000000e+00,4.875000000000e+01,2.057402514855e+00
61,0.000000000000e+00,-3.600000000000e-02,0.000000000000e+00
62,0.000000000000e+00,3.600000000000e-02,2.000000000000e+00
63,-1.200000000000e+00,3.000000000000e-02,1.000000000000e+00
64,1.200000000000e+00,-3.000000000000e-02,1.000000000000e+00
65,0.000000000000e+00,1.996400000000e+01,0.000000000000e+00
66,0.000000000000e+00,2.003600000000e+01,2.000000000000e+00
67,-1.200000000000e+00,2.003000000000e+01,1.000000000000e+00
68,1.200000000000e+00,1.997000000000e+01,1.000000000000e+00
69,-6.000000000000e-01,2.997454415588e+01,0.000000000000e+00
70,0.000000000000e+00,2.996400000000e+01,0.000000000000e+00
71,6.000000000000e-01,2.997454415588e+01,0.000000000000e+00
72,-6.000000000000e-01,3.002545584412e+01,2.000000000000e+00
73,0.000000000000e+00,3.003600000000e+01,2.000000000000e+00
74,6.000000000000e-01,3.002545584412e+01,2.000000000000e+00
75,-1.200000000000e+00,3.002121320344e+01,5.000000000000e-01
76,-1.200000000000e+00,3.003000000000e+01,1.000000000000e+00
77,-1.200000000000e+00,3.002121320344e+01,1.500000000000e+00
78,1.200000000000e+00,2.997878679656e+01,5.000000000000e-01
79,1.200000000000e+00,2.997000000000e+01,1.000000000000e+00
80,1.200000000000e+00,2.997878679656e+01,1.500000000000e+00
81,0.000000000000e+00,3.996400000000e+01,0.000000000000e+00
82,0.000000000000e+00,4.003600000000e+01,2.000000000000e+00
83,-1.200000000000e+00,4.003000000000e+01,1.000000000000e+00
84,1.200000000000e+00,3.997000000000e+01,1.000000000000e+00
85,0.000000000000e+00,4.996400000000e+01,0.000000000000e+00
86,0.000000000000e+00,5.003600000000e+01,2.000000000000e+00
87,-1.200000000000e+00,5.003000000000e+01,1.000000000000e+00
88,1.200000000000e+00,4.997000000000e+01,1.000000000000e+00
89,-1.200000000000e+00,1.261480502971e+00,1.925974851452e-01
90,-1.200000000000e+00,2.521213203436e+00,3.939339828220e-01
91,-1.200000000000e+00,3.777716385975e+00,6.114180701233e-01
92,-1.200000000000e+00,5.030000000000e+00,8.500000000000e-01
93,-1.200000000000e+00,6.277716385975e+00,1.111418070123e+00
94,-1.200000000000e+00,7.521213203436e+00,1.393933982822e+00
95,-1.200000000000e+00,8.761480502971e+00,1.692597485145e+00
96,-1.200000000000e+00,1.261480502971e+00,1.807402514855e+00
97,-1.200000000000e+00,2.521213203436e+00,1.606066017178e+00
98,-1.200000000000e+00,3.777716385975e+00,1.388581929877e+00
99,-1.200000000000e+00,5.030000000000e+00,1.150000000000e+00
100,-1.200000000000e+00,6.277716385975e+00,8.885819298767e-01
101,-1.200000000000e+00,7.521213203436e+00,6.060660171780e-01
102,-1.200000000000e+00,8.761480502971e+00,3.074025148548e-01
103,1.200000000000e+00,1.261480502971e+00,1.925974851452e-01
104,1.200000000000e+00,2.521213203436e+00,3.939339828220e-01
105,1.200000000000e+00,3.777716385975e+00,6.114180701233e-01
106,1.200000000000e+00,5.030000000000e+00,8.500000000000e-01
107,1.200000000000e+00,6.277716385975e+00,1.111418070123e+00
108,1.200000000000e+00,7.521213203436e+00,1.393933982822e+00
109,1.200000000000e+00,8.761480502971e+00,1.692597485145e+00
110,1.200000000000e+00,1.261480502971e+00,1.807402514855e+00
111,1.200000000000e+00,2.521213203436e+00,1.606066017178e+00
112,1.200000000000e+00,3.777716385975e+00,1.388581929877e+00
113,1.200000000000e+00,5.030000000000e+00,1.150000000000e+00
114,1.200000000000e+00,6.277716385975e+00,8.885819298767e-01
115,1.200000000000e+00,7.521213203436e+00,6.060660171780e-01
116,1.200000000000e+00,8.761480502971e+00,3.074025148548e-01
117,-8.425974851452e-01,1.236223396435e+00,0.000000000000e+00
118,-4.939339828220e-01,2.474544155877e+00,0.000000000000e+00
119,-1.614180701233e-01,3.716740336830e+00,0.000000000000e+00
120,1.500000000000e-01,4.964000000000e+00,0.000000000000e+00
121,4.385819298767e-01,6.216740336830e+00,0.000000000000e+00
122,7.060660171780e-01,7.474544155877e+00,0.000000000000e+00
123,9.574025148548e-01,8.736223396435e+00,0.000000000000e+00
124,8.425974851452e-01,1.236223396435e+00,0.000000000000e+00
125,4.939339828220e-01,2.474544155877e+00,0.000000000000e+00
126,1.614180701233e-01,3.716740336830e+00,0.000000000000e+00
127,-1.500000000000e-01,4.964000000000e+00,0.000000000000e+00
128,-4.385819298767e-01,6.216740336830e+00,0.000000000000e+00
129,-7.060660171780e-01,7.474544155877e+00,0.000000000000e+00
130,-9.574025148548e-01,8.736223396435e+00,0.000000000000e+00
131,-8.425974851452e-01,1.236223396435e+00,2.000000000000e+00
132,-4.939339828220e-01,2.474544155877e+00,2.000000000000e+00
133,-1.614180701233e-01,3.716740336830e+00,2.000000000000e+00
134,1.500000000000e-01,4.964000000000e+00,2.000000000000e+00
135,4.385819298767e-01,6.216740336830e+00,2.000000000000e+00
136,7.060660171780e-01,7.474544155877e+00,2.000000000000e+00
137,9.574025148548e-01,8.736223396435e+00,2.000000000000e+00
138,8.425974851452e-01,1.236223396435e+00,2.000000000000e+00
139,4.939339828220e-01,2.474544155877e+00,2.000000000000e+00
140,1.614180701233e-01,3.716740336830e+00,2.000000000000e+00
141,-1.500000000000e-01,4.964000000000e+00,2.000000000000e+00
142,-4.385819298767e-01,6.216740336830e+00,2.000000000000e+00
143,-7.060660171780e-01,7.474544155877e+00,2.000000000000e+00
144,-9.574025148548e-01,8.736223396435e+00,2.000000000000e+00
145,-1.200000000000e+00,1.252121320344e+01,3.939339828220e-01
146,-1.200000000000e+00,1.503000000000e+01,8.500000000000e-01
147,-1.200000000000e+00,1.752121320344e+01,1.393933982822e+00
148,-1.200000000000e+00,1.252121320344e+01,1.606066017178e+00
149,-1.200000000000e+00,1.503000000000e+01,1.150000000000e+00
150,-1.200000000000e+00,1.752121320344e+01,6.060660171780e-01
151,1.200000000000e+00,1.252121320344e+01,3.939339828220e-01
152,1.200000000000e+00,1.503000000000e+01,8.500000000000e-01
153,1.200000000000e+00,1.752121320344e+01,1.393933982822e+00
154,1.200000000000e+00,1.252121320344e+01,1.606066017178e+00
155,1.200000000000e+00,1.503000000000e+01,1.150000000000e+00
156,1.200000000000e+00,1.752121320344e+01,6.060660171780e-01
157,-4.939339828220e-01,1.247454415588e+01,0.000000000000e+00
158,1.500000000000e-01,1.496400000000e+01,0.000000000000e+00
159,7.060660171780e-01,1.747454415588e+01,0.000000000000e+00
160,4.939339828220e-01,1.247454415588e+01,0.000000000000e+00
161,-1.500000000000e-01,1.496400000000e+01,0.000000000000e+00
162,-7.060660171780e-01,1.747454415588e+01,0.000000000000e+00
163,-4.939339828220e-01,1.247454415588e+01,2.000000000000e+00
164,1.500000000000e-01,1.496400000000e+01,2.000000000000e+00
165,7.060660171780e-01,1.747454415588e+01,2.000000000000e+00
166,4.939339828220e-01,1.247454415588e+01,2.000000000000e+00
167,-1.500000000000e-01,1.496400000000e+01,2.000000000000e+00
168,-7.060660171780e-01,1.747454415588e+01,2.000000000000e+00
169,-1.200000000000e+00,3.503000000000e+01,8.500000000000e-01
170,-1.200000000000e+00,3.503000000000e+01,1.150000000000e+00
171,1.200000000000e+00,3.503000000000e+01,8.500000000000e-01
172,1.200000000000e+00,3.503000000000e+01,1.150000000000e+00
173,1.500000000000e-01,3.496400000000e+01,0.000000000000e+00
174,-1.500000000000e-01,3.496400000000e+01,0.000000000000e+00
175,1.500000000000e-01,3.496400000000e+01,2.000000000000e+00
176,-1.500000000000e-01,3.496400000000e+01,2.000000000000e+00
177,-1.200000000000e+00,4.126148050297e+01,1.925974851452e-01
178,-1.200000000000e+00,4.252121320344e+01,3.939339828220e-01
179,-1.200000000000e+00,4.377771638598e+01,6.114180701233e-01
180,-1.200000000000e+00,4.503000000000e+01,8.500000000000e-01
181,-1.200000000000e+00,4.627771638598e+01,1.111418070123e+00
182,-1.200000000000e+00,4.752121320344e+01,1.393933982822e+00
183,-1.200000000000e+00,4.876148050297e+01,1.692597485145e+00
184,-1.200000000000e+00,4.126148050297e+01,1.807402514855e+00
185,-1.200000000000e+00,4.252121320344e+01,1.606066017178e+00
186,-1.200000000000e+00,4.377771638598e+01,1.388581929877e+00
187,-1.200000000000e+00,4.503000000000e+01,1.150000000000e+00
188,-1.200000000000e+00,4.627771638598e+01,8.885819298767e-01
189,-1.200000000000e+00,4.752121320344e+01,6.060660171780e-01
190,-1.200000000000e+00,4.876148050297e+01,3.074025148548e-01
191,1.200000000000e+00,4.126148050297e+01,1.925974851452e-01
192,1.200000000000e+00,4.252121320344e+01,3.939339828220e-01
193,1.200000000000e+00,4.377771638598e+01,6.114180701233e-01
194,1.200000000000e+00,4.503000000000e+01,8.500000000000e-01
195,1.200000000000e+00,4.627771638598e+01,1.111418070123e+00
196,1.200000000000e+00,4.752121320344e+01,1.393933982822e+00
197,1.200000000000e+00,4.876148050297e+01,1.692597485145e+00
198,1.200000000000e+00,4.126148050297e+01,1.807402514855e+00
199,1.200000000000e+00,4.252121320344e+01,1.606066017178e+00
200,1.200000000000e+00,4.377771638598e+01,1.388581929877e+00
201,1.200000000000e+00,4.503000000000e+01,1.150000000000e+00
202,1.200000000000e+00,4.627771638598e+01,8.885819298767e-01
203,1.200000000000e+00,4.752121320344e+01,6.060660171780e-01
204,1.200000000000e+00,4.876148050297e+01,3.074025148548e-01
205,-8.425974851452e-01,4.123622339643e+01,0.000000000000e+00
206,-4.939339828220e-01,4.247454415588e+01,0.000000000000e+00
207,-1.614180701233e-01,4.371674033683e+01,0.000000000000e+00
208,1.500000000000e-01,4.496400000000e+01,0.000000000000e+00
209,4.385819298767e-01,4.621674033683e+01,0.000000000000e+00
210,7.060660171780e-01,4.747454415588e+01,0.000000000000e+00
211,9.574025148548e-01,4.873622339643e+01,0.000000000000e+00
212,8.425974851452e-01,4.123622339643e+01,0.000000000000e+00
213,4.939339828220e-01,4.247454415588e+01,0.000000000000e+00
214,1.614180701233e-01,4.371674033683e+01,0.000000000000e+00
215,-1.500000000000e-01,4.496400000000e+01,0.000000000000e+00
216,-4.385819298767e-01,4.621674033683e+01,0.000000000000e+00
217,-7.060660171780e-01,4.747454415588e+01,0.000000000000e+00
218,-9.574025148548e-01,4.873622339643e+01,0.000000000000e+00
219,-8.425974851452e-01,4.123622339643e+01,2.000000000000e+00
220,-4.939339828220e-01,4.247454415588e+01,2.000000000000e+00
221,-1.614180701233e-01,4.371674033683e+01,2.000000000000e+00
222,1.500000000000e-01,4.496400000000e+01,2.000000000000e+00
223,4.385819298767e-01,4.621674033683e+01,2.000000000000e+00
224,7.060660171780e-01,4.747454415588e+01,2.000000000000e+00
225,9.574025148548e-01,4.873622339643e+01,2.000000000000e+00
226,8.425974851452e-01,4.123622339643e+01,2.000000000000e+00
227,4.939339828220e-01,4.247454415588e+01,2.000000000000e+00
228,1.614180701233e-01,4.371674033683e+01,2.000000000000e+00
229,-1.500000000000e-01,4.496400000000e+01,2.000000000000e+00
230,-4.385819298767e-01,4.621674033683e+01,2.000000000000e+00
231,-7.060660171780e-01,4.747454415588e+01,2.000000000000e+00
232,-9.574025148548e-01,4.873622339643e+01,2.000000000000e+00
*ELEMENT,TYPE=B31,ELSET=ALL
1,1,25
2,25,5
3,2,26
4,26,6
5,3,27
6,27,7
7,4,28
8,28,8
9,5,29
10,29,9
11,6,30
12,30,10
13,7,31
14,31,11
15,8,32
16,32,12
17,9,13
18,10,14
19,11,15
20,12,16
21,13,17
22,14,18
23,15,19
24,16,20
25,17,33
26,33,34
27,34,35
28,35,36
29,36,37
30,37,38
31,38,39
32,39,21
33,18,40
34,40,41
35,41,42
36,42,43
37,43,44
38,44,45
39,45,46
40,46,22
41,19,47
42,47,48
43,48,49
44,49,50
45,50,51
46,51,52
47,52,53
48,53,23
49,20,54
50,54,55
51,55,56
52,56,57
53,57,58
54,58,59
55,59,60
56,60,24
57,1,61
58,61,2
59,3,62
60,62,4
61,1,63
62,63,3
63,2,64
64,64,4
65,5,6
66,7,8
67,5,7
68,6,8
69,9,65
70,65,10
71,11,66
72,66,12
73,9,67
74,67,11
75,10,68
76,68,12
77,13,69
78,69,70
79,70,71
80,71,14
81,15,72
82,72,73
83,73,74
84,74,16
85,13,75
86,75,76
87,76,77
88,77,15
89,14,78
90,78,79
91,79,80
92,80,16
93,17,81
94,81,18
95,19,82
96,82,20
97,17,83
98,83,19
99,18,84
100,84,20
101,21,85
102,85,22
103,23,86
104,86,24
105,21,87
106,87,23
107,22,88
108,88,24
109,1,89
110,89,90
111,90,91
112,91,92
113,92,93
114,93,94
115,94,95
116,95,7
117,3,96
118,96,97
119,97,98
120,98,99
121,99,100
122,100,101
123,101,102
124,102,5
125,2,103
126,103,104
127,104,105
128,105,106
129,106,107
130,107,108
131,108,109
132,109,8
133,4,110
134,110,111
135,111,112
136,112,113
137,113,114
138,114,115
139,115,116
140,116,6
141,1,117
142,117,118
143,118,119
144,119,120
145,120,121
146,121,122
147,122,123
148,123,6
149,2,124
150,124,125
151,125,126
152,126,127
153,127,128
154,128,129
155,129,130
156,130,5
157,3,131
158,131,132
159,132,133
160,133,134
161,134,135
162,135,136
163,136,137
164,137,8
165,4,138
166,138,139
167,139,140
168,140,141
169,141,142
170,142,143
171,143,144
172,144,7
173,5,145
174,145,146
175,146,147
176,147,11
177,7,148
178,148,149
179,149,150
180,150,9
181,6,151
182,151,152
183,152,153
184,153,12
185,8,154
186,154,155
187,155,156
188,156,10
189,5,157
190,157,158
191,158,159
192,159,10
193,6,160
194,160,161
195,161,162
196,162,9
197,7,163
198,163,164
199,164,165
200,165,12
201,8,166
202,166,167
203,167,168
204,168,11
205,9,15
206,11,13
207,10,16
208,12,14
209,9,14
210,10,13
211,11,16
212,12,15
213,13,169
214,169,19
215,15,170
216,170,17
217,14,171
218,171,20
219,16,172
220,172,18
221,13,173
222,173,18
223,14,174
224,174,17
225,15,175
226,175,20
227,16,176
228,176,19
229,17,177
230,177,178
231,178,179
232,179,180
233,180,181
234,181,182
235,182,183
236,183,23
237,19,184
238,184,185
239,185,186
240,186,187
241,187,188
242,188,189
243,189,190
244,190,21
245,18,191
246,191,192
247,192,193
248,193,194
249,194,195
250,195,196
251,196,197
252,197,24
253,20,198
254,198,199
255,199,200
256,200,201
257,201,202
258,202,203
259,203,204
260,204,22
261,17,205
262,205,206
263,206,207
264,207,208
265,208,209
266,209,210
267,210,211
268,211,22
269,18,212
270,212,213
271,213,214
272,214,215
273,215,216
274,216,217
275,217,218
276,218,21
277,19,219
278,219,220
279,220,221
280,221,222
281,222,223
282,223,224
283,224,225
284,225,24
285,20,226
286,226,227
287,227,228
288,228,229
289,229,230
290,230,231
291,231,232
292,232,23
*NSET,NSET=NALL,GENERATE
1,232,1
*NSET,NSET=LEFT
1,2,3,4
*NSET,NSET=RIGHT
21,22,23,24
*MATERIAL,NAME=STEEL
*ELASTIC
2.100000000000e+11,0.300000000000
*BEAM SECTION,ELSET=ALL,MATERIAL=STEEL,SECTION=RECT
6.000000000000e-02,4.000000000000e-02
0.371390676354,0.557086014531,0.742781352708
*BOUNDARY
LEFT,1,6,0.0
*STEP
*STATIC
*BOUNDARY
21,1,1,5.000000000000e-03
21,2,2,0.0
21,3,3,-6.000000000000e-03
*BOUNDARY
22,1,1,5.000000000000e-03
22,2,2,0.0
22,3,3,6.000000000000e-03
*BOUNDARY
23,1,1,-5.000000000000e-03
23,2,2,0.0
23,3,3,-6.000000000000e-03
*BOUNDARY
24,1,1,-5.000000000000e-03
24,2,2,0.0
24,3,3,6.000000000000e-03
*NODE FILE,NSET=NALL
U
*NODE PRINT,NSET=NALL
U
*NODE PRINT,NSET=RIGHT
RF
*EL PRINT,ELSET=ALL,TOTALS=YES
ELSE
*END STEP
