*HEADING
Normalized cross-passage space-truss torsion benchmark
*NODE
1,-1.200000000000e+00,0.000000000000e+00,0.000000000000e+00
2,1.200000000000e+00,0.000000000000e+00,0.000000000000e+00
3,-1.200000000000e+00,0.000000000000e+00,2.000000000000e+00
4,1.200000000000e+00,0.000000000000e+00,2.000000000000e+00
5,-1.200000000000e+00,1.000000000000e+01,0.000000000000e+00
6,1.200000000000e+00,1.000000000000e+01,0.000000000000e+00
7,-1.200000000000e+00,1.000000000000e+01,2.000000000000e+00
8,1.200000000000e+00,1.000000000000e+01,2.000000000000e+00
9,-1.200000000000e+00,2.000000000000e+01,0.000000000000e+00
10,1.200000000000e+00,2.000000000000e+01,0.000000000000e+00
11,-1.200000000000e+00,2.000000000000e+01,2.000000000000e+00
12,1.200000000000e+00,2.000000000000e+01,2.000000000000e+00
13,-1.200000000000e+00,3.000000000000e+01,0.000000000000e+00
14,1.200000000000e+00,3.000000000000e+01,0.000000000000e+00
15,-1.200000000000e+00,3.000000000000e+01,2.000000000000e+00
16,1.200000000000e+00,3.000000000000e+01,2.000000000000e+00
17,-1.200000000000e+00,4.000000000000e+01,0.000000000000e+00
18,1.200000000000e+00,4.000000000000e+01,0.000000000000e+00
19,-1.200000000000e+00,4.000000000000e+01,2.000000000000e+00
20,1.200000000000e+00,4.000000000000e+01,2.000000000000e+00
21,-1.200000000000e+00,5.000000000000e+01,0.000000000000e+00
22,1.200000000000e+00,5.000000000000e+01,0.000000000000e+00
23,-1.200000000000e+00,5.000000000000e+01,2.000000000000e+00
24,1.200000000000e+00,5.000000000000e+01,2.000000000000e+00
25,-1.200000000000e+00,5.000000000000e+00,-1.500000000000e-01
26,1.200000000000e+00,5.000000000000e+00,1.500000000000e-01
27,-1.200000000000e+00,5.000000000000e+00,1.850000000000e+00
28,1.200000000000e+00,5.000000000000e+00,2.150000000000e+00
29,-1.200000000000e+00,1.500000000000e+01,-1.500000000000e-01
30,1.200000000000e+00,1.500000000000e+01,1.500000000000e-01
31,-1.200000000000e+00,1.500000000000e+01,1.850000000000e+00
32,1.200000000000e+00,1.500000000000e+01,2.150000000000e+00
33,-1.200000000000e+00,3.125000000000e+01,-5.740251485476e-02
34,-1.200000000000e+00,3.250000000000e+01,-1.060660171780e-01
35,-1.200000000000e+00,3.375000000000e+01,-1.385819298767e-01
36,-1.200000000000e+00,3.500000000000e+01,-1.500000000000e-01
37,-1.200000000000e+00,3.625000000000e+01,-1.385819298767e-01
38,-1.200000000000e+00,3.750000000000e+01,-1.060660171780e-01
39,-1.200000000000e+00,3.875000000000e+01,-5.740251485476e-02
40,1.200000000000e+00,3.125000000000e+01,5.740251485476e-02
41,1.200000000000e+00,3.250000000000e+01,1.060660171780e-01
42,1.200000000000e+00,3.375000000000e+01,1.385819298767e-01
43,1.200000000000e+00,3.500000000000e+01,1.500000000000e-01
44,1.200000000000e+00,3.625000000000e+01,1.385819298767e-01
45,1.200000000000e+00,3.750000000000e+01,1.060660171780e-01
46,1.200000000000e+00,3.875000000000e+01,5.740251485476e-02
47,-1.200000000000e+00,3.125000000000e+01,1.942597485145e+00
48,-1.200000000000e+00,3.250000000000e+01,1.893933982822e+00
49,-1.200000000000e+00,3.375000000000e+01,1.861418070123e+00
50,-1.200000000000e+00,3.500000000000e+01,1.850000000000e+00
51,-1.200000000000e+00,3.625000000000e+01,1.861418070123e+00
52,-1.200000000000e+00,3.750000000000e+01,1.893933982822e+00
53,-1.200000000000e+00,3.875000000000e+01,1.942597485145e+00
54,1.200000000000e+00,3.125000000000e+01,2.057402514855e+00
55,1.200000000000e+00,3.250000000000e+01,2.106066017178e+00
56,1.200000000000e+00,3.375000000000e+01,2.138581929877e+00
57,1.200000000000e+00,3.500000000000e+01,2.150000000000e+00
58,1.200000000000e+00,3.625000000000e+01,2.138581929877e+00
59,1.200000000000e+00,3.750000000000e+01,2.106066017178e+00
60,1.200000000000e+00,3.875000000000e+01,2.057402514855e+00
61,0.000000000000e+00,-3.600000000000e-02,0.000000000000e+00
62,0.000000000000e+00,3.600000000000e-02,2.000000000000e+00
63,-1.200000000000e+00,3.000000000000e-02,1.000000000000e+00
64,1.200000000000e+00,-3.000000000000e-02,1.000000000000e+00
65,0.000000000000e+00,9.964000000000e+00,0.000000000000e+00
66,0.000000000000e+00,1.003600000000e+01,2.000000000000e+00
67,-1.200000000000e+00,1.003000000000e+01,1.000000000000e+00
68,1.200000000000e+00,9.970000000000e+00,1.000000000000e+00
69,-6.000000000000e-01,1.997454415588e+01,0.000000000000e+00
70,0.000000000000e+00,1.996400000000e+01,0.000000000000e+00
71,6.000000000000e-01,1.997454415588e+01,0.000000000000e+00
72,-6.000000000000e-01,2.002545584412e+01,2.000000000000e+00
73,0.000000000000e+00,2.003600000000e+01,2.000000000000e+00
74,6.000000000000e-01,2.002545584412e+01,2.000000000000e+00
75,-1.200000000000e+00,2.002121320344e+01,5.000000000000e-01
76,-1.200000000000e+00,2.003000000000e+01,1.000000000000e+00
77,-1.200000000000e+00,2.002121320344e+01,1.500000000000e+00
78,1.200000000000e+00,1.997878679656e+01,5.000000000000e-01
79,1.200000000000e+00,1.997000000000e+01,1.000000000000e+00
80,1.200000000000e+00,1.997878679656e+01,1.500000000000e+00
81,0.000000000000e+00,2.996400000000e+01,0.000000000000e+00
82,0.000000000000e+00,3.003600000000e+01,2.000000000000e+00
83,-1.200000000000e+00,3.003000000000e+01,1.000000000000e+00
84,1.200000000000e+00,2.997000000000e+01,1.000000000000e+00
85,0.000000000000e+00,3.996400000000e+01,0.000000000000e+00
86,0.000000000000e+00,4.003600000000e+01,2.000000000000e+00
87,-1.200000000000e+00,4.003000000000e+01,1.000000000000e+00
88,1.200000000000e+00,3.997000000000e+01,1.000000000000e+00
89,0.000000000000e+00,4.996400000000e+01,0.000000000000e+00
90,0.000000000000e+00,5.003600000000e+01,2.000000000000e+00
91,-1.200000000000e+00,5.003000000000e+01,1.000000000000e+00
92,1.200000000000e+00,4.997000000000e+01,1.000000000000e+00
93,-1.200000000000e+00,5.030000000000e+00,8.500000000000e-01
94,-1.200000000000e+00,5.030000000000e+00,1.150000000000e+00
95,1.200000000000e+00,5.030000000000e+00,8.500000000000e-01
96,1.200000000000e+00,5.030000000000e+00,1.150000000000e+00
97,1.500000000000e-01,4.964000000000e+00,0.000000000000e+00
98,-1.500000000000e-01,4.964000000000e+00,0.000000000000e+00
99,1.500000000000e-01,4.964000000000e+00,2.000000000000e+00
100,-1.500000000000e-01,4.964000000000e+00,2.000000000000e+00
101,-1.200000000000e+00,1.503000000000e+01,8.500000000000e-01
102,-1.200000000000e+00,1.503000000000e+01,1.150000000000e+00
103,1.200000000000e+00,1.503000000000e+01,8.500000000000e-01
104,1.200000000000e+00,1.503000000000e+01,1.150000000000e+00
105,1.500000000000e-01,1.496400000000e+01,0.000000000000e+00
106,-1.500000000000e-01,1.496400000000e+01,0.000000000000e+00
107,1.500000000000e-01,1.496400000000e+01,2.000000000000e+00
108,-1.500000000000e-01,1.496400000000e+01,2.000000000000e+00
109,-1.200000000000e+00,2.252121320344e+01,3.939339828220e-01
110,-1.200000000000e+00,2.503000000000e+01,8.500000000000e-01
111,-1.200000000000e+00,2.752121320344e+01,1.393933982822e+00
112,-1.200000000000e+00,2.252121320344e+01,1.606066017178e+00
113,-1.200000000000e+00,2.503000000000e+01,1.150000000000e+00
114,-1.200000000000e+00,2.752121320344e+01,6.060660171780e-01
115,1.200000000000e+00,2.252121320344e+01,3.939339828220e-01
116,1.200000000000e+00,2.503000000000e+01,8.500000000000e-01
117,1.200000000000e+00,2.752121320344e+01,1.393933982822e+00
118,1.200000000000e+00,2.252121320344e+01,1.606066017178e+00
119,1.200000000000e+00,2.503000000000e+01,1.150000000000e+00
120,1.200000000000e+00,2.752121320344e+01,6.060660171780e-01
121,-4.939339828220e-01,2.247454415588e+01,0.000000000000e+00
122,1.500000000000e-01,2.496400000000e+01,0.000000000000e+00
123,7.060660171780e-01,2.747454415588e+01,0.000000000000e+00
124,4.939339828220e-01,2.247454415588e+01,0.000000000000e+00
125,-1.500000000000e-01,2.496400000000e+01,0.000000000000e+00
126,-7.060660171780e-01,2.747454415588e+01,0.000000000000e+00
127,-4.939339828220e-01,2.247454415588e+01,2.000000000000e+00
128,1.500000000000e-01,2.496400000000e+01,2.000000000000e+00
129,7.060660171780e-01,2.747454415588e+01,2.000000000000e+00
130,4.939339828220e-01,2.247454415588e+01,2.000000000000e+00
131,-1.500000000000e-01,2.496400000000e+01,2.000000000000e+00
132,-7.060660171780e-01,2.747454415588e+01,2.000000000000e+00
133,-1.200000000000e+00,3.252121320344e+01,3.939339828220e-01
134,-1.200000000000e+00,3.503000000000e+01,8.500000000000e-01
135,-1.200000000000e+00,3.752121320344e+01,1.393933982822e+00
136,-1.200000000000e+00,3.252121320344e+01,1.606066017178e+00
137,-1.200000000000e+00,3.503000000000e+01,1.150000000000e+00
138,-1.200000000000e+00,3.752121320344e+01,6.060660171780e-01
139,1.200000000000e+00,3.252121320344e+01,3.939339828220e-01
140,1.200000000000e+00,3.503000000000e+01,8.500000000000e-01
141,1.200000000000e+00,3.752121320344e+01,1.393933982822e+00
142,1.200000000000e+00,3.252121320344e+01,1.606066017178e+00
143,1.200000000000e+00,3.503000000000e+01,1.150000000000e+00
144,1.200000000000e+00,3.752121320344e+01,6.060660171780e-01
145,-4.939339828220e-01,3.247454415588e+01,0.000000000000e+00
146,1.500000000000e-01,3.496400000000e+01,0.000000000000e+00
147,7.060660171780e-01,3.747454415588e+01,0.000000000000e+00
148,4.939339828220e-01,3.247454415588e+01,0.000000000000e+00
149,-1.500000000000e-01,3.496400000000e+01,0.000000000000e+00
150,-7.060660171780e-01,3.747454415588e+01,0.000000000000e+00
151,-4.939339828220e-01,3.247454415588e+01,2.000000000000e+00
152,1.500000000000e-01,3.496400000000e+01,2.000000000000e+00
153,7.060660171780e-01,3.747454415588e+01,2.000000000000e+00
154,4.939339828220e-01,3.247454415588e+01,2.000000000000e+00
155,-1.500000000000e-01,3.496400000000e+01,2.000000000000e+00
156,-7.060660171780e-01,3.747454415588e+01,2.000000000000e+00
157,-1.200000000000e+00,4.252121320344e+01,3.939339828220e-01
158,-1.200000000000e+00,4.503000000000e+01,8.500000000000e-01
159,-1.200000000000e+00,4.752121320344e+01,1.393933982822e+00
160,-1.200000000000e+00,4.252121320344e+01,1.606066017178e+00
161,-1.200000000000e+00,4.503000000000e+01,1.150000000000e+00
162,-1.200000000000e+00,4.752121320344e+01,6.060660171780e-01
163,1.200000000000e+00,4.252121320344e+01,3.939339828220e-01
164,1.200000000000e+00,4.503000000000e+01,8.500000000000e-01
165,1.200000000000e+00,4.752121320344e+01,1.393933982822e+00
166,1.200000000000e+00,4.252121320344e+01,1.606066017178e+00
167,1.200000000000e+00,4.503000000000e+01,1.150000000000e+00
168,1.200000000000e+00,4.752121320344e+01,6.060660171780e-01
169,-4.939339828220e-01,4.247454415588e+01,0.000000000000e+00
170,1.500000000000e-01,4.496400000000e+01,0.000000000000e+00
171,7.060660171780e-01,4.747454415588e+01,0.000000000000e+00
172,4.939339828220e-01,4.247454415588e+01,0.000000000000e+00
173,-1.500000000000e-01,4.496400000000e+01,0.000000000000e+00
174,-7.060660171780e-01,4.747454415588e+01,0.000000000000e+00
175,-4.939339828220e-01,4.247454415588e+01,2.000000000000e+00
176,1.500000000000e-01,4.496400000000e+01,2.000000000000e+00
177,7.060660171780e-01,4.747454415588e+01,2.000000000000e+00
178,4.939339828220e-01,4.247454415588e+01,2.000000000000e+00
179,-1.500000000000e-01,4.496400000000e+01,2.000000000000e+00
180,-7.060660171780e-01,4.747454415588e+01,2.000000000000e+00
*ELEMENT,TYPE=B31,ELSET=ALL
1,1,25
2,25,5
3,2,26
4,26,6
5,3,27
6,27,7
7,4,28
8,28,8
9,5,29
10,29,9
11,6,30
12,30,10
13,7,31
14,31,11
15,8,32
16,32,12
17,9,13
18,10,14
19,11,15
20,12,16
21,13,33
22,33,34
23,34,35
24,35,36
25,36,37
26,37,38
27,38,39
28,39,17
29,14,40
30,40,41
31,41,42
32,42,43
33,43,44
34,44,45
35,45,46
36,46,18
37,15,47
38,47,48
39,48,49
40,49,50
41,50,51
42,51,52
43,52,53
44,53,19
45,16,54
46,54,55
47,55,56
48,56,57
49,57,58
50,58,59
51,59,60
52,60,20
53,17,21
54,18,22
55,19,23
56,20,24
57,1,61
58,61,2
59,3,62
60,62,4
61,1,63
62,63,3
63,2,64
64,64,4
65,5,65
66,65,6
67,7,66
68,66,8
69,5,67
70,67,7
71,6,68
72,68,8
73,9,69
74,69,70
75,70,71
76,71,10
77,11,72
78,72,73
79,73,74
80,74,12
81,9,75
82,75,76
83,76,77
84,77,11
85,10,78
86,78,79
87,79,80
88,80,12
89,13,81
90,81,14
91,15,82
92,82,16
93,13,83
94,83,15
95,14,84
96,84,16
97,17,85
98,85,18
99,19,86
100,86,20
101,17,87
102,87,19
103,18,88
104,88,20
105,21,89
106,89,22
107,23,90
108,90,24
109,21,91
110,91,23
111,22,92
112,92,24
113,1,93
114,93,7
115,3,94
116,94,5
117,2,95
118,95,8
119,4,96
120,96,6
121,1,97
122,97,6
123,2,98
124,98,5
125,3,99
126,99,8
127,4,100
128,100,7
129,5,101
130,101,11
131,7,102
132,102,9
133,6,103
134,103,12
135,8,104
136,104,10
137,5,105
138,105,10
139,6,106
140,106,9
141,7,107
142,107,12
143,8,108
144,108,11
145,9,109
146,109,110
147,110,111
148,111,15
149,11,112
150,112,113
151,113,114
152,114,13
153,10,115
154,115,116
155,116,117
156,117,16
157,12,118
158,118,119
159,119,120
160,120,14
161,9,121
162,121,122
163,122,123
164,123,14
165,10,124
166,124,125
167,125,126
168,126,13
169,11,127
170,127,128
171,128,129
172,129,16
173,12,130
174,130,131
175,131,132
176,132,15
177,13,133
178,133,134
179,134,135
180,135,19
181,15,136
182,136,137
183,137,138
184,138,17
185,14,139
186,139,140
187,140,141
188,141,20
189,16,142
190,142,143
191,143,144
192,144,18
193,13,145
194,145,146
195,146,147
196,147,18
197,14,148
198,148,149
199,149,150
200,150,17
201,15,151
202,151,152
203,152,153
204,153,20
205,16,154
206,154,155
207,155,156
208,156,19
209,17,157
210,157,158
211,158,159
212,159,23
213,19,160
214,160,161
215,161,162
216,162,21
217,18,163
218,163,164
219,164,165
220,165,24
221,20,166
222,166,167
223,167,168
224,168,22
225,17,169
226,169,170
227,170,171
228,171,22
229,18,172
230,172,173
231,173,174
232,174,21
233,19,175
234,175,176
235,176,177
236,177,24
237,20,178
238,178,179
239,179,180
240,180,23
*NSET,NSET=NALL,GENERATE
1,180,1
*NSET,NSET=LEFT
1,2,3,4
*NSET,NSET=RIGHT
21,22,23,24
*MATERIAL,NAME=STEEL
*ELASTIC
2.100000000000e+11,0.300000000000
*BEAM SECTION,ELSET=ALL,MATERIAL=STEEL,SECTION=RECT
6.000000000000e-02,4.000000000000e-02
0.371390676354,0.557086014531,0.742781352708
*BOUNDARY
LEFT,1,6,0.0
*STEP
*STATIC
*BOUNDARY
21,1,1,5.000000000000e-03
21,2,2,0.0
21,3,3,-6.000000000000e-03
*BOUNDARY
22,1,1,5.000000000000e-03
22,2,2,0.0
22,3,3,6.000000000000e-03
*BOUNDARY
23,1,1,-5.000000000000e-03
23,2,2,0.0
23,3,3,-6.000000000000e-03
*BOUNDARY
24,1,1,-5.000000000000e-03
24,2,2,0.0
24,3,3,6.000000000000e-03
*NODE FILE,NSET=NALL
U
*NODE PRINT,NSET=NALL
U
*NODE PRINT,NSET=RIGHT
RF
*EL PRINT,ELSET=ALL,TOTALS=YES
ELSE
*END STEP
