*HEADING
T08 S-LIN t08_slin_nx14 conforming C3D8 frozen T
units: mm, N, s, MPa, t. Illustrative steel, not a coupon card.
beam=T08 case=S-LIN job=t08_slin_nx14 type=C3D8
E=210000.0 nu=0.3 fy=235.0 load=-5000.0 N on TIP_TOP
*NODE, NSET=NALL
1, 0, -16, 0
2, 142.857142857, -15.2857142857, 8.92857142857
3, 142.857142857, 0, 8.92857142857
4, 0, 0, 0
5, 0, -16, 42
6, 142.857142857, -15.2857142857, 49.1428571429
7, 142.857142857, 0, 49.1428571429
8, 0, 0, 42
9, 0, -16, 84
10, 142.857142857, -15.2857142857, 89.3571428571
11, 142.857142857, 0, 89.3571428571
12, 0, 0, 84
13, 0, -16, 126
14, 142.857142857, -15.2857142857, 129.571428571
15, 142.857142857, 0, 129.571428571
16, 0, 0, 126
17, 0, -16, 168
18, 142.857142857, -15.2857142857, 169.785714286
19, 142.857142857, 0, 169.785714286
20, 0, 0, 168
21, 0, -16, 210
22, 142.857142857, -15.2857142857, 210
23, 142.857142857, 0, 210
24, 0, 0, 210
25, 142.857142857, 15.2857142857, 8.92857142857
26, 0, 16, 0
27, 142.857142857, 15.2857142857, 49.1428571429
28, 0, 16, 42
29, 142.857142857, 15.2857142857, 89.3571428571
30, 0, 16, 84
31, 142.857142857, 15.2857142857, 129.571428571
32, 0, 16, 126
33, 142.857142857, 15.2857142857, 169.785714286
34, 0, 16, 168
35, 142.857142857, 15.2857142857, 210
36, 0, 16, 210
37, 0, -170, 210
38, 142.857142857, -163.214285714, 210
39, 142.857142857, -126.232142857, 210
40, 0, -131.5, 210
41, 0, -170, 220
42, 142.857142857, -163.214285714, 220
43, 142.857142857, -126.232142857, 220
44, 0, -131.5, 220
45, 0, -170, 230
46, 142.857142857, -163.214285714, 230
47, 142.857142857, -126.232142857, 230
48, 0, -131.5, 230
49, 142.857142857, -89.25, 210
50, 0, -93, 210
51, 142.857142857, -89.25, 220
52, 0, -93, 220
53, 142.857142857, -89.25, 230
54, 0, -93, 230
55, 142.857142857, -52.2678571429, 210
56, 0, -54.5, 210
57, 142.857142857, -52.2678571429, 220
58, 0, -54.5, 220
59, 142.857142857, -52.2678571429, 230
60, 0, -54.5, 230
61, 142.857142857, -15.2857142857, 220
62, 0, -16, 220
63, 142.857142857, -15.2857142857, 230
64, 0, -16, 230
65, 142.857142857, 0, 220
66, 0, 0, 220
67, 142.857142857, 0, 230
68, 0, 0, 230
69, 142.857142857, 15.2857142857, 220
70, 0, 16, 220
71, 142.857142857, 15.2857142857, 230
72, 0, 16, 230
73, 142.857142857, 52.2678571429, 210
74, 0, 54.5, 210
75, 142.857142857, 52.2678571429, 220
76, 0, 54.5, 220
77, 142.857142857, 52.2678571429, 230
78, 0, 54.5, 230
79, 142.857142857, 89.25, 210
80, 0, 93, 210
81, 142.857142857, 89.25, 220
82, 0, 93, 220
83, 142.857142857, 89.25, 230
84, 0, 93, 230
85, 142.857142857, 126.232142857, 210
86, 0, 131.5, 210
87, 142.857142857, 126.232142857, 220
88, 0, 131.5, 220
89, 142.857142857, 126.232142857, 230
90, 0, 131.5, 230
91, 142.857142857, 163.214285714, 210
92, 0, 170, 210
93, 142.857142857, 163.214285714, 220
94, 0, 170, 220
95, 142.857142857, 163.214285714, 230
96, 0, 170, 230
97, 285.714285714, -14.5714285714, 17.8571428571
98, 285.714285714, 0, 17.8571428571
99, 285.714285714, -14.5714285714, 56.2857142857
100, 285.714285714, 0, 56.2857142857
101, 285.714285714, -14.5714285714, 94.7142857143
102, 285.714285714, 0, 94.7142857143
103, 285.714285714, -14.5714285714, 133.142857143
104, 285.714285714, 0, 133.142857143
105, 285.714285714, -14.5714285714, 171.571428571
106, 285.714285714, 0, 171.571428571
107, 285.714285714, -14.5714285714, 210
108, 285.714285714, 0, 210
109, 285.714285714, 14.5714285714, 17.8571428571
110, 285.714285714, 14.5714285714, 56.2857142857
111, 285.714285714, 14.5714285714, 94.7142857143
112, 285.714285714, 14.5714285714, 133.142857143
113, 285.714285714, 14.5714285714, 171.571428571
114, 285.714285714, 14.5714285714, 210
115, 285.714285714, -156.428571429, 210
116, 285.714285714, -120.964285714, 210
117, 285.714285714, -156.428571429, 220
118, 285.714285714, -120.964285714, 220
119, 285.714285714, -156.428571429, 230
120, 285.714285714, -120.964285714, 230
121, 285.714285714, -85.5, 210
122, 285.714285714, -85.5, 220
123, 285.714285714, -85.5, 230
124, 285.714285714, -50.0357142857, 210
125, 285.714285714, -50.0357142857, 220
126, 285.714285714, -50.0357142857, 230
127, 285.714285714, -14.5714285714, 220
128, 285.714285714, -14.5714285714, 230
129, 285.714285714, 0, 220
130, 285.714285714, 0, 230
131, 285.714285714, 14.5714285714, 220
132, 285.714285714, 14.5714285714, 230
133, 285.714285714, 50.0357142857, 210
134, 285.714285714, 50.0357142857, 220
135, 285.714285714, 50.0357142857, 230
136, 285.714285714, 85.5, 210
137, 285.714285714, 85.5, 220
138, 285.714285714, 85.5, 230
139, 285.714285714, 120.964285714, 210
140, 285.714285714, 120.964285714, 220
141, 285.714285714, 120.964285714, 230
142, 285.714285714, 156.428571429, 210
143, 285.714285714, 156.428571429, 220
144, 285.714285714, 156.428571429, 230
145, 428.571428571, -13.8571428571, 26.7857142857
146, 428.571428571, 0, 26.7857142857
147, 428.571428571, -13.8571428571, 63.4285714286
148, 428.571428571, 0, 63.4285714286
149, 428.571428571, -13.8571428571, 100.071428571
150, 428.571428571, 0, 100.071428571
151, 428.571428571, -13.8571428571, 136.714285714
152, 428.571428571, 0, 136.714285714
153, 428.571428571, -13.8571428571, 173.357142857
154, 428.571428571, 0, 173.357142857
155, 428.571428571, -13.8571428571, 210
156, 428.571428571, 0, 210
157, 428.571428571, 13.8571428571, 26.7857142857
158, 428.571428571, 13.8571428571, 63.4285714286
159, 428.571428571, 13.8571428571, 100.071428571
160, 428.571428571, 13.8571428571, 136.714285714
161, 428.571428571, 13.8571428571, 173.357142857
162, 428.571428571, 13.8571428571, 210
163, 428.571428571, -149.642857143, 210
164, 428.571428571, -115.696428571, 210
165, 428.571428571, -149.642857143, 220
166, 428.571428571, -115.696428571, 220
167, 428.571428571, -149.642857143, 230
168, 428.571428571, -115.696428571, 230
169, 428.571428571, -81.75, 210
170, 428.571428571, -81.75, 220
171, 428.571428571, -81.75, 230
172, 428.571428571, -47.8035714286, 210
173, 428.571428571, -47.8035714286, 220
174, 428.571428571, -47.8035714286, 230
175, 428.571428571, -13.8571428571, 220
176, 428.571428571, -13.8571428571, 230
177, 428.571428571, 0, 220
178, 428.571428571, 0, 230
179, 428.571428571, 13.8571428571, 220
180, 428.571428571, 13.8571428571, 230
181, 428.571428571, 47.8035714286, 210
182, 428.571428571, 47.8035714286, 220
183, 428.571428571, 47.8035714286, 230
184, 428.571428571, 81.75, 210
185, 428.571428571, 81.75, 220
186, 428.571428571, 81.75, 230
187, 428.571428571, 115.696428571, 210
188, 428.571428571, 115.696428571, 220
189, 428.571428571, 115.696428571, 230
190, 428.571428571, 149.642857143, 210
191, 428.571428571, 149.642857143, 220
192, 428.571428571, 149.642857143, 230
193, 571.428571429, -13.1428571429, 35.7142857143
194, 571.428571429, 0, 35.7142857143
195, 571.428571429, -13.1428571429, 70.5714285714
196, 571.428571429, 0, 70.5714285714
197, 571.428571429, -13.1428571429, 105.428571429
198, 571.428571429, 0, 105.428571429
199, 571.428571429, -13.1428571429, 140.285714286
200, 571.428571429, 0, 140.285714286
201, 571.428571429, -13.1428571429, 175.142857143
202, 571.428571429, 0, 175.142857143
203, 571.428571429, -13.1428571429, 210
204, 571.428571429, 0, 210
205, 571.428571429, 13.1428571429, 35.7142857143
206, 571.428571429, 13.1428571429, 70.5714285714
207, 571.428571429, 13.1428571429, 105.428571429
208, 571.428571429, 13.1428571429, 140.285714286
209, 571.428571429, 13.1428571429, 175.142857143
210, 571.428571429, 13.1428571429, 210
211, 571.428571429, -142.857142857, 210
212, 571.428571429, -110.428571429, 210
213, 571.428571429, -142.857142857, 220
214, 571.428571429, -110.428571429, 220
215, 571.428571429, -142.857142857, 230
216, 571.428571429, -110.428571429, 230
217, 571.428571429, -78, 210
218, 571.428571429, -78, 220
219, 571.428571429, -78, 230
220, 571.428571429, -45.5714285714, 210
221, 571.428571429, -45.5714285714, 220
222, 571.428571429, -45.5714285714, 230
223, 571.428571429, -13.1428571429, 220
224, 571.428571429, -13.1428571429, 230
225, 571.428571429, 0, 220
226, 571.428571429, 0, 230
227, 571.428571429, 13.1428571429, 220
228, 571.428571429, 13.1428571429, 230
229, 571.428571429, 45.5714285714, 210
230, 571.428571429, 45.5714285714, 220
231, 571.428571429, 45.5714285714, 230
232, 571.428571429, 78, 210
233, 571.428571429, 78, 220
234, 571.428571429, 78, 230
235, 571.428571429, 110.428571429, 210
236, 571.428571429, 110.428571429, 220
237, 571.428571429, 110.428571429, 230
238, 571.428571429, 142.857142857, 210
239, 571.428571429, 142.857142857, 220
240, 571.428571429, 142.857142857, 230
241, 714.285714286, -12.4285714286, 44.6428571429
242, 714.285714286, 0, 44.6428571429
243, 714.285714286, -12.4285714286, 77.7142857143
244, 714.285714286, 0, 77.7142857143
245, 714.285714286, -12.4285714286, 110.785714286
246, 714.285714286, 0, 110.785714286
247, 714.285714286, -12.4285714286, 143.857142857
248, 714.285714286, 0, 143.857142857
249, 714.285714286, -12.4285714286, 176.928571429
250, 714.285714286, 0, 176.928571429
251, 714.285714286, -12.4285714286, 210
252, 714.285714286, 0, 210
253, 714.285714286, 12.4285714286, 44.6428571429
254, 714.285714286, 12.4285714286, 77.7142857143
255, 714.285714286, 12.4285714286, 110.785714286
256, 714.285714286, 12.4285714286, 143.857142857
257, 714.285714286, 12.4285714286, 176.928571429
258, 714.285714286, 12.4285714286, 210
259, 714.285714286, -136.071428571, 210
260, 714.285714286, -105.160714286, 210
261, 714.285714286, -136.071428571, 220
262, 714.285714286, -105.160714286, 220
263, 714.285714286, -136.071428571, 230
264, 714.285714286, -105.160714286, 230
265, 714.285714286, -74.25, 210
266, 714.285714286, -74.25, 220
267, 714.285714286, -74.25, 230
268, 714.285714286, -43.3392857143, 210
269, 714.285714286, -43.3392857143, 220
270, 714.285714286, -43.3392857143, 230
271, 714.285714286, -12.4285714286, 220
272, 714.285714286, -12.4285714286, 230
273, 714.285714286, 0, 220
274, 714.285714286, 0, 230
275, 714.285714286, 12.4285714286, 220
276, 714.285714286, 12.4285714286, 230
277, 714.285714286, 43.3392857143, 210
278, 714.285714286, 43.3392857143, 220
279, 714.285714286, 43.3392857143, 230
280, 714.285714286, 74.25, 210
281, 714.285714286, 74.25, 220
282, 714.285714286, 74.25, 230
283, 714.285714286, 105.160714286, 210
284, 714.285714286, 105.160714286, 220
285, 714.285714286, 105.160714286, 230
286, 714.285714286, 136.071428571, 210
287, 714.285714286, 136.071428571, 220
288, 714.285714286, 136.071428571, 230
289, 857.142857143, -11.7142857143, 53.5714285714
290, 857.142857143, 0, 53.5714285714
291, 857.142857143, -11.7142857143, 84.8571428571
292, 857.142857143, 0, 84.8571428571
293, 857.142857143, -11.7142857143, 116.142857143
294, 857.142857143, 0, 116.142857143
295, 857.142857143, -11.7142857143, 147.428571429
296, 857.142857143, 0, 147.428571429
297, 857.142857143, -11.7142857143, 178.714285714
298, 857.142857143, 0, 178.714285714
299, 857.142857143, -11.7142857143, 210
300, 857.142857143, 0, 210
301, 857.142857143, 11.7142857143, 53.5714285714
302, 857.142857143, 11.7142857143, 84.8571428571
303, 857.142857143, 11.7142857143, 116.142857143
304, 857.142857143, 11.7142857143, 147.428571429
305, 857.142857143, 11.7142857143, 178.714285714
306, 857.142857143, 11.7142857143, 210
307, 857.142857143, -129.285714286, 210
308, 857.142857143, -99.8928571429, 210
309, 857.142857143, -129.285714286, 220
310, 857.142857143, -99.8928571429, 220
311, 857.142857143, -129.285714286, 230
312, 857.142857143, -99.8928571429, 230
313, 857.142857143, -70.5, 210
314, 857.142857143, -70.5, 220
315, 857.142857143, -70.5, 230
316, 857.142857143, -41.1071428571, 210
317, 857.142857143, -41.1071428571, 220
318, 857.142857143, -41.1071428571, 230
319, 857.142857143, -11.7142857143, 220
320, 857.142857143, -11.7142857143, 230
321, 857.142857143, 0, 220
322, 857.142857143, 0, 230
323, 857.142857143, 11.7142857143, 220
324, 857.142857143, 11.7142857143, 230
325, 857.142857143, 41.1071428571, 210
326, 857.142857143, 41.1071428571, 220
327, 857.142857143, 41.1071428571, 230
328, 857.142857143, 70.5, 210
329, 857.142857143, 70.5, 220
330, 857.142857143, 70.5, 230
331, 857.142857143, 99.8928571429, 210
332, 857.142857143, 99.8928571429, 220
333, 857.142857143, 99.8928571429, 230
334, 857.142857143, 129.285714286, 210
335, 857.142857143, 129.285714286, 220
336, 857.142857143, 129.285714286, 230
337, 1000, -11, 62.5
338, 1000, 0, 62.5
339, 1000, -11, 92
340, 1000, 0, 92
341, 1000, -11, 121.5
342, 1000, 0, 121.5
343, 1000, -11, 151
344, 1000, 0, 151
345, 1000, -11, 180.5
346, 1000, 0, 180.5
347, 1000, -11, 210
348, 1000, 0, 210
349, 1000, 11, 62.5
350, 1000, 11, 92
351, 1000, 11, 121.5
352, 1000, 11, 151
353, 1000, 11, 180.5
354, 1000, 11, 210
355, 1000, -122.5, 210
356, 1000, -94.625, 210
357, 1000, -122.5, 220
358, 1000, -94.625, 220
359, 1000, -122.5, 230
360, 1000, -94.625, 230
361, 1000, -66.75, 210
362, 1000, -66.75, 220
363, 1000, -66.75, 230
364, 1000, -38.875, 210
365, 1000, -38.875, 220
366, 1000, -38.875, 230
367, 1000, -11, 220
368, 1000, -11, 230
369, 1000, 0, 220
370, 1000, 0, 230
371, 1000, 11, 220
372, 1000, 11, 230
373, 1000, 38.875, 210
374, 1000, 38.875, 220
375, 1000, 38.875, 230
376, 1000, 66.75, 210
377, 1000, 66.75, 220
378, 1000, 66.75, 230
379, 1000, 94.625, 210
380, 1000, 94.625, 220
381, 1000, 94.625, 230
382, 1000, 122.5, 210
383, 1000, 122.5, 220
384, 1000, 122.5, 230
385, 1142.85714286, -10.2857142857, 71.4285714286
386, 1142.85714286, 0, 71.4285714286
387, 1142.85714286, -10.2857142857, 99.1428571429
388, 1142.85714286, 0, 99.1428571429
389, 1142.85714286, -10.2857142857, 126.857142857
390, 1142.85714286, 0, 126.857142857
391, 1142.85714286, -10.2857142857, 154.571428571
392, 1142.85714286, 0, 154.571428571
393, 1142.85714286, -10.2857142857, 182.285714286
394, 1142.85714286, 0, 182.285714286
395, 1142.85714286, -10.2857142857, 210
396, 1142.85714286, 0, 210
397, 1142.85714286, 10.2857142857, 71.4285714286
398, 1142.85714286, 10.2857142857, 99.1428571429
399, 1142.85714286, 10.2857142857, 126.857142857
400, 1142.85714286, 10.2857142857, 154.571428571
401, 1142.85714286, 10.2857142857, 182.285714286
402, 1142.85714286, 10.2857142857, 210
403, 1142.85714286, -115.714285714, 210
404, 1142.85714286, -89.3571428571, 210
405, 1142.85714286, -115.714285714, 220
406, 1142.85714286, -89.3571428571, 220
407, 1142.85714286, -115.714285714, 230
408, 1142.85714286, -89.3571428571, 230
409, 1142.85714286, -63, 210
410, 1142.85714286, -63, 220
411, 1142.85714286, -63, 230
412, 1142.85714286, -36.6428571429, 210
413, 1142.85714286, -36.6428571429, 220
414, 1142.85714286, -36.6428571429, 230
415, 1142.85714286, -10.2857142857, 220
416, 1142.85714286, -10.2857142857, 230
417, 1142.85714286, 0, 220
418, 1142.85714286, 0, 230
419, 1142.85714286, 10.2857142857, 220
420, 1142.85714286, 10.2857142857, 230
421, 1142.85714286, 36.6428571429, 210
422, 1142.85714286, 36.6428571429, 220
423, 1142.85714286, 36.6428571429, 230
424, 1142.85714286, 63, 210
425, 1142.85714286, 63, 220
426, 1142.85714286, 63, 230
427, 1142.85714286, 89.3571428571, 210
428, 1142.85714286, 89.3571428571, 220
429, 1142.85714286, 89.3571428571, 230
430, 1142.85714286, 115.714285714, 210
431, 1142.85714286, 115.714285714, 220
432, 1142.85714286, 115.714285714, 230
433, 1285.71428571, -9.57142857143, 80.3571428571
434, 1285.71428571, 0, 80.3571428571
435, 1285.71428571, -9.57142857143, 106.285714286
436, 1285.71428571, 0, 106.285714286
437, 1285.71428571, -9.57142857143, 132.214285714
438, 1285.71428571, 0, 132.214285714
439, 1285.71428571, -9.57142857143, 158.142857143
440, 1285.71428571, 0, 158.142857143
441, 1285.71428571, -9.57142857143, 184.071428571
442, 1285.71428571, 0, 184.071428571
443, 1285.71428571, -9.57142857143, 210
444, 1285.71428571, 0, 210
445, 1285.71428571, 9.57142857143, 80.3571428571
446, 1285.71428571, 9.57142857143, 106.285714286
447, 1285.71428571, 9.57142857143, 132.214285714
448, 1285.71428571, 9.57142857143, 158.142857143
449, 1285.71428571, 9.57142857143, 184.071428571
450, 1285.71428571, 9.57142857143, 210
451, 1285.71428571, -108.928571429, 210
452, 1285.71428571, -84.0892857143, 210
453, 1285.71428571, -108.928571429, 220
454, 1285.71428571, -84.0892857143, 220
455, 1285.71428571, -108.928571429, 230
456, 1285.71428571, -84.0892857143, 230
457, 1285.71428571, -59.25, 210
458, 1285.71428571, -59.25, 220
459, 1285.71428571, -59.25, 230
460, 1285.71428571, -34.4107142857, 210
461, 1285.71428571, -34.4107142857, 220
462, 1285.71428571, -34.4107142857, 230
463, 1285.71428571, -9.57142857143, 220
464, 1285.71428571, -9.57142857143, 230
465, 1285.71428571, 0, 220
466, 1285.71428571, 0, 230
467, 1285.71428571, 9.57142857143, 220
468, 1285.71428571, 9.57142857143, 230
469, 1285.71428571, 34.4107142857, 210
470, 1285.71428571, 34.4107142857, 220
471, 1285.71428571, 34.4107142857, 230
472, 1285.71428571, 59.25, 210
473, 1285.71428571, 59.25, 220
474, 1285.71428571, 59.25, 230
475, 1285.71428571, 84.0892857143, 210
476, 1285.71428571, 84.0892857143, 220
477, 1285.71428571, 84.0892857143, 230
478, 1285.71428571, 108.928571429, 210
479, 1285.71428571, 108.928571429, 220
480, 1285.71428571, 108.928571429, 230
481, 1428.57142857, -8.85714285714, 89.2857142857
482, 1428.57142857, 0, 89.2857142857
483, 1428.57142857, -8.85714285714, 113.428571429
484, 1428.57142857, 0, 113.428571429
485, 1428.57142857, -8.85714285714, 137.571428571
486, 1428.57142857, 0, 137.571428571
487, 1428.57142857, -8.85714285714, 161.714285714
488, 1428.57142857, 0, 161.714285714
489, 1428.57142857, -8.85714285714, 185.857142857
490, 1428.57142857, 0, 185.857142857
491, 1428.57142857, -8.85714285714, 210
492, 1428.57142857, 0, 210
493, 1428.57142857, 8.85714285714, 89.2857142857
494, 1428.57142857, 8.85714285714, 113.428571429
495, 1428.57142857, 8.85714285714, 137.571428571
496, 1428.57142857, 8.85714285714, 161.714285714
497, 1428.57142857, 8.85714285714, 185.857142857
498, 1428.57142857, 8.85714285714, 210
499, 1428.57142857, -102.142857143, 210
500, 1428.57142857, -78.8214285714, 210
501, 1428.57142857, -102.142857143, 220
502, 1428.57142857, -78.8214285714, 220
503, 1428.57142857, -102.142857143, 230
504, 1428.57142857, -78.8214285714, 230
505, 1428.57142857, -55.5, 210
506, 1428.57142857, -55.5, 220
507, 1428.57142857, -55.5, 230
508, 1428.57142857, -32.1785714286, 210
509, 1428.57142857, -32.1785714286, 220
510, 1428.57142857, -32.1785714286, 230
511, 1428.57142857, -8.85714285714, 220
512, 1428.57142857, -8.85714285714, 230
513, 1428.57142857, 0, 220
514, 1428.57142857, 0, 230
515, 1428.57142857, 8.85714285714, 220
516, 1428.57142857, 8.85714285714, 230
517, 1428.57142857, 32.1785714286, 210
518, 1428.57142857, 32.1785714286, 220
519, 1428.57142857, 32.1785714286, 230
520, 1428.57142857, 55.5, 210
521, 1428.57142857, 55.5, 220
522, 1428.57142857, 55.5, 230
523, 1428.57142857, 78.8214285714, 210
524, 1428.57142857, 78.8214285714, 220
525, 1428.57142857, 78.8214285714, 230
526, 1428.57142857, 102.142857143, 210
527, 1428.57142857, 102.142857143, 220
528, 1428.57142857, 102.142857143, 230
529, 1571.42857143, -8.14285714286, 98.2142857143
530, 1571.42857143, 0, 98.2142857143
531, 1571.42857143, -8.14285714286, 120.571428571
532, 1571.42857143, 0, 120.571428571
533, 1571.42857143, -8.14285714286, 142.928571429
534, 1571.42857143, 0, 142.928571429
535, 1571.42857143, -8.14285714286, 165.285714286
536, 1571.42857143, 0, 165.285714286
537, 1571.42857143, -8.14285714286, 187.642857143
538, 1571.42857143, 0, 187.642857143
539, 1571.42857143, -8.14285714286, 210
540, 1571.42857143, 0, 210
541, 1571.42857143, 8.14285714286, 98.2142857143
542, 1571.42857143, 8.14285714286, 120.571428571
543, 1571.42857143, 8.14285714286, 142.928571429
544, 1571.42857143, 8.14285714286, 165.285714286
545, 1571.42857143, 8.14285714286, 187.642857143
546, 1571.42857143, 8.14285714286, 210
547, 1571.42857143, -95.3571428571, 210
548, 1571.42857143, -73.5535714286, 210
549, 1571.42857143, -95.3571428571, 220
550, 1571.42857143, -73.5535714286, 220
551, 1571.42857143, -95.3571428571, 230
552, 1571.42857143, -73.5535714286, 230
553, 1571.42857143, -51.75, 210
554, 1571.42857143, -51.75, 220
555, 1571.42857143, -51.75, 230
556, 1571.42857143, -29.9464285714, 210
557, 1571.42857143, -29.9464285714, 220
558, 1571.42857143, -29.9464285714, 230
559, 1571.42857143, -8.14285714286, 220
560, 1571.42857143, -8.14285714286, 230
561, 1571.42857143, 0, 220
562, 1571.42857143, 0, 230
563, 1571.42857143, 8.14285714286, 220
564, 1571.42857143, 8.14285714286, 230
565, 1571.42857143, 29.9464285714, 210
566, 1571.42857143, 29.9464285714, 220
567, 1571.42857143, 29.9464285714, 230
568, 1571.42857143, 51.75, 210
569, 1571.42857143, 51.75, 220
570, 1571.42857143, 51.75, 230
571, 1571.42857143, 73.5535714286, 210
572, 1571.42857143, 73.5535714286, 220
573, 1571.42857143, 73.5535714286, 230
574, 1571.42857143, 95.3571428571, 210
575, 1571.42857143, 95.3571428571, 220
576, 1571.42857143, 95.3571428571, 230
577, 1714.28571429, -7.42857142857, 107.142857143
578, 1714.28571429, 0, 107.142857143
579, 1714.28571429, -7.42857142857, 127.714285714
580, 1714.28571429, 0, 127.714285714
581, 1714.28571429, -7.42857142857, 148.285714286
582, 1714.28571429, 0, 148.285714286
583, 1714.28571429, -7.42857142857, 168.857142857
584, 1714.28571429, 0, 168.857142857
585, 1714.28571429, -7.42857142857, 189.428571429
586, 1714.28571429, 0, 189.428571429
587, 1714.28571429, -7.42857142857, 210
588, 1714.28571429, 0, 210
589, 1714.28571429, 7.42857142857, 107.142857143
590, 1714.28571429, 7.42857142857, 127.714285714
591, 1714.28571429, 7.42857142857, 148.285714286
592, 1714.28571429, 7.42857142857, 168.857142857
593, 1714.28571429, 7.42857142857, 189.428571429
594, 1714.28571429, 7.42857142857, 210
595, 1714.28571429, -88.5714285714, 210
596, 1714.28571429, -68.2857142857, 210
597, 1714.28571429, -88.5714285714, 220
598, 1714.28571429, -68.2857142857, 220
599, 1714.28571429, -88.5714285714, 230
600, 1714.28571429, -68.2857142857, 230
601, 1714.28571429, -48, 210
602, 1714.28571429, -48, 220
603, 1714.28571429, -48, 230
604, 1714.28571429, -27.7142857143, 210
605, 1714.28571429, -27.7142857143, 220
606, 1714.28571429, -27.7142857143, 230
607, 1714.28571429, -7.42857142857, 220
608, 1714.28571429, -7.42857142857, 230
609, 1714.28571429, 0, 220
610, 1714.28571429, 0, 230
611, 1714.28571429, 7.42857142857, 220
612, 1714.28571429, 7.42857142857, 230
613, 1714.28571429, 27.7142857143, 210
614, 1714.28571429, 27.7142857143, 220
615, 1714.28571429, 27.7142857143, 230
616, 1714.28571429, 48, 210
617, 1714.28571429, 48, 220
618, 1714.28571429, 48, 230
619, 1714.28571429, 68.2857142857, 210
620, 1714.28571429, 68.2857142857, 220
621, 1714.28571429, 68.2857142857, 230
622, 1714.28571429, 88.5714285714, 210
623, 1714.28571429, 88.5714285714, 220
624, 1714.28571429, 88.5714285714, 230
625, 1857.14285714, -6.71428571429, 116.071428571
626, 1857.14285714, 0, 116.071428571
627, 1857.14285714, -6.71428571429, 134.857142857
628, 1857.14285714, 0, 134.857142857
629, 1857.14285714, -6.71428571429, 153.642857143
630, 1857.14285714, 0, 153.642857143
631, 1857.14285714, -6.71428571429, 172.428571429
632, 1857.14285714, 0, 172.428571429
633, 1857.14285714, -6.71428571429, 191.214285714
634, 1857.14285714, 0, 191.214285714
635, 1857.14285714, -6.71428571429, 210
636, 1857.14285714, 0, 210
637, 1857.14285714, 6.71428571429, 116.071428571
638, 1857.14285714, 6.71428571429, 134.857142857
639, 1857.14285714, 6.71428571429, 153.642857143
640, 1857.14285714, 6.71428571429, 172.428571429
641, 1857.14285714, 6.71428571429, 191.214285714
642, 1857.14285714, 6.71428571429, 210
643, 1857.14285714, -81.7857142857, 210
644, 1857.14285714, -63.0178571429, 210
645, 1857.14285714, -81.7857142857, 220
646, 1857.14285714, -63.0178571429, 220
647, 1857.14285714, -81.7857142857, 230
648, 1857.14285714, -63.0178571429, 230
649, 1857.14285714, -44.25, 210
650, 1857.14285714, -44.25, 220
651, 1857.14285714, -44.25, 230
652, 1857.14285714, -25.4821428571, 210
653, 1857.14285714, -25.4821428571, 220
654, 1857.14285714, -25.4821428571, 230
655, 1857.14285714, -6.71428571429, 220
656, 1857.14285714, -6.71428571429, 230
657, 1857.14285714, 0, 220
658, 1857.14285714, 0, 230
659, 1857.14285714, 6.71428571429, 220
660, 1857.14285714, 6.71428571429, 230
661, 1857.14285714, 25.4821428571, 210
662, 1857.14285714, 25.4821428571, 220
663, 1857.14285714, 25.4821428571, 230
664, 1857.14285714, 44.25, 210
665, 1857.14285714, 44.25, 220
666, 1857.14285714, 44.25, 230
667, 1857.14285714, 63.0178571429, 210
668, 1857.14285714, 63.0178571429, 220
669, 1857.14285714, 63.0178571429, 230
670, 1857.14285714, 81.7857142857, 210
671, 1857.14285714, 81.7857142857, 220
672, 1857.14285714, 81.7857142857, 230
673, 2000, -6, 125
674, 2000, 0, 125
675, 2000, -6, 142
676, 2000, 0, 142
677, 2000, -6, 159
678, 2000, 0, 159
679, 2000, -6, 176
680, 2000, 0, 176
681, 2000, -6, 193
682, 2000, 0, 193
683, 2000, -6, 210
684, 2000, 0, 210
685, 2000, 6, 125
686, 2000, 6, 142
687, 2000, 6, 159
688, 2000, 6, 176
689, 2000, 6, 193
690, 2000, 6, 210
691, 2000, -75, 210
692, 2000, -57.75, 210
693, 2000, -75, 220
694, 2000, -57.75, 220
695, 2000, -75, 230
696, 2000, -57.75, 230
697, 2000, -40.5, 210
698, 2000, -40.5, 220
699, 2000, -40.5, 230
700, 2000, -23.25, 210
701, 2000, -23.25, 220
702, 2000, -23.25, 230
703, 2000, -6, 220
704, 2000, -6, 230
705, 2000, 0, 220
706, 2000, 0, 230
707, 2000, 6, 220
708, 2000, 6, 230
709, 2000, 23.25, 210
710, 2000, 23.25, 220
711, 2000, 23.25, 230
712, 2000, 40.5, 210
713, 2000, 40.5, 220
714, 2000, 40.5, 230
715, 2000, 57.75, 210
716, 2000, 57.75, 220
717, 2000, 57.75, 230
718, 2000, 75, 210
719, 2000, 75, 220
720, 2000, 75, 230
*ELEMENT, TYPE=C3D8, ELSET=EALL
1, 1, 2, 3, 4, 5, 6, 7, 8
2, 5, 6, 7, 8, 9, 10, 11, 12
3, 9, 10, 11, 12, 13, 14, 15, 16
4, 13, 14, 15, 16, 17, 18, 19, 20
5, 17, 18, 19, 20, 21, 22, 23, 24
6, 4, 3, 25, 26, 8, 7, 27, 28
7, 8, 7, 27, 28, 12, 11, 29, 30
8, 12, 11, 29, 30, 16, 15, 31, 32
9, 16, 15, 31, 32, 20, 19, 33, 34
10, 20, 19, 33, 34, 24, 23, 35, 36
11, 37, 38, 39, 40, 41, 42, 43, 44
12, 41, 42, 43, 44, 45, 46, 47, 48
13, 40, 39, 49, 50, 44, 43, 51, 52
14, 44, 43, 51, 52, 48, 47, 53, 54
15, 50, 49, 55, 56, 52, 51, 57, 58
16, 52, 51, 57, 58, 54, 53, 59, 60
17, 56, 55, 22, 21, 58, 57, 61, 62
18, 58, 57, 61, 62, 60, 59, 63, 64
19, 21, 22, 23, 24, 62, 61, 65, 66
20, 62, 61, 65, 66, 64, 63, 67, 68
21, 24, 23, 35, 36, 66, 65, 69, 70
22, 66, 65, 69, 70, 68, 67, 71, 72
23, 36, 35, 73, 74, 70, 69, 75, 76
24, 70, 69, 75, 76, 72, 71, 77, 78
25, 74, 73, 79, 80, 76, 75, 81, 82
26, 76, 75, 81, 82, 78, 77, 83, 84
27, 80, 79, 85, 86, 82, 81, 87, 88
28, 82, 81, 87, 88, 84, 83, 89, 90
29, 86, 85, 91, 92, 88, 87, 93, 94
30, 88, 87, 93, 94, 90, 89, 95, 96
31, 2, 97, 98, 3, 6, 99, 100, 7
32, 6, 99, 100, 7, 10, 101, 102, 11
33, 10, 101, 102, 11, 14, 103, 104, 15
34, 14, 103, 104, 15, 18, 105, 106, 19
35, 18, 105, 106, 19, 22, 107, 108, 23
36, 3, 98, 109, 25, 7, 100, 110, 27
37, 7, 100, 110, 27, 11, 102, 111, 29
38, 11, 102, 111, 29, 15, 104, 112, 31
39, 15, 104, 112, 31, 19, 106, 113, 33
40, 19, 106, 113, 33, 23, 108, 114, 35
41, 38, 115, 116, 39, 42, 117, 118, 43
42, 42, 117, 118, 43, 46, 119, 120, 47
43, 39, 116, 121, 49, 43, 118, 122, 51
44, 43, 118, 122, 51, 47, 120, 123, 53
45, 49, 121, 124, 55, 51, 122, 125, 57
46, 51, 122, 125, 57, 53, 123, 126, 59
47, 55, 124, 107, 22, 57, 125, 127, 61
48, 57, 125, 127, 61, 59, 126, 128, 63
49, 22, 107, 108, 23, 61, 127, 129, 65
50, 61, 127, 129, 65, 63, 128, 130, 67
51, 23, 108, 114, 35, 65, 129, 131, 69
52, 65, 129, 131, 69, 67, 130, 132, 71
53, 35, 114, 133, 73, 69, 131, 134, 75
54, 69, 131, 134, 75, 71, 132, 135, 77
55, 73, 133, 136, 79, 75, 134, 137, 81
56, 75, 134, 137, 81, 77, 135, 138, 83
57, 79, 136, 139, 85, 81, 137, 140, 87
58, 81, 137, 140, 87, 83, 138, 141, 89
59, 85, 139, 142, 91, 87, 140, 143, 93
60, 87, 140, 143, 93, 89, 141, 144, 95
61, 97, 145, 146, 98, 99, 147, 148, 100
62, 99, 147, 148, 100, 101, 149, 150, 102
63, 101, 149, 150, 102, 103, 151, 152, 104
64, 103, 151, 152, 104, 105, 153, 154, 106
65, 105, 153, 154, 106, 107, 155, 156, 108
66, 98, 146, 157, 109, 100, 148, 158, 110
67, 100, 148, 158, 110, 102, 150, 159, 111
68, 102, 150, 159, 111, 104, 152, 160, 112
69, 104, 152, 160, 112, 106, 154, 161, 113
70, 106, 154, 161, 113, 108, 156, 162, 114
71, 115, 163, 164, 116, 117, 165, 166, 118
72, 117, 165, 166, 118, 119, 167, 168, 120
73, 116, 164, 169, 121, 118, 166, 170, 122
74, 118, 166, 170, 122, 120, 168, 171, 123
75, 121, 169, 172, 124, 122, 170, 173, 125
76, 122, 170, 173, 125, 123, 171, 174, 126
77, 124, 172, 155, 107, 125, 173, 175, 127
78, 125, 173, 175, 127, 126, 174, 176, 128
79, 107, 155, 156, 108, 127, 175, 177, 129
80, 127, 175, 177, 129, 128, 176, 178, 130
81, 108, 156, 162, 114, 129, 177, 179, 131
82, 129, 177, 179, 131, 130, 178, 180, 132
83, 114, 162, 181, 133, 131, 179, 182, 134
84, 131, 179, 182, 134, 132, 180, 183, 135
85, 133, 181, 184, 136, 134, 182, 185, 137
86, 134, 182, 185, 137, 135, 183, 186, 138
87, 136, 184, 187, 139, 137, 185, 188, 140
88, 137, 185, 188, 140, 138, 186, 189, 141
89, 139, 187, 190, 142, 140, 188, 191, 143
90, 140, 188, 191, 143, 141, 189, 192, 144
91, 145, 193, 194, 146, 147, 195, 196, 148
92, 147, 195, 196, 148, 149, 197, 198, 150
93, 149, 197, 198, 150, 151, 199, 200, 152
94, 151, 199, 200, 152, 153, 201, 202, 154
95, 153, 201, 202, 154, 155, 203, 204, 156
96, 146, 194, 205, 157, 148, 196, 206, 158
97, 148, 196, 206, 158, 150, 198, 207, 159
98, 150, 198, 207, 159, 152, 200, 208, 160
99, 152, 200, 208, 160, 154, 202, 209, 161
100, 154, 202, 209, 161, 156, 204, 210, 162
101, 163, 211, 212, 164, 165, 213, 214, 166
102, 165, 213, 214, 166, 167, 215, 216, 168
103, 164, 212, 217, 169, 166, 214, 218, 170
104, 166, 214, 218, 170, 168, 216, 219, 171
105, 169, 217, 220, 172, 170, 218, 221, 173
106, 170, 218, 221, 173, 171, 219, 222, 174
107, 172, 220, 203, 155, 173, 221, 223, 175
108, 173, 221, 223, 175, 174, 222, 224, 176
109, 155, 203, 204, 156, 175, 223, 225, 177
110, 175, 223, 225, 177, 176, 224, 226, 178
111, 156, 204, 210, 162, 177, 225, 227, 179
112, 177, 225, 227, 179, 178, 226, 228, 180
113, 162, 210, 229, 181, 179, 227, 230, 182
114, 179, 227, 230, 182, 180, 228, 231, 183
115, 181, 229, 232, 184, 182, 230, 233, 185
116, 182, 230, 233, 185, 183, 231, 234, 186
117, 184, 232, 235, 187, 185, 233, 236, 188
118, 185, 233, 236, 188, 186, 234, 237, 189
119, 187, 235, 238, 190, 188, 236, 239, 191
120, 188, 236, 239, 191, 189, 237, 240, 192
121, 193, 241, 242, 194, 195, 243, 244, 196
122, 195, 243, 244, 196, 197, 245, 246, 198
123, 197, 245, 246, 198, 199, 247, 248, 200
124, 199, 247, 248, 200, 201, 249, 250, 202
125, 201, 249, 250, 202, 203, 251, 252, 204
126, 194, 242, 253, 205, 196, 244, 254, 206
127, 196, 244, 254, 206, 198, 246, 255, 207
128, 198, 246, 255, 207, 200, 248, 256, 208
129, 200, 248, 256, 208, 202, 250, 257, 209
130, 202, 250, 257, 209, 204, 252, 258, 210
131, 211, 259, 260, 212, 213, 261, 262, 214
132, 213, 261, 262, 214, 215, 263, 264, 216
133, 212, 260, 265, 217, 214, 262, 266, 218
134, 214, 262, 266, 218, 216, 264, 267, 219
135, 217, 265, 268, 220, 218, 266, 269, 221
136, 218, 266, 269, 221, 219, 267, 270, 222
137, 220, 268, 251, 203, 221, 269, 271, 223
138, 221, 269, 271, 223, 222, 270, 272, 224
139, 203, 251, 252, 204, 223, 271, 273, 225
140, 223, 271, 273, 225, 224, 272, 274, 226
141, 204, 252, 258, 210, 225, 273, 275, 227
142, 225, 273, 275, 227, 226, 274, 276, 228
143, 210, 258, 277, 229, 227, 275, 278, 230
144, 227, 275, 278, 230, 228, 276, 279, 231
145, 229, 277, 280, 232, 230, 278, 281, 233
146, 230, 278, 281, 233, 231, 279, 282, 234
147, 232, 280, 283, 235, 233, 281, 284, 236
148, 233, 281, 284, 236, 234, 282, 285, 237
149, 235, 283, 286, 238, 236, 284, 287, 239
150, 236, 284, 287, 239, 237, 285, 288, 240
151, 241, 289, 290, 242, 243, 291, 292, 244
152, 243, 291, 292, 244, 245, 293, 294, 246
153, 245, 293, 294, 246, 247, 295, 296, 248
154, 247, 295, 296, 248, 249, 297, 298, 250
155, 249, 297, 298, 250, 251, 299, 300, 252
156, 242, 290, 301, 253, 244, 292, 302, 254
157, 244, 292, 302, 254, 246, 294, 303, 255
158, 246, 294, 303, 255, 248, 296, 304, 256
159, 248, 296, 304, 256, 250, 298, 305, 257
160, 250, 298, 305, 257, 252, 300, 306, 258
161, 259, 307, 308, 260, 261, 309, 310, 262
162, 261, 309, 310, 262, 263, 311, 312, 264
163, 260, 308, 313, 265, 262, 310, 314, 266
164, 262, 310, 314, 266, 264, 312, 315, 267
165, 265, 313, 316, 268, 266, 314, 317, 269
166, 266, 314, 317, 269, 267, 315, 318, 270
167, 268, 316, 299, 251, 269, 317, 319, 271
168, 269, 317, 319, 271, 270, 318, 320, 272
169, 251, 299, 300, 252, 271, 319, 321, 273
170, 271, 319, 321, 273, 272, 320, 322, 274
171, 252, 300, 306, 258, 273, 321, 323, 275
172, 273, 321, 323, 275, 274, 322, 324, 276
173, 258, 306, 325, 277, 275, 323, 326, 278
174, 275, 323, 326, 278, 276, 324, 327, 279
175, 277, 325, 328, 280, 278, 326, 329, 281
176, 278, 326, 329, 281, 279, 327, 330, 282
177, 280, 328, 331, 283, 281, 329, 332, 284
178, 281, 329, 332, 284, 282, 330, 333, 285
179, 283, 331, 334, 286, 284, 332, 335, 287
180, 284, 332, 335, 287, 285, 333, 336, 288
181, 289, 337, 338, 290, 291, 339, 340, 292
182, 291, 339, 340, 292, 293, 341, 342, 294
183, 293, 341, 342, 294, 295, 343, 344, 296
184, 295, 343, 344, 296, 297, 345, 346, 298
185, 297, 345, 346, 298, 299, 347, 348, 300
186, 290, 338, 349, 301, 292, 340, 350, 302
187, 292, 340, 350, 302, 294, 342, 351, 303
188, 294, 342, 351, 303, 296, 344, 352, 304
189, 296, 344, 352, 304, 298, 346, 353, 305
190, 298, 346, 353, 305, 300, 348, 354, 306
191, 307, 355, 356, 308, 309, 357, 358, 310
192, 309, 357, 358, 310, 311, 359, 360, 312
193, 308, 356, 361, 313, 310, 358, 362, 314
194, 310, 358, 362, 314, 312, 360, 363, 315
195, 313, 361, 364, 316, 314, 362, 365, 317
196, 314, 362, 365, 317, 315, 363, 366, 318
197, 316, 364, 347, 299, 317, 365, 367, 319
198, 317, 365, 367, 319, 318, 366, 368, 320
199, 299, 347, 348, 300, 319, 367, 369, 321
200, 319, 367, 369, 321, 320, 368, 370, 322
201, 300, 348, 354, 306, 321, 369, 371, 323
202, 321, 369, 371, 323, 322, 370, 372, 324
203, 306, 354, 373, 325, 323, 371, 374, 326
204, 323, 371, 374, 326, 324, 372, 375, 327
205, 325, 373, 376, 328, 326, 374, 377, 329
206, 326, 374, 377, 329, 327, 375, 378, 330
207, 328, 376, 379, 331, 329, 377, 380, 332
208, 329, 377, 380, 332, 330, 378, 381, 333
209, 331, 379, 382, 334, 332, 380, 383, 335
210, 332, 380, 383, 335, 333, 381, 384, 336
211, 337, 385, 386, 338, 339, 387, 388, 340
212, 339, 387, 388, 340, 341, 389, 390, 342
213, 341, 389, 390, 342, 343, 391, 392, 344
214, 343, 391, 392, 344, 345, 393, 394, 346
215, 345, 393, 394, 346, 347, 395, 396, 348
216, 338, 386, 397, 349, 340, 388, 398, 350
217, 340, 388, 398, 350, 342, 390, 399, 351
218, 342, 390, 399, 351, 344, 392, 400, 352
219, 344, 392, 400, 352, 346, 394, 401, 353
220, 346, 394, 401, 353, 348, 396, 402, 354
221, 355, 403, 404, 356, 357, 405, 406, 358
222, 357, 405, 406, 358, 359, 407, 408, 360
223, 356, 404, 409, 361, 358, 406, 410, 362
224, 358, 406, 410, 362, 360, 408, 411, 363
225, 361, 409, 412, 364, 362, 410, 413, 365
226, 362, 410, 413, 365, 363, 411, 414, 366
227, 364, 412, 395, 347, 365, 413, 415, 367
228, 365, 413, 415, 367, 366, 414, 416, 368
229, 347, 395, 396, 348, 367, 415, 417, 369
230, 367, 415, 417, 369, 368, 416, 418, 370
231, 348, 396, 402, 354, 369, 417, 419, 371
232, 369, 417, 419, 371, 370, 418, 420, 372
233, 354, 402, 421, 373, 371, 419, 422, 374
234, 371, 419, 422, 374, 372, 420, 423, 375
235, 373, 421, 424, 376, 374, 422, 425, 377
236, 374, 422, 425, 377, 375, 423, 426, 378
237, 376, 424, 427, 379, 377, 425, 428, 380
238, 377, 425, 428, 380, 378, 426, 429, 381
239, 379, 427, 430, 382, 380, 428, 431, 383
240, 380, 428, 431, 383, 381, 429, 432, 384
241, 385, 433, 434, 386, 387, 435, 436, 388
242, 387, 435, 436, 388, 389, 437, 438, 390
243, 389, 437, 438, 390, 391, 439, 440, 392
244, 391, 439, 440, 392, 393, 441, 442, 394
245, 393, 441, 442, 394, 395, 443, 444, 396
246, 386, 434, 445, 397, 388, 436, 446, 398
247, 388, 436, 446, 398, 390, 438, 447, 399
248, 390, 438, 447, 399, 392, 440, 448, 400
249, 392, 440, 448, 400, 394, 442, 449, 401
250, 394, 442, 449, 401, 396, 444, 450, 402
251, 403, 451, 452, 404, 405, 453, 454, 406
252, 405, 453, 454, 406, 407, 455, 456, 408
253, 404, 452, 457, 409, 406, 454, 458, 410
254, 406, 454, 458, 410, 408, 456, 459, 411
255, 409, 457, 460, 412, 410, 458, 461, 413
256, 410, 458, 461, 413, 411, 459, 462, 414
257, 412, 460, 443, 395, 413, 461, 463, 415
258, 413, 461, 463, 415, 414, 462, 464, 416
259, 395, 443, 444, 396, 415, 463, 465, 417
260, 415, 463, 465, 417, 416, 464, 466, 418
261, 396, 444, 450, 402, 417, 465, 467, 419
262, 417, 465, 467, 419, 418, 466, 468, 420
263, 402, 450, 469, 421, 419, 467, 470, 422
264, 419, 467, 470, 422, 420, 468, 471, 423
265, 421, 469, 472, 424, 422, 470, 473, 425
266, 422, 470, 473, 425, 423, 471, 474, 426
267, 424, 472, 475, 427, 425, 473, 476, 428
268, 425, 473, 476, 428, 426, 474, 477, 429
269, 427, 475, 478, 430, 428, 476, 479, 431
270, 428, 476, 479, 431, 429, 477, 480, 432
271, 433, 481, 482, 434, 435, 483, 484, 436
272, 435, 483, 484, 436, 437, 485, 486, 438
273, 437, 485, 486, 438, 439, 487, 488, 440
274, 439, 487, 488, 440, 441, 489, 490, 442
275, 441, 489, 490, 442, 443, 491, 492, 444
276, 434, 482, 493, 445, 436, 484, 494, 446
277, 436, 484, 494, 446, 438, 486, 495, 447
278, 438, 486, 495, 447, 440, 488, 496, 448
279, 440, 488, 496, 448, 442, 490, 497, 449
280, 442, 490, 497, 449, 444, 492, 498, 450
281, 451, 499, 500, 452, 453, 501, 502, 454
282, 453, 501, 502, 454, 455, 503, 504, 456
283, 452, 500, 505, 457, 454, 502, 506, 458
284, 454, 502, 506, 458, 456, 504, 507, 459
285, 457, 505, 508, 460, 458, 506, 509, 461
286, 458, 506, 509, 461, 459, 507, 510, 462
287, 460, 508, 491, 443, 461, 509, 511, 463
288, 461, 509, 511, 463, 462, 510, 512, 464
289, 443, 491, 492, 444, 463, 511, 513, 465
290, 463, 511, 513, 465, 464, 512, 514, 466
291, 444, 492, 498, 450, 465, 513, 515, 467
292, 465, 513, 515, 467, 466, 514, 516, 468
293, 450, 498, 517, 469, 467, 515, 518, 470
294, 467, 515, 518, 470, 468, 516, 519, 471
295, 469, 517, 520, 472, 470, 518, 521, 473
296, 470, 518, 521, 473, 471, 519, 522, 474
297, 472, 520, 523, 475, 473, 521, 524, 476
298, 473, 521, 524, 476, 474, 522, 525, 477
299, 475, 523, 526, 478, 476, 524, 527, 479
300, 476, 524, 527, 479, 477, 525, 528, 480
301, 481, 529, 530, 482, 483, 531, 532, 484
302, 483, 531, 532, 484, 485, 533, 534, 486
303, 485, 533, 534, 486, 487, 535, 536, 488
304, 487, 535, 536, 488, 489, 537, 538, 490
305, 489, 537, 538, 490, 491, 539, 540, 492
306, 482, 530, 541, 493, 484, 532, 542, 494
307, 484, 532, 542, 494, 486, 534, 543, 495
308, 486, 534, 543, 495, 488, 536, 544, 496
309, 488, 536, 544, 496, 490, 538, 545, 497
310, 490, 538, 545, 497, 492, 540, 546, 498
311, 499, 547, 548, 500, 501, 549, 550, 502
312, 501, 549, 550, 502, 503, 551, 552, 504
313, 500, 548, 553, 505, 502, 550, 554, 506
314, 502, 550, 554, 506, 504, 552, 555, 507
315, 505, 553, 556, 508, 506, 554, 557, 509
316, 506, 554, 557, 509, 507, 555, 558, 510
317, 508, 556, 539, 491, 509, 557, 559, 511
318, 509, 557, 559, 511, 510, 558, 560, 512
319, 491, 539, 540, 492, 511, 559, 561, 513
320, 511, 559, 561, 513, 512, 560, 562, 514
321, 492, 540, 546, 498, 513, 561, 563, 515
322, 513, 561, 563, 515, 514, 562, 564, 516
323, 498, 546, 565, 517, 515, 563, 566, 518
324, 515, 563, 566, 518, 516, 564, 567, 519
325, 517, 565, 568, 520, 518, 566, 569, 521
326, 518, 566, 569, 521, 519, 567, 570, 522
327, 520, 568, 571, 523, 521, 569, 572, 524
328, 521, 569, 572, 524, 522, 570, 573, 525
329, 523, 571, 574, 526, 524, 572, 575, 527
330, 524, 572, 575, 527, 525, 573, 576, 528
331, 529, 577, 578, 530, 531, 579, 580, 532
332, 531, 579, 580, 532, 533, 581, 582, 534
333, 533, 581, 582, 534, 535, 583, 584, 536
334, 535, 583, 584, 536, 537, 585, 586, 538
335, 537, 585, 586, 538, 539, 587, 588, 540
336, 530, 578, 589, 541, 532, 580, 590, 542
337, 532, 580, 590, 542, 534, 582, 591, 543
338, 534, 582, 591, 543, 536, 584, 592, 544
339, 536, 584, 592, 544, 538, 586, 593, 545
340, 538, 586, 593, 545, 540, 588, 594, 546
341, 547, 595, 596, 548, 549, 597, 598, 550
342, 549, 597, 598, 550, 551, 599, 600, 552
343, 548, 596, 601, 553, 550, 598, 602, 554
344, 550, 598, 602, 554, 552, 600, 603, 555
345, 553, 601, 604, 556, 554, 602, 605, 557
346, 554, 602, 605, 557, 555, 603, 606, 558
347, 556, 604, 587, 539, 557, 605, 607, 559
348, 557, 605, 607, 559, 558, 606, 608, 560
349, 539, 587, 588, 540, 559, 607, 609, 561
350, 559, 607, 609, 561, 560, 608, 610, 562
351, 540, 588, 594, 546, 561, 609, 611, 563
352, 561, 609, 611, 563, 562, 610, 612, 564
353, 546, 594, 613, 565, 563, 611, 614, 566
354, 563, 611, 614, 566, 564, 612, 615, 567
355, 565, 613, 616, 568, 566, 614, 617, 569
356, 566, 614, 617, 569, 567, 615, 618, 570
357, 568, 616, 619, 571, 569, 617, 620, 572
358, 569, 617, 620, 572, 570, 618, 621, 573
359, 571, 619, 622, 574, 572, 620, 623, 575
360, 572, 620, 623, 575, 573, 621, 624, 576
361, 577, 625, 626, 578, 579, 627, 628, 580
362, 579, 627, 628, 580, 581, 629, 630, 582
363, 581, 629, 630, 582, 583, 631, 632, 584
364, 583, 631, 632, 584, 585, 633, 634, 586
365, 585, 633, 634, 586, 587, 635, 636, 588
366, 578, 626, 637, 589, 580, 628, 638, 590
367, 580, 628, 638, 590, 582, 630, 639, 591
368, 582, 630, 639, 591, 584, 632, 640, 592
369, 584, 632, 640, 592, 586, 634, 641, 593
370, 586, 634, 641, 593, 588, 636, 642, 594
371, 595, 643, 644, 596, 597, 645, 646, 598
372, 597, 645, 646, 598, 599, 647, 648, 600
373, 596, 644, 649, 601, 598, 646, 650, 602
374, 598, 646, 650, 602, 600, 648, 651, 603
375, 601, 649, 652, 604, 602, 650, 653, 605
376, 602, 650, 653, 605, 603, 651, 654, 606
377, 604, 652, 635, 587, 605, 653, 655, 607
378, 605, 653, 655, 607, 606, 654, 656, 608
379, 587, 635, 636, 588, 607, 655, 657, 609
380, 607, 655, 657, 609, 608, 656, 658, 610
381, 588, 636, 642, 594, 609, 657, 659, 611
382, 609, 657, 659, 611, 610, 658, 660, 612
383, 594, 642, 661, 613, 611, 659, 662, 614
384, 611, 659, 662, 614, 612, 660, 663, 615
385, 613, 661, 664, 616, 614, 662, 665, 617
386, 614, 662, 665, 617, 615, 663, 666, 618
387, 616, 664, 667, 619, 617, 665, 668, 620
388, 617, 665, 668, 620, 618, 666, 669, 621
389, 619, 667, 670, 622, 620, 668, 671, 623
390, 620, 668, 671, 623, 621, 669, 672, 624
391, 625, 673, 674, 626, 627, 675, 676, 628
392, 627, 675, 676, 628, 629, 677, 678, 630
393, 629, 677, 678, 630, 631, 679, 680, 632
394, 631, 679, 680, 632, 633, 681, 682, 634
395, 633, 681, 682, 634, 635, 683, 684, 636
396, 626, 674, 685, 637, 628, 676, 686, 638
397, 628, 676, 686, 638, 630, 678, 687, 639
398, 630, 678, 687, 639, 632, 680, 688, 640
399, 632, 680, 688, 640, 634, 682, 689, 641
400, 634, 682, 689, 641, 636, 684, 690, 642
401, 643, 691, 692, 644, 645, 693, 694, 646
402, 645, 693, 694, 646, 647, 695, 696, 648
403, 644, 692, 697, 649, 646, 694, 698, 650
404, 646, 694, 698, 650, 648, 696, 699, 651
405, 649, 697, 700, 652, 650, 698, 701, 653
406, 650, 698, 701, 653, 651, 699, 702, 654
407, 652, 700, 683, 635, 653, 701, 703, 655
408, 653, 701, 703, 655, 654, 702, 704, 656
409, 635, 683, 684, 636, 655, 703, 705, 657
410, 655, 703, 705, 657, 656, 704, 706, 658
411, 636, 684, 690, 642, 657, 705, 707, 659
412, 657, 705, 707, 659, 658, 706, 708, 660
413, 642, 690, 709, 661, 659, 707, 710, 662
414, 659, 707, 710, 662, 660, 708, 711, 663
415, 661, 709, 712, 664, 662, 710, 713, 665
416, 662, 710, 713, 665, 663, 711, 714, 666
417, 664, 712, 715, 667, 665, 713, 716, 668
418, 665, 713, 716, 668, 666, 714, 717, 669
419, 667, 715, 718, 670, 668, 716, 719, 671
420, 668, 716, 719, 671, 669, 717, 720, 672
*NSET, NSET=CLAMP
1, 4, 5, 8, 9, 12, 13, 16, 17, 20, 21, 24, 26, 28, 30, 32
34, 36, 37, 40, 41, 44, 45, 48, 50, 52, 54, 56, 58, 60, 62, 64
66, 68, 70, 72, 74, 76, 78, 80, 82, 84, 86, 88, 90, 92, 94, 96
*NSET, NSET=TIP_TOP
695, 696, 699, 702, 704, 706, 708, 711, 714, 717, 720
*NSET, NSET=TIP_FLANGE
695, 696, 699, 702, 704, 706, 708, 711, 714, 717, 720
*MATERIAL, NAME=STEEL
*ELASTIC
210000, 0.3
*SOLID SECTION, ELSET=EALL, MATERIAL=STEEL
*BOUNDARY
CLAMP, 1, 3, 0.0
*STEP
*STATIC
*CLOAD
695, 3, -454.545454545
696, 3, -454.545454545
699, 3, -454.545454545
702, 3, -454.545454545
704, 3, -454.545454545
706, 3, -454.545454545
708, 3, -454.545454545
711, 3, -454.545454545
714, 3, -454.545454545
717, 3, -454.545454545
720, 3, -454.545454545
*NODE FILE
U
*EL FILE
S, ENER
*NODE PRINT, NSET=TIP_TOP
U
*NODE PRINT, NSET=CLAMP
RF
*EL PRINT, ELSET=EALL
ELSE
*ENERGY PRINT
*END STEP
