*HEADING
Normalized cross-passage space-truss torsion benchmark
*NODE
1,-1.200000000000e+00,0.000000000000e+00,0.000000000000e+00
2,1.200000000000e+00,0.000000000000e+00,0.000000000000e+00
3,-1.200000000000e+00,0.000000000000e+00,2.000000000000e+00
4,1.200000000000e+00,0.000000000000e+00,2.000000000000e+00
5,-1.200000000000e+00,1.000000000000e+01,0.000000000000e+00
6,1.200000000000e+00,1.000000000000e+01,0.000000000000e+00
7,-1.200000000000e+00,1.000000000000e+01,2.000000000000e+00
8,1.200000000000e+00,1.000000000000e+01,2.000000000000e+00
9,-1.200000000000e+00,2.000000000000e+01,0.000000000000e+00
10,1.200000000000e+00,2.000000000000e+01,0.000000000000e+00
11,-1.200000000000e+00,2.000000000000e+01,2.000000000000e+00
12,1.200000000000e+00,2.000000000000e+01,2.000000000000e+00
13,-1.200000000000e+00,3.000000000000e+01,0.000000000000e+00
14,1.200000000000e+00,3.000000000000e+01,0.000000000000e+00
15,-1.200000000000e+00,3.000000000000e+01,2.000000000000e+00
16,1.200000000000e+00,3.000000000000e+01,2.000000000000e+00
17,-1.200000000000e+00,4.000000000000e+01,0.000000000000e+00
18,1.200000000000e+00,4.000000000000e+01,0.000000000000e+00
19,-1.200000000000e+00,4.000000000000e+01,2.000000000000e+00
20,1.200000000000e+00,4.000000000000e+01,2.000000000000e+00
21,-1.200000000000e+00,5.000000000000e+01,0.000000000000e+00
22,1.200000000000e+00,5.000000000000e+01,0.000000000000e+00
23,-1.200000000000e+00,5.000000000000e+01,2.000000000000e+00
24,1.200000000000e+00,5.000000000000e+01,2.000000000000e+00
25,-1.200000000000e+00,1.500000000000e+01,-1.500000000000e-01
26,1.200000000000e+00,1.500000000000e+01,1.500000000000e-01
27,-1.200000000000e+00,1.500000000000e+01,1.850000000000e+00
28,1.200000000000e+00,1.500000000000e+01,2.150000000000e+00
29,-1.200000000000e+00,4.250000000000e+01,-1.060660171780e-01
30,-1.200000000000e+00,4.500000000000e+01,-1.500000000000e-01
31,-1.200000000000e+00,4.750000000000e+01,-1.060660171780e-01
32,1.200000000000e+00,4.250000000000e+01,1.060660171780e-01
33,1.200000000000e+00,4.500000000000e+01,1.500000000000e-01
34,1.200000000000e+00,4.750000000000e+01,1.060660171780e-01
35,-1.200000000000e+00,4.250000000000e+01,1.893933982822e+00
36,-1.200000000000e+00,4.500000000000e+01,1.850000000000e+00
37,-1.200000000000e+00,4.750000000000e+01,1.893933982822e+00
38,1.200000000000e+00,4.250000000000e+01,2.106066017178e+00
39,1.200000000000e+00,4.500000000000e+01,2.150000000000e+00
40,1.200000000000e+00,4.750000000000e+01,2.106066017178e+00
41,0.000000000000e+00,-3.600000000000e-02,0.000000000000e+00
42,0.000000000000e+00,3.600000000000e-02,2.000000000000e+00
43,-1.200000000000e+00,3.000000000000e-02,1.000000000000e+00
44,1.200000000000e+00,-3.000000000000e-02,1.000000000000e+00
45,-6.000000000000e-01,2.997454415588e+01,0.000000000000e+00
46,0.000000000000e+00,2.996400000000e+01,0.000000000000e+00
47,6.000000000000e-01,2.997454415588e+01,0.000000000000e+00
48,-6.000000000000e-01,3.002545584412e+01,2.000000000000e+00
49,0.000000000000e+00,3.003600000000e+01,2.000000000000e+00
50,6.000000000000e-01,3.002545584412e+01,2.000000000000e+00
51,-1.200000000000e+00,3.002121320344e+01,5.000000000000e-01
52,-1.200000000000e+00,3.003000000000e+01,1.000000000000e+00
53,-1.200000000000e+00,3.002121320344e+01,1.500000000000e+00
54,1.200000000000e+00,2.997878679656e+01,5.000000000000e-01
55,1.200000000000e+00,2.997000000000e+01,1.000000000000e+00
56,1.200000000000e+00,2.997878679656e+01,1.500000000000e+00
57,-6.000000000000e-01,3.997454415588e+01,0.000000000000e+00
58,0.000000000000e+00,3.996400000000e+01,0.000000000000e+00
59,6.000000000000e-01,3.997454415588e+01,0.000000000000e+00
60,-6.000000000000e-01,4.002545584412e+01,2.000000000000e+00
61,0.000000000000e+00,4.003600000000e+01,2.000000000000e+00
62,6.000000000000e-01,4.002545584412e+01,2.000000000000e+00
63,-1.200000000000e+00,4.002121320344e+01,5.000000000000e-01
64,-1.200000000000e+00,4.003000000000e+01,1.000000000000e+00
65,-1.200000000000e+00,4.002121320344e+01,1.500000000000e+00
66,1.200000000000e+00,3.997878679656e+01,5.000000000000e-01
67,1.200000000000e+00,3.997000000000e+01,1.000000000000e+00
68,1.200000000000e+00,3.997878679656e+01,1.500000000000e+00
69,0.000000000000e+00,4.996400000000e+01,0.000000000000e+00
70,0.000000000000e+00,5.003600000000e+01,2.000000000000e+00
71,-1.200000000000e+00,5.003000000000e+01,1.000000000000e+00
72,1.200000000000e+00,4.997000000000e+01,1.000000000000e+00
73,-1.200000000000e+00,2.521213203436e+00,3.939339828220e-01
74,-1.200000000000e+00,5.030000000000e+00,8.500000000000e-01
75,-1.200000000000e+00,7.521213203436e+00,1.393933982822e+00
76,-1.200000000000e+00,2.521213203436e+00,1.606066017178e+00
77,-1.200000000000e+00,5.030000000000e+00,1.150000000000e+00
78,-1.200000000000e+00,7.521213203436e+00,6.060660171780e-01
79,1.200000000000e+00,2.521213203436e+00,3.939339828220e-01
80,1.200000000000e+00,5.030000000000e+00,8.500000000000e-01
81,1.200000000000e+00,7.521213203436e+00,1.393933982822e+00
82,1.200000000000e+00,2.521213203436e+00,1.606066017178e+00
83,1.200000000000e+00,5.030000000000e+00,1.150000000000e+00
84,1.200000000000e+00,7.521213203436e+00,6.060660171780e-01
85,-4.939339828220e-01,2.474544155877e+00,0.000000000000e+00
86,1.500000000000e-01,4.964000000000e+00,0.000000000000e+00
87,7.060660171780e-01,7.474544155877e+00,0.000000000000e+00
88,4.939339828220e-01,2.474544155877e+00,0.000000000000e+00
89,-1.500000000000e-01,4.964000000000e+00,0.000000000000e+00
90,-7.060660171780e-01,7.474544155877e+00,0.000000000000e+00
91,-4.939339828220e-01,2.474544155877e+00,2.000000000000e+00
92,1.500000000000e-01,4.964000000000e+00,2.000000000000e+00
93,7.060660171780e-01,7.474544155877e+00,2.000000000000e+00
94,4.939339828220e-01,2.474544155877e+00,2.000000000000e+00
95,-1.500000000000e-01,4.964000000000e+00,2.000000000000e+00
96,-7.060660171780e-01,7.474544155877e+00,2.000000000000e+00
97,-1.200000000000e+00,1.252121320344e+01,3.939339828220e-01
98,-1.200000000000e+00,1.503000000000e+01,8.500000000000e-01
99,-1.200000000000e+00,1.752121320344e+01,1.393933982822e+00
100,-1.200000000000e+00,1.252121320344e+01,1.606066017178e+00
101,-1.200000000000e+00,1.503000000000e+01,1.150000000000e+00
102,-1.200000000000e+00,1.752121320344e+01,6.060660171780e-01
103,1.200000000000e+00,1.252121320344e+01,3.939339828220e-01
104,1.200000000000e+00,1.503000000000e+01,8.500000000000e-01
105,1.200000000000e+00,1.752121320344e+01,1.393933982822e+00
106,1.200000000000e+00,1.252121320344e+01,1.606066017178e+00
107,1.200000000000e+00,1.503000000000e+01,1.150000000000e+00
108,1.200000000000e+00,1.752121320344e+01,6.060660171780e-01
109,-4.939339828220e-01,1.247454415588e+01,0.000000000000e+00
110,1.500000000000e-01,1.496400000000e+01,0.000000000000e+00
111,7.060660171780e-01,1.747454415588e+01,0.000000000000e+00
112,4.939339828220e-01,1.247454415588e+01,0.000000000000e+00
113,-1.500000000000e-01,1.496400000000e+01,0.000000000000e+00
114,-7.060660171780e-01,1.747454415588e+01,0.000000000000e+00
115,-4.939339828220e-01,1.247454415588e+01,2.000000000000e+00
116,1.500000000000e-01,1.496400000000e+01,2.000000000000e+00
117,7.060660171780e-01,1.747454415588e+01,2.000000000000e+00
118,4.939339828220e-01,1.247454415588e+01,2.000000000000e+00
119,-1.500000000000e-01,1.496400000000e+01,2.000000000000e+00
120,-7.060660171780e-01,1.747454415588e+01,2.000000000000e+00
121,-1.200000000000e+00,3.503000000000e+01,8.500000000000e-01
122,-1.200000000000e+00,3.503000000000e+01,1.150000000000e+00
123,1.200000000000e+00,3.503000000000e+01,8.500000000000e-01
124,1.200000000000e+00,3.503000000000e+01,1.150000000000e+00
125,1.500000000000e-01,3.496400000000e+01,0.000000000000e+00
126,-1.500000000000e-01,3.496400000000e+01,0.000000000000e+00
127,1.500000000000e-01,3.496400000000e+01,2.000000000000e+00
128,-1.500000000000e-01,3.496400000000e+01,2.000000000000e+00
129,-1.200000000000e+00,4.252121320344e+01,3.939339828220e-01
130,-1.200000000000e+00,4.503000000000e+01,8.500000000000e-01
131,-1.200000000000e+00,4.752121320344e+01,1.393933982822e+00
132,-1.200000000000e+00,4.252121320344e+01,1.606066017178e+00
133,-1.200000000000e+00,4.503000000000e+01,1.150000000000e+00
134,-1.200000000000e+00,4.752121320344e+01,6.060660171780e-01
135,1.200000000000e+00,4.252121320344e+01,3.939339828220e-01
136,1.200000000000e+00,4.503000000000e+01,8.500000000000e-01
137,1.200000000000e+00,4.752121320344e+01,1.393933982822e+00
138,1.200000000000e+00,4.252121320344e+01,1.606066017178e+00
139,1.200000000000e+00,4.503000000000e+01,1.150000000000e+00
140,1.200000000000e+00,4.752121320344e+01,6.060660171780e-01
141,-4.939339828220e-01,4.247454415588e+01,0.000000000000e+00
142,1.500000000000e-01,4.496400000000e+01,0.000000000000e+00
143,7.060660171780e-01,4.747454415588e+01,0.000000000000e+00
144,4.939339828220e-01,4.247454415588e+01,0.000000000000e+00
145,-1.500000000000e-01,4.496400000000e+01,0.000000000000e+00
146,-7.060660171780e-01,4.747454415588e+01,0.000000000000e+00
147,-4.939339828220e-01,4.247454415588e+01,2.000000000000e+00
148,1.500000000000e-01,4.496400000000e+01,2.000000000000e+00
149,7.060660171780e-01,4.747454415588e+01,2.000000000000e+00
150,4.939339828220e-01,4.247454415588e+01,2.000000000000e+00
151,-1.500000000000e-01,4.496400000000e+01,2.000000000000e+00
152,-7.060660171780e-01,4.747454415588e+01,2.000000000000e+00
*ELEMENT,TYPE=B31,ELSET=ALL
1,1,5
2,2,6
3,3,7
4,4,8
5,5,25
6,25,9
7,6,26
8,26,10
9,7,27
10,27,11
11,8,28
12,28,12
13,9,13
14,10,14
15,11,15
16,12,16
17,13,17
18,14,18
19,15,19
20,16,20
21,17,29
22,29,30
23,30,31
24,31,21
25,18,32
26,32,33
27,33,34
28,34,22
29,19,35
30,35,36
31,36,37
32,37,23
33,20,38
34,38,39
35,39,40
36,40,24
37,1,41
38,41,2
39,3,42
40,42,4
41,1,43
42,43,3
43,2,44
44,44,4
45,5,6
46,7,8
47,5,7
48,6,8
49,9,10
50,11,12
51,9,11
52,10,12
53,13,45
54,45,46
55,46,47
56,47,14
57,15,48
58,48,49
59,49,50
60,50,16
61,13,51
62,51,52
63,52,53
64,53,15
65,14,54
66,54,55
67,55,56
68,56,16
69,17,57
70,57,58
71,58,59
72,59,18
73,19,60
74,60,61
75,61,62
76,62,20
77,17,63
78,63,64
79,64,65
80,65,19
81,18,66
82,66,67
83,67,68
84,68,20
85,21,69
86,69,22
87,23,70
88,70,24
89,21,71
90,71,23
91,22,72
92,72,24
93,1,73
94,73,74
95,74,75
96,75,7
97,3,76
98,76,77
99,77,78
100,78,5
101,2,79
102,79,80
103,80,81
104,81,8
105,4,82
106,82,83
107,83,84
108,84,6
109,1,85
110,85,86
111,86,87
112,87,6
113,2,88
114,88,89
115,89,90
116,90,5
117,3,91
118,91,92
119,92,93
120,93,8
121,4,94
122,94,95
123,95,96
124,96,7
125,5,97
126,97,98
127,98,99
128,99,11
129,7,100
130,100,101
131,101,102
132,102,9
133,6,103
134,103,104
135,104,105
136,105,12
137,8,106
138,106,107
139,107,108
140,108,10
141,5,109
142,109,110
143,110,111
144,111,10
145,6,112
146,112,113
147,113,114
148,114,9
149,7,115
150,115,116
151,116,117
152,117,12
153,8,118
154,118,119
155,119,120
156,120,11
157,9,15
158,11,13
159,10,16
160,12,14
161,9,14
162,10,13
163,11,16
164,12,15
165,13,121
166,121,19
167,15,122
168,122,17
169,14,123
170,123,20
171,16,124
172,124,18
173,13,125
174,125,18
175,14,126
176,126,17
177,15,127
178,127,20
179,16,128
180,128,19
181,17,129
182,129,130
183,130,131
184,131,23
185,19,132
186,132,133
187,133,134
188,134,21
189,18,135
190,135,136
191,136,137
192,137,24
193,20,138
194,138,139
195,139,140
196,140,22
197,17,141
198,141,142
199,142,143
200,143,22
201,18,144
202,144,145
203,145,146
204,146,21
205,19,147
206,147,148
207,148,149
208,149,24
209,20,150
210,150,151
211,151,152
212,152,23
*NSET,NSET=NALL,GENERATE
1,152,1
*NSET,NSET=LEFT
1,2,3,4
*NSET,NSET=RIGHT
21,22,23,24
*MATERIAL,NAME=STEEL
*ELASTIC
2.100000000000e+11,0.300000000000
*BEAM SECTION,ELSET=ALL,MATERIAL=STEEL,SECTION=RECT
6.000000000000e-02,4.000000000000e-02
0.371390676354,0.557086014531,0.742781352708
*BOUNDARY
LEFT,1,6,0.0
*STEP
*STATIC
*BOUNDARY
21,1,1,5.000000000000e-03
21,2,2,0.0
21,3,3,-6.000000000000e-03
*BOUNDARY
22,1,1,5.000000000000e-03
22,2,2,0.0
22,3,3,6.000000000000e-03
*BOUNDARY
23,1,1,-5.000000000000e-03
23,2,2,0.0
23,3,3,-6.000000000000e-03
*BOUNDARY
24,1,1,-5.000000000000e-03
24,2,2,0.0
24,3,3,6.000000000000e-03
*NODE FILE,NSET=NALL
U
*NODE PRINT,NSET=NALL
U
*NODE PRINT,NSET=RIGHT
RF
*EL PRINT,ELSET=ALL,TOTALS=YES
ELSE
*END STEP
