*HEADING
Normalized cross-passage space-truss torsion benchmark
*NODE
1,-1.200000000000e+00,0.000000000000e+00,0.000000000000e+00
2,1.200000000000e+00,0.000000000000e+00,0.000000000000e+00
3,-1.200000000000e+00,0.000000000000e+00,2.000000000000e+00
4,1.200000000000e+00,0.000000000000e+00,2.000000000000e+00
5,-1.200000000000e+00,1.000000000000e+01,0.000000000000e+00
6,1.200000000000e+00,1.000000000000e+01,0.000000000000e+00
7,-1.200000000000e+00,1.000000000000e+01,2.000000000000e+00
8,1.200000000000e+00,1.000000000000e+01,2.000000000000e+00
9,-1.200000000000e+00,2.000000000000e+01,0.000000000000e+00
10,1.200000000000e+00,2.000000000000e+01,0.000000000000e+00
11,-1.200000000000e+00,2.000000000000e+01,2.000000000000e+00
12,1.200000000000e+00,2.000000000000e+01,2.000000000000e+00
13,-1.200000000000e+00,3.000000000000e+01,0.000000000000e+00
14,1.200000000000e+00,3.000000000000e+01,0.000000000000e+00
15,-1.200000000000e+00,3.000000000000e+01,2.000000000000e+00
16,1.200000000000e+00,3.000000000000e+01,2.000000000000e+00
17,-1.200000000000e+00,4.000000000000e+01,0.000000000000e+00
18,1.200000000000e+00,4.000000000000e+01,0.000000000000e+00
19,-1.200000000000e+00,4.000000000000e+01,2.000000000000e+00
20,1.200000000000e+00,4.000000000000e+01,2.000000000000e+00
21,-1.200000000000e+00,5.000000000000e+01,0.000000000000e+00
22,1.200000000000e+00,5.000000000000e+01,0.000000000000e+00
23,-1.200000000000e+00,5.000000000000e+01,2.000000000000e+00
24,1.200000000000e+00,5.000000000000e+01,2.000000000000e+00
25,-1.200000000000e+00,1.250000000000e+00,-5.740251485476e-02
26,-1.200000000000e+00,2.500000000000e+00,-1.060660171780e-01
27,-1.200000000000e+00,3.750000000000e+00,-1.385819298767e-01
28,-1.200000000000e+00,5.000000000000e+00,-1.500000000000e-01
29,-1.200000000000e+00,6.250000000000e+00,-1.385819298767e-01
30,-1.200000000000e+00,7.500000000000e+00,-1.060660171780e-01
31,-1.200000000000e+00,8.750000000000e+00,-5.740251485476e-02
32,1.200000000000e+00,1.250000000000e+00,5.740251485476e-02
33,1.200000000000e+00,2.500000000000e+00,1.060660171780e-01
34,1.200000000000e+00,3.750000000000e+00,1.385819298767e-01
35,1.200000000000e+00,5.000000000000e+00,1.500000000000e-01
36,1.200000000000e+00,6.250000000000e+00,1.385819298767e-01
37,1.200000000000e+00,7.500000000000e+00,1.060660171780e-01
38,1.200000000000e+00,8.750000000000e+00,5.740251485476e-02
39,-1.200000000000e+00,1.250000000000e+00,1.942597485145e+00
40,-1.200000000000e+00,2.500000000000e+00,1.893933982822e+00
41,-1.200000000000e+00,3.750000000000e+00,1.861418070123e+00
42,-1.200000000000e+00,5.000000000000e+00,1.850000000000e+00
43,-1.200000000000e+00,6.250000000000e+00,1.861418070123e+00
44,-1.200000000000e+00,7.500000000000e+00,1.893933982822e+00
45,-1.200000000000e+00,8.750000000000e+00,1.942597485145e+00
46,1.200000000000e+00,1.250000000000e+00,2.057402514855e+00
47,1.200000000000e+00,2.500000000000e+00,2.106066017178e+00
48,1.200000000000e+00,3.750000000000e+00,2.138581929877e+00
49,1.200000000000e+00,5.000000000000e+00,2.150000000000e+00
50,1.200000000000e+00,6.250000000000e+00,2.138581929877e+00
51,1.200000000000e+00,7.500000000000e+00,2.106066017178e+00
52,1.200000000000e+00,8.750000000000e+00,2.057402514855e+00
53,-1.200000000000e+00,1.125000000000e+01,-5.740251485476e-02
54,-1.200000000000e+00,1.250000000000e+01,-1.060660171780e-01
55,-1.200000000000e+00,1.375000000000e+01,-1.385819298767e-01
56,-1.200000000000e+00,1.500000000000e+01,-1.500000000000e-01
57,-1.200000000000e+00,1.625000000000e+01,-1.385819298767e-01
58,-1.200000000000e+00,1.750000000000e+01,-1.060660171780e-01
59,-1.200000000000e+00,1.875000000000e+01,-5.740251485476e-02
60,1.200000000000e+00,1.125000000000e+01,5.740251485476e-02
61,1.200000000000e+00,1.250000000000e+01,1.060660171780e-01
62,1.200000000000e+00,1.375000000000e+01,1.385819298767e-01
63,1.200000000000e+00,1.500000000000e+01,1.500000000000e-01
64,1.200000000000e+00,1.625000000000e+01,1.385819298767e-01
65,1.200000000000e+00,1.750000000000e+01,1.060660171780e-01
66,1.200000000000e+00,1.875000000000e+01,5.740251485476e-02
67,-1.200000000000e+00,1.125000000000e+01,1.942597485145e+00
68,-1.200000000000e+00,1.250000000000e+01,1.893933982822e+00
69,-1.200000000000e+00,1.375000000000e+01,1.861418070123e+00
70,-1.200000000000e+00,1.500000000000e+01,1.850000000000e+00
71,-1.200000000000e+00,1.625000000000e+01,1.861418070123e+00
72,-1.200000000000e+00,1.750000000000e+01,1.893933982822e+00
73,-1.200000000000e+00,1.875000000000e+01,1.942597485145e+00
74,1.200000000000e+00,1.125000000000e+01,2.057402514855e+00
75,1.200000000000e+00,1.250000000000e+01,2.106066017178e+00
76,1.200000000000e+00,1.375000000000e+01,2.138581929877e+00
77,1.200000000000e+00,1.500000000000e+01,2.150000000000e+00
78,1.200000000000e+00,1.625000000000e+01,2.138581929877e+00
79,1.200000000000e+00,1.750000000000e+01,2.106066017178e+00
80,1.200000000000e+00,1.875000000000e+01,2.057402514855e+00
81,-1.200000000000e+00,2.500000000000e+01,-1.500000000000e-01
82,1.200000000000e+00,2.500000000000e+01,1.500000000000e-01
83,-1.200000000000e+00,2.500000000000e+01,1.850000000000e+00
84,1.200000000000e+00,2.500000000000e+01,2.150000000000e+00
85,-1.200000000000e+00,3.500000000000e+01,-1.500000000000e-01
86,1.200000000000e+00,3.500000000000e+01,1.500000000000e-01
87,-1.200000000000e+00,3.500000000000e+01,1.850000000000e+00
88,1.200000000000e+00,3.500000000000e+01,2.150000000000e+00
89,-1.200000000000e+00,4.500000000000e+01,-1.500000000000e-01
90,1.200000000000e+00,4.500000000000e+01,1.500000000000e-01
91,-1.200000000000e+00,4.500000000000e+01,1.850000000000e+00
92,1.200000000000e+00,4.500000000000e+01,2.150000000000e+00
93,0.000000000000e+00,-3.600000000000e-02,0.000000000000e+00
94,0.000000000000e+00,3.600000000000e-02,2.000000000000e+00
95,-1.200000000000e+00,3.000000000000e-02,1.000000000000e+00
96,1.200000000000e+00,-3.000000000000e-02,1.000000000000e+00
97,0.000000000000e+00,9.964000000000e+00,0.000000000000e+00
98,0.000000000000e+00,1.003600000000e+01,2.000000000000e+00
99,-1.200000000000e+00,1.003000000000e+01,1.000000000000e+00
100,1.200000000000e+00,9.970000000000e+00,1.000000000000e+00
101,0.000000000000e+00,1.996400000000e+01,0.000000000000e+00
102,0.000000000000e+00,2.003600000000e+01,2.000000000000e+00
103,-1.200000000000e+00,2.003000000000e+01,1.000000000000e+00
104,1.200000000000e+00,1.997000000000e+01,1.000000000000e+00
105,0.000000000000e+00,2.996400000000e+01,0.000000000000e+00
106,0.000000000000e+00,3.003600000000e+01,2.000000000000e+00
107,-1.200000000000e+00,3.003000000000e+01,1.000000000000e+00
108,1.200000000000e+00,2.997000000000e+01,1.000000000000e+00
109,0.000000000000e+00,3.996400000000e+01,0.000000000000e+00
110,0.000000000000e+00,4.003600000000e+01,2.000000000000e+00
111,-1.200000000000e+00,4.003000000000e+01,1.000000000000e+00
112,1.200000000000e+00,3.997000000000e+01,1.000000000000e+00
113,0.000000000000e+00,4.996400000000e+01,0.000000000000e+00
114,0.000000000000e+00,5.003600000000e+01,2.000000000000e+00
115,-1.200000000000e+00,5.003000000000e+01,1.000000000000e+00
116,1.200000000000e+00,4.997000000000e+01,1.000000000000e+00
117,-1.200000000000e+00,2.521213203436e+00,3.939339828220e-01
118,-1.200000000000e+00,5.030000000000e+00,8.500000000000e-01
119,-1.200000000000e+00,7.521213203436e+00,1.393933982822e+00
120,-1.200000000000e+00,2.521213203436e+00,1.606066017178e+00
121,-1.200000000000e+00,5.030000000000e+00,1.150000000000e+00
122,-1.200000000000e+00,7.521213203436e+00,6.060660171780e-01
123,1.200000000000e+00,2.521213203436e+00,3.939339828220e-01
124,1.200000000000e+00,5.030000000000e+00,8.500000000000e-01
125,1.200000000000e+00,7.521213203436e+00,1.393933982822e+00
126,1.200000000000e+00,2.521213203436e+00,1.606066017178e+00
127,1.200000000000e+00,5.030000000000e+00,1.150000000000e+00
128,1.200000000000e+00,7.521213203436e+00,6.060660171780e-01
129,-4.939339828220e-01,2.474544155877e+00,0.000000000000e+00
130,1.500000000000e-01,4.964000000000e+00,0.000000000000e+00
131,7.060660171780e-01,7.474544155877e+00,0.000000000000e+00
132,4.939339828220e-01,2.474544155877e+00,0.000000000000e+00
133,-1.500000000000e-01,4.964000000000e+00,0.000000000000e+00
134,-7.060660171780e-01,7.474544155877e+00,0.000000000000e+00
135,-4.939339828220e-01,2.474544155877e+00,2.000000000000e+00
136,1.500000000000e-01,4.964000000000e+00,2.000000000000e+00
137,7.060660171780e-01,7.474544155877e+00,2.000000000000e+00
138,4.939339828220e-01,2.474544155877e+00,2.000000000000e+00
139,-1.500000000000e-01,4.964000000000e+00,2.000000000000e+00
140,-7.060660171780e-01,7.474544155877e+00,2.000000000000e+00
141,-1.200000000000e+00,1.126148050297e+01,1.925974851452e-01
142,-1.200000000000e+00,1.252121320344e+01,3.939339828220e-01
143,-1.200000000000e+00,1.377771638598e+01,6.114180701233e-01
144,-1.200000000000e+00,1.503000000000e+01,8.500000000000e-01
145,-1.200000000000e+00,1.627771638598e+01,1.111418070123e+00
146,-1.200000000000e+00,1.752121320344e+01,1.393933982822e+00
147,-1.200000000000e+00,1.876148050297e+01,1.692597485145e+00
148,-1.200000000000e+00,1.126148050297e+01,1.807402514855e+00
149,-1.200000000000e+00,1.252121320344e+01,1.606066017178e+00
150,-1.200000000000e+00,1.377771638598e+01,1.388581929877e+00
151,-1.200000000000e+00,1.503000000000e+01,1.150000000000e+00
152,-1.200000000000e+00,1.627771638598e+01,8.885819298767e-01
153,-1.200000000000e+00,1.752121320344e+01,6.060660171780e-01
154,-1.200000000000e+00,1.876148050297e+01,3.074025148548e-01
155,1.200000000000e+00,1.126148050297e+01,1.925974851452e-01
156,1.200000000000e+00,1.252121320344e+01,3.939339828220e-01
157,1.200000000000e+00,1.377771638598e+01,6.114180701233e-01
158,1.200000000000e+00,1.503000000000e+01,8.500000000000e-01
159,1.200000000000e+00,1.627771638598e+01,1.111418070123e+00
160,1.200000000000e+00,1.752121320344e+01,1.393933982822e+00
161,1.200000000000e+00,1.876148050297e+01,1.692597485145e+00
162,1.200000000000e+00,1.126148050297e+01,1.807402514855e+00
163,1.200000000000e+00,1.252121320344e+01,1.606066017178e+00
164,1.200000000000e+00,1.377771638598e+01,1.388581929877e+00
165,1.200000000000e+00,1.503000000000e+01,1.150000000000e+00
166,1.200000000000e+00,1.627771638598e+01,8.885819298767e-01
167,1.200000000000e+00,1.752121320344e+01,6.060660171780e-01
168,1.200000000000e+00,1.876148050297e+01,3.074025148548e-01
169,-8.425974851452e-01,1.123622339643e+01,0.000000000000e+00
170,-4.939339828220e-01,1.247454415588e+01,0.000000000000e+00
171,-1.614180701233e-01,1.371674033683e+01,0.000000000000e+00
172,1.500000000000e-01,1.496400000000e+01,0.000000000000e+00
173,4.385819298767e-01,1.621674033683e+01,0.000000000000e+00
174,7.060660171780e-01,1.747454415588e+01,0.000000000000e+00
175,9.574025148548e-01,1.873622339643e+01,0.000000000000e+00
176,8.425974851452e-01,1.123622339643e+01,0.000000000000e+00
177,4.939339828220e-01,1.247454415588e+01,0.000000000000e+00
178,1.614180701233e-01,1.371674033683e+01,0.000000000000e+00
179,-1.500000000000e-01,1.496400000000e+01,0.000000000000e+00
180,-4.385819298767e-01,1.621674033683e+01,0.000000000000e+00
181,-7.060660171780e-01,1.747454415588e+01,0.000000000000e+00
182,-9.574025148548e-01,1.873622339643e+01,0.000000000000e+00
183,-8.425974851452e-01,1.123622339643e+01,2.000000000000e+00
184,-4.939339828220e-01,1.247454415588e+01,2.000000000000e+00
185,-1.614180701233e-01,1.371674033683e+01,2.000000000000e+00
186,1.500000000000e-01,1.496400000000e+01,2.000000000000e+00
187,4.385819298767e-01,1.621674033683e+01,2.000000000000e+00
188,7.060660171780e-01,1.747454415588e+01,2.000000000000e+00
189,9.574025148548e-01,1.873622339643e+01,2.000000000000e+00
190,8.425974851452e-01,1.123622339643e+01,2.000000000000e+00
191,4.939339828220e-01,1.247454415588e+01,2.000000000000e+00
192,1.614180701233e-01,1.371674033683e+01,2.000000000000e+00
193,-1.500000000000e-01,1.496400000000e+01,2.000000000000e+00
194,-4.385819298767e-01,1.621674033683e+01,2.000000000000e+00
195,-7.060660171780e-01,1.747454415588e+01,2.000000000000e+00
196,-9.574025148548e-01,1.873622339643e+01,2.000000000000e+00
197,-1.200000000000e+00,2.503000000000e+01,8.500000000000e-01
198,-1.200000000000e+00,2.503000000000e+01,1.150000000000e+00
199,1.200000000000e+00,2.503000000000e+01,8.500000000000e-01
200,1.200000000000e+00,2.503000000000e+01,1.150000000000e+00
201,1.500000000000e-01,2.496400000000e+01,0.000000000000e+00
202,-1.500000000000e-01,2.496400000000e+01,0.000000000000e+00
203,1.500000000000e-01,2.496400000000e+01,2.000000000000e+00
204,-1.500000000000e-01,2.496400000000e+01,2.000000000000e+00
205,-1.200000000000e+00,3.503000000000e+01,8.500000000000e-01
206,-1.200000000000e+00,3.503000000000e+01,1.150000000000e+00
207,1.200000000000e+00,3.503000000000e+01,8.500000000000e-01
208,1.200000000000e+00,3.503000000000e+01,1.150000000000e+00
209,1.500000000000e-01,3.496400000000e+01,0.000000000000e+00
210,-1.500000000000e-01,3.496400000000e+01,0.000000000000e+00
211,1.500000000000e-01,3.496400000000e+01,2.000000000000e+00
212,-1.500000000000e-01,3.496400000000e+01,2.000000000000e+00
213,-1.200000000000e+00,4.503000000000e+01,8.500000000000e-01
214,-1.200000000000e+00,4.503000000000e+01,1.150000000000e+00
215,1.200000000000e+00,4.503000000000e+01,8.500000000000e-01
216,1.200000000000e+00,4.503000000000e+01,1.150000000000e+00
217,1.500000000000e-01,4.496400000000e+01,0.000000000000e+00
218,-1.500000000000e-01,4.496400000000e+01,0.000000000000e+00
219,1.500000000000e-01,4.496400000000e+01,2.000000000000e+00
220,-1.500000000000e-01,4.496400000000e+01,2.000000000000e+00
*ELEMENT,TYPE=B31,ELSET=ALL
1,1,25
2,25,26
3,26,27
4,27,28
5,28,29
6,29,30
7,30,31
8,31,5
9,2,32
10,32,33
11,33,34
12,34,35
13,35,36
14,36,37
15,37,38
16,38,6
17,3,39
18,39,40
19,40,41
20,41,42
21,42,43
22,43,44
23,44,45
24,45,7
25,4,46
26,46,47
27,47,48
28,48,49
29,49,50
30,50,51
31,51,52
32,52,8
33,5,53
34,53,54
35,54,55
36,55,56
37,56,57
38,57,58
39,58,59
40,59,9
41,6,60
42,60,61
43,61,62
44,62,63
45,63,64
46,64,65
47,65,66
48,66,10
49,7,67
50,67,68
51,68,69
52,69,70
53,70,71
54,71,72
55,72,73
56,73,11
57,8,74
58,74,75
59,75,76
60,76,77
61,77,78
62,78,79
63,79,80
64,80,12
65,9,81
66,81,13
67,10,82
68,82,14
69,11,83
70,83,15
71,12,84
72,84,16
73,13,85
74,85,17
75,14,86
76,86,18
77,15,87
78,87,19
79,16,88
80,88,20
81,17,89
82,89,21
83,18,90
84,90,22
85,19,91
86,91,23
87,20,92
88,92,24
89,1,93
90,93,2
91,3,94
92,94,4
93,1,95
94,95,3
95,2,96
96,96,4
97,5,97
98,97,6
99,7,98
100,98,8
101,5,99
102,99,7
103,6,100
104,100,8
105,9,101
106,101,10
107,11,102
108,102,12
109,9,103
110,103,11
111,10,104
112,104,12
113,13,105
114,105,14
115,15,106
116,106,16
117,13,107
118,107,15
119,14,108
120,108,16
121,17,109
122,109,18
123,19,110
124,110,20
125,17,111
126,111,19
127,18,112
128,112,20
129,21,113
130,113,22
131,23,114
132,114,24
133,21,115
134,115,23
135,22,116
136,116,24
137,1,117
138,117,118
139,118,119
140,119,7
141,3,120
142,120,121
143,121,122
144,122,5
145,2,123
146,123,124
147,124,125
148,125,8
149,4,126
150,126,127
151,127,128
152,128,6
153,1,129
154,129,130
155,130,131
156,131,6
157,2,132
158,132,133
159,133,134
160,134,5
161,3,135
162,135,136
163,136,137
164,137,8
165,4,138
166,138,139
167,139,140
168,140,7
169,5,141
170,141,142
171,142,143
172,143,144
173,144,145
174,145,146
175,146,147
176,147,11
177,7,148
178,148,149
179,149,150
180,150,151
181,151,152
182,152,153
183,153,154
184,154,9
185,6,155
186,155,156
187,156,157
188,157,158
189,158,159
190,159,160
191,160,161
192,161,12
193,8,162
194,162,163
195,163,164
196,164,165
197,165,166
198,166,167
199,167,168
200,168,10
201,5,169
202,169,170
203,170,171
204,171,172
205,172,173
206,173,174
207,174,175
208,175,10
209,6,176
210,176,177
211,177,178
212,178,179
213,179,180
214,180,181
215,181,182
216,182,9
217,7,183
218,183,184
219,184,185
220,185,186
221,186,187
222,187,188
223,188,189
224,189,12
225,8,190
226,190,191
227,191,192
228,192,193
229,193,194
230,194,195
231,195,196
232,196,11
233,9,197
234,197,15
235,11,198
236,198,13
237,10,199
238,199,16
239,12,200
240,200,14
241,9,201
242,201,14
243,10,202
244,202,13
245,11,203
246,203,16
247,12,204
248,204,15
249,13,205
250,205,19
251,15,206
252,206,17
253,14,207
254,207,20
255,16,208
256,208,18
257,13,209
258,209,18
259,14,210
260,210,17
261,15,211
262,211,20
263,16,212
264,212,19
265,17,213
266,213,23
267,19,214
268,214,21
269,18,215
270,215,24
271,20,216
272,216,22
273,17,217
274,217,22
275,18,218
276,218,21
277,19,219
278,219,24
279,20,220
280,220,23
*NSET,NSET=NALL,GENERATE
1,220,1
*NSET,NSET=LEFT
1,2,3,4
*NSET,NSET=RIGHT
21,22,23,24
*MATERIAL,NAME=STEEL
*ELASTIC
2.100000000000e+11,0.300000000000
*BEAM SECTION,ELSET=ALL,MATERIAL=STEEL,SECTION=RECT
6.000000000000e-02,4.000000000000e-02
0.371390676354,0.557086014531,0.742781352708
*BOUNDARY
LEFT,1,6,0.0
*STEP
*STATIC
*BOUNDARY
21,1,1,5.000000000000e-03
21,2,2,0.0
21,3,3,-6.000000000000e-03
*BOUNDARY
22,1,1,5.000000000000e-03
22,2,2,0.0
22,3,3,6.000000000000e-03
*BOUNDARY
23,1,1,-5.000000000000e-03
23,2,2,0.0
23,3,3,-6.000000000000e-03
*BOUNDARY
24,1,1,-5.000000000000e-03
24,2,2,0.0
24,3,3,6.000000000000e-03
*NODE FILE,NSET=NALL
U
*NODE PRINT,NSET=NALL
U
*NODE PRINT,NSET=RIGHT
RF
*EL PRINT,ELSET=ALL,TOTALS=YES
ELSE
*END STEP
