*HEADING
Normalized cross-passage space-truss torsion benchmark
*NODE
1,-1.200000000000e+00,0.000000000000e+00,0.000000000000e+00
2,1.200000000000e+00,0.000000000000e+00,0.000000000000e+00
3,-1.200000000000e+00,0.000000000000e+00,2.000000000000e+00
4,1.200000000000e+00,0.000000000000e+00,2.000000000000e+00
5,-1.200000000000e+00,1.000000000000e+01,0.000000000000e+00
6,1.200000000000e+00,1.000000000000e+01,0.000000000000e+00
7,-1.200000000000e+00,1.000000000000e+01,2.000000000000e+00
8,1.200000000000e+00,1.000000000000e+01,2.000000000000e+00
9,-1.200000000000e+00,2.000000000000e+01,0.000000000000e+00
10,1.200000000000e+00,2.000000000000e+01,0.000000000000e+00
11,-1.200000000000e+00,2.000000000000e+01,2.000000000000e+00
12,1.200000000000e+00,2.000000000000e+01,2.000000000000e+00
13,-1.200000000000e+00,3.000000000000e+01,0.000000000000e+00
14,1.200000000000e+00,3.000000000000e+01,0.000000000000e+00
15,-1.200000000000e+00,3.000000000000e+01,2.000000000000e+00
16,1.200000000000e+00,3.000000000000e+01,2.000000000000e+00
17,-1.200000000000e+00,4.000000000000e+01,0.000000000000e+00
18,1.200000000000e+00,4.000000000000e+01,0.000000000000e+00
19,-1.200000000000e+00,4.000000000000e+01,2.000000000000e+00
20,1.200000000000e+00,4.000000000000e+01,2.000000000000e+00
21,-1.200000000000e+00,5.000000000000e+01,0.000000000000e+00
22,1.200000000000e+00,5.000000000000e+01,0.000000000000e+00
23,-1.200000000000e+00,5.000000000000e+01,2.000000000000e+00
24,1.200000000000e+00,5.000000000000e+01,2.000000000000e+00
25,-1.200000000000e+00,1.125000000000e+01,-5.740251485476e-02
26,-1.200000000000e+00,1.250000000000e+01,-1.060660171780e-01
27,-1.200000000000e+00,1.375000000000e+01,-1.385819298767e-01
28,-1.200000000000e+00,1.500000000000e+01,-1.500000000000e-01
29,-1.200000000000e+00,1.625000000000e+01,-1.385819298767e-01
30,-1.200000000000e+00,1.750000000000e+01,-1.060660171780e-01
31,-1.200000000000e+00,1.875000000000e+01,-5.740251485476e-02
32,1.200000000000e+00,1.125000000000e+01,5.740251485476e-02
33,1.200000000000e+00,1.250000000000e+01,1.060660171780e-01
34,1.200000000000e+00,1.375000000000e+01,1.385819298767e-01
35,1.200000000000e+00,1.500000000000e+01,1.500000000000e-01
36,1.200000000000e+00,1.625000000000e+01,1.385819298767e-01
37,1.200000000000e+00,1.750000000000e+01,1.060660171780e-01
38,1.200000000000e+00,1.875000000000e+01,5.740251485476e-02
39,-1.200000000000e+00,1.125000000000e+01,1.942597485145e+00
40,-1.200000000000e+00,1.250000000000e+01,1.893933982822e+00
41,-1.200000000000e+00,1.375000000000e+01,1.861418070123e+00
42,-1.200000000000e+00,1.500000000000e+01,1.850000000000e+00
43,-1.200000000000e+00,1.625000000000e+01,1.861418070123e+00
44,-1.200000000000e+00,1.750000000000e+01,1.893933982822e+00
45,-1.200000000000e+00,1.875000000000e+01,1.942597485145e+00
46,1.200000000000e+00,1.125000000000e+01,2.057402514855e+00
47,1.200000000000e+00,1.250000000000e+01,2.106066017178e+00
48,1.200000000000e+00,1.375000000000e+01,2.138581929877e+00
49,1.200000000000e+00,1.500000000000e+01,2.150000000000e+00
50,1.200000000000e+00,1.625000000000e+01,2.138581929877e+00
51,1.200000000000e+00,1.750000000000e+01,2.106066017178e+00
52,1.200000000000e+00,1.875000000000e+01,2.057402514855e+00
53,-1.200000000000e+00,2.500000000000e+01,-1.500000000000e-01
54,1.200000000000e+00,2.500000000000e+01,1.500000000000e-01
55,-1.200000000000e+00,2.500000000000e+01,1.850000000000e+00
56,1.200000000000e+00,2.500000000000e+01,2.150000000000e+00
57,-1.200000000000e+00,3.250000000000e+01,-1.060660171780e-01
58,-1.200000000000e+00,3.500000000000e+01,-1.500000000000e-01
59,-1.200000000000e+00,3.750000000000e+01,-1.060660171780e-01
60,1.200000000000e+00,3.250000000000e+01,1.060660171780e-01
61,1.200000000000e+00,3.500000000000e+01,1.500000000000e-01
62,1.200000000000e+00,3.750000000000e+01,1.060660171780e-01
63,-1.200000000000e+00,3.250000000000e+01,1.893933982822e+00
64,-1.200000000000e+00,3.500000000000e+01,1.850000000000e+00
65,-1.200000000000e+00,3.750000000000e+01,1.893933982822e+00
66,1.200000000000e+00,3.250000000000e+01,2.106066017178e+00
67,1.200000000000e+00,3.500000000000e+01,2.150000000000e+00
68,1.200000000000e+00,3.750000000000e+01,2.106066017178e+00
69,0.000000000000e+00,-3.600000000000e-02,0.000000000000e+00
70,0.000000000000e+00,3.600000000000e-02,2.000000000000e+00
71,-1.200000000000e+00,3.000000000000e-02,1.000000000000e+00
72,1.200000000000e+00,-3.000000000000e-02,1.000000000000e+00
73,-6.000000000000e-01,1.997454415588e+01,0.000000000000e+00
74,0.000000000000e+00,1.996400000000e+01,0.000000000000e+00
75,6.000000000000e-01,1.997454415588e+01,0.000000000000e+00
76,-6.000000000000e-01,2.002545584412e+01,2.000000000000e+00
77,0.000000000000e+00,2.003600000000e+01,2.000000000000e+00
78,6.000000000000e-01,2.002545584412e+01,2.000000000000e+00
79,-1.200000000000e+00,2.002121320344e+01,5.000000000000e-01
80,-1.200000000000e+00,2.003000000000e+01,1.000000000000e+00
81,-1.200000000000e+00,2.002121320344e+01,1.500000000000e+00
82,1.200000000000e+00,1.997878679656e+01,5.000000000000e-01
83,1.200000000000e+00,1.997000000000e+01,1.000000000000e+00
84,1.200000000000e+00,1.997878679656e+01,1.500000000000e+00
85,0.000000000000e+00,4.996400000000e+01,0.000000000000e+00
86,0.000000000000e+00,5.003600000000e+01,2.000000000000e+00
87,-1.200000000000e+00,5.003000000000e+01,1.000000000000e+00
88,1.200000000000e+00,4.997000000000e+01,1.000000000000e+00
89,-1.200000000000e+00,1.126148050297e+01,1.925974851452e-01
90,-1.200000000000e+00,1.252121320344e+01,3.939339828220e-01
91,-1.200000000000e+00,1.377771638598e+01,6.114180701233e-01
92,-1.200000000000e+00,1.503000000000e+01,8.500000000000e-01
93,-1.200000000000e+00,1.627771638598e+01,1.111418070123e+00
94,-1.200000000000e+00,1.752121320344e+01,1.393933982822e+00
95,-1.200000000000e+00,1.876148050297e+01,1.692597485145e+00
96,-1.200000000000e+00,1.126148050297e+01,1.807402514855e+00
97,-1.200000000000e+00,1.252121320344e+01,1.606066017178e+00
98,-1.200000000000e+00,1.377771638598e+01,1.388581929877e+00
99,-1.200000000000e+00,1.503000000000e+01,1.150000000000e+00
100,-1.200000000000e+00,1.627771638598e+01,8.885819298767e-01
101,-1.200000000000e+00,1.752121320344e+01,6.060660171780e-01
102,-1.200000000000e+00,1.876148050297e+01,3.074025148548e-01
103,1.200000000000e+00,1.126148050297e+01,1.925974851452e-01
104,1.200000000000e+00,1.252121320344e+01,3.939339828220e-01
105,1.200000000000e+00,1.377771638598e+01,6.114180701233e-01
106,1.200000000000e+00,1.503000000000e+01,8.500000000000e-01
107,1.200000000000e+00,1.627771638598e+01,1.111418070123e+00
108,1.200000000000e+00,1.752121320344e+01,1.393933982822e+00
109,1.200000000000e+00,1.876148050297e+01,1.692597485145e+00
110,1.200000000000e+00,1.126148050297e+01,1.807402514855e+00
111,1.200000000000e+00,1.252121320344e+01,1.606066017178e+00
112,1.200000000000e+00,1.377771638598e+01,1.388581929877e+00
113,1.200000000000e+00,1.503000000000e+01,1.150000000000e+00
114,1.200000000000e+00,1.627771638598e+01,8.885819298767e-01
115,1.200000000000e+00,1.752121320344e+01,6.060660171780e-01
116,1.200000000000e+00,1.876148050297e+01,3.074025148548e-01
117,-8.425974851452e-01,1.123622339643e+01,0.000000000000e+00
118,-4.939339828220e-01,1.247454415588e+01,0.000000000000e+00
119,-1.614180701233e-01,1.371674033683e+01,0.000000000000e+00
120,1.500000000000e-01,1.496400000000e+01,0.000000000000e+00
121,4.385819298767e-01,1.621674033683e+01,0.000000000000e+00
122,7.060660171780e-01,1.747454415588e+01,0.000000000000e+00
123,9.574025148548e-01,1.873622339643e+01,0.000000000000e+00
124,8.425974851452e-01,1.123622339643e+01,0.000000000000e+00
125,4.939339828220e-01,1.247454415588e+01,0.000000000000e+00
126,1.614180701233e-01,1.371674033683e+01,0.000000000000e+00
127,-1.500000000000e-01,1.496400000000e+01,0.000000000000e+00
128,-4.385819298767e-01,1.621674033683e+01,0.000000000000e+00
129,-7.060660171780e-01,1.747454415588e+01,0.000000000000e+00
130,-9.574025148548e-01,1.873622339643e+01,0.000000000000e+00
131,-8.425974851452e-01,1.123622339643e+01,2.000000000000e+00
132,-4.939339828220e-01,1.247454415588e+01,2.000000000000e+00
133,-1.614180701233e-01,1.371674033683e+01,2.000000000000e+00
134,1.500000000000e-01,1.496400000000e+01,2.000000000000e+00
135,4.385819298767e-01,1.621674033683e+01,2.000000000000e+00
136,7.060660171780e-01,1.747454415588e+01,2.000000000000e+00
137,9.574025148548e-01,1.873622339643e+01,2.000000000000e+00
138,8.425974851452e-01,1.123622339643e+01,2.000000000000e+00
139,4.939339828220e-01,1.247454415588e+01,2.000000000000e+00
140,1.614180701233e-01,1.371674033683e+01,2.000000000000e+00
141,-1.500000000000e-01,1.496400000000e+01,2.000000000000e+00
142,-4.385819298767e-01,1.621674033683e+01,2.000000000000e+00
143,-7.060660171780e-01,1.747454415588e+01,2.000000000000e+00
144,-9.574025148548e-01,1.873622339643e+01,2.000000000000e+00
145,-1.200000000000e+00,3.503000000000e+01,8.500000000000e-01
146,-1.200000000000e+00,3.503000000000e+01,1.150000000000e+00
147,1.200000000000e+00,3.503000000000e+01,8.500000000000e-01
148,1.200000000000e+00,3.503000000000e+01,1.150000000000e+00
149,1.500000000000e-01,3.496400000000e+01,0.000000000000e+00
150,-1.500000000000e-01,3.496400000000e+01,0.000000000000e+00
151,1.500000000000e-01,3.496400000000e+01,2.000000000000e+00
152,-1.500000000000e-01,3.496400000000e+01,2.000000000000e+00
153,-1.200000000000e+00,4.503000000000e+01,8.500000000000e-01
154,-1.200000000000e+00,4.503000000000e+01,1.150000000000e+00
155,1.200000000000e+00,4.503000000000e+01,8.500000000000e-01
156,1.200000000000e+00,4.503000000000e+01,1.150000000000e+00
157,1.500000000000e-01,4.496400000000e+01,0.000000000000e+00
158,-1.500000000000e-01,4.496400000000e+01,0.000000000000e+00
159,1.500000000000e-01,4.496400000000e+01,2.000000000000e+00
160,-1.500000000000e-01,4.496400000000e+01,2.000000000000e+00
*ELEMENT,TYPE=B31,ELSET=ALL
1,1,5
2,2,6
3,3,7
4,4,8
5,5,25
6,25,26
7,26,27
8,27,28
9,28,29
10,29,30
11,30,31
12,31,9
13,6,32
14,32,33
15,33,34
16,34,35
17,35,36
18,36,37
19,37,38
20,38,10
21,7,39
22,39,40
23,40,41
24,41,42
25,42,43
26,43,44
27,44,45
28,45,11
29,8,46
30,46,47
31,47,48
32,48,49
33,49,50
34,50,51
35,51,52
36,52,12
37,9,53
38,53,13
39,10,54
40,54,14
41,11,55
42,55,15
43,12,56
44,56,16
45,13,57
46,57,58
47,58,59
48,59,17
49,14,60
50,60,61
51,61,62
52,62,18
53,15,63
54,63,64
55,64,65
56,65,19
57,16,66
58,66,67
59,67,68
60,68,20
61,17,21
62,18,22
63,19,23
64,20,24
65,1,69
66,69,2
67,3,70
68,70,4
69,1,71
70,71,3
71,2,72
72,72,4
73,5,6
74,7,8
75,5,7
76,6,8
77,9,73
78,73,74
79,74,75
80,75,10
81,11,76
82,76,77
83,77,78
84,78,12
85,9,79
86,79,80
87,80,81
88,81,11
89,10,82
90,82,83
91,83,84
92,84,12
93,13,14
94,15,16
95,13,15
96,14,16
97,17,18
98,19,20
99,17,19
100,18,20
101,21,85
102,85,22
103,23,86
104,86,24
105,21,87
106,87,23
107,22,88
108,88,24
109,1,7
110,3,5
111,2,8
112,4,6
113,1,6
114,2,5
115,3,8
116,4,7
117,5,89
118,89,90
119,90,91
120,91,92
121,92,93
122,93,94
123,94,95
124,95,11
125,7,96
126,96,97
127,97,98
128,98,99
129,99,100
130,100,101
131,101,102
132,102,9
133,6,103
134,103,104
135,104,105
136,105,106
137,106,107
138,107,108
139,108,109
140,109,12
141,8,110
142,110,111
143,111,112
144,112,113
145,113,114
146,114,115
147,115,116
148,116,10
149,5,117
150,117,118
151,118,119
152,119,120
153,120,121
154,121,122
155,122,123
156,123,10
157,6,124
158,124,125
159,125,126
160,126,127
161,127,128
162,128,129
163,129,130
164,130,9
165,7,131
166,131,132
167,132,133
168,133,134
169,134,135
170,135,136
171,136,137
172,137,12
173,8,138
174,138,139
175,139,140
176,140,141
177,141,142
178,142,143
179,143,144
180,144,11
181,9,15
182,11,13
183,10,16
184,12,14
185,9,14
186,10,13
187,11,16
188,12,15
189,13,145
190,145,19
191,15,146
192,146,17
193,14,147
194,147,20
195,16,148
196,148,18
197,13,149
198,149,18
199,14,150
200,150,17
201,15,151
202,151,20
203,16,152
204,152,19
205,17,153
206,153,23
207,19,154
208,154,21
209,18,155
210,155,24
211,20,156
212,156,22
213,17,157
214,157,22
215,18,158
216,158,21
217,19,159
218,159,24
219,20,160
220,160,23
*NSET,NSET=NALL,GENERATE
1,160,1
*NSET,NSET=LEFT
1,2,3,4
*NSET,NSET=RIGHT
21,22,23,24
*MATERIAL,NAME=STEEL
*ELASTIC
2.100000000000e+11,0.300000000000
*BEAM SECTION,ELSET=ALL,MATERIAL=STEEL,SECTION=RECT
6.000000000000e-02,4.000000000000e-02
0.371390676354,0.557086014531,0.742781352708
*BOUNDARY
LEFT,1,6,0.0
*STEP
*STATIC
*BOUNDARY
21,1,1,5.000000000000e-03
21,2,2,0.0
21,3,3,-6.000000000000e-03
*BOUNDARY
22,1,1,5.000000000000e-03
22,2,2,0.0
22,3,3,6.000000000000e-03
*BOUNDARY
23,1,1,-5.000000000000e-03
23,2,2,0.0
23,3,3,-6.000000000000e-03
*BOUNDARY
24,1,1,-5.000000000000e-03
24,2,2,0.0
24,3,3,6.000000000000e-03
*NODE FILE,NSET=NALL
U
*NODE PRINT,NSET=NALL
U
*NODE PRINT,NSET=RIGHT
RF
*EL PRINT,ELSET=ALL,TOTALS=YES
ELSE
*END STEP
