*HEADING
T02 S-LIN t02_slin_nx24 conforming C3D8 frozen T
units: mm, N, s, MPa, t. Illustrative steel, not a coupon card.
beam=T02 case=S-LIN job=t02_slin_nx24 type=C3D8
E=210000.0 nu=0.3 fy=235.0 load=-5000.0 N on TIP_TOP
*NODE, NSET=NALL
1, 0, -10, 0
2, 83.3333333333, -10, 13.0555555556
3, 83.3333333333, 0, 13.0555555556
4, 0, 0, 0
5, 0, -10, 48
6, 83.3333333333, -10, 58.4444444444
7, 83.3333333333, 0, 58.4444444444
8, 0, 0, 48
9, 0, -10, 96
10, 83.3333333333, -10, 103.833333333
11, 83.3333333333, 0, 103.833333333
12, 0, 0, 96
13, 0, -10, 144
14, 83.3333333333, -10, 149.222222222
15, 83.3333333333, 0, 149.222222222
16, 0, 0, 144
17, 0, -10, 192
18, 83.3333333333, -10, 194.611111111
19, 83.3333333333, 0, 194.611111111
20, 0, 0, 192
21, 0, -10, 240
22, 83.3333333333, -10, 240
23, 83.3333333333, 0, 240
24, 0, 0, 240
25, 83.3333333333, 10, 13.0555555556
26, 0, 10, 0
27, 83.3333333333, 10, 58.4444444444
28, 0, 10, 48
29, 83.3333333333, 10, 103.833333333
30, 0, 10, 96
31, 83.3333333333, 10, 149.222222222
32, 0, 10, 144
33, 83.3333333333, 10, 194.611111111
34, 0, 10, 192
35, 83.3333333333, 10, 240
36, 0, 10, 240
37, 0, -120, 240
38, 83.3333333333, -120, 240
39, 83.3333333333, -92.5, 240
40, 0, -92.5, 240
41, 0, -120, 250
42, 83.3333333333, -120, 250
43, 83.3333333333, -92.5, 250
44, 0, -92.5, 250
45, 0, -120, 260
46, 83.3333333333, -120, 260
47, 83.3333333333, -92.5, 260
48, 0, -92.5, 260
49, 83.3333333333, -65, 240
50, 0, -65, 240
51, 83.3333333333, -65, 250
52, 0, -65, 250
53, 83.3333333333, -65, 260
54, 0, -65, 260
55, 83.3333333333, -37.5, 240
56, 0, -37.5, 240
57, 83.3333333333, -37.5, 250
58, 0, -37.5, 250
59, 83.3333333333, -37.5, 260
60, 0, -37.5, 260
61, 83.3333333333, -10, 250
62, 0, -10, 250
63, 83.3333333333, -10, 260
64, 0, -10, 260
65, 83.3333333333, 0, 250
66, 0, 0, 250
67, 83.3333333333, 0, 260
68, 0, 0, 260
69, 83.3333333333, 10, 250
70, 0, 10, 250
71, 83.3333333333, 10, 260
72, 0, 10, 260
73, 83.3333333333, 37.5, 240
74, 0, 37.5, 240
75, 83.3333333333, 37.5, 250
76, 0, 37.5, 250
77, 83.3333333333, 37.5, 260
78, 0, 37.5, 260
79, 83.3333333333, 65, 240
80, 0, 65, 240
81, 83.3333333333, 65, 250
82, 0, 65, 250
83, 83.3333333333, 65, 260
84, 0, 65, 260
85, 83.3333333333, 92.5, 240
86, 0, 92.5, 240
87, 83.3333333333, 92.5, 250
88, 0, 92.5, 250
89, 83.3333333333, 92.5, 260
90, 0, 92.5, 260
91, 83.3333333333, 120, 240
92, 0, 120, 240
93, 83.3333333333, 120, 250
94, 0, 120, 250
95, 83.3333333333, 120, 260
96, 0, 120, 260
97, 166.666666667, -10, 25.5555555556
98, 166.666666667, 0, 25.5555555556
99, 166.666666667, -10, 68.4444444444
100, 166.666666667, 0, 68.4444444444
101, 166.666666667, -10, 111.333333333
102, 166.666666667, 0, 111.333333333
103, 166.666666667, -10, 154.222222222
104, 166.666666667, 0, 154.222222222
105, 166.666666667, -10, 197.111111111
106, 166.666666667, 0, 197.111111111
107, 166.666666667, -10, 240
108, 166.666666667, 0, 240
109, 166.666666667, 10, 25.5555555556
110, 166.666666667, 10, 68.4444444444
111, 166.666666667, 10, 111.333333333
112, 166.666666667, 10, 154.222222222
113, 166.666666667, 10, 197.111111111
114, 166.666666667, 10, 240
115, 166.666666667, -120, 240
116, 166.666666667, -92.5, 240
117, 166.666666667, -120, 250
118, 166.666666667, -92.5, 250
119, 166.666666667, -120, 260
120, 166.666666667, -92.5, 260
121, 166.666666667, -65, 240
122, 166.666666667, -65, 250
123, 166.666666667, -65, 260
124, 166.666666667, -37.5, 240
125, 166.666666667, -37.5, 250
126, 166.666666667, -37.5, 260
127, 166.666666667, -10, 250
128, 166.666666667, -10, 260
129, 166.666666667, 0, 250
130, 166.666666667, 0, 260
131, 166.666666667, 10, 250
132, 166.666666667, 10, 260
133, 166.666666667, 37.5, 240
134, 166.666666667, 37.5, 250
135, 166.666666667, 37.5, 260
136, 166.666666667, 65, 240
137, 166.666666667, 65, 250
138, 166.666666667, 65, 260
139, 166.666666667, 92.5, 240
140, 166.666666667, 92.5, 250
141, 166.666666667, 92.5, 260
142, 166.666666667, 120, 240
143, 166.666666667, 120, 250
144, 166.666666667, 120, 260
145, 250, -10, 37.5
146, 250, 0, 37.5
147, 250, -10, 78
148, 250, 0, 78
149, 250, -10, 118.5
150, 250, 0, 118.5
151, 250, -10, 159
152, 250, 0, 159
153, 250, -10, 199.5
154, 250, 0, 199.5
155, 250, -10, 240
156, 250, 0, 240
157, 250, 10, 37.5
158, 250, 10, 78
159, 250, 10, 118.5
160, 250, 10, 159
161, 250, 10, 199.5
162, 250, 10, 240
163, 250, -120, 240
164, 250, -92.5, 240
165, 250, -120, 250
166, 250, -92.5, 250
167, 250, -120, 260
168, 250, -92.5, 260
169, 250, -65, 240
170, 250, -65, 250
171, 250, -65, 260
172, 250, -37.5, 240
173, 250, -37.5, 250
174, 250, -37.5, 260
175, 250, -10, 250
176, 250, -10, 260
177, 250, 0, 250
178, 250, 0, 260
179, 250, 10, 250
180, 250, 10, 260
181, 250, 37.5, 240
182, 250, 37.5, 250
183, 250, 37.5, 260
184, 250, 65, 240
185, 250, 65, 250
186, 250, 65, 260
187, 250, 92.5, 240
188, 250, 92.5, 250
189, 250, 92.5, 260
190, 250, 120, 240
191, 250, 120, 250
192, 250, 120, 260
193, 333.333333333, -10, 48.8888888889
194, 333.333333333, 0, 48.8888888889
195, 333.333333333, -10, 87.1111111111
196, 333.333333333, 0, 87.1111111111
197, 333.333333333, -10, 125.333333333
198, 333.333333333, 0, 125.333333333
199, 333.333333333, -10, 163.555555556
200, 333.333333333, 0, 163.555555556
201, 333.333333333, -10, 201.777777778
202, 333.333333333, 0, 201.777777778
203, 333.333333333, -10, 240
204, 333.333333333, 0, 240
205, 333.333333333, 10, 48.8888888889
206, 333.333333333, 10, 87.1111111111
207, 333.333333333, 10, 125.333333333
208, 333.333333333, 10, 163.555555556
209, 333.333333333, 10, 201.777777778
210, 333.333333333, 10, 240
211, 333.333333333, -120, 240
212, 333.333333333, -92.5, 240
213, 333.333333333, -120, 250
214, 333.333333333, -92.5, 250
215, 333.333333333, -120, 260
216, 333.333333333, -92.5, 260
217, 333.333333333, -65, 240
218, 333.333333333, -65, 250
219, 333.333333333, -65, 260
220, 333.333333333, -37.5, 240
221, 333.333333333, -37.5, 250
222, 333.333333333, -37.5, 260
223, 333.333333333, -10, 250
224, 333.333333333, -10, 260
225, 333.333333333, 0, 250
226, 333.333333333, 0, 260
227, 333.333333333, 10, 250
228, 333.333333333, 10, 260
229, 333.333333333, 37.5, 240
230, 333.333333333, 37.5, 250
231, 333.333333333, 37.5, 260
232, 333.333333333, 65, 240
233, 333.333333333, 65, 250
234, 333.333333333, 65, 260
235, 333.333333333, 92.5, 240
236, 333.333333333, 92.5, 250
237, 333.333333333, 92.5, 260
238, 333.333333333, 120, 240
239, 333.333333333, 120, 250
240, 333.333333333, 120, 260
241, 416.666666667, -10, 59.7222222222
242, 416.666666667, 0, 59.7222222222
243, 416.666666667, -10, 95.7777777778
244, 416.666666667, 0, 95.7777777778
245, 416.666666667, -10, 131.833333333
246, 416.666666667, 0, 131.833333333
247, 416.666666667, -10, 167.888888889
248, 416.666666667, 0, 167.888888889
249, 416.666666667, -10, 203.944444444
250, 416.666666667, 0, 203.944444444
251, 416.666666667, -10, 240
252, 416.666666667, 0, 240
253, 416.666666667, 10, 59.7222222222
254, 416.666666667, 10, 95.7777777778
255, 416.666666667, 10, 131.833333333
256, 416.666666667, 10, 167.888888889
257, 416.666666667, 10, 203.944444444
258, 416.666666667, 10, 240
259, 416.666666667, -120, 240
260, 416.666666667, -92.5, 240
261, 416.666666667, -120, 250
262, 416.666666667, -92.5, 250
263, 416.666666667, -120, 260
264, 416.666666667, -92.5, 260
265, 416.666666667, -65, 240
266, 416.666666667, -65, 250
267, 416.666666667, -65, 260
268, 416.666666667, -37.5, 240
269, 416.666666667, -37.5, 250
270, 416.666666667, -37.5, 260
271, 416.666666667, -10, 250
272, 416.666666667, -10, 260
273, 416.666666667, 0, 250
274, 416.666666667, 0, 260
275, 416.666666667, 10, 250
276, 416.666666667, 10, 260
277, 416.666666667, 37.5, 240
278, 416.666666667, 37.5, 250
279, 416.666666667, 37.5, 260
280, 416.666666667, 65, 240
281, 416.666666667, 65, 250
282, 416.666666667, 65, 260
283, 416.666666667, 92.5, 240
284, 416.666666667, 92.5, 250
285, 416.666666667, 92.5, 260
286, 416.666666667, 120, 240
287, 416.666666667, 120, 250
288, 416.666666667, 120, 260
289, 500, -10, 70
290, 500, 0, 70
291, 500, -10, 104
292, 500, 0, 104
293, 500, -10, 138
294, 500, 0, 138
295, 500, -10, 172
296, 500, 0, 172
297, 500, -10, 206
298, 500, 0, 206
299, 500, -10, 240
300, 500, 0, 240
301, 500, 10, 70
302, 500, 10, 104
303, 500, 10, 138
304, 500, 10, 172
305, 500, 10, 206
306, 500, 10, 240
307, 500, -120, 240
308, 500, -92.5, 240
309, 500, -120, 250
310, 500, -92.5, 250
311, 500, -120, 260
312, 500, -92.5, 260
313, 500, -65, 240
314, 500, -65, 250
315, 500, -65, 260
316, 500, -37.5, 240
317, 500, -37.5, 250
318, 500, -37.5, 260
319, 500, -10, 250
320, 500, -10, 260
321, 500, 0, 250
322, 500, 0, 260
323, 500, 10, 250
324, 500, 10, 260
325, 500, 37.5, 240
326, 500, 37.5, 250
327, 500, 37.5, 260
328, 500, 65, 240
329, 500, 65, 250
330, 500, 65, 260
331, 500, 92.5, 240
332, 500, 92.5, 250
333, 500, 92.5, 260
334, 500, 120, 240
335, 500, 120, 250
336, 500, 120, 260
337, 583.333333333, -10, 79.7222222222
338, 583.333333333, 0, 79.7222222222
339, 583.333333333, -10, 111.777777778
340, 583.333333333, 0, 111.777777778
341, 583.333333333, -10, 143.833333333
342, 583.333333333, 0, 143.833333333
343, 583.333333333, -10, 175.888888889
344, 583.333333333, 0, 175.888888889
345, 583.333333333, -10, 207.944444444
346, 583.333333333, 0, 207.944444444
347, 583.333333333, -10, 240
348, 583.333333333, 0, 240
349, 583.333333333, 10, 79.7222222222
350, 583.333333333, 10, 111.777777778
351, 583.333333333, 10, 143.833333333
352, 583.333333333, 10, 175.888888889
353, 583.333333333, 10, 207.944444444
354, 583.333333333, 10, 240
355, 583.333333333, -120, 240
356, 583.333333333, -92.5, 240
357, 583.333333333, -120, 250
358, 583.333333333, -92.5, 250
359, 583.333333333, -120, 260
360, 583.333333333, -92.5, 260
361, 583.333333333, -65, 240
362, 583.333333333, -65, 250
363, 583.333333333, -65, 260
364, 583.333333333, -37.5, 240
365, 583.333333333, -37.5, 250
366, 583.333333333, -37.5, 260
367, 583.333333333, -10, 250
368, 583.333333333, -10, 260
369, 583.333333333, 0, 250
370, 583.333333333, 0, 260
371, 583.333333333, 10, 250
372, 583.333333333, 10, 260
373, 583.333333333, 37.5, 240
374, 583.333333333, 37.5, 250
375, 583.333333333, 37.5, 260
376, 583.333333333, 65, 240
377, 583.333333333, 65, 250
378, 583.333333333, 65, 260
379, 583.333333333, 92.5, 240
380, 583.333333333, 92.5, 250
381, 583.333333333, 92.5, 260
382, 583.333333333, 120, 240
383, 583.333333333, 120, 250
384, 583.333333333, 120, 260
385, 666.666666667, -10, 88.8888888889
386, 666.666666667, 0, 88.8888888889
387, 666.666666667, -10, 119.111111111
388, 666.666666667, 0, 119.111111111
389, 666.666666667, -10, 149.333333333
390, 666.666666667, 0, 149.333333333
391, 666.666666667, -10, 179.555555556
392, 666.666666667, 0, 179.555555556
393, 666.666666667, -10, 209.777777778
394, 666.666666667, 0, 209.777777778
395, 666.666666667, -10, 240
396, 666.666666667, 0, 240
397, 666.666666667, 10, 88.8888888889
398, 666.666666667, 10, 119.111111111
399, 666.666666667, 10, 149.333333333
400, 666.666666667, 10, 179.555555556
401, 666.666666667, 10, 209.777777778
402, 666.666666667, 10, 240
403, 666.666666667, -120, 240
404, 666.666666667, -92.5, 240
405, 666.666666667, -120, 250
406, 666.666666667, -92.5, 250
407, 666.666666667, -120, 260
408, 666.666666667, -92.5, 260
409, 666.666666667, -65, 240
410, 666.666666667, -65, 250
411, 666.666666667, -65, 260
412, 666.666666667, -37.5, 240
413, 666.666666667, -37.5, 250
414, 666.666666667, -37.5, 260
415, 666.666666667, -10, 250
416, 666.666666667, -10, 260
417, 666.666666667, 0, 250
418, 666.666666667, 0, 260
419, 666.666666667, 10, 250
420, 666.666666667, 10, 260
421, 666.666666667, 37.5, 240
422, 666.666666667, 37.5, 250
423, 666.666666667, 37.5, 260
424, 666.666666667, 65, 240
425, 666.666666667, 65, 250
426, 666.666666667, 65, 260
427, 666.666666667, 92.5, 240
428, 666.666666667, 92.5, 250
429, 666.666666667, 92.5, 260
430, 666.666666667, 120, 240
431, 666.666666667, 120, 250
432, 666.666666667, 120, 260
433, 750, -10, 97.5
434, 750, 0, 97.5
435, 750, -10, 126
436, 750, 0, 126
437, 750, -10, 154.5
438, 750, 0, 154.5
439, 750, -10, 183
440, 750, 0, 183
441, 750, -10, 211.5
442, 750, 0, 211.5
443, 750, -10, 240
444, 750, 0, 240
445, 750, 10, 97.5
446, 750, 10, 126
447, 750, 10, 154.5
448, 750, 10, 183
449, 750, 10, 211.5
450, 750, 10, 240
451, 750, -120, 240
452, 750, -92.5, 240
453, 750, -120, 250
454, 750, -92.5, 250
455, 750, -120, 260
456, 750, -92.5, 260
457, 750, -65, 240
458, 750, -65, 250
459, 750, -65, 260
460, 750, -37.5, 240
461, 750, -37.5, 250
462, 750, -37.5, 260
463, 750, -10, 250
464, 750, -10, 260
465, 750, 0, 250
466, 750, 0, 260
467, 750, 10, 250
468, 750, 10, 260
469, 750, 37.5, 240
470, 750, 37.5, 250
471, 750, 37.5, 260
472, 750, 65, 240
473, 750, 65, 250
474, 750, 65, 260
475, 750, 92.5, 240
476, 750, 92.5, 250
477, 750, 92.5, 260
478, 750, 120, 240
479, 750, 120, 250
480, 750, 120, 260
481, 833.333333333, -10, 105.555555556
482, 833.333333333, 0, 105.555555556
483, 833.333333333, -10, 132.444444444
484, 833.333333333, 0, 132.444444444
485, 833.333333333, -10, 159.333333333
486, 833.333333333, 0, 159.333333333
487, 833.333333333, -10, 186.222222222
488, 833.333333333, 0, 186.222222222
489, 833.333333333, -10, 213.111111111
490, 833.333333333, 0, 213.111111111
491, 833.333333333, -10, 240
492, 833.333333333, 0, 240
493, 833.333333333, 10, 105.555555556
494, 833.333333333, 10, 132.444444444
495, 833.333333333, 10, 159.333333333
496, 833.333333333, 10, 186.222222222
497, 833.333333333, 10, 213.111111111
498, 833.333333333, 10, 240
499, 833.333333333, -120, 240
500, 833.333333333, -92.5, 240
501, 833.333333333, -120, 250
502, 833.333333333, -92.5, 250
503, 833.333333333, -120, 260
504, 833.333333333, -92.5, 260
505, 833.333333333, -65, 240
506, 833.333333333, -65, 250
507, 833.333333333, -65, 260
508, 833.333333333, -37.5, 240
509, 833.333333333, -37.5, 250
510, 833.333333333, -37.5, 260
511, 833.333333333, -10, 250
512, 833.333333333, -10, 260
513, 833.333333333, 0, 250
514, 833.333333333, 0, 260
515, 833.333333333, 10, 250
516, 833.333333333, 10, 260
517, 833.333333333, 37.5, 240
518, 833.333333333, 37.5, 250
519, 833.333333333, 37.5, 260
520, 833.333333333, 65, 240
521, 833.333333333, 65, 250
522, 833.333333333, 65, 260
523, 833.333333333, 92.5, 240
524, 833.333333333, 92.5, 250
525, 833.333333333, 92.5, 260
526, 833.333333333, 120, 240
527, 833.333333333, 120, 250
528, 833.333333333, 120, 260
529, 916.666666667, -10, 113.055555556
530, 916.666666667, 0, 113.055555556
531, 916.666666667, -10, 138.444444444
532, 916.666666667, 0, 138.444444444
533, 916.666666667, -10, 163.833333333
534, 916.666666667, 0, 163.833333333
535, 916.666666667, -10, 189.222222222
536, 916.666666667, 0, 189.222222222
537, 916.666666667, -10, 214.611111111
538, 916.666666667, 0, 214.611111111
539, 916.666666667, -10, 240
540, 916.666666667, 0, 240
541, 916.666666667, 10, 113.055555556
542, 916.666666667, 10, 138.444444444
543, 916.666666667, 10, 163.833333333
544, 916.666666667, 10, 189.222222222
545, 916.666666667, 10, 214.611111111
546, 916.666666667, 10, 240
547, 916.666666667, -120, 240
548, 916.666666667, -92.5, 240
549, 916.666666667, -120, 250
550, 916.666666667, -92.5, 250
551, 916.666666667, -120, 260
552, 916.666666667, -92.5, 260
553, 916.666666667, -65, 240
554, 916.666666667, -65, 250
555, 916.666666667, -65, 260
556, 916.666666667, -37.5, 240
557, 916.666666667, -37.5, 250
558, 916.666666667, -37.5, 260
559, 916.666666667, -10, 250
560, 916.666666667, -10, 260
561, 916.666666667, 0, 250
562, 916.666666667, 0, 260
563, 916.666666667, 10, 250
564, 916.666666667, 10, 260
565, 916.666666667, 37.5, 240
566, 916.666666667, 37.5, 250
567, 916.666666667, 37.5, 260
568, 916.666666667, 65, 240
569, 916.666666667, 65, 250
570, 916.666666667, 65, 260
571, 916.666666667, 92.5, 240
572, 916.666666667, 92.5, 250
573, 916.666666667, 92.5, 260
574, 916.666666667, 120, 240
575, 916.666666667, 120, 250
576, 916.666666667, 120, 260
577, 1000, -10, 120
578, 1000, 0, 120
579, 1000, -10, 144
580, 1000, 0, 144
581, 1000, -10, 168
582, 1000, 0, 168
583, 1000, -10, 192
584, 1000, 0, 192
585, 1000, -10, 216
586, 1000, 0, 216
587, 1000, -10, 240
588, 1000, 0, 240
589, 1000, 10, 120
590, 1000, 10, 144
591, 1000, 10, 168
592, 1000, 10, 192
593, 1000, 10, 216
594, 1000, 10, 240
595, 1000, -120, 240
596, 1000, -92.5, 240
597, 1000, -120, 250
598, 1000, -92.5, 250
599, 1000, -120, 260
600, 1000, -92.5, 260
601, 1000, -65, 240
602, 1000, -65, 250
603, 1000, -65, 260
604, 1000, -37.5, 240
605, 1000, -37.5, 250
606, 1000, -37.5, 260
607, 1000, -10, 250
608, 1000, -10, 260
609, 1000, 0, 250
610, 1000, 0, 260
611, 1000, 10, 250
612, 1000, 10, 260
613, 1000, 37.5, 240
614, 1000, 37.5, 250
615, 1000, 37.5, 260
616, 1000, 65, 240
617, 1000, 65, 250
618, 1000, 65, 260
619, 1000, 92.5, 240
620, 1000, 92.5, 250
621, 1000, 92.5, 260
622, 1000, 120, 240
623, 1000, 120, 250
624, 1000, 120, 260
625, 1083.33333333, -10, 126.388888889
626, 1083.33333333, 0, 126.388888889
627, 1083.33333333, -10, 149.111111111
628, 1083.33333333, 0, 149.111111111
629, 1083.33333333, -10, 171.833333333
630, 1083.33333333, 0, 171.833333333
631, 1083.33333333, -10, 194.555555556
632, 1083.33333333, 0, 194.555555556
633, 1083.33333333, -10, 217.277777778
634, 1083.33333333, 0, 217.277777778
635, 1083.33333333, -10, 240
636, 1083.33333333, 0, 240
637, 1083.33333333, 10, 126.388888889
638, 1083.33333333, 10, 149.111111111
639, 1083.33333333, 10, 171.833333333
640, 1083.33333333, 10, 194.555555556
641, 1083.33333333, 10, 217.277777778
642, 1083.33333333, 10, 240
643, 1083.33333333, -120, 240
644, 1083.33333333, -92.5, 240
645, 1083.33333333, -120, 250
646, 1083.33333333, -92.5, 250
647, 1083.33333333, -120, 260
648, 1083.33333333, -92.5, 260
649, 1083.33333333, -65, 240
650, 1083.33333333, -65, 250
651, 1083.33333333, -65, 260
652, 1083.33333333, -37.5, 240
653, 1083.33333333, -37.5, 250
654, 1083.33333333, -37.5, 260
655, 1083.33333333, -10, 250
656, 1083.33333333, -10, 260
657, 1083.33333333, 0, 250
658, 1083.33333333, 0, 260
659, 1083.33333333, 10, 250
660, 1083.33333333, 10, 260
661, 1083.33333333, 37.5, 240
662, 1083.33333333, 37.5, 250
663, 1083.33333333, 37.5, 260
664, 1083.33333333, 65, 240
665, 1083.33333333, 65, 250
666, 1083.33333333, 65, 260
667, 1083.33333333, 92.5, 240
668, 1083.33333333, 92.5, 250
669, 1083.33333333, 92.5, 260
670, 1083.33333333, 120, 240
671, 1083.33333333, 120, 250
672, 1083.33333333, 120, 260
673, 1166.66666667, -10, 132.222222222
674, 1166.66666667, 0, 132.222222222
675, 1166.66666667, -10, 153.777777778
676, 1166.66666667, 0, 153.777777778
677, 1166.66666667, -10, 175.333333333
678, 1166.66666667, 0, 175.333333333
679, 1166.66666667, -10, 196.888888889
680, 1166.66666667, 0, 196.888888889
681, 1166.66666667, -10, 218.444444444
682, 1166.66666667, 0, 218.444444444
683, 1166.66666667, -10, 240
684, 1166.66666667, 0, 240
685, 1166.66666667, 10, 132.222222222
686, 1166.66666667, 10, 153.777777778
687, 1166.66666667, 10, 175.333333333
688, 1166.66666667, 10, 196.888888889
689, 1166.66666667, 10, 218.444444444
690, 1166.66666667, 10, 240
691, 1166.66666667, -120, 240
692, 1166.66666667, -92.5, 240
693, 1166.66666667, -120, 250
694, 1166.66666667, -92.5, 250
695, 1166.66666667, -120, 260
696, 1166.66666667, -92.5, 260
697, 1166.66666667, -65, 240
698, 1166.66666667, -65, 250
699, 1166.66666667, -65, 260
700, 1166.66666667, -37.5, 240
701, 1166.66666667, -37.5, 250
702, 1166.66666667, -37.5, 260
703, 1166.66666667, -10, 250
704, 1166.66666667, -10, 260
705, 1166.66666667, 0, 250
706, 1166.66666667, 0, 260
707, 1166.66666667, 10, 250
708, 1166.66666667, 10, 260
709, 1166.66666667, 37.5, 240
710, 1166.66666667, 37.5, 250
711, 1166.66666667, 37.5, 260
712, 1166.66666667, 65, 240
713, 1166.66666667, 65, 250
714, 1166.66666667, 65, 260
715, 1166.66666667, 92.5, 240
716, 1166.66666667, 92.5, 250
717, 1166.66666667, 92.5, 260
718, 1166.66666667, 120, 240
719, 1166.66666667, 120, 250
720, 1166.66666667, 120, 260
721, 1250, -10, 137.5
722, 1250, 0, 137.5
723, 1250, -10, 158
724, 1250, 0, 158
725, 1250, -10, 178.5
726, 1250, 0, 178.5
727, 1250, -10, 199
728, 1250, 0, 199
729, 1250, -10, 219.5
730, 1250, 0, 219.5
731, 1250, -10, 240
732, 1250, 0, 240
733, 1250, 10, 137.5
734, 1250, 10, 158
735, 1250, 10, 178.5
736, 1250, 10, 199
737, 1250, 10, 219.5
738, 1250, 10, 240
739, 1250, -120, 240
740, 1250, -92.5, 240
741, 1250, -120, 250
742, 1250, -92.5, 250
743, 1250, -120, 260
744, 1250, -92.5, 260
745, 1250, -65, 240
746, 1250, -65, 250
747, 1250, -65, 260
748, 1250, -37.5, 240
749, 1250, -37.5, 250
750, 1250, -37.5, 260
751, 1250, -10, 250
752, 1250, -10, 260
753, 1250, 0, 250
754, 1250, 0, 260
755, 1250, 10, 250
756, 1250, 10, 260
757, 1250, 37.5, 240
758, 1250, 37.5, 250
759, 1250, 37.5, 260
760, 1250, 65, 240
761, 1250, 65, 250
762, 1250, 65, 260
763, 1250, 92.5, 240
764, 1250, 92.5, 250
765, 1250, 92.5, 260
766, 1250, 120, 240
767, 1250, 120, 250
768, 1250, 120, 260
769, 1333.33333333, -10, 142.222222222
770, 1333.33333333, 0, 142.222222222
771, 1333.33333333, -10, 161.777777778
772, 1333.33333333, 0, 161.777777778
773, 1333.33333333, -10, 181.333333333
774, 1333.33333333, 0, 181.333333333
775, 1333.33333333, -10, 200.888888889
776, 1333.33333333, 0, 200.888888889
777, 1333.33333333, -10, 220.444444444
778, 1333.33333333, 0, 220.444444444
779, 1333.33333333, -10, 240
780, 1333.33333333, 0, 240
781, 1333.33333333, 10, 142.222222222
782, 1333.33333333, 10, 161.777777778
783, 1333.33333333, 10, 181.333333333
784, 1333.33333333, 10, 200.888888889
785, 1333.33333333, 10, 220.444444444
786, 1333.33333333, 10, 240
787, 1333.33333333, -120, 240
788, 1333.33333333, -92.5, 240
789, 1333.33333333, -120, 250
790, 1333.33333333, -92.5, 250
791, 1333.33333333, -120, 260
792, 1333.33333333, -92.5, 260
793, 1333.33333333, -65, 240
794, 1333.33333333, -65, 250
795, 1333.33333333, -65, 260
796, 1333.33333333, -37.5, 240
797, 1333.33333333, -37.5, 250
798, 1333.33333333, -37.5, 260
799, 1333.33333333, -10, 250
800, 1333.33333333, -10, 260
801, 1333.33333333, 0, 250
802, 1333.33333333, 0, 260
803, 1333.33333333, 10, 250
804, 1333.33333333, 10, 260
805, 1333.33333333, 37.5, 240
806, 1333.33333333, 37.5, 250
807, 1333.33333333, 37.5, 260
808, 1333.33333333, 65, 240
809, 1333.33333333, 65, 250
810, 1333.33333333, 65, 260
811, 1333.33333333, 92.5, 240
812, 1333.33333333, 92.5, 250
813, 1333.33333333, 92.5, 260
814, 1333.33333333, 120, 240
815, 1333.33333333, 120, 250
816, 1333.33333333, 120, 260
817, 1416.66666667, -10, 146.388888889
818, 1416.66666667, 0, 146.388888889
819, 1416.66666667, -10, 165.111111111
820, 1416.66666667, 0, 165.111111111
821, 1416.66666667, -10, 183.833333333
822, 1416.66666667, 0, 183.833333333
823, 1416.66666667, -10, 202.555555556
824, 1416.66666667, 0, 202.555555556
825, 1416.66666667, -10, 221.277777778
826, 1416.66666667, 0, 221.277777778
827, 1416.66666667, -10, 240
828, 1416.66666667, 0, 240
829, 1416.66666667, 10, 146.388888889
830, 1416.66666667, 10, 165.111111111
831, 1416.66666667, 10, 183.833333333
832, 1416.66666667, 10, 202.555555556
833, 1416.66666667, 10, 221.277777778
834, 1416.66666667, 10, 240
835, 1416.66666667, -120, 240
836, 1416.66666667, -92.5, 240
837, 1416.66666667, -120, 250
838, 1416.66666667, -92.5, 250
839, 1416.66666667, -120, 260
840, 1416.66666667, -92.5, 260
841, 1416.66666667, -65, 240
842, 1416.66666667, -65, 250
843, 1416.66666667, -65, 260
844, 1416.66666667, -37.5, 240
845, 1416.66666667, -37.5, 250
846, 1416.66666667, -37.5, 260
847, 1416.66666667, -10, 250
848, 1416.66666667, -10, 260
849, 1416.66666667, 0, 250
850, 1416.66666667, 0, 260
851, 1416.66666667, 10, 250
852, 1416.66666667, 10, 260
853, 1416.66666667, 37.5, 240
854, 1416.66666667, 37.5, 250
855, 1416.66666667, 37.5, 260
856, 1416.66666667, 65, 240
857, 1416.66666667, 65, 250
858, 1416.66666667, 65, 260
859, 1416.66666667, 92.5, 240
860, 1416.66666667, 92.5, 250
861, 1416.66666667, 92.5, 260
862, 1416.66666667, 120, 240
863, 1416.66666667, 120, 250
864, 1416.66666667, 120, 260
865, 1500, -10, 150
866, 1500, 0, 150
867, 1500, -10, 168
868, 1500, 0, 168
869, 1500, -10, 186
870, 1500, 0, 186
871, 1500, -10, 204
872, 1500, 0, 204
873, 1500, -10, 222
874, 1500, 0, 222
875, 1500, -10, 240
876, 1500, 0, 240
877, 1500, 10, 150
878, 1500, 10, 168
879, 1500, 10, 186
880, 1500, 10, 204
881, 1500, 10, 222
882, 1500, 10, 240
883, 1500, -120, 240
884, 1500, -92.5, 240
885, 1500, -120, 250
886, 1500, -92.5, 250
887, 1500, -120, 260
888, 1500, -92.5, 260
889, 1500, -65, 240
890, 1500, -65, 250
891, 1500, -65, 260
892, 1500, -37.5, 240
893, 1500, -37.5, 250
894, 1500, -37.5, 260
895, 1500, -10, 250
896, 1500, -10, 260
897, 1500, 0, 250
898, 1500, 0, 260
899, 1500, 10, 250
900, 1500, 10, 260
901, 1500, 37.5, 240
902, 1500, 37.5, 250
903, 1500, 37.5, 260
904, 1500, 65, 240
905, 1500, 65, 250
906, 1500, 65, 260
907, 1500, 92.5, 240
908, 1500, 92.5, 250
909, 1500, 92.5, 260
910, 1500, 120, 240
911, 1500, 120, 250
912, 1500, 120, 260
913, 1583.33333333, -10, 153.055555556
914, 1583.33333333, 0, 153.055555556
915, 1583.33333333, -10, 170.444444444
916, 1583.33333333, 0, 170.444444444
917, 1583.33333333, -10, 187.833333333
918, 1583.33333333, 0, 187.833333333
919, 1583.33333333, -10, 205.222222222
920, 1583.33333333, 0, 205.222222222
921, 1583.33333333, -10, 222.611111111
922, 1583.33333333, 0, 222.611111111
923, 1583.33333333, -10, 240
924, 1583.33333333, 0, 240
925, 1583.33333333, 10, 153.055555556
926, 1583.33333333, 10, 170.444444444
927, 1583.33333333, 10, 187.833333333
928, 1583.33333333, 10, 205.222222222
929, 1583.33333333, 10, 222.611111111
930, 1583.33333333, 10, 240
931, 1583.33333333, -120, 240
932, 1583.33333333, -92.5, 240
933, 1583.33333333, -120, 250
934, 1583.33333333, -92.5, 250
935, 1583.33333333, -120, 260
936, 1583.33333333, -92.5, 260
937, 1583.33333333, -65, 240
938, 1583.33333333, -65, 250
939, 1583.33333333, -65, 260
940, 1583.33333333, -37.5, 240
941, 1583.33333333, -37.5, 250
942, 1583.33333333, -37.5, 260
943, 1583.33333333, -10, 250
944, 1583.33333333, -10, 260
945, 1583.33333333, 0, 250
946, 1583.33333333, 0, 260
947, 1583.33333333, 10, 250
948, 1583.33333333, 10, 260
949, 1583.33333333, 37.5, 240
950, 1583.33333333, 37.5, 250
951, 1583.33333333, 37.5, 260
952, 1583.33333333, 65, 240
953, 1583.33333333, 65, 250
954, 1583.33333333, 65, 260
955, 1583.33333333, 92.5, 240
956, 1583.33333333, 92.5, 250
957, 1583.33333333, 92.5, 260
958, 1583.33333333, 120, 240
959, 1583.33333333, 120, 250
960, 1583.33333333, 120, 260
961, 1666.66666667, -10, 155.555555556
962, 1666.66666667, 0, 155.555555556
963, 1666.66666667, -10, 172.444444444
964, 1666.66666667, 0, 172.444444444
965, 1666.66666667, -10, 189.333333333
966, 1666.66666667, 0, 189.333333333
967, 1666.66666667, -10, 206.222222222
968, 1666.66666667, 0, 206.222222222
969, 1666.66666667, -10, 223.111111111
970, 1666.66666667, 0, 223.111111111
971, 1666.66666667, -10, 240
972, 1666.66666667, 0, 240
973, 1666.66666667, 10, 155.555555556
974, 1666.66666667, 10, 172.444444444
975, 1666.66666667, 10, 189.333333333
976, 1666.66666667, 10, 206.222222222
977, 1666.66666667, 10, 223.111111111
978, 1666.66666667, 10, 240
979, 1666.66666667, -120, 240
980, 1666.66666667, -92.5, 240
981, 1666.66666667, -120, 250
982, 1666.66666667, -92.5, 250
983, 1666.66666667, -120, 260
984, 1666.66666667, -92.5, 260
985, 1666.66666667, -65, 240
986, 1666.66666667, -65, 250
987, 1666.66666667, -65, 260
988, 1666.66666667, -37.5, 240
989, 1666.66666667, -37.5, 250
990, 1666.66666667, -37.5, 260
991, 1666.66666667, -10, 250
992, 1666.66666667, -10, 260
993, 1666.66666667, 0, 250
994, 1666.66666667, 0, 260
995, 1666.66666667, 10, 250
996, 1666.66666667, 10, 260
997, 1666.66666667, 37.5, 240
998, 1666.66666667, 37.5, 250
999, 1666.66666667, 37.5, 260
1000, 1666.66666667, 65, 240
1001, 1666.66666667, 65, 250
1002, 1666.66666667, 65, 260
1003, 1666.66666667, 92.5, 240
1004, 1666.66666667, 92.5, 250
1005, 1666.66666667, 92.5, 260
1006, 1666.66666667, 120, 240
1007, 1666.66666667, 120, 250
1008, 1666.66666667, 120, 260
1009, 1750, -10, 157.5
1010, 1750, 0, 157.5
1011, 1750, -10, 174
1012, 1750, 0, 174
1013, 1750, -10, 190.5
1014, 1750, 0, 190.5
1015, 1750, -10, 207
1016, 1750, 0, 207
1017, 1750, -10, 223.5
1018, 1750, 0, 223.5
1019, 1750, -10, 240
1020, 1750, 0, 240
1021, 1750, 10, 157.5
1022, 1750, 10, 174
1023, 1750, 10, 190.5
1024, 1750, 10, 207
1025, 1750, 10, 223.5
1026, 1750, 10, 240
1027, 1750, -120, 240
1028, 1750, -92.5, 240
1029, 1750, -120, 250
1030, 1750, -92.5, 250
1031, 1750, -120, 260
1032, 1750, -92.5, 260
1033, 1750, -65, 240
1034, 1750, -65, 250
1035, 1750, -65, 260
1036, 1750, -37.5, 240
1037, 1750, -37.5, 250
1038, 1750, -37.5, 260
1039, 1750, -10, 250
1040, 1750, -10, 260
1041, 1750, 0, 250
1042, 1750, 0, 260
1043, 1750, 10, 250
1044, 1750, 10, 260
1045, 1750, 37.5, 240
1046, 1750, 37.5, 250
1047, 1750, 37.5, 260
1048, 1750, 65, 240
1049, 1750, 65, 250
1050, 1750, 65, 260
1051, 1750, 92.5, 240
1052, 1750, 92.5, 250
1053, 1750, 92.5, 260
1054, 1750, 120, 240
1055, 1750, 120, 250
1056, 1750, 120, 260
1057, 1833.33333333, -10, 158.888888889
1058, 1833.33333333, 0, 158.888888889
1059, 1833.33333333, -10, 175.111111111
1060, 1833.33333333, 0, 175.111111111
1061, 1833.33333333, -10, 191.333333333
1062, 1833.33333333, 0, 191.333333333
1063, 1833.33333333, -10, 207.555555556
1064, 1833.33333333, 0, 207.555555556
1065, 1833.33333333, -10, 223.777777778
1066, 1833.33333333, 0, 223.777777778
1067, 1833.33333333, -10, 240
1068, 1833.33333333, 0, 240
1069, 1833.33333333, 10, 158.888888889
1070, 1833.33333333, 10, 175.111111111
1071, 1833.33333333, 10, 191.333333333
1072, 1833.33333333, 10, 207.555555556
1073, 1833.33333333, 10, 223.777777778
1074, 1833.33333333, 10, 240
1075, 1833.33333333, -120, 240
1076, 1833.33333333, -92.5, 240
1077, 1833.33333333, -120, 250
1078, 1833.33333333, -92.5, 250
1079, 1833.33333333, -120, 260
1080, 1833.33333333, -92.5, 260
1081, 1833.33333333, -65, 240
1082, 1833.33333333, -65, 250
1083, 1833.33333333, -65, 260
1084, 1833.33333333, -37.5, 240
1085, 1833.33333333, -37.5, 250
1086, 1833.33333333, -37.5, 260
1087, 1833.33333333, -10, 250
1088, 1833.33333333, -10, 260
1089, 1833.33333333, 0, 250
1090, 1833.33333333, 0, 260
1091, 1833.33333333, 10, 250
1092, 1833.33333333, 10, 260
1093, 1833.33333333, 37.5, 240
1094, 1833.33333333, 37.5, 250
1095, 1833.33333333, 37.5, 260
1096, 1833.33333333, 65, 240
1097, 1833.33333333, 65, 250
1098, 1833.33333333, 65, 260
1099, 1833.33333333, 92.5, 240
1100, 1833.33333333, 92.5, 250
1101, 1833.33333333, 92.5, 260
1102, 1833.33333333, 120, 240
1103, 1833.33333333, 120, 250
1104, 1833.33333333, 120, 260
1105, 1916.66666667, -10, 159.722222222
1106, 1916.66666667, 0, 159.722222222
1107, 1916.66666667, -10, 175.777777778
1108, 1916.66666667, 0, 175.777777778
1109, 1916.66666667, -10, 191.833333333
1110, 1916.66666667, 0, 191.833333333
1111, 1916.66666667, -10, 207.888888889
1112, 1916.66666667, 0, 207.888888889
1113, 1916.66666667, -10, 223.944444444
1114, 1916.66666667, 0, 223.944444444
1115, 1916.66666667, -10, 240
1116, 1916.66666667, 0, 240
1117, 1916.66666667, 10, 159.722222222
1118, 1916.66666667, 10, 175.777777778
1119, 1916.66666667, 10, 191.833333333
1120, 1916.66666667, 10, 207.888888889
1121, 1916.66666667, 10, 223.944444444
1122, 1916.66666667, 10, 240
1123, 1916.66666667, -120, 240
1124, 1916.66666667, -92.5, 240
1125, 1916.66666667, -120, 250
1126, 1916.66666667, -92.5, 250
1127, 1916.66666667, -120, 260
1128, 1916.66666667, -92.5, 260
1129, 1916.66666667, -65, 240
1130, 1916.66666667, -65, 250
1131, 1916.66666667, -65, 260
1132, 1916.66666667, -37.5, 240
1133, 1916.66666667, -37.5, 250
1134, 1916.66666667, -37.5, 260
1135, 1916.66666667, -10, 250
1136, 1916.66666667, -10, 260
1137, 1916.66666667, 0, 250
1138, 1916.66666667, 0, 260
1139, 1916.66666667, 10, 250
1140, 1916.66666667, 10, 260
1141, 1916.66666667, 37.5, 240
1142, 1916.66666667, 37.5, 250
1143, 1916.66666667, 37.5, 260
1144, 1916.66666667, 65, 240
1145, 1916.66666667, 65, 250
1146, 1916.66666667, 65, 260
1147, 1916.66666667, 92.5, 240
1148, 1916.66666667, 92.5, 250
1149, 1916.66666667, 92.5, 260
1150, 1916.66666667, 120, 240
1151, 1916.66666667, 120, 250
1152, 1916.66666667, 120, 260
1153, 2000, -10, 160
1154, 2000, 0, 160
1155, 2000, -10, 176
1156, 2000, 0, 176
1157, 2000, -10, 192
1158, 2000, 0, 192
1159, 2000, -10, 208
1160, 2000, 0, 208
1161, 2000, -10, 224
1162, 2000, 0, 224
1163, 2000, -10, 240
1164, 2000, 0, 240
1165, 2000, 10, 160
1166, 2000, 10, 176
1167, 2000, 10, 192
1168, 2000, 10, 208
1169, 2000, 10, 224
1170, 2000, 10, 240
1171, 2000, -120, 240
1172, 2000, -92.5, 240
1173, 2000, -120, 250
1174, 2000, -92.5, 250
1175, 2000, -120, 260
1176, 2000, -92.5, 260
1177, 2000, -65, 240
1178, 2000, -65, 250
1179, 2000, -65, 260
1180, 2000, -37.5, 240
1181, 2000, -37.5, 250
1182, 2000, -37.5, 260
1183, 2000, -10, 250
1184, 2000, -10, 260
1185, 2000, 0, 250
1186, 2000, 0, 260
1187, 2000, 10, 250
1188, 2000, 10, 260
1189, 2000, 37.5, 240
1190, 2000, 37.5, 250
1191, 2000, 37.5, 260
1192, 2000, 65, 240
1193, 2000, 65, 250
1194, 2000, 65, 260
1195, 2000, 92.5, 240
1196, 2000, 92.5, 250
1197, 2000, 92.5, 260
1198, 2000, 120, 240
1199, 2000, 120, 250
1200, 2000, 120, 260
*ELEMENT, TYPE=C3D8, ELSET=EALL
1, 1, 2, 3, 4, 5, 6, 7, 8
2, 5, 6, 7, 8, 9, 10, 11, 12
3, 9, 10, 11, 12, 13, 14, 15, 16
4, 13, 14, 15, 16, 17, 18, 19, 20
5, 17, 18, 19, 20, 21, 22, 23, 24
6, 4, 3, 25, 26, 8, 7, 27, 28
7, 8, 7, 27, 28, 12, 11, 29, 30
8, 12, 11, 29, 30, 16, 15, 31, 32
9, 16, 15, 31, 32, 20, 19, 33, 34
10, 20, 19, 33, 34, 24, 23, 35, 36
11, 37, 38, 39, 40, 41, 42, 43, 44
12, 41, 42, 43, 44, 45, 46, 47, 48
13, 40, 39, 49, 50, 44, 43, 51, 52
14, 44, 43, 51, 52, 48, 47, 53, 54
15, 50, 49, 55, 56, 52, 51, 57, 58
16, 52, 51, 57, 58, 54, 53, 59, 60
17, 56, 55, 22, 21, 58, 57, 61, 62
18, 58, 57, 61, 62, 60, 59, 63, 64
19, 21, 22, 23, 24, 62, 61, 65, 66
20, 62, 61, 65, 66, 64, 63, 67, 68
21, 24, 23, 35, 36, 66, 65, 69, 70
22, 66, 65, 69, 70, 68, 67, 71, 72
23, 36, 35, 73, 74, 70, 69, 75, 76
24, 70, 69, 75, 76, 72, 71, 77, 78
25, 74, 73, 79, 80, 76, 75, 81, 82
26, 76, 75, 81, 82, 78, 77, 83, 84
27, 80, 79, 85, 86, 82, 81, 87, 88
28, 82, 81, 87, 88, 84, 83, 89, 90
29, 86, 85, 91, 92, 88, 87, 93, 94
30, 88, 87, 93, 94, 90, 89, 95, 96
31, 2, 97, 98, 3, 6, 99, 100, 7
32, 6, 99, 100, 7, 10, 101, 102, 11
33, 10, 101, 102, 11, 14, 103, 104, 15
34, 14, 103, 104, 15, 18, 105, 106, 19
35, 18, 105, 106, 19, 22, 107, 108, 23
36, 3, 98, 109, 25, 7, 100, 110, 27
37, 7, 100, 110, 27, 11, 102, 111, 29
38, 11, 102, 111, 29, 15, 104, 112, 31
39, 15, 104, 112, 31, 19, 106, 113, 33
40, 19, 106, 113, 33, 23, 108, 114, 35
41, 38, 115, 116, 39, 42, 117, 118, 43
42, 42, 117, 118, 43, 46, 119, 120, 47
43, 39, 116, 121, 49, 43, 118, 122, 51
44, 43, 118, 122, 51, 47, 120, 123, 53
45, 49, 121, 124, 55, 51, 122, 125, 57
46, 51, 122, 125, 57, 53, 123, 126, 59
47, 55, 124, 107, 22, 57, 125, 127, 61
48, 57, 125, 127, 61, 59, 126, 128, 63
49, 22, 107, 108, 23, 61, 127, 129, 65
50, 61, 127, 129, 65, 63, 128, 130, 67
51, 23, 108, 114, 35, 65, 129, 131, 69
52, 65, 129, 131, 69, 67, 130, 132, 71
53, 35, 114, 133, 73, 69, 131, 134, 75
54, 69, 131, 134, 75, 71, 132, 135, 77
55, 73, 133, 136, 79, 75, 134, 137, 81
56, 75, 134, 137, 81, 77, 135, 138, 83
57, 79, 136, 139, 85, 81, 137, 140, 87
58, 81, 137, 140, 87, 83, 138, 141, 89
59, 85, 139, 142, 91, 87, 140, 143, 93
60, 87, 140, 143, 93, 89, 141, 144, 95
61, 97, 145, 146, 98, 99, 147, 148, 100
62, 99, 147, 148, 100, 101, 149, 150, 102
63, 101, 149, 150, 102, 103, 151, 152, 104
64, 103, 151, 152, 104, 105, 153, 154, 106
65, 105, 153, 154, 106, 107, 155, 156, 108
66, 98, 146, 157, 109, 100, 148, 158, 110
67, 100, 148, 158, 110, 102, 150, 159, 111
68, 102, 150, 159, 111, 104, 152, 160, 112
69, 104, 152, 160, 112, 106, 154, 161, 113
70, 106, 154, 161, 113, 108, 156, 162, 114
71, 115, 163, 164, 116, 117, 165, 166, 118
72, 117, 165, 166, 118, 119, 167, 168, 120
73, 116, 164, 169, 121, 118, 166, 170, 122
74, 118, 166, 170, 122, 120, 168, 171, 123
75, 121, 169, 172, 124, 122, 170, 173, 125
76, 122, 170, 173, 125, 123, 171, 174, 126
77, 124, 172, 155, 107, 125, 173, 175, 127
78, 125, 173, 175, 127, 126, 174, 176, 128
79, 107, 155, 156, 108, 127, 175, 177, 129
80, 127, 175, 177, 129, 128, 176, 178, 130
81, 108, 156, 162, 114, 129, 177, 179, 131
82, 129, 177, 179, 131, 130, 178, 180, 132
83, 114, 162, 181, 133, 131, 179, 182, 134
84, 131, 179, 182, 134, 132, 180, 183, 135
85, 133, 181, 184, 136, 134, 182, 185, 137
86, 134, 182, 185, 137, 135, 183, 186, 138
87, 136, 184, 187, 139, 137, 185, 188, 140
88, 137, 185, 188, 140, 138, 186, 189, 141
89, 139, 187, 190, 142, 140, 188, 191, 143
90, 140, 188, 191, 143, 141, 189, 192, 144
91, 145, 193, 194, 146, 147, 195, 196, 148
92, 147, 195, 196, 148, 149, 197, 198, 150
93, 149, 197, 198, 150, 151, 199, 200, 152
94, 151, 199, 200, 152, 153, 201, 202, 154
95, 153, 201, 202, 154, 155, 203, 204, 156
96, 146, 194, 205, 157, 148, 196, 206, 158
97, 148, 196, 206, 158, 150, 198, 207, 159
98, 150, 198, 207, 159, 152, 200, 208, 160
99, 152, 200, 208, 160, 154, 202, 209, 161
100, 154, 202, 209, 161, 156, 204, 210, 162
101, 163, 211, 212, 164, 165, 213, 214, 166
102, 165, 213, 214, 166, 167, 215, 216, 168
103, 164, 212, 217, 169, 166, 214, 218, 170
104, 166, 214, 218, 170, 168, 216, 219, 171
105, 169, 217, 220, 172, 170, 218, 221, 173
106, 170, 218, 221, 173, 171, 219, 222, 174
107, 172, 220, 203, 155, 173, 221, 223, 175
108, 173, 221, 223, 175, 174, 222, 224, 176
109, 155, 203, 204, 156, 175, 223, 225, 177
110, 175, 223, 225, 177, 176, 224, 226, 178
111, 156, 204, 210, 162, 177, 225, 227, 179
112, 177, 225, 227, 179, 178, 226, 228, 180
113, 162, 210, 229, 181, 179, 227, 230, 182
114, 179, 227, 230, 182, 180, 228, 231, 183
115, 181, 229, 232, 184, 182, 230, 233, 185
116, 182, 230, 233, 185, 183, 231, 234, 186
117, 184, 232, 235, 187, 185, 233, 236, 188
118, 185, 233, 236, 188, 186, 234, 237, 189
119, 187, 235, 238, 190, 188, 236, 239, 191
120, 188, 236, 239, 191, 189, 237, 240, 192
121, 193, 241, 242, 194, 195, 243, 244, 196
122, 195, 243, 244, 196, 197, 245, 246, 198
123, 197, 245, 246, 198, 199, 247, 248, 200
124, 199, 247, 248, 200, 201, 249, 250, 202
125, 201, 249, 250, 202, 203, 251, 252, 204
126, 194, 242, 253, 205, 196, 244, 254, 206
127, 196, 244, 254, 206, 198, 246, 255, 207
128, 198, 246, 255, 207, 200, 248, 256, 208
129, 200, 248, 256, 208, 202, 250, 257, 209
130, 202, 250, 257, 209, 204, 252, 258, 210
131, 211, 259, 260, 212, 213, 261, 262, 214
132, 213, 261, 262, 214, 215, 263, 264, 216
133, 212, 260, 265, 217, 214, 262, 266, 218
134, 214, 262, 266, 218, 216, 264, 267, 219
135, 217, 265, 268, 220, 218, 266, 269, 221
136, 218, 266, 269, 221, 219, 267, 270, 222
137, 220, 268, 251, 203, 221, 269, 271, 223
138, 221, 269, 271, 223, 222, 270, 272, 224
139, 203, 251, 252, 204, 223, 271, 273, 225
140, 223, 271, 273, 225, 224, 272, 274, 226
141, 204, 252, 258, 210, 225, 273, 275, 227
142, 225, 273, 275, 227, 226, 274, 276, 228
143, 210, 258, 277, 229, 227, 275, 278, 230
144, 227, 275, 278, 230, 228, 276, 279, 231
145, 229, 277, 280, 232, 230, 278, 281, 233
146, 230, 278, 281, 233, 231, 279, 282, 234
147, 232, 280, 283, 235, 233, 281, 284, 236
148, 233, 281, 284, 236, 234, 282, 285, 237
149, 235, 283, 286, 238, 236, 284, 287, 239
150, 236, 284, 287, 239, 237, 285, 288, 240
151, 241, 289, 290, 242, 243, 291, 292, 244
152, 243, 291, 292, 244, 245, 293, 294, 246
153, 245, 293, 294, 246, 247, 295, 296, 248
154, 247, 295, 296, 248, 249, 297, 298, 250
155, 249, 297, 298, 250, 251, 299, 300, 252
156, 242, 290, 301, 253, 244, 292, 302, 254
157, 244, 292, 302, 254, 246, 294, 303, 255
158, 246, 294, 303, 255, 248, 296, 304, 256
159, 248, 296, 304, 256, 250, 298, 305, 257
160, 250, 298, 305, 257, 252, 300, 306, 258
161, 259, 307, 308, 260, 261, 309, 310, 262
162, 261, 309, 310, 262, 263, 311, 312, 264
163, 260, 308, 313, 265, 262, 310, 314, 266
164, 262, 310, 314, 266, 264, 312, 315, 267
165, 265, 313, 316, 268, 266, 314, 317, 269
166, 266, 314, 317, 269, 267, 315, 318, 270
167, 268, 316, 299, 251, 269, 317, 319, 271
168, 269, 317, 319, 271, 270, 318, 320, 272
169, 251, 299, 300, 252, 271, 319, 321, 273
170, 271, 319, 321, 273, 272, 320, 322, 274
171, 252, 300, 306, 258, 273, 321, 323, 275
172, 273, 321, 323, 275, 274, 322, 324, 276
173, 258, 306, 325, 277, 275, 323, 326, 278
174, 275, 323, 326, 278, 276, 324, 327, 279
175, 277, 325, 328, 280, 278, 326, 329, 281
176, 278, 326, 329, 281, 279, 327, 330, 282
177, 280, 328, 331, 283, 281, 329, 332, 284
178, 281, 329, 332, 284, 282, 330, 333, 285
179, 283, 331, 334, 286, 284, 332, 335, 287
180, 284, 332, 335, 287, 285, 333, 336, 288
181, 289, 337, 338, 290, 291, 339, 340, 292
182, 291, 339, 340, 292, 293, 341, 342, 294
183, 293, 341, 342, 294, 295, 343, 344, 296
184, 295, 343, 344, 296, 297, 345, 346, 298
185, 297, 345, 346, 298, 299, 347, 348, 300
186, 290, 338, 349, 301, 292, 340, 350, 302
187, 292, 340, 350, 302, 294, 342, 351, 303
188, 294, 342, 351, 303, 296, 344, 352, 304
189, 296, 344, 352, 304, 298, 346, 353, 305
190, 298, 346, 353, 305, 300, 348, 354, 306
191, 307, 355, 356, 308, 309, 357, 358, 310
192, 309, 357, 358, 310, 311, 359, 360, 312
193, 308, 356, 361, 313, 310, 358, 362, 314
194, 310, 358, 362, 314, 312, 360, 363, 315
195, 313, 361, 364, 316, 314, 362, 365, 317
196, 314, 362, 365, 317, 315, 363, 366, 318
197, 316, 364, 347, 299, 317, 365, 367, 319
198, 317, 365, 367, 319, 318, 366, 368, 320
199, 299, 347, 348, 300, 319, 367, 369, 321
200, 319, 367, 369, 321, 320, 368, 370, 322
201, 300, 348, 354, 306, 321, 369, 371, 323
202, 321, 369, 371, 323, 322, 370, 372, 324
203, 306, 354, 373, 325, 323, 371, 374, 326
204, 323, 371, 374, 326, 324, 372, 375, 327
205, 325, 373, 376, 328, 326, 374, 377, 329
206, 326, 374, 377, 329, 327, 375, 378, 330
207, 328, 376, 379, 331, 329, 377, 380, 332
208, 329, 377, 380, 332, 330, 378, 381, 333
209, 331, 379, 382, 334, 332, 380, 383, 335
210, 332, 380, 383, 335, 333, 381, 384, 336
211, 337, 385, 386, 338, 339, 387, 388, 340
212, 339, 387, 388, 340, 341, 389, 390, 342
213, 341, 389, 390, 342, 343, 391, 392, 344
214, 343, 391, 392, 344, 345, 393, 394, 346
215, 345, 393, 394, 346, 347, 395, 396, 348
216, 338, 386, 397, 349, 340, 388, 398, 350
217, 340, 388, 398, 350, 342, 390, 399, 351
218, 342, 390, 399, 351, 344, 392, 400, 352
219, 344, 392, 400, 352, 346, 394, 401, 353
220, 346, 394, 401, 353, 348, 396, 402, 354
221, 355, 403, 404, 356, 357, 405, 406, 358
222, 357, 405, 406, 358, 359, 407, 408, 360
223, 356, 404, 409, 361, 358, 406, 410, 362
224, 358, 406, 410, 362, 360, 408, 411, 363
225, 361, 409, 412, 364, 362, 410, 413, 365
226, 362, 410, 413, 365, 363, 411, 414, 366
227, 364, 412, 395, 347, 365, 413, 415, 367
228, 365, 413, 415, 367, 366, 414, 416, 368
229, 347, 395, 396, 348, 367, 415, 417, 369
230, 367, 415, 417, 369, 368, 416, 418, 370
231, 348, 396, 402, 354, 369, 417, 419, 371
232, 369, 417, 419, 371, 370, 418, 420, 372
233, 354, 402, 421, 373, 371, 419, 422, 374
234, 371, 419, 422, 374, 372, 420, 423, 375
235, 373, 421, 424, 376, 374, 422, 425, 377
236, 374, 422, 425, 377, 375, 423, 426, 378
237, 376, 424, 427, 379, 377, 425, 428, 380
238, 377, 425, 428, 380, 378, 426, 429, 381
239, 379, 427, 430, 382, 380, 428, 431, 383
240, 380, 428, 431, 383, 381, 429, 432, 384
241, 385, 433, 434, 386, 387, 435, 436, 388
242, 387, 435, 436, 388, 389, 437, 438, 390
243, 389, 437, 438, 390, 391, 439, 440, 392
244, 391, 439, 440, 392, 393, 441, 442, 394
245, 393, 441, 442, 394, 395, 443, 444, 396
246, 386, 434, 445, 397, 388, 436, 446, 398
247, 388, 436, 446, 398, 390, 438, 447, 399
248, 390, 438, 447, 399, 392, 440, 448, 400
249, 392, 440, 448, 400, 394, 442, 449, 401
250, 394, 442, 449, 401, 396, 444, 450, 402
251, 403, 451, 452, 404, 405, 453, 454, 406
252, 405, 453, 454, 406, 407, 455, 456, 408
253, 404, 452, 457, 409, 406, 454, 458, 410
254, 406, 454, 458, 410, 408, 456, 459, 411
255, 409, 457, 460, 412, 410, 458, 461, 413
256, 410, 458, 461, 413, 411, 459, 462, 414
257, 412, 460, 443, 395, 413, 461, 463, 415
258, 413, 461, 463, 415, 414, 462, 464, 416
259, 395, 443, 444, 396, 415, 463, 465, 417
260, 415, 463, 465, 417, 416, 464, 466, 418
261, 396, 444, 450, 402, 417, 465, 467, 419
262, 417, 465, 467, 419, 418, 466, 468, 420
263, 402, 450, 469, 421, 419, 467, 470, 422
264, 419, 467, 470, 422, 420, 468, 471, 423
265, 421, 469, 472, 424, 422, 470, 473, 425
266, 422, 470, 473, 425, 423, 471, 474, 426
267, 424, 472, 475, 427, 425, 473, 476, 428
268, 425, 473, 476, 428, 426, 474, 477, 429
269, 427, 475, 478, 430, 428, 476, 479, 431
270, 428, 476, 479, 431, 429, 477, 480, 432
271, 433, 481, 482, 434, 435, 483, 484, 436
272, 435, 483, 484, 436, 437, 485, 486, 438
273, 437, 485, 486, 438, 439, 487, 488, 440
274, 439, 487, 488, 440, 441, 489, 490, 442
275, 441, 489, 490, 442, 443, 491, 492, 444
276, 434, 482, 493, 445, 436, 484, 494, 446
277, 436, 484, 494, 446, 438, 486, 495, 447
278, 438, 486, 495, 447, 440, 488, 496, 448
279, 440, 488, 496, 448, 442, 490, 497, 449
280, 442, 490, 497, 449, 444, 492, 498, 450
281, 451, 499, 500, 452, 453, 501, 502, 454
282, 453, 501, 502, 454, 455, 503, 504, 456
283, 452, 500, 505, 457, 454, 502, 506, 458
284, 454, 502, 506, 458, 456, 504, 507, 459
285, 457, 505, 508, 460, 458, 506, 509, 461
286, 458, 506, 509, 461, 459, 507, 510, 462
287, 460, 508, 491, 443, 461, 509, 511, 463
288, 461, 509, 511, 463, 462, 510, 512, 464
289, 443, 491, 492, 444, 463, 511, 513, 465
290, 463, 511, 513, 465, 464, 512, 514, 466
291, 444, 492, 498, 450, 465, 513, 515, 467
292, 465, 513, 515, 467, 466, 514, 516, 468
293, 450, 498, 517, 469, 467, 515, 518, 470
294, 467, 515, 518, 470, 468, 516, 519, 471
295, 469, 517, 520, 472, 470, 518, 521, 473
296, 470, 518, 521, 473, 471, 519, 522, 474
297, 472, 520, 523, 475, 473, 521, 524, 476
298, 473, 521, 524, 476, 474, 522, 525, 477
299, 475, 523, 526, 478, 476, 524, 527, 479
300, 476, 524, 527, 479, 477, 525, 528, 480
301, 481, 529, 530, 482, 483, 531, 532, 484
302, 483, 531, 532, 484, 485, 533, 534, 486
303, 485, 533, 534, 486, 487, 535, 536, 488
304, 487, 535, 536, 488, 489, 537, 538, 490
305, 489, 537, 538, 490, 491, 539, 540, 492
306, 482, 530, 541, 493, 484, 532, 542, 494
307, 484, 532, 542, 494, 486, 534, 543, 495
308, 486, 534, 543, 495, 488, 536, 544, 496
309, 488, 536, 544, 496, 490, 538, 545, 497
310, 490, 538, 545, 497, 492, 540, 546, 498
311, 499, 547, 548, 500, 501, 549, 550, 502
312, 501, 549, 550, 502, 503, 551, 552, 504
313, 500, 548, 553, 505, 502, 550, 554, 506
314, 502, 550, 554, 506, 504, 552, 555, 507
315, 505, 553, 556, 508, 506, 554, 557, 509
316, 506, 554, 557, 509, 507, 555, 558, 510
317, 508, 556, 539, 491, 509, 557, 559, 511
318, 509, 557, 559, 511, 510, 558, 560, 512
319, 491, 539, 540, 492, 511, 559, 561, 513
320, 511, 559, 561, 513, 512, 560, 562, 514
321, 492, 540, 546, 498, 513, 561, 563, 515
322, 513, 561, 563, 515, 514, 562, 564, 516
323, 498, 546, 565, 517, 515, 563, 566, 518
324, 515, 563, 566, 518, 516, 564, 567, 519
325, 517, 565, 568, 520, 518, 566, 569, 521
326, 518, 566, 569, 521, 519, 567, 570, 522
327, 520, 568, 571, 523, 521, 569, 572, 524
328, 521, 569, 572, 524, 522, 570, 573, 525
329, 523, 571, 574, 526, 524, 572, 575, 527
330, 524, 572, 575, 527, 525, 573, 576, 528
331, 529, 577, 578, 530, 531, 579, 580, 532
332, 531, 579, 580, 532, 533, 581, 582, 534
333, 533, 581, 582, 534, 535, 583, 584, 536
334, 535, 583, 584, 536, 537, 585, 586, 538
335, 537, 585, 586, 538, 539, 587, 588, 540
336, 530, 578, 589, 541, 532, 580, 590, 542
337, 532, 580, 590, 542, 534, 582, 591, 543
338, 534, 582, 591, 543, 536, 584, 592, 544
339, 536, 584, 592, 544, 538, 586, 593, 545
340, 538, 586, 593, 545, 540, 588, 594, 546
341, 547, 595, 596, 548, 549, 597, 598, 550
342, 549, 597, 598, 550, 551, 599, 600, 552
343, 548, 596, 601, 553, 550, 598, 602, 554
344, 550, 598, 602, 554, 552, 600, 603, 555
345, 553, 601, 604, 556, 554, 602, 605, 557
346, 554, 602, 605, 557, 555, 603, 606, 558
347, 556, 604, 587, 539, 557, 605, 607, 559
348, 557, 605, 607, 559, 558, 606, 608, 560
349, 539, 587, 588, 540, 559, 607, 609, 561
350, 559, 607, 609, 561, 560, 608, 610, 562
351, 540, 588, 594, 546, 561, 609, 611, 563
352, 561, 609, 611, 563, 562, 610, 612, 564
353, 546, 594, 613, 565, 563, 611, 614, 566
354, 563, 611, 614, 566, 564, 612, 615, 567
355, 565, 613, 616, 568, 566, 614, 617, 569
356, 566, 614, 617, 569, 567, 615, 618, 570
357, 568, 616, 619, 571, 569, 617, 620, 572
358, 569, 617, 620, 572, 570, 618, 621, 573
359, 571, 619, 622, 574, 572, 620, 623, 575
360, 572, 620, 623, 575, 573, 621, 624, 576
361, 577, 625, 626, 578, 579, 627, 628, 580
362, 579, 627, 628, 580, 581, 629, 630, 582
363, 581, 629, 630, 582, 583, 631, 632, 584
364, 583, 631, 632, 584, 585, 633, 634, 586
365, 585, 633, 634, 586, 587, 635, 636, 588
366, 578, 626, 637, 589, 580, 628, 638, 590
367, 580, 628, 638, 590, 582, 630, 639, 591
368, 582, 630, 639, 591, 584, 632, 640, 592
369, 584, 632, 640, 592, 586, 634, 641, 593
370, 586, 634, 641, 593, 588, 636, 642, 594
371, 595, 643, 644, 596, 597, 645, 646, 598
372, 597, 645, 646, 598, 599, 647, 648, 600
373, 596, 644, 649, 601, 598, 646, 650, 602
374, 598, 646, 650, 602, 600, 648, 651, 603
375, 601, 649, 652, 604, 602, 650, 653, 605
376, 602, 650, 653, 605, 603, 651, 654, 606
377, 604, 652, 635, 587, 605, 653, 655, 607
378, 605, 653, 655, 607, 606, 654, 656, 608
379, 587, 635, 636, 588, 607, 655, 657, 609
380, 607, 655, 657, 609, 608, 656, 658, 610
381, 588, 636, 642, 594, 609, 657, 659, 611
382, 609, 657, 659, 611, 610, 658, 660, 612
383, 594, 642, 661, 613, 611, 659, 662, 614
384, 611, 659, 662, 614, 612, 660, 663, 615
385, 613, 661, 664, 616, 614, 662, 665, 617
386, 614, 662, 665, 617, 615, 663, 666, 618
387, 616, 664, 667, 619, 617, 665, 668, 620
388, 617, 665, 668, 620, 618, 666, 669, 621
389, 619, 667, 670, 622, 620, 668, 671, 623
390, 620, 668, 671, 623, 621, 669, 672, 624
391, 625, 673, 674, 626, 627, 675, 676, 628
392, 627, 675, 676, 628, 629, 677, 678, 630
393, 629, 677, 678, 630, 631, 679, 680, 632
394, 631, 679, 680, 632, 633, 681, 682, 634
395, 633, 681, 682, 634, 635, 683, 684, 636
396, 626, 674, 685, 637, 628, 676, 686, 638
397, 628, 676, 686, 638, 630, 678, 687, 639
398, 630, 678, 687, 639, 632, 680, 688, 640
399, 632, 680, 688, 640, 634, 682, 689, 641
400, 634, 682, 689, 641, 636, 684, 690, 642
401, 643, 691, 692, 644, 645, 693, 694, 646
402, 645, 693, 694, 646, 647, 695, 696, 648
403, 644, 692, 697, 649, 646, 694, 698, 650
404, 646, 694, 698, 650, 648, 696, 699, 651
405, 649, 697, 700, 652, 650, 698, 701, 653
406, 650, 698, 701, 653, 651, 699, 702, 654
407, 652, 700, 683, 635, 653, 701, 703, 655
408, 653, 701, 703, 655, 654, 702, 704, 656
409, 635, 683, 684, 636, 655, 703, 705, 657
410, 655, 703, 705, 657, 656, 704, 706, 658
411, 636, 684, 690, 642, 657, 705, 707, 659
412, 657, 705, 707, 659, 658, 706, 708, 660
413, 642, 690, 709, 661, 659, 707, 710, 662
414, 659, 707, 710, 662, 660, 708, 711, 663
415, 661, 709, 712, 664, 662, 710, 713, 665
416, 662, 710, 713, 665, 663, 711, 714, 666
417, 664, 712, 715, 667, 665, 713, 716, 668
418, 665, 713, 716, 668, 666, 714, 717, 669
419, 667, 715, 718, 670, 668, 716, 719, 671
420, 668, 716, 719, 671, 669, 717, 720, 672
421, 673, 721, 722, 674, 675, 723, 724, 676
422, 675, 723, 724, 676, 677, 725, 726, 678
423, 677, 725, 726, 678, 679, 727, 728, 680
424, 679, 727, 728, 680, 681, 729, 730, 682
425, 681, 729, 730, 682, 683, 731, 732, 684
426, 674, 722, 733, 685, 676, 724, 734, 686
427, 676, 724, 734, 686, 678, 726, 735, 687
428, 678, 726, 735, 687, 680, 728, 736, 688
429, 680, 728, 736, 688, 682, 730, 737, 689
430, 682, 730, 737, 689, 684, 732, 738, 690
431, 691, 739, 740, 692, 693, 741, 742, 694
432, 693, 741, 742, 694, 695, 743, 744, 696
433, 692, 740, 745, 697, 694, 742, 746, 698
434, 694, 742, 746, 698, 696, 744, 747, 699
435, 697, 745, 748, 700, 698, 746, 749, 701
436, 698, 746, 749, 701, 699, 747, 750, 702
437, 700, 748, 731, 683, 701, 749, 751, 703
438, 701, 749, 751, 703, 702, 750, 752, 704
439, 683, 731, 732, 684, 703, 751, 753, 705
440, 703, 751, 753, 705, 704, 752, 754, 706
441, 684, 732, 738, 690, 705, 753, 755, 707
442, 705, 753, 755, 707, 706, 754, 756, 708
443, 690, 738, 757, 709, 707, 755, 758, 710
444, 707, 755, 758, 710, 708, 756, 759, 711
445, 709, 757, 760, 712, 710, 758, 761, 713
446, 710, 758, 761, 713, 711, 759, 762, 714
447, 712, 760, 763, 715, 713, 761, 764, 716
448, 713, 761, 764, 716, 714, 762, 765, 717
449, 715, 763, 766, 718, 716, 764, 767, 719
450, 716, 764, 767, 719, 717, 765, 768, 720
451, 721, 769, 770, 722, 723, 771, 772, 724
452, 723, 771, 772, 724, 725, 773, 774, 726
453, 725, 773, 774, 726, 727, 775, 776, 728
454, 727, 775, 776, 728, 729, 777, 778, 730
455, 729, 777, 778, 730, 731, 779, 780, 732
456, 722, 770, 781, 733, 724, 772, 782, 734
457, 724, 772, 782, 734, 726, 774, 783, 735
458, 726, 774, 783, 735, 728, 776, 784, 736
459, 728, 776, 784, 736, 730, 778, 785, 737
460, 730, 778, 785, 737, 732, 780, 786, 738
461, 739, 787, 788, 740, 741, 789, 790, 742
462, 741, 789, 790, 742, 743, 791, 792, 744
463, 740, 788, 793, 745, 742, 790, 794, 746
464, 742, 790, 794, 746, 744, 792, 795, 747
465, 745, 793, 796, 748, 746, 794, 797, 749
466, 746, 794, 797, 749, 747, 795, 798, 750
467, 748, 796, 779, 731, 749, 797, 799, 751
468, 749, 797, 799, 751, 750, 798, 800, 752
469, 731, 779, 780, 732, 751, 799, 801, 753
470, 751, 799, 801, 753, 752, 800, 802, 754
471, 732, 780, 786, 738, 753, 801, 803, 755
472, 753, 801, 803, 755, 754, 802, 804, 756
473, 738, 786, 805, 757, 755, 803, 806, 758
474, 755, 803, 806, 758, 756, 804, 807, 759
475, 757, 805, 808, 760, 758, 806, 809, 761
476, 758, 806, 809, 761, 759, 807, 810, 762
477, 760, 808, 811, 763, 761, 809, 812, 764
478, 761, 809, 812, 764, 762, 810, 813, 765
479, 763, 811, 814, 766, 764, 812, 815, 767
480, 764, 812, 815, 767, 765, 813, 816, 768
481, 769, 817, 818, 770, 771, 819, 820, 772
482, 771, 819, 820, 772, 773, 821, 822, 774
483, 773, 821, 822, 774, 775, 823, 824, 776
484, 775, 823, 824, 776, 777, 825, 826, 778
485, 777, 825, 826, 778, 779, 827, 828, 780
486, 770, 818, 829, 781, 772, 820, 830, 782
487, 772, 820, 830, 782, 774, 822, 831, 783
488, 774, 822, 831, 783, 776, 824, 832, 784
489, 776, 824, 832, 784, 778, 826, 833, 785
490, 778, 826, 833, 785, 780, 828, 834, 786
491, 787, 835, 836, 788, 789, 837, 838, 790
492, 789, 837, 838, 790, 791, 839, 840, 792
493, 788, 836, 841, 793, 790, 838, 842, 794
494, 790, 838, 842, 794, 792, 840, 843, 795
495, 793, 841, 844, 796, 794, 842, 845, 797
496, 794, 842, 845, 797, 795, 843, 846, 798
497, 796, 844, 827, 779, 797, 845, 847, 799
498, 797, 845, 847, 799, 798, 846, 848, 800
499, 779, 827, 828, 780, 799, 847, 849, 801
500, 799, 847, 849, 801, 800, 848, 850, 802
501, 780, 828, 834, 786, 801, 849, 851, 803
502, 801, 849, 851, 803, 802, 850, 852, 804
503, 786, 834, 853, 805, 803, 851, 854, 806
504, 803, 851, 854, 806, 804, 852, 855, 807
505, 805, 853, 856, 808, 806, 854, 857, 809
506, 806, 854, 857, 809, 807, 855, 858, 810
507, 808, 856, 859, 811, 809, 857, 860, 812
508, 809, 857, 860, 812, 810, 858, 861, 813
509, 811, 859, 862, 814, 812, 860, 863, 815
510, 812, 860, 863, 815, 813, 861, 864, 816
511, 817, 865, 866, 818, 819, 867, 868, 820
512, 819, 867, 868, 820, 821, 869, 870, 822
513, 821, 869, 870, 822, 823, 871, 872, 824
514, 823, 871, 872, 824, 825, 873, 874, 826
515, 825, 873, 874, 826, 827, 875, 876, 828
516, 818, 866, 877, 829, 820, 868, 878, 830
517, 820, 868, 878, 830, 822, 870, 879, 831
518, 822, 870, 879, 831, 824, 872, 880, 832
519, 824, 872, 880, 832, 826, 874, 881, 833
520, 826, 874, 881, 833, 828, 876, 882, 834
521, 835, 883, 884, 836, 837, 885, 886, 838
522, 837, 885, 886, 838, 839, 887, 888, 840
523, 836, 884, 889, 841, 838, 886, 890, 842
524, 838, 886, 890, 842, 840, 888, 891, 843
525, 841, 889, 892, 844, 842, 890, 893, 845
526, 842, 890, 893, 845, 843, 891, 894, 846
527, 844, 892, 875, 827, 845, 893, 895, 847
528, 845, 893, 895, 847, 846, 894, 896, 848
529, 827, 875, 876, 828, 847, 895, 897, 849
530, 847, 895, 897, 849, 848, 896, 898, 850
531, 828, 876, 882, 834, 849, 897, 899, 851
532, 849, 897, 899, 851, 850, 898, 900, 852
533, 834, 882, 901, 853, 851, 899, 902, 854
534, 851, 899, 902, 854, 852, 900, 903, 855
535, 853, 901, 904, 856, 854, 902, 905, 857
536, 854, 902, 905, 857, 855, 903, 906, 858
537, 856, 904, 907, 859, 857, 905, 908, 860
538, 857, 905, 908, 860, 858, 906, 909, 861
539, 859, 907, 910, 862, 860, 908, 911, 863
540, 860, 908, 911, 863, 861, 909, 912, 864
541, 865, 913, 914, 866, 867, 915, 916, 868
542, 867, 915, 916, 868, 869, 917, 918, 870
543, 869, 917, 918, 870, 871, 919, 920, 872
544, 871, 919, 920, 872, 873, 921, 922, 874
545, 873, 921, 922, 874, 875, 923, 924, 876
546, 866, 914, 925, 877, 868, 916, 926, 878
547, 868, 916, 926, 878, 870, 918, 927, 879
548, 870, 918, 927, 879, 872, 920, 928, 880
549, 872, 920, 928, 880, 874, 922, 929, 881
550, 874, 922, 929, 881, 876, 924, 930, 882
551, 883, 931, 932, 884, 885, 933, 934, 886
552, 885, 933, 934, 886, 887, 935, 936, 888
553, 884, 932, 937, 889, 886, 934, 938, 890
554, 886, 934, 938, 890, 888, 936, 939, 891
555, 889, 937, 940, 892, 890, 938, 941, 893
556, 890, 938, 941, 893, 891, 939, 942, 894
557, 892, 940, 923, 875, 893, 941, 943, 895
558, 893, 941, 943, 895, 894, 942, 944, 896
559, 875, 923, 924, 876, 895, 943, 945, 897
560, 895, 943, 945, 897, 896, 944, 946, 898
561, 876, 924, 930, 882, 897, 945, 947, 899
562, 897, 945, 947, 899, 898, 946, 948, 900
563, 882, 930, 949, 901, 899, 947, 950, 902
564, 899, 947, 950, 902, 900, 948, 951, 903
565, 901, 949, 952, 904, 902, 950, 953, 905
566, 902, 950, 953, 905, 903, 951, 954, 906
567, 904, 952, 955, 907, 905, 953, 956, 908
568, 905, 953, 956, 908, 906, 954, 957, 909
569, 907, 955, 958, 910, 908, 956, 959, 911
570, 908, 956, 959, 911, 909, 957, 960, 912
571, 913, 961, 962, 914, 915, 963, 964, 916
572, 915, 963, 964, 916, 917, 965, 966, 918
573, 917, 965, 966, 918, 919, 967, 968, 920
574, 919, 967, 968, 920, 921, 969, 970, 922
575, 921, 969, 970, 922, 923, 971, 972, 924
576, 914, 962, 973, 925, 916, 964, 974, 926
577, 916, 964, 974, 926, 918, 966, 975, 927
578, 918, 966, 975, 927, 920, 968, 976, 928
579, 920, 968, 976, 928, 922, 970, 977, 929
580, 922, 970, 977, 929, 924, 972, 978, 930
581, 931, 979, 980, 932, 933, 981, 982, 934
582, 933, 981, 982, 934, 935, 983, 984, 936
583, 932, 980, 985, 937, 934, 982, 986, 938
584, 934, 982, 986, 938, 936, 984, 987, 939
585, 937, 985, 988, 940, 938, 986, 989, 941
586, 938, 986, 989, 941, 939, 987, 990, 942
587, 940, 988, 971, 923, 941, 989, 991, 943
588, 941, 989, 991, 943, 942, 990, 992, 944
589, 923, 971, 972, 924, 943, 991, 993, 945
590, 943, 991, 993, 945, 944, 992, 994, 946
591, 924, 972, 978, 930, 945, 993, 995, 947
592, 945, 993, 995, 947, 946, 994, 996, 948
593, 930, 978, 997, 949, 947, 995, 998, 950
594, 947, 995, 998, 950, 948, 996, 999, 951
595, 949, 997, 1000, 952, 950, 998, 1001, 953
596, 950, 998, 1001, 953, 951, 999, 1002, 954
597, 952, 1000, 1003, 955, 953, 1001, 1004, 956
598, 953, 1001, 1004, 956, 954, 1002, 1005, 957
599, 955, 1003, 1006, 958, 956, 1004, 1007, 959
600, 956, 1004, 1007, 959, 957, 1005, 1008, 960
601, 961, 1009, 1010, 962, 963, 1011, 1012, 964
602, 963, 1011, 1012, 964, 965, 1013, 1014, 966
603, 965, 1013, 1014, 966, 967, 1015, 1016, 968
604, 967, 1015, 1016, 968, 969, 1017, 1018, 970
605, 969, 1017, 1018, 970, 971, 1019, 1020, 972
606, 962, 1010, 1021, 973, 964, 1012, 1022, 974
607, 964, 1012, 1022, 974, 966, 1014, 1023, 975
608, 966, 1014, 1023, 975, 968, 1016, 1024, 976
609, 968, 1016, 1024, 976, 970, 1018, 1025, 977
610, 970, 1018, 1025, 977, 972, 1020, 1026, 978
611, 979, 1027, 1028, 980, 981, 1029, 1030, 982
612, 981, 1029, 1030, 982, 983, 1031, 1032, 984
613, 980, 1028, 1033, 985, 982, 1030, 1034, 986
614, 982, 1030, 1034, 986, 984, 1032, 1035, 987
615, 985, 1033, 1036, 988, 986, 1034, 1037, 989
616, 986, 1034, 1037, 989, 987, 1035, 1038, 990
617, 988, 1036, 1019, 971, 989, 1037, 1039, 991
618, 989, 1037, 1039, 991, 990, 1038, 1040, 992
619, 971, 1019, 1020, 972, 991, 1039, 1041, 993
620, 991, 1039, 1041, 993, 992, 1040, 1042, 994
621, 972, 1020, 1026, 978, 993, 1041, 1043, 995
622, 993, 1041, 1043, 995, 994, 1042, 1044, 996
623, 978, 1026, 1045, 997, 995, 1043, 1046, 998
624, 995, 1043, 1046, 998, 996, 1044, 1047, 999
625, 997, 1045, 1048, 1000, 998, 1046, 1049, 1001
626, 998, 1046, 1049, 1001, 999, 1047, 1050, 1002
627, 1000, 1048, 1051, 1003, 1001, 1049, 1052, 1004
628, 1001, 1049, 1052, 1004, 1002, 1050, 1053, 1005
629, 1003, 1051, 1054, 1006, 1004, 1052, 1055, 1007
630, 1004, 1052, 1055, 1007, 1005, 1053, 1056, 1008
631, 1009, 1057, 1058, 1010, 1011, 1059, 1060, 1012
632, 1011, 1059, 1060, 1012, 1013, 1061, 1062, 1014
633, 1013, 1061, 1062, 1014, 1015, 1063, 1064, 1016
634, 1015, 1063, 1064, 1016, 1017, 1065, 1066, 1018
635, 1017, 1065, 1066, 1018, 1019, 1067, 1068, 1020
636, 1010, 1058, 1069, 1021, 1012, 1060, 1070, 1022
637, 1012, 1060, 1070, 1022, 1014, 1062, 1071, 1023
638, 1014, 1062, 1071, 1023, 1016, 1064, 1072, 1024
639, 1016, 1064, 1072, 1024, 1018, 1066, 1073, 1025
640, 1018, 1066, 1073, 1025, 1020, 1068, 1074, 1026
641, 1027, 1075, 1076, 1028, 1029, 1077, 1078, 1030
642, 1029, 1077, 1078, 1030, 1031, 1079, 1080, 1032
643, 1028, 1076, 1081, 1033, 1030, 1078, 1082, 1034
644, 1030, 1078, 1082, 1034, 1032, 1080, 1083, 1035
645, 1033, 1081, 1084, 1036, 1034, 1082, 1085, 1037
646, 1034, 1082, 1085, 1037, 1035, 1083, 1086, 1038
647, 1036, 1084, 1067, 1019, 1037, 1085, 1087, 1039
648, 1037, 1085, 1087, 1039, 1038, 1086, 1088, 1040
649, 1019, 1067, 1068, 1020, 1039, 1087, 1089, 1041
650, 1039, 1087, 1089, 1041, 1040, 1088, 1090, 1042
651, 1020, 1068, 1074, 1026, 1041, 1089, 1091, 1043
652, 1041, 1089, 1091, 1043, 1042, 1090, 1092, 1044
653, 1026, 1074, 1093, 1045, 1043, 1091, 1094, 1046
654, 1043, 1091, 1094, 1046, 1044, 1092, 1095, 1047
655, 1045, 1093, 1096, 1048, 1046, 1094, 1097, 1049
656, 1046, 1094, 1097, 1049, 1047, 1095, 1098, 1050
657, 1048, 1096, 1099, 1051, 1049, 1097, 1100, 1052
658, 1049, 1097, 1100, 1052, 1050, 1098, 1101, 1053
659, 1051, 1099, 1102, 1054, 1052, 1100, 1103, 1055
660, 1052, 1100, 1103, 1055, 1053, 1101, 1104, 1056
661, 1057, 1105, 1106, 1058, 1059, 1107, 1108, 1060
662, 1059, 1107, 1108, 1060, 1061, 1109, 1110, 1062
663, 1061, 1109, 1110, 1062, 1063, 1111, 1112, 1064
664, 1063, 1111, 1112, 1064, 1065, 1113, 1114, 1066
665, 1065, 1113, 1114, 1066, 1067, 1115, 1116, 1068
666, 1058, 1106, 1117, 1069, 1060, 1108, 1118, 1070
667, 1060, 1108, 1118, 1070, 1062, 1110, 1119, 1071
668, 1062, 1110, 1119, 1071, 1064, 1112, 1120, 1072
669, 1064, 1112, 1120, 1072, 1066, 1114, 1121, 1073
670, 1066, 1114, 1121, 1073, 1068, 1116, 1122, 1074
671, 1075, 1123, 1124, 1076, 1077, 1125, 1126, 1078
672, 1077, 1125, 1126, 1078, 1079, 1127, 1128, 1080
673, 1076, 1124, 1129, 1081, 1078, 1126, 1130, 1082
674, 1078, 1126, 1130, 1082, 1080, 1128, 1131, 1083
675, 1081, 1129, 1132, 1084, 1082, 1130, 1133, 1085
676, 1082, 1130, 1133, 1085, 1083, 1131, 1134, 1086
677, 1084, 1132, 1115, 1067, 1085, 1133, 1135, 1087
678, 1085, 1133, 1135, 1087, 1086, 1134, 1136, 1088
679, 1067, 1115, 1116, 1068, 1087, 1135, 1137, 1089
680, 1087, 1135, 1137, 1089, 1088, 1136, 1138, 1090
681, 1068, 1116, 1122, 1074, 1089, 1137, 1139, 1091
682, 1089, 1137, 1139, 1091, 1090, 1138, 1140, 1092
683, 1074, 1122, 1141, 1093, 1091, 1139, 1142, 1094
684, 1091, 1139, 1142, 1094, 1092, 1140, 1143, 1095
685, 1093, 1141, 1144, 1096, 1094, 1142, 1145, 1097
686, 1094, 1142, 1145, 1097, 1095, 1143, 1146, 1098
687, 1096, 1144, 1147, 1099, 1097, 1145, 1148, 1100
688, 1097, 1145, 1148, 1100, 1098, 1146, 1149, 1101
689, 1099, 1147, 1150, 1102, 1100, 1148, 1151, 1103
690, 1100, 1148, 1151, 1103, 1101, 1149, 1152, 1104
691, 1105, 1153, 1154, 1106, 1107, 1155, 1156, 1108
692, 1107, 1155, 1156, 1108, 1109, 1157, 1158, 1110
693, 1109, 1157, 1158, 1110, 1111, 1159, 1160, 1112
694, 1111, 1159, 1160, 1112, 1113, 1161, 1162, 1114
695, 1113, 1161, 1162, 1114, 1115, 1163, 1164, 1116
696, 1106, 1154, 1165, 1117, 1108, 1156, 1166, 1118
697, 1108, 1156, 1166, 1118, 1110, 1158, 1167, 1119
698, 1110, 1158, 1167, 1119, 1112, 1160, 1168, 1120
699, 1112, 1160, 1168, 1120, 1114, 1162, 1169, 1121
700, 1114, 1162, 1169, 1121, 1116, 1164, 1170, 1122
701, 1123, 1171, 1172, 1124, 1125, 1173, 1174, 1126
702, 1125, 1173, 1174, 1126, 1127, 1175, 1176, 1128
703, 1124, 1172, 1177, 1129, 1126, 1174, 1178, 1130
704, 1126, 1174, 1178, 1130, 1128, 1176, 1179, 1131
705, 1129, 1177, 1180, 1132, 1130, 1178, 1181, 1133
706, 1130, 1178, 1181, 1133, 1131, 1179, 1182, 1134
707, 1132, 1180, 1163, 1115, 1133, 1181, 1183, 1135
708, 1133, 1181, 1183, 1135, 1134, 1182, 1184, 1136
709, 1115, 1163, 1164, 1116, 1135, 1183, 1185, 1137
710, 1135, 1183, 1185, 1137, 1136, 1184, 1186, 1138
711, 1116, 1164, 1170, 1122, 1137, 1185, 1187, 1139
712, 1137, 1185, 1187, 1139, 1138, 1186, 1188, 1140
713, 1122, 1170, 1189, 1141, 1139, 1187, 1190, 1142
714, 1139, 1187, 1190, 1142, 1140, 1188, 1191, 1143
715, 1141, 1189, 1192, 1144, 1142, 1190, 1193, 1145
716, 1142, 1190, 1193, 1145, 1143, 1191, 1194, 1146
717, 1144, 1192, 1195, 1147, 1145, 1193, 1196, 1148
718, 1145, 1193, 1196, 1148, 1146, 1194, 1197, 1149
719, 1147, 1195, 1198, 1150, 1148, 1196, 1199, 1151
720, 1148, 1196, 1199, 1151, 1149, 1197, 1200, 1152
*NSET, NSET=CLAMP
1, 4, 5, 8, 9, 12, 13, 16, 17, 20, 21, 24, 26, 28, 30, 32
34, 36, 37, 40, 41, 44, 45, 48, 50, 52, 54, 56, 58, 60, 62, 64
66, 68, 70, 72, 74, 76, 78, 80, 82, 84, 86, 88, 90, 92, 94, 96
*NSET, NSET=TIP_TOP
1175, 1176, 1179, 1182, 1184, 1186, 1188, 1191, 1194, 1197, 1200
*NSET, NSET=TIP_FLANGE
1175, 1176, 1179, 1182, 1184, 1186, 1188, 1191, 1194, 1197, 1200
*MATERIAL, NAME=STEEL
*ELASTIC
210000, 0.3
*SOLID SECTION, ELSET=EALL, MATERIAL=STEEL
*BOUNDARY
CLAMP, 1, 3, 0.0
*STEP
*STATIC
*CLOAD
1175, 3, -454.545454545
1176, 3, -454.545454545
1179, 3, -454.545454545
1182, 3, -454.545454545
1184, 3, -454.545454545
1186, 3, -454.545454545
1188, 3, -454.545454545
1191, 3, -454.545454545
1194, 3, -454.545454545
1197, 3, -454.545454545
1200, 3, -454.545454545
*NODE FILE
U
*EL FILE
S, ENER
*NODE PRINT, NSET=TIP_TOP
U
*NODE PRINT, NSET=CLAMP
RF
*EL PRINT, ELSET=EALL
ELSE
*ENERGY PRINT
*END STEP
