*HEADING
T08 S-LIN t08_s-lin_rev1 conforming C3D8 frozen T
units: mm, N, s, MPa, t. Illustrative steel, not a coupon card.
beam=T08 case=S-LIN job=t08_s-lin_rev1 type=C3D8
E=210000.0 nu=0.3 fy=235.0 load=-5000.0 N on TIP_TOP
*NODE, NSET=NALL
1, 0, -16, 0
2, 56.6940699182, -15.7165296504, 3.54337936989
3, 56.6940699182, 0, 3.54337936989
4, 0, 0, 0
5, 0, -16, 42
6, 56.6940699182, -15.7165296504, 44.8347034959
7, 56.6940699182, 0, 44.8347034959
8, 0, 0, 42
9, 0, -16, 84
10, 56.6940699182, -15.7165296504, 86.1260276219
11, 56.6940699182, 0, 86.1260276219
12, 0, 0, 84
13, 0, -16, 126
14, 56.6940699182, -15.7165296504, 127.417351748
15, 56.6940699182, 0, 127.417351748
16, 0, 0, 126
17, 0, -16, 168
18, 56.6940699182, -15.7165296504, 168.708675874
19, 56.6940699182, 0, 168.708675874
20, 0, 0, 168
21, 0, -16, 210
22, 56.6940699182, -15.7165296504, 210
23, 56.6940699182, 0, 210
24, 0, 0, 210
25, 56.6940699182, 15.7165296504, 3.54337936989
26, 0, 16, 0
27, 56.6940699182, 15.7165296504, 44.8347034959
28, 0, 16, 42
29, 56.6940699182, 15.7165296504, 86.1260276219
30, 0, 16, 84
31, 56.6940699182, 15.7165296504, 127.417351748
32, 0, 16, 126
33, 56.6940699182, 15.7165296504, 168.708675874
34, 0, 16, 168
35, 56.6940699182, 15.7165296504, 210
36, 0, 16, 210
37, 0, -170, 210
38, 56.6940699182, -167.307031679, 210
39, 56.6940699182, -129.409406172, 210
40, 0, -131.5, 210
41, 0, -170, 220
42, 56.6940699182, -167.307031679, 220
43, 56.6940699182, -129.409406172, 220
44, 0, -131.5, 220
45, 0, -170, 230
46, 56.6940699182, -167.307031679, 230
47, 56.6940699182, -129.409406172, 230
48, 0, -131.5, 230
49, 56.6940699182, -91.5117806646, 210
50, 0, -93, 210
51, 56.6940699182, -91.5117806646, 220
52, 0, -93, 220
53, 56.6940699182, -91.5117806646, 230
54, 0, -93, 230
55, 56.6940699182, -53.6141551575, 210
56, 0, -54.5, 210
57, 56.6940699182, -53.6141551575, 220
58, 0, -54.5, 220
59, 56.6940699182, -53.6141551575, 230
60, 0, -54.5, 230
61, 56.6940699182, -15.7165296504, 220
62, 0, -16, 220
63, 56.6940699182, -15.7165296504, 230
64, 0, -16, 230
65, 56.6940699182, 0, 220
66, 0, 0, 220
67, 56.6940699182, 0, 230
68, 0, 0, 230
69, 56.6940699182, 15.7165296504, 220
70, 0, 16, 220
71, 56.6940699182, 15.7165296504, 230
72, 0, 16, 230
73, 56.6940699182, 53.6141551575, 210
74, 0, 54.5, 210
75, 56.6940699182, 53.6141551575, 220
76, 0, 54.5, 220
77, 56.6940699182, 53.6141551575, 230
78, 0, 54.5, 230
79, 56.6940699182, 91.5117806646, 210
80, 0, 93, 210
81, 56.6940699182, 91.5117806646, 220
82, 0, 93, 220
83, 56.6940699182, 91.5117806646, 230
84, 0, 93, 230
85, 56.6940699182, 129.409406172, 210
86, 0, 131.5, 210
87, 56.6940699182, 129.409406172, 220
88, 0, 131.5, 220
89, 56.6940699182, 129.409406172, 230
90, 0, 131.5, 230
91, 56.6940699182, 167.307031679, 210
92, 0, 170, 210
93, 56.6940699182, 167.307031679, 220
94, 0, 170, 220
95, 56.6940699182, 167.307031679, 230
96, 0, 170, 230
97, 115.582041309, -15.4220897935, 7.22387758181
98, 115.582041309, 0, 7.22387758181
99, 115.582041309, -15.4220897935, 47.7791020654
100, 115.582041309, 0, 47.7791020654
101, 115.582041309, -15.4220897935, 88.3343265491
102, 115.582041309, 0, 88.3343265491
103, 115.582041309, -15.4220897935, 128.889551033
104, 115.582041309, 0, 128.889551033
105, 115.582041309, -15.4220897935, 169.444775516
106, 115.582041309, 0, 169.444775516
107, 115.582041309, -15.4220897935, 210
108, 115.582041309, 0, 210
109, 115.582041309, 15.4220897935, 7.22387758181
110, 115.582041309, 15.4220897935, 47.7791020654
111, 115.582041309, 15.4220897935, 88.3343265491
112, 115.582041309, 15.4220897935, 128.889551033
113, 115.582041309, 15.4220897935, 169.444775516
114, 115.582041309, 15.4220897935, 210
115, 115.582041309, -164.509853038, 210
116, 115.582041309, -127.237912227, 210
117, 115.582041309, -164.509853038, 220
118, 115.582041309, -127.237912227, 220
119, 115.582041309, -164.509853038, 230
120, 115.582041309, -127.237912227, 230
121, 115.582041309, -89.9659714156, 210
122, 115.582041309, -89.9659714156, 220
123, 115.582041309, -89.9659714156, 230
124, 115.582041309, -52.6940306045, 210
125, 115.582041309, -52.6940306045, 220
126, 115.582041309, -52.6940306045, 230
127, 115.582041309, -15.4220897935, 220
128, 115.582041309, -15.4220897935, 230
129, 115.582041309, 0, 220
130, 115.582041309, 0, 230
131, 115.582041309, 15.4220897935, 220
132, 115.582041309, 15.4220897935, 230
133, 115.582041309, 52.6940306045, 210
134, 115.582041309, 52.6940306045, 220
135, 115.582041309, 52.6940306045, 230
136, 115.582041309, 89.9659714156, 210
137, 115.582041309, 89.9659714156, 220
138, 115.582041309, 89.9659714156, 230
139, 115.582041309, 127.237912227, 210
140, 115.582041309, 127.237912227, 220
141, 115.582041309, 127.237912227, 230
142, 115.582041309, 164.509853038, 210
143, 115.582041309, 164.509853038, 220
144, 115.582041309, 164.509853038, 230
145, 176.548532596, -15.117257337, 11.0342832872
146, 176.548532596, 0, 11.0342832872
147, 176.548532596, -15.117257337, 50.8274266298
148, 176.548532596, 0, 50.8274266298
149, 176.548532596, -15.117257337, 90.6205699723
150, 176.548532596, 0, 90.6205699723
151, 176.548532596, -15.117257337, 130.413713315
152, 176.548532596, 0, 130.413713315
153, 176.548532596, -15.117257337, 170.206856657
154, 176.548532596, 0, 170.206856657
155, 176.548532596, -15.117257337, 210
156, 176.548532596, 0, 210
157, 176.548532596, 15.117257337, 11.0342832872
158, 176.548532596, 15.117257337, 50.8274266298
159, 176.548532596, 15.117257337, 90.6205699723
160, 176.548532596, 15.117257337, 130.413713315
161, 176.548532596, 15.117257337, 170.206856657
162, 176.548532596, 15.117257337, 210
163, 176.548532596, -161.613944702, 210
164, 176.548532596, -124.989772861, 210
165, 176.548532596, -161.613944702, 220
166, 176.548532596, -124.989772861, 220
167, 176.548532596, -161.613944702, 230
168, 176.548532596, -124.989772861, 230
169, 176.548532596, -88.3656010194, 210
170, 176.548532596, -88.3656010194, 220
171, 176.548532596, -88.3656010194, 230
172, 176.548532596, -51.7414291782, 210
173, 176.548532596, -51.7414291782, 220
174, 176.548532596, -51.7414291782, 230
175, 176.548532596, -15.117257337, 220
176, 176.548532596, -15.117257337, 230
177, 176.548532596, 0, 220
178, 176.548532596, 0, 230
179, 176.548532596, 15.117257337, 220
180, 176.548532596, 15.117257337, 230
181, 176.548532596, 51.7414291782, 210
182, 176.548532596, 51.7414291782, 220
183, 176.548532596, 51.7414291782, 230
184, 176.548532596, 88.3656010194, 210
185, 176.548532596, 88.3656010194, 220
186, 176.548532596, 88.3656010194, 230
187, 176.548532596, 124.989772861, 210
188, 176.548532596, 124.989772861, 220
189, 176.548532596, 124.989772861, 230
190, 176.548532596, 161.613944702, 210
191, 176.548532596, 161.613944702, 220
192, 176.548532596, 161.613944702, 230
193, 236.912507097, -14.8154374645, 14.8070316935
194, 236.912507097, 0, 14.8070316935
195, 236.912507097, -14.8154374645, 53.8456253548
196, 236.912507097, 0, 53.8456253548
197, 236.912507097, -14.8154374645, 92.8842190161
198, 236.912507097, 0, 92.8842190161
199, 236.912507097, -14.8154374645, 131.922812677
200, 236.912507097, 0, 131.922812677
201, 236.912507097, -14.8154374645, 170.961406339
202, 236.912507097, 0, 170.961406339
203, 236.912507097, -14.8154374645, 210
204, 236.912507097, 0, 210
205, 236.912507097, 14.8154374645, 14.8070316935
206, 236.912507097, 14.8154374645, 53.8456253548
207, 236.912507097, 14.8154374645, 92.8842190161
208, 236.912507097, 14.8154374645, 131.922812677
209, 236.912507097, 14.8154374645, 170.961406339
210, 236.912507097, 14.8154374645, 210
211, 236.912507097, -158.746655913, 210
212, 236.912507097, -122.763851301, 210
213, 236.912507097, -158.746655913, 220
214, 236.912507097, -122.763851301, 220
215, 236.912507097, -158.746655913, 230
216, 236.912507097, -122.763851301, 230
217, 236.912507097, -86.7810466887, 210
218, 236.912507097, -86.7810466887, 220
219, 236.912507097, -86.7810466887, 230
220, 236.912507097, -50.7982420766, 210
221, 236.912507097, -50.7982420766, 220
222, 236.912507097, -50.7982420766, 230
223, 236.912507097, -14.8154374645, 220
224, 236.912507097, -14.8154374645, 230
225, 236.912507097, 0, 220
226, 236.912507097, 0, 230
227, 236.912507097, 14.8154374645, 220
228, 236.912507097, 14.8154374645, 230
229, 236.912507097, 50.7982420766, 210
230, 236.912507097, 50.7982420766, 220
231, 236.912507097, 50.7982420766, 230
232, 236.912507097, 86.7810466887, 210
233, 236.912507097, 86.7810466887, 220
234, 236.912507097, 86.7810466887, 230
235, 236.912507097, 122.763851301, 210
236, 236.912507097, 122.763851301, 220
237, 236.912507097, 122.763851301, 230
238, 236.912507097, 158.746655913, 210
239, 236.912507097, 158.746655913, 220
240, 236.912507097, 158.746655913, 230
241, 296.785059625, -14.5160747019, 18.5490662265
242, 296.785059625, 0, 18.5490662265
243, 296.785059625, -14.5160747019, 56.8392529812
244, 296.785059625, 0, 56.8392529812
245, 296.785059625, -14.5160747019, 95.1294397359
246, 296.785059625, 0, 95.1294397359
247, 296.785059625, -14.5160747019, 133.419626491
248, 296.785059625, 0, 133.419626491
249, 296.785059625, -14.5160747019, 171.709813245
250, 296.785059625, 0, 171.709813245
251, 296.785059625, -14.5160747019, 210
252, 296.785059625, 0, 210
253, 296.785059625, 14.5160747019, 18.5490662265
254, 296.785059625, 14.5160747019, 56.8392529812
255, 296.785059625, 14.5160747019, 95.1294397359
256, 296.785059625, 14.5160747019, 133.419626491
257, 296.785059625, 14.5160747019, 171.709813245
258, 296.785059625, 14.5160747019, 210
259, 296.785059625, -155.902709668, 210
260, 296.785059625, -120.556050926, 210
261, 296.785059625, -155.902709668, 220
262, 296.785059625, -120.556050926, 220
263, 296.785059625, -155.902709668, 230
264, 296.785059625, -120.556050926, 230
265, 296.785059625, -85.2093921848, 210
266, 296.785059625, -85.2093921848, 220
267, 296.785059625, -85.2093921848, 230
268, 296.785059625, -49.8627334434, 210
269, 296.785059625, -49.8627334434, 220
270, 296.785059625, -49.8627334434, 230
271, 296.785059625, -14.5160747019, 220
272, 296.785059625, -14.5160747019, 230
273, 296.785059625, 0, 220
274, 296.785059625, 0, 230
275, 296.785059625, 14.5160747019, 220
276, 296.785059625, 14.5160747019, 230
277, 296.785059625, 49.8627334434, 210
278, 296.785059625, 49.8627334434, 220
279, 296.785059625, 49.8627334434, 230
280, 296.785059625, 85.2093921848, 210
281, 296.785059625, 85.2093921848, 220
282, 296.785059625, 85.2093921848, 230
283, 296.785059625, 120.556050926, 210
284, 296.785059625, 120.556050926, 220
285, 296.785059625, 120.556050926, 230
286, 296.785059625, 155.902709668, 210
287, 296.785059625, 155.902709668, 220
288, 296.785059625, 155.902709668, 230
289, 356.17414286, -14.2191292857, 22.2608839288
290, 356.17414286, 0, 22.2608839288
291, 356.17414286, -14.2191292857, 59.808707143
292, 356.17414286, 0, 59.808707143
293, 356.17414286, -14.2191292857, 97.3565303573
294, 356.17414286, 0, 97.3565303573
295, 356.17414286, -14.2191292857, 134.904353572
296, 356.17414286, 0, 134.904353572
297, 356.17414286, -14.2191292857, 172.452176786
298, 356.17414286, 0, 172.452176786
299, 356.17414286, -14.2191292857, 210
300, 356.17414286, 0, 210
301, 356.17414286, 14.2191292857, 22.2608839288
302, 356.17414286, 14.2191292857, 59.808707143
303, 356.17414286, 14.2191292857, 97.3565303573
304, 356.17414286, 14.2191292857, 134.904353572
305, 356.17414286, 14.2191292857, 172.452176786
306, 356.17414286, 14.2191292857, 210
307, 356.17414286, -153.081728214, 210
308, 356.17414286, -118.366078482, 210
309, 356.17414286, -153.081728214, 220
310, 356.17414286, -118.366078482, 220
311, 356.17414286, -153.081728214, 230
312, 356.17414286, -118.366078482, 230
313, 356.17414286, -83.6504287499, 210
314, 356.17414286, -83.6504287499, 220
315, 356.17414286, -83.6504287499, 230
316, 356.17414286, -48.9347790178, 210
317, 356.17414286, -48.9347790178, 220
318, 356.17414286, -48.9347790178, 230
319, 356.17414286, -14.2191292857, 220
320, 356.17414286, -14.2191292857, 230
321, 356.17414286, 0, 220
322, 356.17414286, 0, 230
323, 356.17414286, 14.2191292857, 220
324, 356.17414286, 14.2191292857, 230
325, 356.17414286, 48.9347790178, 210
326, 356.17414286, 48.9347790178, 220
327, 356.17414286, 48.9347790178, 230
328, 356.17414286, 83.6504287499, 210
329, 356.17414286, 83.6504287499, 220
330, 356.17414286, 83.6504287499, 230
331, 356.17414286, 118.366078482, 210
332, 356.17414286, 118.366078482, 220
333, 356.17414286, 118.366078482, 230
334, 356.17414286, 153.081728214, 210
335, 356.17414286, 153.081728214, 220
336, 356.17414286, 153.081728214, 230
337, 415.087517732, -13.9245624113, 25.9429698582
338, 415.087517732, 0, 25.9429698582
339, 415.087517732, -13.9245624113, 62.7543758866
340, 415.087517732, 0, 62.7543758866
341, 415.087517732, -13.9245624113, 99.5657819149
342, 415.087517732, 0, 99.5657819149
343, 415.087517732, -13.9245624113, 136.377187943
344, 415.087517732, 0, 136.377187943
345, 415.087517732, -13.9245624113, 173.188593972
346, 415.087517732, 0, 173.188593972
347, 415.087517732, -13.9245624113, 210
348, 415.087517732, 0, 210
349, 415.087517732, 13.9245624113, 25.9429698582
350, 415.087517732, 13.9245624113, 62.7543758866
351, 415.087517732, 13.9245624113, 99.5657819149
352, 415.087517732, 13.9245624113, 136.377187943
353, 415.087517732, 13.9245624113, 173.188593972
354, 415.087517732, 13.9245624113, 210
355, 415.087517732, -150.283342908, 210
356, 415.087517732, -116.193647784, 210
357, 415.087517732, -150.283342908, 220
358, 415.087517732, -116.193647784, 220
359, 415.087517732, -150.283342908, 230
360, 415.087517732, -116.193647784, 230
361, 415.087517732, -82.1039526595, 210
362, 415.087517732, -82.1039526595, 220
363, 415.087517732, -82.1039526595, 230
364, 415.087517732, -48.0142575354, 210
365, 415.087517732, -48.0142575354, 220
366, 415.087517732, -48.0142575354, 230
367, 415.087517732, -13.9245624113, 220
368, 415.087517732, -13.9245624113, 230
369, 415.087517732, 0, 220
370, 415.087517732, 0, 230
371, 415.087517732, 13.9245624113, 220
372, 415.087517732, 13.9245624113, 230
373, 415.087517732, 48.0142575354, 210
374, 415.087517732, 48.0142575354, 220
375, 415.087517732, 48.0142575354, 230
376, 415.087517732, 82.1039526595, 210
377, 415.087517732, 82.1039526595, 220
378, 415.087517732, 82.1039526595, 230
379, 415.087517732, 116.193647784, 210
380, 415.087517732, 116.193647784, 220
381, 415.087517732, 116.193647784, 230
382, 415.087517732, 150.283342908, 210
383, 415.087517732, 150.283342908, 220
384, 415.087517732, 150.283342908, 230
385, 473.532759535, -13.6323362023, 29.595797471
386, 473.532759535, 0, 29.595797471
387, 473.532759535, -13.6323362023, 65.6766379768
388, 473.532759535, 0, 65.6766379768
389, 473.532759535, -13.6323362023, 101.757478483
390, 473.532759535, 0, 101.757478483
391, 473.532759535, -13.6323362023, 137.838318988
392, 473.532759535, 0, 137.838318988
393, 473.532759535, -13.6323362023, 173.919159494
394, 473.532759535, 0, 173.919159494
395, 473.532759535, -13.6323362023, 210
396, 473.532759535, 0, 210
397, 473.532759535, 13.6323362023, 29.595797471
398, 473.532759535, 13.6323362023, 65.6766379768
399, 473.532759535, 13.6323362023, 101.757478483
400, 473.532759535, 13.6323362023, 137.838318988
401, 473.532759535, 13.6323362023, 173.919159494
402, 473.532759535, 13.6323362023, 210
403, 473.532759535, -147.507193922, 210
404, 473.532759535, -114.038479492, 210
405, 473.532759535, -147.507193922, 220
406, 473.532759535, -114.038479492, 220
407, 473.532759535, -147.507193922, 230
408, 473.532759535, -114.038479492, 230
409, 473.532759535, -80.5697650622, 210
410, 473.532759535, -80.5697650622, 220
411, 473.532759535, -80.5697650622, 230
412, 473.532759535, -47.1010506323, 210
413, 473.532759535, -47.1010506323, 220
414, 473.532759535, -47.1010506323, 230
415, 473.532759535, -13.6323362023, 220
416, 473.532759535, -13.6323362023, 230
417, 473.532759535, 0, 220
418, 473.532759535, 0, 230
419, 473.532759535, 13.6323362023, 220
420, 473.532759535, 13.6323362023, 230
421, 473.532759535, 47.1010506323, 210
422, 473.532759535, 47.1010506323, 220
423, 473.532759535, 47.1010506323, 230
424, 473.532759535, 80.5697650622, 210
425, 473.532759535, 80.5697650622, 220
426, 473.532759535, 80.5697650622, 230
427, 473.532759535, 114.038479492, 210
428, 473.532759535, 114.038479492, 220
429, 473.532759535, 114.038479492, 230
430, 473.532759535, 147.507193922, 210
431, 473.532759535, 147.507193922, 220
432, 473.532759535, 147.507193922, 230
433, 531.517263818, -13.3424136809, 33.2198289886
434, 531.517263818, 0, 33.2198289886
435, 531.517263818, -13.3424136809, 68.5758631909
436, 531.517263818, 0, 68.5758631909
437, 531.517263818, -13.3424136809, 103.931897393
438, 531.517263818, 0, 103.931897393
439, 531.517263818, -13.3424136809, 139.287931595
440, 531.517263818, 0, 139.287931595
441, 531.517263818, -13.3424136809, 174.643965798
442, 531.517263818, 0, 174.643965798
443, 531.517263818, -13.3424136809, 210
444, 531.517263818, 0, 210
445, 531.517263818, 13.3424136809, 33.2198289886
446, 531.517263818, 13.3424136809, 68.5758631909
447, 531.517263818, 13.3424136809, 103.931897393
448, 531.517263818, 13.3424136809, 139.287931595
449, 531.517263818, 13.3424136809, 174.643965798
450, 531.517263818, 13.3424136809, 210
451, 531.517263818, -144.752929969, 210
452, 531.517263818, -111.900300897, 210
453, 531.517263818, -144.752929969, 220
454, 531.517263818, -111.900300897, 220
455, 531.517263818, -144.752929969, 230
456, 531.517263818, -111.900300897, 230
457, 531.517263818, -79.0476718248, 210
458, 531.517263818, -79.0476718248, 220
459, 531.517263818, -79.0476718248, 230
460, 531.517263818, -46.1950427529, 210
461, 531.517263818, -46.1950427529, 220
462, 531.517263818, -46.1950427529, 230
463, 531.517263818, -13.3424136809, 220
464, 531.517263818, -13.3424136809, 230
465, 531.517263818, 0, 220
466, 531.517263818, 0, 230
467, 531.517263818, 13.3424136809, 220
468, 531.517263818, 13.3424136809, 230
469, 531.517263818, 46.1950427529, 210
470, 531.517263818, 46.1950427529, 220
471, 531.517263818, 46.1950427529, 230
472, 531.517263818, 79.0476718248, 210
473, 531.517263818, 79.0476718248, 220
474, 531.517263818, 79.0476718248, 230
475, 531.517263818, 111.900300897, 210
476, 531.517263818, 111.900300897, 220
477, 531.517263818, 111.900300897, 230
478, 531.517263818, 144.752929969, 210
479, 531.517263818, 144.752929969, 220
480, 531.517263818, 144.752929969, 230
481, 589.04825202, -13.0547587399, 36.8155157512
482, 589.04825202, 0, 36.8155157512
483, 589.04825202, -13.0547587399, 71.452412601
484, 589.04825202, 0, 71.452412601
485, 589.04825202, -13.0547587399, 106.089309451
486, 589.04825202, 0, 106.089309451
487, 589.04825202, -13.0547587399, 140.7262063
488, 589.04825202, 0, 140.7262063
489, 589.04825202, -13.0547587399, 175.36310315
490, 589.04825202, 0, 175.36310315
491, 589.04825202, -13.0547587399, 210
492, 589.04825202, 0, 210
493, 589.04825202, 13.0547587399, 36.8155157512
494, 589.04825202, 13.0547587399, 71.452412601
495, 589.04825202, 13.0547587399, 106.089309451
496, 589.04825202, 13.0547587399, 140.7262063
497, 589.04825202, 13.0547587399, 175.36310315
498, 589.04825202, 13.0547587399, 210
499, 589.04825202, -142.020208029, 210
500, 589.04825202, -109.778845707, 210
501, 589.04825202, -142.020208029, 220
502, 589.04825202, -109.778845707, 220
503, 589.04825202, -142.020208029, 230
504, 589.04825202, -109.778845707, 230
505, 589.04825202, -77.5374833845, 210
506, 589.04825202, -77.5374833845, 220
507, 589.04825202, -77.5374833845, 230
508, 589.04825202, -45.2961210622, 210
509, 589.04825202, -45.2961210622, 220
510, 589.04825202, -45.2961210622, 230
511, 589.04825202, -13.0547587399, 220
512, 589.04825202, -13.0547587399, 230
513, 589.04825202, 0, 220
514, 589.04825202, 0, 230
515, 589.04825202, 13.0547587399, 220
516, 589.04825202, 13.0547587399, 230
517, 589.04825202, 45.2961210622, 210
518, 589.04825202, 45.2961210622, 220
519, 589.04825202, 45.2961210622, 230
520, 589.04825202, 77.5374833845, 210
521, 589.04825202, 77.5374833845, 220
522, 589.04825202, 77.5374833845, 230
523, 589.04825202, 109.778845707, 210
524, 589.04825202, 109.778845707, 220
525, 589.04825202, 109.778845707, 230
526, 589.04825202, 142.020208029, 210
527, 589.04825202, 142.020208029, 220
528, 589.04825202, 142.020208029, 230
529, 646.132776907, -12.7693361155, 40.3832985567
530, 646.132776907, 0, 40.3832985567
531, 646.132776907, -12.7693361155, 74.3066388454
532, 646.132776907, 0, 74.3066388454
533, 646.132776907, -12.7693361155, 108.229979134
534, 646.132776907, 0, 108.229979134
535, 646.132776907, -12.7693361155, 142.153319423
536, 646.132776907, 0, 142.153319423
537, 646.132776907, -12.7693361155, 176.076659711
538, 646.132776907, 0, 176.076659711
539, 646.132776907, -12.7693361155, 210
540, 646.132776907, 0, 210
541, 646.132776907, 12.7693361155, 40.3832985567
542, 646.132776907, 12.7693361155, 74.3066388454
543, 646.132776907, 12.7693361155, 108.229979134
544, 646.132776907, 12.7693361155, 142.153319423
545, 646.132776907, 12.7693361155, 176.076659711
546, 646.132776907, 12.7693361155, 210
547, 646.132776907, -139.308693097, 210
548, 646.132776907, -107.673853852, 210
549, 646.132776907, -139.308693097, 220
550, 646.132776907, -107.673853852, 220
551, 646.132776907, -139.308693097, 230
552, 646.132776907, -107.673853852, 230
553, 646.132776907, -76.0390146062, 210
554, 646.132776907, -76.0390146062, 220
555, 646.132776907, -76.0390146062, 230
556, 646.132776907, -44.4041753608, 210
557, 646.132776907, -44.4041753608, 220
558, 646.132776907, -44.4041753608, 230
559, 646.132776907, -12.7693361155, 220
560, 646.132776907, -12.7693361155, 230
561, 646.132776907, 0, 220
562, 646.132776907, 0, 230
563, 646.132776907, 12.7693361155, 220
564, 646.132776907, 12.7693361155, 230
565, 646.132776907, 44.4041753608, 210
566, 646.132776907, 44.4041753608, 220
567, 646.132776907, 44.4041753608, 230
568, 646.132776907, 76.0390146062, 210
569, 646.132776907, 76.0390146062, 220
570, 646.132776907, 76.0390146062, 230
571, 646.132776907, 107.673853852, 210
572, 646.132776907, 107.673853852, 220
573, 646.132776907, 107.673853852, 230
574, 646.132776907, 139.308693097, 210
575, 646.132776907, 139.308693097, 220
576, 646.132776907, 139.308693097, 230
577, 702.777727788, -12.4861113611, 43.9236079867
578, 702.777727788, 0, 43.9236079867
579, 702.777727788, -12.4861113611, 77.1388863894
580, 702.777727788, 0, 77.1388863894
581, 702.777727788, -12.4861113611, 110.354164792
582, 702.777727788, 0, 110.354164792
583, 702.777727788, -12.4861113611, 143.569443195
584, 702.777727788, 0, 143.569443195
585, 702.777727788, -12.4861113611, 176.784721597
586, 702.777727788, 0, 176.784721597
587, 702.777727788, -12.4861113611, 210
588, 702.777727788, 0, 210
589, 702.777727788, 12.4861113611, 43.9236079867
590, 702.777727788, 12.4861113611, 77.1388863894
591, 702.777727788, 12.4861113611, 110.354164792
592, 702.777727788, 12.4861113611, 143.569443195
593, 702.777727788, 12.4861113611, 176.784721597
594, 702.777727788, 12.4861113611, 210
595, 702.777727788, -136.61805793, 210
596, 702.777727788, -105.585071288, 210
597, 702.777727788, -136.61805793, 220
598, 702.777727788, -105.585071288, 220
599, 702.777727788, -136.61805793, 230
600, 702.777727788, -105.585071288, 230
601, 702.777727788, -74.5520846456, 210
602, 702.777727788, -74.5520846456, 220
603, 702.777727788, -74.5520846456, 230
604, 702.777727788, -43.5190980033, 210
605, 702.777727788, -43.5190980033, 220
606, 702.777727788, -43.5190980033, 230
607, 702.777727788, -12.4861113611, 220
608, 702.777727788, -12.4861113611, 230
609, 702.777727788, 0, 220
610, 702.777727788, 0, 230
611, 702.777727788, 12.4861113611, 220
612, 702.777727788, 12.4861113611, 230
613, 702.777727788, 43.5190980033, 210
614, 702.777727788, 43.5190980033, 220
615, 702.777727788, 43.5190980033, 230
616, 702.777727788, 74.5520846456, 210
617, 702.777727788, 74.5520846456, 220
618, 702.777727788, 74.5520846456, 230
619, 702.777727788, 105.585071288, 210
620, 702.777727788, 105.585071288, 220
621, 702.777727788, 105.585071288, 230
622, 702.777727788, 136.61805793, 210
623, 702.777727788, 136.61805793, 220
624, 702.777727788, 136.61805793, 230
625, 758.989835526, -12.2050508224, 47.4368647204
626, 758.989835526, 0, 47.4368647204
627, 758.989835526, -12.2050508224, 79.9494917763
628, 758.989835526, 0, 79.9494917763
629, 758.989835526, -12.2050508224, 112.462118832
630, 758.989835526, 0, 112.462118832
631, 758.989835526, -12.2050508224, 144.974745888
632, 758.989835526, 0, 144.974745888
633, 758.989835526, -12.2050508224, 177.487372944
634, 758.989835526, 0, 177.487372944
635, 758.989835526, -12.2050508224, 210
636, 758.989835526, 0, 210
637, 758.989835526, 12.2050508224, 47.4368647204
638, 758.989835526, 12.2050508224, 79.9494917763
639, 758.989835526, 12.2050508224, 112.462118832
640, 758.989835526, 12.2050508224, 144.974745888
641, 758.989835526, 12.2050508224, 177.487372944
642, 758.989835526, 12.2050508224, 210
643, 758.989835526, -133.947982813, 210
644, 758.989835526, -103.512249815, 210
645, 758.989835526, -133.947982813, 220
646, 758.989835526, -103.512249815, 220
647, 758.989835526, -133.947982813, 230
648, 758.989835526, -103.512249815, 230
649, 758.989835526, -73.0765168174, 210
650, 758.989835526, -73.0765168174, 220
651, 758.989835526, -73.0765168174, 230
652, 758.989835526, -42.6407838199, 210
653, 758.989835526, -42.6407838199, 220
654, 758.989835526, -42.6407838199, 230
655, 758.989835526, -12.2050508224, 220
656, 758.989835526, -12.2050508224, 230
657, 758.989835526, 0, 220
658, 758.989835526, 0, 230
659, 758.989835526, 12.2050508224, 220
660, 758.989835526, 12.2050508224, 230
661, 758.989835526, 42.6407838199, 210
662, 758.989835526, 42.6407838199, 220
663, 758.989835526, 42.6407838199, 230
664, 758.989835526, 73.0765168174, 210
665, 758.989835526, 73.0765168174, 220
666, 758.989835526, 73.0765168174, 230
667, 758.989835526, 103.512249815, 210
668, 758.989835526, 103.512249815, 220
669, 758.989835526, 103.512249815, 230
670, 758.989835526, 133.947982813, 210
671, 758.989835526, 133.947982813, 220
672, 758.989835526, 133.947982813, 230
673, 814.775677372, -11.9261216131, 50.9234798358
674, 814.775677372, 0, 50.9234798358
675, 814.775677372, -11.9261216131, 82.7387838686
676, 814.775677372, 0, 82.7387838686
677, 814.775677372, -11.9261216131, 114.554087901
678, 814.775677372, 0, 114.554087901
679, 814.775677372, -11.9261216131, 146.369391934
680, 814.775677372, 0, 146.369391934
681, 814.775677372, -11.9261216131, 178.184695967
682, 814.775677372, 0, 178.184695967
683, 814.775677372, -11.9261216131, 210
684, 814.775677372, 0, 210
685, 814.775677372, 11.9261216131, 50.9234798358
686, 814.775677372, 11.9261216131, 82.7387838686
687, 814.775677372, 11.9261216131, 114.554087901
688, 814.775677372, 11.9261216131, 146.369391934
689, 814.775677372, 11.9261216131, 178.184695967
690, 814.775677372, 11.9261216131, 210
691, 814.775677372, -131.298155325, 210
692, 814.775677372, -101.455146897, 210
693, 814.775677372, -131.298155325, 220
694, 814.775677372, -101.455146897, 220
695, 814.775677372, -131.298155325, 230
696, 814.775677372, -101.455146897, 230
697, 814.775677372, -71.612138469, 210
698, 814.775677372, -71.612138469, 220
699, 814.775677372, -71.612138469, 230
700, 814.775677372, -41.7691300411, 210
701, 814.775677372, -41.7691300411, 220
702, 814.775677372, -41.7691300411, 230
703, 814.775677372, -11.9261216131, 220
704, 814.775677372, -11.9261216131, 230
705, 814.775677372, 0, 220
706, 814.775677372, 0, 230
707, 814.775677372, 11.9261216131, 220
708, 814.775677372, 11.9261216131, 230
709, 814.775677372, 41.7691300411, 210
710, 814.775677372, 41.7691300411, 220
711, 814.775677372, 41.7691300411, 230
712, 814.775677372, 71.612138469, 210
713, 814.775677372, 71.612138469, 220
714, 814.775677372, 71.612138469, 230
715, 814.775677372, 101.455146897, 210
716, 814.775677372, 101.455146897, 220
717, 814.775677372, 101.455146897, 230
718, 814.775677372, 131.298155325, 210
719, 814.775677372, 131.298155325, 220
720, 814.775677372, 131.298155325, 230
721, 870.141681605, -11.649291592, 54.3838551003
722, 870.141681605, 0, 54.3838551003
723, 870.141681605, -11.649291592, 85.5070840802
724, 870.141681605, 0, 85.5070840802
725, 870.141681605, -11.649291592, 116.63031306
726, 870.141681605, 0, 116.63031306
727, 870.141681605, -11.649291592, 147.75354204
728, 870.141681605, 0, 147.75354204
729, 870.141681605, -11.649291592, 178.87677102
730, 870.141681605, 0, 178.87677102
731, 870.141681605, -11.649291592, 210
732, 870.141681605, 0, 210
733, 870.141681605, 11.649291592, 54.3838551003
734, 870.141681605, 11.649291592, 85.5070840802
735, 870.141681605, 11.649291592, 116.63031306
736, 870.141681605, 11.649291592, 147.75354204
737, 870.141681605, 11.649291592, 178.87677102
738, 870.141681605, 11.649291592, 210
739, 870.141681605, -128.668270124, 210
740, 870.141681605, -99.4135254908, 210
741, 870.141681605, -128.668270124, 220
742, 870.141681605, -99.4135254908, 220
743, 870.141681605, -128.668270124, 230
744, 870.141681605, -99.4135254908, 230
745, 870.141681605, -70.1587808579, 210
746, 870.141681605, -70.1587808579, 220
747, 870.141681605, -70.1587808579, 230
748, 870.141681605, -40.9040362249, 210
749, 870.141681605, -40.9040362249, 220
750, 870.141681605, -40.9040362249, 230
751, 870.141681605, -11.649291592, 220
752, 870.141681605, -11.649291592, 230
753, 870.141681605, 0, 220
754, 870.141681605, 0, 230
755, 870.141681605, 11.649291592, 220
756, 870.141681605, 11.649291592, 230
757, 870.141681605, 40.9040362249, 210
758, 870.141681605, 40.9040362249, 220
759, 870.141681605, 40.9040362249, 230
760, 870.141681605, 70.1587808579, 210
761, 870.141681605, 70.1587808579, 220
762, 870.141681605, 70.1587808579, 230
763, 870.141681605, 99.4135254908, 210
764, 870.141681605, 99.4135254908, 220
765, 870.141681605, 99.4135254908, 230
766, 870.141681605, 128.668270124, 210
767, 870.141681605, 128.668270124, 220
768, 870.141681605, 128.668270124, 230
769, 925.094132, -11.37452934, 57.81838325
770, 925.094132, 0, 57.81838325
771, 925.094132, -11.37452934, 88.2547066
772, 925.094132, 0, 88.2547066
773, 925.094132, -11.37452934, 118.69102995
774, 925.094132, 0, 118.69102995
775, 925.094132, -11.37452934, 149.1273533
776, 925.094132, 0, 149.1273533
777, 925.094132, -11.37452934, 179.56367665
778, 925.094132, 0, 179.56367665
779, 925.094132, -11.37452934, 210
780, 925.094132, 0, 210
781, 925.094132, 11.37452934, 57.81838325
782, 925.094132, 11.37452934, 88.2547066
783, 925.094132, 11.37452934, 118.69102995
784, 925.094132, 11.37452934, 149.1273533
785, 925.094132, 11.37452934, 179.56367665
786, 925.094132, 11.37452934, 210
787, 925.094132, -126.05802873, 210
788, 925.094132, -97.3871538825, 210
789, 925.094132, -126.05802873, 220
790, 925.094132, -97.3871538825, 220
791, 925.094132, -126.05802873, 230
792, 925.094132, -97.3871538825, 230
793, 925.094132, -68.716279035, 210
794, 925.094132, -68.716279035, 220
795, 925.094132, -68.716279035, 230
796, 925.094132, -40.0454041875, 210
797, 925.094132, -40.0454041875, 220
798, 925.094132, -40.0454041875, 230
799, 925.094132, -11.37452934, 220
800, 925.094132, -11.37452934, 230
801, 925.094132, 0, 220
802, 925.094132, 0, 230
803, 925.094132, 11.37452934, 220
804, 925.094132, 11.37452934, 230
805, 925.094132, 40.0454041875, 210
806, 925.094132, 40.0454041875, 220
807, 925.094132, 40.0454041875, 230
808, 925.094132, 68.716279035, 210
809, 925.094132, 68.716279035, 220
810, 925.094132, 68.716279035, 230
811, 925.094132, 97.3871538825, 210
812, 925.094132, 97.3871538825, 220
813, 925.094132, 97.3871538825, 230
814, 925.094132, 126.05802873, 210
815, 925.094132, 126.05802873, 220
816, 925.094132, 126.05802873, 230
817, 979.639172133, -11.1018041393, 61.2274482583
818, 979.639172133, 0, 61.2274482583
819, 979.639172133, -11.1018041393, 90.9819586066
820, 979.639172133, 0, 90.9819586066
821, 979.639172133, -11.1018041393, 120.736468955
822, 979.639172133, 0, 120.736468955
823, 979.639172133, -11.1018041393, 150.490979303
824, 979.639172133, 0, 150.490979303
825, 979.639172133, -11.1018041393, 180.245489652
826, 979.639172133, 0, 180.245489652
827, 979.639172133, -11.1018041393, 210
828, 979.639172133, 0, 210
829, 979.639172133, 11.1018041393, 61.2274482583
830, 979.639172133, 11.1018041393, 90.9819586066
831, 979.639172133, 11.1018041393, 120.736468955
832, 979.639172133, 11.1018041393, 150.490979303
833, 979.639172133, 11.1018041393, 180.245489652
834, 979.639172133, 11.1018041393, 210
835, 979.639172133, -123.467139324, 210
836, 979.639172133, -95.3758055276, 210
837, 979.639172133, -123.467139324, 220
838, 979.639172133, -95.3758055276, 220
839, 979.639172133, -123.467139324, 230
840, 979.639172133, -95.3758055276, 230
841, 979.639172133, -67.2844717315, 210
842, 979.639172133, -67.2844717315, 220
843, 979.639172133, -67.2844717315, 230
844, 979.639172133, -39.1931379354, 210
845, 979.639172133, -39.1931379354, 220
846, 979.639172133, -39.1931379354, 230
847, 979.639172133, -11.1018041393, 220
848, 979.639172133, -11.1018041393, 230
849, 979.639172133, 0, 220
850, 979.639172133, 0, 230
851, 979.639172133, 11.1018041393, 220
852, 979.639172133, 11.1018041393, 230
853, 979.639172133, 39.1931379354, 210
854, 979.639172133, 39.1931379354, 220
855, 979.639172133, 39.1931379354, 230
856, 979.639172133, 67.2844717315, 210
857, 979.639172133, 67.2844717315, 220
858, 979.639172133, 67.2844717315, 230
859, 979.639172133, 95.3758055276, 210
860, 979.639172133, 95.3758055276, 220
861, 979.639172133, 95.3758055276, 230
862, 979.639172133, 123.467139324, 210
863, 979.639172133, 123.467139324, 220
864, 979.639172133, 123.467139324, 230
865, 1033.78280952, -10.8310859524, 64.6114255953
866, 1033.78280952, 0, 64.6114255953
867, 1033.78280952, -10.8310859524, 93.6891404762
868, 1033.78280952, 0, 93.6891404762
869, 1033.78280952, -10.8310859524, 122.766855357
870, 1033.78280952, 0, 122.766855357
871, 1033.78280952, -10.8310859524, 151.844570238
872, 1033.78280952, 0, 151.844570238
873, 1033.78280952, -10.8310859524, 180.922285119
874, 1033.78280952, 0, 180.922285119
875, 1033.78280952, -10.8310859524, 210
876, 1033.78280952, 0, 210
877, 1033.78280952, 10.8310859524, 64.6114255953
878, 1033.78280952, 10.8310859524, 93.6891404762
879, 1033.78280952, 10.8310859524, 122.766855357
880, 1033.78280952, 10.8310859524, 151.844570238
881, 1033.78280952, 10.8310859524, 180.922285119
882, 1033.78280952, 10.8310859524, 210
883, 1033.78280952, -120.895316548, 210
884, 1033.78280952, -93.3792588988, 210
885, 1033.78280952, -120.895316548, 220
886, 1033.78280952, -93.3792588988, 220
887, 1033.78280952, -120.895316548, 230
888, 1033.78280952, -93.3792588988, 230
889, 1033.78280952, -65.86320125, 210
890, 1033.78280952, -65.86320125, 220
891, 1033.78280952, -65.86320125, 230
892, 1033.78280952, -38.3471436012, 210
893, 1033.78280952, -38.3471436012, 220
894, 1033.78280952, -38.3471436012, 230
895, 1033.78280952, -10.8310859524, 220
896, 1033.78280952, -10.8310859524, 230
897, 1033.78280952, 0, 220
898, 1033.78280952, 0, 230
899, 1033.78280952, 10.8310859524, 220
900, 1033.78280952, 10.8310859524, 230
901, 1033.78280952, 38.3471436012, 210
902, 1033.78280952, 38.3471436012, 220
903, 1033.78280952, 38.3471436012, 230
904, 1033.78280952, 65.86320125, 210
905, 1033.78280952, 65.86320125, 220
906, 1033.78280952, 65.86320125, 230
907, 1033.78280952, 93.3792588988, 210
908, 1033.78280952, 93.3792588988, 220
909, 1033.78280952, 93.3792588988, 230
910, 1033.78280952, 120.895316548, 210
911, 1033.78280952, 120.895316548, 220
912, 1033.78280952, 120.895316548, 230
913, 1087.53091963, -10.5623454018, 67.9706824769
914, 1087.53091963, 0, 67.9706824769
915, 1087.53091963, -10.5623454018, 96.3765459815
916, 1087.53091963, 0, 96.3765459815
917, 1087.53091963, -10.5623454018, 124.782409486
918, 1087.53091963, 0, 124.782409486
919, 1087.53091963, -10.5623454018, 153.188272991
920, 1087.53091963, 0, 153.188272991
921, 1087.53091963, -10.5623454018, 181.594136495
922, 1087.53091963, 0, 181.594136495
923, 1087.53091963, -10.5623454018, 210
924, 1087.53091963, 0, 210
925, 1087.53091963, 10.5623454018, 67.9706824769
926, 1087.53091963, 10.5623454018, 96.3765459815
927, 1087.53091963, 10.5623454018, 124.782409486
928, 1087.53091963, 10.5623454018, 153.188272991
929, 1087.53091963, 10.5623454018, 181.594136495
930, 1087.53091963, 10.5623454018, 210
931, 1087.53091963, -118.342281318, 210
932, 1087.53091963, -91.3972973386, 210
933, 1087.53091963, -118.342281318, 220
934, 1087.53091963, -91.3972973386, 220
935, 1087.53091963, -118.342281318, 230
936, 1087.53091963, -91.3972973386, 230
937, 1087.53091963, -64.4523133597, 210
938, 1087.53091963, -64.4523133597, 220
939, 1087.53091963, -64.4523133597, 230
940, 1087.53091963, -37.5073293808, 210
941, 1087.53091963, -37.5073293808, 220
942, 1087.53091963, -37.5073293808, 230
943, 1087.53091963, -10.5623454018, 220
944, 1087.53091963, -10.5623454018, 230
945, 1087.53091963, 0, 220
946, 1087.53091963, 0, 230
947, 1087.53091963, 10.5623454018, 220
948, 1087.53091963, 10.5623454018, 230
949, 1087.53091963, 37.5073293808, 210
950, 1087.53091963, 37.5073293808, 220
951, 1087.53091963, 37.5073293808, 230
952, 1087.53091963, 64.4523133597, 210
953, 1087.53091963, 64.4523133597, 220
954, 1087.53091963, 64.4523133597, 230
955, 1087.53091963, 91.3972973386, 210
956, 1087.53091963, 91.3972973386, 220
957, 1087.53091963, 91.3972973386, 230
958, 1087.53091963, 118.342281318, 210
959, 1087.53091963, 118.342281318, 220
960, 1087.53091963, 118.342281318, 230
961, 1140.88924969, -10.2955537516, 71.3055781055
962, 1140.88924969, 0, 71.3055781055
963, 1140.88924969, -10.2955537516, 99.0444624844
964, 1140.88924969, 0, 99.0444624844
965, 1140.88924969, -10.2955537516, 126.783346863
966, 1140.88924969, 0, 126.783346863
967, 1140.88924969, -10.2955537516, 154.522231242
968, 1140.88924969, 0, 154.522231242
969, 1140.88924969, -10.2955537516, 182.261115621
970, 1140.88924969, 0, 182.261115621
971, 1140.88924969, -10.2955537516, 210
972, 1140.88924969, 0, 210
973, 1140.88924969, 10.2955537516, 71.3055781055
974, 1140.88924969, 10.2955537516, 99.0444624844
975, 1140.88924969, 10.2955537516, 126.783346863
976, 1140.88924969, 10.2955537516, 154.522231242
977, 1140.88924969, 10.2955537516, 182.261115621
978, 1140.88924969, 10.2955537516, 210
979, 1140.88924969, -115.80776064, 210
980, 1140.88924969, -89.4297089178, 210
981, 1140.88924969, -115.80776064, 220
982, 1140.88924969, -89.4297089178, 220
983, 1140.88924969, -115.80776064, 230
984, 1140.88924969, -89.4297089178, 230
985, 1140.88924969, -63.0516571957, 210
986, 1140.88924969, -63.0516571957, 220
987, 1140.88924969, -63.0516571957, 230
988, 1140.88924969, -36.6736054736, 210
989, 1140.88924969, -36.6736054736, 220
990, 1140.88924969, -36.6736054736, 230
991, 1140.88924969, -10.2955537516, 220
992, 1140.88924969, -10.2955537516, 230
993, 1140.88924969, 0, 220
994, 1140.88924969, 0, 230
995, 1140.88924969, 10.2955537516, 220
996, 1140.88924969, 10.2955537516, 230
997, 1140.88924969, 36.6736054736, 210
998, 1140.88924969, 36.6736054736, 220
999, 1140.88924969, 36.6736054736, 230
1000, 1140.88924969, 63.0516571957, 210
1001, 1140.88924969, 63.0516571957, 220
1002, 1140.88924969, 63.0516571957, 230
1003, 1140.88924969, 89.4297089178, 210
1004, 1140.88924969, 89.4297089178, 220
1005, 1140.88924969, 89.4297089178, 230
1006, 1140.88924969, 115.80776064, 210
1007, 1140.88924969, 115.80776064, 220
1008, 1140.88924969, 115.80776064, 230
1009, 1193.86342242, -10.0306828879, 74.6164639015
1010, 1193.86342242, 0, 74.6164639015
1011, 1193.86342242, -10.0306828879, 101.693171121
1012, 1193.86342242, 0, 101.693171121
1013, 1193.86342242, -10.0306828879, 128.769878341
1014, 1193.86342242, 0, 128.769878341
1015, 1193.86342242, -10.0306828879, 155.846585561
1016, 1193.86342242, 0, 155.846585561
1017, 1193.86342242, -10.0306828879, 182.92329278
1018, 1193.86342242, 0, 182.92329278
1019, 1193.86342242, -10.0306828879, 210
1020, 1193.86342242, 0, 210
1021, 1193.86342242, 10.0306828879, 74.6164639015
1022, 1193.86342242, 10.0306828879, 101.693171121
1023, 1193.86342242, 10.0306828879, 128.769878341
1024, 1193.86342242, 10.0306828879, 155.846585561
1025, 1193.86342242, 10.0306828879, 182.92329278
1026, 1193.86342242, 10.0306828879, 210
1027, 1193.86342242, -113.291487435, 210
1028, 1193.86342242, -87.4762862981, 210
1029, 1193.86342242, -113.291487435, 220
1030, 1193.86342242, -87.4762862981, 220
1031, 1193.86342242, -113.291487435, 230
1032, 1193.86342242, -87.4762862981, 230
1033, 1193.86342242, -61.6610851614, 210
1034, 1193.86342242, -61.6610851614, 220
1035, 1193.86342242, -61.6610851614, 230
1036, 1193.86342242, -35.8458840246, 210
1037, 1193.86342242, -35.8458840246, 220
1038, 1193.86342242, -35.8458840246, 230
1039, 1193.86342242, -10.0306828879, 220
1040, 1193.86342242, -10.0306828879, 230
1041, 1193.86342242, 0, 220
1042, 1193.86342242, 0, 230
1043, 1193.86342242, 10.0306828879, 220
1044, 1193.86342242, 10.0306828879, 230
1045, 1193.86342242, 35.8458840246, 210
1046, 1193.86342242, 35.8458840246, 220
1047, 1193.86342242, 35.8458840246, 230
1048, 1193.86342242, 61.6610851614, 210
1049, 1193.86342242, 61.6610851614, 220
1050, 1193.86342242, 61.6610851614, 230
1051, 1193.86342242, 87.4762862981, 210
1052, 1193.86342242, 87.4762862981, 220
1053, 1193.86342242, 87.4762862981, 230
1054, 1193.86342242, 113.291487435, 210
1055, 1193.86342242, 113.291487435, 220
1056, 1193.86342242, 113.291487435, 230
1057, 1246.45893963, -9.76770530186, 77.9036837268
1058, 1246.45893963, 0, 77.9036837268
1059, 1246.45893963, -9.76770530186, 104.322946981
1060, 1246.45893963, 0, 104.322946981
1061, 1246.45893963, -9.76770530186, 130.742210236
1062, 1246.45893963, 0, 130.742210236
1063, 1246.45893963, -9.76770530186, 157.161473491
1064, 1246.45893963, 0, 157.161473491
1065, 1246.45893963, -9.76770530186, 183.580736745
1066, 1246.45893963, 0, 183.580736745
1067, 1246.45893963, -9.76770530186, 210
1068, 1246.45893963, 0, 210
1069, 1246.45893963, 9.76770530186, 77.9036837268
1070, 1246.45893963, 9.76770530186, 104.322946981
1071, 1246.45893963, 9.76770530186, 130.742210236
1072, 1246.45893963, 9.76770530186, 157.161473491
1073, 1246.45893963, 9.76770530186, 183.580736745
1074, 1246.45893963, 9.76770530186, 210
1075, 1246.45893963, -110.793200368, 210
1076, 1246.45893963, -85.5368266012, 210
1077, 1246.45893963, -110.793200368, 220
1078, 1246.45893963, -85.5368266012, 220
1079, 1246.45893963, -110.793200368, 230
1080, 1246.45893963, -85.5368266012, 230
1081, 1246.45893963, -60.2804528347, 210
1082, 1246.45893963, -60.2804528347, 220
1083, 1246.45893963, -60.2804528347, 230
1084, 1246.45893963, -35.0240790683, 210
1085, 1246.45893963, -35.0240790683, 220
1086, 1246.45893963, -35.0240790683, 230
1087, 1246.45893963, -9.76770530186, 220
1088, 1246.45893963, -9.76770530186, 230
1089, 1246.45893963, 0, 220
1090, 1246.45893963, 0, 230
1091, 1246.45893963, 9.76770530186, 220
1092, 1246.45893963, 9.76770530186, 230
1093, 1246.45893963, 35.0240790683, 210
1094, 1246.45893963, 35.0240790683, 220
1095, 1246.45893963, 35.0240790683, 230
1096, 1246.45893963, 60.2804528347, 210
1097, 1246.45893963, 60.2804528347, 220
1098, 1246.45893963, 60.2804528347, 230
1099, 1246.45893963, 85.5368266012, 210
1100, 1246.45893963, 85.5368266012, 220
1101, 1246.45893963, 85.5368266012, 230
1102, 1246.45893963, 110.793200368, 210
1103, 1246.45893963, 110.793200368, 220
1104, 1246.45893963, 110.793200368, 230
1105, 1298.6811856, -9.506594072, 81.1675741001
1106, 1298.6811856, 0, 81.1675741001
1107, 1298.6811856, -9.506594072, 106.93405928
1108, 1298.6811856, 0, 106.93405928
1109, 1298.6811856, -9.506594072, 132.70054446
1110, 1298.6811856, 0, 132.70054446
1111, 1298.6811856, -9.506594072, 158.46702964
1112, 1298.6811856, 0, 158.46702964
1113, 1298.6811856, -9.506594072, 184.23351482
1114, 1298.6811856, 0, 184.23351482
1115, 1298.6811856, -9.506594072, 210
1116, 1298.6811856, 0, 210
1117, 1298.6811856, 9.506594072, 81.1675741001
1118, 1298.6811856, 9.506594072, 106.93405928
1119, 1298.6811856, 9.506594072, 132.70054446
1120, 1298.6811856, 9.506594072, 158.46702964
1121, 1298.6811856, 9.506594072, 184.23351482
1122, 1298.6811856, 9.506594072, 210
1123, 1298.6811856, -108.312643684, 210
1124, 1298.6811856, -83.611131281, 210
1125, 1298.6811856, -108.312643684, 220
1126, 1298.6811856, -83.611131281, 220
1127, 1298.6811856, -108.312643684, 230
1128, 1298.6811856, -83.611131281, 230
1129, 1298.6811856, -58.909618878, 210
1130, 1298.6811856, -58.909618878, 220
1131, 1298.6811856, -58.909618878, 230
1132, 1298.6811856, -34.208106475, 210
1133, 1298.6811856, -34.208106475, 220
1134, 1298.6811856, -34.208106475, 230
1135, 1298.6811856, -9.506594072, 220
1136, 1298.6811856, -9.506594072, 230
1137, 1298.6811856, 0, 220
1138, 1298.6811856, 0, 230
1139, 1298.6811856, 9.506594072, 220
1140, 1298.6811856, 9.506594072, 230
1141, 1298.6811856, 34.208106475, 210
1142, 1298.6811856, 34.208106475, 220
1143, 1298.6811856, 34.208106475, 230
1144, 1298.6811856, 58.909618878, 210
1145, 1298.6811856, 58.909618878, 220
1146, 1298.6811856, 58.909618878, 230
1147, 1298.6811856, 83.611131281, 210
1148, 1298.6811856, 83.611131281, 220
1149, 1298.6811856, 83.611131281, 230
1150, 1298.6811856, 108.312643684, 210
1151, 1298.6811856, 108.312643684, 220
1152, 1298.6811856, 108.312643684, 230
1153, 1350.53543047, -9.24732284763, 84.4084644046
1154, 1350.53543047, 0, 84.4084644046
1155, 1350.53543047, -9.24732284763, 109.526771524
1156, 1350.53543047, 0, 109.526771524
1157, 1350.53543047, -9.24732284763, 134.645078643
1158, 1350.53543047, 0, 134.645078643
1159, 1350.53543047, -9.24732284763, 159.763385762
1160, 1350.53543047, 0, 159.763385762
1161, 1350.53543047, -9.24732284763, 184.881692881
1162, 1350.53543047, 0, 184.881692881
1163, 1350.53543047, -9.24732284763, 210
1164, 1350.53543047, 0, 210
1165, 1350.53543047, 9.24732284763, 84.4084644046
1166, 1350.53543047, 9.24732284763, 109.526771524
1167, 1350.53543047, 9.24732284763, 134.645078643
1168, 1350.53543047, 9.24732284763, 159.763385762
1169, 1350.53543047, 9.24732284763, 184.881692881
1170, 1350.53543047, 9.24732284763, 210
1171, 1350.53543047, -105.849567052, 210
1172, 1350.53543047, -81.6990060013, 210
1173, 1350.53543047, -105.849567052, 220
1174, 1350.53543047, -81.6990060013, 220
1175, 1350.53543047, -105.849567052, 230
1176, 1350.53543047, -81.6990060013, 230
1177, 1350.53543047, -57.5484449501, 210
1178, 1350.53543047, -57.5484449501, 220
1179, 1350.53543047, -57.5484449501, 230
1180, 1350.53543047, -33.3978838988, 210
1181, 1350.53543047, -33.3978838988, 220
1182, 1350.53543047, -33.3978838988, 230
1183, 1350.53543047, -9.24732284763, 220
1184, 1350.53543047, -9.24732284763, 230
1185, 1350.53543047, 0, 220
1186, 1350.53543047, 0, 230
1187, 1350.53543047, 9.24732284763, 220
1188, 1350.53543047, 9.24732284763, 230
1189, 1350.53543047, 33.3978838988, 210
1190, 1350.53543047, 33.3978838988, 220
1191, 1350.53543047, 33.3978838988, 230
1192, 1350.53543047, 57.5484449501, 210
1193, 1350.53543047, 57.5484449501, 220
1194, 1350.53543047, 57.5484449501, 230
1195, 1350.53543047, 81.6990060013, 210
1196, 1350.53543047, 81.6990060013, 220
1197, 1350.53543047, 81.6990060013, 230
1198, 1350.53543047, 105.849567052, 210
1199, 1350.53543047, 105.849567052, 220
1200, 1350.53543047, 105.849567052, 230
1201, 1402.02683342, -8.98986583288, 87.626677089
1202, 1402.02683342, 0, 87.626677089
1203, 1402.02683342, -8.98986583288, 112.101341671
1204, 1402.02683342, 0, 112.101341671
1205, 1402.02683342, -8.98986583288, 136.576006253
1206, 1402.02683342, 0, 136.576006253
1207, 1402.02683342, -8.98986583288, 161.050670836
1208, 1402.02683342, 0, 161.050670836
1209, 1402.02683342, -8.98986583288, 185.525335418
1210, 1402.02683342, 0, 185.525335418
1211, 1402.02683342, -8.98986583288, 210
1212, 1402.02683342, 0, 210
1213, 1402.02683342, 8.98986583288, 87.626677089
1214, 1402.02683342, 8.98986583288, 112.101341671
1215, 1402.02683342, 8.98986583288, 136.576006253
1216, 1402.02683342, 8.98986583288, 161.050670836
1217, 1402.02683342, 8.98986583288, 185.525335418
1218, 1402.02683342, 8.98986583288, 210
1219, 1402.02683342, -103.403725412, 210
1220, 1402.02683342, -79.8002605175, 210
1221, 1402.02683342, -103.403725412, 220
1222, 1402.02683342, -79.8002605175, 220
1223, 1402.02683342, -103.403725412, 230
1224, 1402.02683342, -79.8002605175, 230
1225, 1402.02683342, -56.1967956226, 210
1226, 1402.02683342, -56.1967956226, 220
1227, 1402.02683342, -56.1967956226, 230
1228, 1402.02683342, -32.5933307278, 210
1229, 1402.02683342, -32.5933307278, 220
1230, 1402.02683342, -32.5933307278, 230
1231, 1402.02683342, -8.98986583288, 220
1232, 1402.02683342, -8.98986583288, 230
1233, 1402.02683342, 0, 220
1234, 1402.02683342, 0, 230
1235, 1402.02683342, 8.98986583288, 220
1236, 1402.02683342, 8.98986583288, 230
1237, 1402.02683342, 32.5933307278, 210
1238, 1402.02683342, 32.5933307278, 220
1239, 1402.02683342, 32.5933307278, 230
1240, 1402.02683342, 56.1967956226, 210
1241, 1402.02683342, 56.1967956226, 220
1242, 1402.02683342, 56.1967956226, 230
1243, 1402.02683342, 79.8002605175, 210
1244, 1402.02683342, 79.8002605175, 220
1245, 1402.02683342, 79.8002605175, 230
1246, 1402.02683342, 103.403725412, 210
1247, 1402.02683342, 103.403725412, 220
1248, 1402.02683342, 103.403725412, 230
1249, 1453.16044576, -8.73419777118, 90.8225278602
1250, 1453.16044576, 0, 90.8225278602
1251, 1453.16044576, -8.73419777118, 114.658022288
1252, 1453.16044576, 0, 114.658022288
1253, 1453.16044576, -8.73419777118, 138.493516716
1254, 1453.16044576, 0, 138.493516716
1255, 1453.16044576, -8.73419777118, 162.329011144
1256, 1453.16044576, 0, 162.329011144
1257, 1453.16044576, -8.73419777118, 186.164505572
1258, 1453.16044576, 0, 186.164505572
1259, 1453.16044576, -8.73419777118, 210
1260, 1453.16044576, 0, 210
1261, 1453.16044576, 8.73419777118, 90.8225278602
1262, 1453.16044576, 8.73419777118, 114.658022288
1263, 1453.16044576, 8.73419777118, 138.493516716
1264, 1453.16044576, 8.73419777118, 162.329011144
1265, 1453.16044576, 8.73419777118, 186.164505572
1266, 1453.16044576, 8.73419777118, 210
1267, 1453.16044576, -100.974878826, 210
1268, 1453.16044576, -77.9147085625, 210
1269, 1453.16044576, -100.974878826, 220
1270, 1453.16044576, -77.9147085625, 220
1271, 1453.16044576, -100.974878826, 230
1272, 1453.16044576, -77.9147085625, 230
1273, 1453.16044576, -54.8545382987, 210
1274, 1453.16044576, -54.8545382987, 220
1275, 1453.16044576, -54.8545382987, 230
1276, 1453.16044576, -31.7943680349, 210
1277, 1453.16044576, -31.7943680349, 220
1278, 1453.16044576, -31.7943680349, 230
1279, 1453.16044576, -8.73419777118, 220
1280, 1453.16044576, -8.73419777118, 230
1281, 1453.16044576, 0, 220
1282, 1453.16044576, 0, 230
1283, 1453.16044576, 8.73419777118, 220
1284, 1453.16044576, 8.73419777118, 230
1285, 1453.16044576, 31.7943680349, 210
1286, 1453.16044576, 31.7943680349, 220
1287, 1453.16044576, 31.7943680349, 230
1288, 1453.16044576, 54.8545382987, 210
1289, 1453.16044576, 54.8545382987, 220
1290, 1453.16044576, 54.8545382987, 230
1291, 1453.16044576, 77.9147085625, 210
1292, 1453.16044576, 77.9147085625, 220
1293, 1453.16044576, 77.9147085625, 230
1294, 1453.16044576, 100.974878826, 210
1295, 1453.16044576, 100.974878826, 220
1296, 1453.16044576, 100.974878826, 230
1297, 1503.94121393, -8.48029393034, 93.9963258708
1298, 1503.94121393, 0, 93.9963258708
1299, 1503.94121393, -8.48029393034, 117.197060697
1300, 1503.94121393, 0, 117.197060697
1301, 1503.94121393, -8.48029393034, 140.397795522
1302, 1503.94121393, 0, 140.397795522
1303, 1503.94121393, -8.48029393034, 163.598530348
1304, 1503.94121393, 0, 163.598530348
1305, 1503.94121393, -8.48029393034, 186.799265174
1306, 1503.94121393, 0, 186.799265174
1307, 1503.94121393, -8.48029393034, 210
1308, 1503.94121393, 0, 210
1309, 1503.94121393, 8.48029393034, 93.9963258708
1310, 1503.94121393, 8.48029393034, 117.197060697
1311, 1503.94121393, 8.48029393034, 140.397795522
1312, 1503.94121393, 8.48029393034, 163.598530348
1313, 1503.94121393, 8.48029393034, 186.799265174
1314, 1503.94121393, 8.48029393034, 210
1315, 1503.94121393, -98.5627923382, 210
1316, 1503.94121393, -76.0421677362, 210
1317, 1503.94121393, -98.5627923382, 220
1318, 1503.94121393, -76.0421677362, 220
1319, 1503.94121393, -98.5627923382, 230
1320, 1503.94121393, -76.0421677362, 230
1321, 1503.94121393, -53.5215431343, 210
1322, 1503.94121393, -53.5215431343, 220
1323, 1503.94121393, -53.5215431343, 230
1324, 1503.94121393, -31.0009185323, 210
1325, 1503.94121393, -31.0009185323, 220
1326, 1503.94121393, -31.0009185323, 230
1327, 1503.94121393, -8.48029393034, 220
1328, 1503.94121393, -8.48029393034, 230
1329, 1503.94121393, 0, 220
1330, 1503.94121393, 0, 230
1331, 1503.94121393, 8.48029393034, 220
1332, 1503.94121393, 8.48029393034, 230
1333, 1503.94121393, 31.0009185323, 210
1334, 1503.94121393, 31.0009185323, 220
1335, 1503.94121393, 31.0009185323, 230
1336, 1503.94121393, 53.5215431343, 210
1337, 1503.94121393, 53.5215431343, 220
1338, 1503.94121393, 53.5215431343, 230
1339, 1503.94121393, 76.0421677362, 210
1340, 1503.94121393, 76.0421677362, 220
1341, 1503.94121393, 76.0421677362, 230
1342, 1503.94121393, 98.5627923382, 210
1343, 1503.94121393, 98.5627923382, 220
1344, 1503.94121393, 98.5627923382, 230
1345, 1554.37398238, -8.22813008809, 97.1483738988
1346, 1554.37398238, 0, 97.1483738988
1347, 1554.37398238, -8.22813008809, 119.718699119
1348, 1554.37398238, 0, 119.718699119
1349, 1554.37398238, -8.22813008809, 142.289024339
1350, 1554.37398238, 0, 142.289024339
1351, 1554.37398238, -8.22813008809, 164.85934956
1352, 1554.37398238, 0, 164.85934956
1353, 1554.37398238, -8.22813008809, 187.42967478
1354, 1554.37398238, 0, 187.42967478
1355, 1554.37398238, -8.22813008809, 210
1356, 1554.37398238, 0, 210
1357, 1554.37398238, 8.22813008809, 97.1483738988
1358, 1554.37398238, 8.22813008809, 119.718699119
1359, 1554.37398238, 8.22813008809, 142.289024339
1360, 1554.37398238, 8.22813008809, 164.85934956
1361, 1554.37398238, 8.22813008809, 187.42967478
1362, 1554.37398238, 8.22813008809, 210
1363, 1554.37398238, -96.1672358369, 210
1364, 1554.37398238, -74.1824593997, 210
1365, 1554.37398238, -96.1672358369, 220
1366, 1554.37398238, -74.1824593997, 220
1367, 1554.37398238, -96.1672358369, 230
1368, 1554.37398238, -74.1824593997, 230
1369, 1554.37398238, -52.1976829625, 210
1370, 1554.37398238, -52.1976829625, 220
1371, 1554.37398238, -52.1976829625, 230
1372, 1554.37398238, -30.2129065253, 210
1373, 1554.37398238, -30.2129065253, 220
1374, 1554.37398238, -30.2129065253, 230
1375, 1554.37398238, -8.22813008809, 220
1376, 1554.37398238, -8.22813008809, 230
1377, 1554.37398238, 0, 220
1378, 1554.37398238, 0, 230
1379, 1554.37398238, 8.22813008809, 220
1380, 1554.37398238, 8.22813008809, 230
1381, 1554.37398238, 30.2129065253, 210
1382, 1554.37398238, 30.2129065253, 220
1383, 1554.37398238, 30.2129065253, 230
1384, 1554.37398238, 52.1976829625, 210
1385, 1554.37398238, 52.1976829625, 220
1386, 1554.37398238, 52.1976829625, 230
1387, 1554.37398238, 74.1824593997, 210
1388, 1554.37398238, 74.1824593997, 220
1389, 1554.37398238, 74.1824593997, 230
1390, 1554.37398238, 96.1672358369, 210
1391, 1554.37398238, 96.1672358369, 220
1392, 1554.37398238, 96.1672358369, 230
1393, 1604.46349636, -7.97768251819, 100.278968523
1394, 1604.46349636, 0, 100.278968523
1395, 1604.46349636, -7.97768251819, 122.223174818
1396, 1604.46349636, 0, 122.223174818
1397, 1604.46349636, -7.97768251819, 144.167381114
1398, 1604.46349636, 0, 144.167381114
1399, 1604.46349636, -7.97768251819, 166.111587409
1400, 1604.46349636, 0, 166.111587409
1401, 1604.46349636, -7.97768251819, 188.055793705
1402, 1604.46349636, 0, 188.055793705
1403, 1604.46349636, -7.97768251819, 210
1404, 1604.46349636, 0, 210
1405, 1604.46349636, 7.97768251819, 100.278968523
1406, 1604.46349636, 7.97768251819, 122.223174818
1407, 1604.46349636, 7.97768251819, 144.167381114
1408, 1604.46349636, 7.97768251819, 166.111587409
1409, 1604.46349636, 7.97768251819, 188.055793705
1410, 1604.46349636, 7.97768251819, 210
1411, 1604.46349636, -93.7879839228, 210
1412, 1604.46349636, -72.3354085717, 210
1413, 1604.46349636, -93.7879839228, 220
1414, 1604.46349636, -72.3354085717, 220
1415, 1604.46349636, -93.7879839228, 230
1416, 1604.46349636, -72.3354085717, 230
1417, 1604.46349636, -50.8828332205, 210
1418, 1604.46349636, -50.8828332205, 220
1419, 1604.46349636, -50.8828332205, 230
1420, 1604.46349636, -29.4302578694, 210
1421, 1604.46349636, -29.4302578694, 220
1422, 1604.46349636, -29.4302578694, 230
1423, 1604.46349636, -7.97768251819, 220
1424, 1604.46349636, -7.97768251819, 230
1425, 1604.46349636, 0, 220
1426, 1604.46349636, 0, 230
1427, 1604.46349636, 7.97768251819, 220
1428, 1604.46349636, 7.97768251819, 230
1429, 1604.46349636, 29.4302578694, 210
1430, 1604.46349636, 29.4302578694, 220
1431, 1604.46349636, 29.4302578694, 230
1432, 1604.46349636, 50.8828332205, 210
1433, 1604.46349636, 50.8828332205, 220
1434, 1604.46349636, 50.8828332205, 230
1435, 1604.46349636, 72.3354085717, 210
1436, 1604.46349636, 72.3354085717, 220
1437, 1604.46349636, 72.3354085717, 230
1438, 1604.46349636, 93.7879839228, 210
1439, 1604.46349636, 93.7879839228, 220
1440, 1604.46349636, 93.7879839228, 230
1441, 1654.21440461, -7.72892797693, 103.388400288
1442, 1654.21440461, 0, 103.388400288
1443, 1654.21440461, -7.72892797693, 124.710720231
1444, 1654.21440461, 0, 124.710720231
1445, 1654.21440461, -7.72892797693, 146.033040173
1446, 1654.21440461, 0, 146.033040173
1447, 1654.21440461, -7.72892797693, 167.355360115
1448, 1654.21440461, 0, 167.355360115
1449, 1654.21440461, -7.72892797693, 188.677680058
1450, 1654.21440461, 0, 188.677680058
1451, 1654.21440461, -7.72892797693, 210
1452, 1654.21440461, 0, 210
1453, 1654.21440461, 7.72892797693, 103.388400288
1454, 1654.21440461, 7.72892797693, 124.710720231
1455, 1654.21440461, 7.72892797693, 146.033040173
1456, 1654.21440461, 7.72892797693, 167.355360115
1457, 1654.21440461, 7.72892797693, 188.677680058
1458, 1654.21440461, 7.72892797693, 210
1459, 1654.21440461, -91.4248157809, 210
1460, 1654.21440461, -70.5008438299, 210
1461, 1654.21440461, -91.4248157809, 220
1462, 1654.21440461, -70.5008438299, 220
1463, 1654.21440461, -91.4248157809, 230
1464, 1654.21440461, -70.5008438299, 230
1465, 1654.21440461, -49.5768718789, 210
1466, 1654.21440461, -49.5768718789, 220
1467, 1654.21440461, -49.5768718789, 230
1468, 1654.21440461, -28.6528999279, 210
1469, 1654.21440461, -28.6528999279, 220
1470, 1654.21440461, -28.6528999279, 230
1471, 1654.21440461, -7.72892797693, 220
1472, 1654.21440461, -7.72892797693, 230
1473, 1654.21440461, 0, 220
1474, 1654.21440461, 0, 230
1475, 1654.21440461, 7.72892797693, 220
1476, 1654.21440461, 7.72892797693, 230
1477, 1654.21440461, 28.6528999279, 210
1478, 1654.21440461, 28.6528999279, 220
1479, 1654.21440461, 28.6528999279, 230
1480, 1654.21440461, 49.5768718789, 210
1481, 1654.21440461, 49.5768718789, 220
1482, 1654.21440461, 49.5768718789, 230
1483, 1654.21440461, 70.5008438299, 210
1484, 1654.21440461, 70.5008438299, 220
1485, 1654.21440461, 70.5008438299, 230
1486, 1654.21440461, 91.4248157809, 210
1487, 1654.21440461, 91.4248157809, 220
1488, 1654.21440461, 91.4248157809, 230
1489, 1703.63126197, -7.48184369014, 106.476953873
1490, 1703.63126197, 0, 106.476953873
1491, 1703.63126197, -7.48184369014, 127.181563099
1492, 1703.63126197, 0, 127.181563099
1493, 1703.63126197, -7.48184369014, 147.886172324
1494, 1703.63126197, 0, 147.886172324
1495, 1703.63126197, -7.48184369014, 168.590781549
1496, 1703.63126197, 0, 168.590781549
1497, 1703.63126197, -7.48184369014, 189.295390775
1498, 1703.63126197, 0, 189.295390775
1499, 1703.63126197, -7.48184369014, 210
1500, 1703.63126197, 0, 210
1501, 1703.63126197, 7.48184369014, 106.476953873
1502, 1703.63126197, 7.48184369014, 127.181563099
1503, 1703.63126197, 7.48184369014, 147.886172324
1504, 1703.63126197, 7.48184369014, 168.590781549
1505, 1703.63126197, 7.48184369014, 189.295390775
1506, 1703.63126197, 7.48184369014, 210
1507, 1703.63126197, -89.0775150563, 210
1508, 1703.63126197, -68.6785972148, 210
1509, 1703.63126197, -89.0775150563, 220
1510, 1703.63126197, -68.6785972148, 220
1511, 1703.63126197, -89.0775150563, 230
1512, 1703.63126197, -68.6785972148, 230
1513, 1703.63126197, -48.2796793732, 210
1514, 1703.63126197, -48.2796793732, 220
1515, 1703.63126197, -48.2796793732, 230
1516, 1703.63126197, -27.8807615317, 210
1517, 1703.63126197, -27.8807615317, 220
1518, 1703.63126197, -27.8807615317, 230
1519, 1703.63126197, -7.48184369014, 220
1520, 1703.63126197, -7.48184369014, 230
1521, 1703.63126197, 0, 220
1522, 1703.63126197, 0, 230
1523, 1703.63126197, 7.48184369014, 220
1524, 1703.63126197, 7.48184369014, 230
1525, 1703.63126197, 27.8807615317, 210
1526, 1703.63126197, 27.8807615317, 220
1527, 1703.63126197, 27.8807615317, 230
1528, 1703.63126197, 48.2796793732, 210
1529, 1703.63126197, 48.2796793732, 220
1530, 1703.63126197, 48.2796793732, 230
1531, 1703.63126197, 68.6785972148, 210
1532, 1703.63126197, 68.6785972148, 220
1533, 1703.63126197, 68.6785972148, 230
1534, 1703.63126197, 89.0775150563, 210
1535, 1703.63126197, 89.0775150563, 220
1536, 1703.63126197, 89.0775150563, 230
1537, 1752.71853188, -7.23640734061, 109.544908242
1538, 1752.71853188, 0, 109.544908242
1539, 1752.71853188, -7.23640734061, 129.635926594
1540, 1752.71853188, 0, 129.635926594
1541, 1752.71853188, -7.23640734061, 149.726944945
1542, 1752.71853188, 0, 149.726944945
1543, 1752.71853188, -7.23640734061, 169.817963297
1544, 1752.71853188, 0, 169.817963297
1545, 1752.71853188, -7.23640734061, 189.908981648
1546, 1752.71853188, 0, 189.908981648
1547, 1752.71853188, -7.23640734061, 210
1548, 1752.71853188, 0, 210
1549, 1752.71853188, 7.23640734061, 109.544908242
1550, 1752.71853188, 7.23640734061, 129.635926594
1551, 1752.71853188, 7.23640734061, 149.726944945
1552, 1752.71853188, 7.23640734061, 169.817963297
1553, 1752.71853188, 7.23640734061, 189.908981648
1554, 1752.71853188, 7.23640734061, 210
1555, 1752.71853188, -86.7458697358, 210
1556, 1752.71853188, -66.868504137, 210
1557, 1752.71853188, -86.7458697358, 220
1558, 1752.71853188, -66.868504137, 220
1559, 1752.71853188, -86.7458697358, 230
1560, 1752.71853188, -66.868504137, 230
1561, 1752.71853188, -46.9911385382, 210
1562, 1752.71853188, -46.9911385382, 220
1563, 1752.71853188, -46.9911385382, 230
1564, 1752.71853188, -27.1137729394, 210
1565, 1752.71853188, -27.1137729394, 220
1566, 1752.71853188, -27.1137729394, 230
1567, 1752.71853188, -7.23640734061, 220
1568, 1752.71853188, -7.23640734061, 230
1569, 1752.71853188, 0, 220
1570, 1752.71853188, 0, 230
1571, 1752.71853188, 7.23640734061, 220
1572, 1752.71853188, 7.23640734061, 230
1573, 1752.71853188, 27.1137729394, 210
1574, 1752.71853188, 27.1137729394, 220
1575, 1752.71853188, 27.1137729394, 230
1576, 1752.71853188, 46.9911385382, 210
1577, 1752.71853188, 46.9911385382, 220
1578, 1752.71853188, 46.9911385382, 230
1579, 1752.71853188, 66.868504137, 210
1580, 1752.71853188, 66.868504137, 220
1581, 1752.71853188, 66.868504137, 230
1582, 1752.71853188, 86.7458697358, 210
1583, 1752.71853188, 86.7458697358, 220
1584, 1752.71853188, 86.7458697358, 230
1585, 1801.48058881, -6.99259705594, 112.592536801
1586, 1801.48058881, 0, 112.592536801
1587, 1801.48058881, -6.99259705594, 132.074029441
1588, 1801.48058881, 0, 132.074029441
1589, 1801.48058881, -6.99259705594, 151.55552208
1590, 1801.48058881, 0, 151.55552208
1591, 1801.48058881, -6.99259705594, 171.03701472
1592, 1801.48058881, 0, 171.03701472
1593, 1801.48058881, -6.99259705594, 190.51850736
1594, 1801.48058881, 0, 190.51850736
1595, 1801.48058881, -6.99259705594, 210
1596, 1801.48058881, 0, 210
1597, 1801.48058881, 6.99259705594, 112.592536801
1598, 1801.48058881, 6.99259705594, 132.074029441
1599, 1801.48058881, 6.99259705594, 151.55552208
1600, 1801.48058881, 6.99259705594, 171.03701472
1601, 1801.48058881, 6.99259705594, 190.51850736
1602, 1801.48058881, 6.99259705594, 210
1603, 1801.48058881, -84.4296720314, 210
1604, 1801.48058881, -65.0704032875, 210
1605, 1801.48058881, -84.4296720314, 220
1606, 1801.48058881, -65.0704032875, 220
1607, 1801.48058881, -84.4296720314, 230
1608, 1801.48058881, -65.0704032875, 230
1609, 1801.48058881, -45.7111345437, 210
1610, 1801.48058881, -45.7111345437, 220
1611, 1801.48058881, -45.7111345437, 230
1612, 1801.48058881, -26.3518657998, 210
1613, 1801.48058881, -26.3518657998, 220
1614, 1801.48058881, -26.3518657998, 230
1615, 1801.48058881, -6.99259705594, 220
1616, 1801.48058881, -6.99259705594, 230
1617, 1801.48058881, 0, 220
1618, 1801.48058881, 0, 230
1619, 1801.48058881, 6.99259705594, 220
1620, 1801.48058881, 6.99259705594, 230
1621, 1801.48058881, 26.3518657998, 210
1622, 1801.48058881, 26.3518657998, 220
1623, 1801.48058881, 26.3518657998, 230
1624, 1801.48058881, 45.7111345437, 210
1625, 1801.48058881, 45.7111345437, 220
1626, 1801.48058881, 45.7111345437, 230
1627, 1801.48058881, 65.0704032875, 210
1628, 1801.48058881, 65.0704032875, 220
1629, 1801.48058881, 65.0704032875, 230
1630, 1801.48058881, 84.4296720314, 210
1631, 1801.48058881, 84.4296720314, 220
1632, 1801.48058881, 84.4296720314, 230
1633, 1849.92172064, -6.75039139679, 115.62010754
1634, 1849.92172064, 0, 115.62010754
1635, 1849.92172064, -6.75039139679, 134.496086032
1636, 1849.92172064, 0, 134.496086032
1637, 1849.92172064, -6.75039139679, 153.372064524
1638, 1849.92172064, 0, 153.372064524
1639, 1849.92172064, -6.75039139679, 172.248043016
1640, 1849.92172064, 0, 172.248043016
1641, 1849.92172064, -6.75039139679, 191.124021508
1642, 1849.92172064, 0, 191.124021508
1643, 1849.92172064, -6.75039139679, 210
1644, 1849.92172064, 0, 210
1645, 1849.92172064, 6.75039139679, 115.62010754
1646, 1849.92172064, 6.75039139679, 134.496086032
1647, 1849.92172064, 6.75039139679, 153.372064524
1648, 1849.92172064, 6.75039139679, 172.248043016
1649, 1849.92172064, 6.75039139679, 191.124021508
1650, 1849.92172064, 6.75039139679, 210
1651, 1849.92172064, -82.1287182695, 210
1652, 1849.92172064, -63.2841365513, 210
1653, 1849.92172064, -82.1287182695, 220
1654, 1849.92172064, -63.2841365513, 220
1655, 1849.92172064, -82.1287182695, 230
1656, 1849.92172064, -63.2841365513, 230
1657, 1849.92172064, -44.4395548331, 210
1658, 1849.92172064, -44.4395548331, 220
1659, 1849.92172064, -44.4395548331, 230
1660, 1849.92172064, -25.594973115, 210
1661, 1849.92172064, -25.594973115, 220
1662, 1849.92172064, -25.594973115, 230
1663, 1849.92172064, -6.75039139679, 220
1664, 1849.92172064, -6.75039139679, 230
1665, 1849.92172064, 0, 220
1666, 1849.92172064, 0, 230
1667, 1849.92172064, 6.75039139679, 220
1668, 1849.92172064, 6.75039139679, 230
1669, 1849.92172064, 25.594973115, 210
1670, 1849.92172064, 25.594973115, 220
1671, 1849.92172064, 25.594973115, 230
1672, 1849.92172064, 44.4395548331, 210
1673, 1849.92172064, 44.4395548331, 220
1674, 1849.92172064, 44.4395548331, 230
1675, 1849.92172064, 63.2841365513, 210
1676, 1849.92172064, 63.2841365513, 220
1677, 1849.92172064, 63.2841365513, 230
1678, 1849.92172064, 82.1287182695, 210
1679, 1849.92172064, 82.1287182695, 220
1680, 1849.92172064, 82.1287182695, 230
1681, 1898.0461309, -6.5097693455, 118.627883181
1682, 1898.0461309, 0, 118.627883181
1683, 1898.0461309, -6.5097693455, 136.902306545
1684, 1898.0461309, 0, 136.902306545
1685, 1898.0461309, -6.5097693455, 155.176729909
1686, 1898.0461309, 0, 155.176729909
1687, 1898.0461309, -6.5097693455, 173.451153273
1688, 1898.0461309, 0, 173.451153273
1689, 1898.0461309, -6.5097693455, 191.725576636
1690, 1898.0461309, 0, 191.725576636
1691, 1898.0461309, -6.5097693455, 210
1692, 1898.0461309, 0, 210
1693, 1898.0461309, 6.5097693455, 118.627883181
1694, 1898.0461309, 6.5097693455, 136.902306545
1695, 1898.0461309, 6.5097693455, 155.176729909
1696, 1898.0461309, 6.5097693455, 173.451153273
1697, 1898.0461309, 6.5097693455, 191.725576636
1698, 1898.0461309, 6.5097693455, 210
1699, 1898.0461309, -79.8428087822, 210
1700, 1898.0461309, -61.5095489231, 210
1701, 1898.0461309, -79.8428087822, 220
1702, 1898.0461309, -61.5095489231, 220
1703, 1898.0461309, -79.8428087822, 230
1704, 1898.0461309, -61.5095489231, 230
1705, 1898.0461309, -43.1762890639, 210
1706, 1898.0461309, -43.1762890639, 220
1707, 1898.0461309, -43.1762890639, 230
1708, 1898.0461309, -24.8430292047, 210
1709, 1898.0461309, -24.8430292047, 220
1710, 1898.0461309, -24.8430292047, 230
1711, 1898.0461309, -6.5097693455, 220
1712, 1898.0461309, -6.5097693455, 230
1713, 1898.0461309, 0, 220
1714, 1898.0461309, 0, 230
1715, 1898.0461309, 6.5097693455, 220
1716, 1898.0461309, 6.5097693455, 230
1717, 1898.0461309, 24.8430292047, 210
1718, 1898.0461309, 24.8430292047, 220
1719, 1898.0461309, 24.8430292047, 230
1720, 1898.0461309, 43.1762890639, 210
1721, 1898.0461309, 43.1762890639, 220
1722, 1898.0461309, 43.1762890639, 230
1723, 1898.0461309, 61.5095489231, 210
1724, 1898.0461309, 61.5095489231, 220
1725, 1898.0461309, 61.5095489231, 230
1726, 1898.0461309, 79.8428087822, 210
1727, 1898.0461309, 79.8428087822, 220
1728, 1898.0461309, 79.8428087822, 230
1729, 1945.85794098, -6.27071029512, 121.616121311
1730, 1945.85794098, 0, 121.616121311
1731, 1945.85794098, -6.27071029512, 139.292897049
1732, 1945.85794098, 0, 139.292897049
1733, 1945.85794098, -6.27071029512, 156.969672787
1734, 1945.85794098, 0, 156.969672787
1735, 1945.85794098, -6.27071029512, 174.646448524
1736, 1945.85794098, 0, 174.646448524
1737, 1945.85794098, -6.27071029512, 192.323224262
1738, 1945.85794098, 0, 192.323224262
1739, 1945.85794098, -6.27071029512, 210
1740, 1945.85794098, 0, 210
1741, 1945.85794098, 6.27071029512, 121.616121311
1742, 1945.85794098, 6.27071029512, 139.292897049
1743, 1945.85794098, 6.27071029512, 156.969672787
1744, 1945.85794098, 6.27071029512, 174.646448524
1745, 1945.85794098, 6.27071029512, 192.323224262
1746, 1945.85794098, 6.27071029512, 210
1747, 1945.85794098, -77.5717478037, 210
1748, 1945.85794098, -59.7464884265, 210
1749, 1945.85794098, -77.5717478037, 220
1750, 1945.85794098, -59.7464884265, 220
1751, 1945.85794098, -77.5717478037, 230
1752, 1945.85794098, -59.7464884265, 230
1753, 1945.85794098, -41.9212290494, 210
1754, 1945.85794098, -41.9212290494, 220
1755, 1945.85794098, -41.9212290494, 230
1756, 1945.85794098, -24.0959696723, 210
1757, 1945.85794098, -24.0959696723, 220
1758, 1945.85794098, -24.0959696723, 230
1759, 1945.85794098, -6.27071029512, 220
1760, 1945.85794098, -6.27071029512, 230
1761, 1945.85794098, 0, 220
1762, 1945.85794098, 0, 230
1763, 1945.85794098, 6.27071029512, 220
1764, 1945.85794098, 6.27071029512, 230
1765, 1945.85794098, 24.0959696723, 210
1766, 1945.85794098, 24.0959696723, 220
1767, 1945.85794098, 24.0959696723, 230
1768, 1945.85794098, 41.9212290494, 210
1769, 1945.85794098, 41.9212290494, 220
1770, 1945.85794098, 41.9212290494, 230
1771, 1945.85794098, 59.7464884265, 210
1772, 1945.85794098, 59.7464884265, 220
1773, 1945.85794098, 59.7464884265, 230
1774, 1945.85794098, 77.5717478037, 210
1775, 1945.85794098, 77.5717478037, 220
1776, 1945.85794098, 77.5717478037, 230
1777, 2000, -6, 125
1778, 2000, 0, 125
1779, 2000, -6, 142
1780, 2000, 0, 142
1781, 2000, -6, 159
1782, 2000, 0, 159
1783, 2000, -6, 176
1784, 2000, 0, 176
1785, 2000, -6, 193
1786, 2000, 0, 193
1787, 2000, -6, 210
1788, 2000, 0, 210
1789, 2000, 6, 125
1790, 2000, 6, 142
1791, 2000, 6, 159
1792, 2000, 6, 176
1793, 2000, 6, 193
1794, 2000, 6, 210
1795, 2000, -75, 210
1796, 2000, -57.75, 210
1797, 2000, -75, 220
1798, 2000, -57.75, 220
1799, 2000, -75, 230
1800, 2000, -57.75, 230
1801, 2000, -40.5, 210
1802, 2000, -40.5, 220
1803, 2000, -40.5, 230
1804, 2000, -23.25, 210
1805, 2000, -23.25, 220
1806, 2000, -23.25, 230
1807, 2000, -6, 220
1808, 2000, -6, 230
1809, 2000, 0, 220
1810, 2000, 0, 230
1811, 2000, 6, 220
1812, 2000, 6, 230
1813, 2000, 23.25, 210
1814, 2000, 23.25, 220
1815, 2000, 23.25, 230
1816, 2000, 40.5, 210
1817, 2000, 40.5, 220
1818, 2000, 40.5, 230
1819, 2000, 57.75, 210
1820, 2000, 57.75, 220
1821, 2000, 57.75, 230
1822, 2000, 75, 210
1823, 2000, 75, 220
1824, 2000, 75, 230
*ELEMENT, TYPE=C3D8, ELSET=EALL
1, 1, 2, 3, 4, 5, 6, 7, 8
2, 5, 6, 7, 8, 9, 10, 11, 12
3, 9, 10, 11, 12, 13, 14, 15, 16
4, 13, 14, 15, 16, 17, 18, 19, 20
5, 17, 18, 19, 20, 21, 22, 23, 24
6, 4, 3, 25, 26, 8, 7, 27, 28
7, 8, 7, 27, 28, 12, 11, 29, 30
8, 12, 11, 29, 30, 16, 15, 31, 32
9, 16, 15, 31, 32, 20, 19, 33, 34
10, 20, 19, 33, 34, 24, 23, 35, 36
11, 37, 38, 39, 40, 41, 42, 43, 44
12, 41, 42, 43, 44, 45, 46, 47, 48
13, 40, 39, 49, 50, 44, 43, 51, 52
14, 44, 43, 51, 52, 48, 47, 53, 54
15, 50, 49, 55, 56, 52, 51, 57, 58
16, 52, 51, 57, 58, 54, 53, 59, 60
17, 56, 55, 22, 21, 58, 57, 61, 62
18, 58, 57, 61, 62, 60, 59, 63, 64
19, 21, 22, 23, 24, 62, 61, 65, 66
20, 62, 61, 65, 66, 64, 63, 67, 68
21, 24, 23, 35, 36, 66, 65, 69, 70
22, 66, 65, 69, 70, 68, 67, 71, 72
23, 36, 35, 73, 74, 70, 69, 75, 76
24, 70, 69, 75, 76, 72, 71, 77, 78
25, 74, 73, 79, 80, 76, 75, 81, 82
26, 76, 75, 81, 82, 78, 77, 83, 84
27, 80, 79, 85, 86, 82, 81, 87, 88
28, 82, 81, 87, 88, 84, 83, 89, 90
29, 86, 85, 91, 92, 88, 87, 93, 94
30, 88, 87, 93, 94, 90, 89, 95, 96
31, 2, 97, 98, 3, 6, 99, 100, 7
32, 6, 99, 100, 7, 10, 101, 102, 11
33, 10, 101, 102, 11, 14, 103, 104, 15
34, 14, 103, 104, 15, 18, 105, 106, 19
35, 18, 105, 106, 19, 22, 107, 108, 23
36, 3, 98, 109, 25, 7, 100, 110, 27
37, 7, 100, 110, 27, 11, 102, 111, 29
38, 11, 102, 111, 29, 15, 104, 112, 31
39, 15, 104, 112, 31, 19, 106, 113, 33
40, 19, 106, 113, 33, 23, 108, 114, 35
41, 38, 115, 116, 39, 42, 117, 118, 43
42, 42, 117, 118, 43, 46, 119, 120, 47
43, 39, 116, 121, 49, 43, 118, 122, 51
44, 43, 118, 122, 51, 47, 120, 123, 53
45, 49, 121, 124, 55, 51, 122, 125, 57
46, 51, 122, 125, 57, 53, 123, 126, 59
47, 55, 124, 107, 22, 57, 125, 127, 61
48, 57, 125, 127, 61, 59, 126, 128, 63
49, 22, 107, 108, 23, 61, 127, 129, 65
50, 61, 127, 129, 65, 63, 128, 130, 67
51, 23, 108, 114, 35, 65, 129, 131, 69
52, 65, 129, 131, 69, 67, 130, 132, 71
53, 35, 114, 133, 73, 69, 131, 134, 75
54, 69, 131, 134, 75, 71, 132, 135, 77
55, 73, 133, 136, 79, 75, 134, 137, 81
56, 75, 134, 137, 81, 77, 135, 138, 83
57, 79, 136, 139, 85, 81, 137, 140, 87
58, 81, 137, 140, 87, 83, 138, 141, 89
59, 85, 139, 142, 91, 87, 140, 143, 93
60, 87, 140, 143, 93, 89, 141, 144, 95
61, 97, 145, 146, 98, 99, 147, 148, 100
62, 99, 147, 148, 100, 101, 149, 150, 102
63, 101, 149, 150, 102, 103, 151, 152, 104
64, 103, 151, 152, 104, 105, 153, 154, 106
65, 105, 153, 154, 106, 107, 155, 156, 108
66, 98, 146, 157, 109, 100, 148, 158, 110
67, 100, 148, 158, 110, 102, 150, 159, 111
68, 102, 150, 159, 111, 104, 152, 160, 112
69, 104, 152, 160, 112, 106, 154, 161, 113
70, 106, 154, 161, 113, 108, 156, 162, 114
71, 115, 163, 164, 116, 117, 165, 166, 118
72, 117, 165, 166, 118, 119, 167, 168, 120
73, 116, 164, 169, 121, 118, 166, 170, 122
74, 118, 166, 170, 122, 120, 168, 171, 123
75, 121, 169, 172, 124, 122, 170, 173, 125
76, 122, 170, 173, 125, 123, 171, 174, 126
77, 124, 172, 155, 107, 125, 173, 175, 127
78, 125, 173, 175, 127, 126, 174, 176, 128
79, 107, 155, 156, 108, 127, 175, 177, 129
80, 127, 175, 177, 129, 128, 176, 178, 130
81, 108, 156, 162, 114, 129, 177, 179, 131
82, 129, 177, 179, 131, 130, 178, 180, 132
83, 114, 162, 181, 133, 131, 179, 182, 134
84, 131, 179, 182, 134, 132, 180, 183, 135
85, 133, 181, 184, 136, 134, 182, 185, 137
86, 134, 182, 185, 137, 135, 183, 186, 138
87, 136, 184, 187, 139, 137, 185, 188, 140
88, 137, 185, 188, 140, 138, 186, 189, 141
89, 139, 187, 190, 142, 140, 188, 191, 143
90, 140, 188, 191, 143, 141, 189, 192, 144
91, 145, 193, 194, 146, 147, 195, 196, 148
92, 147, 195, 196, 148, 149, 197, 198, 150
93, 149, 197, 198, 150, 151, 199, 200, 152
94, 151, 199, 200, 152, 153, 201, 202, 154
95, 153, 201, 202, 154, 155, 203, 204, 156
96, 146, 194, 205, 157, 148, 196, 206, 158
97, 148, 196, 206, 158, 150, 198, 207, 159
98, 150, 198, 207, 159, 152, 200, 208, 160
99, 152, 200, 208, 160, 154, 202, 209, 161
100, 154, 202, 209, 161, 156, 204, 210, 162
101, 163, 211, 212, 164, 165, 213, 214, 166
102, 165, 213, 214, 166, 167, 215, 216, 168
103, 164, 212, 217, 169, 166, 214, 218, 170
104, 166, 214, 218, 170, 168, 216, 219, 171
105, 169, 217, 220, 172, 170, 218, 221, 173
106, 170, 218, 221, 173, 171, 219, 222, 174
107, 172, 220, 203, 155, 173, 221, 223, 175
108, 173, 221, 223, 175, 174, 222, 224, 176
109, 155, 203, 204, 156, 175, 223, 225, 177
110, 175, 223, 225, 177, 176, 224, 226, 178
111, 156, 204, 210, 162, 177, 225, 227, 179
112, 177, 225, 227, 179, 178, 226, 228, 180
113, 162, 210, 229, 181, 179, 227, 230, 182
114, 179, 227, 230, 182, 180, 228, 231, 183
115, 181, 229, 232, 184, 182, 230, 233, 185
116, 182, 230, 233, 185, 183, 231, 234, 186
117, 184, 232, 235, 187, 185, 233, 236, 188
118, 185, 233, 236, 188, 186, 234, 237, 189
119, 187, 235, 238, 190, 188, 236, 239, 191
120, 188, 236, 239, 191, 189, 237, 240, 192
121, 193, 241, 242, 194, 195, 243, 244, 196
122, 195, 243, 244, 196, 197, 245, 246, 198
123, 197, 245, 246, 198, 199, 247, 248, 200
124, 199, 247, 248, 200, 201, 249, 250, 202
125, 201, 249, 250, 202, 203, 251, 252, 204
126, 194, 242, 253, 205, 196, 244, 254, 206
127, 196, 244, 254, 206, 198, 246, 255, 207
128, 198, 246, 255, 207, 200, 248, 256, 208
129, 200, 248, 256, 208, 202, 250, 257, 209
130, 202, 250, 257, 209, 204, 252, 258, 210
131, 211, 259, 260, 212, 213, 261, 262, 214
132, 213, 261, 262, 214, 215, 263, 264, 216
133, 212, 260, 265, 217, 214, 262, 266, 218
134, 214, 262, 266, 218, 216, 264, 267, 219
135, 217, 265, 268, 220, 218, 266, 269, 221
136, 218, 266, 269, 221, 219, 267, 270, 222
137, 220, 268, 251, 203, 221, 269, 271, 223
138, 221, 269, 271, 223, 222, 270, 272, 224
139, 203, 251, 252, 204, 223, 271, 273, 225
140, 223, 271, 273, 225, 224, 272, 274, 226
141, 204, 252, 258, 210, 225, 273, 275, 227
142, 225, 273, 275, 227, 226, 274, 276, 228
143, 210, 258, 277, 229, 227, 275, 278, 230
144, 227, 275, 278, 230, 228, 276, 279, 231
145, 229, 277, 280, 232, 230, 278, 281, 233
146, 230, 278, 281, 233, 231, 279, 282, 234
147, 232, 280, 283, 235, 233, 281, 284, 236
148, 233, 281, 284, 236, 234, 282, 285, 237
149, 235, 283, 286, 238, 236, 284, 287, 239
150, 236, 284, 287, 239, 237, 285, 288, 240
151, 241, 289, 290, 242, 243, 291, 292, 244
152, 243, 291, 292, 244, 245, 293, 294, 246
153, 245, 293, 294, 246, 247, 295, 296, 248
154, 247, 295, 296, 248, 249, 297, 298, 250
155, 249, 297, 298, 250, 251, 299, 300, 252
156, 242, 290, 301, 253, 244, 292, 302, 254
157, 244, 292, 302, 254, 246, 294, 303, 255
158, 246, 294, 303, 255, 248, 296, 304, 256
159, 248, 296, 304, 256, 250, 298, 305, 257
160, 250, 298, 305, 257, 252, 300, 306, 258
161, 259, 307, 308, 260, 261, 309, 310, 262
162, 261, 309, 310, 262, 263, 311, 312, 264
163, 260, 308, 313, 265, 262, 310, 314, 266
164, 262, 310, 314, 266, 264, 312, 315, 267
165, 265, 313, 316, 268, 266, 314, 317, 269
166, 266, 314, 317, 269, 267, 315, 318, 270
167, 268, 316, 299, 251, 269, 317, 319, 271
168, 269, 317, 319, 271, 270, 318, 320, 272
169, 251, 299, 300, 252, 271, 319, 321, 273
170, 271, 319, 321, 273, 272, 320, 322, 274
171, 252, 300, 306, 258, 273, 321, 323, 275
172, 273, 321, 323, 275, 274, 322, 324, 276
173, 258, 306, 325, 277, 275, 323, 326, 278
174, 275, 323, 326, 278, 276, 324, 327, 279
175, 277, 325, 328, 280, 278, 326, 329, 281
176, 278, 326, 329, 281, 279, 327, 330, 282
177, 280, 328, 331, 283, 281, 329, 332, 284
178, 281, 329, 332, 284, 282, 330, 333, 285
179, 283, 331, 334, 286, 284, 332, 335, 287
180, 284, 332, 335, 287, 285, 333, 336, 288
181, 289, 337, 338, 290, 291, 339, 340, 292
182, 291, 339, 340, 292, 293, 341, 342, 294
183, 293, 341, 342, 294, 295, 343, 344, 296
184, 295, 343, 344, 296, 297, 345, 346, 298
185, 297, 345, 346, 298, 299, 347, 348, 300
186, 290, 338, 349, 301, 292, 340, 350, 302
187, 292, 340, 350, 302, 294, 342, 351, 303
188, 294, 342, 351, 303, 296, 344, 352, 304
189, 296, 344, 352, 304, 298, 346, 353, 305
190, 298, 346, 353, 305, 300, 348, 354, 306
191, 307, 355, 356, 308, 309, 357, 358, 310
192, 309, 357, 358, 310, 311, 359, 360, 312
193, 308, 356, 361, 313, 310, 358, 362, 314
194, 310, 358, 362, 314, 312, 360, 363, 315
195, 313, 361, 364, 316, 314, 362, 365, 317
196, 314, 362, 365, 317, 315, 363, 366, 318
197, 316, 364, 347, 299, 317, 365, 367, 319
198, 317, 365, 367, 319, 318, 366, 368, 320
199, 299, 347, 348, 300, 319, 367, 369, 321
200, 319, 367, 369, 321, 320, 368, 370, 322
201, 300, 348, 354, 306, 321, 369, 371, 323
202, 321, 369, 371, 323, 322, 370, 372, 324
203, 306, 354, 373, 325, 323, 371, 374, 326
204, 323, 371, 374, 326, 324, 372, 375, 327
205, 325, 373, 376, 328, 326, 374, 377, 329
206, 326, 374, 377, 329, 327, 375, 378, 330
207, 328, 376, 379, 331, 329, 377, 380, 332
208, 329, 377, 380, 332, 330, 378, 381, 333
209, 331, 379, 382, 334, 332, 380, 383, 335
210, 332, 380, 383, 335, 333, 381, 384, 336
211, 337, 385, 386, 338, 339, 387, 388, 340
212, 339, 387, 388, 340, 341, 389, 390, 342
213, 341, 389, 390, 342, 343, 391, 392, 344
214, 343, 391, 392, 344, 345, 393, 394, 346
215, 345, 393, 394, 346, 347, 395, 396, 348
216, 338, 386, 397, 349, 340, 388, 398, 350
217, 340, 388, 398, 350, 342, 390, 399, 351
218, 342, 390, 399, 351, 344, 392, 400, 352
219, 344, 392, 400, 352, 346, 394, 401, 353
220, 346, 394, 401, 353, 348, 396, 402, 354
221, 355, 403, 404, 356, 357, 405, 406, 358
222, 357, 405, 406, 358, 359, 407, 408, 360
223, 356, 404, 409, 361, 358, 406, 410, 362
224, 358, 406, 410, 362, 360, 408, 411, 363
225, 361, 409, 412, 364, 362, 410, 413, 365
226, 362, 410, 413, 365, 363, 411, 414, 366
227, 364, 412, 395, 347, 365, 413, 415, 367
228, 365, 413, 415, 367, 366, 414, 416, 368
229, 347, 395, 396, 348, 367, 415, 417, 369
230, 367, 415, 417, 369, 368, 416, 418, 370
231, 348, 396, 402, 354, 369, 417, 419, 371
232, 369, 417, 419, 371, 370, 418, 420, 372
233, 354, 402, 421, 373, 371, 419, 422, 374
234, 371, 419, 422, 374, 372, 420, 423, 375
235, 373, 421, 424, 376, 374, 422, 425, 377
236, 374, 422, 425, 377, 375, 423, 426, 378
237, 376, 424, 427, 379, 377, 425, 428, 380
238, 377, 425, 428, 380, 378, 426, 429, 381
239, 379, 427, 430, 382, 380, 428, 431, 383
240, 380, 428, 431, 383, 381, 429, 432, 384
241, 385, 433, 434, 386, 387, 435, 436, 388
242, 387, 435, 436, 388, 389, 437, 438, 390
243, 389, 437, 438, 390, 391, 439, 440, 392
244, 391, 439, 440, 392, 393, 441, 442, 394
245, 393, 441, 442, 394, 395, 443, 444, 396
246, 386, 434, 445, 397, 388, 436, 446, 398
247, 388, 436, 446, 398, 390, 438, 447, 399
248, 390, 438, 447, 399, 392, 440, 448, 400
249, 392, 440, 448, 400, 394, 442, 449, 401
250, 394, 442, 449, 401, 396, 444, 450, 402
251, 403, 451, 452, 404, 405, 453, 454, 406
252, 405, 453, 454, 406, 407, 455, 456, 408
253, 404, 452, 457, 409, 406, 454, 458, 410
254, 406, 454, 458, 410, 408, 456, 459, 411
255, 409, 457, 460, 412, 410, 458, 461, 413
256, 410, 458, 461, 413, 411, 459, 462, 414
257, 412, 460, 443, 395, 413, 461, 463, 415
258, 413, 461, 463, 415, 414, 462, 464, 416
259, 395, 443, 444, 396, 415, 463, 465, 417
260, 415, 463, 465, 417, 416, 464, 466, 418
261, 396, 444, 450, 402, 417, 465, 467, 419
262, 417, 465, 467, 419, 418, 466, 468, 420
263, 402, 450, 469, 421, 419, 467, 470, 422
264, 419, 467, 470, 422, 420, 468, 471, 423
265, 421, 469, 472, 424, 422, 470, 473, 425
266, 422, 470, 473, 425, 423, 471, 474, 426
267, 424, 472, 475, 427, 425, 473, 476, 428
268, 425, 473, 476, 428, 426, 474, 477, 429
269, 427, 475, 478, 430, 428, 476, 479, 431
270, 428, 476, 479, 431, 429, 477, 480, 432
271, 433, 481, 482, 434, 435, 483, 484, 436
272, 435, 483, 484, 436, 437, 485, 486, 438
273, 437, 485, 486, 438, 439, 487, 488, 440
274, 439, 487, 488, 440, 441, 489, 490, 442
275, 441, 489, 490, 442, 443, 491, 492, 444
276, 434, 482, 493, 445, 436, 484, 494, 446
277, 436, 484, 494, 446, 438, 486, 495, 447
278, 438, 486, 495, 447, 440, 488, 496, 448
279, 440, 488, 496, 448, 442, 490, 497, 449
280, 442, 490, 497, 449, 444, 492, 498, 450
281, 451, 499, 500, 452, 453, 501, 502, 454
282, 453, 501, 502, 454, 455, 503, 504, 456
283, 452, 500, 505, 457, 454, 502, 506, 458
284, 454, 502, 506, 458, 456, 504, 507, 459
285, 457, 505, 508, 460, 458, 506, 509, 461
286, 458, 506, 509, 461, 459, 507, 510, 462
287, 460, 508, 491, 443, 461, 509, 511, 463
288, 461, 509, 511, 463, 462, 510, 512, 464
289, 443, 491, 492, 444, 463, 511, 513, 465
290, 463, 511, 513, 465, 464, 512, 514, 466
291, 444, 492, 498, 450, 465, 513, 515, 467
292, 465, 513, 515, 467, 466, 514, 516, 468
293, 450, 498, 517, 469, 467, 515, 518, 470
294, 467, 515, 518, 470, 468, 516, 519, 471
295, 469, 517, 520, 472, 470, 518, 521, 473
296, 470, 518, 521, 473, 471, 519, 522, 474
297, 472, 520, 523, 475, 473, 521, 524, 476
298, 473, 521, 524, 476, 474, 522, 525, 477
299, 475, 523, 526, 478, 476, 524, 527, 479
300, 476, 524, 527, 479, 477, 525, 528, 480
301, 481, 529, 530, 482, 483, 531, 532, 484
302, 483, 531, 532, 484, 485, 533, 534, 486
303, 485, 533, 534, 486, 487, 535, 536, 488
304, 487, 535, 536, 488, 489, 537, 538, 490
305, 489, 537, 538, 490, 491, 539, 540, 492
306, 482, 530, 541, 493, 484, 532, 542, 494
307, 484, 532, 542, 494, 486, 534, 543, 495
308, 486, 534, 543, 495, 488, 536, 544, 496
309, 488, 536, 544, 496, 490, 538, 545, 497
310, 490, 538, 545, 497, 492, 540, 546, 498
311, 499, 547, 548, 500, 501, 549, 550, 502
312, 501, 549, 550, 502, 503, 551, 552, 504
313, 500, 548, 553, 505, 502, 550, 554, 506
314, 502, 550, 554, 506, 504, 552, 555, 507
315, 505, 553, 556, 508, 506, 554, 557, 509
316, 506, 554, 557, 509, 507, 555, 558, 510
317, 508, 556, 539, 491, 509, 557, 559, 511
318, 509, 557, 559, 511, 510, 558, 560, 512
319, 491, 539, 540, 492, 511, 559, 561, 513
320, 511, 559, 561, 513, 512, 560, 562, 514
321, 492, 540, 546, 498, 513, 561, 563, 515
322, 513, 561, 563, 515, 514, 562, 564, 516
323, 498, 546, 565, 517, 515, 563, 566, 518
324, 515, 563, 566, 518, 516, 564, 567, 519
325, 517, 565, 568, 520, 518, 566, 569, 521
326, 518, 566, 569, 521, 519, 567, 570, 522
327, 520, 568, 571, 523, 521, 569, 572, 524
328, 521, 569, 572, 524, 522, 570, 573, 525
329, 523, 571, 574, 526, 524, 572, 575, 527
330, 524, 572, 575, 527, 525, 573, 576, 528
331, 529, 577, 578, 530, 531, 579, 580, 532
332, 531, 579, 580, 532, 533, 581, 582, 534
333, 533, 581, 582, 534, 535, 583, 584, 536
334, 535, 583, 584, 536, 537, 585, 586, 538
335, 537, 585, 586, 538, 539, 587, 588, 540
336, 530, 578, 589, 541, 532, 580, 590, 542
337, 532, 580, 590, 542, 534, 582, 591, 543
338, 534, 582, 591, 543, 536, 584, 592, 544
339, 536, 584, 592, 544, 538, 586, 593, 545
340, 538, 586, 593, 545, 540, 588, 594, 546
341, 547, 595, 596, 548, 549, 597, 598, 550
342, 549, 597, 598, 550, 551, 599, 600, 552
343, 548, 596, 601, 553, 550, 598, 602, 554
344, 550, 598, 602, 554, 552, 600, 603, 555
345, 553, 601, 604, 556, 554, 602, 605, 557
346, 554, 602, 605, 557, 555, 603, 606, 558
347, 556, 604, 587, 539, 557, 605, 607, 559
348, 557, 605, 607, 559, 558, 606, 608, 560
349, 539, 587, 588, 540, 559, 607, 609, 561
350, 559, 607, 609, 561, 560, 608, 610, 562
351, 540, 588, 594, 546, 561, 609, 611, 563
352, 561, 609, 611, 563, 562, 610, 612, 564
353, 546, 594, 613, 565, 563, 611, 614, 566
354, 563, 611, 614, 566, 564, 612, 615, 567
355, 565, 613, 616, 568, 566, 614, 617, 569
356, 566, 614, 617, 569, 567, 615, 618, 570
357, 568, 616, 619, 571, 569, 617, 620, 572
358, 569, 617, 620, 572, 570, 618, 621, 573
359, 571, 619, 622, 574, 572, 620, 623, 575
360, 572, 620, 623, 575, 573, 621, 624, 576
361, 577, 625, 626, 578, 579, 627, 628, 580
362, 579, 627, 628, 580, 581, 629, 630, 582
363, 581, 629, 630, 582, 583, 631, 632, 584
364, 583, 631, 632, 584, 585, 633, 634, 586
365, 585, 633, 634, 586, 587, 635, 636, 588
366, 578, 626, 637, 589, 580, 628, 638, 590
367, 580, 628, 638, 590, 582, 630, 639, 591
368, 582, 630, 639, 591, 584, 632, 640, 592
369, 584, 632, 640, 592, 586, 634, 641, 593
370, 586, 634, 641, 593, 588, 636, 642, 594
371, 595, 643, 644, 596, 597, 645, 646, 598
372, 597, 645, 646, 598, 599, 647, 648, 600
373, 596, 644, 649, 601, 598, 646, 650, 602
374, 598, 646, 650, 602, 600, 648, 651, 603
375, 601, 649, 652, 604, 602, 650, 653, 605
376, 602, 650, 653, 605, 603, 651, 654, 606
377, 604, 652, 635, 587, 605, 653, 655, 607
378, 605, 653, 655, 607, 606, 654, 656, 608
379, 587, 635, 636, 588, 607, 655, 657, 609
380, 607, 655, 657, 609, 608, 656, 658, 610
381, 588, 636, 642, 594, 609, 657, 659, 611
382, 609, 657, 659, 611, 610, 658, 660, 612
383, 594, 642, 661, 613, 611, 659, 662, 614
384, 611, 659, 662, 614, 612, 660, 663, 615
385, 613, 661, 664, 616, 614, 662, 665, 617
386, 614, 662, 665, 617, 615, 663, 666, 618
387, 616, 664, 667, 619, 617, 665, 668, 620
388, 617, 665, 668, 620, 618, 666, 669, 621
389, 619, 667, 670, 622, 620, 668, 671, 623
390, 620, 668, 671, 623, 621, 669, 672, 624
391, 625, 673, 674, 626, 627, 675, 676, 628
392, 627, 675, 676, 628, 629, 677, 678, 630
393, 629, 677, 678, 630, 631, 679, 680, 632
394, 631, 679, 680, 632, 633, 681, 682, 634
395, 633, 681, 682, 634, 635, 683, 684, 636
396, 626, 674, 685, 637, 628, 676, 686, 638
397, 628, 676, 686, 638, 630, 678, 687, 639
398, 630, 678, 687, 639, 632, 680, 688, 640
399, 632, 680, 688, 640, 634, 682, 689, 641
400, 634, 682, 689, 641, 636, 684, 690, 642
401, 643, 691, 692, 644, 645, 693, 694, 646
402, 645, 693, 694, 646, 647, 695, 696, 648
403, 644, 692, 697, 649, 646, 694, 698, 650
404, 646, 694, 698, 650, 648, 696, 699, 651
405, 649, 697, 700, 652, 650, 698, 701, 653
406, 650, 698, 701, 653, 651, 699, 702, 654
407, 652, 700, 683, 635, 653, 701, 703, 655
408, 653, 701, 703, 655, 654, 702, 704, 656
409, 635, 683, 684, 636, 655, 703, 705, 657
410, 655, 703, 705, 657, 656, 704, 706, 658
411, 636, 684, 690, 642, 657, 705, 707, 659
412, 657, 705, 707, 659, 658, 706, 708, 660
413, 642, 690, 709, 661, 659, 707, 710, 662
414, 659, 707, 710, 662, 660, 708, 711, 663
415, 661, 709, 712, 664, 662, 710, 713, 665
416, 662, 710, 713, 665, 663, 711, 714, 666
417, 664, 712, 715, 667, 665, 713, 716, 668
418, 665, 713, 716, 668, 666, 714, 717, 669
419, 667, 715, 718, 670, 668, 716, 719, 671
420, 668, 716, 719, 671, 669, 717, 720, 672
421, 673, 721, 722, 674, 675, 723, 724, 676
422, 675, 723, 724, 676, 677, 725, 726, 678
423, 677, 725, 726, 678, 679, 727, 728, 680
424, 679, 727, 728, 680, 681, 729, 730, 682
425, 681, 729, 730, 682, 683, 731, 732, 684
426, 674, 722, 733, 685, 676, 724, 734, 686
427, 676, 724, 734, 686, 678, 726, 735, 687
428, 678, 726, 735, 687, 680, 728, 736, 688
429, 680, 728, 736, 688, 682, 730, 737, 689
430, 682, 730, 737, 689, 684, 732, 738, 690
431, 691, 739, 740, 692, 693, 741, 742, 694
432, 693, 741, 742, 694, 695, 743, 744, 696
433, 692, 740, 745, 697, 694, 742, 746, 698
434, 694, 742, 746, 698, 696, 744, 747, 699
435, 697, 745, 748, 700, 698, 746, 749, 701
436, 698, 746, 749, 701, 699, 747, 750, 702
437, 700, 748, 731, 683, 701, 749, 751, 703
438, 701, 749, 751, 703, 702, 750, 752, 704
439, 683, 731, 732, 684, 703, 751, 753, 705
440, 703, 751, 753, 705, 704, 752, 754, 706
441, 684, 732, 738, 690, 705, 753, 755, 707
442, 705, 753, 755, 707, 706, 754, 756, 708
443, 690, 738, 757, 709, 707, 755, 758, 710
444, 707, 755, 758, 710, 708, 756, 759, 711
445, 709, 757, 760, 712, 710, 758, 761, 713
446, 710, 758, 761, 713, 711, 759, 762, 714
447, 712, 760, 763, 715, 713, 761, 764, 716
448, 713, 761, 764, 716, 714, 762, 765, 717
449, 715, 763, 766, 718, 716, 764, 767, 719
450, 716, 764, 767, 719, 717, 765, 768, 720
451, 721, 769, 770, 722, 723, 771, 772, 724
452, 723, 771, 772, 724, 725, 773, 774, 726
453, 725, 773, 774, 726, 727, 775, 776, 728
454, 727, 775, 776, 728, 729, 777, 778, 730
455, 729, 777, 778, 730, 731, 779, 780, 732
456, 722, 770, 781, 733, 724, 772, 782, 734
457, 724, 772, 782, 734, 726, 774, 783, 735
458, 726, 774, 783, 735, 728, 776, 784, 736
459, 728, 776, 784, 736, 730, 778, 785, 737
460, 730, 778, 785, 737, 732, 780, 786, 738
461, 739, 787, 788, 740, 741, 789, 790, 742
462, 741, 789, 790, 742, 743, 791, 792, 744
463, 740, 788, 793, 745, 742, 790, 794, 746
464, 742, 790, 794, 746, 744, 792, 795, 747
465, 745, 793, 796, 748, 746, 794, 797, 749
466, 746, 794, 797, 749, 747, 795, 798, 750
467, 748, 796, 779, 731, 749, 797, 799, 751
468, 749, 797, 799, 751, 750, 798, 800, 752
469, 731, 779, 780, 732, 751, 799, 801, 753
470, 751, 799, 801, 753, 752, 800, 802, 754
471, 732, 780, 786, 738, 753, 801, 803, 755
472, 753, 801, 803, 755, 754, 802, 804, 756
473, 738, 786, 805, 757, 755, 803, 806, 758
474, 755, 803, 806, 758, 756, 804, 807, 759
475, 757, 805, 808, 760, 758, 806, 809, 761
476, 758, 806, 809, 761, 759, 807, 810, 762
477, 760, 808, 811, 763, 761, 809, 812, 764
478, 761, 809, 812, 764, 762, 810, 813, 765
479, 763, 811, 814, 766, 764, 812, 815, 767
480, 764, 812, 815, 767, 765, 813, 816, 768
481, 769, 817, 818, 770, 771, 819, 820, 772
482, 771, 819, 820, 772, 773, 821, 822, 774
483, 773, 821, 822, 774, 775, 823, 824, 776
484, 775, 823, 824, 776, 777, 825, 826, 778
485, 777, 825, 826, 778, 779, 827, 828, 780
486, 770, 818, 829, 781, 772, 820, 830, 782
487, 772, 820, 830, 782, 774, 822, 831, 783
488, 774, 822, 831, 783, 776, 824, 832, 784
489, 776, 824, 832, 784, 778, 826, 833, 785
490, 778, 826, 833, 785, 780, 828, 834, 786
491, 787, 835, 836, 788, 789, 837, 838, 790
492, 789, 837, 838, 790, 791, 839, 840, 792
493, 788, 836, 841, 793, 790, 838, 842, 794
494, 790, 838, 842, 794, 792, 840, 843, 795
495, 793, 841, 844, 796, 794, 842, 845, 797
496, 794, 842, 845, 797, 795, 843, 846, 798
497, 796, 844, 827, 779, 797, 845, 847, 799
498, 797, 845, 847, 799, 798, 846, 848, 800
499, 779, 827, 828, 780, 799, 847, 849, 801
500, 799, 847, 849, 801, 800, 848, 850, 802
501, 780, 828, 834, 786, 801, 849, 851, 803
502, 801, 849, 851, 803, 802, 850, 852, 804
503, 786, 834, 853, 805, 803, 851, 854, 806
504, 803, 851, 854, 806, 804, 852, 855, 807
505, 805, 853, 856, 808, 806, 854, 857, 809
506, 806, 854, 857, 809, 807, 855, 858, 810
507, 808, 856, 859, 811, 809, 857, 860, 812
508, 809, 857, 860, 812, 810, 858, 861, 813
509, 811, 859, 862, 814, 812, 860, 863, 815
510, 812, 860, 863, 815, 813, 861, 864, 816
511, 817, 865, 866, 818, 819, 867, 868, 820
512, 819, 867, 868, 820, 821, 869, 870, 822
513, 821, 869, 870, 822, 823, 871, 872, 824
514, 823, 871, 872, 824, 825, 873, 874, 826
515, 825, 873, 874, 826, 827, 875, 876, 828
516, 818, 866, 877, 829, 820, 868, 878, 830
517, 820, 868, 878, 830, 822, 870, 879, 831
518, 822, 870, 879, 831, 824, 872, 880, 832
519, 824, 872, 880, 832, 826, 874, 881, 833
520, 826, 874, 881, 833, 828, 876, 882, 834
521, 835, 883, 884, 836, 837, 885, 886, 838
522, 837, 885, 886, 838, 839, 887, 888, 840
523, 836, 884, 889, 841, 838, 886, 890, 842
524, 838, 886, 890, 842, 840, 888, 891, 843
525, 841, 889, 892, 844, 842, 890, 893, 845
526, 842, 890, 893, 845, 843, 891, 894, 846
527, 844, 892, 875, 827, 845, 893, 895, 847
528, 845, 893, 895, 847, 846, 894, 896, 848
529, 827, 875, 876, 828, 847, 895, 897, 849
530, 847, 895, 897, 849, 848, 896, 898, 850
531, 828, 876, 882, 834, 849, 897, 899, 851
532, 849, 897, 899, 851, 850, 898, 900, 852
533, 834, 882, 901, 853, 851, 899, 902, 854
534, 851, 899, 902, 854, 852, 900, 903, 855
535, 853, 901, 904, 856, 854, 902, 905, 857
536, 854, 902, 905, 857, 855, 903, 906, 858
537, 856, 904, 907, 859, 857, 905, 908, 860
538, 857, 905, 908, 860, 858, 906, 909, 861
539, 859, 907, 910, 862, 860, 908, 911, 863
540, 860, 908, 911, 863, 861, 909, 912, 864
541, 865, 913, 914, 866, 867, 915, 916, 868
542, 867, 915, 916, 868, 869, 917, 918, 870
543, 869, 917, 918, 870, 871, 919, 920, 872
544, 871, 919, 920, 872, 873, 921, 922, 874
545, 873, 921, 922, 874, 875, 923, 924, 876
546, 866, 914, 925, 877, 868, 916, 926, 878
547, 868, 916, 926, 878, 870, 918, 927, 879
548, 870, 918, 927, 879, 872, 920, 928, 880
549, 872, 920, 928, 880, 874, 922, 929, 881
550, 874, 922, 929, 881, 876, 924, 930, 882
551, 883, 931, 932, 884, 885, 933, 934, 886
552, 885, 933, 934, 886, 887, 935, 936, 888
553, 884, 932, 937, 889, 886, 934, 938, 890
554, 886, 934, 938, 890, 888, 936, 939, 891
555, 889, 937, 940, 892, 890, 938, 941, 893
556, 890, 938, 941, 893, 891, 939, 942, 894
557, 892, 940, 923, 875, 893, 941, 943, 895
558, 893, 941, 943, 895, 894, 942, 944, 896
559, 875, 923, 924, 876, 895, 943, 945, 897
560, 895, 943, 945, 897, 896, 944, 946, 898
561, 876, 924, 930, 882, 897, 945, 947, 899
562, 897, 945, 947, 899, 898, 946, 948, 900
563, 882, 930, 949, 901, 899, 947, 950, 902
564, 899, 947, 950, 902, 900, 948, 951, 903
565, 901, 949, 952, 904, 902, 950, 953, 905
566, 902, 950, 953, 905, 903, 951, 954, 906
567, 904, 952, 955, 907, 905, 953, 956, 908
568, 905, 953, 956, 908, 906, 954, 957, 909
569, 907, 955, 958, 910, 908, 956, 959, 911
570, 908, 956, 959, 911, 909, 957, 960, 912
571, 913, 961, 962, 914, 915, 963, 964, 916
572, 915, 963, 964, 916, 917, 965, 966, 918
573, 917, 965, 966, 918, 919, 967, 968, 920
574, 919, 967, 968, 920, 921, 969, 970, 922
575, 921, 969, 970, 922, 923, 971, 972, 924
576, 914, 962, 973, 925, 916, 964, 974, 926
577, 916, 964, 974, 926, 918, 966, 975, 927
578, 918, 966, 975, 927, 920, 968, 976, 928
579, 920, 968, 976, 928, 922, 970, 977, 929
580, 922, 970, 977, 929, 924, 972, 978, 930
581, 931, 979, 980, 932, 933, 981, 982, 934
582, 933, 981, 982, 934, 935, 983, 984, 936
583, 932, 980, 985, 937, 934, 982, 986, 938
584, 934, 982, 986, 938, 936, 984, 987, 939
585, 937, 985, 988, 940, 938, 986, 989, 941
586, 938, 986, 989, 941, 939, 987, 990, 942
587, 940, 988, 971, 923, 941, 989, 991, 943
588, 941, 989, 991, 943, 942, 990, 992, 944
589, 923, 971, 972, 924, 943, 991, 993, 945
590, 943, 991, 993, 945, 944, 992, 994, 946
591, 924, 972, 978, 930, 945, 993, 995, 947
592, 945, 993, 995, 947, 946, 994, 996, 948
593, 930, 978, 997, 949, 947, 995, 998, 950
594, 947, 995, 998, 950, 948, 996, 999, 951
595, 949, 997, 1000, 952, 950, 998, 1001, 953
596, 950, 998, 1001, 953, 951, 999, 1002, 954
597, 952, 1000, 1003, 955, 953, 1001, 1004, 956
598, 953, 1001, 1004, 956, 954, 1002, 1005, 957
599, 955, 1003, 1006, 958, 956, 1004, 1007, 959
600, 956, 1004, 1007, 959, 957, 1005, 1008, 960
601, 961, 1009, 1010, 962, 963, 1011, 1012, 964
602, 963, 1011, 1012, 964, 965, 1013, 1014, 966
603, 965, 1013, 1014, 966, 967, 1015, 1016, 968
604, 967, 1015, 1016, 968, 969, 1017, 1018, 970
605, 969, 1017, 1018, 970, 971, 1019, 1020, 972
606, 962, 1010, 1021, 973, 964, 1012, 1022, 974
607, 964, 1012, 1022, 974, 966, 1014, 1023, 975
608, 966, 1014, 1023, 975, 968, 1016, 1024, 976
609, 968, 1016, 1024, 976, 970, 1018, 1025, 977
610, 970, 1018, 1025, 977, 972, 1020, 1026, 978
611, 979, 1027, 1028, 980, 981, 1029, 1030, 982
612, 981, 1029, 1030, 982, 983, 1031, 1032, 984
613, 980, 1028, 1033, 985, 982, 1030, 1034, 986
614, 982, 1030, 1034, 986, 984, 1032, 1035, 987
615, 985, 1033, 1036, 988, 986, 1034, 1037, 989
616, 986, 1034, 1037, 989, 987, 1035, 1038, 990
617, 988, 1036, 1019, 971, 989, 1037, 1039, 991
618, 989, 1037, 1039, 991, 990, 1038, 1040, 992
619, 971, 1019, 1020, 972, 991, 1039, 1041, 993
620, 991, 1039, 1041, 993, 992, 1040, 1042, 994
621, 972, 1020, 1026, 978, 993, 1041, 1043, 995
622, 993, 1041, 1043, 995, 994, 1042, 1044, 996
623, 978, 1026, 1045, 997, 995, 1043, 1046, 998
624, 995, 1043, 1046, 998, 996, 1044, 1047, 999
625, 997, 1045, 1048, 1000, 998, 1046, 1049, 1001
626, 998, 1046, 1049, 1001, 999, 1047, 1050, 1002
627, 1000, 1048, 1051, 1003, 1001, 1049, 1052, 1004
628, 1001, 1049, 1052, 1004, 1002, 1050, 1053, 1005
629, 1003, 1051, 1054, 1006, 1004, 1052, 1055, 1007
630, 1004, 1052, 1055, 1007, 1005, 1053, 1056, 1008
631, 1009, 1057, 1058, 1010, 1011, 1059, 1060, 1012
632, 1011, 1059, 1060, 1012, 1013, 1061, 1062, 1014
633, 1013, 1061, 1062, 1014, 1015, 1063, 1064, 1016
634, 1015, 1063, 1064, 1016, 1017, 1065, 1066, 1018
635, 1017, 1065, 1066, 1018, 1019, 1067, 1068, 1020
636, 1010, 1058, 1069, 1021, 1012, 1060, 1070, 1022
637, 1012, 1060, 1070, 1022, 1014, 1062, 1071, 1023
638, 1014, 1062, 1071, 1023, 1016, 1064, 1072, 1024
639, 1016, 1064, 1072, 1024, 1018, 1066, 1073, 1025
640, 1018, 1066, 1073, 1025, 1020, 1068, 1074, 1026
641, 1027, 1075, 1076, 1028, 1029, 1077, 1078, 1030
642, 1029, 1077, 1078, 1030, 1031, 1079, 1080, 1032
643, 1028, 1076, 1081, 1033, 1030, 1078, 1082, 1034
644, 1030, 1078, 1082, 1034, 1032, 1080, 1083, 1035
645, 1033, 1081, 1084, 1036, 1034, 1082, 1085, 1037
646, 1034, 1082, 1085, 1037, 1035, 1083, 1086, 1038
647, 1036, 1084, 1067, 1019, 1037, 1085, 1087, 1039
648, 1037, 1085, 1087, 1039, 1038, 1086, 1088, 1040
649, 1019, 1067, 1068, 1020, 1039, 1087, 1089, 1041
650, 1039, 1087, 1089, 1041, 1040, 1088, 1090, 1042
651, 1020, 1068, 1074, 1026, 1041, 1089, 1091, 1043
652, 1041, 1089, 1091, 1043, 1042, 1090, 1092, 1044
653, 1026, 1074, 1093, 1045, 1043, 1091, 1094, 1046
654, 1043, 1091, 1094, 1046, 1044, 1092, 1095, 1047
655, 1045, 1093, 1096, 1048, 1046, 1094, 1097, 1049
656, 1046, 1094, 1097, 1049, 1047, 1095, 1098, 1050
657, 1048, 1096, 1099, 1051, 1049, 1097, 1100, 1052
658, 1049, 1097, 1100, 1052, 1050, 1098, 1101, 1053
659, 1051, 1099, 1102, 1054, 1052, 1100, 1103, 1055
660, 1052, 1100, 1103, 1055, 1053, 1101, 1104, 1056
661, 1057, 1105, 1106, 1058, 1059, 1107, 1108, 1060
662, 1059, 1107, 1108, 1060, 1061, 1109, 1110, 1062
663, 1061, 1109, 1110, 1062, 1063, 1111, 1112, 1064
664, 1063, 1111, 1112, 1064, 1065, 1113, 1114, 1066
665, 1065, 1113, 1114, 1066, 1067, 1115, 1116, 1068
666, 1058, 1106, 1117, 1069, 1060, 1108, 1118, 1070
667, 1060, 1108, 1118, 1070, 1062, 1110, 1119, 1071
668, 1062, 1110, 1119, 1071, 1064, 1112, 1120, 1072
669, 1064, 1112, 1120, 1072, 1066, 1114, 1121, 1073
670, 1066, 1114, 1121, 1073, 1068, 1116, 1122, 1074
671, 1075, 1123, 1124, 1076, 1077, 1125, 1126, 1078
672, 1077, 1125, 1126, 1078, 1079, 1127, 1128, 1080
673, 1076, 1124, 1129, 1081, 1078, 1126, 1130, 1082
674, 1078, 1126, 1130, 1082, 1080, 1128, 1131, 1083
675, 1081, 1129, 1132, 1084, 1082, 1130, 1133, 1085
676, 1082, 1130, 1133, 1085, 1083, 1131, 1134, 1086
677, 1084, 1132, 1115, 1067, 1085, 1133, 1135, 1087
678, 1085, 1133, 1135, 1087, 1086, 1134, 1136, 1088
679, 1067, 1115, 1116, 1068, 1087, 1135, 1137, 1089
680, 1087, 1135, 1137, 1089, 1088, 1136, 1138, 1090
681, 1068, 1116, 1122, 1074, 1089, 1137, 1139, 1091
682, 1089, 1137, 1139, 1091, 1090, 1138, 1140, 1092
683, 1074, 1122, 1141, 1093, 1091, 1139, 1142, 1094
684, 1091, 1139, 1142, 1094, 1092, 1140, 1143, 1095
685, 1093, 1141, 1144, 1096, 1094, 1142, 1145, 1097
686, 1094, 1142, 1145, 1097, 1095, 1143, 1146, 1098
687, 1096, 1144, 1147, 1099, 1097, 1145, 1148, 1100
688, 1097, 1145, 1148, 1100, 1098, 1146, 1149, 1101
689, 1099, 1147, 1150, 1102, 1100, 1148, 1151, 1103
690, 1100, 1148, 1151, 1103, 1101, 1149, 1152, 1104
691, 1105, 1153, 1154, 1106, 1107, 1155, 1156, 1108
692, 1107, 1155, 1156, 1108, 1109, 1157, 1158, 1110
693, 1109, 1157, 1158, 1110, 1111, 1159, 1160, 1112
694, 1111, 1159, 1160, 1112, 1113, 1161, 1162, 1114
695, 1113, 1161, 1162, 1114, 1115, 1163, 1164, 1116
696, 1106, 1154, 1165, 1117, 1108, 1156, 1166, 1118
697, 1108, 1156, 1166, 1118, 1110, 1158, 1167, 1119
698, 1110, 1158, 1167, 1119, 1112, 1160, 1168, 1120
699, 1112, 1160, 1168, 1120, 1114, 1162, 1169, 1121
700, 1114, 1162, 1169, 1121, 1116, 1164, 1170, 1122
701, 1123, 1171, 1172, 1124, 1125, 1173, 1174, 1126
702, 1125, 1173, 1174, 1126, 1127, 1175, 1176, 1128
703, 1124, 1172, 1177, 1129, 1126, 1174, 1178, 1130
704, 1126, 1174, 1178, 1130, 1128, 1176, 1179, 1131
705, 1129, 1177, 1180, 1132, 1130, 1178, 1181, 1133
706, 1130, 1178, 1181, 1133, 1131, 1179, 1182, 1134
707, 1132, 1180, 1163, 1115, 1133, 1181, 1183, 1135
708, 1133, 1181, 1183, 1135, 1134, 1182, 1184, 1136
709, 1115, 1163, 1164, 1116, 1135, 1183, 1185, 1137
710, 1135, 1183, 1185, 1137, 1136, 1184, 1186, 1138
711, 1116, 1164, 1170, 1122, 1137, 1185, 1187, 1139
712, 1137, 1185, 1187, 1139, 1138, 1186, 1188, 1140
713, 1122, 1170, 1189, 1141, 1139, 1187, 1190, 1142
714, 1139, 1187, 1190, 1142, 1140, 1188, 1191, 1143
715, 1141, 1189, 1192, 1144, 1142, 1190, 1193, 1145
716, 1142, 1190, 1193, 1145, 1143, 1191, 1194, 1146
717, 1144, 1192, 1195, 1147, 1145, 1193, 1196, 1148
718, 1145, 1193, 1196, 1148, 1146, 1194, 1197, 1149
719, 1147, 1195, 1198, 1150, 1148, 1196, 1199, 1151
720, 1148, 1196, 1199, 1151, 1149, 1197, 1200, 1152
721, 1153, 1201, 1202, 1154, 1155, 1203, 1204, 1156
722, 1155, 1203, 1204, 1156, 1157, 1205, 1206, 1158
723, 1157, 1205, 1206, 1158, 1159, 1207, 1208, 1160
724, 1159, 1207, 1208, 1160, 1161, 1209, 1210, 1162
725, 1161, 1209, 1210, 1162, 1163, 1211, 1212, 1164
726, 1154, 1202, 1213, 1165, 1156, 1204, 1214, 1166
727, 1156, 1204, 1214, 1166, 1158, 1206, 1215, 1167
728, 1158, 1206, 1215, 1167, 1160, 1208, 1216, 1168
729, 1160, 1208, 1216, 1168, 1162, 1210, 1217, 1169
730, 1162, 1210, 1217, 1169, 1164, 1212, 1218, 1170
731, 1171, 1219, 1220, 1172, 1173, 1221, 1222, 1174
732, 1173, 1221, 1222, 1174, 1175, 1223, 1224, 1176
733, 1172, 1220, 1225, 1177, 1174, 1222, 1226, 1178
734, 1174, 1222, 1226, 1178, 1176, 1224, 1227, 1179
735, 1177, 1225, 1228, 1180, 1178, 1226, 1229, 1181
736, 1178, 1226, 1229, 1181, 1179, 1227, 1230, 1182
737, 1180, 1228, 1211, 1163, 1181, 1229, 1231, 1183
738, 1181, 1229, 1231, 1183, 1182, 1230, 1232, 1184
739, 1163, 1211, 1212, 1164, 1183, 1231, 1233, 1185
740, 1183, 1231, 1233, 1185, 1184, 1232, 1234, 1186
741, 1164, 1212, 1218, 1170, 1185, 1233, 1235, 1187
742, 1185, 1233, 1235, 1187, 1186, 1234, 1236, 1188
743, 1170, 1218, 1237, 1189, 1187, 1235, 1238, 1190
744, 1187, 1235, 1238, 1190, 1188, 1236, 1239, 1191
745, 1189, 1237, 1240, 1192, 1190, 1238, 1241, 1193
746, 1190, 1238, 1241, 1193, 1191, 1239, 1242, 1194
747, 1192, 1240, 1243, 1195, 1193, 1241, 1244, 1196
748, 1193, 1241, 1244, 1196, 1194, 1242, 1245, 1197
749, 1195, 1243, 1246, 1198, 1196, 1244, 1247, 1199
750, 1196, 1244, 1247, 1199, 1197, 1245, 1248, 1200
751, 1201, 1249, 1250, 1202, 1203, 1251, 1252, 1204
752, 1203, 1251, 1252, 1204, 1205, 1253, 1254, 1206
753, 1205, 1253, 1254, 1206, 1207, 1255, 1256, 1208
754, 1207, 1255, 1256, 1208, 1209, 1257, 1258, 1210
755, 1209, 1257, 1258, 1210, 1211, 1259, 1260, 1212
756, 1202, 1250, 1261, 1213, 1204, 1252, 1262, 1214
757, 1204, 1252, 1262, 1214, 1206, 1254, 1263, 1215
758, 1206, 1254, 1263, 1215, 1208, 1256, 1264, 1216
759, 1208, 1256, 1264, 1216, 1210, 1258, 1265, 1217
760, 1210, 1258, 1265, 1217, 1212, 1260, 1266, 1218
761, 1219, 1267, 1268, 1220, 1221, 1269, 1270, 1222
762, 1221, 1269, 1270, 1222, 1223, 1271, 1272, 1224
763, 1220, 1268, 1273, 1225, 1222, 1270, 1274, 1226
764, 1222, 1270, 1274, 1226, 1224, 1272, 1275, 1227
765, 1225, 1273, 1276, 1228, 1226, 1274, 1277, 1229
766, 1226, 1274, 1277, 1229, 1227, 1275, 1278, 1230
767, 1228, 1276, 1259, 1211, 1229, 1277, 1279, 1231
768, 1229, 1277, 1279, 1231, 1230, 1278, 1280, 1232
769, 1211, 1259, 1260, 1212, 1231, 1279, 1281, 1233
770, 1231, 1279, 1281, 1233, 1232, 1280, 1282, 1234
771, 1212, 1260, 1266, 1218, 1233, 1281, 1283, 1235
772, 1233, 1281, 1283, 1235, 1234, 1282, 1284, 1236
773, 1218, 1266, 1285, 1237, 1235, 1283, 1286, 1238
774, 1235, 1283, 1286, 1238, 1236, 1284, 1287, 1239
775, 1237, 1285, 1288, 1240, 1238, 1286, 1289, 1241
776, 1238, 1286, 1289, 1241, 1239, 1287, 1290, 1242
777, 1240, 1288, 1291, 1243, 1241, 1289, 1292, 1244
778, 1241, 1289, 1292, 1244, 1242, 1290, 1293, 1245
779, 1243, 1291, 1294, 1246, 1244, 1292, 1295, 1247
780, 1244, 1292, 1295, 1247, 1245, 1293, 1296, 1248
781, 1249, 1297, 1298, 1250, 1251, 1299, 1300, 1252
782, 1251, 1299, 1300, 1252, 1253, 1301, 1302, 1254
783, 1253, 1301, 1302, 1254, 1255, 1303, 1304, 1256
784, 1255, 1303, 1304, 1256, 1257, 1305, 1306, 1258
785, 1257, 1305, 1306, 1258, 1259, 1307, 1308, 1260
786, 1250, 1298, 1309, 1261, 1252, 1300, 1310, 1262
787, 1252, 1300, 1310, 1262, 1254, 1302, 1311, 1263
788, 1254, 1302, 1311, 1263, 1256, 1304, 1312, 1264
789, 1256, 1304, 1312, 1264, 1258, 1306, 1313, 1265
790, 1258, 1306, 1313, 1265, 1260, 1308, 1314, 1266
791, 1267, 1315, 1316, 1268, 1269, 1317, 1318, 1270
792, 1269, 1317, 1318, 1270, 1271, 1319, 1320, 1272
793, 1268, 1316, 1321, 1273, 1270, 1318, 1322, 1274
794, 1270, 1318, 1322, 1274, 1272, 1320, 1323, 1275
795, 1273, 1321, 1324, 1276, 1274, 1322, 1325, 1277
796, 1274, 1322, 1325, 1277, 1275, 1323, 1326, 1278
797, 1276, 1324, 1307, 1259, 1277, 1325, 1327, 1279
798, 1277, 1325, 1327, 1279, 1278, 1326, 1328, 1280
799, 1259, 1307, 1308, 1260, 1279, 1327, 1329, 1281
800, 1279, 1327, 1329, 1281, 1280, 1328, 1330, 1282
801, 1260, 1308, 1314, 1266, 1281, 1329, 1331, 1283
802, 1281, 1329, 1331, 1283, 1282, 1330, 1332, 1284
803, 1266, 1314, 1333, 1285, 1283, 1331, 1334, 1286
804, 1283, 1331, 1334, 1286, 1284, 1332, 1335, 1287
805, 1285, 1333, 1336, 1288, 1286, 1334, 1337, 1289
806, 1286, 1334, 1337, 1289, 1287, 1335, 1338, 1290
807, 1288, 1336, 1339, 1291, 1289, 1337, 1340, 1292
808, 1289, 1337, 1340, 1292, 1290, 1338, 1341, 1293
809, 1291, 1339, 1342, 1294, 1292, 1340, 1343, 1295
810, 1292, 1340, 1343, 1295, 1293, 1341, 1344, 1296
811, 1297, 1345, 1346, 1298, 1299, 1347, 1348, 1300
812, 1299, 1347, 1348, 1300, 1301, 1349, 1350, 1302
813, 1301, 1349, 1350, 1302, 1303, 1351, 1352, 1304
814, 1303, 1351, 1352, 1304, 1305, 1353, 1354, 1306
815, 1305, 1353, 1354, 1306, 1307, 1355, 1356, 1308
816, 1298, 1346, 1357, 1309, 1300, 1348, 1358, 1310
817, 1300, 1348, 1358, 1310, 1302, 1350, 1359, 1311
818, 1302, 1350, 1359, 1311, 1304, 1352, 1360, 1312
819, 1304, 1352, 1360, 1312, 1306, 1354, 1361, 1313
820, 1306, 1354, 1361, 1313, 1308, 1356, 1362, 1314
821, 1315, 1363, 1364, 1316, 1317, 1365, 1366, 1318
822, 1317, 1365, 1366, 1318, 1319, 1367, 1368, 1320
823, 1316, 1364, 1369, 1321, 1318, 1366, 1370, 1322
824, 1318, 1366, 1370, 1322, 1320, 1368, 1371, 1323
825, 1321, 1369, 1372, 1324, 1322, 1370, 1373, 1325
826, 1322, 1370, 1373, 1325, 1323, 1371, 1374, 1326
827, 1324, 1372, 1355, 1307, 1325, 1373, 1375, 1327
828, 1325, 1373, 1375, 1327, 1326, 1374, 1376, 1328
829, 1307, 1355, 1356, 1308, 1327, 1375, 1377, 1329
830, 1327, 1375, 1377, 1329, 1328, 1376, 1378, 1330
831, 1308, 1356, 1362, 1314, 1329, 1377, 1379, 1331
832, 1329, 1377, 1379, 1331, 1330, 1378, 1380, 1332
833, 1314, 1362, 1381, 1333, 1331, 1379, 1382, 1334
834, 1331, 1379, 1382, 1334, 1332, 1380, 1383, 1335
835, 1333, 1381, 1384, 1336, 1334, 1382, 1385, 1337
836, 1334, 1382, 1385, 1337, 1335, 1383, 1386, 1338
837, 1336, 1384, 1387, 1339, 1337, 1385, 1388, 1340
838, 1337, 1385, 1388, 1340, 1338, 1386, 1389, 1341
839, 1339, 1387, 1390, 1342, 1340, 1388, 1391, 1343
840, 1340, 1388, 1391, 1343, 1341, 1389, 1392, 1344
841, 1345, 1393, 1394, 1346, 1347, 1395, 1396, 1348
842, 1347, 1395, 1396, 1348, 1349, 1397, 1398, 1350
843, 1349, 1397, 1398, 1350, 1351, 1399, 1400, 1352
844, 1351, 1399, 1400, 1352, 1353, 1401, 1402, 1354
845, 1353, 1401, 1402, 1354, 1355, 1403, 1404, 1356
846, 1346, 1394, 1405, 1357, 1348, 1396, 1406, 1358
847, 1348, 1396, 1406, 1358, 1350, 1398, 1407, 1359
848, 1350, 1398, 1407, 1359, 1352, 1400, 1408, 1360
849, 1352, 1400, 1408, 1360, 1354, 1402, 1409, 1361
850, 1354, 1402, 1409, 1361, 1356, 1404, 1410, 1362
851, 1363, 1411, 1412, 1364, 1365, 1413, 1414, 1366
852, 1365, 1413, 1414, 1366, 1367, 1415, 1416, 1368
853, 1364, 1412, 1417, 1369, 1366, 1414, 1418, 1370
854, 1366, 1414, 1418, 1370, 1368, 1416, 1419, 1371
855, 1369, 1417, 1420, 1372, 1370, 1418, 1421, 1373
856, 1370, 1418, 1421, 1373, 1371, 1419, 1422, 1374
857, 1372, 1420, 1403, 1355, 1373, 1421, 1423, 1375
858, 1373, 1421, 1423, 1375, 1374, 1422, 1424, 1376
859, 1355, 1403, 1404, 1356, 1375, 1423, 1425, 1377
860, 1375, 1423, 1425, 1377, 1376, 1424, 1426, 1378
861, 1356, 1404, 1410, 1362, 1377, 1425, 1427, 1379
862, 1377, 1425, 1427, 1379, 1378, 1426, 1428, 1380
863, 1362, 1410, 1429, 1381, 1379, 1427, 1430, 1382
864, 1379, 1427, 1430, 1382, 1380, 1428, 1431, 1383
865, 1381, 1429, 1432, 1384, 1382, 1430, 1433, 1385
866, 1382, 1430, 1433, 1385, 1383, 1431, 1434, 1386
867, 1384, 1432, 1435, 1387, 1385, 1433, 1436, 1388
868, 1385, 1433, 1436, 1388, 1386, 1434, 1437, 1389
869, 1387, 1435, 1438, 1390, 1388, 1436, 1439, 1391
870, 1388, 1436, 1439, 1391, 1389, 1437, 1440, 1392
871, 1393, 1441, 1442, 1394, 1395, 1443, 1444, 1396
872, 1395, 1443, 1444, 1396, 1397, 1445, 1446, 1398
873, 1397, 1445, 1446, 1398, 1399, 1447, 1448, 1400
874, 1399, 1447, 1448, 1400, 1401, 1449, 1450, 1402
875, 1401, 1449, 1450, 1402, 1403, 1451, 1452, 1404
876, 1394, 1442, 1453, 1405, 1396, 1444, 1454, 1406
877, 1396, 1444, 1454, 1406, 1398, 1446, 1455, 1407
878, 1398, 1446, 1455, 1407, 1400, 1448, 1456, 1408
879, 1400, 1448, 1456, 1408, 1402, 1450, 1457, 1409
880, 1402, 1450, 1457, 1409, 1404, 1452, 1458, 1410
881, 1411, 1459, 1460, 1412, 1413, 1461, 1462, 1414
882, 1413, 1461, 1462, 1414, 1415, 1463, 1464, 1416
883, 1412, 1460, 1465, 1417, 1414, 1462, 1466, 1418
884, 1414, 1462, 1466, 1418, 1416, 1464, 1467, 1419
885, 1417, 1465, 1468, 1420, 1418, 1466, 1469, 1421
886, 1418, 1466, 1469, 1421, 1419, 1467, 1470, 1422
887, 1420, 1468, 1451, 1403, 1421, 1469, 1471, 1423
888, 1421, 1469, 1471, 1423, 1422, 1470, 1472, 1424
889, 1403, 1451, 1452, 1404, 1423, 1471, 1473, 1425
890, 1423, 1471, 1473, 1425, 1424, 1472, 1474, 1426
891, 1404, 1452, 1458, 1410, 1425, 1473, 1475, 1427
892, 1425, 1473, 1475, 1427, 1426, 1474, 1476, 1428
893, 1410, 1458, 1477, 1429, 1427, 1475, 1478, 1430
894, 1427, 1475, 1478, 1430, 1428, 1476, 1479, 1431
895, 1429, 1477, 1480, 1432, 1430, 1478, 1481, 1433
896, 1430, 1478, 1481, 1433, 1431, 1479, 1482, 1434
897, 1432, 1480, 1483, 1435, 1433, 1481, 1484, 1436
898, 1433, 1481, 1484, 1436, 1434, 1482, 1485, 1437
899, 1435, 1483, 1486, 1438, 1436, 1484, 1487, 1439
900, 1436, 1484, 1487, 1439, 1437, 1485, 1488, 1440
901, 1441, 1489, 1490, 1442, 1443, 1491, 1492, 1444
902, 1443, 1491, 1492, 1444, 1445, 1493, 1494, 1446
903, 1445, 1493, 1494, 1446, 1447, 1495, 1496, 1448
904, 1447, 1495, 1496, 1448, 1449, 1497, 1498, 1450
905, 1449, 1497, 1498, 1450, 1451, 1499, 1500, 1452
906, 1442, 1490, 1501, 1453, 1444, 1492, 1502, 1454
907, 1444, 1492, 1502, 1454, 1446, 1494, 1503, 1455
908, 1446, 1494, 1503, 1455, 1448, 1496, 1504, 1456
909, 1448, 1496, 1504, 1456, 1450, 1498, 1505, 1457
910, 1450, 1498, 1505, 1457, 1452, 1500, 1506, 1458
911, 1459, 1507, 1508, 1460, 1461, 1509, 1510, 1462
912, 1461, 1509, 1510, 1462, 1463, 1511, 1512, 1464
913, 1460, 1508, 1513, 1465, 1462, 1510, 1514, 1466
914, 1462, 1510, 1514, 1466, 1464, 1512, 1515, 1467
915, 1465, 1513, 1516, 1468, 1466, 1514, 1517, 1469
916, 1466, 1514, 1517, 1469, 1467, 1515, 1518, 1470
917, 1468, 1516, 1499, 1451, 1469, 1517, 1519, 1471
918, 1469, 1517, 1519, 1471, 1470, 1518, 1520, 1472
919, 1451, 1499, 1500, 1452, 1471, 1519, 1521, 1473
920, 1471, 1519, 1521, 1473, 1472, 1520, 1522, 1474
921, 1452, 1500, 1506, 1458, 1473, 1521, 1523, 1475
922, 1473, 1521, 1523, 1475, 1474, 1522, 1524, 1476
923, 1458, 1506, 1525, 1477, 1475, 1523, 1526, 1478
924, 1475, 1523, 1526, 1478, 1476, 1524, 1527, 1479
925, 1477, 1525, 1528, 1480, 1478, 1526, 1529, 1481
926, 1478, 1526, 1529, 1481, 1479, 1527, 1530, 1482
927, 1480, 1528, 1531, 1483, 1481, 1529, 1532, 1484
928, 1481, 1529, 1532, 1484, 1482, 1530, 1533, 1485
929, 1483, 1531, 1534, 1486, 1484, 1532, 1535, 1487
930, 1484, 1532, 1535, 1487, 1485, 1533, 1536, 1488
931, 1489, 1537, 1538, 1490, 1491, 1539, 1540, 1492
932, 1491, 1539, 1540, 1492, 1493, 1541, 1542, 1494
933, 1493, 1541, 1542, 1494, 1495, 1543, 1544, 1496
934, 1495, 1543, 1544, 1496, 1497, 1545, 1546, 1498
935, 1497, 1545, 1546, 1498, 1499, 1547, 1548, 1500
936, 1490, 1538, 1549, 1501, 1492, 1540, 1550, 1502
937, 1492, 1540, 1550, 1502, 1494, 1542, 1551, 1503
938, 1494, 1542, 1551, 1503, 1496, 1544, 1552, 1504
939, 1496, 1544, 1552, 1504, 1498, 1546, 1553, 1505
940, 1498, 1546, 1553, 1505, 1500, 1548, 1554, 1506
941, 1507, 1555, 1556, 1508, 1509, 1557, 1558, 1510
942, 1509, 1557, 1558, 1510, 1511, 1559, 1560, 1512
943, 1508, 1556, 1561, 1513, 1510, 1558, 1562, 1514
944, 1510, 1558, 1562, 1514, 1512, 1560, 1563, 1515
945, 1513, 1561, 1564, 1516, 1514, 1562, 1565, 1517
946, 1514, 1562, 1565, 1517, 1515, 1563, 1566, 1518
947, 1516, 1564, 1547, 1499, 1517, 1565, 1567, 1519
948, 1517, 1565, 1567, 1519, 1518, 1566, 1568, 1520
949, 1499, 1547, 1548, 1500, 1519, 1567, 1569, 1521
950, 1519, 1567, 1569, 1521, 1520, 1568, 1570, 1522
951, 1500, 1548, 1554, 1506, 1521, 1569, 1571, 1523
952, 1521, 1569, 1571, 1523, 1522, 1570, 1572, 1524
953, 1506, 1554, 1573, 1525, 1523, 1571, 1574, 1526
954, 1523, 1571, 1574, 1526, 1524, 1572, 1575, 1527
955, 1525, 1573, 1576, 1528, 1526, 1574, 1577, 1529
956, 1526, 1574, 1577, 1529, 1527, 1575, 1578, 1530
957, 1528, 1576, 1579, 1531, 1529, 1577, 1580, 1532
958, 1529, 1577, 1580, 1532, 1530, 1578, 1581, 1533
959, 1531, 1579, 1582, 1534, 1532, 1580, 1583, 1535
960, 1532, 1580, 1583, 1535, 1533, 1581, 1584, 1536
961, 1537, 1585, 1586, 1538, 1539, 1587, 1588, 1540
962, 1539, 1587, 1588, 1540, 1541, 1589, 1590, 1542
963, 1541, 1589, 1590, 1542, 1543, 1591, 1592, 1544
964, 1543, 1591, 1592, 1544, 1545, 1593, 1594, 1546
965, 1545, 1593, 1594, 1546, 1547, 1595, 1596, 1548
966, 1538, 1586, 1597, 1549, 1540, 1588, 1598, 1550
967, 1540, 1588, 1598, 1550, 1542, 1590, 1599, 1551
968, 1542, 1590, 1599, 1551, 1544, 1592, 1600, 1552
969, 1544, 1592, 1600, 1552, 1546, 1594, 1601, 1553
970, 1546, 1594, 1601, 1553, 1548, 1596, 1602, 1554
971, 1555, 1603, 1604, 1556, 1557, 1605, 1606, 1558
972, 1557, 1605, 1606, 1558, 1559, 1607, 1608, 1560
973, 1556, 1604, 1609, 1561, 1558, 1606, 1610, 1562
974, 1558, 1606, 1610, 1562, 1560, 1608, 1611, 1563
975, 1561, 1609, 1612, 1564, 1562, 1610, 1613, 1565
976, 1562, 1610, 1613, 1565, 1563, 1611, 1614, 1566
977, 1564, 1612, 1595, 1547, 1565, 1613, 1615, 1567
978, 1565, 1613, 1615, 1567, 1566, 1614, 1616, 1568
979, 1547, 1595, 1596, 1548, 1567, 1615, 1617, 1569
980, 1567, 1615, 1617, 1569, 1568, 1616, 1618, 1570
981, 1548, 1596, 1602, 1554, 1569, 1617, 1619, 1571
982, 1569, 1617, 1619, 1571, 1570, 1618, 1620, 1572
983, 1554, 1602, 1621, 1573, 1571, 1619, 1622, 1574
984, 1571, 1619, 1622, 1574, 1572, 1620, 1623, 1575
985, 1573, 1621, 1624, 1576, 1574, 1622, 1625, 1577
986, 1574, 1622, 1625, 1577, 1575, 1623, 1626, 1578
987, 1576, 1624, 1627, 1579, 1577, 1625, 1628, 1580
988, 1577, 1625, 1628, 1580, 1578, 1626, 1629, 1581
989, 1579, 1627, 1630, 1582, 1580, 1628, 1631, 1583
990, 1580, 1628, 1631, 1583, 1581, 1629, 1632, 1584
991, 1585, 1633, 1634, 1586, 1587, 1635, 1636, 1588
992, 1587, 1635, 1636, 1588, 1589, 1637, 1638, 1590
993, 1589, 1637, 1638, 1590, 1591, 1639, 1640, 1592
994, 1591, 1639, 1640, 1592, 1593, 1641, 1642, 1594
995, 1593, 1641, 1642, 1594, 1595, 1643, 1644, 1596
996, 1586, 1634, 1645, 1597, 1588, 1636, 1646, 1598
997, 1588, 1636, 1646, 1598, 1590, 1638, 1647, 1599
998, 1590, 1638, 1647, 1599, 1592, 1640, 1648, 1600
999, 1592, 1640, 1648, 1600, 1594, 1642, 1649, 1601
1000, 1594, 1642, 1649, 1601, 1596, 1644, 1650, 1602
1001, 1603, 1651, 1652, 1604, 1605, 1653, 1654, 1606
1002, 1605, 1653, 1654, 1606, 1607, 1655, 1656, 1608
1003, 1604, 1652, 1657, 1609, 1606, 1654, 1658, 1610
1004, 1606, 1654, 1658, 1610, 1608, 1656, 1659, 1611
1005, 1609, 1657, 1660, 1612, 1610, 1658, 1661, 1613
1006, 1610, 1658, 1661, 1613, 1611, 1659, 1662, 1614
1007, 1612, 1660, 1643, 1595, 1613, 1661, 1663, 1615
1008, 1613, 1661, 1663, 1615, 1614, 1662, 1664, 1616
1009, 1595, 1643, 1644, 1596, 1615, 1663, 1665, 1617
1010, 1615, 1663, 1665, 1617, 1616, 1664, 1666, 1618
1011, 1596, 1644, 1650, 1602, 1617, 1665, 1667, 1619
1012, 1617, 1665, 1667, 1619, 1618, 1666, 1668, 1620
1013, 1602, 1650, 1669, 1621, 1619, 1667, 1670, 1622
1014, 1619, 1667, 1670, 1622, 1620, 1668, 1671, 1623
1015, 1621, 1669, 1672, 1624, 1622, 1670, 1673, 1625
1016, 1622, 1670, 1673, 1625, 1623, 1671, 1674, 1626
1017, 1624, 1672, 1675, 1627, 1625, 1673, 1676, 1628
1018, 1625, 1673, 1676, 1628, 1626, 1674, 1677, 1629
1019, 1627, 1675, 1678, 1630, 1628, 1676, 1679, 1631
1020, 1628, 1676, 1679, 1631, 1629, 1677, 1680, 1632
1021, 1633, 1681, 1682, 1634, 1635, 1683, 1684, 1636
1022, 1635, 1683, 1684, 1636, 1637, 1685, 1686, 1638
1023, 1637, 1685, 1686, 1638, 1639, 1687, 1688, 1640
1024, 1639, 1687, 1688, 1640, 1641, 1689, 1690, 1642
1025, 1641, 1689, 1690, 1642, 1643, 1691, 1692, 1644
1026, 1634, 1682, 1693, 1645, 1636, 1684, 1694, 1646
1027, 1636, 1684, 1694, 1646, 1638, 1686, 1695, 1647
1028, 1638, 1686, 1695, 1647, 1640, 1688, 1696, 1648
1029, 1640, 1688, 1696, 1648, 1642, 1690, 1697, 1649
1030, 1642, 1690, 1697, 1649, 1644, 1692, 1698, 1650
1031, 1651, 1699, 1700, 1652, 1653, 1701, 1702, 1654
1032, 1653, 1701, 1702, 1654, 1655, 1703, 1704, 1656
1033, 1652, 1700, 1705, 1657, 1654, 1702, 1706, 1658
1034, 1654, 1702, 1706, 1658, 1656, 1704, 1707, 1659
1035, 1657, 1705, 1708, 1660, 1658, 1706, 1709, 1661
1036, 1658, 1706, 1709, 1661, 1659, 1707, 1710, 1662
1037, 1660, 1708, 1691, 1643, 1661, 1709, 1711, 1663
1038, 1661, 1709, 1711, 1663, 1662, 1710, 1712, 1664
1039, 1643, 1691, 1692, 1644, 1663, 1711, 1713, 1665
1040, 1663, 1711, 1713, 1665, 1664, 1712, 1714, 1666
1041, 1644, 1692, 1698, 1650, 1665, 1713, 1715, 1667
1042, 1665, 1713, 1715, 1667, 1666, 1714, 1716, 1668
1043, 1650, 1698, 1717, 1669, 1667, 1715, 1718, 1670
1044, 1667, 1715, 1718, 1670, 1668, 1716, 1719, 1671
1045, 1669, 1717, 1720, 1672, 1670, 1718, 1721, 1673
1046, 1670, 1718, 1721, 1673, 1671, 1719, 1722, 1674
1047, 1672, 1720, 1723, 1675, 1673, 1721, 1724, 1676
1048, 1673, 1721, 1724, 1676, 1674, 1722, 1725, 1677
1049, 1675, 1723, 1726, 1678, 1676, 1724, 1727, 1679
1050, 1676, 1724, 1727, 1679, 1677, 1725, 1728, 1680
1051, 1681, 1729, 1730, 1682, 1683, 1731, 1732, 1684
1052, 1683, 1731, 1732, 1684, 1685, 1733, 1734, 1686
1053, 1685, 1733, 1734, 1686, 1687, 1735, 1736, 1688
1054, 1687, 1735, 1736, 1688, 1689, 1737, 1738, 1690
1055, 1689, 1737, 1738, 1690, 1691, 1739, 1740, 1692
1056, 1682, 1730, 1741, 1693, 1684, 1732, 1742, 1694
1057, 1684, 1732, 1742, 1694, 1686, 1734, 1743, 1695
1058, 1686, 1734, 1743, 1695, 1688, 1736, 1744, 1696
1059, 1688, 1736, 1744, 1696, 1690, 1738, 1745, 1697
1060, 1690, 1738, 1745, 1697, 1692, 1740, 1746, 1698
1061, 1699, 1747, 1748, 1700, 1701, 1749, 1750, 1702
1062, 1701, 1749, 1750, 1702, 1703, 1751, 1752, 1704
1063, 1700, 1748, 1753, 1705, 1702, 1750, 1754, 1706
1064, 1702, 1750, 1754, 1706, 1704, 1752, 1755, 1707
1065, 1705, 1753, 1756, 1708, 1706, 1754, 1757, 1709
1066, 1706, 1754, 1757, 1709, 1707, 1755, 1758, 1710
1067, 1708, 1756, 1739, 1691, 1709, 1757, 1759, 1711
1068, 1709, 1757, 1759, 1711, 1710, 1758, 1760, 1712
1069, 1691, 1739, 1740, 1692, 1711, 1759, 1761, 1713
1070, 1711, 1759, 1761, 1713, 1712, 1760, 1762, 1714
1071, 1692, 1740, 1746, 1698, 1713, 1761, 1763, 1715
1072, 1713, 1761, 1763, 1715, 1714, 1762, 1764, 1716
1073, 1698, 1746, 1765, 1717, 1715, 1763, 1766, 1718
1074, 1715, 1763, 1766, 1718, 1716, 1764, 1767, 1719
1075, 1717, 1765, 1768, 1720, 1718, 1766, 1769, 1721
1076, 1718, 1766, 1769, 1721, 1719, 1767, 1770, 1722
1077, 1720, 1768, 1771, 1723, 1721, 1769, 1772, 1724
1078, 1721, 1769, 1772, 1724, 1722, 1770, 1773, 1725
1079, 1723, 1771, 1774, 1726, 1724, 1772, 1775, 1727
1080, 1724, 1772, 1775, 1727, 1725, 1773, 1776, 1728
1081, 1729, 1777, 1778, 1730, 1731, 1779, 1780, 1732
1082, 1731, 1779, 1780, 1732, 1733, 1781, 1782, 1734
1083, 1733, 1781, 1782, 1734, 1735, 1783, 1784, 1736
1084, 1735, 1783, 1784, 1736, 1737, 1785, 1786, 1738
1085, 1737, 1785, 1786, 1738, 1739, 1787, 1788, 1740
1086, 1730, 1778, 1789, 1741, 1732, 1780, 1790, 1742
1087, 1732, 1780, 1790, 1742, 1734, 1782, 1791, 1743
1088, 1734, 1782, 1791, 1743, 1736, 1784, 1792, 1744
1089, 1736, 1784, 1792, 1744, 1738, 1786, 1793, 1745
1090, 1738, 1786, 1793, 1745, 1740, 1788, 1794, 1746
1091, 1747, 1795, 1796, 1748, 1749, 1797, 1798, 1750
1092, 1749, 1797, 1798, 1750, 1751, 1799, 1800, 1752
1093, 1748, 1796, 1801, 1753, 1750, 1798, 1802, 1754
1094, 1750, 1798, 1802, 1754, 1752, 1800, 1803, 1755
1095, 1753, 1801, 1804, 1756, 1754, 1802, 1805, 1757
1096, 1754, 1802, 1805, 1757, 1755, 1803, 1806, 1758
1097, 1756, 1804, 1787, 1739, 1757, 1805, 1807, 1759
1098, 1757, 1805, 1807, 1759, 1758, 1806, 1808, 1760
1099, 1739, 1787, 1788, 1740, 1759, 1807, 1809, 1761
1100, 1759, 1807, 1809, 1761, 1760, 1808, 1810, 1762
1101, 1740, 1788, 1794, 1746, 1761, 1809, 1811, 1763
1102, 1761, 1809, 1811, 1763, 1762, 1810, 1812, 1764
1103, 1746, 1794, 1813, 1765, 1763, 1811, 1814, 1766
1104, 1763, 1811, 1814, 1766, 1764, 1812, 1815, 1767
1105, 1765, 1813, 1816, 1768, 1766, 1814, 1817, 1769
1106, 1766, 1814, 1817, 1769, 1767, 1815, 1818, 1770
1107, 1768, 1816, 1819, 1771, 1769, 1817, 1820, 1772
1108, 1769, 1817, 1820, 1772, 1770, 1818, 1821, 1773
1109, 1771, 1819, 1822, 1774, 1772, 1820, 1823, 1775
1110, 1772, 1820, 1823, 1775, 1773, 1821, 1824, 1776
*NSET, NSET=CLAMP
1, 4, 5, 8, 9, 12, 13, 16, 17, 20, 21, 24, 26, 28, 30, 32
34, 36, 37, 40, 41, 44, 45, 48, 50, 52, 54, 56, 58, 60, 62, 64
66, 68, 70, 72, 74, 76, 78, 80, 82, 84, 86, 88, 90, 92, 94, 96
*NSET, NSET=TIP_TOP
1799, 1800, 1803, 1806, 1808, 1810, 1812, 1815, 1818, 1821, 1824
*NSET, NSET=TIP_FLANGE
1799, 1800, 1803, 1806, 1808, 1810, 1812, 1815, 1818, 1821, 1824
*MATERIAL, NAME=STEEL
*ELASTIC
210000, 0.3
*SOLID SECTION, ELSET=EALL, MATERIAL=STEEL
*BOUNDARY
CLAMP, 1, 3, 0.0
*STEP
*STATIC
*CLOAD
1799, 3, -454.545454545
1800, 3, -454.545454545
1803, 3, -454.545454545
1806, 3, -454.545454545
1808, 3, -454.545454545
1810, 3, -454.545454545
1812, 3, -454.545454545
1815, 3, -454.545454545
1818, 3, -454.545454545
1821, 3, -454.545454545
1824, 3, -454.545454545
*NODE FILE
U
*EL FILE
S, ENER
*NODE PRINT, NSET=TIP_TOP
U
*NODE PRINT, NSET=CLAMP
RF
*EL PRINT, ELSET=EALL
ELSE
*ENERGY PRINT
*END STEP
