*HEADING
Normalized cross-passage space-truss torsion benchmark
*NODE
1,-1.200000000000e+00,0.000000000000e+00,0.000000000000e+00
2,1.200000000000e+00,0.000000000000e+00,0.000000000000e+00
3,-1.200000000000e+00,0.000000000000e+00,2.000000000000e+00
4,1.200000000000e+00,0.000000000000e+00,2.000000000000e+00
5,-1.200000000000e+00,1.000000000000e+01,0.000000000000e+00
6,1.200000000000e+00,1.000000000000e+01,0.000000000000e+00
7,-1.200000000000e+00,1.000000000000e+01,2.000000000000e+00
8,1.200000000000e+00,1.000000000000e+01,2.000000000000e+00
9,-1.200000000000e+00,2.000000000000e+01,0.000000000000e+00
10,1.200000000000e+00,2.000000000000e+01,0.000000000000e+00
11,-1.200000000000e+00,2.000000000000e+01,2.000000000000e+00
12,1.200000000000e+00,2.000000000000e+01,2.000000000000e+00
13,-1.200000000000e+00,3.000000000000e+01,0.000000000000e+00
14,1.200000000000e+00,3.000000000000e+01,0.000000000000e+00
15,-1.200000000000e+00,3.000000000000e+01,2.000000000000e+00
16,1.200000000000e+00,3.000000000000e+01,2.000000000000e+00
17,-1.200000000000e+00,4.000000000000e+01,0.000000000000e+00
18,1.200000000000e+00,4.000000000000e+01,0.000000000000e+00
19,-1.200000000000e+00,4.000000000000e+01,2.000000000000e+00
20,1.200000000000e+00,4.000000000000e+01,2.000000000000e+00
21,-1.200000000000e+00,5.000000000000e+01,0.000000000000e+00
22,1.200000000000e+00,5.000000000000e+01,0.000000000000e+00
23,-1.200000000000e+00,5.000000000000e+01,2.000000000000e+00
24,1.200000000000e+00,5.000000000000e+01,2.000000000000e+00
25,-1.200000000000e+00,5.000000000000e+00,-1.500000000000e-01
26,1.200000000000e+00,5.000000000000e+00,1.500000000000e-01
27,-1.200000000000e+00,5.000000000000e+00,1.850000000000e+00
28,1.200000000000e+00,5.000000000000e+00,2.150000000000e+00
29,-1.200000000000e+00,1.500000000000e+01,-1.500000000000e-01
30,1.200000000000e+00,1.500000000000e+01,1.500000000000e-01
31,-1.200000000000e+00,1.500000000000e+01,1.850000000000e+00
32,1.200000000000e+00,1.500000000000e+01,2.150000000000e+00
33,-1.200000000000e+00,2.250000000000e+01,-1.060660171780e-01
34,-1.200000000000e+00,2.500000000000e+01,-1.500000000000e-01
35,-1.200000000000e+00,2.750000000000e+01,-1.060660171780e-01
36,1.200000000000e+00,2.250000000000e+01,1.060660171780e-01
37,1.200000000000e+00,2.500000000000e+01,1.500000000000e-01
38,1.200000000000e+00,2.750000000000e+01,1.060660171780e-01
39,-1.200000000000e+00,2.250000000000e+01,1.893933982822e+00
40,-1.200000000000e+00,2.500000000000e+01,1.850000000000e+00
41,-1.200000000000e+00,2.750000000000e+01,1.893933982822e+00
42,1.200000000000e+00,2.250000000000e+01,2.106066017178e+00
43,1.200000000000e+00,2.500000000000e+01,2.150000000000e+00
44,1.200000000000e+00,2.750000000000e+01,2.106066017178e+00
45,-1.200000000000e+00,3.250000000000e+01,-1.060660171780e-01
46,-1.200000000000e+00,3.500000000000e+01,-1.500000000000e-01
47,-1.200000000000e+00,3.750000000000e+01,-1.060660171780e-01
48,1.200000000000e+00,3.250000000000e+01,1.060660171780e-01
49,1.200000000000e+00,3.500000000000e+01,1.500000000000e-01
50,1.200000000000e+00,3.750000000000e+01,1.060660171780e-01
51,-1.200000000000e+00,3.250000000000e+01,1.893933982822e+00
52,-1.200000000000e+00,3.500000000000e+01,1.850000000000e+00
53,-1.200000000000e+00,3.750000000000e+01,1.893933982822e+00
54,1.200000000000e+00,3.250000000000e+01,2.106066017178e+00
55,1.200000000000e+00,3.500000000000e+01,2.150000000000e+00
56,1.200000000000e+00,3.750000000000e+01,2.106066017178e+00
57,-1.200000000000e+00,4.500000000000e+01,-1.500000000000e-01
58,1.200000000000e+00,4.500000000000e+01,1.500000000000e-01
59,-1.200000000000e+00,4.500000000000e+01,1.850000000000e+00
60,1.200000000000e+00,4.500000000000e+01,2.150000000000e+00
61,-6.000000000000e-01,9.974544155877e+00,0.000000000000e+00
62,0.000000000000e+00,9.964000000000e+00,0.000000000000e+00
63,6.000000000000e-01,9.974544155877e+00,0.000000000000e+00
64,-6.000000000000e-01,1.002545584412e+01,2.000000000000e+00
65,0.000000000000e+00,1.003600000000e+01,2.000000000000e+00
66,6.000000000000e-01,1.002545584412e+01,2.000000000000e+00
67,-1.200000000000e+00,1.002121320344e+01,5.000000000000e-01
68,-1.200000000000e+00,1.003000000000e+01,1.000000000000e+00
69,-1.200000000000e+00,1.002121320344e+01,1.500000000000e+00
70,1.200000000000e+00,9.978786796564e+00,5.000000000000e-01
71,1.200000000000e+00,9.970000000000e+00,1.000000000000e+00
72,1.200000000000e+00,9.978786796564e+00,1.500000000000e+00
73,0.000000000000e+00,1.996400000000e+01,0.000000000000e+00
74,0.000000000000e+00,2.003600000000e+01,2.000000000000e+00
75,-1.200000000000e+00,2.003000000000e+01,1.000000000000e+00
76,1.200000000000e+00,1.997000000000e+01,1.000000000000e+00
77,0.000000000000e+00,2.996400000000e+01,0.000000000000e+00
78,0.000000000000e+00,3.003600000000e+01,2.000000000000e+00
79,-1.200000000000e+00,3.003000000000e+01,1.000000000000e+00
80,1.200000000000e+00,2.997000000000e+01,1.000000000000e+00
81,0.000000000000e+00,3.996400000000e+01,0.000000000000e+00
82,0.000000000000e+00,4.003600000000e+01,2.000000000000e+00
83,-1.200000000000e+00,4.003000000000e+01,1.000000000000e+00
84,1.200000000000e+00,3.997000000000e+01,1.000000000000e+00
85,0.000000000000e+00,4.996400000000e+01,0.000000000000e+00
86,0.000000000000e+00,5.003600000000e+01,2.000000000000e+00
87,-1.200000000000e+00,5.003000000000e+01,1.000000000000e+00
88,1.200000000000e+00,4.997000000000e+01,1.000000000000e+00
89,-1.200000000000e+00,2.521213203436e+00,3.939339828220e-01
90,-1.200000000000e+00,5.030000000000e+00,8.500000000000e-01
91,-1.200000000000e+00,7.521213203436e+00,1.393933982822e+00
92,-1.200000000000e+00,2.521213203436e+00,1.606066017178e+00
93,-1.200000000000e+00,5.030000000000e+00,1.150000000000e+00
94,-1.200000000000e+00,7.521213203436e+00,6.060660171780e-01
95,1.200000000000e+00,2.521213203436e+00,3.939339828220e-01
96,1.200000000000e+00,5.030000000000e+00,8.500000000000e-01
97,1.200000000000e+00,7.521213203436e+00,1.393933982822e+00
98,1.200000000000e+00,2.521213203436e+00,1.606066017178e+00
99,1.200000000000e+00,5.030000000000e+00,1.150000000000e+00
100,1.200000000000e+00,7.521213203436e+00,6.060660171780e-01
101,-4.939339828220e-01,2.474544155877e+00,0.000000000000e+00
102,1.500000000000e-01,4.964000000000e+00,0.000000000000e+00
103,7.060660171780e-01,7.474544155877e+00,0.000000000000e+00
104,4.939339828220e-01,2.474544155877e+00,0.000000000000e+00
105,-1.500000000000e-01,4.964000000000e+00,0.000000000000e+00
106,-7.060660171780e-01,7.474544155877e+00,0.000000000000e+00
107,-4.939339828220e-01,2.474544155877e+00,2.000000000000e+00
108,1.500000000000e-01,4.964000000000e+00,2.000000000000e+00
109,7.060660171780e-01,7.474544155877e+00,2.000000000000e+00
110,4.939339828220e-01,2.474544155877e+00,2.000000000000e+00
111,-1.500000000000e-01,4.964000000000e+00,2.000000000000e+00
112,-7.060660171780e-01,7.474544155877e+00,2.000000000000e+00
113,-1.200000000000e+00,1.252121320344e+01,3.939339828220e-01
114,-1.200000000000e+00,1.503000000000e+01,8.500000000000e-01
115,-1.200000000000e+00,1.752121320344e+01,1.393933982822e+00
116,-1.200000000000e+00,1.252121320344e+01,1.606066017178e+00
117,-1.200000000000e+00,1.503000000000e+01,1.150000000000e+00
118,-1.200000000000e+00,1.752121320344e+01,6.060660171780e-01
119,1.200000000000e+00,1.252121320344e+01,3.939339828220e-01
120,1.200000000000e+00,1.503000000000e+01,8.500000000000e-01
121,1.200000000000e+00,1.752121320344e+01,1.393933982822e+00
122,1.200000000000e+00,1.252121320344e+01,1.606066017178e+00
123,1.200000000000e+00,1.503000000000e+01,1.150000000000e+00
124,1.200000000000e+00,1.752121320344e+01,6.060660171780e-01
125,-4.939339828220e-01,1.247454415588e+01,0.000000000000e+00
126,1.500000000000e-01,1.496400000000e+01,0.000000000000e+00
127,7.060660171780e-01,1.747454415588e+01,0.000000000000e+00
128,4.939339828220e-01,1.247454415588e+01,0.000000000000e+00
129,-1.500000000000e-01,1.496400000000e+01,0.000000000000e+00
130,-7.060660171780e-01,1.747454415588e+01,0.000000000000e+00
131,-4.939339828220e-01,1.247454415588e+01,2.000000000000e+00
132,1.500000000000e-01,1.496400000000e+01,2.000000000000e+00
133,7.060660171780e-01,1.747454415588e+01,2.000000000000e+00
134,4.939339828220e-01,1.247454415588e+01,2.000000000000e+00
135,-1.500000000000e-01,1.496400000000e+01,2.000000000000e+00
136,-7.060660171780e-01,1.747454415588e+01,2.000000000000e+00
137,-1.200000000000e+00,2.503000000000e+01,8.500000000000e-01
138,-1.200000000000e+00,2.503000000000e+01,1.150000000000e+00
139,1.200000000000e+00,2.503000000000e+01,8.500000000000e-01
140,1.200000000000e+00,2.503000000000e+01,1.150000000000e+00
141,1.500000000000e-01,2.496400000000e+01,0.000000000000e+00
142,-1.500000000000e-01,2.496400000000e+01,0.000000000000e+00
143,1.500000000000e-01,2.496400000000e+01,2.000000000000e+00
144,-1.500000000000e-01,2.496400000000e+01,2.000000000000e+00
145,-1.200000000000e+00,3.503000000000e+01,8.500000000000e-01
146,-1.200000000000e+00,3.503000000000e+01,1.150000000000e+00
147,1.200000000000e+00,3.503000000000e+01,8.500000000000e-01
148,1.200000000000e+00,3.503000000000e+01,1.150000000000e+00
149,1.500000000000e-01,3.496400000000e+01,0.000000000000e+00
150,-1.500000000000e-01,3.496400000000e+01,0.000000000000e+00
151,1.500000000000e-01,3.496400000000e+01,2.000000000000e+00
152,-1.500000000000e-01,3.496400000000e+01,2.000000000000e+00
153,-1.200000000000e+00,4.126148050297e+01,1.925974851452e-01
154,-1.200000000000e+00,4.252121320344e+01,3.939339828220e-01
155,-1.200000000000e+00,4.377771638598e+01,6.114180701233e-01
156,-1.200000000000e+00,4.503000000000e+01,8.500000000000e-01
157,-1.200000000000e+00,4.627771638598e+01,1.111418070123e+00
158,-1.200000000000e+00,4.752121320344e+01,1.393933982822e+00
159,-1.200000000000e+00,4.876148050297e+01,1.692597485145e+00
160,-1.200000000000e+00,4.126148050297e+01,1.807402514855e+00
161,-1.200000000000e+00,4.252121320344e+01,1.606066017178e+00
162,-1.200000000000e+00,4.377771638598e+01,1.388581929877e+00
163,-1.200000000000e+00,4.503000000000e+01,1.150000000000e+00
164,-1.200000000000e+00,4.627771638598e+01,8.885819298767e-01
165,-1.200000000000e+00,4.752121320344e+01,6.060660171780e-01
166,-1.200000000000e+00,4.876148050297e+01,3.074025148548e-01
167,1.200000000000e+00,4.126148050297e+01,1.925974851452e-01
168,1.200000000000e+00,4.252121320344e+01,3.939339828220e-01
169,1.200000000000e+00,4.377771638598e+01,6.114180701233e-01
170,1.200000000000e+00,4.503000000000e+01,8.500000000000e-01
171,1.200000000000e+00,4.627771638598e+01,1.111418070123e+00
172,1.200000000000e+00,4.752121320344e+01,1.393933982822e+00
173,1.200000000000e+00,4.876148050297e+01,1.692597485145e+00
174,1.200000000000e+00,4.126148050297e+01,1.807402514855e+00
175,1.200000000000e+00,4.252121320344e+01,1.606066017178e+00
176,1.200000000000e+00,4.377771638598e+01,1.388581929877e+00
177,1.200000000000e+00,4.503000000000e+01,1.150000000000e+00
178,1.200000000000e+00,4.627771638598e+01,8.885819298767e-01
179,1.200000000000e+00,4.752121320344e+01,6.060660171780e-01
180,1.200000000000e+00,4.876148050297e+01,3.074025148548e-01
181,-8.425974851452e-01,4.123622339643e+01,0.000000000000e+00
182,-4.939339828220e-01,4.247454415588e+01,0.000000000000e+00
183,-1.614180701233e-01,4.371674033683e+01,0.000000000000e+00
184,1.500000000000e-01,4.496400000000e+01,0.000000000000e+00
185,4.385819298767e-01,4.621674033683e+01,0.000000000000e+00
186,7.060660171780e-01,4.747454415588e+01,0.000000000000e+00
187,9.574025148548e-01,4.873622339643e+01,0.000000000000e+00
188,8.425974851452e-01,4.123622339643e+01,0.000000000000e+00
189,4.939339828220e-01,4.247454415588e+01,0.000000000000e+00
190,1.614180701233e-01,4.371674033683e+01,0.000000000000e+00
191,-1.500000000000e-01,4.496400000000e+01,0.000000000000e+00
192,-4.385819298767e-01,4.621674033683e+01,0.000000000000e+00
193,-7.060660171780e-01,4.747454415588e+01,0.000000000000e+00
194,-9.574025148548e-01,4.873622339643e+01,0.000000000000e+00
195,-8.425974851452e-01,4.123622339643e+01,2.000000000000e+00
196,-4.939339828220e-01,4.247454415588e+01,2.000000000000e+00
197,-1.614180701233e-01,4.371674033683e+01,2.000000000000e+00
198,1.500000000000e-01,4.496400000000e+01,2.000000000000e+00
199,4.385819298767e-01,4.621674033683e+01,2.000000000000e+00
200,7.060660171780e-01,4.747454415588e+01,2.000000000000e+00
201,9.574025148548e-01,4.873622339643e+01,2.000000000000e+00
202,8.425974851452e-01,4.123622339643e+01,2.000000000000e+00
203,4.939339828220e-01,4.247454415588e+01,2.000000000000e+00
204,1.614180701233e-01,4.371674033683e+01,2.000000000000e+00
205,-1.500000000000e-01,4.496400000000e+01,2.000000000000e+00
206,-4.385819298767e-01,4.621674033683e+01,2.000000000000e+00
207,-7.060660171780e-01,4.747454415588e+01,2.000000000000e+00
208,-9.574025148548e-01,4.873622339643e+01,2.000000000000e+00
*ELEMENT,TYPE=B31,ELSET=ALL
1,1,25
2,25,5
3,2,26
4,26,6
5,3,27
6,27,7
7,4,28
8,28,8
9,5,29
10,29,9
11,6,30
12,30,10
13,7,31
14,31,11
15,8,32
16,32,12
17,9,33
18,33,34
19,34,35
20,35,13
21,10,36
22,36,37
23,37,38
24,38,14
25,11,39
26,39,40
27,40,41
28,41,15
29,12,42
30,42,43
31,43,44
32,44,16
33,13,45
34,45,46
35,46,47
36,47,17
37,14,48
38,48,49
39,49,50
40,50,18
41,15,51
42,51,52
43,52,53
44,53,19
45,16,54
46,54,55
47,55,56
48,56,20
49,17,57
50,57,21
51,18,58
52,58,22
53,19,59
54,59,23
55,20,60
56,60,24
57,1,2
58,3,4
59,1,3
60,2,4
61,5,61
62,61,62
63,62,63
64,63,6
65,7,64
66,64,65
67,65,66
68,66,8
69,5,67
70,67,68
71,68,69
72,69,7
73,6,70
74,70,71
75,71,72
76,72,8
77,9,73
78,73,10
79,11,74
80,74,12
81,9,75
82,75,11
83,10,76
84,76,12
85,13,77
86,77,14
87,15,78
88,78,16
89,13,79
90,79,15
91,14,80
92,80,16
93,17,81
94,81,18
95,19,82
96,82,20
97,17,83
98,83,19
99,18,84
100,84,20
101,21,85
102,85,22
103,23,86
104,86,24
105,21,87
106,87,23
107,22,88
108,88,24
109,1,89
110,89,90
111,90,91
112,91,7
113,3,92
114,92,93
115,93,94
116,94,5
117,2,95
118,95,96
119,96,97
120,97,8
121,4,98
122,98,99
123,99,100
124,100,6
125,1,101
126,101,102
127,102,103
128,103,6
129,2,104
130,104,105
131,105,106
132,106,5
133,3,107
134,107,108
135,108,109
136,109,8
137,4,110
138,110,111
139,111,112
140,112,7
141,5,113
142,113,114
143,114,115
144,115,11
145,7,116
146,116,117
147,117,118
148,118,9
149,6,119
150,119,120
151,120,121
152,121,12
153,8,122
154,122,123
155,123,124
156,124,10
157,5,125
158,125,126
159,126,127
160,127,10
161,6,128
162,128,129
163,129,130
164,130,9
165,7,131
166,131,132
167,132,133
168,133,12
169,8,134
170,134,135
171,135,136
172,136,11
173,9,137
174,137,15
175,11,138
176,138,13
177,10,139
178,139,16
179,12,140
180,140,14
181,9,141
182,141,14
183,10,142
184,142,13
185,11,143
186,143,16
187,12,144
188,144,15
189,13,145
190,145,19
191,15,146
192,146,17
193,14,147
194,147,20
195,16,148
196,148,18
197,13,149
198,149,18
199,14,150
200,150,17
201,15,151
202,151,20
203,16,152
204,152,19
205,17,153
206,153,154
207,154,155
208,155,156
209,156,157
210,157,158
211,158,159
212,159,23
213,19,160
214,160,161
215,161,162
216,162,163
217,163,164
218,164,165
219,165,166
220,166,21
221,18,167
222,167,168
223,168,169
224,169,170
225,170,171
226,171,172
227,172,173
228,173,24
229,20,174
230,174,175
231,175,176
232,176,177
233,177,178
234,178,179
235,179,180
236,180,22
237,17,181
238,181,182
239,182,183
240,183,184
241,184,185
242,185,186
243,186,187
244,187,22
245,18,188
246,188,189
247,189,190
248,190,191
249,191,192
250,192,193
251,193,194
252,194,21
253,19,195
254,195,196
255,196,197
256,197,198
257,198,199
258,199,200
259,200,201
260,201,24
261,20,202
262,202,203
263,203,204
264,204,205
265,205,206
266,206,207
267,207,208
268,208,23
*NSET,NSET=NALL,GENERATE
1,208,1
*NSET,NSET=LEFT
1,2,3,4
*NSET,NSET=RIGHT
21,22,23,24
*MATERIAL,NAME=STEEL
*ELASTIC
2.100000000000e+11,0.300000000000
*BEAM SECTION,ELSET=ALL,MATERIAL=STEEL,SECTION=RECT
6.000000000000e-02,4.000000000000e-02
0.371390676354,0.557086014531,0.742781352708
*BOUNDARY
LEFT,1,6,0.0
*STEP
*STATIC
*BOUNDARY
21,1,1,5.000000000000e-03
21,2,2,0.0
21,3,3,-6.000000000000e-03
*BOUNDARY
22,1,1,5.000000000000e-03
22,2,2,0.0
22,3,3,6.000000000000e-03
*BOUNDARY
23,1,1,-5.000000000000e-03
23,2,2,0.0
23,3,3,-6.000000000000e-03
*BOUNDARY
24,1,1,-5.000000000000e-03
24,2,2,0.0
24,3,3,6.000000000000e-03
*NODE FILE,NSET=NALL
U
*NODE PRINT,NSET=NALL
U
*NODE PRINT,NSET=RIGHT
RF
*EL PRINT,ELSET=ALL,TOTALS=YES
ELSE
*END STEP
