*HEADING
Normalized cross-passage space-truss torsion benchmark
*NODE
1,-1.200000000000e+00,0.000000000000e+00,0.000000000000e+00
2,1.200000000000e+00,0.000000000000e+00,0.000000000000e+00
3,-1.200000000000e+00,0.000000000000e+00,2.000000000000e+00
4,1.200000000000e+00,0.000000000000e+00,2.000000000000e+00
5,-1.200000000000e+00,1.000000000000e+01,0.000000000000e+00
6,1.200000000000e+00,1.000000000000e+01,0.000000000000e+00
7,-1.200000000000e+00,1.000000000000e+01,2.000000000000e+00
8,1.200000000000e+00,1.000000000000e+01,2.000000000000e+00
9,-1.200000000000e+00,2.000000000000e+01,0.000000000000e+00
10,1.200000000000e+00,2.000000000000e+01,0.000000000000e+00
11,-1.200000000000e+00,2.000000000000e+01,2.000000000000e+00
12,1.200000000000e+00,2.000000000000e+01,2.000000000000e+00
13,-1.200000000000e+00,3.000000000000e+01,0.000000000000e+00
14,1.200000000000e+00,3.000000000000e+01,0.000000000000e+00
15,-1.200000000000e+00,3.000000000000e+01,2.000000000000e+00
16,1.200000000000e+00,3.000000000000e+01,2.000000000000e+00
17,-1.200000000000e+00,4.000000000000e+01,0.000000000000e+00
18,1.200000000000e+00,4.000000000000e+01,0.000000000000e+00
19,-1.200000000000e+00,4.000000000000e+01,2.000000000000e+00
20,1.200000000000e+00,4.000000000000e+01,2.000000000000e+00
21,-1.200000000000e+00,5.000000000000e+01,0.000000000000e+00
22,1.200000000000e+00,5.000000000000e+01,0.000000000000e+00
23,-1.200000000000e+00,5.000000000000e+01,2.000000000000e+00
24,1.200000000000e+00,5.000000000000e+01,2.000000000000e+00
25,-1.200000000000e+00,1.250000000000e+00,-5.740251485476e-02
26,-1.200000000000e+00,2.500000000000e+00,-1.060660171780e-01
27,-1.200000000000e+00,3.750000000000e+00,-1.385819298767e-01
28,-1.200000000000e+00,5.000000000000e+00,-1.500000000000e-01
29,-1.200000000000e+00,6.250000000000e+00,-1.385819298767e-01
30,-1.200000000000e+00,7.500000000000e+00,-1.060660171780e-01
31,-1.200000000000e+00,8.750000000000e+00,-5.740251485476e-02
32,1.200000000000e+00,1.250000000000e+00,5.740251485476e-02
33,1.200000000000e+00,2.500000000000e+00,1.060660171780e-01
34,1.200000000000e+00,3.750000000000e+00,1.385819298767e-01
35,1.200000000000e+00,5.000000000000e+00,1.500000000000e-01
36,1.200000000000e+00,6.250000000000e+00,1.385819298767e-01
37,1.200000000000e+00,7.500000000000e+00,1.060660171780e-01
38,1.200000000000e+00,8.750000000000e+00,5.740251485476e-02
39,-1.200000000000e+00,1.250000000000e+00,1.942597485145e+00
40,-1.200000000000e+00,2.500000000000e+00,1.893933982822e+00
41,-1.200000000000e+00,3.750000000000e+00,1.861418070123e+00
42,-1.200000000000e+00,5.000000000000e+00,1.850000000000e+00
43,-1.200000000000e+00,6.250000000000e+00,1.861418070123e+00
44,-1.200000000000e+00,7.500000000000e+00,1.893933982822e+00
45,-1.200000000000e+00,8.750000000000e+00,1.942597485145e+00
46,1.200000000000e+00,1.250000000000e+00,2.057402514855e+00
47,1.200000000000e+00,2.500000000000e+00,2.106066017178e+00
48,1.200000000000e+00,3.750000000000e+00,2.138581929877e+00
49,1.200000000000e+00,5.000000000000e+00,2.150000000000e+00
50,1.200000000000e+00,6.250000000000e+00,2.138581929877e+00
51,1.200000000000e+00,7.500000000000e+00,2.106066017178e+00
52,1.200000000000e+00,8.750000000000e+00,2.057402514855e+00
53,-1.200000000000e+00,1.125000000000e+01,-5.740251485476e-02
54,-1.200000000000e+00,1.250000000000e+01,-1.060660171780e-01
55,-1.200000000000e+00,1.375000000000e+01,-1.385819298767e-01
56,-1.200000000000e+00,1.500000000000e+01,-1.500000000000e-01
57,-1.200000000000e+00,1.625000000000e+01,-1.385819298767e-01
58,-1.200000000000e+00,1.750000000000e+01,-1.060660171780e-01
59,-1.200000000000e+00,1.875000000000e+01,-5.740251485476e-02
60,1.200000000000e+00,1.125000000000e+01,5.740251485476e-02
61,1.200000000000e+00,1.250000000000e+01,1.060660171780e-01
62,1.200000000000e+00,1.375000000000e+01,1.385819298767e-01
63,1.200000000000e+00,1.500000000000e+01,1.500000000000e-01
64,1.200000000000e+00,1.625000000000e+01,1.385819298767e-01
65,1.200000000000e+00,1.750000000000e+01,1.060660171780e-01
66,1.200000000000e+00,1.875000000000e+01,5.740251485476e-02
67,-1.200000000000e+00,1.125000000000e+01,1.942597485145e+00
68,-1.200000000000e+00,1.250000000000e+01,1.893933982822e+00
69,-1.200000000000e+00,1.375000000000e+01,1.861418070123e+00
70,-1.200000000000e+00,1.500000000000e+01,1.850000000000e+00
71,-1.200000000000e+00,1.625000000000e+01,1.861418070123e+00
72,-1.200000000000e+00,1.750000000000e+01,1.893933982822e+00
73,-1.200000000000e+00,1.875000000000e+01,1.942597485145e+00
74,1.200000000000e+00,1.125000000000e+01,2.057402514855e+00
75,1.200000000000e+00,1.250000000000e+01,2.106066017178e+00
76,1.200000000000e+00,1.375000000000e+01,2.138581929877e+00
77,1.200000000000e+00,1.500000000000e+01,2.150000000000e+00
78,1.200000000000e+00,1.625000000000e+01,2.138581929877e+00
79,1.200000000000e+00,1.750000000000e+01,2.106066017178e+00
80,1.200000000000e+00,1.875000000000e+01,2.057402514855e+00
81,-1.200000000000e+00,4.500000000000e+01,-1.500000000000e-01
82,1.200000000000e+00,4.500000000000e+01,1.500000000000e-01
83,-1.200000000000e+00,4.500000000000e+01,1.850000000000e+00
84,1.200000000000e+00,4.500000000000e+01,2.150000000000e+00
85,-6.000000000000e-01,-2.545584412272e-02,0.000000000000e+00
86,0.000000000000e+00,-3.600000000000e-02,0.000000000000e+00
87,6.000000000000e-01,-2.545584412272e-02,0.000000000000e+00
88,-6.000000000000e-01,2.545584412272e-02,2.000000000000e+00
89,0.000000000000e+00,3.600000000000e-02,2.000000000000e+00
90,6.000000000000e-01,2.545584412272e-02,2.000000000000e+00
91,-1.200000000000e+00,2.121320343560e-02,5.000000000000e-01
92,-1.200000000000e+00,3.000000000000e-02,1.000000000000e+00
93,-1.200000000000e+00,2.121320343560e-02,1.500000000000e+00
94,1.200000000000e+00,-2.121320343560e-02,5.000000000000e-01
95,1.200000000000e+00,-3.000000000000e-02,1.000000000000e+00
96,1.200000000000e+00,-2.121320343560e-02,1.500000000000e+00
97,-6.000000000000e-01,9.974544155877e+00,0.000000000000e+00
98,0.000000000000e+00,9.964000000000e+00,0.000000000000e+00
99,6.000000000000e-01,9.974544155877e+00,0.000000000000e+00
100,-6.000000000000e-01,1.002545584412e+01,2.000000000000e+00
101,0.000000000000e+00,1.003600000000e+01,2.000000000000e+00
102,6.000000000000e-01,1.002545584412e+01,2.000000000000e+00
103,-1.200000000000e+00,1.002121320344e+01,5.000000000000e-01
104,-1.200000000000e+00,1.003000000000e+01,1.000000000000e+00
105,-1.200000000000e+00,1.002121320344e+01,1.500000000000e+00
106,1.200000000000e+00,9.978786796564e+00,5.000000000000e-01
107,1.200000000000e+00,9.970000000000e+00,1.000000000000e+00
108,1.200000000000e+00,9.978786796564e+00,1.500000000000e+00
109,0.000000000000e+00,1.996400000000e+01,0.000000000000e+00
110,0.000000000000e+00,2.003600000000e+01,2.000000000000e+00
111,-1.200000000000e+00,2.003000000000e+01,1.000000000000e+00
112,1.200000000000e+00,1.997000000000e+01,1.000000000000e+00
113,-9.000000000000e-01,2.998622339643e+01,0.000000000000e+00
114,-6.000000000000e-01,2.997454415588e+01,0.000000000000e+00
115,-3.000000000000e-01,2.996674033683e+01,0.000000000000e+00
116,0.000000000000e+00,2.996400000000e+01,0.000000000000e+00
117,3.000000000000e-01,2.996674033683e+01,0.000000000000e+00
118,6.000000000000e-01,2.997454415588e+01,0.000000000000e+00
119,9.000000000000e-01,2.998622339643e+01,0.000000000000e+00
120,-9.000000000000e-01,3.001377660357e+01,2.000000000000e+00
121,-6.000000000000e-01,3.002545584412e+01,2.000000000000e+00
122,-3.000000000000e-01,3.003325966317e+01,2.000000000000e+00
123,0.000000000000e+00,3.003600000000e+01,2.000000000000e+00
124,3.000000000000e-01,3.003325966317e+01,2.000000000000e+00
125,6.000000000000e-01,3.002545584412e+01,2.000000000000e+00
126,9.000000000000e-01,3.001377660357e+01,2.000000000000e+00
127,-1.200000000000e+00,3.001148050297e+01,2.500000000000e-01
128,-1.200000000000e+00,3.002121320344e+01,5.000000000000e-01
129,-1.200000000000e+00,3.002771638598e+01,7.500000000000e-01
130,-1.200000000000e+00,3.003000000000e+01,1.000000000000e+00
131,-1.200000000000e+00,3.002771638598e+01,1.250000000000e+00
132,-1.200000000000e+00,3.002121320344e+01,1.500000000000e+00
133,-1.200000000000e+00,3.001148050297e+01,1.750000000000e+00
134,1.200000000000e+00,2.998851949703e+01,2.500000000000e-01
135,1.200000000000e+00,2.997878679656e+01,5.000000000000e-01
136,1.200000000000e+00,2.997228361402e+01,7.500000000000e-01
137,1.200000000000e+00,2.997000000000e+01,1.000000000000e+00
138,1.200000000000e+00,2.997228361402e+01,1.250000000000e+00
139,1.200000000000e+00,2.997878679656e+01,1.500000000000e+00
140,1.200000000000e+00,2.998851949703e+01,1.750000000000e+00
141,-6.000000000000e-01,3.997454415588e+01,0.000000000000e+00
142,0.000000000000e+00,3.996400000000e+01,0.000000000000e+00
143,6.000000000000e-01,3.997454415588e+01,0.000000000000e+00
144,-6.000000000000e-01,4.002545584412e+01,2.000000000000e+00
145,0.000000000000e+00,4.003600000000e+01,2.000000000000e+00
146,6.000000000000e-01,4.002545584412e+01,2.000000000000e+00
147,-1.200000000000e+00,4.002121320344e+01,5.000000000000e-01
148,-1.200000000000e+00,4.003000000000e+01,1.000000000000e+00
149,-1.200000000000e+00,4.002121320344e+01,1.500000000000e+00
150,1.200000000000e+00,3.997878679656e+01,5.000000000000e-01
151,1.200000000000e+00,3.997000000000e+01,1.000000000000e+00
152,1.200000000000e+00,3.997878679656e+01,1.500000000000e+00
153,-9.000000000000e-01,4.998622339643e+01,0.000000000000e+00
154,-6.000000000000e-01,4.997454415588e+01,0.000000000000e+00
155,-3.000000000000e-01,4.996674033683e+01,0.000000000000e+00
156,0.000000000000e+00,4.996400000000e+01,0.000000000000e+00
157,3.000000000000e-01,4.996674033683e+01,0.000000000000e+00
158,6.000000000000e-01,4.997454415588e+01,0.000000000000e+00
159,9.000000000000e-01,4.998622339643e+01,0.000000000000e+00
160,-9.000000000000e-01,5.001377660357e+01,2.000000000000e+00
161,-6.000000000000e-01,5.002545584412e+01,2.000000000000e+00
162,-3.000000000000e-01,5.003325966317e+01,2.000000000000e+00
163,0.000000000000e+00,5.003600000000e+01,2.000000000000e+00
164,3.000000000000e-01,5.003325966317e+01,2.000000000000e+00
165,6.000000000000e-01,5.002545584412e+01,2.000000000000e+00
166,9.000000000000e-01,5.001377660357e+01,2.000000000000e+00
167,-1.200000000000e+00,5.001148050297e+01,2.500000000000e-01
168,-1.200000000000e+00,5.002121320344e+01,5.000000000000e-01
169,-1.200000000000e+00,5.002771638598e+01,7.500000000000e-01
170,-1.200000000000e+00,5.003000000000e+01,1.000000000000e+00
171,-1.200000000000e+00,5.002771638598e+01,1.250000000000e+00
172,-1.200000000000e+00,5.002121320344e+01,1.500000000000e+00
173,-1.200000000000e+00,5.001148050297e+01,1.750000000000e+00
174,1.200000000000e+00,4.998851949703e+01,2.500000000000e-01
175,1.200000000000e+00,4.997878679656e+01,5.000000000000e-01
176,1.200000000000e+00,4.997228361402e+01,7.500000000000e-01
177,1.200000000000e+00,4.997000000000e+01,1.000000000000e+00
178,1.200000000000e+00,4.997228361402e+01,1.250000000000e+00
179,1.200000000000e+00,4.997878679656e+01,1.500000000000e+00
180,1.200000000000e+00,4.998851949703e+01,1.750000000000e+00
181,-1.200000000000e+00,1.261480502971e+00,1.925974851452e-01
182,-1.200000000000e+00,2.521213203436e+00,3.939339828220e-01
183,-1.200000000000e+00,3.777716385975e+00,6.114180701233e-01
184,-1.200000000000e+00,5.030000000000e+00,8.500000000000e-01
185,-1.200000000000e+00,6.277716385975e+00,1.111418070123e+00
186,-1.200000000000e+00,7.521213203436e+00,1.393933982822e+00
187,-1.200000000000e+00,8.761480502971e+00,1.692597485145e+00
188,-1.200000000000e+00,1.261480502971e+00,1.807402514855e+00
189,-1.200000000000e+00,2.521213203436e+00,1.606066017178e+00
190,-1.200000000000e+00,3.777716385975e+00,1.388581929877e+00
191,-1.200000000000e+00,5.030000000000e+00,1.150000000000e+00
192,-1.200000000000e+00,6.277716385975e+00,8.885819298767e-01
193,-1.200000000000e+00,7.521213203436e+00,6.060660171780e-01
194,-1.200000000000e+00,8.761480502971e+00,3.074025148548e-01
195,1.200000000000e+00,1.261480502971e+00,1.925974851452e-01
196,1.200000000000e+00,2.521213203436e+00,3.939339828220e-01
197,1.200000000000e+00,3.777716385975e+00,6.114180701233e-01
198,1.200000000000e+00,5.030000000000e+00,8.500000000000e-01
199,1.200000000000e+00,6.277716385975e+00,1.111418070123e+00
200,1.200000000000e+00,7.521213203436e+00,1.393933982822e+00
201,1.200000000000e+00,8.761480502971e+00,1.692597485145e+00
202,1.200000000000e+00,1.261480502971e+00,1.807402514855e+00
203,1.200000000000e+00,2.521213203436e+00,1.606066017178e+00
204,1.200000000000e+00,3.777716385975e+00,1.388581929877e+00
205,1.200000000000e+00,5.030000000000e+00,1.150000000000e+00
206,1.200000000000e+00,6.277716385975e+00,8.885819298767e-01
207,1.200000000000e+00,7.521213203436e+00,6.060660171780e-01
208,1.200000000000e+00,8.761480502971e+00,3.074025148548e-01
209,-8.425974851452e-01,1.236223396435e+00,0.000000000000e+00
210,-4.939339828220e-01,2.474544155877e+00,0.000000000000e+00
211,-1.614180701233e-01,3.716740336830e+00,0.000000000000e+00
212,1.500000000000e-01,4.964000000000e+00,0.000000000000e+00
213,4.385819298767e-01,6.216740336830e+00,0.000000000000e+00
214,7.060660171780e-01,7.474544155877e+00,0.000000000000e+00
215,9.574025148548e-01,8.736223396435e+00,0.000000000000e+00
216,8.425974851452e-01,1.236223396435e+00,0.000000000000e+00
217,4.939339828220e-01,2.474544155877e+00,0.000000000000e+00
218,1.614180701233e-01,3.716740336830e+00,0.000000000000e+00
219,-1.500000000000e-01,4.964000000000e+00,0.000000000000e+00
220,-4.385819298767e-01,6.216740336830e+00,0.000000000000e+00
221,-7.060660171780e-01,7.474544155877e+00,0.000000000000e+00
222,-9.574025148548e-01,8.736223396435e+00,0.000000000000e+00
223,-8.425974851452e-01,1.236223396435e+00,2.000000000000e+00
224,-4.939339828220e-01,2.474544155877e+00,2.000000000000e+00
225,-1.614180701233e-01,3.716740336830e+00,2.000000000000e+00
226,1.500000000000e-01,4.964000000000e+00,2.000000000000e+00
227,4.385819298767e-01,6.216740336830e+00,2.000000000000e+00
228,7.060660171780e-01,7.474544155877e+00,2.000000000000e+00
229,9.574025148548e-01,8.736223396435e+00,2.000000000000e+00
230,8.425974851452e-01,1.236223396435e+00,2.000000000000e+00
231,4.939339828220e-01,2.474544155877e+00,2.000000000000e+00
232,1.614180701233e-01,3.716740336830e+00,2.000000000000e+00
233,-1.500000000000e-01,4.964000000000e+00,2.000000000000e+00
234,-4.385819298767e-01,6.216740336830e+00,2.000000000000e+00
235,-7.060660171780e-01,7.474544155877e+00,2.000000000000e+00
236,-9.574025148548e-01,8.736223396435e+00,2.000000000000e+00
237,-1.200000000000e+00,1.503000000000e+01,8.500000000000e-01
238,-1.200000000000e+00,1.503000000000e+01,1.150000000000e+00
239,1.200000000000e+00,1.503000000000e+01,8.500000000000e-01
240,1.200000000000e+00,1.503000000000e+01,1.150000000000e+00
241,1.500000000000e-01,1.496400000000e+01,0.000000000000e+00
242,-1.500000000000e-01,1.496400000000e+01,0.000000000000e+00
243,1.500000000000e-01,1.496400000000e+01,2.000000000000e+00
244,-1.500000000000e-01,1.496400000000e+01,2.000000000000e+00
245,-1.200000000000e+00,2.503000000000e+01,8.500000000000e-01
246,-1.200000000000e+00,2.503000000000e+01,1.150000000000e+00
247,1.200000000000e+00,2.503000000000e+01,8.500000000000e-01
248,1.200000000000e+00,2.503000000000e+01,1.150000000000e+00
249,1.500000000000e-01,2.496400000000e+01,0.000000000000e+00
250,-1.500000000000e-01,2.496400000000e+01,0.000000000000e+00
251,1.500000000000e-01,2.496400000000e+01,2.000000000000e+00
252,-1.500000000000e-01,2.496400000000e+01,2.000000000000e+00
253,-1.200000000000e+00,3.252121320344e+01,3.939339828220e-01
254,-1.200000000000e+00,3.503000000000e+01,8.500000000000e-01
255,-1.200000000000e+00,3.752121320344e+01,1.393933982822e+00
256,-1.200000000000e+00,3.252121320344e+01,1.606066017178e+00
257,-1.200000000000e+00,3.503000000000e+01,1.150000000000e+00
258,-1.200000000000e+00,3.752121320344e+01,6.060660171780e-01
259,1.200000000000e+00,3.252121320344e+01,3.939339828220e-01
260,1.200000000000e+00,3.503000000000e+01,8.500000000000e-01
261,1.200000000000e+00,3.752121320344e+01,1.393933982822e+00
262,1.200000000000e+00,3.252121320344e+01,1.606066017178e+00
263,1.200000000000e+00,3.503000000000e+01,1.150000000000e+00
264,1.200000000000e+00,3.752121320344e+01,6.060660171780e-01
265,-4.939339828220e-01,3.247454415588e+01,0.000000000000e+00
266,1.500000000000e-01,3.496400000000e+01,0.000000000000e+00
267,7.060660171780e-01,3.747454415588e+01,0.000000000000e+00
268,4.939339828220e-01,3.247454415588e+01,0.000000000000e+00
269,-1.500000000000e-01,3.496400000000e+01,0.000000000000e+00
270,-7.060660171780e-01,3.747454415588e+01,0.000000000000e+00
271,-4.939339828220e-01,3.247454415588e+01,2.000000000000e+00
272,1.500000000000e-01,3.496400000000e+01,2.000000000000e+00
273,7.060660171780e-01,3.747454415588e+01,2.000000000000e+00
274,4.939339828220e-01,3.247454415588e+01,2.000000000000e+00
275,-1.500000000000e-01,3.496400000000e+01,2.000000000000e+00
276,-7.060660171780e-01,3.747454415588e+01,2.000000000000e+00
*ELEMENT,TYPE=B31,ELSET=ALL
1,1,25
2,25,26
3,26,27
4,27,28
5,28,29
6,29,30
7,30,31
8,31,5
9,2,32
10,32,33
11,33,34
12,34,35
13,35,36
14,36,37
15,37,38
16,38,6
17,3,39
18,39,40
19,40,41
20,41,42
21,42,43
22,43,44
23,44,45
24,45,7
25,4,46
26,46,47
27,47,48
28,48,49
29,49,50
30,50,51
31,51,52
32,52,8
33,5,53
34,53,54
35,54,55
36,55,56
37,56,57
38,57,58
39,58,59
40,59,9
41,6,60
42,60,61
43,61,62
44,62,63
45,63,64
46,64,65
47,65,66
48,66,10
49,7,67
50,67,68
51,68,69
52,69,70
53,70,71
54,71,72
55,72,73
56,73,11
57,8,74
58,74,75
59,75,76
60,76,77
61,77,78
62,78,79
63,79,80
64,80,12
65,9,13
66,10,14
67,11,15
68,12,16
69,13,17
70,14,18
71,15,19
72,16,20
73,17,81
74,81,21
75,18,82
76,82,22
77,19,83
78,83,23
79,20,84
80,84,24
81,1,85
82,85,86
83,86,87
84,87,2
85,3,88
86,88,89
87,89,90
88,90,4
89,1,91
90,91,92
91,92,93
92,93,3
93,2,94
94,94,95
95,95,96
96,96,4
97,5,97
98,97,98
99,98,99
100,99,6
101,7,100
102,100,101
103,101,102
104,102,8
105,5,103
106,103,104
107,104,105
108,105,7
109,6,106
110,106,107
111,107,108
112,108,8
113,9,109
114,109,10
115,11,110
116,110,12
117,9,111
118,111,11
119,10,112
120,112,12
121,13,113
122,113,114
123,114,115
124,115,116
125,116,117
126,117,118
127,118,119
128,119,14
129,15,120
130,120,121
131,121,122
132,122,123
133,123,124
134,124,125
135,125,126
136,126,16
137,13,127
138,127,128
139,128,129
140,129,130
141,130,131
142,131,132
143,132,133
144,133,15
145,14,134
146,134,135
147,135,136
148,136,137
149,137,138
150,138,139
151,139,140
152,140,16
153,17,141
154,141,142
155,142,143
156,143,18
157,19,144
158,144,145
159,145,146
160,146,20
161,17,147
162,147,148
163,148,149
164,149,19
165,18,150
166,150,151
167,151,152
168,152,20
169,21,153
170,153,154
171,154,155
172,155,156
173,156,157
174,157,158
175,158,159
176,159,22
177,23,160
178,160,161
179,161,162
180,162,163
181,163,164
182,164,165
183,165,166
184,166,24
185,21,167
186,167,168
187,168,169
188,169,170
189,170,171
190,171,172
191,172,173
192,173,23
193,22,174
194,174,175
195,175,176
196,176,177
197,177,178
198,178,179
199,179,180
200,180,24
201,1,181
202,181,182
203,182,183
204,183,184
205,184,185
206,185,186
207,186,187
208,187,7
209,3,188
210,188,189
211,189,190
212,190,191
213,191,192
214,192,193
215,193,194
216,194,5
217,2,195
218,195,196
219,196,197
220,197,198
221,198,199
222,199,200
223,200,201
224,201,8
225,4,202
226,202,203
227,203,204
228,204,205
229,205,206
230,206,207
231,207,208
232,208,6
233,1,209
234,209,210
235,210,211
236,211,212
237,212,213
238,213,214
239,214,215
240,215,6
241,2,216
242,216,217
243,217,218
244,218,219
245,219,220
246,220,221
247,221,222
248,222,5
249,3,223
250,223,224
251,224,225
252,225,226
253,226,227
254,227,228
255,228,229
256,229,8
257,4,230
258,230,231
259,231,232
260,232,233
261,233,234
262,234,235
263,235,236
264,236,7
265,5,237
266,237,11
267,7,238
268,238,9
269,6,239
270,239,12
271,8,240
272,240,10
273,5,241
274,241,10
275,6,242
276,242,9
277,7,243
278,243,12
279,8,244
280,244,11
281,9,245
282,245,15
283,11,246
284,246,13
285,10,247
286,247,16
287,12,248
288,248,14
289,9,249
290,249,14
291,10,250
292,250,13
293,11,251
294,251,16
295,12,252
296,252,15
297,13,253
298,253,254
299,254,255
300,255,19
301,15,256
302,256,257
303,257,258
304,258,17
305,14,259
306,259,260
307,260,261
308,261,20
309,16,262
310,262,263
311,263,264
312,264,18
313,13,265
314,265,266
315,266,267
316,267,18
317,14,268
318,268,269
319,269,270
320,270,17
321,15,271
322,271,272
323,272,273
324,273,20
325,16,274
326,274,275
327,275,276
328,276,19
329,17,23
330,19,21
331,18,24
332,20,22
333,17,22
334,18,21
335,19,24
336,20,23
*NSET,NSET=NALL,GENERATE
1,276,1
*NSET,NSET=LEFT
1,2,3,4
*NSET,NSET=RIGHT
21,22,23,24
*MATERIAL,NAME=STEEL
*ELASTIC
2.100000000000e+11,0.300000000000
*BEAM SECTION,ELSET=ALL,MATERIAL=STEEL,SECTION=RECT
6.000000000000e-02,4.000000000000e-02
0.371390676354,0.557086014531,0.742781352708
*BOUNDARY
LEFT,1,6,0.0
*STEP
*STATIC
*BOUNDARY
21,1,1,5.000000000000e-03
21,2,2,0.0
21,3,3,-6.000000000000e-03
*BOUNDARY
22,1,1,5.000000000000e-03
22,2,2,0.0
22,3,3,6.000000000000e-03
*BOUNDARY
23,1,1,-5.000000000000e-03
23,2,2,0.0
23,3,3,-6.000000000000e-03
*BOUNDARY
24,1,1,-5.000000000000e-03
24,2,2,0.0
24,3,3,6.000000000000e-03
*NODE FILE,NSET=NALL
U
*NODE PRINT,NSET=NALL
U
*NODE PRINT,NSET=RIGHT
RF
*EL PRINT,ELSET=ALL,TOTALS=YES
ELSE
*END STEP
