*HEADING
Normalized cross-passage space-truss torsion benchmark
*NODE
1,-1.200000000000e+00,0.000000000000e+00,0.000000000000e+00
2,1.200000000000e+00,0.000000000000e+00,0.000000000000e+00
3,-1.200000000000e+00,0.000000000000e+00,2.000000000000e+00
4,1.200000000000e+00,0.000000000000e+00,2.000000000000e+00
5,-1.200000000000e+00,1.000000000000e+01,0.000000000000e+00
6,1.200000000000e+00,1.000000000000e+01,0.000000000000e+00
7,-1.200000000000e+00,1.000000000000e+01,2.000000000000e+00
8,1.200000000000e+00,1.000000000000e+01,2.000000000000e+00
9,-1.200000000000e+00,2.000000000000e+01,0.000000000000e+00
10,1.200000000000e+00,2.000000000000e+01,0.000000000000e+00
11,-1.200000000000e+00,2.000000000000e+01,2.000000000000e+00
12,1.200000000000e+00,2.000000000000e+01,2.000000000000e+00
13,-1.200000000000e+00,3.000000000000e+01,0.000000000000e+00
14,1.200000000000e+00,3.000000000000e+01,0.000000000000e+00
15,-1.200000000000e+00,3.000000000000e+01,2.000000000000e+00
16,1.200000000000e+00,3.000000000000e+01,2.000000000000e+00
17,-1.200000000000e+00,4.000000000000e+01,0.000000000000e+00
18,1.200000000000e+00,4.000000000000e+01,0.000000000000e+00
19,-1.200000000000e+00,4.000000000000e+01,2.000000000000e+00
20,1.200000000000e+00,4.000000000000e+01,2.000000000000e+00
21,-1.200000000000e+00,5.000000000000e+01,0.000000000000e+00
22,1.200000000000e+00,5.000000000000e+01,0.000000000000e+00
23,-1.200000000000e+00,5.000000000000e+01,2.000000000000e+00
24,1.200000000000e+00,5.000000000000e+01,2.000000000000e+00
25,-1.200000000000e+00,5.000000000000e+00,-1.500000000000e-01
26,1.200000000000e+00,5.000000000000e+00,1.500000000000e-01
27,-1.200000000000e+00,5.000000000000e+00,1.850000000000e+00
28,1.200000000000e+00,5.000000000000e+00,2.150000000000e+00
29,-1.200000000000e+00,1.500000000000e+01,-1.500000000000e-01
30,1.200000000000e+00,1.500000000000e+01,1.500000000000e-01
31,-1.200000000000e+00,1.500000000000e+01,1.850000000000e+00
32,1.200000000000e+00,1.500000000000e+01,2.150000000000e+00
33,-1.200000000000e+00,4.500000000000e+01,-1.500000000000e-01
34,1.200000000000e+00,4.500000000000e+01,1.500000000000e-01
35,-1.200000000000e+00,4.500000000000e+01,1.850000000000e+00
36,1.200000000000e+00,4.500000000000e+01,2.150000000000e+00
37,0.000000000000e+00,-3.600000000000e-02,0.000000000000e+00
38,0.000000000000e+00,3.600000000000e-02,2.000000000000e+00
39,-1.200000000000e+00,3.000000000000e-02,1.000000000000e+00
40,1.200000000000e+00,-3.000000000000e-02,1.000000000000e+00
41,0.000000000000e+00,1.996400000000e+01,0.000000000000e+00
42,0.000000000000e+00,2.003600000000e+01,2.000000000000e+00
43,-1.200000000000e+00,2.003000000000e+01,1.000000000000e+00
44,1.200000000000e+00,1.997000000000e+01,1.000000000000e+00
45,-6.000000000000e-01,2.997454415588e+01,0.000000000000e+00
46,0.000000000000e+00,2.996400000000e+01,0.000000000000e+00
47,6.000000000000e-01,2.997454415588e+01,0.000000000000e+00
48,-6.000000000000e-01,3.002545584412e+01,2.000000000000e+00
49,0.000000000000e+00,3.003600000000e+01,2.000000000000e+00
50,6.000000000000e-01,3.002545584412e+01,2.000000000000e+00
51,-1.200000000000e+00,3.002121320344e+01,5.000000000000e-01
52,-1.200000000000e+00,3.003000000000e+01,1.000000000000e+00
53,-1.200000000000e+00,3.002121320344e+01,1.500000000000e+00
54,1.200000000000e+00,2.997878679656e+01,5.000000000000e-01
55,1.200000000000e+00,2.997000000000e+01,1.000000000000e+00
56,1.200000000000e+00,2.997878679656e+01,1.500000000000e+00
57,0.000000000000e+00,3.996400000000e+01,0.000000000000e+00
58,0.000000000000e+00,4.003600000000e+01,2.000000000000e+00
59,-1.200000000000e+00,4.003000000000e+01,1.000000000000e+00
60,1.200000000000e+00,3.997000000000e+01,1.000000000000e+00
61,0.000000000000e+00,4.996400000000e+01,0.000000000000e+00
62,0.000000000000e+00,5.003600000000e+01,2.000000000000e+00
63,-1.200000000000e+00,5.003000000000e+01,1.000000000000e+00
64,1.200000000000e+00,4.997000000000e+01,1.000000000000e+00
65,-1.200000000000e+00,1.261480502971e+00,1.925974851452e-01
66,-1.200000000000e+00,2.521213203436e+00,3.939339828220e-01
67,-1.200000000000e+00,3.777716385975e+00,6.114180701233e-01
68,-1.200000000000e+00,5.030000000000e+00,8.500000000000e-01
69,-1.200000000000e+00,6.277716385975e+00,1.111418070123e+00
70,-1.200000000000e+00,7.521213203436e+00,1.393933982822e+00
71,-1.200000000000e+00,8.761480502971e+00,1.692597485145e+00
72,-1.200000000000e+00,1.261480502971e+00,1.807402514855e+00
73,-1.200000000000e+00,2.521213203436e+00,1.606066017178e+00
74,-1.200000000000e+00,3.777716385975e+00,1.388581929877e+00
75,-1.200000000000e+00,5.030000000000e+00,1.150000000000e+00
76,-1.200000000000e+00,6.277716385975e+00,8.885819298767e-01
77,-1.200000000000e+00,7.521213203436e+00,6.060660171780e-01
78,-1.200000000000e+00,8.761480502971e+00,3.074025148548e-01
79,1.200000000000e+00,1.261480502971e+00,1.925974851452e-01
80,1.200000000000e+00,2.521213203436e+00,3.939339828220e-01
81,1.200000000000e+00,3.777716385975e+00,6.114180701233e-01
82,1.200000000000e+00,5.030000000000e+00,8.500000000000e-01
83,1.200000000000e+00,6.277716385975e+00,1.111418070123e+00
84,1.200000000000e+00,7.521213203436e+00,1.393933982822e+00
85,1.200000000000e+00,8.761480502971e+00,1.692597485145e+00
86,1.200000000000e+00,1.261480502971e+00,1.807402514855e+00
87,1.200000000000e+00,2.521213203436e+00,1.606066017178e+00
88,1.200000000000e+00,3.777716385975e+00,1.388581929877e+00
89,1.200000000000e+00,5.030000000000e+00,1.150000000000e+00
90,1.200000000000e+00,6.277716385975e+00,8.885819298767e-01
91,1.200000000000e+00,7.521213203436e+00,6.060660171780e-01
92,1.200000000000e+00,8.761480502971e+00,3.074025148548e-01
93,-8.425974851452e-01,1.236223396435e+00,0.000000000000e+00
94,-4.939339828220e-01,2.474544155877e+00,0.000000000000e+00
95,-1.614180701233e-01,3.716740336830e+00,0.000000000000e+00
96,1.500000000000e-01,4.964000000000e+00,0.000000000000e+00
97,4.385819298767e-01,6.216740336830e+00,0.000000000000e+00
98,7.060660171780e-01,7.474544155877e+00,0.000000000000e+00
99,9.574025148548e-01,8.736223396435e+00,0.000000000000e+00
100,8.425974851452e-01,1.236223396435e+00,0.000000000000e+00
101,4.939339828220e-01,2.474544155877e+00,0.000000000000e+00
102,1.614180701233e-01,3.716740336830e+00,0.000000000000e+00
103,-1.500000000000e-01,4.964000000000e+00,0.000000000000e+00
104,-4.385819298767e-01,6.216740336830e+00,0.000000000000e+00
105,-7.060660171780e-01,7.474544155877e+00,0.000000000000e+00
106,-9.574025148548e-01,8.736223396435e+00,0.000000000000e+00
107,-8.425974851452e-01,1.236223396435e+00,2.000000000000e+00
108,-4.939339828220e-01,2.474544155877e+00,2.000000000000e+00
109,-1.614180701233e-01,3.716740336830e+00,2.000000000000e+00
110,1.500000000000e-01,4.964000000000e+00,2.000000000000e+00
111,4.385819298767e-01,6.216740336830e+00,2.000000000000e+00
112,7.060660171780e-01,7.474544155877e+00,2.000000000000e+00
113,9.574025148548e-01,8.736223396435e+00,2.000000000000e+00
114,8.425974851452e-01,1.236223396435e+00,2.000000000000e+00
115,4.939339828220e-01,2.474544155877e+00,2.000000000000e+00
116,1.614180701233e-01,3.716740336830e+00,2.000000000000e+00
117,-1.500000000000e-01,4.964000000000e+00,2.000000000000e+00
118,-4.385819298767e-01,6.216740336830e+00,2.000000000000e+00
119,-7.060660171780e-01,7.474544155877e+00,2.000000000000e+00
120,-9.574025148548e-01,8.736223396435e+00,2.000000000000e+00
121,-1.200000000000e+00,1.252121320344e+01,3.939339828220e-01
122,-1.200000000000e+00,1.503000000000e+01,8.500000000000e-01
123,-1.200000000000e+00,1.752121320344e+01,1.393933982822e+00
124,-1.200000000000e+00,1.252121320344e+01,1.606066017178e+00
125,-1.200000000000e+00,1.503000000000e+01,1.150000000000e+00
126,-1.200000000000e+00,1.752121320344e+01,6.060660171780e-01
127,1.200000000000e+00,1.252121320344e+01,3.939339828220e-01
128,1.200000000000e+00,1.503000000000e+01,8.500000000000e-01
129,1.200000000000e+00,1.752121320344e+01,1.393933982822e+00
130,1.200000000000e+00,1.252121320344e+01,1.606066017178e+00
131,1.200000000000e+00,1.503000000000e+01,1.150000000000e+00
132,1.200000000000e+00,1.752121320344e+01,6.060660171780e-01
133,-4.939339828220e-01,1.247454415588e+01,0.000000000000e+00
134,1.500000000000e-01,1.496400000000e+01,0.000000000000e+00
135,7.060660171780e-01,1.747454415588e+01,0.000000000000e+00
136,4.939339828220e-01,1.247454415588e+01,0.000000000000e+00
137,-1.500000000000e-01,1.496400000000e+01,0.000000000000e+00
138,-7.060660171780e-01,1.747454415588e+01,0.000000000000e+00
139,-4.939339828220e-01,1.247454415588e+01,2.000000000000e+00
140,1.500000000000e-01,1.496400000000e+01,2.000000000000e+00
141,7.060660171780e-01,1.747454415588e+01,2.000000000000e+00
142,4.939339828220e-01,1.247454415588e+01,2.000000000000e+00
143,-1.500000000000e-01,1.496400000000e+01,2.000000000000e+00
144,-7.060660171780e-01,1.747454415588e+01,2.000000000000e+00
145,-1.200000000000e+00,3.503000000000e+01,8.500000000000e-01
146,-1.200000000000e+00,3.503000000000e+01,1.150000000000e+00
147,1.200000000000e+00,3.503000000000e+01,8.500000000000e-01
148,1.200000000000e+00,3.503000000000e+01,1.150000000000e+00
149,1.500000000000e-01,3.496400000000e+01,0.000000000000e+00
150,-1.500000000000e-01,3.496400000000e+01,0.000000000000e+00
151,1.500000000000e-01,3.496400000000e+01,2.000000000000e+00
152,-1.500000000000e-01,3.496400000000e+01,2.000000000000e+00
153,-1.200000000000e+00,4.126148050297e+01,1.925974851452e-01
154,-1.200000000000e+00,4.252121320344e+01,3.939339828220e-01
155,-1.200000000000e+00,4.377771638598e+01,6.114180701233e-01
156,-1.200000000000e+00,4.503000000000e+01,8.500000000000e-01
157,-1.200000000000e+00,4.627771638598e+01,1.111418070123e+00
158,-1.200000000000e+00,4.752121320344e+01,1.393933982822e+00
159,-1.200000000000e+00,4.876148050297e+01,1.692597485145e+00
160,-1.200000000000e+00,4.126148050297e+01,1.807402514855e+00
161,-1.200000000000e+00,4.252121320344e+01,1.606066017178e+00
162,-1.200000000000e+00,4.377771638598e+01,1.388581929877e+00
163,-1.200000000000e+00,4.503000000000e+01,1.150000000000e+00
164,-1.200000000000e+00,4.627771638598e+01,8.885819298767e-01
165,-1.200000000000e+00,4.752121320344e+01,6.060660171780e-01
166,-1.200000000000e+00,4.876148050297e+01,3.074025148548e-01
167,1.200000000000e+00,4.126148050297e+01,1.925974851452e-01
168,1.200000000000e+00,4.252121320344e+01,3.939339828220e-01
169,1.200000000000e+00,4.377771638598e+01,6.114180701233e-01
170,1.200000000000e+00,4.503000000000e+01,8.500000000000e-01
171,1.200000000000e+00,4.627771638598e+01,1.111418070123e+00
172,1.200000000000e+00,4.752121320344e+01,1.393933982822e+00
173,1.200000000000e+00,4.876148050297e+01,1.692597485145e+00
174,1.200000000000e+00,4.126148050297e+01,1.807402514855e+00
175,1.200000000000e+00,4.252121320344e+01,1.606066017178e+00
176,1.200000000000e+00,4.377771638598e+01,1.388581929877e+00
177,1.200000000000e+00,4.503000000000e+01,1.150000000000e+00
178,1.200000000000e+00,4.627771638598e+01,8.885819298767e-01
179,1.200000000000e+00,4.752121320344e+01,6.060660171780e-01
180,1.200000000000e+00,4.876148050297e+01,3.074025148548e-01
181,-8.425974851452e-01,4.123622339643e+01,0.000000000000e+00
182,-4.939339828220e-01,4.247454415588e+01,0.000000000000e+00
183,-1.614180701233e-01,4.371674033683e+01,0.000000000000e+00
184,1.500000000000e-01,4.496400000000e+01,0.000000000000e+00
185,4.385819298767e-01,4.621674033683e+01,0.000000000000e+00
186,7.060660171780e-01,4.747454415588e+01,0.000000000000e+00
187,9.574025148548e-01,4.873622339643e+01,0.000000000000e+00
188,8.425974851452e-01,4.123622339643e+01,0.000000000000e+00
189,4.939339828220e-01,4.247454415588e+01,0.000000000000e+00
190,1.614180701233e-01,4.371674033683e+01,0.000000000000e+00
191,-1.500000000000e-01,4.496400000000e+01,0.000000000000e+00
192,-4.385819298767e-01,4.621674033683e+01,0.000000000000e+00
193,-7.060660171780e-01,4.747454415588e+01,0.000000000000e+00
194,-9.574025148548e-01,4.873622339643e+01,0.000000000000e+00
195,-8.425974851452e-01,4.123622339643e+01,2.000000000000e+00
196,-4.939339828220e-01,4.247454415588e+01,2.000000000000e+00
197,-1.614180701233e-01,4.371674033683e+01,2.000000000000e+00
198,1.500000000000e-01,4.496400000000e+01,2.000000000000e+00
199,4.385819298767e-01,4.621674033683e+01,2.000000000000e+00
200,7.060660171780e-01,4.747454415588e+01,2.000000000000e+00
201,9.574025148548e-01,4.873622339643e+01,2.000000000000e+00
202,8.425974851452e-01,4.123622339643e+01,2.000000000000e+00
203,4.939339828220e-01,4.247454415588e+01,2.000000000000e+00
204,1.614180701233e-01,4.371674033683e+01,2.000000000000e+00
205,-1.500000000000e-01,4.496400000000e+01,2.000000000000e+00
206,-4.385819298767e-01,4.621674033683e+01,2.000000000000e+00
207,-7.060660171780e-01,4.747454415588e+01,2.000000000000e+00
208,-9.574025148548e-01,4.873622339643e+01,2.000000000000e+00
*ELEMENT,TYPE=B31,ELSET=ALL
1,1,25
2,25,5
3,2,26
4,26,6
5,3,27
6,27,7
7,4,28
8,28,8
9,5,29
10,29,9
11,6,30
12,30,10
13,7,31
14,31,11
15,8,32
16,32,12
17,9,13
18,10,14
19,11,15
20,12,16
21,13,17
22,14,18
23,15,19
24,16,20
25,17,33
26,33,21
27,18,34
28,34,22
29,19,35
30,35,23
31,20,36
32,36,24
33,1,37
34,37,2
35,3,38
36,38,4
37,1,39
38,39,3
39,2,40
40,40,4
41,5,6
42,7,8
43,5,7
44,6,8
45,9,41
46,41,10
47,11,42
48,42,12
49,9,43
50,43,11
51,10,44
52,44,12
53,13,45
54,45,46
55,46,47
56,47,14
57,15,48
58,48,49
59,49,50
60,50,16
61,13,51
62,51,52
63,52,53
64,53,15
65,14,54
66,54,55
67,55,56
68,56,16
69,17,57
70,57,18
71,19,58
72,58,20
73,17,59
74,59,19
75,18,60
76,60,20
77,21,61
78,61,22
79,23,62
80,62,24
81,21,63
82,63,23
83,22,64
84,64,24
85,1,65
86,65,66
87,66,67
88,67,68
89,68,69
90,69,70
91,70,71
92,71,7
93,3,72
94,72,73
95,73,74
96,74,75
97,75,76
98,76,77
99,77,78
100,78,5
101,2,79
102,79,80
103,80,81
104,81,82
105,82,83
106,83,84
107,84,85
108,85,8
109,4,86
110,86,87
111,87,88
112,88,89
113,89,90
114,90,91
115,91,92
116,92,6
117,1,93
118,93,94
119,94,95
120,95,96
121,96,97
122,97,98
123,98,99
124,99,6
125,2,100
126,100,101
127,101,102
128,102,103
129,103,104
130,104,105
131,105,106
132,106,5
133,3,107
134,107,108
135,108,109
136,109,110
137,110,111
138,111,112
139,112,113
140,113,8
141,4,114
142,114,115
143,115,116
144,116,117
145,117,118
146,118,119
147,119,120
148,120,7
149,5,121
150,121,122
151,122,123
152,123,11
153,7,124
154,124,125
155,125,126
156,126,9
157,6,127
158,127,128
159,128,129
160,129,12
161,8,130
162,130,131
163,131,132
164,132,10
165,5,133
166,133,134
167,134,135
168,135,10
169,6,136
170,136,137
171,137,138
172,138,9
173,7,139
174,139,140
175,140,141
176,141,12
177,8,142
178,142,143
179,143,144
180,144,11
181,9,15
182,11,13
183,10,16
184,12,14
185,9,14
186,10,13
187,11,16
188,12,15
189,13,145
190,145,19
191,15,146
192,146,17
193,14,147
194,147,20
195,16,148
196,148,18
197,13,149
198,149,18
199,14,150
200,150,17
201,15,151
202,151,20
203,16,152
204,152,19
205,17,153
206,153,154
207,154,155
208,155,156
209,156,157
210,157,158
211,158,159
212,159,23
213,19,160
214,160,161
215,161,162
216,162,163
217,163,164
218,164,165
219,165,166
220,166,21
221,18,167
222,167,168
223,168,169
224,169,170
225,170,171
226,171,172
227,172,173
228,173,24
229,20,174
230,174,175
231,175,176
232,176,177
233,177,178
234,178,179
235,179,180
236,180,22
237,17,181
238,181,182
239,182,183
240,183,184
241,184,185
242,185,186
243,186,187
244,187,22
245,18,188
246,188,189
247,189,190
248,190,191
249,191,192
250,192,193
251,193,194
252,194,21
253,19,195
254,195,196
255,196,197
256,197,198
257,198,199
258,199,200
259,200,201
260,201,24
261,20,202
262,202,203
263,203,204
264,204,205
265,205,206
266,206,207
267,207,208
268,208,23
*NSET,NSET=NALL,GENERATE
1,208,1
*NSET,NSET=LEFT
1,2,3,4
*NSET,NSET=RIGHT
21,22,23,24
*MATERIAL,NAME=STEEL
*ELASTIC
2.100000000000e+11,0.300000000000
*BEAM SECTION,ELSET=ALL,MATERIAL=STEEL,SECTION=RECT
6.000000000000e-02,4.000000000000e-02
0.371390676354,0.557086014531,0.742781352708
*BOUNDARY
LEFT,1,6,0.0
*STEP
*STATIC
*BOUNDARY
21,1,1,5.000000000000e-03
21,2,2,0.0
21,3,3,-6.000000000000e-03
*BOUNDARY
22,1,1,5.000000000000e-03
22,2,2,0.0
22,3,3,6.000000000000e-03
*BOUNDARY
23,1,1,-5.000000000000e-03
23,2,2,0.0
23,3,3,-6.000000000000e-03
*BOUNDARY
24,1,1,-5.000000000000e-03
24,2,2,0.0
24,3,3,6.000000000000e-03
*NODE FILE,NSET=NALL
U
*NODE PRINT,NSET=NALL
U
*NODE PRINT,NSET=RIGHT
RF
*EL PRINT,ELSET=ALL,TOTALS=YES
ELSE
*END STEP
