*HEADING
Normalized cross-passage space-truss torsion benchmark
*NODE
1,-1.200000000000e+00,0.000000000000e+00,0.000000000000e+00
2,1.200000000000e+00,0.000000000000e+00,0.000000000000e+00
3,-1.200000000000e+00,0.000000000000e+00,2.000000000000e+00
4,1.200000000000e+00,0.000000000000e+00,2.000000000000e+00
5,-1.200000000000e+00,1.000000000000e+01,0.000000000000e+00
6,1.200000000000e+00,1.000000000000e+01,0.000000000000e+00
7,-1.200000000000e+00,1.000000000000e+01,2.000000000000e+00
8,1.200000000000e+00,1.000000000000e+01,2.000000000000e+00
9,-1.200000000000e+00,2.000000000000e+01,0.000000000000e+00
10,1.200000000000e+00,2.000000000000e+01,0.000000000000e+00
11,-1.200000000000e+00,2.000000000000e+01,2.000000000000e+00
12,1.200000000000e+00,2.000000000000e+01,2.000000000000e+00
13,-1.200000000000e+00,3.000000000000e+01,0.000000000000e+00
14,1.200000000000e+00,3.000000000000e+01,0.000000000000e+00
15,-1.200000000000e+00,3.000000000000e+01,2.000000000000e+00
16,1.200000000000e+00,3.000000000000e+01,2.000000000000e+00
17,-1.200000000000e+00,4.000000000000e+01,0.000000000000e+00
18,1.200000000000e+00,4.000000000000e+01,0.000000000000e+00
19,-1.200000000000e+00,4.000000000000e+01,2.000000000000e+00
20,1.200000000000e+00,4.000000000000e+01,2.000000000000e+00
21,-1.200000000000e+00,5.000000000000e+01,0.000000000000e+00
22,1.200000000000e+00,5.000000000000e+01,0.000000000000e+00
23,-1.200000000000e+00,5.000000000000e+01,2.000000000000e+00
24,1.200000000000e+00,5.000000000000e+01,2.000000000000e+00
25,-1.200000000000e+00,1.250000000000e+00,-5.740251485476e-02
26,-1.200000000000e+00,2.500000000000e+00,-1.060660171780e-01
27,-1.200000000000e+00,3.750000000000e+00,-1.385819298767e-01
28,-1.200000000000e+00,5.000000000000e+00,-1.500000000000e-01
29,-1.200000000000e+00,6.250000000000e+00,-1.385819298767e-01
30,-1.200000000000e+00,7.500000000000e+00,-1.060660171780e-01
31,-1.200000000000e+00,8.750000000000e+00,-5.740251485476e-02
32,1.200000000000e+00,1.250000000000e+00,5.740251485476e-02
33,1.200000000000e+00,2.500000000000e+00,1.060660171780e-01
34,1.200000000000e+00,3.750000000000e+00,1.385819298767e-01
35,1.200000000000e+00,5.000000000000e+00,1.500000000000e-01
36,1.200000000000e+00,6.250000000000e+00,1.385819298767e-01
37,1.200000000000e+00,7.500000000000e+00,1.060660171780e-01
38,1.200000000000e+00,8.750000000000e+00,5.740251485476e-02
39,-1.200000000000e+00,1.250000000000e+00,1.942597485145e+00
40,-1.200000000000e+00,2.500000000000e+00,1.893933982822e+00
41,-1.200000000000e+00,3.750000000000e+00,1.861418070123e+00
42,-1.200000000000e+00,5.000000000000e+00,1.850000000000e+00
43,-1.200000000000e+00,6.250000000000e+00,1.861418070123e+00
44,-1.200000000000e+00,7.500000000000e+00,1.893933982822e+00
45,-1.200000000000e+00,8.750000000000e+00,1.942597485145e+00
46,1.200000000000e+00,1.250000000000e+00,2.057402514855e+00
47,1.200000000000e+00,2.500000000000e+00,2.106066017178e+00
48,1.200000000000e+00,3.750000000000e+00,2.138581929877e+00
49,1.200000000000e+00,5.000000000000e+00,2.150000000000e+00
50,1.200000000000e+00,6.250000000000e+00,2.138581929877e+00
51,1.200000000000e+00,7.500000000000e+00,2.106066017178e+00
52,1.200000000000e+00,8.750000000000e+00,2.057402514855e+00
53,-1.200000000000e+00,1.125000000000e+01,-5.740251485476e-02
54,-1.200000000000e+00,1.250000000000e+01,-1.060660171780e-01
55,-1.200000000000e+00,1.375000000000e+01,-1.385819298767e-01
56,-1.200000000000e+00,1.500000000000e+01,-1.500000000000e-01
57,-1.200000000000e+00,1.625000000000e+01,-1.385819298767e-01
58,-1.200000000000e+00,1.750000000000e+01,-1.060660171780e-01
59,-1.200000000000e+00,1.875000000000e+01,-5.740251485476e-02
60,1.200000000000e+00,1.125000000000e+01,5.740251485476e-02
61,1.200000000000e+00,1.250000000000e+01,1.060660171780e-01
62,1.200000000000e+00,1.375000000000e+01,1.385819298767e-01
63,1.200000000000e+00,1.500000000000e+01,1.500000000000e-01
64,1.200000000000e+00,1.625000000000e+01,1.385819298767e-01
65,1.200000000000e+00,1.750000000000e+01,1.060660171780e-01
66,1.200000000000e+00,1.875000000000e+01,5.740251485476e-02
67,-1.200000000000e+00,1.125000000000e+01,1.942597485145e+00
68,-1.200000000000e+00,1.250000000000e+01,1.893933982822e+00
69,-1.200000000000e+00,1.375000000000e+01,1.861418070123e+00
70,-1.200000000000e+00,1.500000000000e+01,1.850000000000e+00
71,-1.200000000000e+00,1.625000000000e+01,1.861418070123e+00
72,-1.200000000000e+00,1.750000000000e+01,1.893933982822e+00
73,-1.200000000000e+00,1.875000000000e+01,1.942597485145e+00
74,1.200000000000e+00,1.125000000000e+01,2.057402514855e+00
75,1.200000000000e+00,1.250000000000e+01,2.106066017178e+00
76,1.200000000000e+00,1.375000000000e+01,2.138581929877e+00
77,1.200000000000e+00,1.500000000000e+01,2.150000000000e+00
78,1.200000000000e+00,1.625000000000e+01,2.138581929877e+00
79,1.200000000000e+00,1.750000000000e+01,2.106066017178e+00
80,1.200000000000e+00,1.875000000000e+01,2.057402514855e+00
81,-1.200000000000e+00,2.500000000000e+01,-1.500000000000e-01
82,1.200000000000e+00,2.500000000000e+01,1.500000000000e-01
83,-1.200000000000e+00,2.500000000000e+01,1.850000000000e+00
84,1.200000000000e+00,2.500000000000e+01,2.150000000000e+00
85,-1.200000000000e+00,3.500000000000e+01,-1.500000000000e-01
86,1.200000000000e+00,3.500000000000e+01,1.500000000000e-01
87,-1.200000000000e+00,3.500000000000e+01,1.850000000000e+00
88,1.200000000000e+00,3.500000000000e+01,2.150000000000e+00
89,-1.200000000000e+00,4.250000000000e+01,-1.060660171780e-01
90,-1.200000000000e+00,4.500000000000e+01,-1.500000000000e-01
91,-1.200000000000e+00,4.750000000000e+01,-1.060660171780e-01
92,1.200000000000e+00,4.250000000000e+01,1.060660171780e-01
93,1.200000000000e+00,4.500000000000e+01,1.500000000000e-01
94,1.200000000000e+00,4.750000000000e+01,1.060660171780e-01
95,-1.200000000000e+00,4.250000000000e+01,1.893933982822e+00
96,-1.200000000000e+00,4.500000000000e+01,1.850000000000e+00
97,-1.200000000000e+00,4.750000000000e+01,1.893933982822e+00
98,1.200000000000e+00,4.250000000000e+01,2.106066017178e+00
99,1.200000000000e+00,4.500000000000e+01,2.150000000000e+00
100,1.200000000000e+00,4.750000000000e+01,2.106066017178e+00
101,0.000000000000e+00,-3.600000000000e-02,0.000000000000e+00
102,0.000000000000e+00,3.600000000000e-02,2.000000000000e+00
103,-1.200000000000e+00,3.000000000000e-02,1.000000000000e+00
104,1.200000000000e+00,-3.000000000000e-02,1.000000000000e+00
105,-9.000000000000e-01,9.986223396435e+00,0.000000000000e+00
106,-6.000000000000e-01,9.974544155877e+00,0.000000000000e+00
107,-3.000000000000e-01,9.966740336830e+00,0.000000000000e+00
108,0.000000000000e+00,9.964000000000e+00,0.000000000000e+00
109,3.000000000000e-01,9.966740336830e+00,0.000000000000e+00
110,6.000000000000e-01,9.974544155877e+00,0.000000000000e+00
111,9.000000000000e-01,9.986223396435e+00,0.000000000000e+00
112,-9.000000000000e-01,1.001377660357e+01,2.000000000000e+00
113,-6.000000000000e-01,1.002545584412e+01,2.000000000000e+00
114,-3.000000000000e-01,1.003325966317e+01,2.000000000000e+00
115,0.000000000000e+00,1.003600000000e+01,2.000000000000e+00
116,3.000000000000e-01,1.003325966317e+01,2.000000000000e+00
117,6.000000000000e-01,1.002545584412e+01,2.000000000000e+00
118,9.000000000000e-01,1.001377660357e+01,2.000000000000e+00
119,-1.200000000000e+00,1.001148050297e+01,2.500000000000e-01
120,-1.200000000000e+00,1.002121320344e+01,5.000000000000e-01
121,-1.200000000000e+00,1.002771638598e+01,7.500000000000e-01
122,-1.200000000000e+00,1.003000000000e+01,1.000000000000e+00
123,-1.200000000000e+00,1.002771638598e+01,1.250000000000e+00
124,-1.200000000000e+00,1.002121320344e+01,1.500000000000e+00
125,-1.200000000000e+00,1.001148050297e+01,1.750000000000e+00
126,1.200000000000e+00,9.988519497029e+00,2.500000000000e-01
127,1.200000000000e+00,9.978786796564e+00,5.000000000000e-01
128,1.200000000000e+00,9.972283614025e+00,7.500000000000e-01
129,1.200000000000e+00,9.970000000000e+00,1.000000000000e+00
130,1.200000000000e+00,9.972283614025e+00,1.250000000000e+00
131,1.200000000000e+00,9.978786796564e+00,1.500000000000e+00
132,1.200000000000e+00,9.988519497029e+00,1.750000000000e+00
133,0.000000000000e+00,1.996400000000e+01,0.000000000000e+00
134,0.000000000000e+00,2.003600000000e+01,2.000000000000e+00
135,-1.200000000000e+00,2.003000000000e+01,1.000000000000e+00
136,1.200000000000e+00,1.997000000000e+01,1.000000000000e+00
137,-6.000000000000e-01,3.997454415588e+01,0.000000000000e+00
138,0.000000000000e+00,3.996400000000e+01,0.000000000000e+00
139,6.000000000000e-01,3.997454415588e+01,0.000000000000e+00
140,-6.000000000000e-01,4.002545584412e+01,2.000000000000e+00
141,0.000000000000e+00,4.003600000000e+01,2.000000000000e+00
142,6.000000000000e-01,4.002545584412e+01,2.000000000000e+00
143,-1.200000000000e+00,4.002121320344e+01,5.000000000000e-01
144,-1.200000000000e+00,4.003000000000e+01,1.000000000000e+00
145,-1.200000000000e+00,4.002121320344e+01,1.500000000000e+00
146,1.200000000000e+00,3.997878679656e+01,5.000000000000e-01
147,1.200000000000e+00,3.997000000000e+01,1.000000000000e+00
148,1.200000000000e+00,3.997878679656e+01,1.500000000000e+00
149,-1.200000000000e+00,1.261480502971e+00,1.925974851452e-01
150,-1.200000000000e+00,2.521213203436e+00,3.939339828220e-01
151,-1.200000000000e+00,3.777716385975e+00,6.114180701233e-01
152,-1.200000000000e+00,5.030000000000e+00,8.500000000000e-01
153,-1.200000000000e+00,6.277716385975e+00,1.111418070123e+00
154,-1.200000000000e+00,7.521213203436e+00,1.393933982822e+00
155,-1.200000000000e+00,8.761480502971e+00,1.692597485145e+00
156,-1.200000000000e+00,1.261480502971e+00,1.807402514855e+00
157,-1.200000000000e+00,2.521213203436e+00,1.606066017178e+00
158,-1.200000000000e+00,3.777716385975e+00,1.388581929877e+00
159,-1.200000000000e+00,5.030000000000e+00,1.150000000000e+00
160,-1.200000000000e+00,6.277716385975e+00,8.885819298767e-01
161,-1.200000000000e+00,7.521213203436e+00,6.060660171780e-01
162,-1.200000000000e+00,8.761480502971e+00,3.074025148548e-01
163,1.200000000000e+00,1.261480502971e+00,1.925974851452e-01
164,1.200000000000e+00,2.521213203436e+00,3.939339828220e-01
165,1.200000000000e+00,3.777716385975e+00,6.114180701233e-01
166,1.200000000000e+00,5.030000000000e+00,8.500000000000e-01
167,1.200000000000e+00,6.277716385975e+00,1.111418070123e+00
168,1.200000000000e+00,7.521213203436e+00,1.393933982822e+00
169,1.200000000000e+00,8.761480502971e+00,1.692597485145e+00
170,1.200000000000e+00,1.261480502971e+00,1.807402514855e+00
171,1.200000000000e+00,2.521213203436e+00,1.606066017178e+00
172,1.200000000000e+00,3.777716385975e+00,1.388581929877e+00
173,1.200000000000e+00,5.030000000000e+00,1.150000000000e+00
174,1.200000000000e+00,6.277716385975e+00,8.885819298767e-01
175,1.200000000000e+00,7.521213203436e+00,6.060660171780e-01
176,1.200000000000e+00,8.761480502971e+00,3.074025148548e-01
177,-8.425974851452e-01,1.236223396435e+00,0.000000000000e+00
178,-4.939339828220e-01,2.474544155877e+00,0.000000000000e+00
179,-1.614180701233e-01,3.716740336830e+00,0.000000000000e+00
180,1.500000000000e-01,4.964000000000e+00,0.000000000000e+00
181,4.385819298767e-01,6.216740336830e+00,0.000000000000e+00
182,7.060660171780e-01,7.474544155877e+00,0.000000000000e+00
183,9.574025148548e-01,8.736223396435e+00,0.000000000000e+00
184,8.425974851452e-01,1.236223396435e+00,0.000000000000e+00
185,4.939339828220e-01,2.474544155877e+00,0.000000000000e+00
186,1.614180701233e-01,3.716740336830e+00,0.000000000000e+00
187,-1.500000000000e-01,4.964000000000e+00,0.000000000000e+00
188,-4.385819298767e-01,6.216740336830e+00,0.000000000000e+00
189,-7.060660171780e-01,7.474544155877e+00,0.000000000000e+00
190,-9.574025148548e-01,8.736223396435e+00,0.000000000000e+00
191,-8.425974851452e-01,1.236223396435e+00,2.000000000000e+00
192,-4.939339828220e-01,2.474544155877e+00,2.000000000000e+00
193,-1.614180701233e-01,3.716740336830e+00,2.000000000000e+00
194,1.500000000000e-01,4.964000000000e+00,2.000000000000e+00
195,4.385819298767e-01,6.216740336830e+00,2.000000000000e+00
196,7.060660171780e-01,7.474544155877e+00,2.000000000000e+00
197,9.574025148548e-01,8.736223396435e+00,2.000000000000e+00
198,8.425974851452e-01,1.236223396435e+00,2.000000000000e+00
199,4.939339828220e-01,2.474544155877e+00,2.000000000000e+00
200,1.614180701233e-01,3.716740336830e+00,2.000000000000e+00
201,-1.500000000000e-01,4.964000000000e+00,2.000000000000e+00
202,-4.385819298767e-01,6.216740336830e+00,2.000000000000e+00
203,-7.060660171780e-01,7.474544155877e+00,2.000000000000e+00
204,-9.574025148548e-01,8.736223396435e+00,2.000000000000e+00
205,-1.200000000000e+00,1.126148050297e+01,1.925974851452e-01
206,-1.200000000000e+00,1.252121320344e+01,3.939339828220e-01
207,-1.200000000000e+00,1.377771638598e+01,6.114180701233e-01
208,-1.200000000000e+00,1.503000000000e+01,8.500000000000e-01
209,-1.200000000000e+00,1.627771638598e+01,1.111418070123e+00
210,-1.200000000000e+00,1.752121320344e+01,1.393933982822e+00
211,-1.200000000000e+00,1.876148050297e+01,1.692597485145e+00
212,-1.200000000000e+00,1.126148050297e+01,1.807402514855e+00
213,-1.200000000000e+00,1.252121320344e+01,1.606066017178e+00
214,-1.200000000000e+00,1.377771638598e+01,1.388581929877e+00
215,-1.200000000000e+00,1.503000000000e+01,1.150000000000e+00
216,-1.200000000000e+00,1.627771638598e+01,8.885819298767e-01
217,-1.200000000000e+00,1.752121320344e+01,6.060660171780e-01
218,-1.200000000000e+00,1.876148050297e+01,3.074025148548e-01
219,1.200000000000e+00,1.126148050297e+01,1.925974851452e-01
220,1.200000000000e+00,1.252121320344e+01,3.939339828220e-01
221,1.200000000000e+00,1.377771638598e+01,6.114180701233e-01
222,1.200000000000e+00,1.503000000000e+01,8.500000000000e-01
223,1.200000000000e+00,1.627771638598e+01,1.111418070123e+00
224,1.200000000000e+00,1.752121320344e+01,1.393933982822e+00
225,1.200000000000e+00,1.876148050297e+01,1.692597485145e+00
226,1.200000000000e+00,1.126148050297e+01,1.807402514855e+00
227,1.200000000000e+00,1.252121320344e+01,1.606066017178e+00
228,1.200000000000e+00,1.377771638598e+01,1.388581929877e+00
229,1.200000000000e+00,1.503000000000e+01,1.150000000000e+00
230,1.200000000000e+00,1.627771638598e+01,8.885819298767e-01
231,1.200000000000e+00,1.752121320344e+01,6.060660171780e-01
232,1.200000000000e+00,1.876148050297e+01,3.074025148548e-01
233,-8.425974851452e-01,1.123622339643e+01,0.000000000000e+00
234,-4.939339828220e-01,1.247454415588e+01,0.000000000000e+00
235,-1.614180701233e-01,1.371674033683e+01,0.000000000000e+00
236,1.500000000000e-01,1.496400000000e+01,0.000000000000e+00
237,4.385819298767e-01,1.621674033683e+01,0.000000000000e+00
238,7.060660171780e-01,1.747454415588e+01,0.000000000000e+00
239,9.574025148548e-01,1.873622339643e+01,0.000000000000e+00
240,8.425974851452e-01,1.123622339643e+01,0.000000000000e+00
241,4.939339828220e-01,1.247454415588e+01,0.000000000000e+00
242,1.614180701233e-01,1.371674033683e+01,0.000000000000e+00
243,-1.500000000000e-01,1.496400000000e+01,0.000000000000e+00
244,-4.385819298767e-01,1.621674033683e+01,0.000000000000e+00
245,-7.060660171780e-01,1.747454415588e+01,0.000000000000e+00
246,-9.574025148548e-01,1.873622339643e+01,0.000000000000e+00
247,-8.425974851452e-01,1.123622339643e+01,2.000000000000e+00
248,-4.939339828220e-01,1.247454415588e+01,2.000000000000e+00
249,-1.614180701233e-01,1.371674033683e+01,2.000000000000e+00
250,1.500000000000e-01,1.496400000000e+01,2.000000000000e+00
251,4.385819298767e-01,1.621674033683e+01,2.000000000000e+00
252,7.060660171780e-01,1.747454415588e+01,2.000000000000e+00
253,9.574025148548e-01,1.873622339643e+01,2.000000000000e+00
254,8.425974851452e-01,1.123622339643e+01,2.000000000000e+00
255,4.939339828220e-01,1.247454415588e+01,2.000000000000e+00
256,1.614180701233e-01,1.371674033683e+01,2.000000000000e+00
257,-1.500000000000e-01,1.496400000000e+01,2.000000000000e+00
258,-4.385819298767e-01,1.621674033683e+01,2.000000000000e+00
259,-7.060660171780e-01,1.747454415588e+01,2.000000000000e+00
260,-9.574025148548e-01,1.873622339643e+01,2.000000000000e+00
261,-1.200000000000e+00,3.503000000000e+01,8.500000000000e-01
262,-1.200000000000e+00,3.503000000000e+01,1.150000000000e+00
263,1.200000000000e+00,3.503000000000e+01,8.500000000000e-01
264,1.200000000000e+00,3.503000000000e+01,1.150000000000e+00
265,1.500000000000e-01,3.496400000000e+01,0.000000000000e+00
266,-1.500000000000e-01,3.496400000000e+01,0.000000000000e+00
267,1.500000000000e-01,3.496400000000e+01,2.000000000000e+00
268,-1.500000000000e-01,3.496400000000e+01,2.000000000000e+00
269,-1.200000000000e+00,4.503000000000e+01,8.500000000000e-01
270,-1.200000000000e+00,4.503000000000e+01,1.150000000000e+00
271,1.200000000000e+00,4.503000000000e+01,8.500000000000e-01
272,1.200000000000e+00,4.503000000000e+01,1.150000000000e+00
273,1.500000000000e-01,4.496400000000e+01,0.000000000000e+00
274,-1.500000000000e-01,4.496400000000e+01,0.000000000000e+00
275,1.500000000000e-01,4.496400000000e+01,2.000000000000e+00
276,-1.500000000000e-01,4.496400000000e+01,2.000000000000e+00
*ELEMENT,TYPE=B31,ELSET=ALL
1,1,25
2,25,26
3,26,27
4,27,28
5,28,29
6,29,30
7,30,31
8,31,5
9,2,32
10,32,33
11,33,34
12,34,35
13,35,36
14,36,37
15,37,38
16,38,6
17,3,39
18,39,40
19,40,41
20,41,42
21,42,43
22,43,44
23,44,45
24,45,7
25,4,46
26,46,47
27,47,48
28,48,49
29,49,50
30,50,51
31,51,52
32,52,8
33,5,53
34,53,54
35,54,55
36,55,56
37,56,57
38,57,58
39,58,59
40,59,9
41,6,60
42,60,61
43,61,62
44,62,63
45,63,64
46,64,65
47,65,66
48,66,10
49,7,67
50,67,68
51,68,69
52,69,70
53,70,71
54,71,72
55,72,73
56,73,11
57,8,74
58,74,75
59,75,76
60,76,77
61,77,78
62,78,79
63,79,80
64,80,12
65,9,81
66,81,13
67,10,82
68,82,14
69,11,83
70,83,15
71,12,84
72,84,16
73,13,85
74,85,17
75,14,86
76,86,18
77,15,87
78,87,19
79,16,88
80,88,20
81,17,89
82,89,90
83,90,91
84,91,21
85,18,92
86,92,93
87,93,94
88,94,22
89,19,95
90,95,96
91,96,97
92,97,23
93,20,98
94,98,99
95,99,100
96,100,24
97,1,101
98,101,2
99,3,102
100,102,4
101,1,103
102,103,3
103,2,104
104,104,4
105,5,105
106,105,106
107,106,107
108,107,108
109,108,109
110,109,110
111,110,111
112,111,6
113,7,112
114,112,113
115,113,114
116,114,115
117,115,116
118,116,117
119,117,118
120,118,8
121,5,119
122,119,120
123,120,121
124,121,122
125,122,123
126,123,124
127,124,125
128,125,7
129,6,126
130,126,127
131,127,128
132,128,129
133,129,130
134,130,131
135,131,132
136,132,8
137,9,133
138,133,10
139,11,134
140,134,12
141,9,135
142,135,11
143,10,136
144,136,12
145,13,14
146,15,16
147,13,15
148,14,16
149,17,137
150,137,138
151,138,139
152,139,18
153,19,140
154,140,141
155,141,142
156,142,20
157,17,143
158,143,144
159,144,145
160,145,19
161,18,146
162,146,147
163,147,148
164,148,20
165,21,22
166,23,24
167,21,23
168,22,24
169,1,149
170,149,150
171,150,151
172,151,152
173,152,153
174,153,154
175,154,155
176,155,7
177,3,156
178,156,157
179,157,158
180,158,159
181,159,160
182,160,161
183,161,162
184,162,5
185,2,163
186,163,164
187,164,165
188,165,166
189,166,167
190,167,168
191,168,169
192,169,8
193,4,170
194,170,171
195,171,172
196,172,173
197,173,174
198,174,175
199,175,176
200,176,6
201,1,177
202,177,178
203,178,179
204,179,180
205,180,181
206,181,182
207,182,183
208,183,6
209,2,184
210,184,185
211,185,186
212,186,187
213,187,188
214,188,189
215,189,190
216,190,5
217,3,191
218,191,192
219,192,193
220,193,194
221,194,195
222,195,196
223,196,197
224,197,8
225,4,198
226,198,199
227,199,200
228,200,201
229,201,202
230,202,203
231,203,204
232,204,7
233,5,205
234,205,206
235,206,207
236,207,208
237,208,209
238,209,210
239,210,211
240,211,11
241,7,212
242,212,213
243,213,214
244,214,215
245,215,216
246,216,217
247,217,218
248,218,9
249,6,219
250,219,220
251,220,221
252,221,222
253,222,223
254,223,224
255,224,225
256,225,12
257,8,226
258,226,227
259,227,228
260,228,229
261,229,230
262,230,231
263,231,232
264,232,10
265,5,233
266,233,234
267,234,235
268,235,236
269,236,237
270,237,238
271,238,239
272,239,10
273,6,240
274,240,241
275,241,242
276,242,243
277,243,244
278,244,245
279,245,246
280,246,9
281,7,247
282,247,248
283,248,249
284,249,250
285,250,251
286,251,252
287,252,253
288,253,12
289,8,254
290,254,255
291,255,256
292,256,257
293,257,258
294,258,259
295,259,260
296,260,11
297,9,15
298,11,13
299,10,16
300,12,14
301,9,14
302,10,13
303,11,16
304,12,15
305,13,261
306,261,19
307,15,262
308,262,17
309,14,263
310,263,20
311,16,264
312,264,18
313,13,265
314,265,18
315,14,266
316,266,17
317,15,267
318,267,20
319,16,268
320,268,19
321,17,269
322,269,23
323,19,270
324,270,21
325,18,271
326,271,24
327,20,272
328,272,22
329,17,273
330,273,22
331,18,274
332,274,21
333,19,275
334,275,24
335,20,276
336,276,23
*NSET,NSET=NALL,GENERATE
1,276,1
*NSET,NSET=LEFT
1,2,3,4
*NSET,NSET=RIGHT
21,22,23,24
*MATERIAL,NAME=STEEL
*ELASTIC
2.100000000000e+11,0.300000000000
*BEAM SECTION,ELSET=ALL,MATERIAL=STEEL,SECTION=RECT
6.000000000000e-02,4.000000000000e-02
0.371390676354,0.557086014531,0.742781352708
*BOUNDARY
LEFT,1,6,0.0
*STEP
*STATIC
*BOUNDARY
21,1,1,5.000000000000e-03
21,2,2,0.0
21,3,3,-6.000000000000e-03
*BOUNDARY
22,1,1,5.000000000000e-03
22,2,2,0.0
22,3,3,6.000000000000e-03
*BOUNDARY
23,1,1,-5.000000000000e-03
23,2,2,0.0
23,3,3,-6.000000000000e-03
*BOUNDARY
24,1,1,-5.000000000000e-03
24,2,2,0.0
24,3,3,6.000000000000e-03
*NODE FILE,NSET=NALL
U
*NODE PRINT,NSET=NALL
U
*NODE PRINT,NSET=RIGHT
RF
*EL PRINT,ELSET=ALL,TOTALS=YES
ELSE
*END STEP
