*HEADING
Normalized cross-passage space-truss torsion benchmark
*NODE
1,-1.200000000000e+00,0.000000000000e+00,0.000000000000e+00
2,1.200000000000e+00,0.000000000000e+00,0.000000000000e+00
3,-1.200000000000e+00,0.000000000000e+00,2.000000000000e+00
4,1.200000000000e+00,0.000000000000e+00,2.000000000000e+00
5,-1.200000000000e+00,1.000000000000e+01,0.000000000000e+00
6,1.200000000000e+00,1.000000000000e+01,0.000000000000e+00
7,-1.200000000000e+00,1.000000000000e+01,2.000000000000e+00
8,1.200000000000e+00,1.000000000000e+01,2.000000000000e+00
9,-1.200000000000e+00,2.000000000000e+01,0.000000000000e+00
10,1.200000000000e+00,2.000000000000e+01,0.000000000000e+00
11,-1.200000000000e+00,2.000000000000e+01,2.000000000000e+00
12,1.200000000000e+00,2.000000000000e+01,2.000000000000e+00
13,-1.200000000000e+00,3.000000000000e+01,0.000000000000e+00
14,1.200000000000e+00,3.000000000000e+01,0.000000000000e+00
15,-1.200000000000e+00,3.000000000000e+01,2.000000000000e+00
16,1.200000000000e+00,3.000000000000e+01,2.000000000000e+00
17,-1.200000000000e+00,4.000000000000e+01,0.000000000000e+00
18,1.200000000000e+00,4.000000000000e+01,0.000000000000e+00
19,-1.200000000000e+00,4.000000000000e+01,2.000000000000e+00
20,1.200000000000e+00,4.000000000000e+01,2.000000000000e+00
21,-1.200000000000e+00,5.000000000000e+01,0.000000000000e+00
22,1.200000000000e+00,5.000000000000e+01,0.000000000000e+00
23,-1.200000000000e+00,5.000000000000e+01,2.000000000000e+00
24,1.200000000000e+00,5.000000000000e+01,2.000000000000e+00
25,-1.200000000000e+00,1.250000000000e+00,-5.740251485476e-02
26,-1.200000000000e+00,2.500000000000e+00,-1.060660171780e-01
27,-1.200000000000e+00,3.750000000000e+00,-1.385819298767e-01
28,-1.200000000000e+00,5.000000000000e+00,-1.500000000000e-01
29,-1.200000000000e+00,6.250000000000e+00,-1.385819298767e-01
30,-1.200000000000e+00,7.500000000000e+00,-1.060660171780e-01
31,-1.200000000000e+00,8.750000000000e+00,-5.740251485476e-02
32,1.200000000000e+00,1.250000000000e+00,5.740251485476e-02
33,1.200000000000e+00,2.500000000000e+00,1.060660171780e-01
34,1.200000000000e+00,3.750000000000e+00,1.385819298767e-01
35,1.200000000000e+00,5.000000000000e+00,1.500000000000e-01
36,1.200000000000e+00,6.250000000000e+00,1.385819298767e-01
37,1.200000000000e+00,7.500000000000e+00,1.060660171780e-01
38,1.200000000000e+00,8.750000000000e+00,5.740251485476e-02
39,-1.200000000000e+00,1.250000000000e+00,1.942597485145e+00
40,-1.200000000000e+00,2.500000000000e+00,1.893933982822e+00
41,-1.200000000000e+00,3.750000000000e+00,1.861418070123e+00
42,-1.200000000000e+00,5.000000000000e+00,1.850000000000e+00
43,-1.200000000000e+00,6.250000000000e+00,1.861418070123e+00
44,-1.200000000000e+00,7.500000000000e+00,1.893933982822e+00
45,-1.200000000000e+00,8.750000000000e+00,1.942597485145e+00
46,1.200000000000e+00,1.250000000000e+00,2.057402514855e+00
47,1.200000000000e+00,2.500000000000e+00,2.106066017178e+00
48,1.200000000000e+00,3.750000000000e+00,2.138581929877e+00
49,1.200000000000e+00,5.000000000000e+00,2.150000000000e+00
50,1.200000000000e+00,6.250000000000e+00,2.138581929877e+00
51,1.200000000000e+00,7.500000000000e+00,2.106066017178e+00
52,1.200000000000e+00,8.750000000000e+00,2.057402514855e+00
53,-1.200000000000e+00,1.250000000000e+01,-1.060660171780e-01
54,-1.200000000000e+00,1.500000000000e+01,-1.500000000000e-01
55,-1.200000000000e+00,1.750000000000e+01,-1.060660171780e-01
56,1.200000000000e+00,1.250000000000e+01,1.060660171780e-01
57,1.200000000000e+00,1.500000000000e+01,1.500000000000e-01
58,1.200000000000e+00,1.750000000000e+01,1.060660171780e-01
59,-1.200000000000e+00,1.250000000000e+01,1.893933982822e+00
60,-1.200000000000e+00,1.500000000000e+01,1.850000000000e+00
61,-1.200000000000e+00,1.750000000000e+01,1.893933982822e+00
62,1.200000000000e+00,1.250000000000e+01,2.106066017178e+00
63,1.200000000000e+00,1.500000000000e+01,2.150000000000e+00
64,1.200000000000e+00,1.750000000000e+01,2.106066017178e+00
65,-1.200000000000e+00,2.250000000000e+01,-1.060660171780e-01
66,-1.200000000000e+00,2.500000000000e+01,-1.500000000000e-01
67,-1.200000000000e+00,2.750000000000e+01,-1.060660171780e-01
68,1.200000000000e+00,2.250000000000e+01,1.060660171780e-01
69,1.200000000000e+00,2.500000000000e+01,1.500000000000e-01
70,1.200000000000e+00,2.750000000000e+01,1.060660171780e-01
71,-1.200000000000e+00,2.250000000000e+01,1.893933982822e+00
72,-1.200000000000e+00,2.500000000000e+01,1.850000000000e+00
73,-1.200000000000e+00,2.750000000000e+01,1.893933982822e+00
74,1.200000000000e+00,2.250000000000e+01,2.106066017178e+00
75,1.200000000000e+00,2.500000000000e+01,2.150000000000e+00
76,1.200000000000e+00,2.750000000000e+01,2.106066017178e+00
77,-1.200000000000e+00,4.500000000000e+01,-1.500000000000e-01
78,1.200000000000e+00,4.500000000000e+01,1.500000000000e-01
79,-1.200000000000e+00,4.500000000000e+01,1.850000000000e+00
80,1.200000000000e+00,4.500000000000e+01,2.150000000000e+00
81,0.000000000000e+00,-3.600000000000e-02,0.000000000000e+00
82,0.000000000000e+00,3.600000000000e-02,2.000000000000e+00
83,-1.200000000000e+00,3.000000000000e-02,1.000000000000e+00
84,1.200000000000e+00,-3.000000000000e-02,1.000000000000e+00
85,0.000000000000e+00,9.964000000000e+00,0.000000000000e+00
86,0.000000000000e+00,1.003600000000e+01,2.000000000000e+00
87,-1.200000000000e+00,1.003000000000e+01,1.000000000000e+00
88,1.200000000000e+00,9.970000000000e+00,1.000000000000e+00
89,0.000000000000e+00,1.996400000000e+01,0.000000000000e+00
90,0.000000000000e+00,2.003600000000e+01,2.000000000000e+00
91,-1.200000000000e+00,2.003000000000e+01,1.000000000000e+00
92,1.200000000000e+00,1.997000000000e+01,1.000000000000e+00
93,0.000000000000e+00,2.996400000000e+01,0.000000000000e+00
94,0.000000000000e+00,3.003600000000e+01,2.000000000000e+00
95,-1.200000000000e+00,3.003000000000e+01,1.000000000000e+00
96,1.200000000000e+00,2.997000000000e+01,1.000000000000e+00
97,-6.000000000000e-01,4.997454415588e+01,0.000000000000e+00
98,0.000000000000e+00,4.996400000000e+01,0.000000000000e+00
99,6.000000000000e-01,4.997454415588e+01,0.000000000000e+00
100,-6.000000000000e-01,5.002545584412e+01,2.000000000000e+00
101,0.000000000000e+00,5.003600000000e+01,2.000000000000e+00
102,6.000000000000e-01,5.002545584412e+01,2.000000000000e+00
103,-1.200000000000e+00,5.002121320344e+01,5.000000000000e-01
104,-1.200000000000e+00,5.003000000000e+01,1.000000000000e+00
105,-1.200000000000e+00,5.002121320344e+01,1.500000000000e+00
106,1.200000000000e+00,4.997878679656e+01,5.000000000000e-01
107,1.200000000000e+00,4.997000000000e+01,1.000000000000e+00
108,1.200000000000e+00,4.997878679656e+01,1.500000000000e+00
109,-1.200000000000e+00,1.261480502971e+00,1.925974851452e-01
110,-1.200000000000e+00,2.521213203436e+00,3.939339828220e-01
111,-1.200000000000e+00,3.777716385975e+00,6.114180701233e-01
112,-1.200000000000e+00,5.030000000000e+00,8.500000000000e-01
113,-1.200000000000e+00,6.277716385975e+00,1.111418070123e+00
114,-1.200000000000e+00,7.521213203436e+00,1.393933982822e+00
115,-1.200000000000e+00,8.761480502971e+00,1.692597485145e+00
116,-1.200000000000e+00,1.261480502971e+00,1.807402514855e+00
117,-1.200000000000e+00,2.521213203436e+00,1.606066017178e+00
118,-1.200000000000e+00,3.777716385975e+00,1.388581929877e+00
119,-1.200000000000e+00,5.030000000000e+00,1.150000000000e+00
120,-1.200000000000e+00,6.277716385975e+00,8.885819298767e-01
121,-1.200000000000e+00,7.521213203436e+00,6.060660171780e-01
122,-1.200000000000e+00,8.761480502971e+00,3.074025148548e-01
123,1.200000000000e+00,1.261480502971e+00,1.925974851452e-01
124,1.200000000000e+00,2.521213203436e+00,3.939339828220e-01
125,1.200000000000e+00,3.777716385975e+00,6.114180701233e-01
126,1.200000000000e+00,5.030000000000e+00,8.500000000000e-01
127,1.200000000000e+00,6.277716385975e+00,1.111418070123e+00
128,1.200000000000e+00,7.521213203436e+00,1.393933982822e+00
129,1.200000000000e+00,8.761480502971e+00,1.692597485145e+00
130,1.200000000000e+00,1.261480502971e+00,1.807402514855e+00
131,1.200000000000e+00,2.521213203436e+00,1.606066017178e+00
132,1.200000000000e+00,3.777716385975e+00,1.388581929877e+00
133,1.200000000000e+00,5.030000000000e+00,1.150000000000e+00
134,1.200000000000e+00,6.277716385975e+00,8.885819298767e-01
135,1.200000000000e+00,7.521213203436e+00,6.060660171780e-01
136,1.200000000000e+00,8.761480502971e+00,3.074025148548e-01
137,-8.425974851452e-01,1.236223396435e+00,0.000000000000e+00
138,-4.939339828220e-01,2.474544155877e+00,0.000000000000e+00
139,-1.614180701233e-01,3.716740336830e+00,0.000000000000e+00
140,1.500000000000e-01,4.964000000000e+00,0.000000000000e+00
141,4.385819298767e-01,6.216740336830e+00,0.000000000000e+00
142,7.060660171780e-01,7.474544155877e+00,0.000000000000e+00
143,9.574025148548e-01,8.736223396435e+00,0.000000000000e+00
144,8.425974851452e-01,1.236223396435e+00,0.000000000000e+00
145,4.939339828220e-01,2.474544155877e+00,0.000000000000e+00
146,1.614180701233e-01,3.716740336830e+00,0.000000000000e+00
147,-1.500000000000e-01,4.964000000000e+00,0.000000000000e+00
148,-4.385819298767e-01,6.216740336830e+00,0.000000000000e+00
149,-7.060660171780e-01,7.474544155877e+00,0.000000000000e+00
150,-9.574025148548e-01,8.736223396435e+00,0.000000000000e+00
151,-8.425974851452e-01,1.236223396435e+00,2.000000000000e+00
152,-4.939339828220e-01,2.474544155877e+00,2.000000000000e+00
153,-1.614180701233e-01,3.716740336830e+00,2.000000000000e+00
154,1.500000000000e-01,4.964000000000e+00,2.000000000000e+00
155,4.385819298767e-01,6.216740336830e+00,2.000000000000e+00
156,7.060660171780e-01,7.474544155877e+00,2.000000000000e+00
157,9.574025148548e-01,8.736223396435e+00,2.000000000000e+00
158,8.425974851452e-01,1.236223396435e+00,2.000000000000e+00
159,4.939339828220e-01,2.474544155877e+00,2.000000000000e+00
160,1.614180701233e-01,3.716740336830e+00,2.000000000000e+00
161,-1.500000000000e-01,4.964000000000e+00,2.000000000000e+00
162,-4.385819298767e-01,6.216740336830e+00,2.000000000000e+00
163,-7.060660171780e-01,7.474544155877e+00,2.000000000000e+00
164,-9.574025148548e-01,8.736223396435e+00,2.000000000000e+00
165,-1.200000000000e+00,1.126148050297e+01,1.925974851452e-01
166,-1.200000000000e+00,1.252121320344e+01,3.939339828220e-01
167,-1.200000000000e+00,1.377771638598e+01,6.114180701233e-01
168,-1.200000000000e+00,1.503000000000e+01,8.500000000000e-01
169,-1.200000000000e+00,1.627771638598e+01,1.111418070123e+00
170,-1.200000000000e+00,1.752121320344e+01,1.393933982822e+00
171,-1.200000000000e+00,1.876148050297e+01,1.692597485145e+00
172,-1.200000000000e+00,1.126148050297e+01,1.807402514855e+00
173,-1.200000000000e+00,1.252121320344e+01,1.606066017178e+00
174,-1.200000000000e+00,1.377771638598e+01,1.388581929877e+00
175,-1.200000000000e+00,1.503000000000e+01,1.150000000000e+00
176,-1.200000000000e+00,1.627771638598e+01,8.885819298767e-01
177,-1.200000000000e+00,1.752121320344e+01,6.060660171780e-01
178,-1.200000000000e+00,1.876148050297e+01,3.074025148548e-01
179,1.200000000000e+00,1.126148050297e+01,1.925974851452e-01
180,1.200000000000e+00,1.252121320344e+01,3.939339828220e-01
181,1.200000000000e+00,1.377771638598e+01,6.114180701233e-01
182,1.200000000000e+00,1.503000000000e+01,8.500000000000e-01
183,1.200000000000e+00,1.627771638598e+01,1.111418070123e+00
184,1.200000000000e+00,1.752121320344e+01,1.393933982822e+00
185,1.200000000000e+00,1.876148050297e+01,1.692597485145e+00
186,1.200000000000e+00,1.126148050297e+01,1.807402514855e+00
187,1.200000000000e+00,1.252121320344e+01,1.606066017178e+00
188,1.200000000000e+00,1.377771638598e+01,1.388581929877e+00
189,1.200000000000e+00,1.503000000000e+01,1.150000000000e+00
190,1.200000000000e+00,1.627771638598e+01,8.885819298767e-01
191,1.200000000000e+00,1.752121320344e+01,6.060660171780e-01
192,1.200000000000e+00,1.876148050297e+01,3.074025148548e-01
193,-8.425974851452e-01,1.123622339643e+01,0.000000000000e+00
194,-4.939339828220e-01,1.247454415588e+01,0.000000000000e+00
195,-1.614180701233e-01,1.371674033683e+01,0.000000000000e+00
196,1.500000000000e-01,1.496400000000e+01,0.000000000000e+00
197,4.385819298767e-01,1.621674033683e+01,0.000000000000e+00
198,7.060660171780e-01,1.747454415588e+01,0.000000000000e+00
199,9.574025148548e-01,1.873622339643e+01,0.000000000000e+00
200,8.425974851452e-01,1.123622339643e+01,0.000000000000e+00
201,4.939339828220e-01,1.247454415588e+01,0.000000000000e+00
202,1.614180701233e-01,1.371674033683e+01,0.000000000000e+00
203,-1.500000000000e-01,1.496400000000e+01,0.000000000000e+00
204,-4.385819298767e-01,1.621674033683e+01,0.000000000000e+00
205,-7.060660171780e-01,1.747454415588e+01,0.000000000000e+00
206,-9.574025148548e-01,1.873622339643e+01,0.000000000000e+00
207,-8.425974851452e-01,1.123622339643e+01,2.000000000000e+00
208,-4.939339828220e-01,1.247454415588e+01,2.000000000000e+00
209,-1.614180701233e-01,1.371674033683e+01,2.000000000000e+00
210,1.500000000000e-01,1.496400000000e+01,2.000000000000e+00
211,4.385819298767e-01,1.621674033683e+01,2.000000000000e+00
212,7.060660171780e-01,1.747454415588e+01,2.000000000000e+00
213,9.574025148548e-01,1.873622339643e+01,2.000000000000e+00
214,8.425974851452e-01,1.123622339643e+01,2.000000000000e+00
215,4.939339828220e-01,1.247454415588e+01,2.000000000000e+00
216,1.614180701233e-01,1.371674033683e+01,2.000000000000e+00
217,-1.500000000000e-01,1.496400000000e+01,2.000000000000e+00
218,-4.385819298767e-01,1.621674033683e+01,2.000000000000e+00
219,-7.060660171780e-01,1.747454415588e+01,2.000000000000e+00
220,-9.574025148548e-01,1.873622339643e+01,2.000000000000e+00
*ELEMENT,TYPE=B31,ELSET=ALL
1,1,25
2,25,26
3,26,27
4,27,28
5,28,29
6,29,30
7,30,31
8,31,5
9,2,32
10,32,33
11,33,34
12,34,35
13,35,36
14,36,37
15,37,38
16,38,6
17,3,39
18,39,40
19,40,41
20,41,42
21,42,43
22,43,44
23,44,45
24,45,7
25,4,46
26,46,47
27,47,48
28,48,49
29,49,50
30,50,51
31,51,52
32,52,8
33,5,53
34,53,54
35,54,55
36,55,9
37,6,56
38,56,57
39,57,58
40,58,10
41,7,59
42,59,60
43,60,61
44,61,11
45,8,62
46,62,63
47,63,64
48,64,12
49,9,65
50,65,66
51,66,67
52,67,13
53,10,68
54,68,69
55,69,70
56,70,14
57,11,71
58,71,72
59,72,73
60,73,15
61,12,74
62,74,75
63,75,76
64,76,16
65,13,17
66,14,18
67,15,19
68,16,20
69,17,77
70,77,21
71,18,78
72,78,22
73,19,79
74,79,23
75,20,80
76,80,24
77,1,81
78,81,2
79,3,82
80,82,4
81,1,83
82,83,3
83,2,84
84,84,4
85,5,85
86,85,6
87,7,86
88,86,8
89,5,87
90,87,7
91,6,88
92,88,8
93,9,89
94,89,10
95,11,90
96,90,12
97,9,91
98,91,11
99,10,92
100,92,12
101,13,93
102,93,14
103,15,94
104,94,16
105,13,95
106,95,15
107,14,96
108,96,16
109,17,18
110,19,20
111,17,19
112,18,20
113,21,97
114,97,98
115,98,99
116,99,22
117,23,100
118,100,101
119,101,102
120,102,24
121,21,103
122,103,104
123,104,105
124,105,23
125,22,106
126,106,107
127,107,108
128,108,24
129,1,109
130,109,110
131,110,111
132,111,112
133,112,113
134,113,114
135,114,115
136,115,7
137,3,116
138,116,117
139,117,118
140,118,119
141,119,120
142,120,121
143,121,122
144,122,5
145,2,123
146,123,124
147,124,125
148,125,126
149,126,127
150,127,128
151,128,129
152,129,8
153,4,130
154,130,131
155,131,132
156,132,133
157,133,134
158,134,135
159,135,136
160,136,6
161,1,137
162,137,138
163,138,139
164,139,140
165,140,141
166,141,142
167,142,143
168,143,6
169,2,144
170,144,145
171,145,146
172,146,147
173,147,148
174,148,149
175,149,150
176,150,5
177,3,151
178,151,152
179,152,153
180,153,154
181,154,155
182,155,156
183,156,157
184,157,8
185,4,158
186,158,159
187,159,160
188,160,161
189,161,162
190,162,163
191,163,164
192,164,7
193,5,165
194,165,166
195,166,167
196,167,168
197,168,169
198,169,170
199,170,171
200,171,11
201,7,172
202,172,173
203,173,174
204,174,175
205,175,176
206,176,177
207,177,178
208,178,9
209,6,179
210,179,180
211,180,181
212,181,182
213,182,183
214,183,184
215,184,185
216,185,12
217,8,186
218,186,187
219,187,188
220,188,189
221,189,190
222,190,191
223,191,192
224,192,10
225,5,193
226,193,194
227,194,195
228,195,196
229,196,197
230,197,198
231,198,199
232,199,10
233,6,200
234,200,201
235,201,202
236,202,203
237,203,204
238,204,205
239,205,206
240,206,9
241,7,207
242,207,208
243,208,209
244,209,210
245,210,211
246,211,212
247,212,213
248,213,12
249,8,214
250,214,215
251,215,216
252,216,217
253,217,218
254,218,219
255,219,220
256,220,11
257,9,15
258,11,13
259,10,16
260,12,14
261,9,14
262,10,13
263,11,16
264,12,15
265,13,19
266,15,17
267,14,20
268,16,18
269,13,18
270,14,17
271,15,20
272,16,19
273,17,23
274,19,21
275,18,24
276,20,22
277,17,22
278,18,21
279,19,24
280,20,23
*NSET,NSET=NALL,GENERATE
1,220,1
*NSET,NSET=LEFT
1,2,3,4
*NSET,NSET=RIGHT
21,22,23,24
*MATERIAL,NAME=STEEL
*ELASTIC
2.100000000000e+11,0.300000000000
*BEAM SECTION,ELSET=ALL,MATERIAL=STEEL,SECTION=RECT
6.000000000000e-02,4.000000000000e-02
0.371390676354,0.557086014531,0.742781352708
*BOUNDARY
LEFT,1,6,0.0
*STEP
*STATIC
*BOUNDARY
21,1,1,5.000000000000e-03
21,2,2,0.0
21,3,3,-6.000000000000e-03
*BOUNDARY
22,1,1,5.000000000000e-03
22,2,2,0.0
22,3,3,6.000000000000e-03
*BOUNDARY
23,1,1,-5.000000000000e-03
23,2,2,0.0
23,3,3,-6.000000000000e-03
*BOUNDARY
24,1,1,-5.000000000000e-03
24,2,2,0.0
24,3,3,6.000000000000e-03
*NODE FILE,NSET=NALL
U
*NODE PRINT,NSET=NALL
U
*NODE PRINT,NSET=RIGHT
RF
*EL PRINT,ELSET=ALL,TOTALS=YES
ELSE
*END STEP
