*HEADING
T03 S-LIN t03_s-lin_rev1 conforming C3D8 frozen T
units: mm, N, s, MPa, t. Illustrative steel, not a coupon card.
beam=T03 case=S-LIN job=t03_s-lin_rev1 type=C3D8
E=210000.0 nu=0.3 fy=235.0 load=-5000.0 N on TIP_TOP
*NODE, NSET=NALL
1, 0, -10, 0
2, 55.4225322162, -10, 0
3, 55.4225322162, 0, 0
4, 0, 0, 0
5, 0, -10, 40
6, 55.4225322162, -10, 40
7, 55.4225322162, 0, 40
8, 0, 0, 40
9, 0, -10, 80
10, 55.4225322162, -10, 80
11, 55.4225322162, 0, 80
12, 0, 0, 80
13, 0, -10, 120
14, 55.4225322162, -10, 120
15, 55.4225322162, 0, 120
16, 0, 0, 120
17, 0, -10, 160
18, 55.4225322162, -10, 160
19, 55.4225322162, 0, 160
20, 0, 0, 160
21, 0, -10, 200
22, 55.4225322162, -10, 200
23, 55.4225322162, 0, 200
24, 0, 0, 200
25, 55.4225322162, 10, 0
26, 0, 10, 0
27, 55.4225322162, 10, 40
28, 0, 10, 40
29, 55.4225322162, 10, 80
30, 0, 10, 80
31, 55.4225322162, 10, 120
32, 0, 10, 120
33, 55.4225322162, 10, 160
34, 0, 10, 160
35, 55.4225322162, 10, 200
36, 0, 10, 200
37, 0, -120, 200
38, 55.4225322162, -120, 200
39, 55.4225322162, -92.5, 200
40, 0, -92.5, 200
41, 0, -120, 210
42, 55.4225322162, -120, 210
43, 55.4225322162, -92.5, 210
44, 0, -92.5, 210
45, 0, -120, 220
46, 55.4225322162, -120, 220
47, 55.4225322162, -92.5, 220
48, 0, -92.5, 220
49, 55.4225322162, -65, 200
50, 0, -65, 200
51, 55.4225322162, -65, 210
52, 0, -65, 210
53, 55.4225322162, -65, 220
54, 0, -65, 220
55, 55.4225322162, -37.5, 200
56, 0, -37.5, 200
57, 55.4225322162, -37.5, 210
58, 0, -37.5, 210
59, 55.4225322162, -37.5, 220
60, 0, -37.5, 220
61, 55.4225322162, -10, 210
62, 0, -10, 210
63, 55.4225322162, -10, 220
64, 0, -10, 220
65, 55.4225322162, 0, 210
66, 0, 0, 210
67, 55.4225322162, 0, 220
68, 0, 0, 220
69, 55.4225322162, 10, 210
70, 0, 10, 210
71, 55.4225322162, 10, 220
72, 0, 10, 220
73, 55.4225322162, 37.5, 200
74, 0, 37.5, 200
75, 55.4225322162, 37.5, 210
76, 0, 37.5, 210
77, 55.4225322162, 37.5, 220
78, 0, 37.5, 220
79, 55.4225322162, 65, 200
80, 0, 65, 200
81, 55.4225322162, 65, 210
82, 0, 65, 210
83, 55.4225322162, 65, 220
84, 0, 65, 220
85, 55.4225322162, 92.5, 200
86, 0, 92.5, 200
87, 55.4225322162, 92.5, 210
88, 0, 92.5, 210
89, 55.4225322162, 92.5, 220
90, 0, 92.5, 220
91, 55.4225322162, 120, 200
92, 0, 120, 200
93, 55.4225322162, 120, 210
94, 0, 120, 210
95, 55.4225322162, 120, 220
96, 0, 120, 220
97, 111.285697292, -10, 0
98, 111.285697292, 0, 0
99, 111.285697292, -10, 40
100, 111.285697292, 0, 40
101, 111.285697292, -10, 80
102, 111.285697292, 0, 80
103, 111.285697292, -10, 120
104, 111.285697292, 0, 120
105, 111.285697292, -10, 160
106, 111.285697292, 0, 160
107, 111.285697292, -10, 200
108, 111.285697292, 0, 200
109, 111.285697292, 10, 0
110, 111.285697292, 10, 40
111, 111.285697292, 10, 80
112, 111.285697292, 10, 120
113, 111.285697292, 10, 160
114, 111.285697292, 10, 200
115, 111.285697292, -120, 200
116, 111.285697292, -92.5, 200
117, 111.285697292, -120, 210
118, 111.285697292, -92.5, 210
119, 111.285697292, -120, 220
120, 111.285697292, -92.5, 220
121, 111.285697292, -65, 200
122, 111.285697292, -65, 210
123, 111.285697292, -65, 220
124, 111.285697292, -37.5, 200
125, 111.285697292, -37.5, 210
126, 111.285697292, -37.5, 220
127, 111.285697292, -10, 210
128, 111.285697292, -10, 220
129, 111.285697292, 0, 210
130, 111.285697292, 0, 220
131, 111.285697292, 10, 210
132, 111.285697292, 10, 220
133, 111.285697292, 37.5, 200
134, 111.285697292, 37.5, 210
135, 111.285697292, 37.5, 220
136, 111.285697292, 65, 200
137, 111.285697292, 65, 210
138, 111.285697292, 65, 220
139, 111.285697292, 92.5, 200
140, 111.285697292, 92.5, 210
141, 111.285697292, 92.5, 220
142, 111.285697292, 120, 200
143, 111.285697292, 120, 210
144, 111.285697292, 120, 220
145, 168.774443775, -10, 0
146, 168.774443775, 0, 0
147, 168.774443775, -10, 40
148, 168.774443775, 0, 40
149, 168.774443775, -10, 80
150, 168.774443775, 0, 80
151, 168.774443775, -10, 120
152, 168.774443775, 0, 120
153, 168.774443775, -10, 160
154, 168.774443775, 0, 160
155, 168.774443775, -10, 200
156, 168.774443775, 0, 200
157, 168.774443775, 10, 0
158, 168.774443775, 10, 40
159, 168.774443775, 10, 80
160, 168.774443775, 10, 120
161, 168.774443775, 10, 160
162, 168.774443775, 10, 200
163, 168.774443775, -120, 200
164, 168.774443775, -92.5, 200
165, 168.774443775, -120, 210
166, 168.774443775, -92.5, 210
167, 168.774443775, -120, 220
168, 168.774443775, -92.5, 220
169, 168.774443775, -65, 200
170, 168.774443775, -65, 210
171, 168.774443775, -65, 220
172, 168.774443775, -37.5, 200
173, 168.774443775, -37.5, 210
174, 168.774443775, -37.5, 220
175, 168.774443775, -10, 210
176, 168.774443775, -10, 220
177, 168.774443775, 0, 210
178, 168.774443775, 0, 220
179, 168.774443775, 10, 210
180, 168.774443775, 10, 220
181, 168.774443775, 37.5, 200
182, 168.774443775, 37.5, 210
183, 168.774443775, 37.5, 220
184, 168.774443775, 65, 200
185, 168.774443775, 65, 210
186, 168.774443775, 65, 220
187, 168.774443775, 92.5, 200
188, 168.774443775, 92.5, 210
189, 168.774443775, 92.5, 220
190, 168.774443775, 120, 200
191, 168.774443775, 120, 210
192, 168.774443775, 120, 220
193, 224.121063731, -10, 0
194, 224.121063731, 0, 0
195, 224.121063731, -10, 40
196, 224.121063731, 0, 40
197, 224.121063731, -10, 80
198, 224.121063731, 0, 80
199, 224.121063731, -10, 120
200, 224.121063731, 0, 120
201, 224.121063731, -10, 160
202, 224.121063731, 0, 160
203, 224.121063731, -10, 200
204, 224.121063731, 0, 200
205, 224.121063731, 10, 0
206, 224.121063731, 10, 40
207, 224.121063731, 10, 80
208, 224.121063731, 10, 120
209, 224.121063731, 10, 160
210, 224.121063731, 10, 200
211, 224.121063731, -120, 200
212, 224.121063731, -92.5, 200
213, 224.121063731, -120, 210
214, 224.121063731, -92.5, 210
215, 224.121063731, -120, 220
216, 224.121063731, -92.5, 220
217, 224.121063731, -65, 200
218, 224.121063731, -65, 210
219, 224.121063731, -65, 220
220, 224.121063731, -37.5, 200
221, 224.121063731, -37.5, 210
222, 224.121063731, -37.5, 220
223, 224.121063731, -10, 210
224, 224.121063731, -10, 220
225, 224.121063731, 0, 210
226, 224.121063731, 0, 220
227, 224.121063731, 10, 210
228, 224.121063731, 10, 220
229, 224.121063731, 37.5, 200
230, 224.121063731, 37.5, 210
231, 224.121063731, 37.5, 220
232, 224.121063731, 65, 200
233, 224.121063731, 65, 210
234, 224.121063731, 65, 220
235, 224.121063731, 92.5, 200
236, 224.121063731, 92.5, 210
237, 224.121063731, 92.5, 220
238, 224.121063731, 120, 200
239, 224.121063731, 120, 210
240, 224.121063731, 120, 220
241, 276.864941879, -10, 0
242, 276.864941879, 0, 0
243, 276.864941879, -10, 40
244, 276.864941879, 0, 40
245, 276.864941879, -10, 80
246, 276.864941879, 0, 80
247, 276.864941879, -10, 120
248, 276.864941879, 0, 120
249, 276.864941879, -10, 160
250, 276.864941879, 0, 160
251, 276.864941879, -10, 200
252, 276.864941879, 0, 200
253, 276.864941879, 10, 0
254, 276.864941879, 10, 40
255, 276.864941879, 10, 80
256, 276.864941879, 10, 120
257, 276.864941879, 10, 160
258, 276.864941879, 10, 200
259, 276.864941879, -120, 200
260, 276.864941879, -92.5, 200
261, 276.864941879, -120, 210
262, 276.864941879, -92.5, 210
263, 276.864941879, -120, 220
264, 276.864941879, -92.5, 220
265, 276.864941879, -65, 200
266, 276.864941879, -65, 210
267, 276.864941879, -65, 220
268, 276.864941879, -37.5, 200
269, 276.864941879, -37.5, 210
270, 276.864941879, -37.5, 220
271, 276.864941879, -10, 210
272, 276.864941879, -10, 220
273, 276.864941879, 0, 210
274, 276.864941879, 0, 220
275, 276.864941879, 10, 210
276, 276.864941879, 10, 220
277, 276.864941879, 37.5, 200
278, 276.864941879, 37.5, 210
279, 276.864941879, 37.5, 220
280, 276.864941879, 65, 200
281, 276.864941879, 65, 210
282, 276.864941879, 65, 220
283, 276.864941879, 92.5, 200
284, 276.864941879, 92.5, 210
285, 276.864941879, 92.5, 220
286, 276.864941879, 120, 200
287, 276.864941879, 120, 210
288, 276.864941879, 120, 220
289, 327.242458935, -10, 6.81061473387
290, 327.242458935, 0, 6.81061473387
291, 327.242458935, -10, 45.4484917871
292, 327.242458935, 0, 45.4484917871
293, 327.242458935, -10, 84.0863688403
294, 327.242458935, 0, 84.0863688403
295, 327.242458935, -10, 122.724245894
296, 327.242458935, 0, 122.724245894
297, 327.242458935, -10, 161.362122947
298, 327.242458935, 0, 161.362122947
299, 327.242458935, -10, 200
300, 327.242458935, 0, 200
301, 327.242458935, 10, 6.81061473387
302, 327.242458935, 10, 45.4484917871
303, 327.242458935, 10, 84.0863688403
304, 327.242458935, 10, 122.724245894
305, 327.242458935, 10, 161.362122947
306, 327.242458935, 10, 200
307, 327.242458935, -120, 200
308, 327.242458935, -92.5, 200
309, 327.242458935, -120, 210
310, 327.242458935, -92.5, 210
311, 327.242458935, -120, 220
312, 327.242458935, -92.5, 220
313, 327.242458935, -65, 200
314, 327.242458935, -65, 210
315, 327.242458935, -65, 220
316, 327.242458935, -37.5, 200
317, 327.242458935, -37.5, 210
318, 327.242458935, -37.5, 220
319, 327.242458935, -10, 210
320, 327.242458935, -10, 220
321, 327.242458935, 0, 210
322, 327.242458935, 0, 220
323, 327.242458935, 10, 210
324, 327.242458935, 10, 220
325, 327.242458935, 37.5, 200
326, 327.242458935, 37.5, 210
327, 327.242458935, 37.5, 220
328, 327.242458935, 65, 200
329, 327.242458935, 65, 210
330, 327.242458935, 65, 220
331, 327.242458935, 92.5, 200
332, 327.242458935, 92.5, 210
333, 327.242458935, 92.5, 220
334, 327.242458935, 120, 200
335, 327.242458935, 120, 210
336, 327.242458935, 120, 220
337, 375.458978463, -10, 18.8647446158
338, 375.458978463, 0, 18.8647446158
339, 375.458978463, -10, 55.0917956927
340, 375.458978463, 0, 55.0917956927
341, 375.458978463, -10, 91.3188467695
342, 375.458978463, 0, 91.3188467695
343, 375.458978463, -10, 127.545897846
344, 375.458978463, 0, 127.545897846
345, 375.458978463, -10, 163.772948923
346, 375.458978463, 0, 163.772948923
347, 375.458978463, -10, 200
348, 375.458978463, 0, 200
349, 375.458978463, 10, 18.8647446158
350, 375.458978463, 10, 55.0917956927
351, 375.458978463, 10, 91.3188467695
352, 375.458978463, 10, 127.545897846
353, 375.458978463, 10, 163.772948923
354, 375.458978463, 10, 200
355, 375.458978463, -120, 200
356, 375.458978463, -92.5, 200
357, 375.458978463, -120, 210
358, 375.458978463, -92.5, 210
359, 375.458978463, -120, 220
360, 375.458978463, -92.5, 220
361, 375.458978463, -65, 200
362, 375.458978463, -65, 210
363, 375.458978463, -65, 220
364, 375.458978463, -37.5, 200
365, 375.458978463, -37.5, 210
366, 375.458978463, -37.5, 220
367, 375.458978463, -10, 210
368, 375.458978463, -10, 220
369, 375.458978463, 0, 210
370, 375.458978463, 0, 220
371, 375.458978463, 10, 210
372, 375.458978463, 10, 220
373, 375.458978463, 37.5, 200
374, 375.458978463, 37.5, 210
375, 375.458978463, 37.5, 220
376, 375.458978463, 65, 200
377, 375.458978463, 65, 210
378, 375.458978463, 65, 220
379, 375.458978463, 92.5, 200
380, 375.458978463, 92.5, 210
381, 375.458978463, 92.5, 220
382, 375.458978463, 120, 200
383, 375.458978463, 120, 210
384, 375.458978463, 120, 220
385, 421.694071621, -10, 30.4235179054
386, 421.694071621, 0, 30.4235179054
387, 421.694071621, -10, 64.3388143243
388, 421.694071621, 0, 64.3388143243
389, 421.694071621, -10, 98.2541107432
390, 421.694071621, 0, 98.2541107432
391, 421.694071621, -10, 132.169407162
392, 421.694071621, 0, 132.169407162
393, 421.694071621, -10, 166.084703581
394, 421.694071621, 0, 166.084703581
395, 421.694071621, -10, 200
396, 421.694071621, 0, 200
397, 421.694071621, 10, 30.4235179054
398, 421.694071621, 10, 64.3388143243
399, 421.694071621, 10, 98.2541107432
400, 421.694071621, 10, 132.169407162
401, 421.694071621, 10, 166.084703581
402, 421.694071621, 10, 200
403, 421.694071621, -120, 200
404, 421.694071621, -92.5, 200
405, 421.694071621, -120, 210
406, 421.694071621, -92.5, 210
407, 421.694071621, -120, 220
408, 421.694071621, -92.5, 220
409, 421.694071621, -65, 200
410, 421.694071621, -65, 210
411, 421.694071621, -65, 220
412, 421.694071621, -37.5, 200
413, 421.694071621, -37.5, 210
414, 421.694071621, -37.5, 220
415, 421.694071621, -10, 210
416, 421.694071621, -10, 220
417, 421.694071621, 0, 210
418, 421.694071621, 0, 220
419, 421.694071621, 10, 210
420, 421.694071621, 10, 220
421, 421.694071621, 37.5, 200
422, 421.694071621, 37.5, 210
423, 421.694071621, 37.5, 220
424, 421.694071621, 65, 200
425, 421.694071621, 65, 210
426, 421.694071621, 65, 220
427, 421.694071621, 92.5, 200
428, 421.694071621, 92.5, 210
429, 421.694071621, 92.5, 220
430, 421.694071621, 120, 200
431, 421.694071621, 120, 210
432, 421.694071621, 120, 220
433, 466.105682338, -10, 41.5264205846
434, 466.105682338, 0, 41.5264205846
435, 466.105682338, -10, 73.2211364677
436, 466.105682338, 0, 73.2211364677
437, 466.105682338, -10, 104.915852351
438, 466.105682338, 0, 104.915852351
439, 466.105682338, -10, 136.610568234
440, 466.105682338, 0, 136.610568234
441, 466.105682338, -10, 168.305284117
442, 466.105682338, 0, 168.305284117
443, 466.105682338, -10, 200
444, 466.105682338, 0, 200
445, 466.105682338, 10, 41.5264205846
446, 466.105682338, 10, 73.2211364677
447, 466.105682338, 10, 104.915852351
448, 466.105682338, 10, 136.610568234
449, 466.105682338, 10, 168.305284117
450, 466.105682338, 10, 200
451, 466.105682338, -120, 200
452, 466.105682338, -92.5, 200
453, 466.105682338, -120, 210
454, 466.105682338, -92.5, 210
455, 466.105682338, -120, 220
456, 466.105682338, -92.5, 220
457, 466.105682338, -65, 200
458, 466.105682338, -65, 210
459, 466.105682338, -65, 220
460, 466.105682338, -37.5, 200
461, 466.105682338, -37.5, 210
462, 466.105682338, -37.5, 220
463, 466.105682338, -10, 210
464, 466.105682338, -10, 220
465, 466.105682338, 0, 210
466, 466.105682338, 0, 220
467, 466.105682338, 10, 210
468, 466.105682338, 10, 220
469, 466.105682338, 37.5, 200
470, 466.105682338, 37.5, 210
471, 466.105682338, 37.5, 220
472, 466.105682338, 65, 200
473, 466.105682338, 65, 210
474, 466.105682338, 65, 220
475, 466.105682338, 92.5, 200
476, 466.105682338, 92.5, 210
477, 466.105682338, 92.5, 220
478, 466.105682338, 120, 200
479, 466.105682338, 120, 210
480, 466.105682338, 120, 220
481, 508.833481441, -10, 52.2083703602
482, 508.833481441, 0, 52.2083703602
483, 508.833481441, -10, 81.7666962882
484, 508.833481441, 0, 81.7666962882
485, 508.833481441, -10, 111.325022216
486, 508.833481441, 0, 111.325022216
487, 508.833481441, -10, 140.883348144
488, 508.833481441, 0, 140.883348144
489, 508.833481441, -10, 170.441674072
490, 508.833481441, 0, 170.441674072
491, 508.833481441, -10, 200
492, 508.833481441, 0, 200
493, 508.833481441, 10, 52.2083703602
494, 508.833481441, 10, 81.7666962882
495, 508.833481441, 10, 111.325022216
496, 508.833481441, 10, 140.883348144
497, 508.833481441, 10, 170.441674072
498, 508.833481441, 10, 200
499, 508.833481441, -120, 200
500, 508.833481441, -92.5, 200
501, 508.833481441, -120, 210
502, 508.833481441, -92.5, 210
503, 508.833481441, -120, 220
504, 508.833481441, -92.5, 220
505, 508.833481441, -65, 200
506, 508.833481441, -65, 210
507, 508.833481441, -65, 220
508, 508.833481441, -37.5, 200
509, 508.833481441, -37.5, 210
510, 508.833481441, -37.5, 220
511, 508.833481441, -10, 210
512, 508.833481441, -10, 220
513, 508.833481441, 0, 210
514, 508.833481441, 0, 220
515, 508.833481441, 10, 210
516, 508.833481441, 10, 220
517, 508.833481441, 37.5, 200
518, 508.833481441, 37.5, 210
519, 508.833481441, 37.5, 220
520, 508.833481441, 65, 200
521, 508.833481441, 65, 210
522, 508.833481441, 65, 220
523, 508.833481441, 92.5, 200
524, 508.833481441, 92.5, 210
525, 508.833481441, 92.5, 220
526, 508.833481441, 120, 200
527, 508.833481441, 120, 210
528, 508.833481441, 120, 220
529, 550.485682869, -10, 62.6214207173
530, 550.485682869, 0, 62.6214207173
531, 550.485682869, -10, 90.0971365738
532, 550.485682869, 0, 90.0971365738
533, 550.485682869, -10, 117.57285243
534, 550.485682869, 0, 117.57285243
535, 550.485682869, -10, 145.048568287
536, 550.485682869, 0, 145.048568287
537, 550.485682869, -10, 172.524284143
538, 550.485682869, 0, 172.524284143
539, 550.485682869, -10, 200
540, 550.485682869, 0, 200
541, 550.485682869, 10, 62.6214207173
542, 550.485682869, 10, 90.0971365738
543, 550.485682869, 10, 117.57285243
544, 550.485682869, 10, 145.048568287
545, 550.485682869, 10, 172.524284143
546, 550.485682869, 10, 200
547, 550.485682869, -120, 200
548, 550.485682869, -92.5, 200
549, 550.485682869, -120, 210
550, 550.485682869, -92.5, 210
551, 550.485682869, -120, 220
552, 550.485682869, -92.5, 220
553, 550.485682869, -65, 200
554, 550.485682869, -65, 210
555, 550.485682869, -65, 220
556, 550.485682869, -37.5, 200
557, 550.485682869, -37.5, 210
558, 550.485682869, -37.5, 220
559, 550.485682869, -10, 210
560, 550.485682869, -10, 220
561, 550.485682869, 0, 210
562, 550.485682869, 0, 220
563, 550.485682869, 10, 210
564, 550.485682869, 10, 220
565, 550.485682869, 37.5, 200
566, 550.485682869, 37.5, 210
567, 550.485682869, 37.5, 220
568, 550.485682869, 65, 200
569, 550.485682869, 65, 210
570, 550.485682869, 65, 220
571, 550.485682869, 92.5, 200
572, 550.485682869, 92.5, 210
573, 550.485682869, 92.5, 220
574, 550.485682869, 120, 200
575, 550.485682869, 120, 210
576, 550.485682869, 120, 220
577, 592.931451089, -10, 73.2328627723
578, 592.931451089, 0, 73.2328627723
579, 592.931451089, -10, 98.5862902178
580, 592.931451089, 0, 98.5862902178
581, 592.931451089, -10, 123.939717663
582, 592.931451089, 0, 123.939717663
583, 592.931451089, -10, 149.293145109
584, 592.931451089, 0, 149.293145109
585, 592.931451089, -10, 174.646572554
586, 592.931451089, 0, 174.646572554
587, 592.931451089, -10, 200
588, 592.931451089, 0, 200
589, 592.931451089, 10, 73.2328627723
590, 592.931451089, 10, 98.5862902178
591, 592.931451089, 10, 123.939717663
592, 592.931451089, 10, 149.293145109
593, 592.931451089, 10, 174.646572554
594, 592.931451089, 10, 200
595, 592.931451089, -120, 200
596, 592.931451089, -92.5, 200
597, 592.931451089, -120, 210
598, 592.931451089, -92.5, 210
599, 592.931451089, -120, 220
600, 592.931451089, -92.5, 220
601, 592.931451089, -65, 200
602, 592.931451089, -65, 210
603, 592.931451089, -65, 220
604, 592.931451089, -37.5, 200
605, 592.931451089, -37.5, 210
606, 592.931451089, -37.5, 220
607, 592.931451089, -10, 210
608, 592.931451089, -10, 220
609, 592.931451089, 0, 210
610, 592.931451089, 0, 220
611, 592.931451089, 10, 210
612, 592.931451089, 10, 220
613, 592.931451089, 37.5, 200
614, 592.931451089, 37.5, 210
615, 592.931451089, 37.5, 220
616, 592.931451089, 65, 200
617, 592.931451089, 65, 210
618, 592.931451089, 65, 220
619, 592.931451089, 92.5, 200
620, 592.931451089, 92.5, 210
621, 592.931451089, 92.5, 220
622, 592.931451089, 120, 200
623, 592.931451089, 120, 210
624, 592.931451089, 120, 220
625, 636.201461213, -10, 84.0503653033
626, 636.201461213, 0, 84.0503653033
627, 636.201461213, -10, 107.240292243
628, 636.201461213, 0, 107.240292243
629, 636.201461213, -10, 130.430219182
630, 636.201461213, 0, 130.430219182
631, 636.201461213, -10, 153.620146121
632, 636.201461213, 0, 153.620146121
633, 636.201461213, -10, 176.810073061
634, 636.201461213, 0, 176.810073061
635, 636.201461213, -10, 200
636, 636.201461213, 0, 200
637, 636.201461213, 10, 84.0503653033
638, 636.201461213, 10, 107.240292243
639, 636.201461213, 10, 130.430219182
640, 636.201461213, 10, 153.620146121
641, 636.201461213, 10, 176.810073061
642, 636.201461213, 10, 200
643, 636.201461213, -120, 200
644, 636.201461213, -92.5, 200
645, 636.201461213, -120, 210
646, 636.201461213, -92.5, 210
647, 636.201461213, -120, 220
648, 636.201461213, -92.5, 220
649, 636.201461213, -65, 200
650, 636.201461213, -65, 210
651, 636.201461213, -65, 220
652, 636.201461213, -37.5, 200
653, 636.201461213, -37.5, 210
654, 636.201461213, -37.5, 220
655, 636.201461213, -10, 210
656, 636.201461213, -10, 220
657, 636.201461213, 0, 210
658, 636.201461213, 0, 220
659, 636.201461213, 10, 210
660, 636.201461213, 10, 220
661, 636.201461213, 37.5, 200
662, 636.201461213, 37.5, 210
663, 636.201461213, 37.5, 220
664, 636.201461213, 65, 200
665, 636.201461213, 65, 210
666, 636.201461213, 65, 220
667, 636.201461213, 92.5, 200
668, 636.201461213, 92.5, 210
669, 636.201461213, 92.5, 220
670, 636.201461213, 120, 200
671, 636.201461213, 120, 210
672, 636.201461213, 120, 220
673, 680.328195959, -10, 95.0820489897
674, 680.328195959, 0, 95.0820489897
675, 680.328195959, -10, 116.065639192
676, 680.328195959, 0, 116.065639192
677, 680.328195959, -10, 137.049229394
678, 680.328195959, 0, 137.049229394
679, 680.328195959, -10, 158.032819596
680, 680.328195959, 0, 158.032819596
681, 680.328195959, -10, 179.016409798
682, 680.328195959, 0, 179.016409798
683, 680.328195959, -10, 200
684, 680.328195959, 0, 200
685, 680.328195959, 10, 95.0820489897
686, 680.328195959, 10, 116.065639192
687, 680.328195959, 10, 137.049229394
688, 680.328195959, 10, 158.032819596
689, 680.328195959, 10, 179.016409798
690, 680.328195959, 10, 200
691, 680.328195959, -120, 200
692, 680.328195959, -92.5, 200
693, 680.328195959, -120, 210
694, 680.328195959, -92.5, 210
695, 680.328195959, -120, 220
696, 680.328195959, -92.5, 220
697, 680.328195959, -65, 200
698, 680.328195959, -65, 210
699, 680.328195959, -65, 220
700, 680.328195959, -37.5, 200
701, 680.328195959, -37.5, 210
702, 680.328195959, -37.5, 220
703, 680.328195959, -10, 210
704, 680.328195959, -10, 220
705, 680.328195959, 0, 210
706, 680.328195959, 0, 220
707, 680.328195959, 10, 210
708, 680.328195959, 10, 220
709, 680.328195959, 37.5, 200
710, 680.328195959, 37.5, 210
711, 680.328195959, 37.5, 220
712, 680.328195959, 65, 200
713, 680.328195959, 65, 210
714, 680.328195959, 65, 220
715, 680.328195959, 92.5, 200
716, 680.328195959, 92.5, 210
717, 680.328195959, 92.5, 220
718, 680.328195959, 120, 200
719, 680.328195959, 120, 210
720, 680.328195959, 120, 220
721, 725.346090143, -10, 100
722, 725.346090143, 0, 100
723, 725.346090143, -10, 120
724, 725.346090143, 0, 120
725, 725.346090143, -10, 140
726, 725.346090143, 0, 140
727, 725.346090143, -10, 160
728, 725.346090143, 0, 160
729, 725.346090143, -10, 180
730, 725.346090143, 0, 180
731, 725.346090143, -10, 200
732, 725.346090143, 0, 200
733, 725.346090143, 10, 100
734, 725.346090143, 10, 120
735, 725.346090143, 10, 140
736, 725.346090143, 10, 160
737, 725.346090143, 10, 180
738, 725.346090143, 10, 200
739, 725.346090143, -120, 200
740, 725.346090143, -92.5, 200
741, 725.346090143, -120, 210
742, 725.346090143, -92.5, 210
743, 725.346090143, -120, 220
744, 725.346090143, -92.5, 220
745, 725.346090143, -65, 200
746, 725.346090143, -65, 210
747, 725.346090143, -65, 220
748, 725.346090143, -37.5, 200
749, 725.346090143, -37.5, 210
750, 725.346090143, -37.5, 220
751, 725.346090143, -10, 210
752, 725.346090143, -10, 220
753, 725.346090143, 0, 210
754, 725.346090143, 0, 220
755, 725.346090143, 10, 210
756, 725.346090143, 10, 220
757, 725.346090143, 37.5, 200
758, 725.346090143, 37.5, 210
759, 725.346090143, 37.5, 220
760, 725.346090143, 65, 200
761, 725.346090143, 65, 210
762, 725.346090143, 65, 220
763, 725.346090143, 92.5, 200
764, 725.346090143, 92.5, 210
765, 725.346090143, 92.5, 220
766, 725.346090143, 120, 200
767, 725.346090143, 120, 210
768, 725.346090143, 120, 220
769, 771.291689881, -10, 100
770, 771.291689881, 0, 100
771, 771.291689881, -10, 120
772, 771.291689881, 0, 120
773, 771.291689881, -10, 140
774, 771.291689881, 0, 140
775, 771.291689881, -10, 160
776, 771.291689881, 0, 160
777, 771.291689881, -10, 180
778, 771.291689881, 0, 180
779, 771.291689881, -10, 200
780, 771.291689881, 0, 200
781, 771.291689881, 10, 100
782, 771.291689881, 10, 120
783, 771.291689881, 10, 140
784, 771.291689881, 10, 160
785, 771.291689881, 10, 180
786, 771.291689881, 10, 200
787, 771.291689881, -120, 200
788, 771.291689881, -92.5, 200
789, 771.291689881, -120, 210
790, 771.291689881, -92.5, 210
791, 771.291689881, -120, 220
792, 771.291689881, -92.5, 220
793, 771.291689881, -65, 200
794, 771.291689881, -65, 210
795, 771.291689881, -65, 220
796, 771.291689881, -37.5, 200
797, 771.291689881, -37.5, 210
798, 771.291689881, -37.5, 220
799, 771.291689881, -10, 210
800, 771.291689881, -10, 220
801, 771.291689881, 0, 210
802, 771.291689881, 0, 220
803, 771.291689881, 10, 210
804, 771.291689881, 10, 220
805, 771.291689881, 37.5, 200
806, 771.291689881, 37.5, 210
807, 771.291689881, 37.5, 220
808, 771.291689881, 65, 200
809, 771.291689881, 65, 210
810, 771.291689881, 65, 220
811, 771.291689881, 92.5, 200
812, 771.291689881, 92.5, 210
813, 771.291689881, 92.5, 220
814, 771.291689881, 120, 200
815, 771.291689881, 120, 210
816, 771.291689881, 120, 220
817, 818.203828316, -10, 100
818, 818.203828316, 0, 100
819, 818.203828316, -10, 120
820, 818.203828316, 0, 120
821, 818.203828316, -10, 140
822, 818.203828316, 0, 140
823, 818.203828316, -10, 160
824, 818.203828316, 0, 160
825, 818.203828316, -10, 180
826, 818.203828316, 0, 180
827, 818.203828316, -10, 200
828, 818.203828316, 0, 200
829, 818.203828316, 10, 100
830, 818.203828316, 10, 120
831, 818.203828316, 10, 140
832, 818.203828316, 10, 160
833, 818.203828316, 10, 180
834, 818.203828316, 10, 200
835, 818.203828316, -120, 200
836, 818.203828316, -92.5, 200
837, 818.203828316, -120, 210
838, 818.203828316, -92.5, 210
839, 818.203828316, -120, 220
840, 818.203828316, -92.5, 220
841, 818.203828316, -65, 200
842, 818.203828316, -65, 210
843, 818.203828316, -65, 220
844, 818.203828316, -37.5, 200
845, 818.203828316, -37.5, 210
846, 818.203828316, -37.5, 220
847, 818.203828316, -10, 210
848, 818.203828316, -10, 220
849, 818.203828316, 0, 210
850, 818.203828316, 0, 220
851, 818.203828316, 10, 210
852, 818.203828316, 10, 220
853, 818.203828316, 37.5, 200
854, 818.203828316, 37.5, 210
855, 818.203828316, 37.5, 220
856, 818.203828316, 65, 200
857, 818.203828316, 65, 210
858, 818.203828316, 65, 220
859, 818.203828316, 92.5, 200
860, 818.203828316, 92.5, 210
861, 818.203828316, 92.5, 220
862, 818.203828316, 120, 200
863, 818.203828316, 120, 210
864, 818.203828316, 120, 220
865, 866.123819974, -10, 100
866, 866.123819974, 0, 100
867, 866.123819974, -10, 120
868, 866.123819974, 0, 120
869, 866.123819974, -10, 140
870, 866.123819974, 0, 140
871, 866.123819974, -10, 160
872, 866.123819974, 0, 160
873, 866.123819974, -10, 180
874, 866.123819974, 0, 180
875, 866.123819974, -10, 200
876, 866.123819974, 0, 200
877, 866.123819974, 10, 100
878, 866.123819974, 10, 120
879, 866.123819974, 10, 140
880, 866.123819974, 10, 160
881, 866.123819974, 10, 180
882, 866.123819974, 10, 200
883, 866.123819974, -120, 200
884, 866.123819974, -92.5, 200
885, 866.123819974, -120, 210
886, 866.123819974, -92.5, 210
887, 866.123819974, -120, 220
888, 866.123819974, -92.5, 220
889, 866.123819974, -65, 200
890, 866.123819974, -65, 210
891, 866.123819974, -65, 220
892, 866.123819974, -37.5, 200
893, 866.123819974, -37.5, 210
894, 866.123819974, -37.5, 220
895, 866.123819974, -10, 210
896, 866.123819974, -10, 220
897, 866.123819974, 0, 210
898, 866.123819974, 0, 220
899, 866.123819974, 10, 210
900, 866.123819974, 10, 220
901, 866.123819974, 37.5, 200
902, 866.123819974, 37.5, 210
903, 866.123819974, 37.5, 220
904, 866.123819974, 65, 200
905, 866.123819974, 65, 210
906, 866.123819974, 65, 220
907, 866.123819974, 92.5, 200
908, 866.123819974, 92.5, 210
909, 866.123819974, 92.5, 220
910, 866.123819974, 120, 200
911, 866.123819974, 120, 210
912, 866.123819974, 120, 220
913, 915.095676176, -10, 100
914, 915.095676176, 0, 100
915, 915.095676176, -10, 120
916, 915.095676176, 0, 120
917, 915.095676176, -10, 140
918, 915.095676176, 0, 140
919, 915.095676176, -10, 160
920, 915.095676176, 0, 160
921, 915.095676176, -10, 180
922, 915.095676176, 0, 180
923, 915.095676176, -10, 200
924, 915.095676176, 0, 200
925, 915.095676176, 10, 100
926, 915.095676176, 10, 120
927, 915.095676176, 10, 140
928, 915.095676176, 10, 160
929, 915.095676176, 10, 180
930, 915.095676176, 10, 200
931, 915.095676176, -120, 200
932, 915.095676176, -92.5, 200
933, 915.095676176, -120, 210
934, 915.095676176, -92.5, 210
935, 915.095676176, -120, 220
936, 915.095676176, -92.5, 220
937, 915.095676176, -65, 200
938, 915.095676176, -65, 210
939, 915.095676176, -65, 220
940, 915.095676176, -37.5, 200
941, 915.095676176, -37.5, 210
942, 915.095676176, -37.5, 220
943, 915.095676176, -10, 210
944, 915.095676176, -10, 220
945, 915.095676176, 0, 210
946, 915.095676176, 0, 220
947, 915.095676176, 10, 210
948, 915.095676176, 10, 220
949, 915.095676176, 37.5, 200
950, 915.095676176, 37.5, 210
951, 915.095676176, 37.5, 220
952, 915.095676176, 65, 200
953, 915.095676176, 65, 210
954, 915.095676176, 65, 220
955, 915.095676176, 92.5, 200
956, 915.095676176, 92.5, 210
957, 915.095676176, 92.5, 220
958, 915.095676176, 120, 200
959, 915.095676176, 120, 210
960, 915.095676176, 120, 220
961, 965.166344273, -10, 100
962, 965.166344273, 0, 100
963, 965.166344273, -10, 120
964, 965.166344273, 0, 120
965, 965.166344273, -10, 140
966, 965.166344273, 0, 140
967, 965.166344273, -10, 160
968, 965.166344273, 0, 160
969, 965.166344273, -10, 180
970, 965.166344273, 0, 180
971, 965.166344273, -10, 200
972, 965.166344273, 0, 200
973, 965.166344273, 10, 100
974, 965.166344273, 10, 120
975, 965.166344273, 10, 140
976, 965.166344273, 10, 160
977, 965.166344273, 10, 180
978, 965.166344273, 10, 200
979, 965.166344273, -120, 200
980, 965.166344273, -92.5, 200
981, 965.166344273, -120, 210
982, 965.166344273, -92.5, 210
983, 965.166344273, -120, 220
984, 965.166344273, -92.5, 220
985, 965.166344273, -65, 200
986, 965.166344273, -65, 210
987, 965.166344273, -65, 220
988, 965.166344273, -37.5, 200
989, 965.166344273, -37.5, 210
990, 965.166344273, -37.5, 220
991, 965.166344273, -10, 210
992, 965.166344273, -10, 220
993, 965.166344273, 0, 210
994, 965.166344273, 0, 220
995, 965.166344273, 10, 210
996, 965.166344273, 10, 220
997, 965.166344273, 37.5, 200
998, 965.166344273, 37.5, 210
999, 965.166344273, 37.5, 220
1000, 965.166344273, 65, 200
1001, 965.166344273, 65, 210
1002, 965.166344273, 65, 220
1003, 965.166344273, 92.5, 200
1004, 965.166344273, 92.5, 210
1005, 965.166344273, 92.5, 220
1006, 965.166344273, 120, 200
1007, 965.166344273, 120, 210
1008, 965.166344273, 120, 220
1009, 1016.38597396, -10, 100
1010, 1016.38597396, 0, 100
1011, 1016.38597396, -10, 120
1012, 1016.38597396, 0, 120
1013, 1016.38597396, -10, 140
1014, 1016.38597396, 0, 140
1015, 1016.38597396, -10, 160
1016, 1016.38597396, 0, 160
1017, 1016.38597396, -10, 180
1018, 1016.38597396, 0, 180
1019, 1016.38597396, -10, 200
1020, 1016.38597396, 0, 200
1021, 1016.38597396, 10, 100
1022, 1016.38597396, 10, 120
1023, 1016.38597396, 10, 140
1024, 1016.38597396, 10, 160
1025, 1016.38597396, 10, 180
1026, 1016.38597396, 10, 200
1027, 1016.38597396, -120, 200
1028, 1016.38597396, -92.5, 200
1029, 1016.38597396, -120, 210
1030, 1016.38597396, -92.5, 210
1031, 1016.38597396, -120, 220
1032, 1016.38597396, -92.5, 220
1033, 1016.38597396, -65, 200
1034, 1016.38597396, -65, 210
1035, 1016.38597396, -65, 220
1036, 1016.38597396, -37.5, 200
1037, 1016.38597396, -37.5, 210
1038, 1016.38597396, -37.5, 220
1039, 1016.38597396, -10, 210
1040, 1016.38597396, -10, 220
1041, 1016.38597396, 0, 210
1042, 1016.38597396, 0, 220
1043, 1016.38597396, 10, 210
1044, 1016.38597396, 10, 220
1045, 1016.38597396, 37.5, 200
1046, 1016.38597396, 37.5, 210
1047, 1016.38597396, 37.5, 220
1048, 1016.38597396, 65, 200
1049, 1016.38597396, 65, 210
1050, 1016.38597396, 65, 220
1051, 1016.38597396, 92.5, 200
1052, 1016.38597396, 92.5, 210
1053, 1016.38597396, 92.5, 220
1054, 1016.38597396, 120, 200
1055, 1016.38597396, 120, 210
1056, 1016.38597396, 120, 220
1057, 1068.80821442, -10, 100
1058, 1068.80821442, 0, 100
1059, 1068.80821442, -10, 120
1060, 1068.80821442, 0, 120
1061, 1068.80821442, -10, 140
1062, 1068.80821442, 0, 140
1063, 1068.80821442, -10, 160
1064, 1068.80821442, 0, 160
1065, 1068.80821442, -10, 180
1066, 1068.80821442, 0, 180
1067, 1068.80821442, -10, 200
1068, 1068.80821442, 0, 200
1069, 1068.80821442, 10, 100
1070, 1068.80821442, 10, 120
1071, 1068.80821442, 10, 140
1072, 1068.80821442, 10, 160
1073, 1068.80821442, 10, 180
1074, 1068.80821442, 10, 200
1075, 1068.80821442, -120, 200
1076, 1068.80821442, -92.5, 200
1077, 1068.80821442, -120, 210
1078, 1068.80821442, -92.5, 210
1079, 1068.80821442, -120, 220
1080, 1068.80821442, -92.5, 220
1081, 1068.80821442, -65, 200
1082, 1068.80821442, -65, 210
1083, 1068.80821442, -65, 220
1084, 1068.80821442, -37.5, 200
1085, 1068.80821442, -37.5, 210
1086, 1068.80821442, -37.5, 220
1087, 1068.80821442, -10, 210
1088, 1068.80821442, -10, 220
1089, 1068.80821442, 0, 210
1090, 1068.80821442, 0, 220
1091, 1068.80821442, 10, 210
1092, 1068.80821442, 10, 220
1093, 1068.80821442, 37.5, 200
1094, 1068.80821442, 37.5, 210
1095, 1068.80821442, 37.5, 220
1096, 1068.80821442, 65, 200
1097, 1068.80821442, 65, 210
1098, 1068.80821442, 65, 220
1099, 1068.80821442, 92.5, 200
1100, 1068.80821442, 92.5, 210
1101, 1068.80821442, 92.5, 220
1102, 1068.80821442, 120, 200
1103, 1068.80821442, 120, 210
1104, 1068.80821442, 120, 220
1105, 1122.49054662, -10, 100
1106, 1122.49054662, 0, 100
1107, 1122.49054662, -10, 120
1108, 1122.49054662, 0, 120
1109, 1122.49054662, -10, 140
1110, 1122.49054662, 0, 140
1111, 1122.49054662, -10, 160
1112, 1122.49054662, 0, 160
1113, 1122.49054662, -10, 180
1114, 1122.49054662, 0, 180
1115, 1122.49054662, -10, 200
1116, 1122.49054662, 0, 200
1117, 1122.49054662, 10, 100
1118, 1122.49054662, 10, 120
1119, 1122.49054662, 10, 140
1120, 1122.49054662, 10, 160
1121, 1122.49054662, 10, 180
1122, 1122.49054662, 10, 200
1123, 1122.49054662, -120, 200
1124, 1122.49054662, -92.5, 200
1125, 1122.49054662, -120, 210
1126, 1122.49054662, -92.5, 210
1127, 1122.49054662, -120, 220
1128, 1122.49054662, -92.5, 220
1129, 1122.49054662, -65, 200
1130, 1122.49054662, -65, 210
1131, 1122.49054662, -65, 220
1132, 1122.49054662, -37.5, 200
1133, 1122.49054662, -37.5, 210
1134, 1122.49054662, -37.5, 220
1135, 1122.49054662, -10, 210
1136, 1122.49054662, -10, 220
1137, 1122.49054662, 0, 210
1138, 1122.49054662, 0, 220
1139, 1122.49054662, 10, 210
1140, 1122.49054662, 10, 220
1141, 1122.49054662, 37.5, 200
1142, 1122.49054662, 37.5, 210
1143, 1122.49054662, 37.5, 220
1144, 1122.49054662, 65, 200
1145, 1122.49054662, 65, 210
1146, 1122.49054662, 65, 220
1147, 1122.49054662, 92.5, 200
1148, 1122.49054662, 92.5, 210
1149, 1122.49054662, 92.5, 220
1150, 1122.49054662, 120, 200
1151, 1122.49054662, 120, 210
1152, 1122.49054662, 120, 220
1153, 1177.49465597, -10, 100
1154, 1177.49465597, 0, 100
1155, 1177.49465597, -10, 120
1156, 1177.49465597, 0, 120
1157, 1177.49465597, -10, 140
1158, 1177.49465597, 0, 140
1159, 1177.49465597, -10, 160
1160, 1177.49465597, 0, 160
1161, 1177.49465597, -10, 180
1162, 1177.49465597, 0, 180
1163, 1177.49465597, -10, 200
1164, 1177.49465597, 0, 200
1165, 1177.49465597, 10, 100
1166, 1177.49465597, 10, 120
1167, 1177.49465597, 10, 140
1168, 1177.49465597, 10, 160
1169, 1177.49465597, 10, 180
1170, 1177.49465597, 10, 200
1171, 1177.49465597, -120, 200
1172, 1177.49465597, -92.5, 200
1173, 1177.49465597, -120, 210
1174, 1177.49465597, -92.5, 210
1175, 1177.49465597, -120, 220
1176, 1177.49465597, -92.5, 220
1177, 1177.49465597, -65, 200
1178, 1177.49465597, -65, 210
1179, 1177.49465597, -65, 220
1180, 1177.49465597, -37.5, 200
1181, 1177.49465597, -37.5, 210
1182, 1177.49465597, -37.5, 220
1183, 1177.49465597, -10, 210
1184, 1177.49465597, -10, 220
1185, 1177.49465597, 0, 210
1186, 1177.49465597, 0, 220
1187, 1177.49465597, 10, 210
1188, 1177.49465597, 10, 220
1189, 1177.49465597, 37.5, 200
1190, 1177.49465597, 37.5, 210
1191, 1177.49465597, 37.5, 220
1192, 1177.49465597, 65, 200
1193, 1177.49465597, 65, 210
1194, 1177.49465597, 65, 220
1195, 1177.49465597, 92.5, 200
1196, 1177.49465597, 92.5, 210
1197, 1177.49465597, 92.5, 220
1198, 1177.49465597, 120, 200
1199, 1177.49465597, 120, 210
1200, 1177.49465597, 120, 220
1201, 1233.88685123, -10, 100
1202, 1233.88685123, 0, 100
1203, 1233.88685123, -10, 120
1204, 1233.88685123, 0, 120
1205, 1233.88685123, -10, 140
1206, 1233.88685123, 0, 140
1207, 1233.88685123, -10, 160
1208, 1233.88685123, 0, 160
1209, 1233.88685123, -10, 180
1210, 1233.88685123, 0, 180
1211, 1233.88685123, -10, 200
1212, 1233.88685123, 0, 200
1213, 1233.88685123, 10, 100
1214, 1233.88685123, 10, 120
1215, 1233.88685123, 10, 140
1216, 1233.88685123, 10, 160
1217, 1233.88685123, 10, 180
1218, 1233.88685123, 10, 200
1219, 1233.88685123, -120, 200
1220, 1233.88685123, -92.5, 200
1221, 1233.88685123, -120, 210
1222, 1233.88685123, -92.5, 210
1223, 1233.88685123, -120, 220
1224, 1233.88685123, -92.5, 220
1225, 1233.88685123, -65, 200
1226, 1233.88685123, -65, 210
1227, 1233.88685123, -65, 220
1228, 1233.88685123, -37.5, 200
1229, 1233.88685123, -37.5, 210
1230, 1233.88685123, -37.5, 220
1231, 1233.88685123, -10, 210
1232, 1233.88685123, -10, 220
1233, 1233.88685123, 0, 210
1234, 1233.88685123, 0, 220
1235, 1233.88685123, 10, 210
1236, 1233.88685123, 10, 220
1237, 1233.88685123, 37.5, 200
1238, 1233.88685123, 37.5, 210
1239, 1233.88685123, 37.5, 220
1240, 1233.88685123, 65, 200
1241, 1233.88685123, 65, 210
1242, 1233.88685123, 65, 220
1243, 1233.88685123, 92.5, 200
1244, 1233.88685123, 92.5, 210
1245, 1233.88685123, 92.5, 220
1246, 1233.88685123, 120, 200
1247, 1233.88685123, 120, 210
1248, 1233.88685123, 120, 220
1249, 1291.73853684, -10, 100
1250, 1291.73853684, 0, 100
1251, 1291.73853684, -10, 120
1252, 1291.73853684, 0, 120
1253, 1291.73853684, -10, 140
1254, 1291.73853684, 0, 140
1255, 1291.73853684, -10, 160
1256, 1291.73853684, 0, 160
1257, 1291.73853684, -10, 180
1258, 1291.73853684, 0, 180
1259, 1291.73853684, -10, 200
1260, 1291.73853684, 0, 200
1261, 1291.73853684, 10, 100
1262, 1291.73853684, 10, 120
1263, 1291.73853684, 10, 140
1264, 1291.73853684, 10, 160
1265, 1291.73853684, 10, 180
1266, 1291.73853684, 10, 200
1267, 1291.73853684, -120, 200
1268, 1291.73853684, -92.5, 200
1269, 1291.73853684, -120, 210
1270, 1291.73853684, -92.5, 210
1271, 1291.73853684, -120, 220
1272, 1291.73853684, -92.5, 220
1273, 1291.73853684, -65, 200
1274, 1291.73853684, -65, 210
1275, 1291.73853684, -65, 220
1276, 1291.73853684, -37.5, 200
1277, 1291.73853684, -37.5, 210
1278, 1291.73853684, -37.5, 220
1279, 1291.73853684, -10, 210
1280, 1291.73853684, -10, 220
1281, 1291.73853684, 0, 210
1282, 1291.73853684, 0, 220
1283, 1291.73853684, 10, 210
1284, 1291.73853684, 10, 220
1285, 1291.73853684, 37.5, 200
1286, 1291.73853684, 37.5, 210
1287, 1291.73853684, 37.5, 220
1288, 1291.73853684, 65, 200
1289, 1291.73853684, 65, 210
1290, 1291.73853684, 65, 220
1291, 1291.73853684, 92.5, 200
1292, 1291.73853684, 92.5, 210
1293, 1291.73853684, 92.5, 220
1294, 1291.73853684, 120, 200
1295, 1291.73853684, 120, 210
1296, 1291.73853684, 120, 220
1297, 1351.12674691, -10, 100
1298, 1351.12674691, 0, 100
1299, 1351.12674691, -10, 120
1300, 1351.12674691, 0, 120
1301, 1351.12674691, -10, 140
1302, 1351.12674691, 0, 140
1303, 1351.12674691, -10, 160
1304, 1351.12674691, 0, 160
1305, 1351.12674691, -10, 180
1306, 1351.12674691, 0, 180
1307, 1351.12674691, -10, 200
1308, 1351.12674691, 0, 200
1309, 1351.12674691, 10, 100
1310, 1351.12674691, 10, 120
1311, 1351.12674691, 10, 140
1312, 1351.12674691, 10, 160
1313, 1351.12674691, 10, 180
1314, 1351.12674691, 10, 200
1315, 1351.12674691, -120, 200
1316, 1351.12674691, -92.5, 200
1317, 1351.12674691, -120, 210
1318, 1351.12674691, -92.5, 210
1319, 1351.12674691, -120, 220
1320, 1351.12674691, -92.5, 220
1321, 1351.12674691, -65, 200
1322, 1351.12674691, -65, 210
1323, 1351.12674691, -65, 220
1324, 1351.12674691, -37.5, 200
1325, 1351.12674691, -37.5, 210
1326, 1351.12674691, -37.5, 220
1327, 1351.12674691, -10, 210
1328, 1351.12674691, -10, 220
1329, 1351.12674691, 0, 210
1330, 1351.12674691, 0, 220
1331, 1351.12674691, 10, 210
1332, 1351.12674691, 10, 220
1333, 1351.12674691, 37.5, 200
1334, 1351.12674691, 37.5, 210
1335, 1351.12674691, 37.5, 220
1336, 1351.12674691, 65, 200
1337, 1351.12674691, 65, 210
1338, 1351.12674691, 65, 220
1339, 1351.12674691, 92.5, 200
1340, 1351.12674691, 92.5, 210
1341, 1351.12674691, 92.5, 220
1342, 1351.12674691, 120, 200
1343, 1351.12674691, 120, 210
1344, 1351.12674691, 120, 220
1345, 1412.13475091, -10, 100
1346, 1412.13475091, 0, 100
1347, 1412.13475091, -10, 120
1348, 1412.13475091, 0, 120
1349, 1412.13475091, -10, 140
1350, 1412.13475091, 0, 140
1351, 1412.13475091, -10, 160
1352, 1412.13475091, 0, 160
1353, 1412.13475091, -10, 180
1354, 1412.13475091, 0, 180
1355, 1412.13475091, -10, 200
1356, 1412.13475091, 0, 200
1357, 1412.13475091, 10, 100
1358, 1412.13475091, 10, 120
1359, 1412.13475091, 10, 140
1360, 1412.13475091, 10, 160
1361, 1412.13475091, 10, 180
1362, 1412.13475091, 10, 200
1363, 1412.13475091, -120, 200
1364, 1412.13475091, -92.5, 200
1365, 1412.13475091, -120, 210
1366, 1412.13475091, -92.5, 210
1367, 1412.13475091, -120, 220
1368, 1412.13475091, -92.5, 220
1369, 1412.13475091, -65, 200
1370, 1412.13475091, -65, 210
1371, 1412.13475091, -65, 220
1372, 1412.13475091, -37.5, 200
1373, 1412.13475091, -37.5, 210
1374, 1412.13475091, -37.5, 220
1375, 1412.13475091, -10, 210
1376, 1412.13475091, -10, 220
1377, 1412.13475091, 0, 210
1378, 1412.13475091, 0, 220
1379, 1412.13475091, 10, 210
1380, 1412.13475091, 10, 220
1381, 1412.13475091, 37.5, 200
1382, 1412.13475091, 37.5, 210
1383, 1412.13475091, 37.5, 220
1384, 1412.13475091, 65, 200
1385, 1412.13475091, 65, 210
1386, 1412.13475091, 65, 220
1387, 1412.13475091, 92.5, 200
1388, 1412.13475091, 92.5, 210
1389, 1412.13475091, 92.5, 220
1390, 1412.13475091, 120, 200
1391, 1412.13475091, 120, 210
1392, 1412.13475091, 120, 220
1393, 1474.85274276, -10, 100
1394, 1474.85274276, 0, 100
1395, 1474.85274276, -10, 120
1396, 1474.85274276, 0, 120
1397, 1474.85274276, -10, 140
1398, 1474.85274276, 0, 140
1399, 1474.85274276, -10, 160
1400, 1474.85274276, 0, 160
1401, 1474.85274276, -10, 180
1402, 1474.85274276, 0, 180
1403, 1474.85274276, -10, 200
1404, 1474.85274276, 0, 200
1405, 1474.85274276, 10, 100
1406, 1474.85274276, 10, 120
1407, 1474.85274276, 10, 140
1408, 1474.85274276, 10, 160
1409, 1474.85274276, 10, 180
1410, 1474.85274276, 10, 200
1411, 1474.85274276, -120, 200
1412, 1474.85274276, -92.5, 200
1413, 1474.85274276, -120, 210
1414, 1474.85274276, -92.5, 210
1415, 1474.85274276, -120, 220
1416, 1474.85274276, -92.5, 220
1417, 1474.85274276, -65, 200
1418, 1474.85274276, -65, 210
1419, 1474.85274276, -65, 220
1420, 1474.85274276, -37.5, 200
1421, 1474.85274276, -37.5, 210
1422, 1474.85274276, -37.5, 220
1423, 1474.85274276, -10, 210
1424, 1474.85274276, -10, 220
1425, 1474.85274276, 0, 210
1426, 1474.85274276, 0, 220
1427, 1474.85274276, 10, 210
1428, 1474.85274276, 10, 220
1429, 1474.85274276, 37.5, 200
1430, 1474.85274276, 37.5, 210
1431, 1474.85274276, 37.5, 220
1432, 1474.85274276, 65, 200
1433, 1474.85274276, 65, 210
1434, 1474.85274276, 65, 220
1435, 1474.85274276, 92.5, 200
1436, 1474.85274276, 92.5, 210
1437, 1474.85274276, 92.5, 220
1438, 1474.85274276, 120, 200
1439, 1474.85274276, 120, 210
1440, 1474.85274276, 120, 220
1441, 1539.37862758, -10, 100
1442, 1539.37862758, 0, 100
1443, 1539.37862758, -10, 120
1444, 1539.37862758, 0, 120
1445, 1539.37862758, -10, 140
1446, 1539.37862758, 0, 140
1447, 1539.37862758, -10, 160
1448, 1539.37862758, 0, 160
1449, 1539.37862758, -10, 180
1450, 1539.37862758, 0, 180
1451, 1539.37862758, -10, 200
1452, 1539.37862758, 0, 200
1453, 1539.37862758, 10, 100
1454, 1539.37862758, 10, 120
1455, 1539.37862758, 10, 140
1456, 1539.37862758, 10, 160
1457, 1539.37862758, 10, 180
1458, 1539.37862758, 10, 200
1459, 1539.37862758, -120, 200
1460, 1539.37862758, -92.5, 200
1461, 1539.37862758, -120, 210
1462, 1539.37862758, -92.5, 210
1463, 1539.37862758, -120, 220
1464, 1539.37862758, -92.5, 220
1465, 1539.37862758, -65, 200
1466, 1539.37862758, -65, 210
1467, 1539.37862758, -65, 220
1468, 1539.37862758, -37.5, 200
1469, 1539.37862758, -37.5, 210
1470, 1539.37862758, -37.5, 220
1471, 1539.37862758, -10, 210
1472, 1539.37862758, -10, 220
1473, 1539.37862758, 0, 210
1474, 1539.37862758, 0, 220
1475, 1539.37862758, 10, 210
1476, 1539.37862758, 10, 220
1477, 1539.37862758, 37.5, 200
1478, 1539.37862758, 37.5, 210
1479, 1539.37862758, 37.5, 220
1480, 1539.37862758, 65, 200
1481, 1539.37862758, 65, 210
1482, 1539.37862758, 65, 220
1483, 1539.37862758, 92.5, 200
1484, 1539.37862758, 92.5, 210
1485, 1539.37862758, 92.5, 220
1486, 1539.37862758, 120, 200
1487, 1539.37862758, 120, 210
1488, 1539.37862758, 120, 220
1489, 1605.81892304, -10, 100
1490, 1605.81892304, 0, 100
1491, 1605.81892304, -10, 120
1492, 1605.81892304, 0, 120
1493, 1605.81892304, -10, 140
1494, 1605.81892304, 0, 140
1495, 1605.81892304, -10, 160
1496, 1605.81892304, 0, 160
1497, 1605.81892304, -10, 180
1498, 1605.81892304, 0, 180
1499, 1605.81892304, -10, 200
1500, 1605.81892304, 0, 200
1501, 1605.81892304, 10, 100
1502, 1605.81892304, 10, 120
1503, 1605.81892304, 10, 140
1504, 1605.81892304, 10, 160
1505, 1605.81892304, 10, 180
1506, 1605.81892304, 10, 200
1507, 1605.81892304, -120, 200
1508, 1605.81892304, -92.5, 200
1509, 1605.81892304, -120, 210
1510, 1605.81892304, -92.5, 210
1511, 1605.81892304, -120, 220
1512, 1605.81892304, -92.5, 220
1513, 1605.81892304, -65, 200
1514, 1605.81892304, -65, 210
1515, 1605.81892304, -65, 220
1516, 1605.81892304, -37.5, 200
1517, 1605.81892304, -37.5, 210
1518, 1605.81892304, -37.5, 220
1519, 1605.81892304, -10, 210
1520, 1605.81892304, -10, 220
1521, 1605.81892304, 0, 210
1522, 1605.81892304, 0, 220
1523, 1605.81892304, 10, 210
1524, 1605.81892304, 10, 220
1525, 1605.81892304, 37.5, 200
1526, 1605.81892304, 37.5, 210
1527, 1605.81892304, 37.5, 220
1528, 1605.81892304, 65, 200
1529, 1605.81892304, 65, 210
1530, 1605.81892304, 65, 220
1531, 1605.81892304, 92.5, 200
1532, 1605.81892304, 92.5, 210
1533, 1605.81892304, 92.5, 220
1534, 1605.81892304, 120, 200
1535, 1605.81892304, 120, 210
1536, 1605.81892304, 120, 220
1537, 1674.28979598, -10, 100
1538, 1674.28979598, 0, 100
1539, 1674.28979598, -10, 120
1540, 1674.28979598, 0, 120
1541, 1674.28979598, -10, 140
1542, 1674.28979598, 0, 140
1543, 1674.28979598, -10, 160
1544, 1674.28979598, 0, 160
1545, 1674.28979598, -10, 180
1546, 1674.28979598, 0, 180
1547, 1674.28979598, -10, 200
1548, 1674.28979598, 0, 200
1549, 1674.28979598, 10, 100
1550, 1674.28979598, 10, 120
1551, 1674.28979598, 10, 140
1552, 1674.28979598, 10, 160
1553, 1674.28979598, 10, 180
1554, 1674.28979598, 10, 200
1555, 1674.28979598, -120, 200
1556, 1674.28979598, -92.5, 200
1557, 1674.28979598, -120, 210
1558, 1674.28979598, -92.5, 210
1559, 1674.28979598, -120, 220
1560, 1674.28979598, -92.5, 220
1561, 1674.28979598, -65, 200
1562, 1674.28979598, -65, 210
1563, 1674.28979598, -65, 220
1564, 1674.28979598, -37.5, 200
1565, 1674.28979598, -37.5, 210
1566, 1674.28979598, -37.5, 220
1567, 1674.28979598, -10, 210
1568, 1674.28979598, -10, 220
1569, 1674.28979598, 0, 210
1570, 1674.28979598, 0, 220
1571, 1674.28979598, 10, 210
1572, 1674.28979598, 10, 220
1573, 1674.28979598, 37.5, 200
1574, 1674.28979598, 37.5, 210
1575, 1674.28979598, 37.5, 220
1576, 1674.28979598, 65, 200
1577, 1674.28979598, 65, 210
1578, 1674.28979598, 65, 220
1579, 1674.28979598, 92.5, 200
1580, 1674.28979598, 92.5, 210
1581, 1674.28979598, 92.5, 220
1582, 1674.28979598, 120, 200
1583, 1674.28979598, 120, 210
1584, 1674.28979598, 120, 220
1585, 1744.91825929, -10, 100
1586, 1744.91825929, 0, 100
1587, 1744.91825929, -10, 120
1588, 1744.91825929, 0, 120
1589, 1744.91825929, -10, 140
1590, 1744.91825929, 0, 140
1591, 1744.91825929, -10, 160
1592, 1744.91825929, 0, 160
1593, 1744.91825929, -10, 180
1594, 1744.91825929, 0, 180
1595, 1744.91825929, -10, 200
1596, 1744.91825929, 0, 200
1597, 1744.91825929, 10, 100
1598, 1744.91825929, 10, 120
1599, 1744.91825929, 10, 140
1600, 1744.91825929, 10, 160
1601, 1744.91825929, 10, 180
1602, 1744.91825929, 10, 200
1603, 1744.91825929, -120, 200
1604, 1744.91825929, -92.5, 200
1605, 1744.91825929, -120, 210
1606, 1744.91825929, -92.5, 210
1607, 1744.91825929, -120, 220
1608, 1744.91825929, -92.5, 220
1609, 1744.91825929, -65, 200
1610, 1744.91825929, -65, 210
1611, 1744.91825929, -65, 220
1612, 1744.91825929, -37.5, 200
1613, 1744.91825929, -37.5, 210
1614, 1744.91825929, -37.5, 220
1615, 1744.91825929, -10, 210
1616, 1744.91825929, -10, 220
1617, 1744.91825929, 0, 210
1618, 1744.91825929, 0, 220
1619, 1744.91825929, 10, 210
1620, 1744.91825929, 10, 220
1621, 1744.91825929, 37.5, 200
1622, 1744.91825929, 37.5, 210
1623, 1744.91825929, 37.5, 220
1624, 1744.91825929, 65, 200
1625, 1744.91825929, 65, 210
1626, 1744.91825929, 65, 220
1627, 1744.91825929, 92.5, 200
1628, 1744.91825929, 92.5, 210
1629, 1744.91825929, 92.5, 220
1630, 1744.91825929, 120, 200
1631, 1744.91825929, 120, 210
1632, 1744.91825929, 120, 220
1633, 1817.84355964, -10, 100
1634, 1817.84355964, 0, 100
1635, 1817.84355964, -10, 120
1636, 1817.84355964, 0, 120
1637, 1817.84355964, -10, 140
1638, 1817.84355964, 0, 140
1639, 1817.84355964, -10, 160
1640, 1817.84355964, 0, 160
1641, 1817.84355964, -10, 180
1642, 1817.84355964, 0, 180
1643, 1817.84355964, -10, 200
1644, 1817.84355964, 0, 200
1645, 1817.84355964, 10, 100
1646, 1817.84355964, 10, 120
1647, 1817.84355964, 10, 140
1648, 1817.84355964, 10, 160
1649, 1817.84355964, 10, 180
1650, 1817.84355964, 10, 200
1651, 1817.84355964, -120, 200
1652, 1817.84355964, -92.5, 200
1653, 1817.84355964, -120, 210
1654, 1817.84355964, -92.5, 210
1655, 1817.84355964, -120, 220
1656, 1817.84355964, -92.5, 220
1657, 1817.84355964, -65, 200
1658, 1817.84355964, -65, 210
1659, 1817.84355964, -65, 220
1660, 1817.84355964, -37.5, 200
1661, 1817.84355964, -37.5, 210
1662, 1817.84355964, -37.5, 220
1663, 1817.84355964, -10, 210
1664, 1817.84355964, -10, 220
1665, 1817.84355964, 0, 210
1666, 1817.84355964, 0, 220
1667, 1817.84355964, 10, 210
1668, 1817.84355964, 10, 220
1669, 1817.84355964, 37.5, 200
1670, 1817.84355964, 37.5, 210
1671, 1817.84355964, 37.5, 220
1672, 1817.84355964, 65, 200
1673, 1817.84355964, 65, 210
1674, 1817.84355964, 65, 220
1675, 1817.84355964, 92.5, 200
1676, 1817.84355964, 92.5, 210
1677, 1817.84355964, 92.5, 220
1678, 1817.84355964, 120, 200
1679, 1817.84355964, 120, 210
1680, 1817.84355964, 120, 220
1681, 1893.21879371, -10, 100
1682, 1893.21879371, 0, 100
1683, 1893.21879371, -10, 120
1684, 1893.21879371, 0, 120
1685, 1893.21879371, -10, 140
1686, 1893.21879371, 0, 140
1687, 1893.21879371, -10, 160
1688, 1893.21879371, 0, 160
1689, 1893.21879371, -10, 180
1690, 1893.21879371, 0, 180
1691, 1893.21879371, -10, 200
1692, 1893.21879371, 0, 200
1693, 1893.21879371, 10, 100
1694, 1893.21879371, 10, 120
1695, 1893.21879371, 10, 140
1696, 1893.21879371, 10, 160
1697, 1893.21879371, 10, 180
1698, 1893.21879371, 10, 200
1699, 1893.21879371, -120, 200
1700, 1893.21879371, -92.5, 200
1701, 1893.21879371, -120, 210
1702, 1893.21879371, -92.5, 210
1703, 1893.21879371, -120, 220
1704, 1893.21879371, -92.5, 220
1705, 1893.21879371, -65, 200
1706, 1893.21879371, -65, 210
1707, 1893.21879371, -65, 220
1708, 1893.21879371, -37.5, 200
1709, 1893.21879371, -37.5, 210
1710, 1893.21879371, -37.5, 220
1711, 1893.21879371, -10, 210
1712, 1893.21879371, -10, 220
1713, 1893.21879371, 0, 210
1714, 1893.21879371, 0, 220
1715, 1893.21879371, 10, 210
1716, 1893.21879371, 10, 220
1717, 1893.21879371, 37.5, 200
1718, 1893.21879371, 37.5, 210
1719, 1893.21879371, 37.5, 220
1720, 1893.21879371, 65, 200
1721, 1893.21879371, 65, 210
1722, 1893.21879371, 65, 220
1723, 1893.21879371, 92.5, 200
1724, 1893.21879371, 92.5, 210
1725, 1893.21879371, 92.5, 220
1726, 1893.21879371, 120, 200
1727, 1893.21879371, 120, 210
1728, 1893.21879371, 120, 220
1729, 1971.21279943, -10, 100
1730, 1971.21279943, 0, 100
1731, 1971.21279943, -10, 120
1732, 1971.21279943, 0, 120
1733, 1971.21279943, -10, 140
1734, 1971.21279943, 0, 140
1735, 1971.21279943, -10, 160
1736, 1971.21279943, 0, 160
1737, 1971.21279943, -10, 180
1738, 1971.21279943, 0, 180
1739, 1971.21279943, -10, 200
1740, 1971.21279943, 0, 200
1741, 1971.21279943, 10, 100
1742, 1971.21279943, 10, 120
1743, 1971.21279943, 10, 140
1744, 1971.21279943, 10, 160
1745, 1971.21279943, 10, 180
1746, 1971.21279943, 10, 200
1747, 1971.21279943, -120, 200
1748, 1971.21279943, -92.5, 200
1749, 1971.21279943, -120, 210
1750, 1971.21279943, -92.5, 210
1751, 1971.21279943, -120, 220
1752, 1971.21279943, -92.5, 220
1753, 1971.21279943, -65, 200
1754, 1971.21279943, -65, 210
1755, 1971.21279943, -65, 220
1756, 1971.21279943, -37.5, 200
1757, 1971.21279943, -37.5, 210
1758, 1971.21279943, -37.5, 220
1759, 1971.21279943, -10, 210
1760, 1971.21279943, -10, 220
1761, 1971.21279943, 0, 210
1762, 1971.21279943, 0, 220
1763, 1971.21279943, 10, 210
1764, 1971.21279943, 10, 220
1765, 1971.21279943, 37.5, 200
1766, 1971.21279943, 37.5, 210
1767, 1971.21279943, 37.5, 220
1768, 1971.21279943, 65, 200
1769, 1971.21279943, 65, 210
1770, 1971.21279943, 65, 220
1771, 1971.21279943, 92.5, 200
1772, 1971.21279943, 92.5, 210
1773, 1971.21279943, 92.5, 220
1774, 1971.21279943, 120, 200
1775, 1971.21279943, 120, 210
1776, 1971.21279943, 120, 220
1777, 2000, -10, 100
1778, 2000, 0, 100
1779, 2000, -10, 120
1780, 2000, 0, 120
1781, 2000, -10, 140
1782, 2000, 0, 140
1783, 2000, -10, 160
1784, 2000, 0, 160
1785, 2000, -10, 180
1786, 2000, 0, 180
1787, 2000, -10, 200
1788, 2000, 0, 200
1789, 2000, 10, 100
1790, 2000, 10, 120
1791, 2000, 10, 140
1792, 2000, 10, 160
1793, 2000, 10, 180
1794, 2000, 10, 200
1795, 2000, -120, 200
1796, 2000, -92.5, 200
1797, 2000, -120, 210
1798, 2000, -92.5, 210
1799, 2000, -120, 220
1800, 2000, -92.5, 220
1801, 2000, -65, 200
1802, 2000, -65, 210
1803, 2000, -65, 220
1804, 2000, -37.5, 200
1805, 2000, -37.5, 210
1806, 2000, -37.5, 220
1807, 2000, -10, 210
1808, 2000, -10, 220
1809, 2000, 0, 210
1810, 2000, 0, 220
1811, 2000, 10, 210
1812, 2000, 10, 220
1813, 2000, 37.5, 200
1814, 2000, 37.5, 210
1815, 2000, 37.5, 220
1816, 2000, 65, 200
1817, 2000, 65, 210
1818, 2000, 65, 220
1819, 2000, 92.5, 200
1820, 2000, 92.5, 210
1821, 2000, 92.5, 220
1822, 2000, 120, 200
1823, 2000, 120, 210
1824, 2000, 120, 220
*ELEMENT, TYPE=C3D8, ELSET=EALL
1, 1, 2, 3, 4, 5, 6, 7, 8
2, 5, 6, 7, 8, 9, 10, 11, 12
3, 9, 10, 11, 12, 13, 14, 15, 16
4, 13, 14, 15, 16, 17, 18, 19, 20
5, 17, 18, 19, 20, 21, 22, 23, 24
6, 4, 3, 25, 26, 8, 7, 27, 28
7, 8, 7, 27, 28, 12, 11, 29, 30
8, 12, 11, 29, 30, 16, 15, 31, 32
9, 16, 15, 31, 32, 20, 19, 33, 34
10, 20, 19, 33, 34, 24, 23, 35, 36
11, 37, 38, 39, 40, 41, 42, 43, 44
12, 41, 42, 43, 44, 45, 46, 47, 48
13, 40, 39, 49, 50, 44, 43, 51, 52
14, 44, 43, 51, 52, 48, 47, 53, 54
15, 50, 49, 55, 56, 52, 51, 57, 58
16, 52, 51, 57, 58, 54, 53, 59, 60
17, 56, 55, 22, 21, 58, 57, 61, 62
18, 58, 57, 61, 62, 60, 59, 63, 64
19, 21, 22, 23, 24, 62, 61, 65, 66
20, 62, 61, 65, 66, 64, 63, 67, 68
21, 24, 23, 35, 36, 66, 65, 69, 70
22, 66, 65, 69, 70, 68, 67, 71, 72
23, 36, 35, 73, 74, 70, 69, 75, 76
24, 70, 69, 75, 76, 72, 71, 77, 78
25, 74, 73, 79, 80, 76, 75, 81, 82
26, 76, 75, 81, 82, 78, 77, 83, 84
27, 80, 79, 85, 86, 82, 81, 87, 88
28, 82, 81, 87, 88, 84, 83, 89, 90
29, 86, 85, 91, 92, 88, 87, 93, 94
30, 88, 87, 93, 94, 90, 89, 95, 96
31, 2, 97, 98, 3, 6, 99, 100, 7
32, 6, 99, 100, 7, 10, 101, 102, 11
33, 10, 101, 102, 11, 14, 103, 104, 15
34, 14, 103, 104, 15, 18, 105, 106, 19
35, 18, 105, 106, 19, 22, 107, 108, 23
36, 3, 98, 109, 25, 7, 100, 110, 27
37, 7, 100, 110, 27, 11, 102, 111, 29
38, 11, 102, 111, 29, 15, 104, 112, 31
39, 15, 104, 112, 31, 19, 106, 113, 33
40, 19, 106, 113, 33, 23, 108, 114, 35
41, 38, 115, 116, 39, 42, 117, 118, 43
42, 42, 117, 118, 43, 46, 119, 120, 47
43, 39, 116, 121, 49, 43, 118, 122, 51
44, 43, 118, 122, 51, 47, 120, 123, 53
45, 49, 121, 124, 55, 51, 122, 125, 57
46, 51, 122, 125, 57, 53, 123, 126, 59
47, 55, 124, 107, 22, 57, 125, 127, 61
48, 57, 125, 127, 61, 59, 126, 128, 63
49, 22, 107, 108, 23, 61, 127, 129, 65
50, 61, 127, 129, 65, 63, 128, 130, 67
51, 23, 108, 114, 35, 65, 129, 131, 69
52, 65, 129, 131, 69, 67, 130, 132, 71
53, 35, 114, 133, 73, 69, 131, 134, 75
54, 69, 131, 134, 75, 71, 132, 135, 77
55, 73, 133, 136, 79, 75, 134, 137, 81
56, 75, 134, 137, 81, 77, 135, 138, 83
57, 79, 136, 139, 85, 81, 137, 140, 87
58, 81, 137, 140, 87, 83, 138, 141, 89
59, 85, 139, 142, 91, 87, 140, 143, 93
60, 87, 140, 143, 93, 89, 141, 144, 95
61, 97, 145, 146, 98, 99, 147, 148, 100
62, 99, 147, 148, 100, 101, 149, 150, 102
63, 101, 149, 150, 102, 103, 151, 152, 104
64, 103, 151, 152, 104, 105, 153, 154, 106
65, 105, 153, 154, 106, 107, 155, 156, 108
66, 98, 146, 157, 109, 100, 148, 158, 110
67, 100, 148, 158, 110, 102, 150, 159, 111
68, 102, 150, 159, 111, 104, 152, 160, 112
69, 104, 152, 160, 112, 106, 154, 161, 113
70, 106, 154, 161, 113, 108, 156, 162, 114
71, 115, 163, 164, 116, 117, 165, 166, 118
72, 117, 165, 166, 118, 119, 167, 168, 120
73, 116, 164, 169, 121, 118, 166, 170, 122
74, 118, 166, 170, 122, 120, 168, 171, 123
75, 121, 169, 172, 124, 122, 170, 173, 125
76, 122, 170, 173, 125, 123, 171, 174, 126
77, 124, 172, 155, 107, 125, 173, 175, 127
78, 125, 173, 175, 127, 126, 174, 176, 128
79, 107, 155, 156, 108, 127, 175, 177, 129
80, 127, 175, 177, 129, 128, 176, 178, 130
81, 108, 156, 162, 114, 129, 177, 179, 131
82, 129, 177, 179, 131, 130, 178, 180, 132
83, 114, 162, 181, 133, 131, 179, 182, 134
84, 131, 179, 182, 134, 132, 180, 183, 135
85, 133, 181, 184, 136, 134, 182, 185, 137
86, 134, 182, 185, 137, 135, 183, 186, 138
87, 136, 184, 187, 139, 137, 185, 188, 140
88, 137, 185, 188, 140, 138, 186, 189, 141
89, 139, 187, 190, 142, 140, 188, 191, 143
90, 140, 188, 191, 143, 141, 189, 192, 144
91, 145, 193, 194, 146, 147, 195, 196, 148
92, 147, 195, 196, 148, 149, 197, 198, 150
93, 149, 197, 198, 150, 151, 199, 200, 152
94, 151, 199, 200, 152, 153, 201, 202, 154
95, 153, 201, 202, 154, 155, 203, 204, 156
96, 146, 194, 205, 157, 148, 196, 206, 158
97, 148, 196, 206, 158, 150, 198, 207, 159
98, 150, 198, 207, 159, 152, 200, 208, 160
99, 152, 200, 208, 160, 154, 202, 209, 161
100, 154, 202, 209, 161, 156, 204, 210, 162
101, 163, 211, 212, 164, 165, 213, 214, 166
102, 165, 213, 214, 166, 167, 215, 216, 168
103, 164, 212, 217, 169, 166, 214, 218, 170
104, 166, 214, 218, 170, 168, 216, 219, 171
105, 169, 217, 220, 172, 170, 218, 221, 173
106, 170, 218, 221, 173, 171, 219, 222, 174
107, 172, 220, 203, 155, 173, 221, 223, 175
108, 173, 221, 223, 175, 174, 222, 224, 176
109, 155, 203, 204, 156, 175, 223, 225, 177
110, 175, 223, 225, 177, 176, 224, 226, 178
111, 156, 204, 210, 162, 177, 225, 227, 179
112, 177, 225, 227, 179, 178, 226, 228, 180
113, 162, 210, 229, 181, 179, 227, 230, 182
114, 179, 227, 230, 182, 180, 228, 231, 183
115, 181, 229, 232, 184, 182, 230, 233, 185
116, 182, 230, 233, 185, 183, 231, 234, 186
117, 184, 232, 235, 187, 185, 233, 236, 188
118, 185, 233, 236, 188, 186, 234, 237, 189
119, 187, 235, 238, 190, 188, 236, 239, 191
120, 188, 236, 239, 191, 189, 237, 240, 192
121, 193, 241, 242, 194, 195, 243, 244, 196
122, 195, 243, 244, 196, 197, 245, 246, 198
123, 197, 245, 246, 198, 199, 247, 248, 200
124, 199, 247, 248, 200, 201, 249, 250, 202
125, 201, 249, 250, 202, 203, 251, 252, 204
126, 194, 242, 253, 205, 196, 244, 254, 206
127, 196, 244, 254, 206, 198, 246, 255, 207
128, 198, 246, 255, 207, 200, 248, 256, 208
129, 200, 248, 256, 208, 202, 250, 257, 209
130, 202, 250, 257, 209, 204, 252, 258, 210
131, 211, 259, 260, 212, 213, 261, 262, 214
132, 213, 261, 262, 214, 215, 263, 264, 216
133, 212, 260, 265, 217, 214, 262, 266, 218
134, 214, 262, 266, 218, 216, 264, 267, 219
135, 217, 265, 268, 220, 218, 266, 269, 221
136, 218, 266, 269, 221, 219, 267, 270, 222
137, 220, 268, 251, 203, 221, 269, 271, 223
138, 221, 269, 271, 223, 222, 270, 272, 224
139, 203, 251, 252, 204, 223, 271, 273, 225
140, 223, 271, 273, 225, 224, 272, 274, 226
141, 204, 252, 258, 210, 225, 273, 275, 227
142, 225, 273, 275, 227, 226, 274, 276, 228
143, 210, 258, 277, 229, 227, 275, 278, 230
144, 227, 275, 278, 230, 228, 276, 279, 231
145, 229, 277, 280, 232, 230, 278, 281, 233
146, 230, 278, 281, 233, 231, 279, 282, 234
147, 232, 280, 283, 235, 233, 281, 284, 236
148, 233, 281, 284, 236, 234, 282, 285, 237
149, 235, 283, 286, 238, 236, 284, 287, 239
150, 236, 284, 287, 239, 237, 285, 288, 240
151, 241, 289, 290, 242, 243, 291, 292, 244
152, 243, 291, 292, 244, 245, 293, 294, 246
153, 245, 293, 294, 246, 247, 295, 296, 248
154, 247, 295, 296, 248, 249, 297, 298, 250
155, 249, 297, 298, 250, 251, 299, 300, 252
156, 242, 290, 301, 253, 244, 292, 302, 254
157, 244, 292, 302, 254, 246, 294, 303, 255
158, 246, 294, 303, 255, 248, 296, 304, 256
159, 248, 296, 304, 256, 250, 298, 305, 257
160, 250, 298, 305, 257, 252, 300, 306, 258
161, 259, 307, 308, 260, 261, 309, 310, 262
162, 261, 309, 310, 262, 263, 311, 312, 264
163, 260, 308, 313, 265, 262, 310, 314, 266
164, 262, 310, 314, 266, 264, 312, 315, 267
165, 265, 313, 316, 268, 266, 314, 317, 269
166, 266, 314, 317, 269, 267, 315, 318, 270
167, 268, 316, 299, 251, 269, 317, 319, 271
168, 269, 317, 319, 271, 270, 318, 320, 272
169, 251, 299, 300, 252, 271, 319, 321, 273
170, 271, 319, 321, 273, 272, 320, 322, 274
171, 252, 300, 306, 258, 273, 321, 323, 275
172, 273, 321, 323, 275, 274, 322, 324, 276
173, 258, 306, 325, 277, 275, 323, 326, 278
174, 275, 323, 326, 278, 276, 324, 327, 279
175, 277, 325, 328, 280, 278, 326, 329, 281
176, 278, 326, 329, 281, 279, 327, 330, 282
177, 280, 328, 331, 283, 281, 329, 332, 284
178, 281, 329, 332, 284, 282, 330, 333, 285
179, 283, 331, 334, 286, 284, 332, 335, 287
180, 284, 332, 335, 287, 285, 333, 336, 288
181, 289, 337, 338, 290, 291, 339, 340, 292
182, 291, 339, 340, 292, 293, 341, 342, 294
183, 293, 341, 342, 294, 295, 343, 344, 296
184, 295, 343, 344, 296, 297, 345, 346, 298
185, 297, 345, 346, 298, 299, 347, 348, 300
186, 290, 338, 349, 301, 292, 340, 350, 302
187, 292, 340, 350, 302, 294, 342, 351, 303
188, 294, 342, 351, 303, 296, 344, 352, 304
189, 296, 344, 352, 304, 298, 346, 353, 305
190, 298, 346, 353, 305, 300, 348, 354, 306
191, 307, 355, 356, 308, 309, 357, 358, 310
192, 309, 357, 358, 310, 311, 359, 360, 312
193, 308, 356, 361, 313, 310, 358, 362, 314
194, 310, 358, 362, 314, 312, 360, 363, 315
195, 313, 361, 364, 316, 314, 362, 365, 317
196, 314, 362, 365, 317, 315, 363, 366, 318
197, 316, 364, 347, 299, 317, 365, 367, 319
198, 317, 365, 367, 319, 318, 366, 368, 320
199, 299, 347, 348, 300, 319, 367, 369, 321
200, 319, 367, 369, 321, 320, 368, 370, 322
201, 300, 348, 354, 306, 321, 369, 371, 323
202, 321, 369, 371, 323, 322, 370, 372, 324
203, 306, 354, 373, 325, 323, 371, 374, 326
204, 323, 371, 374, 326, 324, 372, 375, 327
205, 325, 373, 376, 328, 326, 374, 377, 329
206, 326, 374, 377, 329, 327, 375, 378, 330
207, 328, 376, 379, 331, 329, 377, 380, 332
208, 329, 377, 380, 332, 330, 378, 381, 333
209, 331, 379, 382, 334, 332, 380, 383, 335
210, 332, 380, 383, 335, 333, 381, 384, 336
211, 337, 385, 386, 338, 339, 387, 388, 340
212, 339, 387, 388, 340, 341, 389, 390, 342
213, 341, 389, 390, 342, 343, 391, 392, 344
214, 343, 391, 392, 344, 345, 393, 394, 346
215, 345, 393, 394, 346, 347, 395, 396, 348
216, 338, 386, 397, 349, 340, 388, 398, 350
217, 340, 388, 398, 350, 342, 390, 399, 351
218, 342, 390, 399, 351, 344, 392, 400, 352
219, 344, 392, 400, 352, 346, 394, 401, 353
220, 346, 394, 401, 353, 348, 396, 402, 354
221, 355, 403, 404, 356, 357, 405, 406, 358
222, 357, 405, 406, 358, 359, 407, 408, 360
223, 356, 404, 409, 361, 358, 406, 410, 362
224, 358, 406, 410, 362, 360, 408, 411, 363
225, 361, 409, 412, 364, 362, 410, 413, 365
226, 362, 410, 413, 365, 363, 411, 414, 366
227, 364, 412, 395, 347, 365, 413, 415, 367
228, 365, 413, 415, 367, 366, 414, 416, 368
229, 347, 395, 396, 348, 367, 415, 417, 369
230, 367, 415, 417, 369, 368, 416, 418, 370
231, 348, 396, 402, 354, 369, 417, 419, 371
232, 369, 417, 419, 371, 370, 418, 420, 372
233, 354, 402, 421, 373, 371, 419, 422, 374
234, 371, 419, 422, 374, 372, 420, 423, 375
235, 373, 421, 424, 376, 374, 422, 425, 377
236, 374, 422, 425, 377, 375, 423, 426, 378
237, 376, 424, 427, 379, 377, 425, 428, 380
238, 377, 425, 428, 380, 378, 426, 429, 381
239, 379, 427, 430, 382, 380, 428, 431, 383
240, 380, 428, 431, 383, 381, 429, 432, 384
241, 385, 433, 434, 386, 387, 435, 436, 388
242, 387, 435, 436, 388, 389, 437, 438, 390
243, 389, 437, 438, 390, 391, 439, 440, 392
244, 391, 439, 440, 392, 393, 441, 442, 394
245, 393, 441, 442, 394, 395, 443, 444, 396
246, 386, 434, 445, 397, 388, 436, 446, 398
247, 388, 436, 446, 398, 390, 438, 447, 399
248, 390, 438, 447, 399, 392, 440, 448, 400
249, 392, 440, 448, 400, 394, 442, 449, 401
250, 394, 442, 449, 401, 396, 444, 450, 402
251, 403, 451, 452, 404, 405, 453, 454, 406
252, 405, 453, 454, 406, 407, 455, 456, 408
253, 404, 452, 457, 409, 406, 454, 458, 410
254, 406, 454, 458, 410, 408, 456, 459, 411
255, 409, 457, 460, 412, 410, 458, 461, 413
256, 410, 458, 461, 413, 411, 459, 462, 414
257, 412, 460, 443, 395, 413, 461, 463, 415
258, 413, 461, 463, 415, 414, 462, 464, 416
259, 395, 443, 444, 396, 415, 463, 465, 417
260, 415, 463, 465, 417, 416, 464, 466, 418
261, 396, 444, 450, 402, 417, 465, 467, 419
262, 417, 465, 467, 419, 418, 466, 468, 420
263, 402, 450, 469, 421, 419, 467, 470, 422
264, 419, 467, 470, 422, 420, 468, 471, 423
265, 421, 469, 472, 424, 422, 470, 473, 425
266, 422, 470, 473, 425, 423, 471, 474, 426
267, 424, 472, 475, 427, 425, 473, 476, 428
268, 425, 473, 476, 428, 426, 474, 477, 429
269, 427, 475, 478, 430, 428, 476, 479, 431
270, 428, 476, 479, 431, 429, 477, 480, 432
271, 433, 481, 482, 434, 435, 483, 484, 436
272, 435, 483, 484, 436, 437, 485, 486, 438
273, 437, 485, 486, 438, 439, 487, 488, 440
274, 439, 487, 488, 440, 441, 489, 490, 442
275, 441, 489, 490, 442, 443, 491, 492, 444
276, 434, 482, 493, 445, 436, 484, 494, 446
277, 436, 484, 494, 446, 438, 486, 495, 447
278, 438, 486, 495, 447, 440, 488, 496, 448
279, 440, 488, 496, 448, 442, 490, 497, 449
280, 442, 490, 497, 449, 444, 492, 498, 450
281, 451, 499, 500, 452, 453, 501, 502, 454
282, 453, 501, 502, 454, 455, 503, 504, 456
283, 452, 500, 505, 457, 454, 502, 506, 458
284, 454, 502, 506, 458, 456, 504, 507, 459
285, 457, 505, 508, 460, 458, 506, 509, 461
286, 458, 506, 509, 461, 459, 507, 510, 462
287, 460, 508, 491, 443, 461, 509, 511, 463
288, 461, 509, 511, 463, 462, 510, 512, 464
289, 443, 491, 492, 444, 463, 511, 513, 465
290, 463, 511, 513, 465, 464, 512, 514, 466
291, 444, 492, 498, 450, 465, 513, 515, 467
292, 465, 513, 515, 467, 466, 514, 516, 468
293, 450, 498, 517, 469, 467, 515, 518, 470
294, 467, 515, 518, 470, 468, 516, 519, 471
295, 469, 517, 520, 472, 470, 518, 521, 473
296, 470, 518, 521, 473, 471, 519, 522, 474
297, 472, 520, 523, 475, 473, 521, 524, 476
298, 473, 521, 524, 476, 474, 522, 525, 477
299, 475, 523, 526, 478, 476, 524, 527, 479
300, 476, 524, 527, 479, 477, 525, 528, 480
301, 481, 529, 530, 482, 483, 531, 532, 484
302, 483, 531, 532, 484, 485, 533, 534, 486
303, 485, 533, 534, 486, 487, 535, 536, 488
304, 487, 535, 536, 488, 489, 537, 538, 490
305, 489, 537, 538, 490, 491, 539, 540, 492
306, 482, 530, 541, 493, 484, 532, 542, 494
307, 484, 532, 542, 494, 486, 534, 543, 495
308, 486, 534, 543, 495, 488, 536, 544, 496
309, 488, 536, 544, 496, 490, 538, 545, 497
310, 490, 538, 545, 497, 492, 540, 546, 498
311, 499, 547, 548, 500, 501, 549, 550, 502
312, 501, 549, 550, 502, 503, 551, 552, 504
313, 500, 548, 553, 505, 502, 550, 554, 506
314, 502, 550, 554, 506, 504, 552, 555, 507
315, 505, 553, 556, 508, 506, 554, 557, 509
316, 506, 554, 557, 509, 507, 555, 558, 510
317, 508, 556, 539, 491, 509, 557, 559, 511
318, 509, 557, 559, 511, 510, 558, 560, 512
319, 491, 539, 540, 492, 511, 559, 561, 513
320, 511, 559, 561, 513, 512, 560, 562, 514
321, 492, 540, 546, 498, 513, 561, 563, 515
322, 513, 561, 563, 515, 514, 562, 564, 516
323, 498, 546, 565, 517, 515, 563, 566, 518
324, 515, 563, 566, 518, 516, 564, 567, 519
325, 517, 565, 568, 520, 518, 566, 569, 521
326, 518, 566, 569, 521, 519, 567, 570, 522
327, 520, 568, 571, 523, 521, 569, 572, 524
328, 521, 569, 572, 524, 522, 570, 573, 525
329, 523, 571, 574, 526, 524, 572, 575, 527
330, 524, 572, 575, 527, 525, 573, 576, 528
331, 529, 577, 578, 530, 531, 579, 580, 532
332, 531, 579, 580, 532, 533, 581, 582, 534
333, 533, 581, 582, 534, 535, 583, 584, 536
334, 535, 583, 584, 536, 537, 585, 586, 538
335, 537, 585, 586, 538, 539, 587, 588, 540
336, 530, 578, 589, 541, 532, 580, 590, 542
337, 532, 580, 590, 542, 534, 582, 591, 543
338, 534, 582, 591, 543, 536, 584, 592, 544
339, 536, 584, 592, 544, 538, 586, 593, 545
340, 538, 586, 593, 545, 540, 588, 594, 546
341, 547, 595, 596, 548, 549, 597, 598, 550
342, 549, 597, 598, 550, 551, 599, 600, 552
343, 548, 596, 601, 553, 550, 598, 602, 554
344, 550, 598, 602, 554, 552, 600, 603, 555
345, 553, 601, 604, 556, 554, 602, 605, 557
346, 554, 602, 605, 557, 555, 603, 606, 558
347, 556, 604, 587, 539, 557, 605, 607, 559
348, 557, 605, 607, 559, 558, 606, 608, 560
349, 539, 587, 588, 540, 559, 607, 609, 561
350, 559, 607, 609, 561, 560, 608, 610, 562
351, 540, 588, 594, 546, 561, 609, 611, 563
352, 561, 609, 611, 563, 562, 610, 612, 564
353, 546, 594, 613, 565, 563, 611, 614, 566
354, 563, 611, 614, 566, 564, 612, 615, 567
355, 565, 613, 616, 568, 566, 614, 617, 569
356, 566, 614, 617, 569, 567, 615, 618, 570
357, 568, 616, 619, 571, 569, 617, 620, 572
358, 569, 617, 620, 572, 570, 618, 621, 573
359, 571, 619, 622, 574, 572, 620, 623, 575
360, 572, 620, 623, 575, 573, 621, 624, 576
361, 577, 625, 626, 578, 579, 627, 628, 580
362, 579, 627, 628, 580, 581, 629, 630, 582
363, 581, 629, 630, 582, 583, 631, 632, 584
364, 583, 631, 632, 584, 585, 633, 634, 586
365, 585, 633, 634, 586, 587, 635, 636, 588
366, 578, 626, 637, 589, 580, 628, 638, 590
367, 580, 628, 638, 590, 582, 630, 639, 591
368, 582, 630, 639, 591, 584, 632, 640, 592
369, 584, 632, 640, 592, 586, 634, 641, 593
370, 586, 634, 641, 593, 588, 636, 642, 594
371, 595, 643, 644, 596, 597, 645, 646, 598
372, 597, 645, 646, 598, 599, 647, 648, 600
373, 596, 644, 649, 601, 598, 646, 650, 602
374, 598, 646, 650, 602, 600, 648, 651, 603
375, 601, 649, 652, 604, 602, 650, 653, 605
376, 602, 650, 653, 605, 603, 651, 654, 606
377, 604, 652, 635, 587, 605, 653, 655, 607
378, 605, 653, 655, 607, 606, 654, 656, 608
379, 587, 635, 636, 588, 607, 655, 657, 609
380, 607, 655, 657, 609, 608, 656, 658, 610
381, 588, 636, 642, 594, 609, 657, 659, 611
382, 609, 657, 659, 611, 610, 658, 660, 612
383, 594, 642, 661, 613, 611, 659, 662, 614
384, 611, 659, 662, 614, 612, 660, 663, 615
385, 613, 661, 664, 616, 614, 662, 665, 617
386, 614, 662, 665, 617, 615, 663, 666, 618
387, 616, 664, 667, 619, 617, 665, 668, 620
388, 617, 665, 668, 620, 618, 666, 669, 621
389, 619, 667, 670, 622, 620, 668, 671, 623
390, 620, 668, 671, 623, 621, 669, 672, 624
391, 625, 673, 674, 626, 627, 675, 676, 628
392, 627, 675, 676, 628, 629, 677, 678, 630
393, 629, 677, 678, 630, 631, 679, 680, 632
394, 631, 679, 680, 632, 633, 681, 682, 634
395, 633, 681, 682, 634, 635, 683, 684, 636
396, 626, 674, 685, 637, 628, 676, 686, 638
397, 628, 676, 686, 638, 630, 678, 687, 639
398, 630, 678, 687, 639, 632, 680, 688, 640
399, 632, 680, 688, 640, 634, 682, 689, 641
400, 634, 682, 689, 641, 636, 684, 690, 642
401, 643, 691, 692, 644, 645, 693, 694, 646
402, 645, 693, 694, 646, 647, 695, 696, 648
403, 644, 692, 697, 649, 646, 694, 698, 650
404, 646, 694, 698, 650, 648, 696, 699, 651
405, 649, 697, 700, 652, 650, 698, 701, 653
406, 650, 698, 701, 653, 651, 699, 702, 654
407, 652, 700, 683, 635, 653, 701, 703, 655
408, 653, 701, 703, 655, 654, 702, 704, 656
409, 635, 683, 684, 636, 655, 703, 705, 657
410, 655, 703, 705, 657, 656, 704, 706, 658
411, 636, 684, 690, 642, 657, 705, 707, 659
412, 657, 705, 707, 659, 658, 706, 708, 660
413, 642, 690, 709, 661, 659, 707, 710, 662
414, 659, 707, 710, 662, 660, 708, 711, 663
415, 661, 709, 712, 664, 662, 710, 713, 665
416, 662, 710, 713, 665, 663, 711, 714, 666
417, 664, 712, 715, 667, 665, 713, 716, 668
418, 665, 713, 716, 668, 666, 714, 717, 669
419, 667, 715, 718, 670, 668, 716, 719, 671
420, 668, 716, 719, 671, 669, 717, 720, 672
421, 673, 721, 722, 674, 675, 723, 724, 676
422, 675, 723, 724, 676, 677, 725, 726, 678
423, 677, 725, 726, 678, 679, 727, 728, 680
424, 679, 727, 728, 680, 681, 729, 730, 682
425, 681, 729, 730, 682, 683, 731, 732, 684
426, 674, 722, 733, 685, 676, 724, 734, 686
427, 676, 724, 734, 686, 678, 726, 735, 687
428, 678, 726, 735, 687, 680, 728, 736, 688
429, 680, 728, 736, 688, 682, 730, 737, 689
430, 682, 730, 737, 689, 684, 732, 738, 690
431, 691, 739, 740, 692, 693, 741, 742, 694
432, 693, 741, 742, 694, 695, 743, 744, 696
433, 692, 740, 745, 697, 694, 742, 746, 698
434, 694, 742, 746, 698, 696, 744, 747, 699
435, 697, 745, 748, 700, 698, 746, 749, 701
436, 698, 746, 749, 701, 699, 747, 750, 702
437, 700, 748, 731, 683, 701, 749, 751, 703
438, 701, 749, 751, 703, 702, 750, 752, 704
439, 683, 731, 732, 684, 703, 751, 753, 705
440, 703, 751, 753, 705, 704, 752, 754, 706
441, 684, 732, 738, 690, 705, 753, 755, 707
442, 705, 753, 755, 707, 706, 754, 756, 708
443, 690, 738, 757, 709, 707, 755, 758, 710
444, 707, 755, 758, 710, 708, 756, 759, 711
445, 709, 757, 760, 712, 710, 758, 761, 713
446, 710, 758, 761, 713, 711, 759, 762, 714
447, 712, 760, 763, 715, 713, 761, 764, 716
448, 713, 761, 764, 716, 714, 762, 765, 717
449, 715, 763, 766, 718, 716, 764, 767, 719
450, 716, 764, 767, 719, 717, 765, 768, 720
451, 721, 769, 770, 722, 723, 771, 772, 724
452, 723, 771, 772, 724, 725, 773, 774, 726
453, 725, 773, 774, 726, 727, 775, 776, 728
454, 727, 775, 776, 728, 729, 777, 778, 730
455, 729, 777, 778, 730, 731, 779, 780, 732
456, 722, 770, 781, 733, 724, 772, 782, 734
457, 724, 772, 782, 734, 726, 774, 783, 735
458, 726, 774, 783, 735, 728, 776, 784, 736
459, 728, 776, 784, 736, 730, 778, 785, 737
460, 730, 778, 785, 737, 732, 780, 786, 738
461, 739, 787, 788, 740, 741, 789, 790, 742
462, 741, 789, 790, 742, 743, 791, 792, 744
463, 740, 788, 793, 745, 742, 790, 794, 746
464, 742, 790, 794, 746, 744, 792, 795, 747
465, 745, 793, 796, 748, 746, 794, 797, 749
466, 746, 794, 797, 749, 747, 795, 798, 750
467, 748, 796, 779, 731, 749, 797, 799, 751
468, 749, 797, 799, 751, 750, 798, 800, 752
469, 731, 779, 780, 732, 751, 799, 801, 753
470, 751, 799, 801, 753, 752, 800, 802, 754
471, 732, 780, 786, 738, 753, 801, 803, 755
472, 753, 801, 803, 755, 754, 802, 804, 756
473, 738, 786, 805, 757, 755, 803, 806, 758
474, 755, 803, 806, 758, 756, 804, 807, 759
475, 757, 805, 808, 760, 758, 806, 809, 761
476, 758, 806, 809, 761, 759, 807, 810, 762
477, 760, 808, 811, 763, 761, 809, 812, 764
478, 761, 809, 812, 764, 762, 810, 813, 765
479, 763, 811, 814, 766, 764, 812, 815, 767
480, 764, 812, 815, 767, 765, 813, 816, 768
481, 769, 817, 818, 770, 771, 819, 820, 772
482, 771, 819, 820, 772, 773, 821, 822, 774
483, 773, 821, 822, 774, 775, 823, 824, 776
484, 775, 823, 824, 776, 777, 825, 826, 778
485, 777, 825, 826, 778, 779, 827, 828, 780
486, 770, 818, 829, 781, 772, 820, 830, 782
487, 772, 820, 830, 782, 774, 822, 831, 783
488, 774, 822, 831, 783, 776, 824, 832, 784
489, 776, 824, 832, 784, 778, 826, 833, 785
490, 778, 826, 833, 785, 780, 828, 834, 786
491, 787, 835, 836, 788, 789, 837, 838, 790
492, 789, 837, 838, 790, 791, 839, 840, 792
493, 788, 836, 841, 793, 790, 838, 842, 794
494, 790, 838, 842, 794, 792, 840, 843, 795
495, 793, 841, 844, 796, 794, 842, 845, 797
496, 794, 842, 845, 797, 795, 843, 846, 798
497, 796, 844, 827, 779, 797, 845, 847, 799
498, 797, 845, 847, 799, 798, 846, 848, 800
499, 779, 827, 828, 780, 799, 847, 849, 801
500, 799, 847, 849, 801, 800, 848, 850, 802
501, 780, 828, 834, 786, 801, 849, 851, 803
502, 801, 849, 851, 803, 802, 850, 852, 804
503, 786, 834, 853, 805, 803, 851, 854, 806
504, 803, 851, 854, 806, 804, 852, 855, 807
505, 805, 853, 856, 808, 806, 854, 857, 809
506, 806, 854, 857, 809, 807, 855, 858, 810
507, 808, 856, 859, 811, 809, 857, 860, 812
508, 809, 857, 860, 812, 810, 858, 861, 813
509, 811, 859, 862, 814, 812, 860, 863, 815
510, 812, 860, 863, 815, 813, 861, 864, 816
511, 817, 865, 866, 818, 819, 867, 868, 820
512, 819, 867, 868, 820, 821, 869, 870, 822
513, 821, 869, 870, 822, 823, 871, 872, 824
514, 823, 871, 872, 824, 825, 873, 874, 826
515, 825, 873, 874, 826, 827, 875, 876, 828
516, 818, 866, 877, 829, 820, 868, 878, 830
517, 820, 868, 878, 830, 822, 870, 879, 831
518, 822, 870, 879, 831, 824, 872, 880, 832
519, 824, 872, 880, 832, 826, 874, 881, 833
520, 826, 874, 881, 833, 828, 876, 882, 834
521, 835, 883, 884, 836, 837, 885, 886, 838
522, 837, 885, 886, 838, 839, 887, 888, 840
523, 836, 884, 889, 841, 838, 886, 890, 842
524, 838, 886, 890, 842, 840, 888, 891, 843
525, 841, 889, 892, 844, 842, 890, 893, 845
526, 842, 890, 893, 845, 843, 891, 894, 846
527, 844, 892, 875, 827, 845, 893, 895, 847
528, 845, 893, 895, 847, 846, 894, 896, 848
529, 827, 875, 876, 828, 847, 895, 897, 849
530, 847, 895, 897, 849, 848, 896, 898, 850
531, 828, 876, 882, 834, 849, 897, 899, 851
532, 849, 897, 899, 851, 850, 898, 900, 852
533, 834, 882, 901, 853, 851, 899, 902, 854
534, 851, 899, 902, 854, 852, 900, 903, 855
535, 853, 901, 904, 856, 854, 902, 905, 857
536, 854, 902, 905, 857, 855, 903, 906, 858
537, 856, 904, 907, 859, 857, 905, 908, 860
538, 857, 905, 908, 860, 858, 906, 909, 861
539, 859, 907, 910, 862, 860, 908, 911, 863
540, 860, 908, 911, 863, 861, 909, 912, 864
541, 865, 913, 914, 866, 867, 915, 916, 868
542, 867, 915, 916, 868, 869, 917, 918, 870
543, 869, 917, 918, 870, 871, 919, 920, 872
544, 871, 919, 920, 872, 873, 921, 922, 874
545, 873, 921, 922, 874, 875, 923, 924, 876
546, 866, 914, 925, 877, 868, 916, 926, 878
547, 868, 916, 926, 878, 870, 918, 927, 879
548, 870, 918, 927, 879, 872, 920, 928, 880
549, 872, 920, 928, 880, 874, 922, 929, 881
550, 874, 922, 929, 881, 876, 924, 930, 882
551, 883, 931, 932, 884, 885, 933, 934, 886
552, 885, 933, 934, 886, 887, 935, 936, 888
553, 884, 932, 937, 889, 886, 934, 938, 890
554, 886, 934, 938, 890, 888, 936, 939, 891
555, 889, 937, 940, 892, 890, 938, 941, 893
556, 890, 938, 941, 893, 891, 939, 942, 894
557, 892, 940, 923, 875, 893, 941, 943, 895
558, 893, 941, 943, 895, 894, 942, 944, 896
559, 875, 923, 924, 876, 895, 943, 945, 897
560, 895, 943, 945, 897, 896, 944, 946, 898
561, 876, 924, 930, 882, 897, 945, 947, 899
562, 897, 945, 947, 899, 898, 946, 948, 900
563, 882, 930, 949, 901, 899, 947, 950, 902
564, 899, 947, 950, 902, 900, 948, 951, 903
565, 901, 949, 952, 904, 902, 950, 953, 905
566, 902, 950, 953, 905, 903, 951, 954, 906
567, 904, 952, 955, 907, 905, 953, 956, 908
568, 905, 953, 956, 908, 906, 954, 957, 909
569, 907, 955, 958, 910, 908, 956, 959, 911
570, 908, 956, 959, 911, 909, 957, 960, 912
571, 913, 961, 962, 914, 915, 963, 964, 916
572, 915, 963, 964, 916, 917, 965, 966, 918
573, 917, 965, 966, 918, 919, 967, 968, 920
574, 919, 967, 968, 920, 921, 969, 970, 922
575, 921, 969, 970, 922, 923, 971, 972, 924
576, 914, 962, 973, 925, 916, 964, 974, 926
577, 916, 964, 974, 926, 918, 966, 975, 927
578, 918, 966, 975, 927, 920, 968, 976, 928
579, 920, 968, 976, 928, 922, 970, 977, 929
580, 922, 970, 977, 929, 924, 972, 978, 930
581, 931, 979, 980, 932, 933, 981, 982, 934
582, 933, 981, 982, 934, 935, 983, 984, 936
583, 932, 980, 985, 937, 934, 982, 986, 938
584, 934, 982, 986, 938, 936, 984, 987, 939
585, 937, 985, 988, 940, 938, 986, 989, 941
586, 938, 986, 989, 941, 939, 987, 990, 942
587, 940, 988, 971, 923, 941, 989, 991, 943
588, 941, 989, 991, 943, 942, 990, 992, 944
589, 923, 971, 972, 924, 943, 991, 993, 945
590, 943, 991, 993, 945, 944, 992, 994, 946
591, 924, 972, 978, 930, 945, 993, 995, 947
592, 945, 993, 995, 947, 946, 994, 996, 948
593, 930, 978, 997, 949, 947, 995, 998, 950
594, 947, 995, 998, 950, 948, 996, 999, 951
595, 949, 997, 1000, 952, 950, 998, 1001, 953
596, 950, 998, 1001, 953, 951, 999, 1002, 954
597, 952, 1000, 1003, 955, 953, 1001, 1004, 956
598, 953, 1001, 1004, 956, 954, 1002, 1005, 957
599, 955, 1003, 1006, 958, 956, 1004, 1007, 959
600, 956, 1004, 1007, 959, 957, 1005, 1008, 960
601, 961, 1009, 1010, 962, 963, 1011, 1012, 964
602, 963, 1011, 1012, 964, 965, 1013, 1014, 966
603, 965, 1013, 1014, 966, 967, 1015, 1016, 968
604, 967, 1015, 1016, 968, 969, 1017, 1018, 970
605, 969, 1017, 1018, 970, 971, 1019, 1020, 972
606, 962, 1010, 1021, 973, 964, 1012, 1022, 974
607, 964, 1012, 1022, 974, 966, 1014, 1023, 975
608, 966, 1014, 1023, 975, 968, 1016, 1024, 976
609, 968, 1016, 1024, 976, 970, 1018, 1025, 977
610, 970, 1018, 1025, 977, 972, 1020, 1026, 978
611, 979, 1027, 1028, 980, 981, 1029, 1030, 982
612, 981, 1029, 1030, 982, 983, 1031, 1032, 984
613, 980, 1028, 1033, 985, 982, 1030, 1034, 986
614, 982, 1030, 1034, 986, 984, 1032, 1035, 987
615, 985, 1033, 1036, 988, 986, 1034, 1037, 989
616, 986, 1034, 1037, 989, 987, 1035, 1038, 990
617, 988, 1036, 1019, 971, 989, 1037, 1039, 991
618, 989, 1037, 1039, 991, 990, 1038, 1040, 992
619, 971, 1019, 1020, 972, 991, 1039, 1041, 993
620, 991, 1039, 1041, 993, 992, 1040, 1042, 994
621, 972, 1020, 1026, 978, 993, 1041, 1043, 995
622, 993, 1041, 1043, 995, 994, 1042, 1044, 996
623, 978, 1026, 1045, 997, 995, 1043, 1046, 998
624, 995, 1043, 1046, 998, 996, 1044, 1047, 999
625, 997, 1045, 1048, 1000, 998, 1046, 1049, 1001
626, 998, 1046, 1049, 1001, 999, 1047, 1050, 1002
627, 1000, 1048, 1051, 1003, 1001, 1049, 1052, 1004
628, 1001, 1049, 1052, 1004, 1002, 1050, 1053, 1005
629, 1003, 1051, 1054, 1006, 1004, 1052, 1055, 1007
630, 1004, 1052, 1055, 1007, 1005, 1053, 1056, 1008
631, 1009, 1057, 1058, 1010, 1011, 1059, 1060, 1012
632, 1011, 1059, 1060, 1012, 1013, 1061, 1062, 1014
633, 1013, 1061, 1062, 1014, 1015, 1063, 1064, 1016
634, 1015, 1063, 1064, 1016, 1017, 1065, 1066, 1018
635, 1017, 1065, 1066, 1018, 1019, 1067, 1068, 1020
636, 1010, 1058, 1069, 1021, 1012, 1060, 1070, 1022
637, 1012, 1060, 1070, 1022, 1014, 1062, 1071, 1023
638, 1014, 1062, 1071, 1023, 1016, 1064, 1072, 1024
639, 1016, 1064, 1072, 1024, 1018, 1066, 1073, 1025
640, 1018, 1066, 1073, 1025, 1020, 1068, 1074, 1026
641, 1027, 1075, 1076, 1028, 1029, 1077, 1078, 1030
642, 1029, 1077, 1078, 1030, 1031, 1079, 1080, 1032
643, 1028, 1076, 1081, 1033, 1030, 1078, 1082, 1034
644, 1030, 1078, 1082, 1034, 1032, 1080, 1083, 1035
645, 1033, 1081, 1084, 1036, 1034, 1082, 1085, 1037
646, 1034, 1082, 1085, 1037, 1035, 1083, 1086, 1038
647, 1036, 1084, 1067, 1019, 1037, 1085, 1087, 1039
648, 1037, 1085, 1087, 1039, 1038, 1086, 1088, 1040
649, 1019, 1067, 1068, 1020, 1039, 1087, 1089, 1041
650, 1039, 1087, 1089, 1041, 1040, 1088, 1090, 1042
651, 1020, 1068, 1074, 1026, 1041, 1089, 1091, 1043
652, 1041, 1089, 1091, 1043, 1042, 1090, 1092, 1044
653, 1026, 1074, 1093, 1045, 1043, 1091, 1094, 1046
654, 1043, 1091, 1094, 1046, 1044, 1092, 1095, 1047
655, 1045, 1093, 1096, 1048, 1046, 1094, 1097, 1049
656, 1046, 1094, 1097, 1049, 1047, 1095, 1098, 1050
657, 1048, 1096, 1099, 1051, 1049, 1097, 1100, 1052
658, 1049, 1097, 1100, 1052, 1050, 1098, 1101, 1053
659, 1051, 1099, 1102, 1054, 1052, 1100, 1103, 1055
660, 1052, 1100, 1103, 1055, 1053, 1101, 1104, 1056
661, 1057, 1105, 1106, 1058, 1059, 1107, 1108, 1060
662, 1059, 1107, 1108, 1060, 1061, 1109, 1110, 1062
663, 1061, 1109, 1110, 1062, 1063, 1111, 1112, 1064
664, 1063, 1111, 1112, 1064, 1065, 1113, 1114, 1066
665, 1065, 1113, 1114, 1066, 1067, 1115, 1116, 1068
666, 1058, 1106, 1117, 1069, 1060, 1108, 1118, 1070
667, 1060, 1108, 1118, 1070, 1062, 1110, 1119, 1071
668, 1062, 1110, 1119, 1071, 1064, 1112, 1120, 1072
669, 1064, 1112, 1120, 1072, 1066, 1114, 1121, 1073
670, 1066, 1114, 1121, 1073, 1068, 1116, 1122, 1074
671, 1075, 1123, 1124, 1076, 1077, 1125, 1126, 1078
672, 1077, 1125, 1126, 1078, 1079, 1127, 1128, 1080
673, 1076, 1124, 1129, 1081, 1078, 1126, 1130, 1082
674, 1078, 1126, 1130, 1082, 1080, 1128, 1131, 1083
675, 1081, 1129, 1132, 1084, 1082, 1130, 1133, 1085
676, 1082, 1130, 1133, 1085, 1083, 1131, 1134, 1086
677, 1084, 1132, 1115, 1067, 1085, 1133, 1135, 1087
678, 1085, 1133, 1135, 1087, 1086, 1134, 1136, 1088
679, 1067, 1115, 1116, 1068, 1087, 1135, 1137, 1089
680, 1087, 1135, 1137, 1089, 1088, 1136, 1138, 1090
681, 1068, 1116, 1122, 1074, 1089, 1137, 1139, 1091
682, 1089, 1137, 1139, 1091, 1090, 1138, 1140, 1092
683, 1074, 1122, 1141, 1093, 1091, 1139, 1142, 1094
684, 1091, 1139, 1142, 1094, 1092, 1140, 1143, 1095
685, 1093, 1141, 1144, 1096, 1094, 1142, 1145, 1097
686, 1094, 1142, 1145, 1097, 1095, 1143, 1146, 1098
687, 1096, 1144, 1147, 1099, 1097, 1145, 1148, 1100
688, 1097, 1145, 1148, 1100, 1098, 1146, 1149, 1101
689, 1099, 1147, 1150, 1102, 1100, 1148, 1151, 1103
690, 1100, 1148, 1151, 1103, 1101, 1149, 1152, 1104
691, 1105, 1153, 1154, 1106, 1107, 1155, 1156, 1108
692, 1107, 1155, 1156, 1108, 1109, 1157, 1158, 1110
693, 1109, 1157, 1158, 1110, 1111, 1159, 1160, 1112
694, 1111, 1159, 1160, 1112, 1113, 1161, 1162, 1114
695, 1113, 1161, 1162, 1114, 1115, 1163, 1164, 1116
696, 1106, 1154, 1165, 1117, 1108, 1156, 1166, 1118
697, 1108, 1156, 1166, 1118, 1110, 1158, 1167, 1119
698, 1110, 1158, 1167, 1119, 1112, 1160, 1168, 1120
699, 1112, 1160, 1168, 1120, 1114, 1162, 1169, 1121
700, 1114, 1162, 1169, 1121, 1116, 1164, 1170, 1122
701, 1123, 1171, 1172, 1124, 1125, 1173, 1174, 1126
702, 1125, 1173, 1174, 1126, 1127, 1175, 1176, 1128
703, 1124, 1172, 1177, 1129, 1126, 1174, 1178, 1130
704, 1126, 1174, 1178, 1130, 1128, 1176, 1179, 1131
705, 1129, 1177, 1180, 1132, 1130, 1178, 1181, 1133
706, 1130, 1178, 1181, 1133, 1131, 1179, 1182, 1134
707, 1132, 1180, 1163, 1115, 1133, 1181, 1183, 1135
708, 1133, 1181, 1183, 1135, 1134, 1182, 1184, 1136
709, 1115, 1163, 1164, 1116, 1135, 1183, 1185, 1137
710, 1135, 1183, 1185, 1137, 1136, 1184, 1186, 1138
711, 1116, 1164, 1170, 1122, 1137, 1185, 1187, 1139
712, 1137, 1185, 1187, 1139, 1138, 1186, 1188, 1140
713, 1122, 1170, 1189, 1141, 1139, 1187, 1190, 1142
714, 1139, 1187, 1190, 1142, 1140, 1188, 1191, 1143
715, 1141, 1189, 1192, 1144, 1142, 1190, 1193, 1145
716, 1142, 1190, 1193, 1145, 1143, 1191, 1194, 1146
717, 1144, 1192, 1195, 1147, 1145, 1193, 1196, 1148
718, 1145, 1193, 1196, 1148, 1146, 1194, 1197, 1149
719, 1147, 1195, 1198, 1150, 1148, 1196, 1199, 1151
720, 1148, 1196, 1199, 1151, 1149, 1197, 1200, 1152
721, 1153, 1201, 1202, 1154, 1155, 1203, 1204, 1156
722, 1155, 1203, 1204, 1156, 1157, 1205, 1206, 1158
723, 1157, 1205, 1206, 1158, 1159, 1207, 1208, 1160
724, 1159, 1207, 1208, 1160, 1161, 1209, 1210, 1162
725, 1161, 1209, 1210, 1162, 1163, 1211, 1212, 1164
726, 1154, 1202, 1213, 1165, 1156, 1204, 1214, 1166
727, 1156, 1204, 1214, 1166, 1158, 1206, 1215, 1167
728, 1158, 1206, 1215, 1167, 1160, 1208, 1216, 1168
729, 1160, 1208, 1216, 1168, 1162, 1210, 1217, 1169
730, 1162, 1210, 1217, 1169, 1164, 1212, 1218, 1170
731, 1171, 1219, 1220, 1172, 1173, 1221, 1222, 1174
732, 1173, 1221, 1222, 1174, 1175, 1223, 1224, 1176
733, 1172, 1220, 1225, 1177, 1174, 1222, 1226, 1178
734, 1174, 1222, 1226, 1178, 1176, 1224, 1227, 1179
735, 1177, 1225, 1228, 1180, 1178, 1226, 1229, 1181
736, 1178, 1226, 1229, 1181, 1179, 1227, 1230, 1182
737, 1180, 1228, 1211, 1163, 1181, 1229, 1231, 1183
738, 1181, 1229, 1231, 1183, 1182, 1230, 1232, 1184
739, 1163, 1211, 1212, 1164, 1183, 1231, 1233, 1185
740, 1183, 1231, 1233, 1185, 1184, 1232, 1234, 1186
741, 1164, 1212, 1218, 1170, 1185, 1233, 1235, 1187
742, 1185, 1233, 1235, 1187, 1186, 1234, 1236, 1188
743, 1170, 1218, 1237, 1189, 1187, 1235, 1238, 1190
744, 1187, 1235, 1238, 1190, 1188, 1236, 1239, 1191
745, 1189, 1237, 1240, 1192, 1190, 1238, 1241, 1193
746, 1190, 1238, 1241, 1193, 1191, 1239, 1242, 1194
747, 1192, 1240, 1243, 1195, 1193, 1241, 1244, 1196
748, 1193, 1241, 1244, 1196, 1194, 1242, 1245, 1197
749, 1195, 1243, 1246, 1198, 1196, 1244, 1247, 1199
750, 1196, 1244, 1247, 1199, 1197, 1245, 1248, 1200
751, 1201, 1249, 1250, 1202, 1203, 1251, 1252, 1204
752, 1203, 1251, 1252, 1204, 1205, 1253, 1254, 1206
753, 1205, 1253, 1254, 1206, 1207, 1255, 1256, 1208
754, 1207, 1255, 1256, 1208, 1209, 1257, 1258, 1210
755, 1209, 1257, 1258, 1210, 1211, 1259, 1260, 1212
756, 1202, 1250, 1261, 1213, 1204, 1252, 1262, 1214
757, 1204, 1252, 1262, 1214, 1206, 1254, 1263, 1215
758, 1206, 1254, 1263, 1215, 1208, 1256, 1264, 1216
759, 1208, 1256, 1264, 1216, 1210, 1258, 1265, 1217
760, 1210, 1258, 1265, 1217, 1212, 1260, 1266, 1218
761, 1219, 1267, 1268, 1220, 1221, 1269, 1270, 1222
762, 1221, 1269, 1270, 1222, 1223, 1271, 1272, 1224
763, 1220, 1268, 1273, 1225, 1222, 1270, 1274, 1226
764, 1222, 1270, 1274, 1226, 1224, 1272, 1275, 1227
765, 1225, 1273, 1276, 1228, 1226, 1274, 1277, 1229
766, 1226, 1274, 1277, 1229, 1227, 1275, 1278, 1230
767, 1228, 1276, 1259, 1211, 1229, 1277, 1279, 1231
768, 1229, 1277, 1279, 1231, 1230, 1278, 1280, 1232
769, 1211, 1259, 1260, 1212, 1231, 1279, 1281, 1233
770, 1231, 1279, 1281, 1233, 1232, 1280, 1282, 1234
771, 1212, 1260, 1266, 1218, 1233, 1281, 1283, 1235
772, 1233, 1281, 1283, 1235, 1234, 1282, 1284, 1236
773, 1218, 1266, 1285, 1237, 1235, 1283, 1286, 1238
774, 1235, 1283, 1286, 1238, 1236, 1284, 1287, 1239
775, 1237, 1285, 1288, 1240, 1238, 1286, 1289, 1241
776, 1238, 1286, 1289, 1241, 1239, 1287, 1290, 1242
777, 1240, 1288, 1291, 1243, 1241, 1289, 1292, 1244
778, 1241, 1289, 1292, 1244, 1242, 1290, 1293, 1245
779, 1243, 1291, 1294, 1246, 1244, 1292, 1295, 1247
780, 1244, 1292, 1295, 1247, 1245, 1293, 1296, 1248
781, 1249, 1297, 1298, 1250, 1251, 1299, 1300, 1252
782, 1251, 1299, 1300, 1252, 1253, 1301, 1302, 1254
783, 1253, 1301, 1302, 1254, 1255, 1303, 1304, 1256
784, 1255, 1303, 1304, 1256, 1257, 1305, 1306, 1258
785, 1257, 1305, 1306, 1258, 1259, 1307, 1308, 1260
786, 1250, 1298, 1309, 1261, 1252, 1300, 1310, 1262
787, 1252, 1300, 1310, 1262, 1254, 1302, 1311, 1263
788, 1254, 1302, 1311, 1263, 1256, 1304, 1312, 1264
789, 1256, 1304, 1312, 1264, 1258, 1306, 1313, 1265
790, 1258, 1306, 1313, 1265, 1260, 1308, 1314, 1266
791, 1267, 1315, 1316, 1268, 1269, 1317, 1318, 1270
792, 1269, 1317, 1318, 1270, 1271, 1319, 1320, 1272
793, 1268, 1316, 1321, 1273, 1270, 1318, 1322, 1274
794, 1270, 1318, 1322, 1274, 1272, 1320, 1323, 1275
795, 1273, 1321, 1324, 1276, 1274, 1322, 1325, 1277
796, 1274, 1322, 1325, 1277, 1275, 1323, 1326, 1278
797, 1276, 1324, 1307, 1259, 1277, 1325, 1327, 1279
798, 1277, 1325, 1327, 1279, 1278, 1326, 1328, 1280
799, 1259, 1307, 1308, 1260, 1279, 1327, 1329, 1281
800, 1279, 1327, 1329, 1281, 1280, 1328, 1330, 1282
801, 1260, 1308, 1314, 1266, 1281, 1329, 1331, 1283
802, 1281, 1329, 1331, 1283, 1282, 1330, 1332, 1284
803, 1266, 1314, 1333, 1285, 1283, 1331, 1334, 1286
804, 1283, 1331, 1334, 1286, 1284, 1332, 1335, 1287
805, 1285, 1333, 1336, 1288, 1286, 1334, 1337, 1289
806, 1286, 1334, 1337, 1289, 1287, 1335, 1338, 1290
807, 1288, 1336, 1339, 1291, 1289, 1337, 1340, 1292
808, 1289, 1337, 1340, 1292, 1290, 1338, 1341, 1293
809, 1291, 1339, 1342, 1294, 1292, 1340, 1343, 1295
810, 1292, 1340, 1343, 1295, 1293, 1341, 1344, 1296
811, 1297, 1345, 1346, 1298, 1299, 1347, 1348, 1300
812, 1299, 1347, 1348, 1300, 1301, 1349, 1350, 1302
813, 1301, 1349, 1350, 1302, 1303, 1351, 1352, 1304
814, 1303, 1351, 1352, 1304, 1305, 1353, 1354, 1306
815, 1305, 1353, 1354, 1306, 1307, 1355, 1356, 1308
816, 1298, 1346, 1357, 1309, 1300, 1348, 1358, 1310
817, 1300, 1348, 1358, 1310, 1302, 1350, 1359, 1311
818, 1302, 1350, 1359, 1311, 1304, 1352, 1360, 1312
819, 1304, 1352, 1360, 1312, 1306, 1354, 1361, 1313
820, 1306, 1354, 1361, 1313, 1308, 1356, 1362, 1314
821, 1315, 1363, 1364, 1316, 1317, 1365, 1366, 1318
822, 1317, 1365, 1366, 1318, 1319, 1367, 1368, 1320
823, 1316, 1364, 1369, 1321, 1318, 1366, 1370, 1322
824, 1318, 1366, 1370, 1322, 1320, 1368, 1371, 1323
825, 1321, 1369, 1372, 1324, 1322, 1370, 1373, 1325
826, 1322, 1370, 1373, 1325, 1323, 1371, 1374, 1326
827, 1324, 1372, 1355, 1307, 1325, 1373, 1375, 1327
828, 1325, 1373, 1375, 1327, 1326, 1374, 1376, 1328
829, 1307, 1355, 1356, 1308, 1327, 1375, 1377, 1329
830, 1327, 1375, 1377, 1329, 1328, 1376, 1378, 1330
831, 1308, 1356, 1362, 1314, 1329, 1377, 1379, 1331
832, 1329, 1377, 1379, 1331, 1330, 1378, 1380, 1332
833, 1314, 1362, 1381, 1333, 1331, 1379, 1382, 1334
834, 1331, 1379, 1382, 1334, 1332, 1380, 1383, 1335
835, 1333, 1381, 1384, 1336, 1334, 1382, 1385, 1337
836, 1334, 1382, 1385, 1337, 1335, 1383, 1386, 1338
837, 1336, 1384, 1387, 1339, 1337, 1385, 1388, 1340
838, 1337, 1385, 1388, 1340, 1338, 1386, 1389, 1341
839, 1339, 1387, 1390, 1342, 1340, 1388, 1391, 1343
840, 1340, 1388, 1391, 1343, 1341, 1389, 1392, 1344
841, 1345, 1393, 1394, 1346, 1347, 1395, 1396, 1348
842, 1347, 1395, 1396, 1348, 1349, 1397, 1398, 1350
843, 1349, 1397, 1398, 1350, 1351, 1399, 1400, 1352
844, 1351, 1399, 1400, 1352, 1353, 1401, 1402, 1354
845, 1353, 1401, 1402, 1354, 1355, 1403, 1404, 1356
846, 1346, 1394, 1405, 1357, 1348, 1396, 1406, 1358
847, 1348, 1396, 1406, 1358, 1350, 1398, 1407, 1359
848, 1350, 1398, 1407, 1359, 1352, 1400, 1408, 1360
849, 1352, 1400, 1408, 1360, 1354, 1402, 1409, 1361
850, 1354, 1402, 1409, 1361, 1356, 1404, 1410, 1362
851, 1363, 1411, 1412, 1364, 1365, 1413, 1414, 1366
852, 1365, 1413, 1414, 1366, 1367, 1415, 1416, 1368
853, 1364, 1412, 1417, 1369, 1366, 1414, 1418, 1370
854, 1366, 1414, 1418, 1370, 1368, 1416, 1419, 1371
855, 1369, 1417, 1420, 1372, 1370, 1418, 1421, 1373
856, 1370, 1418, 1421, 1373, 1371, 1419, 1422, 1374
857, 1372, 1420, 1403, 1355, 1373, 1421, 1423, 1375
858, 1373, 1421, 1423, 1375, 1374, 1422, 1424, 1376
859, 1355, 1403, 1404, 1356, 1375, 1423, 1425, 1377
860, 1375, 1423, 1425, 1377, 1376, 1424, 1426, 1378
861, 1356, 1404, 1410, 1362, 1377, 1425, 1427, 1379
862, 1377, 1425, 1427, 1379, 1378, 1426, 1428, 1380
863, 1362, 1410, 1429, 1381, 1379, 1427, 1430, 1382
864, 1379, 1427, 1430, 1382, 1380, 1428, 1431, 1383
865, 1381, 1429, 1432, 1384, 1382, 1430, 1433, 1385
866, 1382, 1430, 1433, 1385, 1383, 1431, 1434, 1386
867, 1384, 1432, 1435, 1387, 1385, 1433, 1436, 1388
868, 1385, 1433, 1436, 1388, 1386, 1434, 1437, 1389
869, 1387, 1435, 1438, 1390, 1388, 1436, 1439, 1391
870, 1388, 1436, 1439, 1391, 1389, 1437, 1440, 1392
871, 1393, 1441, 1442, 1394, 1395, 1443, 1444, 1396
872, 1395, 1443, 1444, 1396, 1397, 1445, 1446, 1398
873, 1397, 1445, 1446, 1398, 1399, 1447, 1448, 1400
874, 1399, 1447, 1448, 1400, 1401, 1449, 1450, 1402
875, 1401, 1449, 1450, 1402, 1403, 1451, 1452, 1404
876, 1394, 1442, 1453, 1405, 1396, 1444, 1454, 1406
877, 1396, 1444, 1454, 1406, 1398, 1446, 1455, 1407
878, 1398, 1446, 1455, 1407, 1400, 1448, 1456, 1408
879, 1400, 1448, 1456, 1408, 1402, 1450, 1457, 1409
880, 1402, 1450, 1457, 1409, 1404, 1452, 1458, 1410
881, 1411, 1459, 1460, 1412, 1413, 1461, 1462, 1414
882, 1413, 1461, 1462, 1414, 1415, 1463, 1464, 1416
883, 1412, 1460, 1465, 1417, 1414, 1462, 1466, 1418
884, 1414, 1462, 1466, 1418, 1416, 1464, 1467, 1419
885, 1417, 1465, 1468, 1420, 1418, 1466, 1469, 1421
886, 1418, 1466, 1469, 1421, 1419, 1467, 1470, 1422
887, 1420, 1468, 1451, 1403, 1421, 1469, 1471, 1423
888, 1421, 1469, 1471, 1423, 1422, 1470, 1472, 1424
889, 1403, 1451, 1452, 1404, 1423, 1471, 1473, 1425
890, 1423, 1471, 1473, 1425, 1424, 1472, 1474, 1426
891, 1404, 1452, 1458, 1410, 1425, 1473, 1475, 1427
892, 1425, 1473, 1475, 1427, 1426, 1474, 1476, 1428
893, 1410, 1458, 1477, 1429, 1427, 1475, 1478, 1430
894, 1427, 1475, 1478, 1430, 1428, 1476, 1479, 1431
895, 1429, 1477, 1480, 1432, 1430, 1478, 1481, 1433
896, 1430, 1478, 1481, 1433, 1431, 1479, 1482, 1434
897, 1432, 1480, 1483, 1435, 1433, 1481, 1484, 1436
898, 1433, 1481, 1484, 1436, 1434, 1482, 1485, 1437
899, 1435, 1483, 1486, 1438, 1436, 1484, 1487, 1439
900, 1436, 1484, 1487, 1439, 1437, 1485, 1488, 1440
901, 1441, 1489, 1490, 1442, 1443, 1491, 1492, 1444
902, 1443, 1491, 1492, 1444, 1445, 1493, 1494, 1446
903, 1445, 1493, 1494, 1446, 1447, 1495, 1496, 1448
904, 1447, 1495, 1496, 1448, 1449, 1497, 1498, 1450
905, 1449, 1497, 1498, 1450, 1451, 1499, 1500, 1452
906, 1442, 1490, 1501, 1453, 1444, 1492, 1502, 1454
907, 1444, 1492, 1502, 1454, 1446, 1494, 1503, 1455
908, 1446, 1494, 1503, 1455, 1448, 1496, 1504, 1456
909, 1448, 1496, 1504, 1456, 1450, 1498, 1505, 1457
910, 1450, 1498, 1505, 1457, 1452, 1500, 1506, 1458
911, 1459, 1507, 1508, 1460, 1461, 1509, 1510, 1462
912, 1461, 1509, 1510, 1462, 1463, 1511, 1512, 1464
913, 1460, 1508, 1513, 1465, 1462, 1510, 1514, 1466
914, 1462, 1510, 1514, 1466, 1464, 1512, 1515, 1467
915, 1465, 1513, 1516, 1468, 1466, 1514, 1517, 1469
916, 1466, 1514, 1517, 1469, 1467, 1515, 1518, 1470
917, 1468, 1516, 1499, 1451, 1469, 1517, 1519, 1471
918, 1469, 1517, 1519, 1471, 1470, 1518, 1520, 1472
919, 1451, 1499, 1500, 1452, 1471, 1519, 1521, 1473
920, 1471, 1519, 1521, 1473, 1472, 1520, 1522, 1474
921, 1452, 1500, 1506, 1458, 1473, 1521, 1523, 1475
922, 1473, 1521, 1523, 1475, 1474, 1522, 1524, 1476
923, 1458, 1506, 1525, 1477, 1475, 1523, 1526, 1478
924, 1475, 1523, 1526, 1478, 1476, 1524, 1527, 1479
925, 1477, 1525, 1528, 1480, 1478, 1526, 1529, 1481
926, 1478, 1526, 1529, 1481, 1479, 1527, 1530, 1482
927, 1480, 1528, 1531, 1483, 1481, 1529, 1532, 1484
928, 1481, 1529, 1532, 1484, 1482, 1530, 1533, 1485
929, 1483, 1531, 1534, 1486, 1484, 1532, 1535, 1487
930, 1484, 1532, 1535, 1487, 1485, 1533, 1536, 1488
931, 1489, 1537, 1538, 1490, 1491, 1539, 1540, 1492
932, 1491, 1539, 1540, 1492, 1493, 1541, 1542, 1494
933, 1493, 1541, 1542, 1494, 1495, 1543, 1544, 1496
934, 1495, 1543, 1544, 1496, 1497, 1545, 1546, 1498
935, 1497, 1545, 1546, 1498, 1499, 1547, 1548, 1500
936, 1490, 1538, 1549, 1501, 1492, 1540, 1550, 1502
937, 1492, 1540, 1550, 1502, 1494, 1542, 1551, 1503
938, 1494, 1542, 1551, 1503, 1496, 1544, 1552, 1504
939, 1496, 1544, 1552, 1504, 1498, 1546, 1553, 1505
940, 1498, 1546, 1553, 1505, 1500, 1548, 1554, 1506
941, 1507, 1555, 1556, 1508, 1509, 1557, 1558, 1510
942, 1509, 1557, 1558, 1510, 1511, 1559, 1560, 1512
943, 1508, 1556, 1561, 1513, 1510, 1558, 1562, 1514
944, 1510, 1558, 1562, 1514, 1512, 1560, 1563, 1515
945, 1513, 1561, 1564, 1516, 1514, 1562, 1565, 1517
946, 1514, 1562, 1565, 1517, 1515, 1563, 1566, 1518
947, 1516, 1564, 1547, 1499, 1517, 1565, 1567, 1519
948, 1517, 1565, 1567, 1519, 1518, 1566, 1568, 1520
949, 1499, 1547, 1548, 1500, 1519, 1567, 1569, 1521
950, 1519, 1567, 1569, 1521, 1520, 1568, 1570, 1522
951, 1500, 1548, 1554, 1506, 1521, 1569, 1571, 1523
952, 1521, 1569, 1571, 1523, 1522, 1570, 1572, 1524
953, 1506, 1554, 1573, 1525, 1523, 1571, 1574, 1526
954, 1523, 1571, 1574, 1526, 1524, 1572, 1575, 1527
955, 1525, 1573, 1576, 1528, 1526, 1574, 1577, 1529
956, 1526, 1574, 1577, 1529, 1527, 1575, 1578, 1530
957, 1528, 1576, 1579, 1531, 1529, 1577, 1580, 1532
958, 1529, 1577, 1580, 1532, 1530, 1578, 1581, 1533
959, 1531, 1579, 1582, 1534, 1532, 1580, 1583, 1535
960, 1532, 1580, 1583, 1535, 1533, 1581, 1584, 1536
961, 1537, 1585, 1586, 1538, 1539, 1587, 1588, 1540
962, 1539, 1587, 1588, 1540, 1541, 1589, 1590, 1542
963, 1541, 1589, 1590, 1542, 1543, 1591, 1592, 1544
964, 1543, 1591, 1592, 1544, 1545, 1593, 1594, 1546
965, 1545, 1593, 1594, 1546, 1547, 1595, 1596, 1548
966, 1538, 1586, 1597, 1549, 1540, 1588, 1598, 1550
967, 1540, 1588, 1598, 1550, 1542, 1590, 1599, 1551
968, 1542, 1590, 1599, 1551, 1544, 1592, 1600, 1552
969, 1544, 1592, 1600, 1552, 1546, 1594, 1601, 1553
970, 1546, 1594, 1601, 1553, 1548, 1596, 1602, 1554
971, 1555, 1603, 1604, 1556, 1557, 1605, 1606, 1558
972, 1557, 1605, 1606, 1558, 1559, 1607, 1608, 1560
973, 1556, 1604, 1609, 1561, 1558, 1606, 1610, 1562
974, 1558, 1606, 1610, 1562, 1560, 1608, 1611, 1563
975, 1561, 1609, 1612, 1564, 1562, 1610, 1613, 1565
976, 1562, 1610, 1613, 1565, 1563, 1611, 1614, 1566
977, 1564, 1612, 1595, 1547, 1565, 1613, 1615, 1567
978, 1565, 1613, 1615, 1567, 1566, 1614, 1616, 1568
979, 1547, 1595, 1596, 1548, 1567, 1615, 1617, 1569
980, 1567, 1615, 1617, 1569, 1568, 1616, 1618, 1570
981, 1548, 1596, 1602, 1554, 1569, 1617, 1619, 1571
982, 1569, 1617, 1619, 1571, 1570, 1618, 1620, 1572
983, 1554, 1602, 1621, 1573, 1571, 1619, 1622, 1574
984, 1571, 1619, 1622, 1574, 1572, 1620, 1623, 1575
985, 1573, 1621, 1624, 1576, 1574, 1622, 1625, 1577
986, 1574, 1622, 1625, 1577, 1575, 1623, 1626, 1578
987, 1576, 1624, 1627, 1579, 1577, 1625, 1628, 1580
988, 1577, 1625, 1628, 1580, 1578, 1626, 1629, 1581
989, 1579, 1627, 1630, 1582, 1580, 1628, 1631, 1583
990, 1580, 1628, 1631, 1583, 1581, 1629, 1632, 1584
991, 1585, 1633, 1634, 1586, 1587, 1635, 1636, 1588
992, 1587, 1635, 1636, 1588, 1589, 1637, 1638, 1590
993, 1589, 1637, 1638, 1590, 1591, 1639, 1640, 1592
994, 1591, 1639, 1640, 1592, 1593, 1641, 1642, 1594
995, 1593, 1641, 1642, 1594, 1595, 1643, 1644, 1596
996, 1586, 1634, 1645, 1597, 1588, 1636, 1646, 1598
997, 1588, 1636, 1646, 1598, 1590, 1638, 1647, 1599
998, 1590, 1638, 1647, 1599, 1592, 1640, 1648, 1600
999, 1592, 1640, 1648, 1600, 1594, 1642, 1649, 1601
1000, 1594, 1642, 1649, 1601, 1596, 1644, 1650, 1602
1001, 1603, 1651, 1652, 1604, 1605, 1653, 1654, 1606
1002, 1605, 1653, 1654, 1606, 1607, 1655, 1656, 1608
1003, 1604, 1652, 1657, 1609, 1606, 1654, 1658, 1610
1004, 1606, 1654, 1658, 1610, 1608, 1656, 1659, 1611
1005, 1609, 1657, 1660, 1612, 1610, 1658, 1661, 1613
1006, 1610, 1658, 1661, 1613, 1611, 1659, 1662, 1614
1007, 1612, 1660, 1643, 1595, 1613, 1661, 1663, 1615
1008, 1613, 1661, 1663, 1615, 1614, 1662, 1664, 1616
1009, 1595, 1643, 1644, 1596, 1615, 1663, 1665, 1617
1010, 1615, 1663, 1665, 1617, 1616, 1664, 1666, 1618
1011, 1596, 1644, 1650, 1602, 1617, 1665, 1667, 1619
1012, 1617, 1665, 1667, 1619, 1618, 1666, 1668, 1620
1013, 1602, 1650, 1669, 1621, 1619, 1667, 1670, 1622
1014, 1619, 1667, 1670, 1622, 1620, 1668, 1671, 1623
1015, 1621, 1669, 1672, 1624, 1622, 1670, 1673, 1625
1016, 1622, 1670, 1673, 1625, 1623, 1671, 1674, 1626
1017, 1624, 1672, 1675, 1627, 1625, 1673, 1676, 1628
1018, 1625, 1673, 1676, 1628, 1626, 1674, 1677, 1629
1019, 1627, 1675, 1678, 1630, 1628, 1676, 1679, 1631
1020, 1628, 1676, 1679, 1631, 1629, 1677, 1680, 1632
1021, 1633, 1681, 1682, 1634, 1635, 1683, 1684, 1636
1022, 1635, 1683, 1684, 1636, 1637, 1685, 1686, 1638
1023, 1637, 1685, 1686, 1638, 1639, 1687, 1688, 1640
1024, 1639, 1687, 1688, 1640, 1641, 1689, 1690, 1642
1025, 1641, 1689, 1690, 1642, 1643, 1691, 1692, 1644
1026, 1634, 1682, 1693, 1645, 1636, 1684, 1694, 1646
1027, 1636, 1684, 1694, 1646, 1638, 1686, 1695, 1647
1028, 1638, 1686, 1695, 1647, 1640, 1688, 1696, 1648
1029, 1640, 1688, 1696, 1648, 1642, 1690, 1697, 1649
1030, 1642, 1690, 1697, 1649, 1644, 1692, 1698, 1650
1031, 1651, 1699, 1700, 1652, 1653, 1701, 1702, 1654
1032, 1653, 1701, 1702, 1654, 1655, 1703, 1704, 1656
1033, 1652, 1700, 1705, 1657, 1654, 1702, 1706, 1658
1034, 1654, 1702, 1706, 1658, 1656, 1704, 1707, 1659
1035, 1657, 1705, 1708, 1660, 1658, 1706, 1709, 1661
1036, 1658, 1706, 1709, 1661, 1659, 1707, 1710, 1662
1037, 1660, 1708, 1691, 1643, 1661, 1709, 1711, 1663
1038, 1661, 1709, 1711, 1663, 1662, 1710, 1712, 1664
1039, 1643, 1691, 1692, 1644, 1663, 1711, 1713, 1665
1040, 1663, 1711, 1713, 1665, 1664, 1712, 1714, 1666
1041, 1644, 1692, 1698, 1650, 1665, 1713, 1715, 1667
1042, 1665, 1713, 1715, 1667, 1666, 1714, 1716, 1668
1043, 1650, 1698, 1717, 1669, 1667, 1715, 1718, 1670
1044, 1667, 1715, 1718, 1670, 1668, 1716, 1719, 1671
1045, 1669, 1717, 1720, 1672, 1670, 1718, 1721, 1673
1046, 1670, 1718, 1721, 1673, 1671, 1719, 1722, 1674
1047, 1672, 1720, 1723, 1675, 1673, 1721, 1724, 1676
1048, 1673, 1721, 1724, 1676, 1674, 1722, 1725, 1677
1049, 1675, 1723, 1726, 1678, 1676, 1724, 1727, 1679
1050, 1676, 1724, 1727, 1679, 1677, 1725, 1728, 1680
1051, 1681, 1729, 1730, 1682, 1683, 1731, 1732, 1684
1052, 1683, 1731, 1732, 1684, 1685, 1733, 1734, 1686
1053, 1685, 1733, 1734, 1686, 1687, 1735, 1736, 1688
1054, 1687, 1735, 1736, 1688, 1689, 1737, 1738, 1690
1055, 1689, 1737, 1738, 1690, 1691, 1739, 1740, 1692
1056, 1682, 1730, 1741, 1693, 1684, 1732, 1742, 1694
1057, 1684, 1732, 1742, 1694, 1686, 1734, 1743, 1695
1058, 1686, 1734, 1743, 1695, 1688, 1736, 1744, 1696
1059, 1688, 1736, 1744, 1696, 1690, 1738, 1745, 1697
1060, 1690, 1738, 1745, 1697, 1692, 1740, 1746, 1698
1061, 1699, 1747, 1748, 1700, 1701, 1749, 1750, 1702
1062, 1701, 1749, 1750, 1702, 1703, 1751, 1752, 1704
1063, 1700, 1748, 1753, 1705, 1702, 1750, 1754, 1706
1064, 1702, 1750, 1754, 1706, 1704, 1752, 1755, 1707
1065, 1705, 1753, 1756, 1708, 1706, 1754, 1757, 1709
1066, 1706, 1754, 1757, 1709, 1707, 1755, 1758, 1710
1067, 1708, 1756, 1739, 1691, 1709, 1757, 1759, 1711
1068, 1709, 1757, 1759, 1711, 1710, 1758, 1760, 1712
1069, 1691, 1739, 1740, 1692, 1711, 1759, 1761, 1713
1070, 1711, 1759, 1761, 1713, 1712, 1760, 1762, 1714
1071, 1692, 1740, 1746, 1698, 1713, 1761, 1763, 1715
1072, 1713, 1761, 1763, 1715, 1714, 1762, 1764, 1716
1073, 1698, 1746, 1765, 1717, 1715, 1763, 1766, 1718
1074, 1715, 1763, 1766, 1718, 1716, 1764, 1767, 1719
1075, 1717, 1765, 1768, 1720, 1718, 1766, 1769, 1721
1076, 1718, 1766, 1769, 1721, 1719, 1767, 1770, 1722
1077, 1720, 1768, 1771, 1723, 1721, 1769, 1772, 1724
1078, 1721, 1769, 1772, 1724, 1722, 1770, 1773, 1725
1079, 1723, 1771, 1774, 1726, 1724, 1772, 1775, 1727
1080, 1724, 1772, 1775, 1727, 1725, 1773, 1776, 1728
1081, 1729, 1777, 1778, 1730, 1731, 1779, 1780, 1732
1082, 1731, 1779, 1780, 1732, 1733, 1781, 1782, 1734
1083, 1733, 1781, 1782, 1734, 1735, 1783, 1784, 1736
1084, 1735, 1783, 1784, 1736, 1737, 1785, 1786, 1738
1085, 1737, 1785, 1786, 1738, 1739, 1787, 1788, 1740
1086, 1730, 1778, 1789, 1741, 1732, 1780, 1790, 1742
1087, 1732, 1780, 1790, 1742, 1734, 1782, 1791, 1743
1088, 1734, 1782, 1791, 1743, 1736, 1784, 1792, 1744
1089, 1736, 1784, 1792, 1744, 1738, 1786, 1793, 1745
1090, 1738, 1786, 1793, 1745, 1740, 1788, 1794, 1746
1091, 1747, 1795, 1796, 1748, 1749, 1797, 1798, 1750
1092, 1749, 1797, 1798, 1750, 1751, 1799, 1800, 1752
1093, 1748, 1796, 1801, 1753, 1750, 1798, 1802, 1754
1094, 1750, 1798, 1802, 1754, 1752, 1800, 1803, 1755
1095, 1753, 1801, 1804, 1756, 1754, 1802, 1805, 1757
1096, 1754, 1802, 1805, 1757, 1755, 1803, 1806, 1758
1097, 1756, 1804, 1787, 1739, 1757, 1805, 1807, 1759
1098, 1757, 1805, 1807, 1759, 1758, 1806, 1808, 1760
1099, 1739, 1787, 1788, 1740, 1759, 1807, 1809, 1761
1100, 1759, 1807, 1809, 1761, 1760, 1808, 1810, 1762
1101, 1740, 1788, 1794, 1746, 1761, 1809, 1811, 1763
1102, 1761, 1809, 1811, 1763, 1762, 1810, 1812, 1764
1103, 1746, 1794, 1813, 1765, 1763, 1811, 1814, 1766
1104, 1763, 1811, 1814, 1766, 1764, 1812, 1815, 1767
1105, 1765, 1813, 1816, 1768, 1766, 1814, 1817, 1769
1106, 1766, 1814, 1817, 1769, 1767, 1815, 1818, 1770
1107, 1768, 1816, 1819, 1771, 1769, 1817, 1820, 1772
1108, 1769, 1817, 1820, 1772, 1770, 1818, 1821, 1773
1109, 1771, 1819, 1822, 1774, 1772, 1820, 1823, 1775
1110, 1772, 1820, 1823, 1775, 1773, 1821, 1824, 1776
*NSET, NSET=CLAMP
1, 4, 5, 8, 9, 12, 13, 16, 17, 20, 21, 24, 26, 28, 30, 32
34, 36, 37, 40, 41, 44, 45, 48, 50, 52, 54, 56, 58, 60, 62, 64
66, 68, 70, 72, 74, 76, 78, 80, 82, 84, 86, 88, 90, 92, 94, 96
*NSET, NSET=TIP_TOP
1799, 1800, 1803, 1806, 1808, 1810, 1812, 1815, 1818, 1821, 1824
*NSET, NSET=TIP_FLANGE
1799, 1800, 1803, 1806, 1808, 1810, 1812, 1815, 1818, 1821, 1824
*MATERIAL, NAME=STEEL
*ELASTIC
210000, 0.3
*SOLID SECTION, ELSET=EALL, MATERIAL=STEEL
*BOUNDARY
CLAMP, 1, 3, 0.0
*STEP
*STATIC
*CLOAD
1799, 3, -454.545454545
1800, 3, -454.545454545
1803, 3, -454.545454545
1806, 3, -454.545454545
1808, 3, -454.545454545
1810, 3, -454.545454545
1812, 3, -454.545454545
1815, 3, -454.545454545
1818, 3, -454.545454545
1821, 3, -454.545454545
1824, 3, -454.545454545
*NODE FILE
U
*EL FILE
S, ENER
*NODE PRINT, NSET=TIP_TOP
U
*NODE PRINT, NSET=CLAMP
RF
*EL PRINT, ELSET=EALL
ELSE
*ENERGY PRINT
*END STEP
