*HEADING
Normalized cross-passage space-truss torsion benchmark
*NODE
1,-1.200000000000e+00,0.000000000000e+00,0.000000000000e+00
2,1.200000000000e+00,0.000000000000e+00,0.000000000000e+00
3,-1.200000000000e+00,0.000000000000e+00,2.000000000000e+00
4,1.200000000000e+00,0.000000000000e+00,2.000000000000e+00
5,-1.200000000000e+00,1.000000000000e+01,0.000000000000e+00
6,1.200000000000e+00,1.000000000000e+01,0.000000000000e+00
7,-1.200000000000e+00,1.000000000000e+01,2.000000000000e+00
8,1.200000000000e+00,1.000000000000e+01,2.000000000000e+00
9,-1.200000000000e+00,2.000000000000e+01,0.000000000000e+00
10,1.200000000000e+00,2.000000000000e+01,0.000000000000e+00
11,-1.200000000000e+00,2.000000000000e+01,2.000000000000e+00
12,1.200000000000e+00,2.000000000000e+01,2.000000000000e+00
13,-1.200000000000e+00,3.000000000000e+01,0.000000000000e+00
14,1.200000000000e+00,3.000000000000e+01,0.000000000000e+00
15,-1.200000000000e+00,3.000000000000e+01,2.000000000000e+00
16,1.200000000000e+00,3.000000000000e+01,2.000000000000e+00
17,-1.200000000000e+00,4.000000000000e+01,0.000000000000e+00
18,1.200000000000e+00,4.000000000000e+01,0.000000000000e+00
19,-1.200000000000e+00,4.000000000000e+01,2.000000000000e+00
20,1.200000000000e+00,4.000000000000e+01,2.000000000000e+00
21,-1.200000000000e+00,5.000000000000e+01,0.000000000000e+00
22,1.200000000000e+00,5.000000000000e+01,0.000000000000e+00
23,-1.200000000000e+00,5.000000000000e+01,2.000000000000e+00
24,1.200000000000e+00,5.000000000000e+01,2.000000000000e+00
25,-1.200000000000e+00,2.500000000000e+00,-1.060660171780e-01
26,-1.200000000000e+00,5.000000000000e+00,-1.500000000000e-01
27,-1.200000000000e+00,7.500000000000e+00,-1.060660171780e-01
28,1.200000000000e+00,2.500000000000e+00,1.060660171780e-01
29,1.200000000000e+00,5.000000000000e+00,1.500000000000e-01
30,1.200000000000e+00,7.500000000000e+00,1.060660171780e-01
31,-1.200000000000e+00,2.500000000000e+00,1.893933982822e+00
32,-1.200000000000e+00,5.000000000000e+00,1.850000000000e+00
33,-1.200000000000e+00,7.500000000000e+00,1.893933982822e+00
34,1.200000000000e+00,2.500000000000e+00,2.106066017178e+00
35,1.200000000000e+00,5.000000000000e+00,2.150000000000e+00
36,1.200000000000e+00,7.500000000000e+00,2.106066017178e+00
37,-1.200000000000e+00,1.500000000000e+01,-1.500000000000e-01
38,1.200000000000e+00,1.500000000000e+01,1.500000000000e-01
39,-1.200000000000e+00,1.500000000000e+01,1.850000000000e+00
40,1.200000000000e+00,1.500000000000e+01,2.150000000000e+00
41,-1.200000000000e+00,3.250000000000e+01,-1.060660171780e-01
42,-1.200000000000e+00,3.500000000000e+01,-1.500000000000e-01
43,-1.200000000000e+00,3.750000000000e+01,-1.060660171780e-01
44,1.200000000000e+00,3.250000000000e+01,1.060660171780e-01
45,1.200000000000e+00,3.500000000000e+01,1.500000000000e-01
46,1.200000000000e+00,3.750000000000e+01,1.060660171780e-01
47,-1.200000000000e+00,3.250000000000e+01,1.893933982822e+00
48,-1.200000000000e+00,3.500000000000e+01,1.850000000000e+00
49,-1.200000000000e+00,3.750000000000e+01,1.893933982822e+00
50,1.200000000000e+00,3.250000000000e+01,2.106066017178e+00
51,1.200000000000e+00,3.500000000000e+01,2.150000000000e+00
52,1.200000000000e+00,3.750000000000e+01,2.106066017178e+00
53,-1.200000000000e+00,4.250000000000e+01,-1.060660171780e-01
54,-1.200000000000e+00,4.500000000000e+01,-1.500000000000e-01
55,-1.200000000000e+00,4.750000000000e+01,-1.060660171780e-01
56,1.200000000000e+00,4.250000000000e+01,1.060660171780e-01
57,1.200000000000e+00,4.500000000000e+01,1.500000000000e-01
58,1.200000000000e+00,4.750000000000e+01,1.060660171780e-01
59,-1.200000000000e+00,4.250000000000e+01,1.893933982822e+00
60,-1.200000000000e+00,4.500000000000e+01,1.850000000000e+00
61,-1.200000000000e+00,4.750000000000e+01,1.893933982822e+00
62,1.200000000000e+00,4.250000000000e+01,2.106066017178e+00
63,1.200000000000e+00,4.500000000000e+01,2.150000000000e+00
64,1.200000000000e+00,4.750000000000e+01,2.106066017178e+00
65,-6.000000000000e-01,-2.545584412272e-02,0.000000000000e+00
66,0.000000000000e+00,-3.600000000000e-02,0.000000000000e+00
67,6.000000000000e-01,-2.545584412272e-02,0.000000000000e+00
68,-6.000000000000e-01,2.545584412272e-02,2.000000000000e+00
69,0.000000000000e+00,3.600000000000e-02,2.000000000000e+00
70,6.000000000000e-01,2.545584412272e-02,2.000000000000e+00
71,-1.200000000000e+00,2.121320343560e-02,5.000000000000e-01
72,-1.200000000000e+00,3.000000000000e-02,1.000000000000e+00
73,-1.200000000000e+00,2.121320343560e-02,1.500000000000e+00
74,1.200000000000e+00,-2.121320343560e-02,5.000000000000e-01
75,1.200000000000e+00,-3.000000000000e-02,1.000000000000e+00
76,1.200000000000e+00,-2.121320343560e-02,1.500000000000e+00
77,-6.000000000000e-01,9.974544155877e+00,0.000000000000e+00
78,0.000000000000e+00,9.964000000000e+00,0.000000000000e+00
79,6.000000000000e-01,9.974544155877e+00,0.000000000000e+00
80,-6.000000000000e-01,1.002545584412e+01,2.000000000000e+00
81,0.000000000000e+00,1.003600000000e+01,2.000000000000e+00
82,6.000000000000e-01,1.002545584412e+01,2.000000000000e+00
83,-1.200000000000e+00,1.002121320344e+01,5.000000000000e-01
84,-1.200000000000e+00,1.003000000000e+01,1.000000000000e+00
85,-1.200000000000e+00,1.002121320344e+01,1.500000000000e+00
86,1.200000000000e+00,9.978786796564e+00,5.000000000000e-01
87,1.200000000000e+00,9.970000000000e+00,1.000000000000e+00
88,1.200000000000e+00,9.978786796564e+00,1.500000000000e+00
89,0.000000000000e+00,1.996400000000e+01,0.000000000000e+00
90,0.000000000000e+00,2.003600000000e+01,2.000000000000e+00
91,-1.200000000000e+00,2.003000000000e+01,1.000000000000e+00
92,1.200000000000e+00,1.997000000000e+01,1.000000000000e+00
93,-9.000000000000e-01,2.998622339643e+01,0.000000000000e+00
94,-6.000000000000e-01,2.997454415588e+01,0.000000000000e+00
95,-3.000000000000e-01,2.996674033683e+01,0.000000000000e+00
96,0.000000000000e+00,2.996400000000e+01,0.000000000000e+00
97,3.000000000000e-01,2.996674033683e+01,0.000000000000e+00
98,6.000000000000e-01,2.997454415588e+01,0.000000000000e+00
99,9.000000000000e-01,2.998622339643e+01,0.000000000000e+00
100,-9.000000000000e-01,3.001377660357e+01,2.000000000000e+00
101,-6.000000000000e-01,3.002545584412e+01,2.000000000000e+00
102,-3.000000000000e-01,3.003325966317e+01,2.000000000000e+00
103,0.000000000000e+00,3.003600000000e+01,2.000000000000e+00
104,3.000000000000e-01,3.003325966317e+01,2.000000000000e+00
105,6.000000000000e-01,3.002545584412e+01,2.000000000000e+00
106,9.000000000000e-01,3.001377660357e+01,2.000000000000e+00
107,-1.200000000000e+00,3.001148050297e+01,2.500000000000e-01
108,-1.200000000000e+00,3.002121320344e+01,5.000000000000e-01
109,-1.200000000000e+00,3.002771638598e+01,7.500000000000e-01
110,-1.200000000000e+00,3.003000000000e+01,1.000000000000e+00
111,-1.200000000000e+00,3.002771638598e+01,1.250000000000e+00
112,-1.200000000000e+00,3.002121320344e+01,1.500000000000e+00
113,-1.200000000000e+00,3.001148050297e+01,1.750000000000e+00
114,1.200000000000e+00,2.998851949703e+01,2.500000000000e-01
115,1.200000000000e+00,2.997878679656e+01,5.000000000000e-01
116,1.200000000000e+00,2.997228361402e+01,7.500000000000e-01
117,1.200000000000e+00,2.997000000000e+01,1.000000000000e+00
118,1.200000000000e+00,2.997228361402e+01,1.250000000000e+00
119,1.200000000000e+00,2.997878679656e+01,1.500000000000e+00
120,1.200000000000e+00,2.998851949703e+01,1.750000000000e+00
121,0.000000000000e+00,3.996400000000e+01,0.000000000000e+00
122,0.000000000000e+00,4.003600000000e+01,2.000000000000e+00
123,-1.200000000000e+00,4.003000000000e+01,1.000000000000e+00
124,1.200000000000e+00,3.997000000000e+01,1.000000000000e+00
125,-6.000000000000e-01,4.997454415588e+01,0.000000000000e+00
126,0.000000000000e+00,4.996400000000e+01,0.000000000000e+00
127,6.000000000000e-01,4.997454415588e+01,0.000000000000e+00
128,-6.000000000000e-01,5.002545584412e+01,2.000000000000e+00
129,0.000000000000e+00,5.003600000000e+01,2.000000000000e+00
130,6.000000000000e-01,5.002545584412e+01,2.000000000000e+00
131,-1.200000000000e+00,5.002121320344e+01,5.000000000000e-01
132,-1.200000000000e+00,5.003000000000e+01,1.000000000000e+00
133,-1.200000000000e+00,5.002121320344e+01,1.500000000000e+00
134,1.200000000000e+00,4.997878679656e+01,5.000000000000e-01
135,1.200000000000e+00,4.997000000000e+01,1.000000000000e+00
136,1.200000000000e+00,4.997878679656e+01,1.500000000000e+00
137,-1.200000000000e+00,1.261480502971e+00,1.925974851452e-01
138,-1.200000000000e+00,2.521213203436e+00,3.939339828220e-01
139,-1.200000000000e+00,3.777716385975e+00,6.114180701233e-01
140,-1.200000000000e+00,5.030000000000e+00,8.500000000000e-01
141,-1.200000000000e+00,6.277716385975e+00,1.111418070123e+00
142,-1.200000000000e+00,7.521213203436e+00,1.393933982822e+00
143,-1.200000000000e+00,8.761480502971e+00,1.692597485145e+00
144,-1.200000000000e+00,1.261480502971e+00,1.807402514855e+00
145,-1.200000000000e+00,2.521213203436e+00,1.606066017178e+00
146,-1.200000000000e+00,3.777716385975e+00,1.388581929877e+00
147,-1.200000000000e+00,5.030000000000e+00,1.150000000000e+00
148,-1.200000000000e+00,6.277716385975e+00,8.885819298767e-01
149,-1.200000000000e+00,7.521213203436e+00,6.060660171780e-01
150,-1.200000000000e+00,8.761480502971e+00,3.074025148548e-01
151,1.200000000000e+00,1.261480502971e+00,1.925974851452e-01
152,1.200000000000e+00,2.521213203436e+00,3.939339828220e-01
153,1.200000000000e+00,3.777716385975e+00,6.114180701233e-01
154,1.200000000000e+00,5.030000000000e+00,8.500000000000e-01
155,1.200000000000e+00,6.277716385975e+00,1.111418070123e+00
156,1.200000000000e+00,7.521213203436e+00,1.393933982822e+00
157,1.200000000000e+00,8.761480502971e+00,1.692597485145e+00
158,1.200000000000e+00,1.261480502971e+00,1.807402514855e+00
159,1.200000000000e+00,2.521213203436e+00,1.606066017178e+00
160,1.200000000000e+00,3.777716385975e+00,1.388581929877e+00
161,1.200000000000e+00,5.030000000000e+00,1.150000000000e+00
162,1.200000000000e+00,6.277716385975e+00,8.885819298767e-01
163,1.200000000000e+00,7.521213203436e+00,6.060660171780e-01
164,1.200000000000e+00,8.761480502971e+00,3.074025148548e-01
165,-8.425974851452e-01,1.236223396435e+00,0.000000000000e+00
166,-4.939339828220e-01,2.474544155877e+00,0.000000000000e+00
167,-1.614180701233e-01,3.716740336830e+00,0.000000000000e+00
168,1.500000000000e-01,4.964000000000e+00,0.000000000000e+00
169,4.385819298767e-01,6.216740336830e+00,0.000000000000e+00
170,7.060660171780e-01,7.474544155877e+00,0.000000000000e+00
171,9.574025148548e-01,8.736223396435e+00,0.000000000000e+00
172,8.425974851452e-01,1.236223396435e+00,0.000000000000e+00
173,4.939339828220e-01,2.474544155877e+00,0.000000000000e+00
174,1.614180701233e-01,3.716740336830e+00,0.000000000000e+00
175,-1.500000000000e-01,4.964000000000e+00,0.000000000000e+00
176,-4.385819298767e-01,6.216740336830e+00,0.000000000000e+00
177,-7.060660171780e-01,7.474544155877e+00,0.000000000000e+00
178,-9.574025148548e-01,8.736223396435e+00,0.000000000000e+00
179,-8.425974851452e-01,1.236223396435e+00,2.000000000000e+00
180,-4.939339828220e-01,2.474544155877e+00,2.000000000000e+00
181,-1.614180701233e-01,3.716740336830e+00,2.000000000000e+00
182,1.500000000000e-01,4.964000000000e+00,2.000000000000e+00
183,4.385819298767e-01,6.216740336830e+00,2.000000000000e+00
184,7.060660171780e-01,7.474544155877e+00,2.000000000000e+00
185,9.574025148548e-01,8.736223396435e+00,2.000000000000e+00
186,8.425974851452e-01,1.236223396435e+00,2.000000000000e+00
187,4.939339828220e-01,2.474544155877e+00,2.000000000000e+00
188,1.614180701233e-01,3.716740336830e+00,2.000000000000e+00
189,-1.500000000000e-01,4.964000000000e+00,2.000000000000e+00
190,-4.385819298767e-01,6.216740336830e+00,2.000000000000e+00
191,-7.060660171780e-01,7.474544155877e+00,2.000000000000e+00
192,-9.574025148548e-01,8.736223396435e+00,2.000000000000e+00
193,-1.200000000000e+00,1.503000000000e+01,8.500000000000e-01
194,-1.200000000000e+00,1.503000000000e+01,1.150000000000e+00
195,1.200000000000e+00,1.503000000000e+01,8.500000000000e-01
196,1.200000000000e+00,1.503000000000e+01,1.150000000000e+00
197,1.500000000000e-01,1.496400000000e+01,0.000000000000e+00
198,-1.500000000000e-01,1.496400000000e+01,0.000000000000e+00
199,1.500000000000e-01,1.496400000000e+01,2.000000000000e+00
200,-1.500000000000e-01,1.496400000000e+01,2.000000000000e+00
201,-1.200000000000e+00,2.503000000000e+01,8.500000000000e-01
202,-1.200000000000e+00,2.503000000000e+01,1.150000000000e+00
203,1.200000000000e+00,2.503000000000e+01,8.500000000000e-01
204,1.200000000000e+00,2.503000000000e+01,1.150000000000e+00
205,1.500000000000e-01,2.496400000000e+01,0.000000000000e+00
206,-1.500000000000e-01,2.496400000000e+01,0.000000000000e+00
207,1.500000000000e-01,2.496400000000e+01,2.000000000000e+00
208,-1.500000000000e-01,2.496400000000e+01,2.000000000000e+00
209,-1.200000000000e+00,3.252121320344e+01,3.939339828220e-01
210,-1.200000000000e+00,3.503000000000e+01,8.500000000000e-01
211,-1.200000000000e+00,3.752121320344e+01,1.393933982822e+00
212,-1.200000000000e+00,3.252121320344e+01,1.606066017178e+00
213,-1.200000000000e+00,3.503000000000e+01,1.150000000000e+00
214,-1.200000000000e+00,3.752121320344e+01,6.060660171780e-01
215,1.200000000000e+00,3.252121320344e+01,3.939339828220e-01
216,1.200000000000e+00,3.503000000000e+01,8.500000000000e-01
217,1.200000000000e+00,3.752121320344e+01,1.393933982822e+00
218,1.200000000000e+00,3.252121320344e+01,1.606066017178e+00
219,1.200000000000e+00,3.503000000000e+01,1.150000000000e+00
220,1.200000000000e+00,3.752121320344e+01,6.060660171780e-01
221,-4.939339828220e-01,3.247454415588e+01,0.000000000000e+00
222,1.500000000000e-01,3.496400000000e+01,0.000000000000e+00
223,7.060660171780e-01,3.747454415588e+01,0.000000000000e+00
224,4.939339828220e-01,3.247454415588e+01,0.000000000000e+00
225,-1.500000000000e-01,3.496400000000e+01,0.000000000000e+00
226,-7.060660171780e-01,3.747454415588e+01,0.000000000000e+00
227,-4.939339828220e-01,3.247454415588e+01,2.000000000000e+00
228,1.500000000000e-01,3.496400000000e+01,2.000000000000e+00
229,7.060660171780e-01,3.747454415588e+01,2.000000000000e+00
230,4.939339828220e-01,3.247454415588e+01,2.000000000000e+00
231,-1.500000000000e-01,3.496400000000e+01,2.000000000000e+00
232,-7.060660171780e-01,3.747454415588e+01,2.000000000000e+00
*ELEMENT,TYPE=B31,ELSET=ALL
1,1,25
2,25,26
3,26,27
4,27,5
5,2,28
6,28,29
7,29,30
8,30,6
9,3,31
10,31,32
11,32,33
12,33,7
13,4,34
14,34,35
15,35,36
16,36,8
17,5,37
18,37,9
19,6,38
20,38,10
21,7,39
22,39,11
23,8,40
24,40,12
25,9,13
26,10,14
27,11,15
28,12,16
29,13,41
30,41,42
31,42,43
32,43,17
33,14,44
34,44,45
35,45,46
36,46,18
37,15,47
38,47,48
39,48,49
40,49,19
41,16,50
42,50,51
43,51,52
44,52,20
45,17,53
46,53,54
47,54,55
48,55,21
49,18,56
50,56,57
51,57,58
52,58,22
53,19,59
54,59,60
55,60,61
56,61,23
57,20,62
58,62,63
59,63,64
60,64,24
61,1,65
62,65,66
63,66,67
64,67,2
65,3,68
66,68,69
67,69,70
68,70,4
69,1,71
70,71,72
71,72,73
72,73,3
73,2,74
74,74,75
75,75,76
76,76,4
77,5,77
78,77,78
79,78,79
80,79,6
81,7,80
82,80,81
83,81,82
84,82,8
85,5,83
86,83,84
87,84,85
88,85,7
89,6,86
90,86,87
91,87,88
92,88,8
93,9,89
94,89,10
95,11,90
96,90,12
97,9,91
98,91,11
99,10,92
100,92,12
101,13,93
102,93,94
103,94,95
104,95,96
105,96,97
106,97,98
107,98,99
108,99,14
109,15,100
110,100,101
111,101,102
112,102,103
113,103,104
114,104,105
115,105,106
116,106,16
117,13,107
118,107,108
119,108,109
120,109,110
121,110,111
122,111,112
123,112,113
124,113,15
125,14,114
126,114,115
127,115,116
128,116,117
129,117,118
130,118,119
131,119,120
132,120,16
133,17,121
134,121,18
135,19,122
136,122,20
137,17,123
138,123,19
139,18,124
140,124,20
141,21,125
142,125,126
143,126,127
144,127,22
145,23,128
146,128,129
147,129,130
148,130,24
149,21,131
150,131,132
151,132,133
152,133,23
153,22,134
154,134,135
155,135,136
156,136,24
157,1,137
158,137,138
159,138,139
160,139,140
161,140,141
162,141,142
163,142,143
164,143,7
165,3,144
166,144,145
167,145,146
168,146,147
169,147,148
170,148,149
171,149,150
172,150,5
173,2,151
174,151,152
175,152,153
176,153,154
177,154,155
178,155,156
179,156,157
180,157,8
181,4,158
182,158,159
183,159,160
184,160,161
185,161,162
186,162,163
187,163,164
188,164,6
189,1,165
190,165,166
191,166,167
192,167,168
193,168,169
194,169,170
195,170,171
196,171,6
197,2,172
198,172,173
199,173,174
200,174,175
201,175,176
202,176,177
203,177,178
204,178,5
205,3,179
206,179,180
207,180,181
208,181,182
209,182,183
210,183,184
211,184,185
212,185,8
213,4,186
214,186,187
215,187,188
216,188,189
217,189,190
218,190,191
219,191,192
220,192,7
221,5,193
222,193,11
223,7,194
224,194,9
225,6,195
226,195,12
227,8,196
228,196,10
229,5,197
230,197,10
231,6,198
232,198,9
233,7,199
234,199,12
235,8,200
236,200,11
237,9,201
238,201,15
239,11,202
240,202,13
241,10,203
242,203,16
243,12,204
244,204,14
245,9,205
246,205,14
247,10,206
248,206,13
249,11,207
250,207,16
251,12,208
252,208,15
253,13,209
254,209,210
255,210,211
256,211,19
257,15,212
258,212,213
259,213,214
260,214,17
261,14,215
262,215,216
263,216,217
264,217,20
265,16,218
266,218,219
267,219,220
268,220,18
269,13,221
270,221,222
271,222,223
272,223,18
273,14,224
274,224,225
275,225,226
276,226,17
277,15,227
278,227,228
279,228,229
280,229,20
281,16,230
282,230,231
283,231,232
284,232,19
285,17,23
286,19,21
287,18,24
288,20,22
289,17,22
290,18,21
291,19,24
292,20,23
*NSET,NSET=NALL,GENERATE
1,232,1
*NSET,NSET=LEFT
1,2,3,4
*NSET,NSET=RIGHT
21,22,23,24
*MATERIAL,NAME=STEEL
*ELASTIC
2.100000000000e+11,0.300000000000
*BEAM SECTION,ELSET=ALL,MATERIAL=STEEL,SECTION=RECT
6.000000000000e-02,4.000000000000e-02
0.371390676354,0.557086014531,0.742781352708
*BOUNDARY
LEFT,1,6,0.0
*STEP
*STATIC
*BOUNDARY
21,1,1,5.000000000000e-03
21,2,2,0.0
21,3,3,-6.000000000000e-03
*BOUNDARY
22,1,1,5.000000000000e-03
22,2,2,0.0
22,3,3,6.000000000000e-03
*BOUNDARY
23,1,1,-5.000000000000e-03
23,2,2,0.0
23,3,3,-6.000000000000e-03
*BOUNDARY
24,1,1,-5.000000000000e-03
24,2,2,0.0
24,3,3,6.000000000000e-03
*NODE FILE,NSET=NALL
U
*NODE PRINT,NSET=NALL
U
*NODE PRINT,NSET=RIGHT
RF
*EL PRINT,ELSET=ALL,TOTALS=YES
ELSE
*END STEP
