*HEADING
Normalized cross-passage space-truss torsion benchmark
*NODE
1,-1.200000000000e+00,0.000000000000e+00,0.000000000000e+00
2,1.200000000000e+00,0.000000000000e+00,0.000000000000e+00
3,-1.200000000000e+00,0.000000000000e+00,2.000000000000e+00
4,1.200000000000e+00,0.000000000000e+00,2.000000000000e+00
5,-1.200000000000e+00,1.000000000000e+01,0.000000000000e+00
6,1.200000000000e+00,1.000000000000e+01,0.000000000000e+00
7,-1.200000000000e+00,1.000000000000e+01,2.000000000000e+00
8,1.200000000000e+00,1.000000000000e+01,2.000000000000e+00
9,-1.200000000000e+00,2.000000000000e+01,0.000000000000e+00
10,1.200000000000e+00,2.000000000000e+01,0.000000000000e+00
11,-1.200000000000e+00,2.000000000000e+01,2.000000000000e+00
12,1.200000000000e+00,2.000000000000e+01,2.000000000000e+00
13,-1.200000000000e+00,3.000000000000e+01,0.000000000000e+00
14,1.200000000000e+00,3.000000000000e+01,0.000000000000e+00
15,-1.200000000000e+00,3.000000000000e+01,2.000000000000e+00
16,1.200000000000e+00,3.000000000000e+01,2.000000000000e+00
17,-1.200000000000e+00,4.000000000000e+01,0.000000000000e+00
18,1.200000000000e+00,4.000000000000e+01,0.000000000000e+00
19,-1.200000000000e+00,4.000000000000e+01,2.000000000000e+00
20,1.200000000000e+00,4.000000000000e+01,2.000000000000e+00
21,-1.200000000000e+00,5.000000000000e+01,0.000000000000e+00
22,1.200000000000e+00,5.000000000000e+01,0.000000000000e+00
23,-1.200000000000e+00,5.000000000000e+01,2.000000000000e+00
24,1.200000000000e+00,5.000000000000e+01,2.000000000000e+00
25,-1.200000000000e+00,5.000000000000e+00,-1.500000000000e-01
26,1.200000000000e+00,5.000000000000e+00,1.500000000000e-01
27,-1.200000000000e+00,5.000000000000e+00,1.850000000000e+00
28,1.200000000000e+00,5.000000000000e+00,2.150000000000e+00
29,-1.200000000000e+00,1.500000000000e+01,-1.500000000000e-01
30,1.200000000000e+00,1.500000000000e+01,1.500000000000e-01
31,-1.200000000000e+00,1.500000000000e+01,1.850000000000e+00
32,1.200000000000e+00,1.500000000000e+01,2.150000000000e+00
33,-1.200000000000e+00,3.500000000000e+01,-1.500000000000e-01
34,1.200000000000e+00,3.500000000000e+01,1.500000000000e-01
35,-1.200000000000e+00,3.500000000000e+01,1.850000000000e+00
36,1.200000000000e+00,3.500000000000e+01,2.150000000000e+00
37,-1.200000000000e+00,4.250000000000e+01,-1.060660171780e-01
38,-1.200000000000e+00,4.500000000000e+01,-1.500000000000e-01
39,-1.200000000000e+00,4.750000000000e+01,-1.060660171780e-01
40,1.200000000000e+00,4.250000000000e+01,1.060660171780e-01
41,1.200000000000e+00,4.500000000000e+01,1.500000000000e-01
42,1.200000000000e+00,4.750000000000e+01,1.060660171780e-01
43,-1.200000000000e+00,4.250000000000e+01,1.893933982822e+00
44,-1.200000000000e+00,4.500000000000e+01,1.850000000000e+00
45,-1.200000000000e+00,4.750000000000e+01,1.893933982822e+00
46,1.200000000000e+00,4.250000000000e+01,2.106066017178e+00
47,1.200000000000e+00,4.500000000000e+01,2.150000000000e+00
48,1.200000000000e+00,4.750000000000e+01,2.106066017178e+00
49,0.000000000000e+00,9.964000000000e+00,0.000000000000e+00
50,0.000000000000e+00,1.003600000000e+01,2.000000000000e+00
51,-1.200000000000e+00,1.003000000000e+01,1.000000000000e+00
52,1.200000000000e+00,9.970000000000e+00,1.000000000000e+00
53,-6.000000000000e-01,2.997454415588e+01,0.000000000000e+00
54,0.000000000000e+00,2.996400000000e+01,0.000000000000e+00
55,6.000000000000e-01,2.997454415588e+01,0.000000000000e+00
56,-6.000000000000e-01,3.002545584412e+01,2.000000000000e+00
57,0.000000000000e+00,3.003600000000e+01,2.000000000000e+00
58,6.000000000000e-01,3.002545584412e+01,2.000000000000e+00
59,-1.200000000000e+00,3.002121320344e+01,5.000000000000e-01
60,-1.200000000000e+00,3.003000000000e+01,1.000000000000e+00
61,-1.200000000000e+00,3.002121320344e+01,1.500000000000e+00
62,1.200000000000e+00,2.997878679656e+01,5.000000000000e-01
63,1.200000000000e+00,2.997000000000e+01,1.000000000000e+00
64,1.200000000000e+00,2.997878679656e+01,1.500000000000e+00
65,-1.200000000000e+00,1.261480502971e+00,1.925974851452e-01
66,-1.200000000000e+00,2.521213203436e+00,3.939339828220e-01
67,-1.200000000000e+00,3.777716385975e+00,6.114180701233e-01
68,-1.200000000000e+00,5.030000000000e+00,8.500000000000e-01
69,-1.200000000000e+00,6.277716385975e+00,1.111418070123e+00
70,-1.200000000000e+00,7.521213203436e+00,1.393933982822e+00
71,-1.200000000000e+00,8.761480502971e+00,1.692597485145e+00
72,-1.200000000000e+00,1.261480502971e+00,1.807402514855e+00
73,-1.200000000000e+00,2.521213203436e+00,1.606066017178e+00
74,-1.200000000000e+00,3.777716385975e+00,1.388581929877e+00
75,-1.200000000000e+00,5.030000000000e+00,1.150000000000e+00
76,-1.200000000000e+00,6.277716385975e+00,8.885819298767e-01
77,-1.200000000000e+00,7.521213203436e+00,6.060660171780e-01
78,-1.200000000000e+00,8.761480502971e+00,3.074025148548e-01
79,1.200000000000e+00,1.261480502971e+00,1.925974851452e-01
80,1.200000000000e+00,2.521213203436e+00,3.939339828220e-01
81,1.200000000000e+00,3.777716385975e+00,6.114180701233e-01
82,1.200000000000e+00,5.030000000000e+00,8.500000000000e-01
83,1.200000000000e+00,6.277716385975e+00,1.111418070123e+00
84,1.200000000000e+00,7.521213203436e+00,1.393933982822e+00
85,1.200000000000e+00,8.761480502971e+00,1.692597485145e+00
86,1.200000000000e+00,1.261480502971e+00,1.807402514855e+00
87,1.200000000000e+00,2.521213203436e+00,1.606066017178e+00
88,1.200000000000e+00,3.777716385975e+00,1.388581929877e+00
89,1.200000000000e+00,5.030000000000e+00,1.150000000000e+00
90,1.200000000000e+00,6.277716385975e+00,8.885819298767e-01
91,1.200000000000e+00,7.521213203436e+00,6.060660171780e-01
92,1.200000000000e+00,8.761480502971e+00,3.074025148548e-01
93,-8.425974851452e-01,1.236223396435e+00,0.000000000000e+00
94,-4.939339828220e-01,2.474544155877e+00,0.000000000000e+00
95,-1.614180701233e-01,3.716740336830e+00,0.000000000000e+00
96,1.500000000000e-01,4.964000000000e+00,0.000000000000e+00
97,4.385819298767e-01,6.216740336830e+00,0.000000000000e+00
98,7.060660171780e-01,7.474544155877e+00,0.000000000000e+00
99,9.574025148548e-01,8.736223396435e+00,0.000000000000e+00
100,8.425974851452e-01,1.236223396435e+00,0.000000000000e+00
101,4.939339828220e-01,2.474544155877e+00,0.000000000000e+00
102,1.614180701233e-01,3.716740336830e+00,0.000000000000e+00
103,-1.500000000000e-01,4.964000000000e+00,0.000000000000e+00
104,-4.385819298767e-01,6.216740336830e+00,0.000000000000e+00
105,-7.060660171780e-01,7.474544155877e+00,0.000000000000e+00
106,-9.574025148548e-01,8.736223396435e+00,0.000000000000e+00
107,-8.425974851452e-01,1.236223396435e+00,2.000000000000e+00
108,-4.939339828220e-01,2.474544155877e+00,2.000000000000e+00
109,-1.614180701233e-01,3.716740336830e+00,2.000000000000e+00
110,1.500000000000e-01,4.964000000000e+00,2.000000000000e+00
111,4.385819298767e-01,6.216740336830e+00,2.000000000000e+00
112,7.060660171780e-01,7.474544155877e+00,2.000000000000e+00
113,9.574025148548e-01,8.736223396435e+00,2.000000000000e+00
114,8.425974851452e-01,1.236223396435e+00,2.000000000000e+00
115,4.939339828220e-01,2.474544155877e+00,2.000000000000e+00
116,1.614180701233e-01,3.716740336830e+00,2.000000000000e+00
117,-1.500000000000e-01,4.964000000000e+00,2.000000000000e+00
118,-4.385819298767e-01,6.216740336830e+00,2.000000000000e+00
119,-7.060660171780e-01,7.474544155877e+00,2.000000000000e+00
120,-9.574025148548e-01,8.736223396435e+00,2.000000000000e+00
121,-1.200000000000e+00,2.252121320344e+01,3.939339828220e-01
122,-1.200000000000e+00,2.503000000000e+01,8.500000000000e-01
123,-1.200000000000e+00,2.752121320344e+01,1.393933982822e+00
124,-1.200000000000e+00,2.252121320344e+01,1.606066017178e+00
125,-1.200000000000e+00,2.503000000000e+01,1.150000000000e+00
126,-1.200000000000e+00,2.752121320344e+01,6.060660171780e-01
127,1.200000000000e+00,2.252121320344e+01,3.939339828220e-01
128,1.200000000000e+00,2.503000000000e+01,8.500000000000e-01
129,1.200000000000e+00,2.752121320344e+01,1.393933982822e+00
130,1.200000000000e+00,2.252121320344e+01,1.606066017178e+00
131,1.200000000000e+00,2.503000000000e+01,1.150000000000e+00
132,1.200000000000e+00,2.752121320344e+01,6.060660171780e-01
133,-4.939339828220e-01,2.247454415588e+01,0.000000000000e+00
134,1.500000000000e-01,2.496400000000e+01,0.000000000000e+00
135,7.060660171780e-01,2.747454415588e+01,0.000000000000e+00
136,4.939339828220e-01,2.247454415588e+01,0.000000000000e+00
137,-1.500000000000e-01,2.496400000000e+01,0.000000000000e+00
138,-7.060660171780e-01,2.747454415588e+01,0.000000000000e+00
139,-4.939339828220e-01,2.247454415588e+01,2.000000000000e+00
140,1.500000000000e-01,2.496400000000e+01,2.000000000000e+00
141,7.060660171780e-01,2.747454415588e+01,2.000000000000e+00
142,4.939339828220e-01,2.247454415588e+01,2.000000000000e+00
143,-1.500000000000e-01,2.496400000000e+01,2.000000000000e+00
144,-7.060660171780e-01,2.747454415588e+01,2.000000000000e+00
145,-1.200000000000e+00,3.126148050297e+01,1.925974851452e-01
146,-1.200000000000e+00,3.252121320344e+01,3.939339828220e-01
147,-1.200000000000e+00,3.377771638598e+01,6.114180701233e-01
148,-1.200000000000e+00,3.503000000000e+01,8.500000000000e-01
149,-1.200000000000e+00,3.627771638598e+01,1.111418070123e+00
150,-1.200000000000e+00,3.752121320344e+01,1.393933982822e+00
151,-1.200000000000e+00,3.876148050297e+01,1.692597485145e+00
152,-1.200000000000e+00,3.126148050297e+01,1.807402514855e+00
153,-1.200000000000e+00,3.252121320344e+01,1.606066017178e+00
154,-1.200000000000e+00,3.377771638598e+01,1.388581929877e+00
155,-1.200000000000e+00,3.503000000000e+01,1.150000000000e+00
156,-1.200000000000e+00,3.627771638598e+01,8.885819298767e-01
157,-1.200000000000e+00,3.752121320344e+01,6.060660171780e-01
158,-1.200000000000e+00,3.876148050297e+01,3.074025148548e-01
159,1.200000000000e+00,3.126148050297e+01,1.925974851452e-01
160,1.200000000000e+00,3.252121320344e+01,3.939339828220e-01
161,1.200000000000e+00,3.377771638598e+01,6.114180701233e-01
162,1.200000000000e+00,3.503000000000e+01,8.500000000000e-01
163,1.200000000000e+00,3.627771638598e+01,1.111418070123e+00
164,1.200000000000e+00,3.752121320344e+01,1.393933982822e+00
165,1.200000000000e+00,3.876148050297e+01,1.692597485145e+00
166,1.200000000000e+00,3.126148050297e+01,1.807402514855e+00
167,1.200000000000e+00,3.252121320344e+01,1.606066017178e+00
168,1.200000000000e+00,3.377771638598e+01,1.388581929877e+00
169,1.200000000000e+00,3.503000000000e+01,1.150000000000e+00
170,1.200000000000e+00,3.627771638598e+01,8.885819298767e-01
171,1.200000000000e+00,3.752121320344e+01,6.060660171780e-01
172,1.200000000000e+00,3.876148050297e+01,3.074025148548e-01
173,-8.425974851452e-01,3.123622339643e+01,0.000000000000e+00
174,-4.939339828220e-01,3.247454415588e+01,0.000000000000e+00
175,-1.614180701233e-01,3.371674033683e+01,0.000000000000e+00
176,1.500000000000e-01,3.496400000000e+01,0.000000000000e+00
177,4.385819298767e-01,3.621674033683e+01,0.000000000000e+00
178,7.060660171780e-01,3.747454415588e+01,0.000000000000e+00
179,9.574025148548e-01,3.873622339643e+01,0.000000000000e+00
180,8.425974851452e-01,3.123622339643e+01,0.000000000000e+00
181,4.939339828220e-01,3.247454415588e+01,0.000000000000e+00
182,1.614180701233e-01,3.371674033683e+01,0.000000000000e+00
183,-1.500000000000e-01,3.496400000000e+01,0.000000000000e+00
184,-4.385819298767e-01,3.621674033683e+01,0.000000000000e+00
185,-7.060660171780e-01,3.747454415588e+01,0.000000000000e+00
186,-9.574025148548e-01,3.873622339643e+01,0.000000000000e+00
187,-8.425974851452e-01,3.123622339643e+01,2.000000000000e+00
188,-4.939339828220e-01,3.247454415588e+01,2.000000000000e+00
189,-1.614180701233e-01,3.371674033683e+01,2.000000000000e+00
190,1.500000000000e-01,3.496400000000e+01,2.000000000000e+00
191,4.385819298767e-01,3.621674033683e+01,2.000000000000e+00
192,7.060660171780e-01,3.747454415588e+01,2.000000000000e+00
193,9.574025148548e-01,3.873622339643e+01,2.000000000000e+00
194,8.425974851452e-01,3.123622339643e+01,2.000000000000e+00
195,4.939339828220e-01,3.247454415588e+01,2.000000000000e+00
196,1.614180701233e-01,3.371674033683e+01,2.000000000000e+00
197,-1.500000000000e-01,3.496400000000e+01,2.000000000000e+00
198,-4.385819298767e-01,3.621674033683e+01,2.000000000000e+00
199,-7.060660171780e-01,3.747454415588e+01,2.000000000000e+00
200,-9.574025148548e-01,3.873622339643e+01,2.000000000000e+00
201,-1.200000000000e+00,4.126148050297e+01,1.925974851452e-01
202,-1.200000000000e+00,4.252121320344e+01,3.939339828220e-01
203,-1.200000000000e+00,4.377771638598e+01,6.114180701233e-01
204,-1.200000000000e+00,4.503000000000e+01,8.500000000000e-01
205,-1.200000000000e+00,4.627771638598e+01,1.111418070123e+00
206,-1.200000000000e+00,4.752121320344e+01,1.393933982822e+00
207,-1.200000000000e+00,4.876148050297e+01,1.692597485145e+00
208,-1.200000000000e+00,4.126148050297e+01,1.807402514855e+00
209,-1.200000000000e+00,4.252121320344e+01,1.606066017178e+00
210,-1.200000000000e+00,4.377771638598e+01,1.388581929877e+00
211,-1.200000000000e+00,4.503000000000e+01,1.150000000000e+00
212,-1.200000000000e+00,4.627771638598e+01,8.885819298767e-01
213,-1.200000000000e+00,4.752121320344e+01,6.060660171780e-01
214,-1.200000000000e+00,4.876148050297e+01,3.074025148548e-01
215,1.200000000000e+00,4.126148050297e+01,1.925974851452e-01
216,1.200000000000e+00,4.252121320344e+01,3.939339828220e-01
217,1.200000000000e+00,4.377771638598e+01,6.114180701233e-01
218,1.200000000000e+00,4.503000000000e+01,8.500000000000e-01
219,1.200000000000e+00,4.627771638598e+01,1.111418070123e+00
220,1.200000000000e+00,4.752121320344e+01,1.393933982822e+00
221,1.200000000000e+00,4.876148050297e+01,1.692597485145e+00
222,1.200000000000e+00,4.126148050297e+01,1.807402514855e+00
223,1.200000000000e+00,4.252121320344e+01,1.606066017178e+00
224,1.200000000000e+00,4.377771638598e+01,1.388581929877e+00
225,1.200000000000e+00,4.503000000000e+01,1.150000000000e+00
226,1.200000000000e+00,4.627771638598e+01,8.885819298767e-01
227,1.200000000000e+00,4.752121320344e+01,6.060660171780e-01
228,1.200000000000e+00,4.876148050297e+01,3.074025148548e-01
229,-8.425974851452e-01,4.123622339643e+01,0.000000000000e+00
230,-4.939339828220e-01,4.247454415588e+01,0.000000000000e+00
231,-1.614180701233e-01,4.371674033683e+01,0.000000000000e+00
232,1.500000000000e-01,4.496400000000e+01,0.000000000000e+00
233,4.385819298767e-01,4.621674033683e+01,0.000000000000e+00
234,7.060660171780e-01,4.747454415588e+01,0.000000000000e+00
235,9.574025148548e-01,4.873622339643e+01,0.000000000000e+00
236,8.425974851452e-01,4.123622339643e+01,0.000000000000e+00
237,4.939339828220e-01,4.247454415588e+01,0.000000000000e+00
238,1.614180701233e-01,4.371674033683e+01,0.000000000000e+00
239,-1.500000000000e-01,4.496400000000e+01,0.000000000000e+00
240,-4.385819298767e-01,4.621674033683e+01,0.000000000000e+00
241,-7.060660171780e-01,4.747454415588e+01,0.000000000000e+00
242,-9.574025148548e-01,4.873622339643e+01,0.000000000000e+00
243,-8.425974851452e-01,4.123622339643e+01,2.000000000000e+00
244,-4.939339828220e-01,4.247454415588e+01,2.000000000000e+00
245,-1.614180701233e-01,4.371674033683e+01,2.000000000000e+00
246,1.500000000000e-01,4.496400000000e+01,2.000000000000e+00
247,4.385819298767e-01,4.621674033683e+01,2.000000000000e+00
248,7.060660171780e-01,4.747454415588e+01,2.000000000000e+00
249,9.574025148548e-01,4.873622339643e+01,2.000000000000e+00
250,8.425974851452e-01,4.123622339643e+01,2.000000000000e+00
251,4.939339828220e-01,4.247454415588e+01,2.000000000000e+00
252,1.614180701233e-01,4.371674033683e+01,2.000000000000e+00
253,-1.500000000000e-01,4.496400000000e+01,2.000000000000e+00
254,-4.385819298767e-01,4.621674033683e+01,2.000000000000e+00
255,-7.060660171780e-01,4.747454415588e+01,2.000000000000e+00
256,-9.574025148548e-01,4.873622339643e+01,2.000000000000e+00
*ELEMENT,TYPE=B31,ELSET=ALL
1,1,25
2,25,5
3,2,26
4,26,6
5,3,27
6,27,7
7,4,28
8,28,8
9,5,29
10,29,9
11,6,30
12,30,10
13,7,31
14,31,11
15,8,32
16,32,12
17,9,13
18,10,14
19,11,15
20,12,16
21,13,33
22,33,17
23,14,34
24,34,18
25,15,35
26,35,19
27,16,36
28,36,20
29,17,37
30,37,38
31,38,39
32,39,21
33,18,40
34,40,41
35,41,42
36,42,22
37,19,43
38,43,44
39,44,45
40,45,23
41,20,46
42,46,47
43,47,48
44,48,24
45,1,2
46,3,4
47,1,3
48,2,4
49,5,49
50,49,6
51,7,50
52,50,8
53,5,51
54,51,7
55,6,52
56,52,8
57,9,10
58,11,12
59,9,11
60,10,12
61,13,53
62,53,54
63,54,55
64,55,14
65,15,56
66,56,57
67,57,58
68,58,16
69,13,59
70,59,60
71,60,61
72,61,15
73,14,62
74,62,63
75,63,64
76,64,16
77,17,18
78,19,20
79,17,19
80,18,20
81,21,22
82,23,24
83,21,23
84,22,24
85,1,65
86,65,66
87,66,67
88,67,68
89,68,69
90,69,70
91,70,71
92,71,7
93,3,72
94,72,73
95,73,74
96,74,75
97,75,76
98,76,77
99,77,78
100,78,5
101,2,79
102,79,80
103,80,81
104,81,82
105,82,83
106,83,84
107,84,85
108,85,8
109,4,86
110,86,87
111,87,88
112,88,89
113,89,90
114,90,91
115,91,92
116,92,6
117,1,93
118,93,94
119,94,95
120,95,96
121,96,97
122,97,98
123,98,99
124,99,6
125,2,100
126,100,101
127,101,102
128,102,103
129,103,104
130,104,105
131,105,106
132,106,5
133,3,107
134,107,108
135,108,109
136,109,110
137,110,111
138,111,112
139,112,113
140,113,8
141,4,114
142,114,115
143,115,116
144,116,117
145,117,118
146,118,119
147,119,120
148,120,7
149,5,11
150,7,9
151,6,12
152,8,10
153,5,10
154,6,9
155,7,12
156,8,11
157,9,121
158,121,122
159,122,123
160,123,15
161,11,124
162,124,125
163,125,126
164,126,13
165,10,127
166,127,128
167,128,129
168,129,16
169,12,130
170,130,131
171,131,132
172,132,14
173,9,133
174,133,134
175,134,135
176,135,14
177,10,136
178,136,137
179,137,138
180,138,13
181,11,139
182,139,140
183,140,141
184,141,16
185,12,142
186,142,143
187,143,144
188,144,15
189,13,145
190,145,146
191,146,147
192,147,148
193,148,149
194,149,150
195,150,151
196,151,19
197,15,152
198,152,153
199,153,154
200,154,155
201,155,156
202,156,157
203,157,158
204,158,17
205,14,159
206,159,160
207,160,161
208,161,162
209,162,163
210,163,164
211,164,165
212,165,20
213,16,166
214,166,167
215,167,168
216,168,169
217,169,170
218,170,171
219,171,172
220,172,18
221,13,173
222,173,174
223,174,175
224,175,176
225,176,177
226,177,178
227,178,179
228,179,18
229,14,180
230,180,181
231,181,182
232,182,183
233,183,184
234,184,185
235,185,186
236,186,17
237,15,187
238,187,188
239,188,189
240,189,190
241,190,191
242,191,192
243,192,193
244,193,20
245,16,194
246,194,195
247,195,196
248,196,197
249,197,198
250,198,199
251,199,200
252,200,19
253,17,201
254,201,202
255,202,203
256,203,204
257,204,205
258,205,206
259,206,207
260,207,23
261,19,208
262,208,209
263,209,210
264,210,211
265,211,212
266,212,213
267,213,214
268,214,21
269,18,215
270,215,216
271,216,217
272,217,218
273,218,219
274,219,220
275,220,221
276,221,24
277,20,222
278,222,223
279,223,224
280,224,225
281,225,226
282,226,227
283,227,228
284,228,22
285,17,229
286,229,230
287,230,231
288,231,232
289,232,233
290,233,234
291,234,235
292,235,22
293,18,236
294,236,237
295,237,238
296,238,239
297,239,240
298,240,241
299,241,242
300,242,21
301,19,243
302,243,244
303,244,245
304,245,246
305,246,247
306,247,248
307,248,249
308,249,24
309,20,250
310,250,251
311,251,252
312,252,253
313,253,254
314,254,255
315,255,256
316,256,23
*NSET,NSET=NALL,GENERATE
1,256,1
*NSET,NSET=LEFT
1,2,3,4
*NSET,NSET=RIGHT
21,22,23,24
*MATERIAL,NAME=STEEL
*ELASTIC
2.100000000000e+11,0.300000000000
*BEAM SECTION,ELSET=ALL,MATERIAL=STEEL,SECTION=RECT
6.000000000000e-02,4.000000000000e-02
0.371390676354,0.557086014531,0.742781352708
*BOUNDARY
LEFT,1,6,0.0
*STEP
*STATIC
*BOUNDARY
21,1,1,5.000000000000e-03
21,2,2,0.0
21,3,3,-6.000000000000e-03
*BOUNDARY
22,1,1,5.000000000000e-03
22,2,2,0.0
22,3,3,6.000000000000e-03
*BOUNDARY
23,1,1,-5.000000000000e-03
23,2,2,0.0
23,3,3,-6.000000000000e-03
*BOUNDARY
24,1,1,-5.000000000000e-03
24,2,2,0.0
24,3,3,6.000000000000e-03
*NODE FILE,NSET=NALL
U
*NODE PRINT,NSET=NALL
U
*NODE PRINT,NSET=RIGHT
RF
*EL PRINT,ELSET=ALL,TOTALS=YES
ELSE
*END STEP
