*HEADING
Normalized cross-passage space-truss torsion benchmark
*NODE
1,-1.200000000000e+00,0.000000000000e+00,0.000000000000e+00
2,1.200000000000e+00,0.000000000000e+00,0.000000000000e+00
3,-1.200000000000e+00,0.000000000000e+00,2.000000000000e+00
4,1.200000000000e+00,0.000000000000e+00,2.000000000000e+00
5,-1.200000000000e+00,1.000000000000e+01,0.000000000000e+00
6,1.200000000000e+00,1.000000000000e+01,0.000000000000e+00
7,-1.200000000000e+00,1.000000000000e+01,2.000000000000e+00
8,1.200000000000e+00,1.000000000000e+01,2.000000000000e+00
9,-1.200000000000e+00,2.000000000000e+01,0.000000000000e+00
10,1.200000000000e+00,2.000000000000e+01,0.000000000000e+00
11,-1.200000000000e+00,2.000000000000e+01,2.000000000000e+00
12,1.200000000000e+00,2.000000000000e+01,2.000000000000e+00
13,-1.200000000000e+00,3.000000000000e+01,0.000000000000e+00
14,1.200000000000e+00,3.000000000000e+01,0.000000000000e+00
15,-1.200000000000e+00,3.000000000000e+01,2.000000000000e+00
16,1.200000000000e+00,3.000000000000e+01,2.000000000000e+00
17,-1.200000000000e+00,4.000000000000e+01,0.000000000000e+00
18,1.200000000000e+00,4.000000000000e+01,0.000000000000e+00
19,-1.200000000000e+00,4.000000000000e+01,2.000000000000e+00
20,1.200000000000e+00,4.000000000000e+01,2.000000000000e+00
21,-1.200000000000e+00,5.000000000000e+01,0.000000000000e+00
22,1.200000000000e+00,5.000000000000e+01,0.000000000000e+00
23,-1.200000000000e+00,5.000000000000e+01,2.000000000000e+00
24,1.200000000000e+00,5.000000000000e+01,2.000000000000e+00
25,-1.200000000000e+00,1.500000000000e+01,-1.500000000000e-01
26,1.200000000000e+00,1.500000000000e+01,1.500000000000e-01
27,-1.200000000000e+00,1.500000000000e+01,1.850000000000e+00
28,1.200000000000e+00,1.500000000000e+01,2.150000000000e+00
29,-1.200000000000e+00,2.250000000000e+01,-1.060660171780e-01
30,-1.200000000000e+00,2.500000000000e+01,-1.500000000000e-01
31,-1.200000000000e+00,2.750000000000e+01,-1.060660171780e-01
32,1.200000000000e+00,2.250000000000e+01,1.060660171780e-01
33,1.200000000000e+00,2.500000000000e+01,1.500000000000e-01
34,1.200000000000e+00,2.750000000000e+01,1.060660171780e-01
35,-1.200000000000e+00,2.250000000000e+01,1.893933982822e+00
36,-1.200000000000e+00,2.500000000000e+01,1.850000000000e+00
37,-1.200000000000e+00,2.750000000000e+01,1.893933982822e+00
38,1.200000000000e+00,2.250000000000e+01,2.106066017178e+00
39,1.200000000000e+00,2.500000000000e+01,2.150000000000e+00
40,1.200000000000e+00,2.750000000000e+01,2.106066017178e+00
41,-1.200000000000e+00,3.500000000000e+01,-1.500000000000e-01
42,1.200000000000e+00,3.500000000000e+01,1.500000000000e-01
43,-1.200000000000e+00,3.500000000000e+01,1.850000000000e+00
44,1.200000000000e+00,3.500000000000e+01,2.150000000000e+00
45,-1.200000000000e+00,4.250000000000e+01,-1.060660171780e-01
46,-1.200000000000e+00,4.500000000000e+01,-1.500000000000e-01
47,-1.200000000000e+00,4.750000000000e+01,-1.060660171780e-01
48,1.200000000000e+00,4.250000000000e+01,1.060660171780e-01
49,1.200000000000e+00,4.500000000000e+01,1.500000000000e-01
50,1.200000000000e+00,4.750000000000e+01,1.060660171780e-01
51,-1.200000000000e+00,4.250000000000e+01,1.893933982822e+00
52,-1.200000000000e+00,4.500000000000e+01,1.850000000000e+00
53,-1.200000000000e+00,4.750000000000e+01,1.893933982822e+00
54,1.200000000000e+00,4.250000000000e+01,2.106066017178e+00
55,1.200000000000e+00,4.500000000000e+01,2.150000000000e+00
56,1.200000000000e+00,4.750000000000e+01,2.106066017178e+00
57,-6.000000000000e-01,-2.545584412272e-02,0.000000000000e+00
58,0.000000000000e+00,-3.600000000000e-02,0.000000000000e+00
59,6.000000000000e-01,-2.545584412272e-02,0.000000000000e+00
60,-6.000000000000e-01,2.545584412272e-02,2.000000000000e+00
61,0.000000000000e+00,3.600000000000e-02,2.000000000000e+00
62,6.000000000000e-01,2.545584412272e-02,2.000000000000e+00
63,-1.200000000000e+00,2.121320343560e-02,5.000000000000e-01
64,-1.200000000000e+00,3.000000000000e-02,1.000000000000e+00
65,-1.200000000000e+00,2.121320343560e-02,1.500000000000e+00
66,1.200000000000e+00,-2.121320343560e-02,5.000000000000e-01
67,1.200000000000e+00,-3.000000000000e-02,1.000000000000e+00
68,1.200000000000e+00,-2.121320343560e-02,1.500000000000e+00
69,-6.000000000000e-01,9.974544155877e+00,0.000000000000e+00
70,0.000000000000e+00,9.964000000000e+00,0.000000000000e+00
71,6.000000000000e-01,9.974544155877e+00,0.000000000000e+00
72,-6.000000000000e-01,1.002545584412e+01,2.000000000000e+00
73,0.000000000000e+00,1.003600000000e+01,2.000000000000e+00
74,6.000000000000e-01,1.002545584412e+01,2.000000000000e+00
75,-1.200000000000e+00,1.002121320344e+01,5.000000000000e-01
76,-1.200000000000e+00,1.003000000000e+01,1.000000000000e+00
77,-1.200000000000e+00,1.002121320344e+01,1.500000000000e+00
78,1.200000000000e+00,9.978786796564e+00,5.000000000000e-01
79,1.200000000000e+00,9.970000000000e+00,1.000000000000e+00
80,1.200000000000e+00,9.978786796564e+00,1.500000000000e+00
81,-6.000000000000e-01,1.997454415588e+01,0.000000000000e+00
82,0.000000000000e+00,1.996400000000e+01,0.000000000000e+00
83,6.000000000000e-01,1.997454415588e+01,0.000000000000e+00
84,-6.000000000000e-01,2.002545584412e+01,2.000000000000e+00
85,0.000000000000e+00,2.003600000000e+01,2.000000000000e+00
86,6.000000000000e-01,2.002545584412e+01,2.000000000000e+00
87,-1.200000000000e+00,2.002121320344e+01,5.000000000000e-01
88,-1.200000000000e+00,2.003000000000e+01,1.000000000000e+00
89,-1.200000000000e+00,2.002121320344e+01,1.500000000000e+00
90,1.200000000000e+00,1.997878679656e+01,5.000000000000e-01
91,1.200000000000e+00,1.997000000000e+01,1.000000000000e+00
92,1.200000000000e+00,1.997878679656e+01,1.500000000000e+00
93,-6.000000000000e-01,2.997454415588e+01,0.000000000000e+00
94,0.000000000000e+00,2.996400000000e+01,0.000000000000e+00
95,6.000000000000e-01,2.997454415588e+01,0.000000000000e+00
96,-6.000000000000e-01,3.002545584412e+01,2.000000000000e+00
97,0.000000000000e+00,3.003600000000e+01,2.000000000000e+00
98,6.000000000000e-01,3.002545584412e+01,2.000000000000e+00
99,-1.200000000000e+00,3.002121320344e+01,5.000000000000e-01
100,-1.200000000000e+00,3.003000000000e+01,1.000000000000e+00
101,-1.200000000000e+00,3.002121320344e+01,1.500000000000e+00
102,1.200000000000e+00,2.997878679656e+01,5.000000000000e-01
103,1.200000000000e+00,2.997000000000e+01,1.000000000000e+00
104,1.200000000000e+00,2.997878679656e+01,1.500000000000e+00
105,-6.000000000000e-01,3.997454415588e+01,0.000000000000e+00
106,0.000000000000e+00,3.996400000000e+01,0.000000000000e+00
107,6.000000000000e-01,3.997454415588e+01,0.000000000000e+00
108,-6.000000000000e-01,4.002545584412e+01,2.000000000000e+00
109,0.000000000000e+00,4.003600000000e+01,2.000000000000e+00
110,6.000000000000e-01,4.002545584412e+01,2.000000000000e+00
111,-1.200000000000e+00,4.002121320344e+01,5.000000000000e-01
112,-1.200000000000e+00,4.003000000000e+01,1.000000000000e+00
113,-1.200000000000e+00,4.002121320344e+01,1.500000000000e+00
114,1.200000000000e+00,3.997878679656e+01,5.000000000000e-01
115,1.200000000000e+00,3.997000000000e+01,1.000000000000e+00
116,1.200000000000e+00,3.997878679656e+01,1.500000000000e+00
117,0.000000000000e+00,4.996400000000e+01,0.000000000000e+00
118,0.000000000000e+00,5.003600000000e+01,2.000000000000e+00
119,-1.200000000000e+00,5.003000000000e+01,1.000000000000e+00
120,1.200000000000e+00,4.997000000000e+01,1.000000000000e+00
121,-1.200000000000e+00,5.030000000000e+00,8.500000000000e-01
122,-1.200000000000e+00,5.030000000000e+00,1.150000000000e+00
123,1.200000000000e+00,5.030000000000e+00,8.500000000000e-01
124,1.200000000000e+00,5.030000000000e+00,1.150000000000e+00
125,1.500000000000e-01,4.964000000000e+00,0.000000000000e+00
126,-1.500000000000e-01,4.964000000000e+00,0.000000000000e+00
127,1.500000000000e-01,4.964000000000e+00,2.000000000000e+00
128,-1.500000000000e-01,4.964000000000e+00,2.000000000000e+00
129,-1.200000000000e+00,1.252121320344e+01,3.939339828220e-01
130,-1.200000000000e+00,1.503000000000e+01,8.500000000000e-01
131,-1.200000000000e+00,1.752121320344e+01,1.393933982822e+00
132,-1.200000000000e+00,1.252121320344e+01,1.606066017178e+00
133,-1.200000000000e+00,1.503000000000e+01,1.150000000000e+00
134,-1.200000000000e+00,1.752121320344e+01,6.060660171780e-01
135,1.200000000000e+00,1.252121320344e+01,3.939339828220e-01
136,1.200000000000e+00,1.503000000000e+01,8.500000000000e-01
137,1.200000000000e+00,1.752121320344e+01,1.393933982822e+00
138,1.200000000000e+00,1.252121320344e+01,1.606066017178e+00
139,1.200000000000e+00,1.503000000000e+01,1.150000000000e+00
140,1.200000000000e+00,1.752121320344e+01,6.060660171780e-01
141,-4.939339828220e-01,1.247454415588e+01,0.000000000000e+00
142,1.500000000000e-01,1.496400000000e+01,0.000000000000e+00
143,7.060660171780e-01,1.747454415588e+01,0.000000000000e+00
144,4.939339828220e-01,1.247454415588e+01,0.000000000000e+00
145,-1.500000000000e-01,1.496400000000e+01,0.000000000000e+00
146,-7.060660171780e-01,1.747454415588e+01,0.000000000000e+00
147,-4.939339828220e-01,1.247454415588e+01,2.000000000000e+00
148,1.500000000000e-01,1.496400000000e+01,2.000000000000e+00
149,7.060660171780e-01,1.747454415588e+01,2.000000000000e+00
150,4.939339828220e-01,1.247454415588e+01,2.000000000000e+00
151,-1.500000000000e-01,1.496400000000e+01,2.000000000000e+00
152,-7.060660171780e-01,1.747454415588e+01,2.000000000000e+00
153,-1.200000000000e+00,2.252121320344e+01,3.939339828220e-01
154,-1.200000000000e+00,2.503000000000e+01,8.500000000000e-01
155,-1.200000000000e+00,2.752121320344e+01,1.393933982822e+00
156,-1.200000000000e+00,2.252121320344e+01,1.606066017178e+00
157,-1.200000000000e+00,2.503000000000e+01,1.150000000000e+00
158,-1.200000000000e+00,2.752121320344e+01,6.060660171780e-01
159,1.200000000000e+00,2.252121320344e+01,3.939339828220e-01
160,1.200000000000e+00,2.503000000000e+01,8.500000000000e-01
161,1.200000000000e+00,2.752121320344e+01,1.393933982822e+00
162,1.200000000000e+00,2.252121320344e+01,1.606066017178e+00
163,1.200000000000e+00,2.503000000000e+01,1.150000000000e+00
164,1.200000000000e+00,2.752121320344e+01,6.060660171780e-01
165,-4.939339828220e-01,2.247454415588e+01,0.000000000000e+00
166,1.500000000000e-01,2.496400000000e+01,0.000000000000e+00
167,7.060660171780e-01,2.747454415588e+01,0.000000000000e+00
168,4.939339828220e-01,2.247454415588e+01,0.000000000000e+00
169,-1.500000000000e-01,2.496400000000e+01,0.000000000000e+00
170,-7.060660171780e-01,2.747454415588e+01,0.000000000000e+00
171,-4.939339828220e-01,2.247454415588e+01,2.000000000000e+00
172,1.500000000000e-01,2.496400000000e+01,2.000000000000e+00
173,7.060660171780e-01,2.747454415588e+01,2.000000000000e+00
174,4.939339828220e-01,2.247454415588e+01,2.000000000000e+00
175,-1.500000000000e-01,2.496400000000e+01,2.000000000000e+00
176,-7.060660171780e-01,2.747454415588e+01,2.000000000000e+00
177,-1.200000000000e+00,3.252121320344e+01,3.939339828220e-01
178,-1.200000000000e+00,3.503000000000e+01,8.500000000000e-01
179,-1.200000000000e+00,3.752121320344e+01,1.393933982822e+00
180,-1.200000000000e+00,3.252121320344e+01,1.606066017178e+00
181,-1.200000000000e+00,3.503000000000e+01,1.150000000000e+00
182,-1.200000000000e+00,3.752121320344e+01,6.060660171780e-01
183,1.200000000000e+00,3.252121320344e+01,3.939339828220e-01
184,1.200000000000e+00,3.503000000000e+01,8.500000000000e-01
185,1.200000000000e+00,3.752121320344e+01,1.393933982822e+00
186,1.200000000000e+00,3.252121320344e+01,1.606066017178e+00
187,1.200000000000e+00,3.503000000000e+01,1.150000000000e+00
188,1.200000000000e+00,3.752121320344e+01,6.060660171780e-01
189,-4.939339828220e-01,3.247454415588e+01,0.000000000000e+00
190,1.500000000000e-01,3.496400000000e+01,0.000000000000e+00
191,7.060660171780e-01,3.747454415588e+01,0.000000000000e+00
192,4.939339828220e-01,3.247454415588e+01,0.000000000000e+00
193,-1.500000000000e-01,3.496400000000e+01,0.000000000000e+00
194,-7.060660171780e-01,3.747454415588e+01,0.000000000000e+00
195,-4.939339828220e-01,3.247454415588e+01,2.000000000000e+00
196,1.500000000000e-01,3.496400000000e+01,2.000000000000e+00
197,7.060660171780e-01,3.747454415588e+01,2.000000000000e+00
198,4.939339828220e-01,3.247454415588e+01,2.000000000000e+00
199,-1.500000000000e-01,3.496400000000e+01,2.000000000000e+00
200,-7.060660171780e-01,3.747454415588e+01,2.000000000000e+00
201,-1.200000000000e+00,4.503000000000e+01,8.500000000000e-01
202,-1.200000000000e+00,4.503000000000e+01,1.150000000000e+00
203,1.200000000000e+00,4.503000000000e+01,8.500000000000e-01
204,1.200000000000e+00,4.503000000000e+01,1.150000000000e+00
205,1.500000000000e-01,4.496400000000e+01,0.000000000000e+00
206,-1.500000000000e-01,4.496400000000e+01,0.000000000000e+00
207,1.500000000000e-01,4.496400000000e+01,2.000000000000e+00
208,-1.500000000000e-01,4.496400000000e+01,2.000000000000e+00
*ELEMENT,TYPE=B31,ELSET=ALL
1,1,5
2,2,6
3,3,7
4,4,8
5,5,25
6,25,9
7,6,26
8,26,10
9,7,27
10,27,11
11,8,28
12,28,12
13,9,29
14,29,30
15,30,31
16,31,13
17,10,32
18,32,33
19,33,34
20,34,14
21,11,35
22,35,36
23,36,37
24,37,15
25,12,38
26,38,39
27,39,40
28,40,16
29,13,41
30,41,17
31,14,42
32,42,18
33,15,43
34,43,19
35,16,44
36,44,20
37,17,45
38,45,46
39,46,47
40,47,21
41,18,48
42,48,49
43,49,50
44,50,22
45,19,51
46,51,52
47,52,53
48,53,23
49,20,54
50,54,55
51,55,56
52,56,24
53,1,57
54,57,58
55,58,59
56,59,2
57,3,60
58,60,61
59,61,62
60,62,4
61,1,63
62,63,64
63,64,65
64,65,3
65,2,66
66,66,67
67,67,68
68,68,4
69,5,69
70,69,70
71,70,71
72,71,6
73,7,72
74,72,73
75,73,74
76,74,8
77,5,75
78,75,76
79,76,77
80,77,7
81,6,78
82,78,79
83,79,80
84,80,8
85,9,81
86,81,82
87,82,83
88,83,10
89,11,84
90,84,85
91,85,86
92,86,12
93,9,87
94,87,88
95,88,89
96,89,11
97,10,90
98,90,91
99,91,92
100,92,12
101,13,93
102,93,94
103,94,95
104,95,14
105,15,96
106,96,97
107,97,98
108,98,16
109,13,99
110,99,100
111,100,101
112,101,15
113,14,102
114,102,103
115,103,104
116,104,16
117,17,105
118,105,106
119,106,107
120,107,18
121,19,108
122,108,109
123,109,110
124,110,20
125,17,111
126,111,112
127,112,113
128,113,19
129,18,114
130,114,115
131,115,116
132,116,20
133,21,117
134,117,22
135,23,118
136,118,24
137,21,119
138,119,23
139,22,120
140,120,24
141,1,121
142,121,7
143,3,122
144,122,5
145,2,123
146,123,8
147,4,124
148,124,6
149,1,125
150,125,6
151,2,126
152,126,5
153,3,127
154,127,8
155,4,128
156,128,7
157,5,129
158,129,130
159,130,131
160,131,11
161,7,132
162,132,133
163,133,134
164,134,9
165,6,135
166,135,136
167,136,137
168,137,12
169,8,138
170,138,139
171,139,140
172,140,10
173,5,141
174,141,142
175,142,143
176,143,10
177,6,144
178,144,145
179,145,146
180,146,9
181,7,147
182,147,148
183,148,149
184,149,12
185,8,150
186,150,151
187,151,152
188,152,11
189,9,153
190,153,154
191,154,155
192,155,15
193,11,156
194,156,157
195,157,158
196,158,13
197,10,159
198,159,160
199,160,161
200,161,16
201,12,162
202,162,163
203,163,164
204,164,14
205,9,165
206,165,166
207,166,167
208,167,14
209,10,168
210,168,169
211,169,170
212,170,13
213,11,171
214,171,172
215,172,173
216,173,16
217,12,174
218,174,175
219,175,176
220,176,15
221,13,177
222,177,178
223,178,179
224,179,19
225,15,180
226,180,181
227,181,182
228,182,17
229,14,183
230,183,184
231,184,185
232,185,20
233,16,186
234,186,187
235,187,188
236,188,18
237,13,189
238,189,190
239,190,191
240,191,18
241,14,192
242,192,193
243,193,194
244,194,17
245,15,195
246,195,196
247,196,197
248,197,20
249,16,198
250,198,199
251,199,200
252,200,19
253,17,201
254,201,23
255,19,202
256,202,21
257,18,203
258,203,24
259,20,204
260,204,22
261,17,205
262,205,22
263,18,206
264,206,21
265,19,207
266,207,24
267,20,208
268,208,23
*NSET,NSET=NALL,GENERATE
1,208,1
*NSET,NSET=LEFT
1,2,3,4
*NSET,NSET=RIGHT
21,22,23,24
*MATERIAL,NAME=STEEL
*ELASTIC
2.100000000000e+11,0.300000000000
*BEAM SECTION,ELSET=ALL,MATERIAL=STEEL,SECTION=RECT
6.000000000000e-02,4.000000000000e-02
0.371390676354,0.557086014531,0.742781352708
*BOUNDARY
LEFT,1,6,0.0
*STEP
*STATIC
*BOUNDARY
21,1,1,5.000000000000e-03
21,2,2,0.0
21,3,3,-6.000000000000e-03
*BOUNDARY
22,1,1,5.000000000000e-03
22,2,2,0.0
22,3,3,6.000000000000e-03
*BOUNDARY
23,1,1,-5.000000000000e-03
23,2,2,0.0
23,3,3,-6.000000000000e-03
*BOUNDARY
24,1,1,-5.000000000000e-03
24,2,2,0.0
24,3,3,6.000000000000e-03
*NODE FILE,NSET=NALL
U
*NODE PRINT,NSET=NALL
U
*NODE PRINT,NSET=RIGHT
RF
*EL PRINT,ELSET=ALL,TOTALS=YES
ELSE
*END STEP
