*HEADING
T10 S-LIN t10_s-lin_pso conforming C3D8 frozen T
units: mm, N, s, MPa, t. Illustrative steel, not a coupon card.
beam=T10 case=S-LIN job=t10_s-lin_pso type=C3D8
E=210000.0 nu=0.3 fy=235.0 load=-5000.0 N on TIP_TOP
*NODE, NSET=NALL
1, 0, -10, 0
2, 53.7650390274, -10, 2.15060156109
3, 53.7650390274, 0, 2.15060156109
4, 0, 0, 0
5, 0, -10, 36
6, 53.7650390274, -10, 37.7204812489
7, 53.7650390274, 0, 37.7204812489
8, 0, 0, 36
9, 0, -10, 72
10, 53.7650390274, -10, 73.2903609367
11, 53.7650390274, 0, 73.2903609367
12, 0, 0, 72
13, 0, -10, 108
14, 53.7650390274, -10, 108.860240624
15, 53.7650390274, 0, 108.860240624
16, 0, 0, 108
17, 0, -10, 144
18, 53.7650390274, -10, 144.430120312
19, 53.7650390274, 0, 144.430120312
20, 0, 0, 144
21, 0, -10, 180
22, 53.7650390274, -10, 180
23, 53.7650390274, 0, 180
24, 0, 0, 180
25, 53.7650390274, 10, 2.15060156109
26, 0, 10, 0
27, 53.7650390274, 10, 37.7204812489
28, 0, 10, 36
29, 53.7650390274, 10, 73.2903609367
30, 0, 10, 72
31, 53.7650390274, 10, 108.860240624
32, 0, 10, 108
33, 53.7650390274, 10, 144.430120312
34, 0, 10, 144
35, 53.7650390274, 10, 180
36, 0, 10, 180
37, 0, -70, 180
38, 53.7650390274, -72.5538393538, 180
39, 53.7650390274, -56.9153795153, 180
40, 0, -55, 180
41, 0, -70, 190
42, 53.7650390274, -72.5538393538, 190
43, 53.7650390274, -56.9153795153, 190
44, 0, -55, 190
45, 0, -70, 200
46, 53.7650390274, -72.5538393538, 200
47, 53.7650390274, -56.9153795153, 200
48, 0, -55, 200
49, 53.7650390274, -41.2769196769, 180
50, 0, -40, 180
51, 53.7650390274, -41.2769196769, 190
52, 0, -40, 190
53, 53.7650390274, -41.2769196769, 200
54, 0, -40, 200
55, 53.7650390274, -25.6384598384, 180
56, 0, -25, 180
57, 53.7650390274, -25.6384598384, 190
58, 0, -25, 190
59, 53.7650390274, -25.6384598384, 200
60, 0, -25, 200
61, 53.7650390274, -10, 190
62, 0, -10, 190
63, 53.7650390274, -10, 200
64, 0, -10, 200
65, 53.7650390274, 0, 190
66, 0, 0, 190
67, 53.7650390274, 0, 200
68, 0, 0, 200
69, 53.7650390274, 10, 190
70, 0, 10, 190
71, 53.7650390274, 10, 200
72, 0, 10, 200
73, 53.7650390274, 50.5107307134, 180
74, 0, 51.25, 180
75, 53.7650390274, 50.5107307134, 190
76, 0, 51.25, 190
77, 53.7650390274, 50.5107307134, 200
78, 0, 51.25, 200
79, 53.7650390274, 91.0214614267, 180
80, 0, 92.5, 180
81, 53.7650390274, 91.0214614267, 190
82, 0, 92.5, 190
83, 53.7650390274, 91.0214614267, 200
84, 0, 92.5, 200
85, 53.7650390274, 131.53219214, 180
86, 0, 133.75, 180
87, 53.7650390274, 131.53219214, 190
88, 0, 133.75, 190
89, 53.7650390274, 131.53219214, 200
90, 0, 133.75, 200
91, 53.7650390274, 172.042922853, 180
92, 0, 175, 180
93, 53.7650390274, 172.042922853, 190
94, 0, 175, 190
95, 53.7650390274, 172.042922853, 200
96, 0, 175, 200
97, 118.314978607, -10, 4.73259914426
98, 118.314978607, 0, 4.73259914426
99, 118.314978607, -10, 39.7860793154
100, 118.314978607, 0, 39.7860793154
101, 118.314978607, -10, 74.8395594866
102, 118.314978607, 0, 74.8395594866
103, 118.314978607, -10, 109.893039658
104, 118.314978607, 0, 109.893039658
105, 118.314978607, -10, 144.946519829
106, 118.314978607, 0, 144.946519829
107, 118.314978607, -10, 180
108, 118.314978607, 0, 180
109, 118.314978607, 10, 4.73259914426
110, 118.314978607, 10, 39.7860793154
111, 118.314978607, 10, 74.8395594866
112, 118.314978607, 10, 109.893039658
113, 118.314978607, 10, 144.946519829
114, 118.314978607, 10, 180
115, 118.314978607, -75.6199614838, 180
116, 118.314978607, -59.2149711129, 180
117, 118.314978607, -75.6199614838, 190
118, 118.314978607, -59.2149711129, 190
119, 118.314978607, -75.6199614838, 200
120, 118.314978607, -59.2149711129, 200
121, 118.314978607, -42.8099807419, 180
122, 118.314978607, -42.8099807419, 190
123, 118.314978607, -42.8099807419, 200
124, 118.314978607, -26.404990371, 180
125, 118.314978607, -26.404990371, 190
126, 118.314978607, -26.404990371, 200
127, 118.314978607, -10, 190
128, 118.314978607, -10, 200
129, 118.314978607, 0, 190
130, 118.314978607, 0, 200
131, 118.314978607, 10, 190
132, 118.314978607, 10, 200
133, 118.314978607, 49.6231690442, 180
134, 118.314978607, 49.6231690442, 190
135, 118.314978607, 49.6231690442, 200
136, 118.314978607, 89.2463380883, 180
137, 118.314978607, 89.2463380883, 190
138, 118.314978607, 89.2463380883, 200
139, 118.314978607, 128.869507132, 180
140, 118.314978607, 128.869507132, 190
141, 118.314978607, 128.869507132, 200
142, 118.314978607, 168.492676177, 180
143, 118.314978607, 168.492676177, 190
144, 118.314978607, 168.492676177, 200
145, 176.692232988, -10, 7.06768931953
146, 176.692232988, 0, 7.06768931953
147, 176.692232988, -10, 41.6541514556
148, 176.692232988, 0, 41.6541514556
149, 176.692232988, -10, 76.2406135917
150, 176.692232988, 0, 76.2406135917
151, 176.692232988, -10, 110.827075728
152, 176.692232988, 0, 110.827075728
153, 176.692232988, -10, 145.413537864
154, 176.692232988, 0, 145.413537864
155, 176.692232988, -10, 180
156, 176.692232988, 0, 180
157, 176.692232988, 10, 7.06768931953
158, 176.692232988, 10, 41.6541514556
159, 176.692232988, 10, 76.2406135917
160, 176.692232988, 10, 110.827075728
161, 176.692232988, 10, 145.413537864
162, 176.692232988, 10, 180
163, 176.692232988, -78.3928810669, 180
164, 176.692232988, -61.2946608002, 180
165, 176.692232988, -78.3928810669, 190
166, 176.692232988, -61.2946608002, 190
167, 176.692232988, -78.3928810669, 200
168, 176.692232988, -61.2946608002, 200
169, 176.692232988, -44.1964405335, 180
170, 176.692232988, -44.1964405335, 190
171, 176.692232988, -44.1964405335, 200
172, 176.692232988, -27.0982202667, 180
173, 176.692232988, -27.0982202667, 190
174, 176.692232988, -27.0982202667, 200
175, 176.692232988, -10, 190
176, 176.692232988, -10, 200
177, 176.692232988, 0, 190
178, 176.692232988, 0, 200
179, 176.692232988, 10, 190
180, 176.692232988, 10, 200
181, 176.692232988, 48.8204817964, 180
182, 176.692232988, 48.8204817964, 190
183, 176.692232988, 48.8204817964, 200
184, 176.692232988, 87.6409635928, 180
185, 176.692232988, 87.6409635928, 190
186, 176.692232988, 87.6409635928, 200
187, 176.692232988, 126.461445389, 180
188, 176.692232988, 126.461445389, 190
189, 176.692232988, 126.461445389, 200
190, 176.692232988, 165.281927186, 180
191, 176.692232988, 165.281927186, 190
192, 176.692232988, 165.281927186, 200
193, 234.480185296, -10, 9.37920741182
194, 234.480185296, 0, 9.37920741182
195, 234.480185296, -10, 43.5033659295
196, 234.480185296, 0, 43.5033659295
197, 234.480185296, -10, 77.6275244471
198, 234.480185296, 0, 77.6275244471
199, 234.480185296, -10, 111.751682965
200, 234.480185296, 0, 111.751682965
201, 234.480185296, -10, 145.875841482
202, 234.480185296, 0, 145.875841482
203, 234.480185296, -10, 180
204, 234.480185296, 0, 180
205, 234.480185296, 10, 9.37920741182
206, 234.480185296, 10, 43.5033659295
207, 234.480185296, 10, 77.6275244471
208, 234.480185296, 10, 111.751682965
209, 234.480185296, 10, 145.875841482
210, 234.480185296, 10, 180
211, 234.480185296, -81.1378088015, 180
212, 234.480185296, -63.3533566012, 180
213, 234.480185296, -81.1378088015, 190
214, 234.480185296, -63.3533566012, 190
215, 234.480185296, -81.1378088015, 200
216, 234.480185296, -63.3533566012, 200
217, 234.480185296, -45.5689044008, 180
218, 234.480185296, -45.5689044008, 190
219, 234.480185296, -45.5689044008, 200
220, 234.480185296, -27.7844522004, 180
221, 234.480185296, -27.7844522004, 190
222, 234.480185296, -27.7844522004, 200
223, 234.480185296, -10, 190
224, 234.480185296, -10, 200
225, 234.480185296, 0, 190
226, 234.480185296, 0, 200
227, 234.480185296, 10, 190
228, 234.480185296, 10, 200
229, 234.480185296, 48.0258974522, 180
230, 234.480185296, 48.0258974522, 190
231, 234.480185296, 48.0258974522, 200
232, 234.480185296, 86.0517949044, 180
233, 234.480185296, 86.0517949044, 190
234, 234.480185296, 86.0517949044, 200
235, 234.480185296, 124.077692357, 180
236, 234.480185296, 124.077692357, 190
237, 234.480185296, 124.077692357, 200
238, 234.480185296, 162.103589809, 180
239, 234.480185296, 162.103589809, 190
240, 234.480185296, 162.103589809, 200
241, 291.826737051, -10, 11.6730694821
242, 291.826737051, 0, 11.6730694821
243, 291.826737051, -10, 45.3384555856
244, 291.826737051, 0, 45.3384555856
245, 291.826737051, -10, 79.0038416892
246, 291.826737051, 0, 79.0038416892
247, 291.826737051, -10, 112.669227793
248, 291.826737051, 0, 112.669227793
249, 291.826737051, -10, 146.334613896
250, 291.826737051, 0, 146.334613896
251, 291.826737051, -10, 180
252, 291.826737051, 0, 180
253, 291.826737051, 10, 11.6730694821
254, 291.826737051, 10, 45.3384555856
255, 291.826737051, 10, 79.0038416892
256, 291.826737051, 10, 112.669227793
257, 291.826737051, 10, 146.334613896
258, 291.826737051, 10, 180
259, 291.826737051, -83.8617700099, 180
260, 291.826737051, -65.3963275075, 180
261, 291.826737051, -83.8617700099, 190
262, 291.826737051, -65.3963275075, 190
263, 291.826737051, -83.8617700099, 200
264, 291.826737051, -65.3963275075, 200
265, 291.826737051, -46.930885005, 180
266, 291.826737051, -46.930885005, 190
267, 291.826737051, -46.930885005, 200
268, 291.826737051, -28.4654425025, 180
269, 291.826737051, -28.4654425025, 190
270, 291.826737051, -28.4654425025, 200
271, 291.826737051, -10, 190
272, 291.826737051, -10, 200
273, 291.826737051, 0, 190
274, 291.826737051, 0, 200
275, 291.826737051, 10, 190
276, 291.826737051, 10, 200
277, 291.826737051, 47.2373823655, 180
278, 291.826737051, 47.2373823655, 190
279, 291.826737051, 47.2373823655, 200
280, 291.826737051, 84.4747647311, 180
281, 291.826737051, 84.4747647311, 190
282, 291.826737051, 84.4747647311, 200
283, 291.826737051, 121.712147097, 180
284, 291.826737051, 121.712147097, 190
285, 291.826737051, 121.712147097, 200
286, 291.826737051, 158.949529462, 180
287, 291.826737051, 158.949529462, 190
288, 291.826737051, 158.949529462, 200
289, 348.738592872, -10, 13.9495437149
290, 348.738592872, 0, 13.9495437149
291, 348.738592872, -10, 47.1596349719
292, 348.738592872, 0, 47.1596349719
293, 348.738592872, -10, 80.3697262289
294, 348.738592872, 0, 80.3697262289
295, 348.738592872, -10, 113.579817486
296, 348.738592872, 0, 113.579817486
297, 348.738592872, -10, 146.789908743
298, 348.738592872, 0, 146.789908743
299, 348.738592872, -10, 180
300, 348.738592872, 0, 180
301, 348.738592872, 10, 13.9495437149
302, 348.738592872, 10, 47.1596349719
303, 348.738592872, 10, 80.3697262289
304, 348.738592872, 10, 113.579817486
305, 348.738592872, 10, 146.789908743
306, 348.738592872, 10, 180
307, 348.738592872, -86.5650831614, 180
308, 348.738592872, -67.4238123711, 180
309, 348.738592872, -86.5650831614, 190
310, 348.738592872, -67.4238123711, 190
311, 348.738592872, -86.5650831614, 200
312, 348.738592872, -67.4238123711, 200
313, 348.738592872, -48.2825415807, 180
314, 348.738592872, -48.2825415807, 190
315, 348.738592872, -48.2825415807, 200
316, 348.738592872, -29.1412707904, 180
317, 348.738592872, -29.1412707904, 190
318, 348.738592872, -29.1412707904, 200
319, 348.738592872, -10, 190
320, 348.738592872, -10, 200
321, 348.738592872, 0, 190
322, 348.738592872, 0, 200
323, 348.738592872, 10, 190
324, 348.738592872, 10, 200
325, 348.738592872, 46.454844348, 180
326, 348.738592872, 46.454844348, 190
327, 348.738592872, 46.454844348, 200
328, 348.738592872, 82.909688696, 180
329, 348.738592872, 82.909688696, 190
330, 348.738592872, 82.909688696, 200
331, 348.738592872, 119.364533044, 180
332, 348.738592872, 119.364533044, 190
333, 348.738592872, 119.364533044, 200
334, 348.738592872, 155.819377392, 180
335, 348.738592872, 155.819377392, 190
336, 348.738592872, 155.819377392, 200
337, 405.222305576, -10, 16.2088922231
338, 405.222305576, 0, 16.2088922231
339, 405.222305576, -10, 48.9671137784
340, 405.222305576, 0, 48.9671137784
341, 405.222305576, -10, 81.7253353338
342, 405.222305576, 0, 81.7253353338
343, 405.222305576, -10, 114.483556889
344, 405.222305576, 0, 114.483556889
345, 405.222305576, -10, 147.241778445
346, 405.222305576, 0, 147.241778445
347, 405.222305576, -10, 180
348, 405.222305576, 0, 180
349, 405.222305576, 10, 16.2088922231
350, 405.222305576, 10, 48.9671137784
351, 405.222305576, 10, 81.7253353338
352, 405.222305576, 10, 114.483556889
353, 405.222305576, 10, 147.241778445
354, 405.222305576, 10, 180
355, 405.222305576, -89.2480595149, 180
356, 405.222305576, -69.4360446362, 180
357, 405.222305576, -89.2480595149, 190
358, 405.222305576, -69.4360446362, 190
359, 405.222305576, -89.2480595149, 200
360, 405.222305576, -69.4360446362, 200
361, 405.222305576, -49.6240297574, 180
362, 405.222305576, -49.6240297574, 190
363, 405.222305576, -49.6240297574, 200
364, 405.222305576, -29.8120148787, 180
365, 405.222305576, -29.8120148787, 190
366, 405.222305576, -29.8120148787, 200
367, 405.222305576, -10, 190
368, 405.222305576, -10, 200
369, 405.222305576, 0, 190
370, 405.222305576, 0, 200
371, 405.222305576, 10, 190
372, 405.222305576, 10, 200
373, 405.222305576, 45.6781932983, 180
374, 405.222305576, 45.6781932983, 190
375, 405.222305576, 45.6781932983, 200
376, 405.222305576, 81.3563865966, 180
377, 405.222305576, 81.3563865966, 190
378, 405.222305576, 81.3563865966, 200
379, 405.222305576, 117.034579895, 180
380, 405.222305576, 117.034579895, 190
381, 405.222305576, 117.034579895, 200
382, 405.222305576, 152.712773193, 180
383, 405.222305576, 152.712773193, 190
384, 405.222305576, 152.712773193, 200
385, 461.28428074, -10, 18.4513712296
386, 461.28428074, 0, 18.4513712296
387, 461.28428074, -10, 50.7610969837
388, 461.28428074, 0, 50.7610969837
389, 461.28428074, -10, 83.0708227378
390, 461.28428074, 0, 83.0708227378
391, 461.28428074, -10, 115.380548492
392, 461.28428074, 0, 115.380548492
393, 461.28428074, -10, 147.690274246
394, 461.28428074, 0, 147.690274246
395, 461.28428074, -10, 180
396, 461.28428074, 0, 180
397, 461.28428074, 10, 18.4513712296
398, 461.28428074, 10, 50.7610969837
399, 461.28428074, 10, 83.0708227378
400, 461.28428074, 10, 115.380548492
401, 461.28428074, 10, 147.690274246
402, 461.28428074, 10, 180
403, 461.28428074, -91.9110033352, 180
404, 461.28428074, -71.4332525014, 180
405, 461.28428074, -91.9110033352, 190
406, 461.28428074, -71.4332525014, 190
407, 461.28428074, -91.9110033352, 200
408, 461.28428074, -71.4332525014, 200
409, 461.28428074, -50.9555016676, 180
410, 461.28428074, -50.9555016676, 190
411, 461.28428074, -50.9555016676, 200
412, 461.28428074, -30.4777508338, 180
413, 461.28428074, -30.4777508338, 190
414, 461.28428074, -30.4777508338, 200
415, 461.28428074, -10, 190
416, 461.28428074, -10, 200
417, 461.28428074, 0, 190
418, 461.28428074, 0, 200
419, 461.28428074, 10, 190
420, 461.28428074, 10, 200
421, 461.28428074, 44.9073411398, 180
422, 461.28428074, 44.9073411398, 190
423, 461.28428074, 44.9073411398, 200
424, 461.28428074, 79.8146822796, 180
425, 461.28428074, 79.8146822796, 190
426, 461.28428074, 79.8146822796, 200
427, 461.28428074, 114.722023419, 180
428, 461.28428074, 114.722023419, 190
429, 461.28428074, 114.722023419, 200
430, 461.28428074, 149.629364559, 180
431, 461.28428074, 149.629364559, 190
432, 461.28428074, 149.629364559, 200
433, 516.930781077, -10, 20.6772312431
434, 516.930781077, 0, 20.6772312431
435, 516.930781077, -10, 52.5417849945
436, 516.930781077, 0, 52.5417849945
437, 516.930781077, -10, 84.4063387458
438, 516.930781077, 0, 84.4063387458
439, 516.930781077, -10, 116.270892497
440, 516.930781077, 0, 116.270892497
441, 516.930781077, -10, 148.135446249
442, 516.930781077, 0, 148.135446249
443, 516.930781077, -10, 180
444, 516.930781077, 0, 180
445, 516.930781077, 10, 20.6772312431
446, 516.930781077, 10, 52.5417849945
447, 516.930781077, 10, 84.4063387458
448, 516.930781077, 10, 116.270892497
449, 516.930781077, 10, 148.135446249
450, 516.930781077, 10, 180
451, 516.930781077, -94.5542121011, 180
452, 516.930781077, -73.4156590759, 180
453, 516.930781077, -94.5542121011, 190
454, 516.930781077, -73.4156590759, 190
455, 516.930781077, -94.5542121011, 200
456, 516.930781077, -73.4156590759, 200
457, 516.930781077, -52.2771060506, 180
458, 516.930781077, -52.2771060506, 190
459, 516.930781077, -52.2771060506, 200
460, 516.930781077, -31.1385530253, 180
461, 516.930781077, -31.1385530253, 190
462, 516.930781077, -31.1385530253, 200
463, 516.930781077, -10, 190
464, 516.930781077, -10, 200
465, 516.930781077, 0, 190
466, 516.930781077, 0, 200
467, 516.930781077, 10, 190
468, 516.930781077, 10, 200
469, 516.930781077, 44.1422017602, 180
470, 516.930781077, 44.1422017602, 190
471, 516.930781077, 44.1422017602, 200
472, 516.930781077, 78.2844035204, 180
473, 516.930781077, 78.2844035204, 190
474, 516.930781077, 78.2844035204, 200
475, 516.930781077, 112.426605281, 180
476, 516.930781077, 112.426605281, 190
477, 516.930781077, 112.426605281, 200
478, 516.930781077, 146.568807041, 180
479, 516.930781077, 146.568807041, 190
480, 516.930781077, 146.568807041, 200
481, 572.167930659, -10, 22.8867172263
482, 572.167930659, 0, 22.8867172263
483, 572.167930659, -10, 54.3093737811
484, 572.167930659, 0, 54.3093737811
485, 572.167930659, -10, 85.7320303358
486, 572.167930659, 0, 85.7320303358
487, 572.167930659, -10, 117.154686891
488, 572.167930659, 0, 117.154686891
489, 572.167930659, -10, 148.577343445
490, 572.167930659, 0, 148.577343445
491, 572.167930659, -10, 180
492, 572.167930659, 0, 180
493, 572.167930659, 10, 22.8867172263
494, 572.167930659, 10, 54.3093737811
495, 572.167930659, 10, 85.7320303358
496, 572.167930659, 10, 117.154686891
497, 572.167930659, 10, 148.577343445
498, 572.167930659, 10, 180
499, 572.167930659, -97.1779767063, 180
500, 572.167930659, -75.3834825297, 180
501, 572.167930659, -97.1779767063, 190
502, 572.167930659, -75.3834825297, 190
503, 572.167930659, -97.1779767063, 200
504, 572.167930659, -75.3834825297, 200
505, 572.167930659, -53.5889883531, 180
506, 572.167930659, -53.5889883531, 190
507, 572.167930659, -53.5889883531, 200
508, 572.167930659, -31.7944941766, 180
509, 572.167930659, -31.7944941766, 190
510, 572.167930659, -31.7944941766, 200
511, 572.167930659, -10, 190
512, 572.167930659, -10, 200
513, 572.167930659, 0, 190
514, 572.167930659, 0, 200
515, 572.167930659, 10, 190
516, 572.167930659, 10, 200
517, 572.167930659, 43.3826909534, 180
518, 572.167930659, 43.3826909534, 190
519, 572.167930659, 43.3826909534, 200
520, 572.167930659, 76.7653819069, 180
521, 572.167930659, 76.7653819069, 190
522, 572.167930659, 76.7653819069, 200
523, 572.167930659, 110.14807286, 180
524, 572.167930659, 110.14807286, 190
525, 572.167930659, 110.14807286, 200
526, 572.167930659, 143.530763814, 180
527, 572.167930659, 143.530763814, 190
528, 572.167930659, 143.530763814, 200
529, 627.001718984, -10, 25.0800687594
530, 627.001718984, 0, 25.0800687594
531, 627.001718984, -10, 56.0640550075
532, 627.001718984, 0, 56.0640550075
533, 627.001718984, -10, 87.0480412556
534, 627.001718984, 0, 87.0480412556
535, 627.001718984, -10, 118.032027504
536, 627.001718984, 0, 118.032027504
537, 627.001718984, -10, 149.016013752
538, 627.001718984, 0, 149.016013752
539, 627.001718984, -10, 180
540, 627.001718984, 0, 180
541, 627.001718984, 10, 25.0800687594
542, 627.001718984, 10, 56.0640550075
543, 627.001718984, 10, 87.0480412556
544, 627.001718984, 10, 118.032027504
545, 627.001718984, 10, 149.016013752
546, 627.001718984, 10, 180
547, 627.001718984, -99.7825816517, 180
548, 627.001718984, -77.3369362388, 180
549, 627.001718984, -99.7825816517, 190
550, 627.001718984, -77.3369362388, 190
551, 627.001718984, -99.7825816517, 200
552, 627.001718984, -77.3369362388, 200
553, 627.001718984, -54.8912908259, 180
554, 627.001718984, -54.8912908259, 190
555, 627.001718984, -54.8912908259, 200
556, 627.001718984, -32.4456454129, 180
557, 627.001718984, -32.4456454129, 190
558, 627.001718984, -32.4456454129, 200
559, 627.001718984, -10, 190
560, 627.001718984, -10, 200
561, 627.001718984, 0, 190
562, 627.001718984, 0, 200
563, 627.001718984, 10, 190
564, 627.001718984, 10, 200
565, 627.001718984, 42.628726364, 180
566, 627.001718984, 42.628726364, 190
567, 627.001718984, 42.628726364, 200
568, 627.001718984, 75.2574527279, 180
569, 627.001718984, 75.2574527279, 190
570, 627.001718984, 75.2574527279, 200
571, 627.001718984, 107.886179092, 180
572, 627.001718984, 107.886179092, 190
573, 627.001718984, 107.886179092, 200
574, 627.001718984, 140.514905456, 180
575, 627.001718984, 140.514905456, 190
576, 627.001718984, 140.514905456, 200
577, 681.438004894, -10, 27.2575201958
578, 681.438004894, 0, 27.2575201958
579, 681.438004894, -10, 57.8060161566
580, 681.438004894, 0, 57.8060161566
581, 681.438004894, -10, 88.3545121175
582, 681.438004894, 0, 88.3545121175
583, 681.438004894, -10, 118.903008078
584, 681.438004894, 0, 118.903008078
585, 681.438004894, -10, 149.451504039
586, 681.438004894, 0, 149.451504039
587, 681.438004894, -10, 180
588, 681.438004894, 0, 180
589, 681.438004894, 10, 27.2575201958
590, 681.438004894, 10, 57.8060161566
591, 681.438004894, 10, 88.3545121175
592, 681.438004894, 10, 118.903008078
593, 681.438004894, 10, 149.451504039
594, 681.438004894, 10, 180
595, 681.438004894, -102.368305232, 180
596, 681.438004894, -79.2762289243, 180
597, 681.438004894, -102.368305232, 190
598, 681.438004894, -79.2762289243, 190
599, 681.438004894, -102.368305232, 200
600, 681.438004894, -79.2762289243, 200
601, 681.438004894, -56.1841526162, 180
602, 681.438004894, -56.1841526162, 190
603, 681.438004894, -56.1841526162, 200
604, 681.438004894, -33.0920763081, 180
605, 681.438004894, -33.0920763081, 190
606, 681.438004894, -33.0920763081, 200
607, 681.438004894, -10, 190
608, 681.438004894, -10, 200
609, 681.438004894, 0, 190
610, 681.438004894, 0, 200
611, 681.438004894, 10, 190
612, 681.438004894, 10, 200
613, 681.438004894, 41.8802274327, 180
614, 681.438004894, 41.8802274327, 190
615, 681.438004894, 41.8802274327, 200
616, 681.438004894, 73.7604548654, 180
617, 681.438004894, 73.7604548654, 190
618, 681.438004894, 73.7604548654, 200
619, 681.438004894, 105.640682298, 180
620, 681.438004894, 105.640682298, 190
621, 681.438004894, 105.640682298, 200
622, 681.438004894, 137.520909731, 180
623, 681.438004894, 137.520909731, 190
624, 681.438004894, 137.520909731, 200
625, 735.482520348, -10, 29.4193008139
626, 735.482520348, 0, 29.4193008139
627, 735.482520348, -10, 59.5354406511
628, 735.482520348, 0, 59.5354406511
629, 735.482520348, -10, 89.6515804883
630, 735.482520348, 0, 89.6515804883
631, 735.482520348, -10, 119.767720326
632, 735.482520348, 0, 119.767720326
633, 735.482520348, -10, 149.883860163
634, 735.482520348, 0, 149.883860163
635, 735.482520348, -10, 180
636, 735.482520348, 0, 180
637, 735.482520348, 10, 29.4193008139
638, 735.482520348, 10, 59.5354406511
639, 735.482520348, 10, 89.6515804883
640, 735.482520348, 10, 119.767720326
641, 735.482520348, 10, 149.883860163
642, 735.482520348, 10, 180
643, 735.482520348, -104.935419717, 180
644, 735.482520348, -81.2015647874, 180
645, 735.482520348, -104.935419717, 190
646, 735.482520348, -81.2015647874, 190
647, 735.482520348, -104.935419717, 200
648, 735.482520348, -81.2015647874, 200
649, 735.482520348, -57.4677098583, 180
650, 735.482520348, -57.4677098583, 190
651, 735.482520348, -57.4677098583, 200
652, 735.482520348, -33.7338549291, 180
653, 735.482520348, -33.7338549291, 190
654, 735.482520348, -33.7338549291, 200
655, 735.482520348, -10, 190
656, 735.482520348, -10, 200
657, 735.482520348, 0, 190
658, 735.482520348, 0, 200
659, 735.482520348, 10, 190
660, 735.482520348, 10, 200
661, 735.482520348, 41.1371153452, 180
662, 735.482520348, 41.1371153452, 190
663, 735.482520348, 41.1371153452, 200
664, 735.482520348, 72.2742306904, 180
665, 735.482520348, 72.2742306904, 190
666, 735.482520348, 72.2742306904, 200
667, 735.482520348, 103.411346036, 180
668, 735.482520348, 103.411346036, 190
669, 735.482520348, 103.411346036, 200
670, 735.482520348, 134.548461381, 180
671, 735.482520348, 134.548461381, 190
672, 735.482520348, 134.548461381, 200
673, 789.140874066, -10, 31.5656349626
674, 789.140874066, 0, 31.5656349626
675, 789.140874066, -10, 61.2525079701
676, 789.140874066, 0, 61.2525079701
677, 789.140874066, -10, 90.9393809776
678, 789.140874066, 0, 90.9393809776
679, 789.140874066, -10, 120.626253985
680, 789.140874066, 0, 120.626253985
681, 789.140874066, -10, 150.313126993
682, 789.140874066, 0, 150.313126993
683, 789.140874066, -10, 180
684, 789.140874066, 0, 180
685, 789.140874066, 10, 31.5656349626
686, 789.140874066, 10, 61.2525079701
687, 789.140874066, 10, 90.9393809776
688, 789.140874066, 10, 120.626253985
689, 789.140874066, 10, 150.313126993
690, 789.140874066, 10, 180
691, 789.140874066, -107.484191518, 180
692, 789.140874066, -83.1131436386, 180
693, 789.140874066, -107.484191518, 190
694, 789.140874066, -83.1131436386, 190
695, 789.140874066, -107.484191518, 200
696, 789.140874066, -83.1131436386, 200
697, 789.140874066, -58.7420957591, 180
698, 789.140874066, -58.7420957591, 190
699, 789.140874066, -58.7420957591, 200
700, 789.140874066, -34.3710478795, 180
701, 789.140874066, -34.3710478795, 190
702, 789.140874066, -34.3710478795, 200
703, 789.140874066, -10, 190
704, 789.140874066, -10, 200
705, 789.140874066, 0, 190
706, 789.140874066, 0, 200
707, 789.140874066, 10, 190
708, 789.140874066, 10, 200
709, 789.140874066, 40.3993129816, 180
710, 789.140874066, 40.3993129816, 190
711, 789.140874066, 40.3993129816, 200
712, 789.140874066, 70.7986259632, 180
713, 789.140874066, 70.7986259632, 190
714, 789.140874066, 70.7986259632, 200
715, 789.140874066, 101.197938945, 180
716, 789.140874066, 101.197938945, 190
717, 789.140874066, 101.197938945, 200
718, 789.140874066, 131.597251926, 180
719, 789.140874066, 131.597251926, 190
720, 789.140874066, 131.597251926, 200
721, 842.418555038, -10, 33.6967422015
722, 842.418555038, 0, 33.6967422015
723, 842.418555038, -10, 62.9573937612
724, 842.418555038, 0, 62.9573937612
725, 842.418555038, -10, 92.2180453209
726, 842.418555038, 0, 92.2180453209
727, 842.418555038, -10, 121.478696881
728, 842.418555038, 0, 121.478696881
729, 842.418555038, -10, 150.73934844
730, 842.418555038, 0, 150.73934844
731, 842.418555038, -10, 180
732, 842.418555038, 0, 180
733, 842.418555038, 10, 33.6967422015
734, 842.418555038, 10, 62.9573937612
735, 842.418555038, 10, 92.2180453209
736, 842.418555038, 10, 121.478696881
737, 842.418555038, 10, 150.73934844
738, 842.418555038, 10, 180
739, 842.418555038, -110.014881364, 180
740, 842.418555038, -85.0111610232, 180
741, 842.418555038, -110.014881364, 190
742, 842.418555038, -85.0111610232, 190
743, 842.418555038, -110.014881364, 200
744, 842.418555038, -85.0111610232, 200
745, 842.418555038, -60.0074406822, 180
746, 842.418555038, -60.0074406822, 190
747, 842.418555038, -60.0074406822, 200
748, 842.418555038, -35.0037203411, 180
749, 842.418555038, -35.0037203411, 190
750, 842.418555038, -35.0037203411, 200
751, 842.418555038, -10, 190
752, 842.418555038, -10, 200
753, 842.418555038, 0, 190
754, 842.418555038, 0, 200
755, 842.418555038, 10, 190
756, 842.418555038, 10, 200
757, 842.418555038, 39.6667448682, 180
758, 842.418555038, 39.6667448682, 190
759, 842.418555038, 39.6667448682, 200
760, 842.418555038, 69.3334897364, 180
761, 842.418555038, 69.3334897364, 190
762, 842.418555038, 69.3334897364, 200
763, 842.418555038, 99.0002346047, 180
764, 842.418555038, 99.0002346047, 190
765, 842.418555038, 99.0002346047, 200
766, 842.418555038, 128.666979473, 180
767, 842.418555038, 128.666979473, 190
768, 842.418555038, 128.666979473, 200
769, 895.320935913, -10, 35.8128374365
770, 895.320935913, 0, 35.8128374365
771, 895.320935913, -10, 64.6502699492
772, 895.320935913, 0, 64.6502699492
773, 895.320935913, -10, 93.4877024619
774, 895.320935913, 0, 93.4877024619
775, 895.320935913, -10, 122.325134975
776, 895.320935913, 0, 122.325134975
777, 895.320935913, -10, 151.162567487
778, 895.320935913, 0, 151.162567487
779, 895.320935913, -10, 180
780, 895.320935913, 0, 180
781, 895.320935913, 10, 35.8128374365
782, 895.320935913, 10, 64.6502699492
783, 895.320935913, 10, 93.4877024619
784, 895.320935913, 10, 122.325134975
785, 895.320935913, 10, 151.162567487
786, 895.320935913, 10, 180
787, 895.320935913, -112.527744456, 180
788, 895.320935913, -86.8958083419, 180
789, 895.320935913, -112.527744456, 190
790, 895.320935913, -86.8958083419, 190
791, 895.320935913, -112.527744456, 200
792, 895.320935913, -86.8958083419, 200
793, 895.320935913, -61.2638722279, 180
794, 895.320935913, -61.2638722279, 190
795, 895.320935913, -61.2638722279, 200
796, 895.320935913, -35.631936114, 180
797, 895.320935913, -35.631936114, 190
798, 895.320935913, -35.631936114, 200
799, 895.320935913, -10, 190
800, 895.320935913, -10, 200
801, 895.320935913, 0, 190
802, 895.320935913, 0, 200
803, 895.320935913, 10, 190
804, 895.320935913, 10, 200
805, 895.320935913, 38.9393371312, 180
806, 895.320935913, 38.9393371312, 190
807, 895.320935913, 38.9393371312, 200
808, 895.320935913, 67.8786742624, 180
809, 895.320935913, 67.8786742624, 190
810, 895.320935913, 67.8786742624, 200
811, 895.320935913, 96.8180113936, 180
812, 895.320935913, 96.8180113936, 190
813, 895.320935913, 96.8180113936, 200
814, 895.320935913, 125.757348525, 180
815, 895.320935913, 125.757348525, 190
816, 895.320935913, 125.757348525, 200
817, 947.853276264, -10, 37.9141310506
818, 947.853276264, 0, 37.9141310506
819, 947.853276264, -10, 66.3313048405
820, 947.853276264, 0, 66.3313048405
821, 947.853276264, -10, 94.7484786303
822, 947.853276264, 0, 94.7484786303
823, 947.853276264, -10, 123.16565242
824, 947.853276264, 0, 123.16565242
825, 947.853276264, -10, 151.58282621
826, 947.853276264, 0, 151.58282621
827, 947.853276264, -10, 180
828, 947.853276264, 0, 180
829, 947.853276264, 10, 37.9141310506
830, 947.853276264, 10, 66.3313048405
831, 947.853276264, 10, 94.7484786303
832, 947.853276264, 10, 123.16565242
833, 947.853276264, 10, 151.58282621
834, 947.853276264, 10, 180
835, 947.853276264, -115.023030623, 180
836, 947.853276264, -88.7672729669, 180
837, 947.853276264, -115.023030623, 190
838, 947.853276264, -88.7672729669, 190
839, 947.853276264, -115.023030623, 200
840, 947.853276264, -88.7672729669, 200
841, 947.853276264, -62.5115153113, 180
842, 947.853276264, -62.5115153113, 190
843, 947.853276264, -62.5115153113, 200
844, 947.853276264, -36.2557576556, 180
845, 947.853276264, -36.2557576556, 190
846, 947.853276264, -36.2557576556, 200
847, 947.853276264, -10, 190
848, 947.853276264, -10, 200
849, 947.853276264, 0, 190
850, 947.853276264, 0, 200
851, 947.853276264, 10, 190
852, 947.853276264, 10, 200
853, 947.853276264, 38.2170174514, 180
854, 947.853276264, 38.2170174514, 190
855, 947.853276264, 38.2170174514, 200
856, 947.853276264, 66.4340349027, 180
857, 947.853276264, 66.4340349027, 190
858, 947.853276264, 66.4340349027, 200
859, 947.853276264, 94.6510523541, 180
860, 947.853276264, 94.6510523541, 190
861, 947.853276264, 94.6510523541, 200
862, 947.853276264, 122.868069805, 180
863, 947.853276264, 122.868069805, 190
864, 947.853276264, 122.868069805, 200
865, 1000.02072574, -10, 40.0008290297
866, 1000.02072574, 0, 40.0008290297
867, 1000.02072574, -10, 68.0006632238
868, 1000.02072574, 0, 68.0006632238
869, 1000.02072574, -10, 96.0004974178
870, 1000.02072574, 0, 96.0004974178
871, 1000.02072574, -10, 124.000331612
872, 1000.02072574, 0, 124.000331612
873, 1000.02072574, -10, 152.000165806
874, 1000.02072574, 0, 152.000165806
875, 1000.02072574, -10, 180
876, 1000.02072574, 0, 180
877, 1000.02072574, 10, 40.0008290297
878, 1000.02072574, 10, 68.0006632238
879, 1000.02072574, 10, 96.0004974178
880, 1000.02072574, 10, 124.000331612
881, 1000.02072574, 10, 152.000165806
882, 1000.02072574, 10, 180
883, 1000.02072574, -117.500984473, 180
884, 1000.02072574, -90.6257383546, 180
885, 1000.02072574, -117.500984473, 190
886, 1000.02072574, -90.6257383546, 190
887, 1000.02072574, -117.500984473, 200
888, 1000.02072574, -90.6257383546, 200
889, 1000.02072574, -63.7504922364, 180
890, 1000.02072574, -63.7504922364, 190
891, 1000.02072574, -63.7504922364, 200
892, 1000.02072574, -36.8752461182, 180
893, 1000.02072574, -36.8752461182, 190
894, 1000.02072574, -36.8752461182, 200
895, 1000.02072574, -10, 190
896, 1000.02072574, -10, 200
897, 1000.02072574, 0, 190
898, 1000.02072574, 0, 200
899, 1000.02072574, 10, 190
900, 1000.02072574, 10, 200
901, 1000.02072574, 37.499715021, 180
902, 1000.02072574, 37.499715021, 190
903, 1000.02072574, 37.499715021, 200
904, 1000.02072574, 64.9994300421, 180
905, 1000.02072574, 64.9994300421, 190
906, 1000.02072574, 64.9994300421, 200
907, 1000.02072574, 92.4991450631, 180
908, 1000.02072574, 92.4991450631, 190
909, 1000.02072574, 92.4991450631, 200
910, 1000.02072574, 119.998860084, 180
911, 1000.02072574, 119.998860084, 190
912, 1000.02072574, 119.998860084, 200
913, 1051.82832712, -10, 42.073133085
914, 1051.82832712, 0, 42.073133085
915, 1051.82832712, -10, 69.658506468
916, 1051.82832712, 0, 69.658506468
917, 1051.82832712, -10, 97.243879851
918, 1051.82832712, 0, 97.243879851
919, 1051.82832712, -10, 124.829253234
920, 1051.82832712, 0, 124.829253234
921, 1051.82832712, -10, 152.414626617
922, 1051.82832712, 0, 152.414626617
923, 1051.82832712, -10, 180
924, 1051.82832712, 0, 180
925, 1051.82832712, 10, 42.073133085
926, 1051.82832712, 10, 69.658506468
927, 1051.82832712, 10, 97.243879851
928, 1051.82832712, 10, 124.829253234
929, 1051.82832712, 10, 152.414626617
930, 1051.82832712, 10, 180
931, 1051.82832712, -119.961845538, 180
932, 1051.82832712, -92.4713841538, 180
933, 1051.82832712, -119.961845538, 190
934, 1051.82832712, -92.4713841538, 190
935, 1051.82832712, -119.961845538, 200
936, 1051.82832712, -92.4713841538, 200
937, 1051.82832712, -64.9809227692, 180
938, 1051.82832712, -64.9809227692, 190
939, 1051.82832712, -64.9809227692, 200
940, 1051.82832712, -37.4904613846, 180
941, 1051.82832712, -37.4904613846, 190
942, 1051.82832712, -37.4904613846, 200
943, 1051.82832712, -10, 190
944, 1051.82832712, -10, 200
945, 1051.82832712, 0, 190
946, 1051.82832712, 0, 200
947, 1051.82832712, 10, 190
948, 1051.82832712, 10, 200
949, 1051.82832712, 36.787360502, 180
950, 1051.82832712, 36.787360502, 190
951, 1051.82832712, 36.787360502, 200
952, 1051.82832712, 63.5747210041, 180
953, 1051.82832712, 63.5747210041, 190
954, 1051.82832712, 63.5747210041, 200
955, 1051.82832712, 90.3620815061, 180
956, 1051.82832712, 90.3620815061, 190
957, 1051.82832712, 90.3620815061, 200
958, 1051.82832712, 117.149442008, 180
959, 1051.82832712, 117.149442008, 190
960, 1051.82832712, 117.149442008, 200
961, 1103.28101925, -10, 44.1312407699
962, 1103.28101925, 0, 44.1312407699
963, 1103.28101925, -10, 71.3049926159
964, 1103.28101925, 0, 71.3049926159
965, 1103.28101925, -10, 98.4787444619
966, 1103.28101925, 0, 98.4787444619
967, 1103.28101925, -10, 125.652496308
968, 1103.28101925, 0, 125.652496308
969, 1103.28101925, -10, 152.826248154
970, 1103.28101925, 0, 152.826248154
971, 1103.28101925, -10, 180
972, 1103.28101925, 0, 180
973, 1103.28101925, 10, 44.1312407699
974, 1103.28101925, 10, 71.3049926159
975, 1103.28101925, 10, 98.4787444619
976, 1103.28101925, 10, 125.652496308
977, 1103.28101925, 10, 152.826248154
978, 1103.28101925, 10, 180
979, 1103.28101925, -122.405848414, 180
980, 1103.28101925, -94.3043863107, 180
981, 1103.28101925, -122.405848414, 190
982, 1103.28101925, -94.3043863107, 190
983, 1103.28101925, -122.405848414, 200
984, 1103.28101925, -94.3043863107, 200
985, 1103.28101925, -66.2029242071, 180
986, 1103.28101925, -66.2029242071, 190
987, 1103.28101925, -66.2029242071, 200
988, 1103.28101925, -38.1014621036, 180
989, 1103.28101925, -38.1014621036, 190
990, 1103.28101925, -38.1014621036, 200
991, 1103.28101925, -10, 190
992, 1103.28101925, -10, 200
993, 1103.28101925, 0, 190
994, 1103.28101925, 0, 200
995, 1103.28101925, 10, 190
996, 1103.28101925, 10, 200
997, 1103.28101925, 36.0798859854, 180
998, 1103.28101925, 36.0798859854, 190
999, 1103.28101925, 36.0798859854, 200
1000, 1103.28101925, 62.1597719707, 180
1001, 1103.28101925, 62.1597719707, 190
1002, 1103.28101925, 62.1597719707, 200
1003, 1103.28101925, 88.2396579561, 180
1004, 1103.28101925, 88.2396579561, 190
1005, 1103.28101925, 88.2396579561, 200
1006, 1103.28101925, 114.319543941, 180
1007, 1103.28101925, 114.319543941, 190
1008, 1103.28101925, 114.319543941, 200
1009, 1154.38363985, -10, 46.175345594
1010, 1154.38363985, 0, 46.175345594
1011, 1154.38363985, -10, 72.9402764752
1012, 1154.38363985, 0, 72.9402764752
1013, 1154.38363985, -10, 99.7052073564
1014, 1154.38363985, 0, 99.7052073564
1015, 1154.38363985, -10, 126.470138238
1016, 1154.38363985, 0, 126.470138238
1017, 1154.38363985, -10, 153.235069119
1018, 1154.38363985, 0, 153.235069119
1019, 1154.38363985, -10, 180
1020, 1154.38363985, 0, 180
1021, 1154.38363985, 10, 46.175345594
1022, 1154.38363985, 10, 72.9402764752
1023, 1154.38363985, 10, 99.7052073564
1024, 1154.38363985, 10, 126.470138238
1025, 1154.38363985, 10, 153.235069119
1026, 1154.38363985, 10, 180
1027, 1154.38363985, -124.833222893, 180
1028, 1154.38363985, -96.1249171697, 180
1029, 1154.38363985, -124.833222893, 190
1030, 1154.38363985, -96.1249171697, 190
1031, 1154.38363985, -124.833222893, 200
1032, 1154.38363985, -96.1249171697, 200
1033, 1154.38363985, -67.4166114465, 180
1034, 1154.38363985, -67.4166114465, 190
1035, 1154.38363985, -67.4166114465, 200
1036, 1154.38363985, -38.7083057232, 180
1037, 1154.38363985, -38.7083057232, 190
1038, 1154.38363985, -38.7083057232, 200
1039, 1154.38363985, -10, 190
1040, 1154.38363985, -10, 200
1041, 1154.38363985, 0, 190
1042, 1154.38363985, 0, 200
1043, 1154.38363985, 10, 190
1044, 1154.38363985, 10, 200
1045, 1154.38363985, 35.377224952, 180
1046, 1154.38363985, 35.377224952, 190
1047, 1154.38363985, 35.377224952, 200
1048, 1154.38363985, 60.7544499041, 180
1049, 1154.38363985, 60.7544499041, 190
1050, 1154.38363985, 60.7544499041, 200
1051, 1154.38363985, 86.1316748561, 180
1052, 1154.38363985, 86.1316748561, 190
1053, 1154.38363985, 86.1316748561, 200
1054, 1154.38363985, 111.508899808, 180
1055, 1154.38363985, 111.508899808, 190
1056, 1154.38363985, 111.508899808, 200
1057, 1205.14092832, -10, 48.2056371329
1058, 1205.14092832, 0, 48.2056371329
1059, 1205.14092832, -10, 74.5645097063
1060, 1205.14092832, 0, 74.5645097063
1061, 1205.14092832, -10, 100.92338228
1062, 1205.14092832, 0, 100.92338228
1063, 1205.14092832, -10, 127.282254853
1064, 1205.14092832, 0, 127.282254853
1065, 1205.14092832, -10, 153.641127427
1066, 1205.14092832, 0, 153.641127427
1067, 1205.14092832, -10, 180
1068, 1205.14092832, 0, 180
1069, 1205.14092832, 10, 48.2056371329
1070, 1205.14092832, 10, 74.5645097063
1071, 1205.14092832, 10, 100.92338228
1072, 1205.14092832, 10, 127.282254853
1073, 1205.14092832, 10, 153.641127427
1074, 1205.14092832, 10, 180
1075, 1205.14092832, -127.244194095, 180
1076, 1205.14092832, -97.9331455715, 180
1077, 1205.14092832, -127.244194095, 190
1078, 1205.14092832, -97.9331455715, 190
1079, 1205.14092832, -127.244194095, 200
1080, 1205.14092832, -97.9331455715, 200
1081, 1205.14092832, -68.6220970477, 180
1082, 1205.14092832, -68.6220970477, 190
1083, 1205.14092832, -68.6220970477, 200
1084, 1205.14092832, -39.3110485238, 180
1085, 1205.14092832, -39.3110485238, 190
1086, 1205.14092832, -39.3110485238, 200
1087, 1205.14092832, -10, 190
1088, 1205.14092832, -10, 200
1089, 1205.14092832, 0, 190
1090, 1205.14092832, 0, 200
1091, 1205.14092832, 10, 190
1092, 1205.14092832, 10, 200
1093, 1205.14092832, 34.6793122356, 180
1094, 1205.14092832, 34.6793122356, 190
1095, 1205.14092832, 34.6793122356, 200
1096, 1205.14092832, 59.3586244711, 180
1097, 1205.14092832, 59.3586244711, 190
1098, 1205.14092832, 59.3586244711, 200
1099, 1205.14092832, 84.0379367067, 180
1100, 1205.14092832, 84.0379367067, 190
1101, 1205.14092832, 84.0379367067, 200
1102, 1205.14092832, 108.717248942, 180
1103, 1205.14092832, 108.717248942, 190
1104, 1205.14092832, 108.717248942, 200
1105, 1255.55752834, -10, 50.2223011337
1106, 1255.55752834, 0, 50.2223011337
1107, 1255.55752834, -10, 76.1778409069
1108, 1255.55752834, 0, 76.1778409069
1109, 1255.55752834, -10, 102.13338068
1110, 1255.55752834, 0, 102.13338068
1111, 1255.55752834, -10, 128.088920453
1112, 1255.55752834, 0, 128.088920453
1113, 1255.55752834, -10, 154.044460227
1114, 1255.55752834, 0, 154.044460227
1115, 1255.55752834, -10, 180
1116, 1255.55752834, 0, 180
1117, 1255.55752834, 10, 50.2223011337
1118, 1255.55752834, 10, 76.1778409069
1119, 1255.55752834, 10, 102.13338068
1120, 1255.55752834, 10, 128.088920453
1121, 1255.55752834, 10, 154.044460227
1122, 1255.55752834, 10, 180
1123, 1255.55752834, -129.638982596, 180
1124, 1255.55752834, -99.7292369472, 180
1125, 1255.55752834, -129.638982596, 190
1126, 1255.55752834, -99.7292369472, 190
1127, 1255.55752834, -129.638982596, 200
1128, 1255.55752834, -99.7292369472, 200
1129, 1255.55752834, -69.8194912981, 180
1130, 1255.55752834, -69.8194912981, 190
1131, 1255.55752834, -69.8194912981, 200
1132, 1255.55752834, -39.9097456491, 180
1133, 1255.55752834, -39.9097456491, 190
1134, 1255.55752834, -39.9097456491, 200
1135, 1255.55752834, -10, 190
1136, 1255.55752834, -10, 200
1137, 1255.55752834, 0, 190
1138, 1255.55752834, 0, 200
1139, 1255.55752834, 10, 190
1140, 1255.55752834, 10, 200
1141, 1255.55752834, 33.9860839853, 180
1142, 1255.55752834, 33.9860839853, 190
1143, 1255.55752834, 33.9860839853, 200
1144, 1255.55752834, 57.9721679706, 180
1145, 1255.55752834, 57.9721679706, 190
1146, 1255.55752834, 57.9721679706, 200
1147, 1255.55752834, 81.9582519559, 180
1148, 1255.55752834, 81.9582519559, 190
1149, 1255.55752834, 81.9582519559, 200
1150, 1255.55752834, 105.944335941, 180
1151, 1255.55752834, 105.944335941, 190
1152, 1255.55752834, 105.944335941, 200
1153, 1305.63799045, -10, 52.2255196179
1154, 1305.63799045, 0, 52.2255196179
1155, 1305.63799045, -10, 77.7804156944
1156, 1305.63799045, 0, 77.7804156944
1157, 1305.63799045, -10, 103.335311771
1158, 1305.63799045, 0, 103.335311771
1159, 1305.63799045, -10, 128.890207847
1160, 1305.63799045, 0, 128.890207847
1161, 1305.63799045, -10, 154.445103924
1162, 1305.63799045, 0, 154.445103924
1163, 1305.63799045, -10, 180
1164, 1305.63799045, 0, 180
1165, 1305.63799045, 10, 52.2255196179
1166, 1305.63799045, 10, 77.7804156944
1167, 1305.63799045, 10, 103.335311771
1168, 1305.63799045, 10, 128.890207847
1169, 1305.63799045, 10, 154.445103924
1170, 1305.63799045, 10, 180
1171, 1305.63799045, -132.017804546, 180
1172, 1305.63799045, -101.51335341, 180
1173, 1305.63799045, -132.017804546, 190
1174, 1305.63799045, -101.51335341, 190
1175, 1305.63799045, -132.017804546, 200
1176, 1305.63799045, -101.51335341, 200
1177, 1305.63799045, -71.0089022732, 180
1178, 1305.63799045, -71.0089022732, 190
1179, 1305.63799045, -71.0089022732, 200
1180, 1305.63799045, -40.5044511366, 180
1181, 1305.63799045, -40.5044511366, 190
1182, 1305.63799045, -40.5044511366, 200
1183, 1305.63799045, -10, 190
1184, 1305.63799045, -10, 200
1185, 1305.63799045, 0, 190
1186, 1305.63799045, 0, 200
1187, 1305.63799045, 10, 190
1188, 1305.63799045, 10, 200
1189, 1305.63799045, 33.2974776313, 180
1190, 1305.63799045, 33.2974776313, 190
1191, 1305.63799045, 33.2974776313, 200
1192, 1305.63799045, 56.5949552627, 180
1193, 1305.63799045, 56.5949552627, 190
1194, 1305.63799045, 56.5949552627, 200
1195, 1305.63799045, 79.892432894, 180
1196, 1305.63799045, 79.892432894, 190
1197, 1305.63799045, 79.892432894, 200
1198, 1305.63799045, 103.189910525, 180
1199, 1305.63799045, 103.189910525, 190
1200, 1305.63799045, 103.189910525, 200
1201, 1355.38677451, -10, 54.2154709805
1202, 1355.38677451, 0, 54.2154709805
1203, 1355.38677451, -10, 79.3723767844
1204, 1355.38677451, 0, 79.3723767844
1205, 1355.38677451, -10, 104.529282588
1206, 1355.38677451, 0, 104.529282588
1207, 1355.38677451, -10, 129.686188392
1208, 1355.38677451, 0, 129.686188392
1209, 1355.38677451, -10, 154.843094196
1210, 1355.38677451, 0, 154.843094196
1211, 1355.38677451, -10, 180
1212, 1355.38677451, 0, 180
1213, 1355.38677451, 10, 54.2154709805
1214, 1355.38677451, 10, 79.3723767844
1215, 1355.38677451, 10, 104.529282588
1216, 1355.38677451, 10, 129.686188392
1217, 1355.38677451, 10, 154.843094196
1218, 1355.38677451, 10, 180
1219, 1355.38677451, -134.380871789, 180
1220, 1355.38677451, -103.285653842, 180
1221, 1355.38677451, -134.380871789, 190
1222, 1355.38677451, -103.285653842, 190
1223, 1355.38677451, -134.380871789, 200
1224, 1355.38677451, -103.285653842, 200
1225, 1355.38677451, -72.1904358947, 180
1226, 1355.38677451, -72.1904358947, 190
1227, 1355.38677451, -72.1904358947, 200
1228, 1355.38677451, -41.0952179473, 180
1229, 1355.38677451, -41.0952179473, 190
1230, 1355.38677451, -41.0952179473, 200
1231, 1355.38677451, -10, 190
1232, 1355.38677451, -10, 200
1233, 1355.38677451, 0, 190
1234, 1355.38677451, 0, 200
1235, 1355.38677451, 10, 190
1236, 1355.38677451, 10, 200
1237, 1355.38677451, 32.6134318504, 180
1238, 1355.38677451, 32.6134318504, 190
1239, 1355.38677451, 32.6134318504, 200
1240, 1355.38677451, 55.2268637009, 180
1241, 1355.38677451, 55.2268637009, 190
1242, 1355.38677451, 55.2268637009, 200
1243, 1355.38677451, 77.8402955513, 180
1244, 1355.38677451, 77.8402955513, 190
1245, 1355.38677451, 77.8402955513, 200
1246, 1355.38677451, 100.453727402, 180
1247, 1355.38677451, 100.453727402, 190
1248, 1355.38677451, 100.453727402, 200
1249, 1404.80825214, -10, 56.1923300855
1250, 1404.80825214, 0, 56.1923300855
1251, 1404.80825214, -10, 80.9538640684
1252, 1404.80825214, 0, 80.9538640684
1253, 1404.80825214, -10, 105.715398051
1254, 1404.80825214, 0, 105.715398051
1255, 1404.80825214, -10, 130.476932034
1256, 1404.80825214, 0, 130.476932034
1257, 1404.80825214, -10, 155.238466017
1258, 1404.80825214, 0, 155.238466017
1259, 1404.80825214, -10, 180
1260, 1404.80825214, 0, 180
1261, 1404.80825214, 10, 56.1923300855
1262, 1404.80825214, 10, 80.9538640684
1263, 1404.80825214, 10, 105.715398051
1264, 1404.80825214, 10, 130.476932034
1265, 1404.80825214, 10, 155.238466017
1266, 1404.80825214, 10, 180
1267, 1404.80825214, -136.728391977, 180
1268, 1404.80825214, -105.046293982, 180
1269, 1404.80825214, -136.728391977, 190
1270, 1404.80825214, -105.046293982, 190
1271, 1404.80825214, -136.728391977, 200
1272, 1404.80825214, -105.046293982, 200
1273, 1404.80825214, -73.3641959883, 180
1274, 1404.80825214, -73.3641959883, 190
1275, 1404.80825214, -73.3641959883, 200
1276, 1404.80825214, -41.6820979941, 180
1277, 1404.80825214, -41.6820979941, 190
1278, 1404.80825214, -41.6820979941, 200
1279, 1404.80825214, -10, 190
1280, 1404.80825214, -10, 200
1281, 1404.80825214, 0, 190
1282, 1404.80825214, 0, 200
1283, 1404.80825214, 10, 190
1284, 1404.80825214, 10, 200
1285, 1404.80825214, 31.9338865331, 180
1286, 1404.80825214, 31.9338865331, 190
1287, 1404.80825214, 31.9338865331, 200
1288, 1404.80825214, 53.8677730662, 180
1289, 1404.80825214, 53.8677730662, 190
1290, 1404.80825214, 53.8677730662, 200
1291, 1404.80825214, 75.8016595993, 180
1292, 1404.80825214, 75.8016595993, 190
1293, 1404.80825214, 75.8016595993, 200
1294, 1404.80825214, 97.7355461324, 180
1295, 1404.80825214, 97.7355461324, 190
1296, 1404.80825214, 97.7355461324, 200
1297, 1453.90670897, -10, 58.1562683587
1298, 1453.90670897, 0, 58.1562683587
1299, 1453.90670897, -10, 82.5250146869
1300, 1453.90670897, 0, 82.5250146869
1301, 1453.90670897, -10, 106.893761015
1302, 1453.90670897, 0, 106.893761015
1303, 1453.90670897, -10, 131.262507343
1304, 1453.90670897, 0, 131.262507343
1305, 1453.90670897, -10, 155.631253672
1306, 1453.90670897, 0, 155.631253672
1307, 1453.90670897, -10, 180
1308, 1453.90670897, 0, 180
1309, 1453.90670897, 10, 58.1562683587
1310, 1453.90670897, 10, 82.5250146869
1311, 1453.90670897, 10, 106.893761015
1312, 1453.90670897, 10, 131.262507343
1313, 1453.90670897, 10, 155.631253672
1314, 1453.90670897, 10, 180
1315, 1453.90670897, -139.060568676, 180
1316, 1453.90670897, -106.795426507, 180
1317, 1453.90670897, -139.060568676, 190
1318, 1453.90670897, -106.795426507, 190
1319, 1453.90670897, -139.060568676, 200
1320, 1453.90670897, -106.795426507, 200
1321, 1453.90670897, -74.5302843379, 180
1322, 1453.90670897, -74.5302843379, 190
1323, 1453.90670897, -74.5302843379, 200
1324, 1453.90670897, -42.265142169, 180
1325, 1453.90670897, -42.265142169, 190
1326, 1453.90670897, -42.265142169, 200
1327, 1453.90670897, -10, 190
1328, 1453.90670897, -10, 200
1329, 1453.90670897, 0, 190
1330, 1453.90670897, 0, 200
1331, 1453.90670897, 10, 190
1332, 1453.90670897, 10, 200
1333, 1453.90670897, 31.2587827517, 180
1334, 1453.90670897, 31.2587827517, 190
1335, 1453.90670897, 31.2587827517, 200
1336, 1453.90670897, 52.5175655034, 180
1337, 1453.90670897, 52.5175655034, 190
1338, 1453.90670897, 52.5175655034, 200
1339, 1453.90670897, 73.7763482551, 180
1340, 1453.90670897, 73.7763482551, 190
1341, 1453.90670897, 73.7763482551, 200
1342, 1453.90670897, 95.0351310069, 180
1343, 1453.90670897, 95.0351310069, 190
1344, 1453.90670897, 95.0351310069, 200
1345, 1502.68634693, -10, 60.1074538772
1346, 1502.68634693, 0, 60.1074538772
1347, 1502.68634693, -10, 84.0859631017
1348, 1502.68634693, 0, 84.0859631017
1349, 1502.68634693, -10, 108.064472326
1350, 1502.68634693, 0, 108.064472326
1351, 1502.68634693, -10, 132.042981551
1352, 1502.68634693, 0, 132.042981551
1353, 1502.68634693, -10, 156.021490775
1354, 1502.68634693, 0, 156.021490775
1355, 1502.68634693, -10, 180
1356, 1502.68634693, 0, 180
1357, 1502.68634693, 10, 60.1074538772
1358, 1502.68634693, 10, 84.0859631017
1359, 1502.68634693, 10, 108.064472326
1360, 1502.68634693, 10, 132.042981551
1361, 1502.68634693, 10, 156.021490775
1362, 1502.68634693, 10, 180
1363, 1502.68634693, -141.377601479, 180
1364, 1502.68634693, -108.533201109, 180
1365, 1502.68634693, -141.377601479, 190
1366, 1502.68634693, -108.533201109, 190
1367, 1502.68634693, -141.377601479, 200
1368, 1502.68634693, -108.533201109, 200
1369, 1502.68634693, -75.6888007396, 180
1370, 1502.68634693, -75.6888007396, 190
1371, 1502.68634693, -75.6888007396, 200
1372, 1502.68634693, -42.8444003698, 180
1373, 1502.68634693, -42.8444003698, 190
1374, 1502.68634693, -42.8444003698, 200
1375, 1502.68634693, -10, 190
1376, 1502.68634693, -10, 200
1377, 1502.68634693, 0, 190
1378, 1502.68634693, 0, 200
1379, 1502.68634693, 10, 190
1380, 1502.68634693, 10, 200
1381, 1502.68634693, 30.5880627297, 180
1382, 1502.68634693, 30.5880627297, 190
1383, 1502.68634693, 30.5880627297, 200
1384, 1502.68634693, 51.1761254595, 180
1385, 1502.68634693, 51.1761254595, 190
1386, 1502.68634693, 51.1761254595, 200
1387, 1502.68634693, 71.7641881892, 180
1388, 1502.68634693, 71.7641881892, 190
1389, 1502.68634693, 71.7641881892, 200
1390, 1502.68634693, 92.3522509189, 180
1391, 1502.68634693, 92.3522509189, 190
1392, 1502.68634693, 92.3522509189, 200
1393, 1551.15128641, -10, 62.0460514564
1394, 1551.15128641, 0, 62.0460514564
1395, 1551.15128641, -10, 85.6368411651
1396, 1551.15128641, 0, 85.6368411651
1397, 1551.15128641, -10, 109.227630874
1398, 1551.15128641, 0, 109.227630874
1399, 1551.15128641, -10, 132.818420583
1400, 1551.15128641, 0, 132.818420583
1401, 1551.15128641, -10, 156.409210291
1402, 1551.15128641, 0, 156.409210291
1403, 1551.15128641, -10, 180
1404, 1551.15128641, 0, 180
1405, 1551.15128641, 10, 62.0460514564
1406, 1551.15128641, 10, 85.6368411651
1407, 1551.15128641, 10, 109.227630874
1408, 1551.15128641, 10, 132.818420583
1409, 1551.15128641, 10, 156.409210291
1410, 1551.15128641, 10, 180
1411, 1551.15128641, -143.679686104, 180
1412, 1551.15128641, -110.259764578, 180
1413, 1551.15128641, -143.679686104, 190
1414, 1551.15128641, -110.259764578, 190
1415, 1551.15128641, -143.679686104, 200
1416, 1551.15128641, -110.259764578, 200
1417, 1551.15128641, -76.8398430522, 180
1418, 1551.15128641, -76.8398430522, 190
1419, 1551.15128641, -76.8398430522, 200
1420, 1551.15128641, -43.4199215261, 180
1421, 1551.15128641, -43.4199215261, 190
1422, 1551.15128641, -43.4199215261, 200
1423, 1551.15128641, -10, 190
1424, 1551.15128641, -10, 200
1425, 1551.15128641, 0, 190
1426, 1551.15128641, 0, 200
1427, 1551.15128641, 10, 190
1428, 1551.15128641, 10, 200
1429, 1551.15128641, 29.9216698119, 180
1430, 1551.15128641, 29.9216698119, 190
1431, 1551.15128641, 29.9216698119, 200
1432, 1551.15128641, 49.8433396238, 180
1433, 1551.15128641, 49.8433396238, 190
1434, 1551.15128641, 49.8433396238, 200
1435, 1551.15128641, 69.7650094356, 180
1436, 1551.15128641, 69.7650094356, 190
1437, 1551.15128641, 69.7650094356, 200
1438, 1551.15128641, 89.6866792475, 180
1439, 1551.15128641, 89.6866792475, 190
1440, 1551.15128641, 89.6866792475, 200
1441, 1599.30556834, -10, 63.9722227336
1442, 1599.30556834, 0, 63.9722227336
1443, 1599.30556834, -10, 87.1777781869
1444, 1599.30556834, 0, 87.1777781869
1445, 1599.30556834, -10, 110.38333364
1446, 1599.30556834, 0, 110.38333364
1447, 1599.30556834, -10, 133.588889093
1448, 1599.30556834, 0, 133.588889093
1449, 1599.30556834, -10, 156.794444547
1450, 1599.30556834, 0, 156.794444547
1451, 1599.30556834, -10, 180
1452, 1599.30556834, 0, 180
1453, 1599.30556834, 10, 63.9722227336
1454, 1599.30556834, 10, 87.1777781869
1455, 1599.30556834, 10, 110.38333364
1456, 1599.30556834, 10, 133.588889093
1457, 1599.30556834, 10, 156.794444547
1458, 1599.30556834, 10, 180
1459, 1599.30556834, -145.967014496, 180
1460, 1599.30556834, -111.975260872, 180
1461, 1599.30556834, -145.967014496, 190
1462, 1599.30556834, -111.975260872, 190
1463, 1599.30556834, -145.967014496, 200
1464, 1599.30556834, -111.975260872, 200
1465, 1599.30556834, -77.9835072481, 180
1466, 1599.30556834, -77.9835072481, 190
1467, 1599.30556834, -77.9835072481, 200
1468, 1599.30556834, -43.991753624, 180
1469, 1599.30556834, -43.991753624, 190
1470, 1599.30556834, -43.991753624, 200
1471, 1599.30556834, -10, 190
1472, 1599.30556834, -10, 200
1473, 1599.30556834, 0, 190
1474, 1599.30556834, 0, 200
1475, 1599.30556834, 10, 190
1476, 1599.30556834, 10, 200
1477, 1599.30556834, 29.2595484353, 180
1478, 1599.30556834, 29.2595484353, 190
1479, 1599.30556834, 29.2595484353, 200
1480, 1599.30556834, 48.5190968706, 180
1481, 1599.30556834, 48.5190968706, 190
1482, 1599.30556834, 48.5190968706, 200
1483, 1599.30556834, 67.7786453059, 180
1484, 1599.30556834, 67.7786453059, 190
1485, 1599.30556834, 67.7786453059, 200
1486, 1599.30556834, 87.0381937413, 180
1487, 1599.30556834, 87.0381937413, 190
1488, 1599.30556834, 87.0381937413, 200
1489, 1647.15315624, -10, 65.8861262496
1490, 1647.15315624, 0, 65.8861262496
1491, 1647.15315624, -10, 88.7089009997
1492, 1647.15315624, 0, 88.7089009997
1493, 1647.15315624, -10, 111.53167575
1494, 1647.15315624, 0, 111.53167575
1495, 1647.15315624, -10, 134.3544505
1496, 1647.15315624, 0, 134.3544505
1497, 1647.15315624, -10, 157.17722525
1498, 1647.15315624, 0, 157.17722525
1499, 1647.15315624, -10, 180
1500, 1647.15315624, 0, 180
1501, 1647.15315624, 10, 65.8861262496
1502, 1647.15315624, 10, 88.7089009997
1503, 1647.15315624, 10, 111.53167575
1504, 1647.15315624, 10, 134.3544505
1505, 1647.15315624, 10, 157.17722525
1506, 1647.15315624, 10, 180
1507, 1647.15315624, -148.239774921, 180
1508, 1647.15315624, -113.679831191, 180
1509, 1647.15315624, -148.239774921, 190
1510, 1647.15315624, -113.679831191, 190
1511, 1647.15315624, -148.239774921, 200
1512, 1647.15315624, -113.679831191, 200
1513, 1647.15315624, -79.1198874607, 180
1514, 1647.15315624, -79.1198874607, 190
1515, 1647.15315624, -79.1198874607, 200
1516, 1647.15315624, -44.5599437304, 180
1517, 1647.15315624, -44.5599437304, 190
1518, 1647.15315624, -44.5599437304, 200
1519, 1647.15315624, -10, 190
1520, 1647.15315624, -10, 200
1521, 1647.15315624, 0, 190
1522, 1647.15315624, 0, 200
1523, 1647.15315624, 10, 190
1524, 1647.15315624, 10, 200
1525, 1647.15315624, 28.6016441017, 180
1526, 1647.15315624, 28.6016441017, 190
1527, 1647.15315624, 28.6016441017, 200
1528, 1647.15315624, 47.2032882034, 180
1529, 1647.15315624, 47.2032882034, 190
1530, 1647.15315624, 47.2032882034, 200
1531, 1647.15315624, 65.8049323051, 180
1532, 1647.15315624, 65.8049323051, 190
1533, 1647.15315624, 65.8049323051, 200
1534, 1647.15315624, 84.4065764067, 180
1535, 1647.15315624, 84.4065764067, 190
1536, 1647.15315624, 84.4065764067, 200
1537, 1694.69793818, -10, 67.787917527
1538, 1694.69793818, 0, 67.787917527
1539, 1694.69793818, -10, 90.2303340216
1540, 1694.69793818, 0, 90.2303340216
1541, 1694.69793818, -10, 112.672750516
1542, 1694.69793818, 0, 112.672750516
1543, 1694.69793818, -10, 135.115167011
1544, 1694.69793818, 0, 135.115167011
1545, 1694.69793818, -10, 157.557583505
1546, 1694.69793818, 0, 157.557583505
1547, 1694.69793818, -10, 180
1548, 1694.69793818, 0, 180
1549, 1694.69793818, 10, 67.787917527
1550, 1694.69793818, 10, 90.2303340216
1551, 1694.69793818, 10, 112.672750516
1552, 1694.69793818, 10, 135.115167011
1553, 1694.69793818, 10, 157.557583505
1554, 1694.69793818, 10, 180
1555, 1694.69793818, -150.498152063, 180
1556, 1694.69793818, -115.373614048, 180
1557, 1694.69793818, -150.498152063, 190
1558, 1694.69793818, -115.373614048, 190
1559, 1694.69793818, -150.498152063, 200
1560, 1694.69793818, -115.373614048, 200
1561, 1694.69793818, -80.2490760317, 180
1562, 1694.69793818, -80.2490760317, 190
1563, 1694.69793818, -80.2490760317, 200
1564, 1694.69793818, -45.1245380158, 180
1565, 1694.69793818, -45.1245380158, 190
1566, 1694.69793818, -45.1245380158, 200
1567, 1694.69793818, -10, 190
1568, 1694.69793818, -10, 200
1569, 1694.69793818, 0, 190
1570, 1694.69793818, 0, 200
1571, 1694.69793818, 10, 190
1572, 1694.69793818, 10, 200
1573, 1694.69793818, 27.9479033501, 180
1574, 1694.69793818, 27.9479033501, 190
1575, 1694.69793818, 27.9479033501, 200
1576, 1694.69793818, 45.8958067002, 180
1577, 1694.69793818, 45.8958067002, 190
1578, 1694.69793818, 45.8958067002, 200
1579, 1694.69793818, 63.8437100503, 180
1580, 1694.69793818, 63.8437100503, 190
1581, 1694.69793818, 63.8437100503, 200
1582, 1694.69793818, 81.7916134003, 180
1583, 1694.69793818, 81.7916134003, 190
1584, 1694.69793818, 81.7916134003, 200
1585, 1741.94372866, -10, 69.6777491465
1586, 1741.94372866, 0, 69.6777491465
1587, 1741.94372866, -10, 91.7421993172
1588, 1741.94372866, 0, 91.7421993172
1589, 1741.94372866, -10, 113.806649488
1590, 1741.94372866, 0, 113.806649488
1591, 1741.94372866, -10, 135.871099659
1592, 1741.94372866, 0, 135.871099659
1593, 1741.94372866, -10, 157.935549829
1594, 1741.94372866, 0, 157.935549829
1595, 1741.94372866, -10, 180
1596, 1741.94372866, 0, 180
1597, 1741.94372866, 10, 69.6777491465
1598, 1741.94372866, 10, 91.7421993172
1599, 1741.94372866, 10, 113.806649488
1600, 1741.94372866, 10, 135.871099659
1601, 1741.94372866, 10, 157.935549829
1602, 1741.94372866, 10, 180
1603, 1741.94372866, -152.742327112, 180
1604, 1741.94372866, -117.056745334, 180
1605, 1741.94372866, -152.742327112, 190
1606, 1741.94372866, -117.056745334, 190
1607, 1741.94372866, -152.742327112, 200
1608, 1741.94372866, -117.056745334, 200
1609, 1741.94372866, -81.3711635558, 180
1610, 1741.94372866, -81.3711635558, 190
1611, 1741.94372866, -81.3711635558, 200
1612, 1741.94372866, -45.6855817779, 180
1613, 1741.94372866, -45.6855817779, 190
1614, 1741.94372866, -45.6855817779, 200
1615, 1741.94372866, -10, 190
1616, 1741.94372866, -10, 200
1617, 1741.94372866, 0, 190
1618, 1741.94372866, 0, 200
1619, 1741.94372866, 10, 190
1620, 1741.94372866, 10, 200
1621, 1741.94372866, 27.2982737309, 180
1622, 1741.94372866, 27.2982737309, 190
1623, 1741.94372866, 27.2982737309, 200
1624, 1741.94372866, 44.5965474617, 180
1625, 1741.94372866, 44.5965474617, 190
1626, 1741.94372866, 44.5965474617, 200
1627, 1741.94372866, 61.8948211926, 180
1628, 1741.94372866, 61.8948211926, 190
1629, 1741.94372866, 61.8948211926, 200
1630, 1741.94372866, 79.1930949235, 180
1631, 1741.94372866, 79.1930949235, 190
1632, 1741.94372866, 79.1930949235, 200
1633, 1788.89427052, -10, 71.5557708209
1634, 1788.89427052, 0, 71.5557708209
1635, 1788.89427052, -10, 93.2446166567
1636, 1788.89427052, 0, 93.2446166567
1637, 1788.89427052, -10, 114.933462493
1638, 1788.89427052, 0, 114.933462493
1639, 1788.89427052, -10, 136.622308328
1640, 1788.89427052, 0, 136.622308328
1641, 1788.89427052, -10, 158.311154164
1642, 1788.89427052, 0, 158.311154164
1643, 1788.89427052, -10, 180
1644, 1788.89427052, 0, 180
1645, 1788.89427052, 10, 71.5557708209
1646, 1788.89427052, 10, 93.2446166567
1647, 1788.89427052, 10, 114.933462493
1648, 1788.89427052, 10, 136.622308328
1649, 1788.89427052, 10, 158.311154164
1650, 1788.89427052, 10, 180
1651, 1788.89427052, -154.97247785, 180
1652, 1788.89427052, -118.729358387, 180
1653, 1788.89427052, -154.97247785, 190
1654, 1788.89427052, -118.729358387, 190
1655, 1788.89427052, -154.97247785, 200
1656, 1788.89427052, -118.729358387, 200
1657, 1788.89427052, -82.4862389249, 180
1658, 1788.89427052, -82.4862389249, 190
1659, 1788.89427052, -82.4862389249, 200
1660, 1788.89427052, -46.2431194625, 180
1661, 1788.89427052, -46.2431194625, 190
1662, 1788.89427052, -46.2431194625, 200
1663, 1788.89427052, -10, 190
1664, 1788.89427052, -10, 200
1665, 1788.89427052, 0, 190
1666, 1788.89427052, 0, 200
1667, 1788.89427052, 10, 190
1668, 1788.89427052, 10, 200
1669, 1788.89427052, 26.6527037803, 180
1670, 1788.89427052, 26.6527037803, 190
1671, 1788.89427052, 26.6527037803, 200
1672, 1788.89427052, 43.3054075606, 180
1673, 1788.89427052, 43.3054075606, 190
1674, 1788.89427052, 43.3054075606, 200
1675, 1788.89427052, 59.9581113409, 180
1676, 1788.89427052, 59.9581113409, 190
1677, 1788.89427052, 59.9581113409, 200
1678, 1788.89427052, 76.6108151212, 180
1679, 1788.89427052, 76.6108151212, 190
1680, 1788.89427052, 76.6108151212, 200
1681, 1835.55323666, -10, 73.4221294662
1682, 1835.55323666, 0, 73.4221294662
1683, 1835.55323666, -10, 94.737703573
1684, 1835.55323666, 0, 94.737703573
1685, 1835.55323666, -10, 116.05327768
1686, 1835.55323666, 0, 116.05327768
1687, 1835.55323666, -10, 137.368851786
1688, 1835.55323666, 0, 137.368851786
1689, 1835.55323666, -10, 158.684425893
1690, 1835.55323666, 0, 158.684425893
1691, 1835.55323666, -10, 180
1692, 1835.55323666, 0, 180
1693, 1835.55323666, 10, 73.4221294662
1694, 1835.55323666, 10, 94.737703573
1695, 1835.55323666, 10, 116.05327768
1696, 1835.55323666, 10, 137.368851786
1697, 1835.55323666, 10, 158.684425893
1698, 1835.55323666, 10, 180
1699, 1835.55323666, -157.188778741, 180
1700, 1835.55323666, -120.391584056, 180
1701, 1835.55323666, -157.188778741, 190
1702, 1835.55323666, -120.391584056, 190
1703, 1835.55323666, -157.188778741, 200
1704, 1835.55323666, -120.391584056, 200
1705, 1835.55323666, -83.5943893706, 180
1706, 1835.55323666, -83.5943893706, 190
1707, 1835.55323666, -83.5943893706, 200
1708, 1835.55323666, -46.7971946853, 180
1709, 1835.55323666, -46.7971946853, 190
1710, 1835.55323666, -46.7971946853, 200
1711, 1835.55323666, -10, 190
1712, 1835.55323666, -10, 200
1713, 1835.55323666, 0, 190
1714, 1835.55323666, 0, 200
1715, 1835.55323666, 10, 190
1716, 1835.55323666, 10, 200
1717, 1835.55323666, 26.011142996, 180
1718, 1835.55323666, 26.011142996, 190
1719, 1835.55323666, 26.011142996, 200
1720, 1835.55323666, 42.022285992, 180
1721, 1835.55323666, 42.022285992, 190
1722, 1835.55323666, 42.022285992, 200
1723, 1835.55323666, 58.0334289879, 180
1724, 1835.55323666, 58.0334289879, 190
1725, 1835.55323666, 58.0334289879, 200
1726, 1835.55323666, 74.0445719839, 180
1727, 1835.55323666, 74.0445719839, 190
1728, 1835.55323666, 74.0445719839, 200
1729, 1881.92423178, -10, 75.2769692713
1730, 1881.92423178, 0, 75.2769692713
1731, 1881.92423178, -10, 96.2215754171
1732, 1881.92423178, 0, 96.2215754171
1733, 1881.92423178, -10, 117.166181563
1734, 1881.92423178, 0, 117.166181563
1735, 1881.92423178, -10, 138.110787709
1736, 1881.92423178, 0, 138.110787709
1737, 1881.92423178, -10, 159.055393854
1738, 1881.92423178, 0, 159.055393854
1739, 1881.92423178, -10, 180
1740, 1881.92423178, 0, 180
1741, 1881.92423178, 10, 75.2769692713
1742, 1881.92423178, 10, 96.2215754171
1743, 1881.92423178, 10, 117.166181563
1744, 1881.92423178, 10, 138.110787709
1745, 1881.92423178, 10, 159.055393854
1746, 1881.92423178, 10, 180
1747, 1881.92423178, -159.39140101, 180
1748, 1881.92423178, -122.043550757, 180
1749, 1881.92423178, -159.39140101, 190
1750, 1881.92423178, -122.043550757, 190
1751, 1881.92423178, -159.39140101, 200
1752, 1881.92423178, -122.043550757, 200
1753, 1881.92423178, -84.6957005048, 180
1754, 1881.92423178, -84.6957005048, 190
1755, 1881.92423178, -84.6957005048, 200
1756, 1881.92423178, -47.3478502524, 180
1757, 1881.92423178, -47.3478502524, 190
1758, 1881.92423178, -47.3478502524, 200
1759, 1881.92423178, -10, 190
1760, 1881.92423178, -10, 200
1761, 1881.92423178, 0, 190
1762, 1881.92423178, 0, 200
1763, 1881.92423178, 10, 190
1764, 1881.92423178, 10, 200
1765, 1881.92423178, 25.373541813, 180
1766, 1881.92423178, 25.373541813, 190
1767, 1881.92423178, 25.373541813, 200
1768, 1881.92423178, 40.747083626, 180
1769, 1881.92423178, 40.747083626, 190
1770, 1881.92423178, 40.747083626, 200
1771, 1881.92423178, 56.120625439, 180
1772, 1881.92423178, 56.120625439, 190
1773, 1881.92423178, 56.120625439, 200
1774, 1881.92423178, 71.4941672519, 180
1775, 1881.92423178, 71.4941672519, 190
1776, 1881.92423178, 71.4941672519, 200
1777, 1928.01079412, -10, 77.1204317648
1778, 1928.01079412, 0, 77.1204317648
1779, 1928.01079412, -10, 97.6963454119
1780, 1928.01079412, 0, 97.6963454119
1781, 1928.01079412, -10, 118.272259059
1782, 1928.01079412, 0, 118.272259059
1783, 1928.01079412, -10, 138.848172706
1784, 1928.01079412, 0, 138.848172706
1785, 1928.01079412, -10, 159.424086353
1786, 1928.01079412, 0, 159.424086353
1787, 1928.01079412, -10, 180
1788, 1928.01079412, 0, 180
1789, 1928.01079412, 10, 77.1204317648
1790, 1928.01079412, 10, 97.6963454119
1791, 1928.01079412, 10, 118.272259059
1792, 1928.01079412, 10, 138.848172706
1793, 1928.01079412, 10, 159.424086353
1794, 1928.01079412, 10, 180
1795, 1928.01079412, -161.580512721, 180
1796, 1928.01079412, -123.685384541, 180
1797, 1928.01079412, -161.580512721, 190
1798, 1928.01079412, -123.685384541, 190
1799, 1928.01079412, -161.580512721, 200
1800, 1928.01079412, -123.685384541, 200
1801, 1928.01079412, -85.7902563604, 180
1802, 1928.01079412, -85.7902563604, 190
1803, 1928.01079412, -85.7902563604, 200
1804, 1928.01079412, -47.8951281802, 180
1805, 1928.01079412, -47.8951281802, 190
1806, 1928.01079412, -47.8951281802, 200
1807, 1928.01079412, -10, 190
1808, 1928.01079412, -10, 200
1809, 1928.01079412, 0, 190
1810, 1928.01079412, 0, 200
1811, 1928.01079412, 10, 190
1812, 1928.01079412, 10, 200
1813, 1928.01079412, 24.7398515808, 180
1814, 1928.01079412, 24.7398515808, 190
1815, 1928.01079412, 24.7398515808, 200
1816, 1928.01079412, 39.4797031617, 180
1817, 1928.01079412, 39.4797031617, 190
1818, 1928.01079412, 39.4797031617, 200
1819, 1928.01079412, 54.2195547425, 180
1820, 1928.01079412, 54.2195547425, 190
1821, 1928.01079412, 54.2195547425, 200
1822, 1928.01079412, 68.9594063234, 180
1823, 1928.01079412, 68.9594063234, 190
1824, 1928.01079412, 68.9594063234, 200
1825, 1973.81639701, -10, 78.9526558803
1826, 1973.81639701, 0, 78.9526558803
1827, 1973.81639701, -10, 99.1621247042
1828, 1973.81639701, 0, 99.1621247042
1829, 1973.81639701, -10, 119.371593528
1830, 1973.81639701, 0, 119.371593528
1831, 1973.81639701, -10, 139.581062352
1832, 1973.81639701, 0, 139.581062352
1833, 1973.81639701, -10, 159.790531176
1834, 1973.81639701, 0, 159.790531176
1835, 1973.81639701, -10, 180
1836, 1973.81639701, 0, 180
1837, 1973.81639701, 10, 78.9526558803
1838, 1973.81639701, 10, 99.1621247042
1839, 1973.81639701, 10, 119.371593528
1840, 1973.81639701, 10, 139.581062352
1841, 1973.81639701, 10, 159.790531176
1842, 1973.81639701, 10, 180
1843, 1973.81639701, -163.756278858, 180
1844, 1973.81639701, -125.317209143, 180
1845, 1973.81639701, -163.756278858, 190
1846, 1973.81639701, -125.317209143, 190
1847, 1973.81639701, -163.756278858, 200
1848, 1973.81639701, -125.317209143, 200
1849, 1973.81639701, -86.8781394289, 180
1850, 1973.81639701, -86.8781394289, 190
1851, 1973.81639701, -86.8781394289, 200
1852, 1973.81639701, -48.4390697145, 180
1853, 1973.81639701, -48.4390697145, 190
1854, 1973.81639701, -48.4390697145, 200
1855, 1973.81639701, -10, 190
1856, 1973.81639701, -10, 200
1857, 1973.81639701, 0, 190
1858, 1973.81639701, 0, 200
1859, 1973.81639701, 10, 190
1860, 1973.81639701, 10, 200
1861, 1973.81639701, 24.1100245411, 180
1862, 1973.81639701, 24.1100245411, 190
1863, 1973.81639701, 24.1100245411, 200
1864, 1973.81639701, 38.2200490823, 180
1865, 1973.81639701, 38.2200490823, 190
1866, 1973.81639701, 38.2200490823, 200
1867, 1973.81639701, 52.3300736234, 180
1868, 1973.81639701, 52.3300736234, 190
1869, 1973.81639701, 52.3300736234, 200
1870, 1973.81639701, 66.4400981646, 180
1871, 1973.81639701, 66.4400981646, 190
1872, 1973.81639701, 66.4400981646, 200
1873, 2000, -10, 80
1874, 2000, 0, 80
1875, 2000, -10, 100
1876, 2000, 0, 100
1877, 2000, -10, 120
1878, 2000, 0, 120
1879, 2000, -10, 140
1880, 2000, 0, 140
1881, 2000, -10, 160
1882, 2000, 0, 160
1883, 2000, -10, 180
1884, 2000, 0, 180
1885, 2000, 10, 80
1886, 2000, 10, 100
1887, 2000, 10, 120
1888, 2000, 10, 140
1889, 2000, 10, 160
1890, 2000, 10, 180
1891, 2000, -165, 180
1892, 2000, -126.25, 180
1893, 2000, -165, 190
1894, 2000, -126.25, 190
1895, 2000, -165, 200
1896, 2000, -126.25, 200
1897, 2000, -87.5, 180
1898, 2000, -87.5, 190
1899, 2000, -87.5, 200
1900, 2000, -48.75, 180
1901, 2000, -48.75, 190
1902, 2000, -48.75, 200
1903, 2000, -10, 190
1904, 2000, -10, 200
1905, 2000, 0, 190
1906, 2000, 0, 200
1907, 2000, 10, 190
1908, 2000, 10, 200
1909, 2000, 23.75, 180
1910, 2000, 23.75, 190
1911, 2000, 23.75, 200
1912, 2000, 37.5, 180
1913, 2000, 37.5, 190
1914, 2000, 37.5, 200
1915, 2000, 51.25, 180
1916, 2000, 51.25, 190
1917, 2000, 51.25, 200
1918, 2000, 65, 180
1919, 2000, 65, 190
1920, 2000, 65, 200
*ELEMENT, TYPE=C3D8, ELSET=EALL
1, 1, 2, 3, 4, 5, 6, 7, 8
2, 5, 6, 7, 8, 9, 10, 11, 12
3, 9, 10, 11, 12, 13, 14, 15, 16
4, 13, 14, 15, 16, 17, 18, 19, 20
5, 17, 18, 19, 20, 21, 22, 23, 24
6, 4, 3, 25, 26, 8, 7, 27, 28
7, 8, 7, 27, 28, 12, 11, 29, 30
8, 12, 11, 29, 30, 16, 15, 31, 32
9, 16, 15, 31, 32, 20, 19, 33, 34
10, 20, 19, 33, 34, 24, 23, 35, 36
11, 37, 38, 39, 40, 41, 42, 43, 44
12, 41, 42, 43, 44, 45, 46, 47, 48
13, 40, 39, 49, 50, 44, 43, 51, 52
14, 44, 43, 51, 52, 48, 47, 53, 54
15, 50, 49, 55, 56, 52, 51, 57, 58
16, 52, 51, 57, 58, 54, 53, 59, 60
17, 56, 55, 22, 21, 58, 57, 61, 62
18, 58, 57, 61, 62, 60, 59, 63, 64
19, 21, 22, 23, 24, 62, 61, 65, 66
20, 62, 61, 65, 66, 64, 63, 67, 68
21, 24, 23, 35, 36, 66, 65, 69, 70
22, 66, 65, 69, 70, 68, 67, 71, 72
23, 36, 35, 73, 74, 70, 69, 75, 76
24, 70, 69, 75, 76, 72, 71, 77, 78
25, 74, 73, 79, 80, 76, 75, 81, 82
26, 76, 75, 81, 82, 78, 77, 83, 84
27, 80, 79, 85, 86, 82, 81, 87, 88
28, 82, 81, 87, 88, 84, 83, 89, 90
29, 86, 85, 91, 92, 88, 87, 93, 94
30, 88, 87, 93, 94, 90, 89, 95, 96
31, 2, 97, 98, 3, 6, 99, 100, 7
32, 6, 99, 100, 7, 10, 101, 102, 11
33, 10, 101, 102, 11, 14, 103, 104, 15
34, 14, 103, 104, 15, 18, 105, 106, 19
35, 18, 105, 106, 19, 22, 107, 108, 23
36, 3, 98, 109, 25, 7, 100, 110, 27
37, 7, 100, 110, 27, 11, 102, 111, 29
38, 11, 102, 111, 29, 15, 104, 112, 31
39, 15, 104, 112, 31, 19, 106, 113, 33
40, 19, 106, 113, 33, 23, 108, 114, 35
41, 38, 115, 116, 39, 42, 117, 118, 43
42, 42, 117, 118, 43, 46, 119, 120, 47
43, 39, 116, 121, 49, 43, 118, 122, 51
44, 43, 118, 122, 51, 47, 120, 123, 53
45, 49, 121, 124, 55, 51, 122, 125, 57
46, 51, 122, 125, 57, 53, 123, 126, 59
47, 55, 124, 107, 22, 57, 125, 127, 61
48, 57, 125, 127, 61, 59, 126, 128, 63
49, 22, 107, 108, 23, 61, 127, 129, 65
50, 61, 127, 129, 65, 63, 128, 130, 67
51, 23, 108, 114, 35, 65, 129, 131, 69
52, 65, 129, 131, 69, 67, 130, 132, 71
53, 35, 114, 133, 73, 69, 131, 134, 75
54, 69, 131, 134, 75, 71, 132, 135, 77
55, 73, 133, 136, 79, 75, 134, 137, 81
56, 75, 134, 137, 81, 77, 135, 138, 83
57, 79, 136, 139, 85, 81, 137, 140, 87
58, 81, 137, 140, 87, 83, 138, 141, 89
59, 85, 139, 142, 91, 87, 140, 143, 93
60, 87, 140, 143, 93, 89, 141, 144, 95
61, 97, 145, 146, 98, 99, 147, 148, 100
62, 99, 147, 148, 100, 101, 149, 150, 102
63, 101, 149, 150, 102, 103, 151, 152, 104
64, 103, 151, 152, 104, 105, 153, 154, 106
65, 105, 153, 154, 106, 107, 155, 156, 108
66, 98, 146, 157, 109, 100, 148, 158, 110
67, 100, 148, 158, 110, 102, 150, 159, 111
68, 102, 150, 159, 111, 104, 152, 160, 112
69, 104, 152, 160, 112, 106, 154, 161, 113
70, 106, 154, 161, 113, 108, 156, 162, 114
71, 115, 163, 164, 116, 117, 165, 166, 118
72, 117, 165, 166, 118, 119, 167, 168, 120
73, 116, 164, 169, 121, 118, 166, 170, 122
74, 118, 166, 170, 122, 120, 168, 171, 123
75, 121, 169, 172, 124, 122, 170, 173, 125
76, 122, 170, 173, 125, 123, 171, 174, 126
77, 124, 172, 155, 107, 125, 173, 175, 127
78, 125, 173, 175, 127, 126, 174, 176, 128
79, 107, 155, 156, 108, 127, 175, 177, 129
80, 127, 175, 177, 129, 128, 176, 178, 130
81, 108, 156, 162, 114, 129, 177, 179, 131
82, 129, 177, 179, 131, 130, 178, 180, 132
83, 114, 162, 181, 133, 131, 179, 182, 134
84, 131, 179, 182, 134, 132, 180, 183, 135
85, 133, 181, 184, 136, 134, 182, 185, 137
86, 134, 182, 185, 137, 135, 183, 186, 138
87, 136, 184, 187, 139, 137, 185, 188, 140
88, 137, 185, 188, 140, 138, 186, 189, 141
89, 139, 187, 190, 142, 140, 188, 191, 143
90, 140, 188, 191, 143, 141, 189, 192, 144
91, 145, 193, 194, 146, 147, 195, 196, 148
92, 147, 195, 196, 148, 149, 197, 198, 150
93, 149, 197, 198, 150, 151, 199, 200, 152
94, 151, 199, 200, 152, 153, 201, 202, 154
95, 153, 201, 202, 154, 155, 203, 204, 156
96, 146, 194, 205, 157, 148, 196, 206, 158
97, 148, 196, 206, 158, 150, 198, 207, 159
98, 150, 198, 207, 159, 152, 200, 208, 160
99, 152, 200, 208, 160, 154, 202, 209, 161
100, 154, 202, 209, 161, 156, 204, 210, 162
101, 163, 211, 212, 164, 165, 213, 214, 166
102, 165, 213, 214, 166, 167, 215, 216, 168
103, 164, 212, 217, 169, 166, 214, 218, 170
104, 166, 214, 218, 170, 168, 216, 219, 171
105, 169, 217, 220, 172, 170, 218, 221, 173
106, 170, 218, 221, 173, 171, 219, 222, 174
107, 172, 220, 203, 155, 173, 221, 223, 175
108, 173, 221, 223, 175, 174, 222, 224, 176
109, 155, 203, 204, 156, 175, 223, 225, 177
110, 175, 223, 225, 177, 176, 224, 226, 178
111, 156, 204, 210, 162, 177, 225, 227, 179
112, 177, 225, 227, 179, 178, 226, 228, 180
113, 162, 210, 229, 181, 179, 227, 230, 182
114, 179, 227, 230, 182, 180, 228, 231, 183
115, 181, 229, 232, 184, 182, 230, 233, 185
116, 182, 230, 233, 185, 183, 231, 234, 186
117, 184, 232, 235, 187, 185, 233, 236, 188
118, 185, 233, 236, 188, 186, 234, 237, 189
119, 187, 235, 238, 190, 188, 236, 239, 191
120, 188, 236, 239, 191, 189, 237, 240, 192
121, 193, 241, 242, 194, 195, 243, 244, 196
122, 195, 243, 244, 196, 197, 245, 246, 198
123, 197, 245, 246, 198, 199, 247, 248, 200
124, 199, 247, 248, 200, 201, 249, 250, 202
125, 201, 249, 250, 202, 203, 251, 252, 204
126, 194, 242, 253, 205, 196, 244, 254, 206
127, 196, 244, 254, 206, 198, 246, 255, 207
128, 198, 246, 255, 207, 200, 248, 256, 208
129, 200, 248, 256, 208, 202, 250, 257, 209
130, 202, 250, 257, 209, 204, 252, 258, 210
131, 211, 259, 260, 212, 213, 261, 262, 214
132, 213, 261, 262, 214, 215, 263, 264, 216
133, 212, 260, 265, 217, 214, 262, 266, 218
134, 214, 262, 266, 218, 216, 264, 267, 219
135, 217, 265, 268, 220, 218, 266, 269, 221
136, 218, 266, 269, 221, 219, 267, 270, 222
137, 220, 268, 251, 203, 221, 269, 271, 223
138, 221, 269, 271, 223, 222, 270, 272, 224
139, 203, 251, 252, 204, 223, 271, 273, 225
140, 223, 271, 273, 225, 224, 272, 274, 226
141, 204, 252, 258, 210, 225, 273, 275, 227
142, 225, 273, 275, 227, 226, 274, 276, 228
143, 210, 258, 277, 229, 227, 275, 278, 230
144, 227, 275, 278, 230, 228, 276, 279, 231
145, 229, 277, 280, 232, 230, 278, 281, 233
146, 230, 278, 281, 233, 231, 279, 282, 234
147, 232, 280, 283, 235, 233, 281, 284, 236
148, 233, 281, 284, 236, 234, 282, 285, 237
149, 235, 283, 286, 238, 236, 284, 287, 239
150, 236, 284, 287, 239, 237, 285, 288, 240
151, 241, 289, 290, 242, 243, 291, 292, 244
152, 243, 291, 292, 244, 245, 293, 294, 246
153, 245, 293, 294, 246, 247, 295, 296, 248
154, 247, 295, 296, 248, 249, 297, 298, 250
155, 249, 297, 298, 250, 251, 299, 300, 252
156, 242, 290, 301, 253, 244, 292, 302, 254
157, 244, 292, 302, 254, 246, 294, 303, 255
158, 246, 294, 303, 255, 248, 296, 304, 256
159, 248, 296, 304, 256, 250, 298, 305, 257
160, 250, 298, 305, 257, 252, 300, 306, 258
161, 259, 307, 308, 260, 261, 309, 310, 262
162, 261, 309, 310, 262, 263, 311, 312, 264
163, 260, 308, 313, 265, 262, 310, 314, 266
164, 262, 310, 314, 266, 264, 312, 315, 267
165, 265, 313, 316, 268, 266, 314, 317, 269
166, 266, 314, 317, 269, 267, 315, 318, 270
167, 268, 316, 299, 251, 269, 317, 319, 271
168, 269, 317, 319, 271, 270, 318, 320, 272
169, 251, 299, 300, 252, 271, 319, 321, 273
170, 271, 319, 321, 273, 272, 320, 322, 274
171, 252, 300, 306, 258, 273, 321, 323, 275
172, 273, 321, 323, 275, 274, 322, 324, 276
173, 258, 306, 325, 277, 275, 323, 326, 278
174, 275, 323, 326, 278, 276, 324, 327, 279
175, 277, 325, 328, 280, 278, 326, 329, 281
176, 278, 326, 329, 281, 279, 327, 330, 282
177, 280, 328, 331, 283, 281, 329, 332, 284
178, 281, 329, 332, 284, 282, 330, 333, 285
179, 283, 331, 334, 286, 284, 332, 335, 287
180, 284, 332, 335, 287, 285, 333, 336, 288
181, 289, 337, 338, 290, 291, 339, 340, 292
182, 291, 339, 340, 292, 293, 341, 342, 294
183, 293, 341, 342, 294, 295, 343, 344, 296
184, 295, 343, 344, 296, 297, 345, 346, 298
185, 297, 345, 346, 298, 299, 347, 348, 300
186, 290, 338, 349, 301, 292, 340, 350, 302
187, 292, 340, 350, 302, 294, 342, 351, 303
188, 294, 342, 351, 303, 296, 344, 352, 304
189, 296, 344, 352, 304, 298, 346, 353, 305
190, 298, 346, 353, 305, 300, 348, 354, 306
191, 307, 355, 356, 308, 309, 357, 358, 310
192, 309, 357, 358, 310, 311, 359, 360, 312
193, 308, 356, 361, 313, 310, 358, 362, 314
194, 310, 358, 362, 314, 312, 360, 363, 315
195, 313, 361, 364, 316, 314, 362, 365, 317
196, 314, 362, 365, 317, 315, 363, 366, 318
197, 316, 364, 347, 299, 317, 365, 367, 319
198, 317, 365, 367, 319, 318, 366, 368, 320
199, 299, 347, 348, 300, 319, 367, 369, 321
200, 319, 367, 369, 321, 320, 368, 370, 322
201, 300, 348, 354, 306, 321, 369, 371, 323
202, 321, 369, 371, 323, 322, 370, 372, 324
203, 306, 354, 373, 325, 323, 371, 374, 326
204, 323, 371, 374, 326, 324, 372, 375, 327
205, 325, 373, 376, 328, 326, 374, 377, 329
206, 326, 374, 377, 329, 327, 375, 378, 330
207, 328, 376, 379, 331, 329, 377, 380, 332
208, 329, 377, 380, 332, 330, 378, 381, 333
209, 331, 379, 382, 334, 332, 380, 383, 335
210, 332, 380, 383, 335, 333, 381, 384, 336
211, 337, 385, 386, 338, 339, 387, 388, 340
212, 339, 387, 388, 340, 341, 389, 390, 342
213, 341, 389, 390, 342, 343, 391, 392, 344
214, 343, 391, 392, 344, 345, 393, 394, 346
215, 345, 393, 394, 346, 347, 395, 396, 348
216, 338, 386, 397, 349, 340, 388, 398, 350
217, 340, 388, 398, 350, 342, 390, 399, 351
218, 342, 390, 399, 351, 344, 392, 400, 352
219, 344, 392, 400, 352, 346, 394, 401, 353
220, 346, 394, 401, 353, 348, 396, 402, 354
221, 355, 403, 404, 356, 357, 405, 406, 358
222, 357, 405, 406, 358, 359, 407, 408, 360
223, 356, 404, 409, 361, 358, 406, 410, 362
224, 358, 406, 410, 362, 360, 408, 411, 363
225, 361, 409, 412, 364, 362, 410, 413, 365
226, 362, 410, 413, 365, 363, 411, 414, 366
227, 364, 412, 395, 347, 365, 413, 415, 367
228, 365, 413, 415, 367, 366, 414, 416, 368
229, 347, 395, 396, 348, 367, 415, 417, 369
230, 367, 415, 417, 369, 368, 416, 418, 370
231, 348, 396, 402, 354, 369, 417, 419, 371
232, 369, 417, 419, 371, 370, 418, 420, 372
233, 354, 402, 421, 373, 371, 419, 422, 374
234, 371, 419, 422, 374, 372, 420, 423, 375
235, 373, 421, 424, 376, 374, 422, 425, 377
236, 374, 422, 425, 377, 375, 423, 426, 378
237, 376, 424, 427, 379, 377, 425, 428, 380
238, 377, 425, 428, 380, 378, 426, 429, 381
239, 379, 427, 430, 382, 380, 428, 431, 383
240, 380, 428, 431, 383, 381, 429, 432, 384
241, 385, 433, 434, 386, 387, 435, 436, 388
242, 387, 435, 436, 388, 389, 437, 438, 390
243, 389, 437, 438, 390, 391, 439, 440, 392
244, 391, 439, 440, 392, 393, 441, 442, 394
245, 393, 441, 442, 394, 395, 443, 444, 396
246, 386, 434, 445, 397, 388, 436, 446, 398
247, 388, 436, 446, 398, 390, 438, 447, 399
248, 390, 438, 447, 399, 392, 440, 448, 400
249, 392, 440, 448, 400, 394, 442, 449, 401
250, 394, 442, 449, 401, 396, 444, 450, 402
251, 403, 451, 452, 404, 405, 453, 454, 406
252, 405, 453, 454, 406, 407, 455, 456, 408
253, 404, 452, 457, 409, 406, 454, 458, 410
254, 406, 454, 458, 410, 408, 456, 459, 411
255, 409, 457, 460, 412, 410, 458, 461, 413
256, 410, 458, 461, 413, 411, 459, 462, 414
257, 412, 460, 443, 395, 413, 461, 463, 415
258, 413, 461, 463, 415, 414, 462, 464, 416
259, 395, 443, 444, 396, 415, 463, 465, 417
260, 415, 463, 465, 417, 416, 464, 466, 418
261, 396, 444, 450, 402, 417, 465, 467, 419
262, 417, 465, 467, 419, 418, 466, 468, 420
263, 402, 450, 469, 421, 419, 467, 470, 422
264, 419, 467, 470, 422, 420, 468, 471, 423
265, 421, 469, 472, 424, 422, 470, 473, 425
266, 422, 470, 473, 425, 423, 471, 474, 426
267, 424, 472, 475, 427, 425, 473, 476, 428
268, 425, 473, 476, 428, 426, 474, 477, 429
269, 427, 475, 478, 430, 428, 476, 479, 431
270, 428, 476, 479, 431, 429, 477, 480, 432
271, 433, 481, 482, 434, 435, 483, 484, 436
272, 435, 483, 484, 436, 437, 485, 486, 438
273, 437, 485, 486, 438, 439, 487, 488, 440
274, 439, 487, 488, 440, 441, 489, 490, 442
275, 441, 489, 490, 442, 443, 491, 492, 444
276, 434, 482, 493, 445, 436, 484, 494, 446
277, 436, 484, 494, 446, 438, 486, 495, 447
278, 438, 486, 495, 447, 440, 488, 496, 448
279, 440, 488, 496, 448, 442, 490, 497, 449
280, 442, 490, 497, 449, 444, 492, 498, 450
281, 451, 499, 500, 452, 453, 501, 502, 454
282, 453, 501, 502, 454, 455, 503, 504, 456
283, 452, 500, 505, 457, 454, 502, 506, 458
284, 454, 502, 506, 458, 456, 504, 507, 459
285, 457, 505, 508, 460, 458, 506, 509, 461
286, 458, 506, 509, 461, 459, 507, 510, 462
287, 460, 508, 491, 443, 461, 509, 511, 463
288, 461, 509, 511, 463, 462, 510, 512, 464
289, 443, 491, 492, 444, 463, 511, 513, 465
290, 463, 511, 513, 465, 464, 512, 514, 466
291, 444, 492, 498, 450, 465, 513, 515, 467
292, 465, 513, 515, 467, 466, 514, 516, 468
293, 450, 498, 517, 469, 467, 515, 518, 470
294, 467, 515, 518, 470, 468, 516, 519, 471
295, 469, 517, 520, 472, 470, 518, 521, 473
296, 470, 518, 521, 473, 471, 519, 522, 474
297, 472, 520, 523, 475, 473, 521, 524, 476
298, 473, 521, 524, 476, 474, 522, 525, 477
299, 475, 523, 526, 478, 476, 524, 527, 479
300, 476, 524, 527, 479, 477, 525, 528, 480
301, 481, 529, 530, 482, 483, 531, 532, 484
302, 483, 531, 532, 484, 485, 533, 534, 486
303, 485, 533, 534, 486, 487, 535, 536, 488
304, 487, 535, 536, 488, 489, 537, 538, 490
305, 489, 537, 538, 490, 491, 539, 540, 492
306, 482, 530, 541, 493, 484, 532, 542, 494
307, 484, 532, 542, 494, 486, 534, 543, 495
308, 486, 534, 543, 495, 488, 536, 544, 496
309, 488, 536, 544, 496, 490, 538, 545, 497
310, 490, 538, 545, 497, 492, 540, 546, 498
311, 499, 547, 548, 500, 501, 549, 550, 502
312, 501, 549, 550, 502, 503, 551, 552, 504
313, 500, 548, 553, 505, 502, 550, 554, 506
314, 502, 550, 554, 506, 504, 552, 555, 507
315, 505, 553, 556, 508, 506, 554, 557, 509
316, 506, 554, 557, 509, 507, 555, 558, 510
317, 508, 556, 539, 491, 509, 557, 559, 511
318, 509, 557, 559, 511, 510, 558, 560, 512
319, 491, 539, 540, 492, 511, 559, 561, 513
320, 511, 559, 561, 513, 512, 560, 562, 514
321, 492, 540, 546, 498, 513, 561, 563, 515
322, 513, 561, 563, 515, 514, 562, 564, 516
323, 498, 546, 565, 517, 515, 563, 566, 518
324, 515, 563, 566, 518, 516, 564, 567, 519
325, 517, 565, 568, 520, 518, 566, 569, 521
326, 518, 566, 569, 521, 519, 567, 570, 522
327, 520, 568, 571, 523, 521, 569, 572, 524
328, 521, 569, 572, 524, 522, 570, 573, 525
329, 523, 571, 574, 526, 524, 572, 575, 527
330, 524, 572, 575, 527, 525, 573, 576, 528
331, 529, 577, 578, 530, 531, 579, 580, 532
332, 531, 579, 580, 532, 533, 581, 582, 534
333, 533, 581, 582, 534, 535, 583, 584, 536
334, 535, 583, 584, 536, 537, 585, 586, 538
335, 537, 585, 586, 538, 539, 587, 588, 540
336, 530, 578, 589, 541, 532, 580, 590, 542
337, 532, 580, 590, 542, 534, 582, 591, 543
338, 534, 582, 591, 543, 536, 584, 592, 544
339, 536, 584, 592, 544, 538, 586, 593, 545
340, 538, 586, 593, 545, 540, 588, 594, 546
341, 547, 595, 596, 548, 549, 597, 598, 550
342, 549, 597, 598, 550, 551, 599, 600, 552
343, 548, 596, 601, 553, 550, 598, 602, 554
344, 550, 598, 602, 554, 552, 600, 603, 555
345, 553, 601, 604, 556, 554, 602, 605, 557
346, 554, 602, 605, 557, 555, 603, 606, 558
347, 556, 604, 587, 539, 557, 605, 607, 559
348, 557, 605, 607, 559, 558, 606, 608, 560
349, 539, 587, 588, 540, 559, 607, 609, 561
350, 559, 607, 609, 561, 560, 608, 610, 562
351, 540, 588, 594, 546, 561, 609, 611, 563
352, 561, 609, 611, 563, 562, 610, 612, 564
353, 546, 594, 613, 565, 563, 611, 614, 566
354, 563, 611, 614, 566, 564, 612, 615, 567
355, 565, 613, 616, 568, 566, 614, 617, 569
356, 566, 614, 617, 569, 567, 615, 618, 570
357, 568, 616, 619, 571, 569, 617, 620, 572
358, 569, 617, 620, 572, 570, 618, 621, 573
359, 571, 619, 622, 574, 572, 620, 623, 575
360, 572, 620, 623, 575, 573, 621, 624, 576
361, 577, 625, 626, 578, 579, 627, 628, 580
362, 579, 627, 628, 580, 581, 629, 630, 582
363, 581, 629, 630, 582, 583, 631, 632, 584
364, 583, 631, 632, 584, 585, 633, 634, 586
365, 585, 633, 634, 586, 587, 635, 636, 588
366, 578, 626, 637, 589, 580, 628, 638, 590
367, 580, 628, 638, 590, 582, 630, 639, 591
368, 582, 630, 639, 591, 584, 632, 640, 592
369, 584, 632, 640, 592, 586, 634, 641, 593
370, 586, 634, 641, 593, 588, 636, 642, 594
371, 595, 643, 644, 596, 597, 645, 646, 598
372, 597, 645, 646, 598, 599, 647, 648, 600
373, 596, 644, 649, 601, 598, 646, 650, 602
374, 598, 646, 650, 602, 600, 648, 651, 603
375, 601, 649, 652, 604, 602, 650, 653, 605
376, 602, 650, 653, 605, 603, 651, 654, 606
377, 604, 652, 635, 587, 605, 653, 655, 607
378, 605, 653, 655, 607, 606, 654, 656, 608
379, 587, 635, 636, 588, 607, 655, 657, 609
380, 607, 655, 657, 609, 608, 656, 658, 610
381, 588, 636, 642, 594, 609, 657, 659, 611
382, 609, 657, 659, 611, 610, 658, 660, 612
383, 594, 642, 661, 613, 611, 659, 662, 614
384, 611, 659, 662, 614, 612, 660, 663, 615
385, 613, 661, 664, 616, 614, 662, 665, 617
386, 614, 662, 665, 617, 615, 663, 666, 618
387, 616, 664, 667, 619, 617, 665, 668, 620
388, 617, 665, 668, 620, 618, 666, 669, 621
389, 619, 667, 670, 622, 620, 668, 671, 623
390, 620, 668, 671, 623, 621, 669, 672, 624
391, 625, 673, 674, 626, 627, 675, 676, 628
392, 627, 675, 676, 628, 629, 677, 678, 630
393, 629, 677, 678, 630, 631, 679, 680, 632
394, 631, 679, 680, 632, 633, 681, 682, 634
395, 633, 681, 682, 634, 635, 683, 684, 636
396, 626, 674, 685, 637, 628, 676, 686, 638
397, 628, 676, 686, 638, 630, 678, 687, 639
398, 630, 678, 687, 639, 632, 680, 688, 640
399, 632, 680, 688, 640, 634, 682, 689, 641
400, 634, 682, 689, 641, 636, 684, 690, 642
401, 643, 691, 692, 644, 645, 693, 694, 646
402, 645, 693, 694, 646, 647, 695, 696, 648
403, 644, 692, 697, 649, 646, 694, 698, 650
404, 646, 694, 698, 650, 648, 696, 699, 651
405, 649, 697, 700, 652, 650, 698, 701, 653
406, 650, 698, 701, 653, 651, 699, 702, 654
407, 652, 700, 683, 635, 653, 701, 703, 655
408, 653, 701, 703, 655, 654, 702, 704, 656
409, 635, 683, 684, 636, 655, 703, 705, 657
410, 655, 703, 705, 657, 656, 704, 706, 658
411, 636, 684, 690, 642, 657, 705, 707, 659
412, 657, 705, 707, 659, 658, 706, 708, 660
413, 642, 690, 709, 661, 659, 707, 710, 662
414, 659, 707, 710, 662, 660, 708, 711, 663
415, 661, 709, 712, 664, 662, 710, 713, 665
416, 662, 710, 713, 665, 663, 711, 714, 666
417, 664, 712, 715, 667, 665, 713, 716, 668
418, 665, 713, 716, 668, 666, 714, 717, 669
419, 667, 715, 718, 670, 668, 716, 719, 671
420, 668, 716, 719, 671, 669, 717, 720, 672
421, 673, 721, 722, 674, 675, 723, 724, 676
422, 675, 723, 724, 676, 677, 725, 726, 678
423, 677, 725, 726, 678, 679, 727, 728, 680
424, 679, 727, 728, 680, 681, 729, 730, 682
425, 681, 729, 730, 682, 683, 731, 732, 684
426, 674, 722, 733, 685, 676, 724, 734, 686
427, 676, 724, 734, 686, 678, 726, 735, 687
428, 678, 726, 735, 687, 680, 728, 736, 688
429, 680, 728, 736, 688, 682, 730, 737, 689
430, 682, 730, 737, 689, 684, 732, 738, 690
431, 691, 739, 740, 692, 693, 741, 742, 694
432, 693, 741, 742, 694, 695, 743, 744, 696
433, 692, 740, 745, 697, 694, 742, 746, 698
434, 694, 742, 746, 698, 696, 744, 747, 699
435, 697, 745, 748, 700, 698, 746, 749, 701
436, 698, 746, 749, 701, 699, 747, 750, 702
437, 700, 748, 731, 683, 701, 749, 751, 703
438, 701, 749, 751, 703, 702, 750, 752, 704
439, 683, 731, 732, 684, 703, 751, 753, 705
440, 703, 751, 753, 705, 704, 752, 754, 706
441, 684, 732, 738, 690, 705, 753, 755, 707
442, 705, 753, 755, 707, 706, 754, 756, 708
443, 690, 738, 757, 709, 707, 755, 758, 710
444, 707, 755, 758, 710, 708, 756, 759, 711
445, 709, 757, 760, 712, 710, 758, 761, 713
446, 710, 758, 761, 713, 711, 759, 762, 714
447, 712, 760, 763, 715, 713, 761, 764, 716
448, 713, 761, 764, 716, 714, 762, 765, 717
449, 715, 763, 766, 718, 716, 764, 767, 719
450, 716, 764, 767, 719, 717, 765, 768, 720
451, 721, 769, 770, 722, 723, 771, 772, 724
452, 723, 771, 772, 724, 725, 773, 774, 726
453, 725, 773, 774, 726, 727, 775, 776, 728
454, 727, 775, 776, 728, 729, 777, 778, 730
455, 729, 777, 778, 730, 731, 779, 780, 732
456, 722, 770, 781, 733, 724, 772, 782, 734
457, 724, 772, 782, 734, 726, 774, 783, 735
458, 726, 774, 783, 735, 728, 776, 784, 736
459, 728, 776, 784, 736, 730, 778, 785, 737
460, 730, 778, 785, 737, 732, 780, 786, 738
461, 739, 787, 788, 740, 741, 789, 790, 742
462, 741, 789, 790, 742, 743, 791, 792, 744
463, 740, 788, 793, 745, 742, 790, 794, 746
464, 742, 790, 794, 746, 744, 792, 795, 747
465, 745, 793, 796, 748, 746, 794, 797, 749
466, 746, 794, 797, 749, 747, 795, 798, 750
467, 748, 796, 779, 731, 749, 797, 799, 751
468, 749, 797, 799, 751, 750, 798, 800, 752
469, 731, 779, 780, 732, 751, 799, 801, 753
470, 751, 799, 801, 753, 752, 800, 802, 754
471, 732, 780, 786, 738, 753, 801, 803, 755
472, 753, 801, 803, 755, 754, 802, 804, 756
473, 738, 786, 805, 757, 755, 803, 806, 758
474, 755, 803, 806, 758, 756, 804, 807, 759
475, 757, 805, 808, 760, 758, 806, 809, 761
476, 758, 806, 809, 761, 759, 807, 810, 762
477, 760, 808, 811, 763, 761, 809, 812, 764
478, 761, 809, 812, 764, 762, 810, 813, 765
479, 763, 811, 814, 766, 764, 812, 815, 767
480, 764, 812, 815, 767, 765, 813, 816, 768
481, 769, 817, 818, 770, 771, 819, 820, 772
482, 771, 819, 820, 772, 773, 821, 822, 774
483, 773, 821, 822, 774, 775, 823, 824, 776
484, 775, 823, 824, 776, 777, 825, 826, 778
485, 777, 825, 826, 778, 779, 827, 828, 780
486, 770, 818, 829, 781, 772, 820, 830, 782
487, 772, 820, 830, 782, 774, 822, 831, 783
488, 774, 822, 831, 783, 776, 824, 832, 784
489, 776, 824, 832, 784, 778, 826, 833, 785
490, 778, 826, 833, 785, 780, 828, 834, 786
491, 787, 835, 836, 788, 789, 837, 838, 790
492, 789, 837, 838, 790, 791, 839, 840, 792
493, 788, 836, 841, 793, 790, 838, 842, 794
494, 790, 838, 842, 794, 792, 840, 843, 795
495, 793, 841, 844, 796, 794, 842, 845, 797
496, 794, 842, 845, 797, 795, 843, 846, 798
497, 796, 844, 827, 779, 797, 845, 847, 799
498, 797, 845, 847, 799, 798, 846, 848, 800
499, 779, 827, 828, 780, 799, 847, 849, 801
500, 799, 847, 849, 801, 800, 848, 850, 802
501, 780, 828, 834, 786, 801, 849, 851, 803
502, 801, 849, 851, 803, 802, 850, 852, 804
503, 786, 834, 853, 805, 803, 851, 854, 806
504, 803, 851, 854, 806, 804, 852, 855, 807
505, 805, 853, 856, 808, 806, 854, 857, 809
506, 806, 854, 857, 809, 807, 855, 858, 810
507, 808, 856, 859, 811, 809, 857, 860, 812
508, 809, 857, 860, 812, 810, 858, 861, 813
509, 811, 859, 862, 814, 812, 860, 863, 815
510, 812, 860, 863, 815, 813, 861, 864, 816
511, 817, 865, 866, 818, 819, 867, 868, 820
512, 819, 867, 868, 820, 821, 869, 870, 822
513, 821, 869, 870, 822, 823, 871, 872, 824
514, 823, 871, 872, 824, 825, 873, 874, 826
515, 825, 873, 874, 826, 827, 875, 876, 828
516, 818, 866, 877, 829, 820, 868, 878, 830
517, 820, 868, 878, 830, 822, 870, 879, 831
518, 822, 870, 879, 831, 824, 872, 880, 832
519, 824, 872, 880, 832, 826, 874, 881, 833
520, 826, 874, 881, 833, 828, 876, 882, 834
521, 835, 883, 884, 836, 837, 885, 886, 838
522, 837, 885, 886, 838, 839, 887, 888, 840
523, 836, 884, 889, 841, 838, 886, 890, 842
524, 838, 886, 890, 842, 840, 888, 891, 843
525, 841, 889, 892, 844, 842, 890, 893, 845
526, 842, 890, 893, 845, 843, 891, 894, 846
527, 844, 892, 875, 827, 845, 893, 895, 847
528, 845, 893, 895, 847, 846, 894, 896, 848
529, 827, 875, 876, 828, 847, 895, 897, 849
530, 847, 895, 897, 849, 848, 896, 898, 850
531, 828, 876, 882, 834, 849, 897, 899, 851
532, 849, 897, 899, 851, 850, 898, 900, 852
533, 834, 882, 901, 853, 851, 899, 902, 854
534, 851, 899, 902, 854, 852, 900, 903, 855
535, 853, 901, 904, 856, 854, 902, 905, 857
536, 854, 902, 905, 857, 855, 903, 906, 858
537, 856, 904, 907, 859, 857, 905, 908, 860
538, 857, 905, 908, 860, 858, 906, 909, 861
539, 859, 907, 910, 862, 860, 908, 911, 863
540, 860, 908, 911, 863, 861, 909, 912, 864
541, 865, 913, 914, 866, 867, 915, 916, 868
542, 867, 915, 916, 868, 869, 917, 918, 870
543, 869, 917, 918, 870, 871, 919, 920, 872
544, 871, 919, 920, 872, 873, 921, 922, 874
545, 873, 921, 922, 874, 875, 923, 924, 876
546, 866, 914, 925, 877, 868, 916, 926, 878
547, 868, 916, 926, 878, 870, 918, 927, 879
548, 870, 918, 927, 879, 872, 920, 928, 880
549, 872, 920, 928, 880, 874, 922, 929, 881
550, 874, 922, 929, 881, 876, 924, 930, 882
551, 883, 931, 932, 884, 885, 933, 934, 886
552, 885, 933, 934, 886, 887, 935, 936, 888
553, 884, 932, 937, 889, 886, 934, 938, 890
554, 886, 934, 938, 890, 888, 936, 939, 891
555, 889, 937, 940, 892, 890, 938, 941, 893
556, 890, 938, 941, 893, 891, 939, 942, 894
557, 892, 940, 923, 875, 893, 941, 943, 895
558, 893, 941, 943, 895, 894, 942, 944, 896
559, 875, 923, 924, 876, 895, 943, 945, 897
560, 895, 943, 945, 897, 896, 944, 946, 898
561, 876, 924, 930, 882, 897, 945, 947, 899
562, 897, 945, 947, 899, 898, 946, 948, 900
563, 882, 930, 949, 901, 899, 947, 950, 902
564, 899, 947, 950, 902, 900, 948, 951, 903
565, 901, 949, 952, 904, 902, 950, 953, 905
566, 902, 950, 953, 905, 903, 951, 954, 906
567, 904, 952, 955, 907, 905, 953, 956, 908
568, 905, 953, 956, 908, 906, 954, 957, 909
569, 907, 955, 958, 910, 908, 956, 959, 911
570, 908, 956, 959, 911, 909, 957, 960, 912
571, 913, 961, 962, 914, 915, 963, 964, 916
572, 915, 963, 964, 916, 917, 965, 966, 918
573, 917, 965, 966, 918, 919, 967, 968, 920
574, 919, 967, 968, 920, 921, 969, 970, 922
575, 921, 969, 970, 922, 923, 971, 972, 924
576, 914, 962, 973, 925, 916, 964, 974, 926
577, 916, 964, 974, 926, 918, 966, 975, 927
578, 918, 966, 975, 927, 920, 968, 976, 928
579, 920, 968, 976, 928, 922, 970, 977, 929
580, 922, 970, 977, 929, 924, 972, 978, 930
581, 931, 979, 980, 932, 933, 981, 982, 934
582, 933, 981, 982, 934, 935, 983, 984, 936
583, 932, 980, 985, 937, 934, 982, 986, 938
584, 934, 982, 986, 938, 936, 984, 987, 939
585, 937, 985, 988, 940, 938, 986, 989, 941
586, 938, 986, 989, 941, 939, 987, 990, 942
587, 940, 988, 971, 923, 941, 989, 991, 943
588, 941, 989, 991, 943, 942, 990, 992, 944
589, 923, 971, 972, 924, 943, 991, 993, 945
590, 943, 991, 993, 945, 944, 992, 994, 946
591, 924, 972, 978, 930, 945, 993, 995, 947
592, 945, 993, 995, 947, 946, 994, 996, 948
593, 930, 978, 997, 949, 947, 995, 998, 950
594, 947, 995, 998, 950, 948, 996, 999, 951
595, 949, 997, 1000, 952, 950, 998, 1001, 953
596, 950, 998, 1001, 953, 951, 999, 1002, 954
597, 952, 1000, 1003, 955, 953, 1001, 1004, 956
598, 953, 1001, 1004, 956, 954, 1002, 1005, 957
599, 955, 1003, 1006, 958, 956, 1004, 1007, 959
600, 956, 1004, 1007, 959, 957, 1005, 1008, 960
601, 961, 1009, 1010, 962, 963, 1011, 1012, 964
602, 963, 1011, 1012, 964, 965, 1013, 1014, 966
603, 965, 1013, 1014, 966, 967, 1015, 1016, 968
604, 967, 1015, 1016, 968, 969, 1017, 1018, 970
605, 969, 1017, 1018, 970, 971, 1019, 1020, 972
606, 962, 1010, 1021, 973, 964, 1012, 1022, 974
607, 964, 1012, 1022, 974, 966, 1014, 1023, 975
608, 966, 1014, 1023, 975, 968, 1016, 1024, 976
609, 968, 1016, 1024, 976, 970, 1018, 1025, 977
610, 970, 1018, 1025, 977, 972, 1020, 1026, 978
611, 979, 1027, 1028, 980, 981, 1029, 1030, 982
612, 981, 1029, 1030, 982, 983, 1031, 1032, 984
613, 980, 1028, 1033, 985, 982, 1030, 1034, 986
614, 982, 1030, 1034, 986, 984, 1032, 1035, 987
615, 985, 1033, 1036, 988, 986, 1034, 1037, 989
616, 986, 1034, 1037, 989, 987, 1035, 1038, 990
617, 988, 1036, 1019, 971, 989, 1037, 1039, 991
618, 989, 1037, 1039, 991, 990, 1038, 1040, 992
619, 971, 1019, 1020, 972, 991, 1039, 1041, 993
620, 991, 1039, 1041, 993, 992, 1040, 1042, 994
621, 972, 1020, 1026, 978, 993, 1041, 1043, 995
622, 993, 1041, 1043, 995, 994, 1042, 1044, 996
623, 978, 1026, 1045, 997, 995, 1043, 1046, 998
624, 995, 1043, 1046, 998, 996, 1044, 1047, 999
625, 997, 1045, 1048, 1000, 998, 1046, 1049, 1001
626, 998, 1046, 1049, 1001, 999, 1047, 1050, 1002
627, 1000, 1048, 1051, 1003, 1001, 1049, 1052, 1004
628, 1001, 1049, 1052, 1004, 1002, 1050, 1053, 1005
629, 1003, 1051, 1054, 1006, 1004, 1052, 1055, 1007
630, 1004, 1052, 1055, 1007, 1005, 1053, 1056, 1008
631, 1009, 1057, 1058, 1010, 1011, 1059, 1060, 1012
632, 1011, 1059, 1060, 1012, 1013, 1061, 1062, 1014
633, 1013, 1061, 1062, 1014, 1015, 1063, 1064, 1016
634, 1015, 1063, 1064, 1016, 1017, 1065, 1066, 1018
635, 1017, 1065, 1066, 1018, 1019, 1067, 1068, 1020
636, 1010, 1058, 1069, 1021, 1012, 1060, 1070, 1022
637, 1012, 1060, 1070, 1022, 1014, 1062, 1071, 1023
638, 1014, 1062, 1071, 1023, 1016, 1064, 1072, 1024
639, 1016, 1064, 1072, 1024, 1018, 1066, 1073, 1025
640, 1018, 1066, 1073, 1025, 1020, 1068, 1074, 1026
641, 1027, 1075, 1076, 1028, 1029, 1077, 1078, 1030
642, 1029, 1077, 1078, 1030, 1031, 1079, 1080, 1032
643, 1028, 1076, 1081, 1033, 1030, 1078, 1082, 1034
644, 1030, 1078, 1082, 1034, 1032, 1080, 1083, 1035
645, 1033, 1081, 1084, 1036, 1034, 1082, 1085, 1037
646, 1034, 1082, 1085, 1037, 1035, 1083, 1086, 1038
647, 1036, 1084, 1067, 1019, 1037, 1085, 1087, 1039
648, 1037, 1085, 1087, 1039, 1038, 1086, 1088, 1040
649, 1019, 1067, 1068, 1020, 1039, 1087, 1089, 1041
650, 1039, 1087, 1089, 1041, 1040, 1088, 1090, 1042
651, 1020, 1068, 1074, 1026, 1041, 1089, 1091, 1043
652, 1041, 1089, 1091, 1043, 1042, 1090, 1092, 1044
653, 1026, 1074, 1093, 1045, 1043, 1091, 1094, 1046
654, 1043, 1091, 1094, 1046, 1044, 1092, 1095, 1047
655, 1045, 1093, 1096, 1048, 1046, 1094, 1097, 1049
656, 1046, 1094, 1097, 1049, 1047, 1095, 1098, 1050
657, 1048, 1096, 1099, 1051, 1049, 1097, 1100, 1052
658, 1049, 1097, 1100, 1052, 1050, 1098, 1101, 1053
659, 1051, 1099, 1102, 1054, 1052, 1100, 1103, 1055
660, 1052, 1100, 1103, 1055, 1053, 1101, 1104, 1056
661, 1057, 1105, 1106, 1058, 1059, 1107, 1108, 1060
662, 1059, 1107, 1108, 1060, 1061, 1109, 1110, 1062
663, 1061, 1109, 1110, 1062, 1063, 1111, 1112, 1064
664, 1063, 1111, 1112, 1064, 1065, 1113, 1114, 1066
665, 1065, 1113, 1114, 1066, 1067, 1115, 1116, 1068
666, 1058, 1106, 1117, 1069, 1060, 1108, 1118, 1070
667, 1060, 1108, 1118, 1070, 1062, 1110, 1119, 1071
668, 1062, 1110, 1119, 1071, 1064, 1112, 1120, 1072
669, 1064, 1112, 1120, 1072, 1066, 1114, 1121, 1073
670, 1066, 1114, 1121, 1073, 1068, 1116, 1122, 1074
671, 1075, 1123, 1124, 1076, 1077, 1125, 1126, 1078
672, 1077, 1125, 1126, 1078, 1079, 1127, 1128, 1080
673, 1076, 1124, 1129, 1081, 1078, 1126, 1130, 1082
674, 1078, 1126, 1130, 1082, 1080, 1128, 1131, 1083
675, 1081, 1129, 1132, 1084, 1082, 1130, 1133, 1085
676, 1082, 1130, 1133, 1085, 1083, 1131, 1134, 1086
677, 1084, 1132, 1115, 1067, 1085, 1133, 1135, 1087
678, 1085, 1133, 1135, 1087, 1086, 1134, 1136, 1088
679, 1067, 1115, 1116, 1068, 1087, 1135, 1137, 1089
680, 1087, 1135, 1137, 1089, 1088, 1136, 1138, 1090
681, 1068, 1116, 1122, 1074, 1089, 1137, 1139, 1091
682, 1089, 1137, 1139, 1091, 1090, 1138, 1140, 1092
683, 1074, 1122, 1141, 1093, 1091, 1139, 1142, 1094
684, 1091, 1139, 1142, 1094, 1092, 1140, 1143, 1095
685, 1093, 1141, 1144, 1096, 1094, 1142, 1145, 1097
686, 1094, 1142, 1145, 1097, 1095, 1143, 1146, 1098
687, 1096, 1144, 1147, 1099, 1097, 1145, 1148, 1100
688, 1097, 1145, 1148, 1100, 1098, 1146, 1149, 1101
689, 1099, 1147, 1150, 1102, 1100, 1148, 1151, 1103
690, 1100, 1148, 1151, 1103, 1101, 1149, 1152, 1104
691, 1105, 1153, 1154, 1106, 1107, 1155, 1156, 1108
692, 1107, 1155, 1156, 1108, 1109, 1157, 1158, 1110
693, 1109, 1157, 1158, 1110, 1111, 1159, 1160, 1112
694, 1111, 1159, 1160, 1112, 1113, 1161, 1162, 1114
695, 1113, 1161, 1162, 1114, 1115, 1163, 1164, 1116
696, 1106, 1154, 1165, 1117, 1108, 1156, 1166, 1118
697, 1108, 1156, 1166, 1118, 1110, 1158, 1167, 1119
698, 1110, 1158, 1167, 1119, 1112, 1160, 1168, 1120
699, 1112, 1160, 1168, 1120, 1114, 1162, 1169, 1121
700, 1114, 1162, 1169, 1121, 1116, 1164, 1170, 1122
701, 1123, 1171, 1172, 1124, 1125, 1173, 1174, 1126
702, 1125, 1173, 1174, 1126, 1127, 1175, 1176, 1128
703, 1124, 1172, 1177, 1129, 1126, 1174, 1178, 1130
704, 1126, 1174, 1178, 1130, 1128, 1176, 1179, 1131
705, 1129, 1177, 1180, 1132, 1130, 1178, 1181, 1133
706, 1130, 1178, 1181, 1133, 1131, 1179, 1182, 1134
707, 1132, 1180, 1163, 1115, 1133, 1181, 1183, 1135
708, 1133, 1181, 1183, 1135, 1134, 1182, 1184, 1136
709, 1115, 1163, 1164, 1116, 1135, 1183, 1185, 1137
710, 1135, 1183, 1185, 1137, 1136, 1184, 1186, 1138
711, 1116, 1164, 1170, 1122, 1137, 1185, 1187, 1139
712, 1137, 1185, 1187, 1139, 1138, 1186, 1188, 1140
713, 1122, 1170, 1189, 1141, 1139, 1187, 1190, 1142
714, 1139, 1187, 1190, 1142, 1140, 1188, 1191, 1143
715, 1141, 1189, 1192, 1144, 1142, 1190, 1193, 1145
716, 1142, 1190, 1193, 1145, 1143, 1191, 1194, 1146
717, 1144, 1192, 1195, 1147, 1145, 1193, 1196, 1148
718, 1145, 1193, 1196, 1148, 1146, 1194, 1197, 1149
719, 1147, 1195, 1198, 1150, 1148, 1196, 1199, 1151
720, 1148, 1196, 1199, 1151, 1149, 1197, 1200, 1152
721, 1153, 1201, 1202, 1154, 1155, 1203, 1204, 1156
722, 1155, 1203, 1204, 1156, 1157, 1205, 1206, 1158
723, 1157, 1205, 1206, 1158, 1159, 1207, 1208, 1160
724, 1159, 1207, 1208, 1160, 1161, 1209, 1210, 1162
725, 1161, 1209, 1210, 1162, 1163, 1211, 1212, 1164
726, 1154, 1202, 1213, 1165, 1156, 1204, 1214, 1166
727, 1156, 1204, 1214, 1166, 1158, 1206, 1215, 1167
728, 1158, 1206, 1215, 1167, 1160, 1208, 1216, 1168
729, 1160, 1208, 1216, 1168, 1162, 1210, 1217, 1169
730, 1162, 1210, 1217, 1169, 1164, 1212, 1218, 1170
731, 1171, 1219, 1220, 1172, 1173, 1221, 1222, 1174
732, 1173, 1221, 1222, 1174, 1175, 1223, 1224, 1176
733, 1172, 1220, 1225, 1177, 1174, 1222, 1226, 1178
734, 1174, 1222, 1226, 1178, 1176, 1224, 1227, 1179
735, 1177, 1225, 1228, 1180, 1178, 1226, 1229, 1181
736, 1178, 1226, 1229, 1181, 1179, 1227, 1230, 1182
737, 1180, 1228, 1211, 1163, 1181, 1229, 1231, 1183
738, 1181, 1229, 1231, 1183, 1182, 1230, 1232, 1184
739, 1163, 1211, 1212, 1164, 1183, 1231, 1233, 1185
740, 1183, 1231, 1233, 1185, 1184, 1232, 1234, 1186
741, 1164, 1212, 1218, 1170, 1185, 1233, 1235, 1187
742, 1185, 1233, 1235, 1187, 1186, 1234, 1236, 1188
743, 1170, 1218, 1237, 1189, 1187, 1235, 1238, 1190
744, 1187, 1235, 1238, 1190, 1188, 1236, 1239, 1191
745, 1189, 1237, 1240, 1192, 1190, 1238, 1241, 1193
746, 1190, 1238, 1241, 1193, 1191, 1239, 1242, 1194
747, 1192, 1240, 1243, 1195, 1193, 1241, 1244, 1196
748, 1193, 1241, 1244, 1196, 1194, 1242, 1245, 1197
749, 1195, 1243, 1246, 1198, 1196, 1244, 1247, 1199
750, 1196, 1244, 1247, 1199, 1197, 1245, 1248, 1200
751, 1201, 1249, 1250, 1202, 1203, 1251, 1252, 1204
752, 1203, 1251, 1252, 1204, 1205, 1253, 1254, 1206
753, 1205, 1253, 1254, 1206, 1207, 1255, 1256, 1208
754, 1207, 1255, 1256, 1208, 1209, 1257, 1258, 1210
755, 1209, 1257, 1258, 1210, 1211, 1259, 1260, 1212
756, 1202, 1250, 1261, 1213, 1204, 1252, 1262, 1214
757, 1204, 1252, 1262, 1214, 1206, 1254, 1263, 1215
758, 1206, 1254, 1263, 1215, 1208, 1256, 1264, 1216
759, 1208, 1256, 1264, 1216, 1210, 1258, 1265, 1217
760, 1210, 1258, 1265, 1217, 1212, 1260, 1266, 1218
761, 1219, 1267, 1268, 1220, 1221, 1269, 1270, 1222
762, 1221, 1269, 1270, 1222, 1223, 1271, 1272, 1224
763, 1220, 1268, 1273, 1225, 1222, 1270, 1274, 1226
764, 1222, 1270, 1274, 1226, 1224, 1272, 1275, 1227
765, 1225, 1273, 1276, 1228, 1226, 1274, 1277, 1229
766, 1226, 1274, 1277, 1229, 1227, 1275, 1278, 1230
767, 1228, 1276, 1259, 1211, 1229, 1277, 1279, 1231
768, 1229, 1277, 1279, 1231, 1230, 1278, 1280, 1232
769, 1211, 1259, 1260, 1212, 1231, 1279, 1281, 1233
770, 1231, 1279, 1281, 1233, 1232, 1280, 1282, 1234
771, 1212, 1260, 1266, 1218, 1233, 1281, 1283, 1235
772, 1233, 1281, 1283, 1235, 1234, 1282, 1284, 1236
773, 1218, 1266, 1285, 1237, 1235, 1283, 1286, 1238
774, 1235, 1283, 1286, 1238, 1236, 1284, 1287, 1239
775, 1237, 1285, 1288, 1240, 1238, 1286, 1289, 1241
776, 1238, 1286, 1289, 1241, 1239, 1287, 1290, 1242
777, 1240, 1288, 1291, 1243, 1241, 1289, 1292, 1244
778, 1241, 1289, 1292, 1244, 1242, 1290, 1293, 1245
779, 1243, 1291, 1294, 1246, 1244, 1292, 1295, 1247
780, 1244, 1292, 1295, 1247, 1245, 1293, 1296, 1248
781, 1249, 1297, 1298, 1250, 1251, 1299, 1300, 1252
782, 1251, 1299, 1300, 1252, 1253, 1301, 1302, 1254
783, 1253, 1301, 1302, 1254, 1255, 1303, 1304, 1256
784, 1255, 1303, 1304, 1256, 1257, 1305, 1306, 1258
785, 1257, 1305, 1306, 1258, 1259, 1307, 1308, 1260
786, 1250, 1298, 1309, 1261, 1252, 1300, 1310, 1262
787, 1252, 1300, 1310, 1262, 1254, 1302, 1311, 1263
788, 1254, 1302, 1311, 1263, 1256, 1304, 1312, 1264
789, 1256, 1304, 1312, 1264, 1258, 1306, 1313, 1265
790, 1258, 1306, 1313, 1265, 1260, 1308, 1314, 1266
791, 1267, 1315, 1316, 1268, 1269, 1317, 1318, 1270
792, 1269, 1317, 1318, 1270, 1271, 1319, 1320, 1272
793, 1268, 1316, 1321, 1273, 1270, 1318, 1322, 1274
794, 1270, 1318, 1322, 1274, 1272, 1320, 1323, 1275
795, 1273, 1321, 1324, 1276, 1274, 1322, 1325, 1277
796, 1274, 1322, 1325, 1277, 1275, 1323, 1326, 1278
797, 1276, 1324, 1307, 1259, 1277, 1325, 1327, 1279
798, 1277, 1325, 1327, 1279, 1278, 1326, 1328, 1280
799, 1259, 1307, 1308, 1260, 1279, 1327, 1329, 1281
800, 1279, 1327, 1329, 1281, 1280, 1328, 1330, 1282
801, 1260, 1308, 1314, 1266, 1281, 1329, 1331, 1283
802, 1281, 1329, 1331, 1283, 1282, 1330, 1332, 1284
803, 1266, 1314, 1333, 1285, 1283, 1331, 1334, 1286
804, 1283, 1331, 1334, 1286, 1284, 1332, 1335, 1287
805, 1285, 1333, 1336, 1288, 1286, 1334, 1337, 1289
806, 1286, 1334, 1337, 1289, 1287, 1335, 1338, 1290
807, 1288, 1336, 1339, 1291, 1289, 1337, 1340, 1292
808, 1289, 1337, 1340, 1292, 1290, 1338, 1341, 1293
809, 1291, 1339, 1342, 1294, 1292, 1340, 1343, 1295
810, 1292, 1340, 1343, 1295, 1293, 1341, 1344, 1296
811, 1297, 1345, 1346, 1298, 1299, 1347, 1348, 1300
812, 1299, 1347, 1348, 1300, 1301, 1349, 1350, 1302
813, 1301, 1349, 1350, 1302, 1303, 1351, 1352, 1304
814, 1303, 1351, 1352, 1304, 1305, 1353, 1354, 1306
815, 1305, 1353, 1354, 1306, 1307, 1355, 1356, 1308
816, 1298, 1346, 1357, 1309, 1300, 1348, 1358, 1310
817, 1300, 1348, 1358, 1310, 1302, 1350, 1359, 1311
818, 1302, 1350, 1359, 1311, 1304, 1352, 1360, 1312
819, 1304, 1352, 1360, 1312, 1306, 1354, 1361, 1313
820, 1306, 1354, 1361, 1313, 1308, 1356, 1362, 1314
821, 1315, 1363, 1364, 1316, 1317, 1365, 1366, 1318
822, 1317, 1365, 1366, 1318, 1319, 1367, 1368, 1320
823, 1316, 1364, 1369, 1321, 1318, 1366, 1370, 1322
824, 1318, 1366, 1370, 1322, 1320, 1368, 1371, 1323
825, 1321, 1369, 1372, 1324, 1322, 1370, 1373, 1325
826, 1322, 1370, 1373, 1325, 1323, 1371, 1374, 1326
827, 1324, 1372, 1355, 1307, 1325, 1373, 1375, 1327
828, 1325, 1373, 1375, 1327, 1326, 1374, 1376, 1328
829, 1307, 1355, 1356, 1308, 1327, 1375, 1377, 1329
830, 1327, 1375, 1377, 1329, 1328, 1376, 1378, 1330
831, 1308, 1356, 1362, 1314, 1329, 1377, 1379, 1331
832, 1329, 1377, 1379, 1331, 1330, 1378, 1380, 1332
833, 1314, 1362, 1381, 1333, 1331, 1379, 1382, 1334
834, 1331, 1379, 1382, 1334, 1332, 1380, 1383, 1335
835, 1333, 1381, 1384, 1336, 1334, 1382, 1385, 1337
836, 1334, 1382, 1385, 1337, 1335, 1383, 1386, 1338
837, 1336, 1384, 1387, 1339, 1337, 1385, 1388, 1340
838, 1337, 1385, 1388, 1340, 1338, 1386, 1389, 1341
839, 1339, 1387, 1390, 1342, 1340, 1388, 1391, 1343
840, 1340, 1388, 1391, 1343, 1341, 1389, 1392, 1344
841, 1345, 1393, 1394, 1346, 1347, 1395, 1396, 1348
842, 1347, 1395, 1396, 1348, 1349, 1397, 1398, 1350
843, 1349, 1397, 1398, 1350, 1351, 1399, 1400, 1352
844, 1351, 1399, 1400, 1352, 1353, 1401, 1402, 1354
845, 1353, 1401, 1402, 1354, 1355, 1403, 1404, 1356
846, 1346, 1394, 1405, 1357, 1348, 1396, 1406, 1358
847, 1348, 1396, 1406, 1358, 1350, 1398, 1407, 1359
848, 1350, 1398, 1407, 1359, 1352, 1400, 1408, 1360
849, 1352, 1400, 1408, 1360, 1354, 1402, 1409, 1361
850, 1354, 1402, 1409, 1361, 1356, 1404, 1410, 1362
851, 1363, 1411, 1412, 1364, 1365, 1413, 1414, 1366
852, 1365, 1413, 1414, 1366, 1367, 1415, 1416, 1368
853, 1364, 1412, 1417, 1369, 1366, 1414, 1418, 1370
854, 1366, 1414, 1418, 1370, 1368, 1416, 1419, 1371
855, 1369, 1417, 1420, 1372, 1370, 1418, 1421, 1373
856, 1370, 1418, 1421, 1373, 1371, 1419, 1422, 1374
857, 1372, 1420, 1403, 1355, 1373, 1421, 1423, 1375
858, 1373, 1421, 1423, 1375, 1374, 1422, 1424, 1376
859, 1355, 1403, 1404, 1356, 1375, 1423, 1425, 1377
860, 1375, 1423, 1425, 1377, 1376, 1424, 1426, 1378
861, 1356, 1404, 1410, 1362, 1377, 1425, 1427, 1379
862, 1377, 1425, 1427, 1379, 1378, 1426, 1428, 1380
863, 1362, 1410, 1429, 1381, 1379, 1427, 1430, 1382
864, 1379, 1427, 1430, 1382, 1380, 1428, 1431, 1383
865, 1381, 1429, 1432, 1384, 1382, 1430, 1433, 1385
866, 1382, 1430, 1433, 1385, 1383, 1431, 1434, 1386
867, 1384, 1432, 1435, 1387, 1385, 1433, 1436, 1388
868, 1385, 1433, 1436, 1388, 1386, 1434, 1437, 1389
869, 1387, 1435, 1438, 1390, 1388, 1436, 1439, 1391
870, 1388, 1436, 1439, 1391, 1389, 1437, 1440, 1392
871, 1393, 1441, 1442, 1394, 1395, 1443, 1444, 1396
872, 1395, 1443, 1444, 1396, 1397, 1445, 1446, 1398
873, 1397, 1445, 1446, 1398, 1399, 1447, 1448, 1400
874, 1399, 1447, 1448, 1400, 1401, 1449, 1450, 1402
875, 1401, 1449, 1450, 1402, 1403, 1451, 1452, 1404
876, 1394, 1442, 1453, 1405, 1396, 1444, 1454, 1406
877, 1396, 1444, 1454, 1406, 1398, 1446, 1455, 1407
878, 1398, 1446, 1455, 1407, 1400, 1448, 1456, 1408
879, 1400, 1448, 1456, 1408, 1402, 1450, 1457, 1409
880, 1402, 1450, 1457, 1409, 1404, 1452, 1458, 1410
881, 1411, 1459, 1460, 1412, 1413, 1461, 1462, 1414
882, 1413, 1461, 1462, 1414, 1415, 1463, 1464, 1416
883, 1412, 1460, 1465, 1417, 1414, 1462, 1466, 1418
884, 1414, 1462, 1466, 1418, 1416, 1464, 1467, 1419
885, 1417, 1465, 1468, 1420, 1418, 1466, 1469, 1421
886, 1418, 1466, 1469, 1421, 1419, 1467, 1470, 1422
887, 1420, 1468, 1451, 1403, 1421, 1469, 1471, 1423
888, 1421, 1469, 1471, 1423, 1422, 1470, 1472, 1424
889, 1403, 1451, 1452, 1404, 1423, 1471, 1473, 1425
890, 1423, 1471, 1473, 1425, 1424, 1472, 1474, 1426
891, 1404, 1452, 1458, 1410, 1425, 1473, 1475, 1427
892, 1425, 1473, 1475, 1427, 1426, 1474, 1476, 1428
893, 1410, 1458, 1477, 1429, 1427, 1475, 1478, 1430
894, 1427, 1475, 1478, 1430, 1428, 1476, 1479, 1431
895, 1429, 1477, 1480, 1432, 1430, 1478, 1481, 1433
896, 1430, 1478, 1481, 1433, 1431, 1479, 1482, 1434
897, 1432, 1480, 1483, 1435, 1433, 1481, 1484, 1436
898, 1433, 1481, 1484, 1436, 1434, 1482, 1485, 1437
899, 1435, 1483, 1486, 1438, 1436, 1484, 1487, 1439
900, 1436, 1484, 1487, 1439, 1437, 1485, 1488, 1440
901, 1441, 1489, 1490, 1442, 1443, 1491, 1492, 1444
902, 1443, 1491, 1492, 1444, 1445, 1493, 1494, 1446
903, 1445, 1493, 1494, 1446, 1447, 1495, 1496, 1448
904, 1447, 1495, 1496, 1448, 1449, 1497, 1498, 1450
905, 1449, 1497, 1498, 1450, 1451, 1499, 1500, 1452
906, 1442, 1490, 1501, 1453, 1444, 1492, 1502, 1454
907, 1444, 1492, 1502, 1454, 1446, 1494, 1503, 1455
908, 1446, 1494, 1503, 1455, 1448, 1496, 1504, 1456
909, 1448, 1496, 1504, 1456, 1450, 1498, 1505, 1457
910, 1450, 1498, 1505, 1457, 1452, 1500, 1506, 1458
911, 1459, 1507, 1508, 1460, 1461, 1509, 1510, 1462
912, 1461, 1509, 1510, 1462, 1463, 1511, 1512, 1464
913, 1460, 1508, 1513, 1465, 1462, 1510, 1514, 1466
914, 1462, 1510, 1514, 1466, 1464, 1512, 1515, 1467
915, 1465, 1513, 1516, 1468, 1466, 1514, 1517, 1469
916, 1466, 1514, 1517, 1469, 1467, 1515, 1518, 1470
917, 1468, 1516, 1499, 1451, 1469, 1517, 1519, 1471
918, 1469, 1517, 1519, 1471, 1470, 1518, 1520, 1472
919, 1451, 1499, 1500, 1452, 1471, 1519, 1521, 1473
920, 1471, 1519, 1521, 1473, 1472, 1520, 1522, 1474
921, 1452, 1500, 1506, 1458, 1473, 1521, 1523, 1475
922, 1473, 1521, 1523, 1475, 1474, 1522, 1524, 1476
923, 1458, 1506, 1525, 1477, 1475, 1523, 1526, 1478
924, 1475, 1523, 1526, 1478, 1476, 1524, 1527, 1479
925, 1477, 1525, 1528, 1480, 1478, 1526, 1529, 1481
926, 1478, 1526, 1529, 1481, 1479, 1527, 1530, 1482
927, 1480, 1528, 1531, 1483, 1481, 1529, 1532, 1484
928, 1481, 1529, 1532, 1484, 1482, 1530, 1533, 1485
929, 1483, 1531, 1534, 1486, 1484, 1532, 1535, 1487
930, 1484, 1532, 1535, 1487, 1485, 1533, 1536, 1488
931, 1489, 1537, 1538, 1490, 1491, 1539, 1540, 1492
932, 1491, 1539, 1540, 1492, 1493, 1541, 1542, 1494
933, 1493, 1541, 1542, 1494, 1495, 1543, 1544, 1496
934, 1495, 1543, 1544, 1496, 1497, 1545, 1546, 1498
935, 1497, 1545, 1546, 1498, 1499, 1547, 1548, 1500
936, 1490, 1538, 1549, 1501, 1492, 1540, 1550, 1502
937, 1492, 1540, 1550, 1502, 1494, 1542, 1551, 1503
938, 1494, 1542, 1551, 1503, 1496, 1544, 1552, 1504
939, 1496, 1544, 1552, 1504, 1498, 1546, 1553, 1505
940, 1498, 1546, 1553, 1505, 1500, 1548, 1554, 1506
941, 1507, 1555, 1556, 1508, 1509, 1557, 1558, 1510
942, 1509, 1557, 1558, 1510, 1511, 1559, 1560, 1512
943, 1508, 1556, 1561, 1513, 1510, 1558, 1562, 1514
944, 1510, 1558, 1562, 1514, 1512, 1560, 1563, 1515
945, 1513, 1561, 1564, 1516, 1514, 1562, 1565, 1517
946, 1514, 1562, 1565, 1517, 1515, 1563, 1566, 1518
947, 1516, 1564, 1547, 1499, 1517, 1565, 1567, 1519
948, 1517, 1565, 1567, 1519, 1518, 1566, 1568, 1520
949, 1499, 1547, 1548, 1500, 1519, 1567, 1569, 1521
950, 1519, 1567, 1569, 1521, 1520, 1568, 1570, 1522
951, 1500, 1548, 1554, 1506, 1521, 1569, 1571, 1523
952, 1521, 1569, 1571, 1523, 1522, 1570, 1572, 1524
953, 1506, 1554, 1573, 1525, 1523, 1571, 1574, 1526
954, 1523, 1571, 1574, 1526, 1524, 1572, 1575, 1527
955, 1525, 1573, 1576, 1528, 1526, 1574, 1577, 1529
956, 1526, 1574, 1577, 1529, 1527, 1575, 1578, 1530
957, 1528, 1576, 1579, 1531, 1529, 1577, 1580, 1532
958, 1529, 1577, 1580, 1532, 1530, 1578, 1581, 1533
959, 1531, 1579, 1582, 1534, 1532, 1580, 1583, 1535
960, 1532, 1580, 1583, 1535, 1533, 1581, 1584, 1536
961, 1537, 1585, 1586, 1538, 1539, 1587, 1588, 1540
962, 1539, 1587, 1588, 1540, 1541, 1589, 1590, 1542
963, 1541, 1589, 1590, 1542, 1543, 1591, 1592, 1544
964, 1543, 1591, 1592, 1544, 1545, 1593, 1594, 1546
965, 1545, 1593, 1594, 1546, 1547, 1595, 1596, 1548
966, 1538, 1586, 1597, 1549, 1540, 1588, 1598, 1550
967, 1540, 1588, 1598, 1550, 1542, 1590, 1599, 1551
968, 1542, 1590, 1599, 1551, 1544, 1592, 1600, 1552
969, 1544, 1592, 1600, 1552, 1546, 1594, 1601, 1553
970, 1546, 1594, 1601, 1553, 1548, 1596, 1602, 1554
971, 1555, 1603, 1604, 1556, 1557, 1605, 1606, 1558
972, 1557, 1605, 1606, 1558, 1559, 1607, 1608, 1560
973, 1556, 1604, 1609, 1561, 1558, 1606, 1610, 1562
974, 1558, 1606, 1610, 1562, 1560, 1608, 1611, 1563
975, 1561, 1609, 1612, 1564, 1562, 1610, 1613, 1565
976, 1562, 1610, 1613, 1565, 1563, 1611, 1614, 1566
977, 1564, 1612, 1595, 1547, 1565, 1613, 1615, 1567
978, 1565, 1613, 1615, 1567, 1566, 1614, 1616, 1568
979, 1547, 1595, 1596, 1548, 1567, 1615, 1617, 1569
980, 1567, 1615, 1617, 1569, 1568, 1616, 1618, 1570
981, 1548, 1596, 1602, 1554, 1569, 1617, 1619, 1571
982, 1569, 1617, 1619, 1571, 1570, 1618, 1620, 1572
983, 1554, 1602, 1621, 1573, 1571, 1619, 1622, 1574
984, 1571, 1619, 1622, 1574, 1572, 1620, 1623, 1575
985, 1573, 1621, 1624, 1576, 1574, 1622, 1625, 1577
986, 1574, 1622, 1625, 1577, 1575, 1623, 1626, 1578
987, 1576, 1624, 1627, 1579, 1577, 1625, 1628, 1580
988, 1577, 1625, 1628, 1580, 1578, 1626, 1629, 1581
989, 1579, 1627, 1630, 1582, 1580, 1628, 1631, 1583
990, 1580, 1628, 1631, 1583, 1581, 1629, 1632, 1584
991, 1585, 1633, 1634, 1586, 1587, 1635, 1636, 1588
992, 1587, 1635, 1636, 1588, 1589, 1637, 1638, 1590
993, 1589, 1637, 1638, 1590, 1591, 1639, 1640, 1592
994, 1591, 1639, 1640, 1592, 1593, 1641, 1642, 1594
995, 1593, 1641, 1642, 1594, 1595, 1643, 1644, 1596
996, 1586, 1634, 1645, 1597, 1588, 1636, 1646, 1598
997, 1588, 1636, 1646, 1598, 1590, 1638, 1647, 1599
998, 1590, 1638, 1647, 1599, 1592, 1640, 1648, 1600
999, 1592, 1640, 1648, 1600, 1594, 1642, 1649, 1601
1000, 1594, 1642, 1649, 1601, 1596, 1644, 1650, 1602
1001, 1603, 1651, 1652, 1604, 1605, 1653, 1654, 1606
1002, 1605, 1653, 1654, 1606, 1607, 1655, 1656, 1608
1003, 1604, 1652, 1657, 1609, 1606, 1654, 1658, 1610
1004, 1606, 1654, 1658, 1610, 1608, 1656, 1659, 1611
1005, 1609, 1657, 1660, 1612, 1610, 1658, 1661, 1613
1006, 1610, 1658, 1661, 1613, 1611, 1659, 1662, 1614
1007, 1612, 1660, 1643, 1595, 1613, 1661, 1663, 1615
1008, 1613, 1661, 1663, 1615, 1614, 1662, 1664, 1616
1009, 1595, 1643, 1644, 1596, 1615, 1663, 1665, 1617
1010, 1615, 1663, 1665, 1617, 1616, 1664, 1666, 1618
1011, 1596, 1644, 1650, 1602, 1617, 1665, 1667, 1619
1012, 1617, 1665, 1667, 1619, 1618, 1666, 1668, 1620
1013, 1602, 1650, 1669, 1621, 1619, 1667, 1670, 1622
1014, 1619, 1667, 1670, 1622, 1620, 1668, 1671, 1623
1015, 1621, 1669, 1672, 1624, 1622, 1670, 1673, 1625
1016, 1622, 1670, 1673, 1625, 1623, 1671, 1674, 1626
1017, 1624, 1672, 1675, 1627, 1625, 1673, 1676, 1628
1018, 1625, 1673, 1676, 1628, 1626, 1674, 1677, 1629
1019, 1627, 1675, 1678, 1630, 1628, 1676, 1679, 1631
1020, 1628, 1676, 1679, 1631, 1629, 1677, 1680, 1632
1021, 1633, 1681, 1682, 1634, 1635, 1683, 1684, 1636
1022, 1635, 1683, 1684, 1636, 1637, 1685, 1686, 1638
1023, 1637, 1685, 1686, 1638, 1639, 1687, 1688, 1640
1024, 1639, 1687, 1688, 1640, 1641, 1689, 1690, 1642
1025, 1641, 1689, 1690, 1642, 1643, 1691, 1692, 1644
1026, 1634, 1682, 1693, 1645, 1636, 1684, 1694, 1646
1027, 1636, 1684, 1694, 1646, 1638, 1686, 1695, 1647
1028, 1638, 1686, 1695, 1647, 1640, 1688, 1696, 1648
1029, 1640, 1688, 1696, 1648, 1642, 1690, 1697, 1649
1030, 1642, 1690, 1697, 1649, 1644, 1692, 1698, 1650
1031, 1651, 1699, 1700, 1652, 1653, 1701, 1702, 1654
1032, 1653, 1701, 1702, 1654, 1655, 1703, 1704, 1656
1033, 1652, 1700, 1705, 1657, 1654, 1702, 1706, 1658
1034, 1654, 1702, 1706, 1658, 1656, 1704, 1707, 1659
1035, 1657, 1705, 1708, 1660, 1658, 1706, 1709, 1661
1036, 1658, 1706, 1709, 1661, 1659, 1707, 1710, 1662
1037, 1660, 1708, 1691, 1643, 1661, 1709, 1711, 1663
1038, 1661, 1709, 1711, 1663, 1662, 1710, 1712, 1664
1039, 1643, 1691, 1692, 1644, 1663, 1711, 1713, 1665
1040, 1663, 1711, 1713, 1665, 1664, 1712, 1714, 1666
1041, 1644, 1692, 1698, 1650, 1665, 1713, 1715, 1667
1042, 1665, 1713, 1715, 1667, 1666, 1714, 1716, 1668
1043, 1650, 1698, 1717, 1669, 1667, 1715, 1718, 1670
1044, 1667, 1715, 1718, 1670, 1668, 1716, 1719, 1671
1045, 1669, 1717, 1720, 1672, 1670, 1718, 1721, 1673
1046, 1670, 1718, 1721, 1673, 1671, 1719, 1722, 1674
1047, 1672, 1720, 1723, 1675, 1673, 1721, 1724, 1676
1048, 1673, 1721, 1724, 1676, 1674, 1722, 1725, 1677
1049, 1675, 1723, 1726, 1678, 1676, 1724, 1727, 1679
1050, 1676, 1724, 1727, 1679, 1677, 1725, 1728, 1680
1051, 1681, 1729, 1730, 1682, 1683, 1731, 1732, 1684
1052, 1683, 1731, 1732, 1684, 1685, 1733, 1734, 1686
1053, 1685, 1733, 1734, 1686, 1687, 1735, 1736, 1688
1054, 1687, 1735, 1736, 1688, 1689, 1737, 1738, 1690
1055, 1689, 1737, 1738, 1690, 1691, 1739, 1740, 1692
1056, 1682, 1730, 1741, 1693, 1684, 1732, 1742, 1694
1057, 1684, 1732, 1742, 1694, 1686, 1734, 1743, 1695
1058, 1686, 1734, 1743, 1695, 1688, 1736, 1744, 1696
1059, 1688, 1736, 1744, 1696, 1690, 1738, 1745, 1697
1060, 1690, 1738, 1745, 1697, 1692, 1740, 1746, 1698
1061, 1699, 1747, 1748, 1700, 1701, 1749, 1750, 1702
1062, 1701, 1749, 1750, 1702, 1703, 1751, 1752, 1704
1063, 1700, 1748, 1753, 1705, 1702, 1750, 1754, 1706
1064, 1702, 1750, 1754, 1706, 1704, 1752, 1755, 1707
1065, 1705, 1753, 1756, 1708, 1706, 1754, 1757, 1709
1066, 1706, 1754, 1757, 1709, 1707, 1755, 1758, 1710
1067, 1708, 1756, 1739, 1691, 1709, 1757, 1759, 1711
1068, 1709, 1757, 1759, 1711, 1710, 1758, 1760, 1712
1069, 1691, 1739, 1740, 1692, 1711, 1759, 1761, 1713
1070, 1711, 1759, 1761, 1713, 1712, 1760, 1762, 1714
1071, 1692, 1740, 1746, 1698, 1713, 1761, 1763, 1715
1072, 1713, 1761, 1763, 1715, 1714, 1762, 1764, 1716
1073, 1698, 1746, 1765, 1717, 1715, 1763, 1766, 1718
1074, 1715, 1763, 1766, 1718, 1716, 1764, 1767, 1719
1075, 1717, 1765, 1768, 1720, 1718, 1766, 1769, 1721
1076, 1718, 1766, 1769, 1721, 1719, 1767, 1770, 1722
1077, 1720, 1768, 1771, 1723, 1721, 1769, 1772, 1724
1078, 1721, 1769, 1772, 1724, 1722, 1770, 1773, 1725
1079, 1723, 1771, 1774, 1726, 1724, 1772, 1775, 1727
1080, 1724, 1772, 1775, 1727, 1725, 1773, 1776, 1728
1081, 1729, 1777, 1778, 1730, 1731, 1779, 1780, 1732
1082, 1731, 1779, 1780, 1732, 1733, 1781, 1782, 1734
1083, 1733, 1781, 1782, 1734, 1735, 1783, 1784, 1736
1084, 1735, 1783, 1784, 1736, 1737, 1785, 1786, 1738
1085, 1737, 1785, 1786, 1738, 1739, 1787, 1788, 1740
1086, 1730, 1778, 1789, 1741, 1732, 1780, 1790, 1742
1087, 1732, 1780, 1790, 1742, 1734, 1782, 1791, 1743
1088, 1734, 1782, 1791, 1743, 1736, 1784, 1792, 1744
1089, 1736, 1784, 1792, 1744, 1738, 1786, 1793, 1745
1090, 1738, 1786, 1793, 1745, 1740, 1788, 1794, 1746
1091, 1747, 1795, 1796, 1748, 1749, 1797, 1798, 1750
1092, 1749, 1797, 1798, 1750, 1751, 1799, 1800, 1752
1093, 1748, 1796, 1801, 1753, 1750, 1798, 1802, 1754
1094, 1750, 1798, 1802, 1754, 1752, 1800, 1803, 1755
1095, 1753, 1801, 1804, 1756, 1754, 1802, 1805, 1757
1096, 1754, 1802, 1805, 1757, 1755, 1803, 1806, 1758
1097, 1756, 1804, 1787, 1739, 1757, 1805, 1807, 1759
1098, 1757, 1805, 1807, 1759, 1758, 1806, 1808, 1760
1099, 1739, 1787, 1788, 1740, 1759, 1807, 1809, 1761
1100, 1759, 1807, 1809, 1761, 1760, 1808, 1810, 1762
1101, 1740, 1788, 1794, 1746, 1761, 1809, 1811, 1763
1102, 1761, 1809, 1811, 1763, 1762, 1810, 1812, 1764
1103, 1746, 1794, 1813, 1765, 1763, 1811, 1814, 1766
1104, 1763, 1811, 1814, 1766, 1764, 1812, 1815, 1767
1105, 1765, 1813, 1816, 1768, 1766, 1814, 1817, 1769
1106, 1766, 1814, 1817, 1769, 1767, 1815, 1818, 1770
1107, 1768, 1816, 1819, 1771, 1769, 1817, 1820, 1772
1108, 1769, 1817, 1820, 1772, 1770, 1818, 1821, 1773
1109, 1771, 1819, 1822, 1774, 1772, 1820, 1823, 1775
1110, 1772, 1820, 1823, 1775, 1773, 1821, 1824, 1776
1111, 1777, 1825, 1826, 1778, 1779, 1827, 1828, 1780
1112, 1779, 1827, 1828, 1780, 1781, 1829, 1830, 1782
1113, 1781, 1829, 1830, 1782, 1783, 1831, 1832, 1784
1114, 1783, 1831, 1832, 1784, 1785, 1833, 1834, 1786
1115, 1785, 1833, 1834, 1786, 1787, 1835, 1836, 1788
1116, 1778, 1826, 1837, 1789, 1780, 1828, 1838, 1790
1117, 1780, 1828, 1838, 1790, 1782, 1830, 1839, 1791
1118, 1782, 1830, 1839, 1791, 1784, 1832, 1840, 1792
1119, 1784, 1832, 1840, 1792, 1786, 1834, 1841, 1793
1120, 1786, 1834, 1841, 1793, 1788, 1836, 1842, 1794
1121, 1795, 1843, 1844, 1796, 1797, 1845, 1846, 1798
1122, 1797, 1845, 1846, 1798, 1799, 1847, 1848, 1800
1123, 1796, 1844, 1849, 1801, 1798, 1846, 1850, 1802
1124, 1798, 1846, 1850, 1802, 1800, 1848, 1851, 1803
1125, 1801, 1849, 1852, 1804, 1802, 1850, 1853, 1805
1126, 1802, 1850, 1853, 1805, 1803, 1851, 1854, 1806
1127, 1804, 1852, 1835, 1787, 1805, 1853, 1855, 1807
1128, 1805, 1853, 1855, 1807, 1806, 1854, 1856, 1808
1129, 1787, 1835, 1836, 1788, 1807, 1855, 1857, 1809
1130, 1807, 1855, 1857, 1809, 1808, 1856, 1858, 1810
1131, 1788, 1836, 1842, 1794, 1809, 1857, 1859, 1811
1132, 1809, 1857, 1859, 1811, 1810, 1858, 1860, 1812
1133, 1794, 1842, 1861, 1813, 1811, 1859, 1862, 1814
1134, 1811, 1859, 1862, 1814, 1812, 1860, 1863, 1815
1135, 1813, 1861, 1864, 1816, 1814, 1862, 1865, 1817
1136, 1814, 1862, 1865, 1817, 1815, 1863, 1866, 1818
1137, 1816, 1864, 1867, 1819, 1817, 1865, 1868, 1820
1138, 1817, 1865, 1868, 1820, 1818, 1866, 1869, 1821
1139, 1819, 1867, 1870, 1822, 1820, 1868, 1871, 1823
1140, 1820, 1868, 1871, 1823, 1821, 1869, 1872, 1824
1141, 1825, 1873, 1874, 1826, 1827, 1875, 1876, 1828
1142, 1827, 1875, 1876, 1828, 1829, 1877, 1878, 1830
1143, 1829, 1877, 1878, 1830, 1831, 1879, 1880, 1832
1144, 1831, 1879, 1880, 1832, 1833, 1881, 1882, 1834
1145, 1833, 1881, 1882, 1834, 1835, 1883, 1884, 1836
1146, 1826, 1874, 1885, 1837, 1828, 1876, 1886, 1838
1147, 1828, 1876, 1886, 1838, 1830, 1878, 1887, 1839
1148, 1830, 1878, 1887, 1839, 1832, 1880, 1888, 1840
1149, 1832, 1880, 1888, 1840, 1834, 1882, 1889, 1841
1150, 1834, 1882, 1889, 1841, 1836, 1884, 1890, 1842
1151, 1843, 1891, 1892, 1844, 1845, 1893, 1894, 1846
1152, 1845, 1893, 1894, 1846, 1847, 1895, 1896, 1848
1153, 1844, 1892, 1897, 1849, 1846, 1894, 1898, 1850
1154, 1846, 1894, 1898, 1850, 1848, 1896, 1899, 1851
1155, 1849, 1897, 1900, 1852, 1850, 1898, 1901, 1853
1156, 1850, 1898, 1901, 1853, 1851, 1899, 1902, 1854
1157, 1852, 1900, 1883, 1835, 1853, 1901, 1903, 1855
1158, 1853, 1901, 1903, 1855, 1854, 1902, 1904, 1856
1159, 1835, 1883, 1884, 1836, 1855, 1903, 1905, 1857
1160, 1855, 1903, 1905, 1857, 1856, 1904, 1906, 1858
1161, 1836, 1884, 1890, 1842, 1857, 1905, 1907, 1859
1162, 1857, 1905, 1907, 1859, 1858, 1906, 1908, 1860
1163, 1842, 1890, 1909, 1861, 1859, 1907, 1910, 1862
1164, 1859, 1907, 1910, 1862, 1860, 1908, 1911, 1863
1165, 1861, 1909, 1912, 1864, 1862, 1910, 1913, 1865
1166, 1862, 1910, 1913, 1865, 1863, 1911, 1914, 1866
1167, 1864, 1912, 1915, 1867, 1865, 1913, 1916, 1868
1168, 1865, 1913, 1916, 1868, 1866, 1914, 1917, 1869
1169, 1867, 1915, 1918, 1870, 1868, 1916, 1919, 1871
1170, 1868, 1916, 1919, 1871, 1869, 1917, 1920, 1872
*NSET, NSET=CLAMP
1, 4, 5, 8, 9, 12, 13, 16, 17, 20, 21, 24, 26, 28, 30, 32
34, 36, 37, 40, 41, 44, 45, 48, 50, 52, 54, 56, 58, 60, 62, 64
66, 68, 70, 72, 74, 76, 78, 80, 82, 84, 86, 88, 90, 92, 94, 96
*NSET, NSET=TIP_TOP
1895, 1896, 1899, 1902, 1904, 1906, 1908, 1911, 1914, 1917, 1920
*NSET, NSET=TIP_FLANGE
1895, 1896, 1899, 1902, 1904, 1906, 1908, 1911, 1914, 1917, 1920
*MATERIAL, NAME=STEEL
*ELASTIC
210000, 0.3
*SOLID SECTION, ELSET=EALL, MATERIAL=STEEL
*BOUNDARY
CLAMP, 1, 3, 0.0
*STEP
*STATIC
*CLOAD
1895, 3, -454.545454545
1896, 3, -454.545454545
1899, 3, -454.545454545
1902, 3, -454.545454545
1904, 3, -454.545454545
1906, 3, -454.545454545
1908, 3, -454.545454545
1911, 3, -454.545454545
1914, 3, -454.545454545
1917, 3, -454.545454545
1920, 3, -454.545454545
*NODE FILE
U
*EL FILE
S, ENER
*NODE PRINT, NSET=TIP_TOP
U
*NODE PRINT, NSET=CLAMP
RF
*EL PRINT, ELSET=EALL
ELSE
*ENERGY PRINT
*END STEP
