*HEADING
G01 S-LIN hanging 8-split residual cycle 2
units: mm, N, s, MPa. Material is illustrative steel, not a coupon card.
E=210000.0 nu=0.3. load -5000.0 N on TIP_TOP.
*NODE, NSET=NALL
1, 0, -10, 0
2, 111.111111111, -10, 0
3, 111.111111111, 0, 0
4, 0, 0, 0
5, 0, -10, 28
6, 111.111111111, -10, 28
7, 111.111111111, 0, 28
8, 0, 0, 28
9, 0, -10, 56
10, 111.111111111, -10, 56
11, 111.111111111, 0, 56
12, 0, 0, 56
13, 0, -10, 84
14, 111.111111111, -10, 84
15, 111.111111111, 0, 84
16, 0, 0, 84
17, 0, -10, 112
18, 111.111111111, -10, 112
19, 111.111111111, 0, 112
20, 0, 0, 112
21, 0, -10, 140
22, 111.111111111, -10, 140
23, 111.111111111, 0, 140
24, 0, 0, 140
25, 111.111111111, 10, 0
26, 0, 10, 0
27, 111.111111111, 10, 28
28, 0, 10, 28
29, 111.111111111, 10, 56
30, 0, 10, 56
31, 111.111111111, 10, 84
32, 0, 10, 84
33, 111.111111111, 10, 112
34, 0, 10, 112
35, 111.111111111, 10, 140
36, 0, 10, 140
37, 0, -120, 140
38, 111.111111111, -120, 140
39, 111.111111111, -92.5, 140
40, 0, -92.5, 140
41, 0, -120, 150
42, 111.111111111, -120, 150
43, 111.111111111, -92.5, 150
44, 0, -92.5, 150
45, 0, -120, 160
46, 111.111111111, -120, 160
47, 111.111111111, -92.5, 160
48, 0, -92.5, 160
49, 111.111111111, -65, 140
50, 0, -65, 140
51, 111.111111111, -65, 150
52, 0, -65, 150
53, 111.111111111, -65, 160
54, 0, -65, 160
55, 111.111111111, -37.5, 140
56, 0, -37.5, 140
57, 111.111111111, -37.5, 150
58, 0, -37.5, 150
59, 111.111111111, -37.5, 160
60, 0, -37.5, 160
61, 111.111111111, -10, 150
62, 0, -10, 150
63, 111.111111111, -10, 160
64, 0, -10, 160
65, 111.111111111, 0, 150
66, 0, 0, 150
67, 111.111111111, 0, 160
68, 0, 0, 160
69, 111.111111111, 10, 150
70, 0, 10, 150
71, 111.111111111, 10, 160
72, 0, 10, 160
73, 111.111111111, 37.5, 140
74, 0, 37.5, 140
75, 111.111111111, 37.5, 150
76, 0, 37.5, 150
77, 111.111111111, 37.5, 160
78, 0, 37.5, 160
79, 111.111111111, 65, 140
80, 0, 65, 140
81, 111.111111111, 65, 150
82, 0, 65, 150
83, 111.111111111, 65, 160
84, 0, 65, 160
85, 111.111111111, 92.5, 140
86, 0, 92.5, 140
87, 111.111111111, 92.5, 150
88, 0, 92.5, 150
89, 111.111111111, 92.5, 160
90, 0, 92.5, 160
91, 111.111111111, 120, 140
92, 0, 120, 140
93, 111.111111111, 120, 150
94, 0, 120, 150
95, 111.111111111, 120, 160
96, 0, 120, 160
97, 222.222222222, -10, 0
98, 222.222222222, 0, 0
99, 222.222222222, -10, 28
100, 222.222222222, 0, 28
101, 222.222222222, -10, 56
102, 222.222222222, 0, 56
103, 222.222222222, -10, 84
104, 222.222222222, 0, 84
105, 222.222222222, -10, 112
106, 222.222222222, 0, 112
107, 222.222222222, -10, 140
108, 222.222222222, 0, 140
109, 222.222222222, 10, 0
110, 222.222222222, 10, 28
111, 222.222222222, 10, 56
112, 222.222222222, 10, 84
113, 222.222222222, 10, 112
114, 222.222222222, 10, 140
115, 222.222222222, -120, 140
116, 222.222222222, -92.5, 140
117, 222.222222222, -120, 150
118, 222.222222222, -92.5, 150
119, 222.222222222, -120, 160
120, 222.222222222, -92.5, 160
121, 222.222222222, -65, 140
122, 222.222222222, -65, 150
123, 222.222222222, -65, 160
124, 222.222222222, -37.5, 140
125, 222.222222222, -37.5, 150
126, 222.222222222, -37.5, 160
127, 222.222222222, -10, 150
128, 222.222222222, -10, 160
129, 222.222222222, 0, 150
130, 222.222222222, 0, 160
131, 222.222222222, 10, 150
132, 222.222222222, 10, 160
133, 222.222222222, 37.5, 140
134, 222.222222222, 37.5, 150
135, 222.222222222, 37.5, 160
136, 222.222222222, 65, 140
137, 222.222222222, 65, 150
138, 222.222222222, 65, 160
139, 222.222222222, 92.5, 140
140, 222.222222222, 92.5, 150
141, 222.222222222, 92.5, 160
142, 222.222222222, 120, 140
143, 222.222222222, 120, 150
144, 222.222222222, 120, 160
145, 333.333333333, -10, 0
146, 333.333333333, 0, 0
147, 333.333333333, -10, 28
148, 333.333333333, 0, 28
149, 333.333333333, -10, 56
150, 333.333333333, 0, 56
151, 333.333333333, -10, 84
152, 333.333333333, 0, 84
153, 333.333333333, -10, 112
154, 333.333333333, 0, 112
155, 333.333333333, -10, 140
156, 333.333333333, 0, 140
157, 333.333333333, 10, 0
158, 333.333333333, 10, 28
159, 333.333333333, 10, 56
160, 333.333333333, 10, 84
161, 333.333333333, 10, 112
162, 333.333333333, 10, 140
163, 333.333333333, -120, 140
164, 333.333333333, -92.5, 140
165, 333.333333333, -120, 150
166, 333.333333333, -92.5, 150
167, 333.333333333, -120, 160
168, 333.333333333, -92.5, 160
169, 333.333333333, -65, 140
170, 333.333333333, -65, 150
171, 333.333333333, -65, 160
172, 333.333333333, -37.5, 140
173, 333.333333333, -37.5, 150
174, 333.333333333, -37.5, 160
175, 333.333333333, -10, 150
176, 333.333333333, -10, 160
177, 333.333333333, 0, 150
178, 333.333333333, 0, 160
179, 333.333333333, 10, 150
180, 333.333333333, 10, 160
181, 333.333333333, 37.5, 140
182, 333.333333333, 37.5, 150
183, 333.333333333, 37.5, 160
184, 333.333333333, 65, 140
185, 333.333333333, 65, 150
186, 333.333333333, 65, 160
187, 333.333333333, 92.5, 140
188, 333.333333333, 92.5, 150
189, 333.333333333, 92.5, 160
190, 333.333333333, 120, 140
191, 333.333333333, 120, 150
192, 333.333333333, 120, 160
193, 444.444444444, -10, 0
194, 444.444444444, 0, 0
195, 444.444444444, -10, 28
196, 444.444444444, 0, 28
197, 444.444444444, -10, 56
198, 444.444444444, 0, 56
199, 444.444444444, -10, 84
200, 444.444444444, 0, 84
201, 444.444444444, -10, 112
202, 444.444444444, 0, 112
203, 444.444444444, -10, 140
204, 444.444444444, 0, 140
205, 444.444444444, 10, 0
206, 444.444444444, 10, 28
207, 444.444444444, 10, 56
208, 444.444444444, 10, 84
209, 444.444444444, 10, 112
210, 444.444444444, 10, 140
211, 444.444444444, -120, 140
212, 444.444444444, -92.5, 140
213, 444.444444444, -120, 150
214, 444.444444444, -92.5, 150
215, 444.444444444, -120, 160
216, 444.444444444, -92.5, 160
217, 444.444444444, -65, 140
218, 444.444444444, -65, 150
219, 444.444444444, -65, 160
220, 444.444444444, -37.5, 140
221, 444.444444444, -37.5, 150
222, 444.444444444, -37.5, 160
223, 444.444444444, -10, 150
224, 444.444444444, -10, 160
225, 444.444444444, 0, 150
226, 444.444444444, 0, 160
227, 444.444444444, 10, 150
228, 444.444444444, 10, 160
229, 444.444444444, 37.5, 140
230, 444.444444444, 37.5, 150
231, 444.444444444, 37.5, 160
232, 444.444444444, 65, 140
233, 444.444444444, 65, 150
234, 444.444444444, 65, 160
235, 444.444444444, 92.5, 140
236, 444.444444444, 92.5, 150
237, 444.444444444, 92.5, 160
238, 444.444444444, 120, 140
239, 444.444444444, 120, 150
240, 444.444444444, 120, 160
241, 555.555555556, -10, 0
242, 555.555555556, 0, 0
243, 555.555555556, -10, 28
244, 555.555555556, 0, 28
245, 555.555555556, -10, 56
246, 555.555555556, 0, 56
247, 555.555555556, -10, 84
248, 555.555555556, 0, 84
249, 555.555555556, -10, 112
250, 555.555555556, 0, 112
251, 555.555555556, -10, 140
252, 555.555555556, 0, 140
253, 555.555555556, 10, 0
254, 555.555555556, 10, 28
255, 555.555555556, 10, 56
256, 555.555555556, 10, 84
257, 555.555555556, 10, 112
258, 555.555555556, 10, 140
259, 555.555555556, -120, 140
260, 555.555555556, -92.5, 140
261, 555.555555556, -120, 150
262, 555.555555556, -92.5, 150
263, 555.555555556, -120, 160
264, 555.555555556, -92.5, 160
265, 555.555555556, -65, 140
266, 555.555555556, -65, 150
267, 555.555555556, -65, 160
268, 555.555555556, -37.5, 140
269, 555.555555556, -37.5, 150
270, 555.555555556, -37.5, 160
271, 555.555555556, -10, 150
272, 555.555555556, -10, 160
273, 555.555555556, 0, 150
274, 555.555555556, 0, 160
275, 555.555555556, 10, 150
276, 555.555555556, 10, 160
277, 555.555555556, 37.5, 140
278, 555.555555556, 37.5, 150
279, 555.555555556, 37.5, 160
280, 555.555555556, 65, 140
281, 555.555555556, 65, 150
282, 555.555555556, 65, 160
283, 555.555555556, 92.5, 140
284, 555.555555556, 92.5, 150
285, 555.555555556, 92.5, 160
286, 555.555555556, 120, 140
287, 555.555555556, 120, 150
288, 555.555555556, 120, 160
289, 666.666666667, -10, 0
290, 666.666666667, 0, 0
291, 666.666666667, -10, 28
292, 666.666666667, 0, 28
293, 666.666666667, -10, 56
294, 666.666666667, 0, 56
295, 666.666666667, -10, 84
296, 666.666666667, 0, 84
297, 666.666666667, -10, 112
298, 666.666666667, 0, 112
299, 666.666666667, -10, 140
300, 666.666666667, 0, 140
301, 666.666666667, 10, 0
302, 666.666666667, 10, 28
303, 666.666666667, 10, 56
304, 666.666666667, 10, 84
305, 666.666666667, 10, 112
306, 666.666666667, 10, 140
307, 666.666666667, -120, 140
308, 666.666666667, -92.5, 140
309, 666.666666667, -120, 150
310, 666.666666667, -92.5, 150
311, 666.666666667, -120, 160
312, 666.666666667, -92.5, 160
313, 666.666666667, -65, 140
314, 666.666666667, -65, 150
315, 666.666666667, -65, 160
316, 666.666666667, -37.5, 140
317, 666.666666667, -37.5, 150
318, 666.666666667, -37.5, 160
319, 666.666666667, -10, 150
320, 666.666666667, -10, 160
321, 666.666666667, 0, 150
322, 666.666666667, 0, 160
323, 666.666666667, 10, 150
324, 666.666666667, 10, 160
325, 666.666666667, 37.5, 140
326, 666.666666667, 37.5, 150
327, 666.666666667, 37.5, 160
328, 666.666666667, 65, 140
329, 666.666666667, 65, 150
330, 666.666666667, 65, 160
331, 666.666666667, 92.5, 140
332, 666.666666667, 92.5, 150
333, 666.666666667, 92.5, 160
334, 666.666666667, 120, 140
335, 666.666666667, 120, 150
336, 666.666666667, 120, 160
337, 777.777777778, -10, 0
338, 777.777777778, 0, 0
339, 777.777777778, -10, 28
340, 777.777777778, 0, 28
341, 777.777777778, -10, 56
342, 777.777777778, 0, 56
343, 777.777777778, -10, 84
344, 777.777777778, 0, 84
345, 777.777777778, -10, 112
346, 777.777777778, 0, 112
347, 777.777777778, -10, 140
348, 777.777777778, 0, 140
349, 777.777777778, 10, 0
350, 777.777777778, 10, 28
351, 777.777777778, 10, 56
352, 777.777777778, 10, 84
353, 777.777777778, 10, 112
354, 777.777777778, 10, 140
355, 777.777777778, -120, 140
356, 777.777777778, -92.5, 140
357, 777.777777778, -120, 150
358, 777.777777778, -92.5, 150
359, 777.777777778, -120, 160
360, 777.777777778, -92.5, 160
361, 777.777777778, -65, 140
362, 777.777777778, -65, 150
363, 777.777777778, -65, 160
364, 777.777777778, -37.5, 140
365, 777.777777778, -37.5, 150
366, 777.777777778, -37.5, 160
367, 777.777777778, -10, 150
368, 777.777777778, -10, 160
369, 777.777777778, 0, 150
370, 777.777777778, 0, 160
371, 777.777777778, 10, 150
372, 777.777777778, 10, 160
373, 777.777777778, 37.5, 140
374, 777.777777778, 37.5, 150
375, 777.777777778, 37.5, 160
376, 777.777777778, 65, 140
377, 777.777777778, 65, 150
378, 777.777777778, 65, 160
379, 777.777777778, 92.5, 140
380, 777.777777778, 92.5, 150
381, 777.777777778, 92.5, 160
382, 777.777777778, 120, 140
383, 777.777777778, 120, 150
384, 777.777777778, 120, 160
385, 888.888888889, -10, 0
386, 888.888888889, 0, 0
387, 888.888888889, -10, 28
388, 888.888888889, 0, 28
389, 888.888888889, -10, 56
390, 888.888888889, 0, 56
391, 888.888888889, -10, 84
392, 888.888888889, 0, 84
393, 888.888888889, -10, 112
394, 888.888888889, 0, 112
395, 888.888888889, -10, 140
396, 888.888888889, 0, 140
397, 888.888888889, 10, 0
398, 888.888888889, 10, 28
399, 888.888888889, 10, 56
400, 888.888888889, 10, 84
401, 888.888888889, 10, 112
402, 888.888888889, 10, 140
403, 888.888888889, -120, 140
404, 888.888888889, -92.5, 140
405, 888.888888889, -120, 150
406, 888.888888889, -92.5, 150
407, 888.888888889, -120, 160
408, 888.888888889, -92.5, 160
409, 888.888888889, -65, 140
410, 888.888888889, -65, 150
411, 888.888888889, -65, 160
412, 888.888888889, -37.5, 140
413, 888.888888889, -37.5, 150
414, 888.888888889, -37.5, 160
415, 888.888888889, -10, 150
416, 888.888888889, -10, 160
417, 888.888888889, 0, 150
418, 888.888888889, 0, 160
419, 888.888888889, 10, 150
420, 888.888888889, 10, 160
421, 888.888888889, 37.5, 140
422, 888.888888889, 37.5, 150
423, 888.888888889, 37.5, 160
424, 888.888888889, 65, 140
425, 888.888888889, 65, 150
426, 888.888888889, 65, 160
427, 888.888888889, 92.5, 140
428, 888.888888889, 92.5, 150
429, 888.888888889, 92.5, 160
430, 888.888888889, 120, 140
431, 888.888888889, 120, 150
432, 888.888888889, 120, 160
433, 1000, -10, 0
434, 1000, 0, 0
435, 1000, -10, 28
436, 1000, 0, 28
437, 1000, -10, 56
438, 1000, 0, 56
439, 1000, -10, 84
440, 1000, 0, 84
441, 1000, -10, 112
442, 1000, 0, 112
443, 1000, -10, 140
444, 1000, 0, 140
445, 1000, 10, 0
446, 1000, 10, 28
447, 1000, 10, 56
448, 1000, 10, 84
449, 1000, 10, 112
450, 1000, 10, 140
451, 1000, -120, 140
452, 1000, -92.5, 140
453, 1000, -120, 150
454, 1000, -92.5, 150
455, 1000, -120, 160
456, 1000, -92.5, 160
457, 1000, -65, 140
458, 1000, -65, 150
459, 1000, -65, 160
460, 1000, -37.5, 140
461, 1000, -37.5, 150
462, 1000, -37.5, 160
463, 1000, -10, 150
464, 1000, -10, 160
465, 1000, 0, 150
466, 1000, 0, 160
467, 1000, 10, 150
468, 1000, 10, 160
469, 1000, 37.5, 140
470, 1000, 37.5, 150
471, 1000, 37.5, 160
472, 1000, 65, 140
473, 1000, 65, 150
474, 1000, 65, 160
475, 1000, 92.5, 140
476, 1000, 92.5, 150
477, 1000, 92.5, 160
478, 1000, 120, 140
479, 1000, 120, 150
480, 1000, 120, 160
481, 1111.11111111, -10, 0
482, 1111.11111111, 0, 0
483, 1111.11111111, -10, 28
484, 1111.11111111, 0, 28
485, 1111.11111111, -10, 56
486, 1111.11111111, 0, 56
487, 1111.11111111, -10, 84
488, 1111.11111111, 0, 84
489, 1111.11111111, -10, 112
490, 1111.11111111, 0, 112
491, 1111.11111111, -10, 140
492, 1111.11111111, 0, 140
493, 1111.11111111, 10, 0
494, 1111.11111111, 10, 28
495, 1111.11111111, 10, 56
496, 1111.11111111, 10, 84
497, 1111.11111111, 10, 112
498, 1111.11111111, 10, 140
499, 1111.11111111, -120, 140
500, 1111.11111111, -92.5, 140
501, 1111.11111111, -120, 150
502, 1111.11111111, -92.5, 150
503, 1111.11111111, -120, 160
504, 1111.11111111, -92.5, 160
505, 1111.11111111, -65, 140
506, 1111.11111111, -65, 150
507, 1111.11111111, -65, 160
508, 1111.11111111, -37.5, 140
509, 1111.11111111, -37.5, 150
510, 1111.11111111, -37.5, 160
511, 1111.11111111, -10, 150
512, 1111.11111111, -10, 160
513, 1111.11111111, 0, 150
514, 1111.11111111, 0, 160
515, 1111.11111111, 10, 150
516, 1111.11111111, 10, 160
517, 1111.11111111, 37.5, 140
518, 1111.11111111, 37.5, 150
519, 1111.11111111, 37.5, 160
520, 1111.11111111, 65, 140
521, 1111.11111111, 65, 150
522, 1111.11111111, 65, 160
523, 1111.11111111, 92.5, 140
524, 1111.11111111, 92.5, 150
525, 1111.11111111, 92.5, 160
526, 1111.11111111, 120, 140
527, 1111.11111111, 120, 150
528, 1111.11111111, 120, 160
529, 1222.22222222, -10, 0
530, 1222.22222222, 0, 0
531, 1222.22222222, -10, 28
532, 1222.22222222, 0, 28
533, 1222.22222222, -10, 56
534, 1222.22222222, 0, 56
535, 1222.22222222, -10, 84
536, 1222.22222222, 0, 84
537, 1222.22222222, -10, 112
538, 1222.22222222, 0, 112
539, 1222.22222222, -10, 140
540, 1222.22222222, 0, 140
541, 1222.22222222, 10, 0
542, 1222.22222222, 10, 28
543, 1222.22222222, 10, 56
544, 1222.22222222, 10, 84
545, 1222.22222222, 10, 112
546, 1222.22222222, 10, 140
547, 1222.22222222, -120, 140
548, 1222.22222222, -92.5, 140
549, 1222.22222222, -120, 150
550, 1222.22222222, -92.5, 150
551, 1222.22222222, -120, 160
552, 1222.22222222, -92.5, 160
553, 1222.22222222, -65, 140
554, 1222.22222222, -65, 150
555, 1222.22222222, -65, 160
556, 1222.22222222, -37.5, 140
557, 1222.22222222, -37.5, 150
558, 1222.22222222, -37.5, 160
559, 1222.22222222, -10, 150
560, 1222.22222222, -10, 160
561, 1222.22222222, 0, 150
562, 1222.22222222, 0, 160
563, 1222.22222222, 10, 150
564, 1222.22222222, 10, 160
565, 1222.22222222, 37.5, 140
566, 1222.22222222, 37.5, 150
567, 1222.22222222, 37.5, 160
568, 1222.22222222, 65, 140
569, 1222.22222222, 65, 150
570, 1222.22222222, 65, 160
571, 1222.22222222, 92.5, 140
572, 1222.22222222, 92.5, 150
573, 1222.22222222, 92.5, 160
574, 1222.22222222, 120, 140
575, 1222.22222222, 120, 150
576, 1222.22222222, 120, 160
577, 1333.33333333, -10, 0
578, 1333.33333333, 0, 0
579, 1333.33333333, -10, 28
580, 1333.33333333, 0, 28
581, 1333.33333333, -10, 56
582, 1333.33333333, 0, 56
583, 1333.33333333, -10, 84
584, 1333.33333333, 0, 84
585, 1333.33333333, -10, 112
586, 1333.33333333, 0, 112
587, 1333.33333333, -10, 140
588, 1333.33333333, 0, 140
589, 1333.33333333, 10, 0
590, 1333.33333333, 10, 28
591, 1333.33333333, 10, 56
592, 1333.33333333, 10, 84
593, 1333.33333333, 10, 112
594, 1333.33333333, 10, 140
595, 1333.33333333, -120, 140
596, 1333.33333333, -92.5, 140
597, 1333.33333333, -120, 150
598, 1333.33333333, -92.5, 150
599, 1333.33333333, -120, 160
600, 1333.33333333, -92.5, 160
601, 1333.33333333, -65, 140
602, 1333.33333333, -65, 150
603, 1333.33333333, -65, 160
604, 1333.33333333, -37.5, 140
605, 1333.33333333, -37.5, 150
606, 1333.33333333, -37.5, 160
607, 1333.33333333, -10, 150
608, 1333.33333333, -10, 160
609, 1333.33333333, 0, 150
610, 1333.33333333, 0, 160
611, 1333.33333333, 10, 150
612, 1333.33333333, 10, 160
613, 1333.33333333, 37.5, 140
614, 1333.33333333, 37.5, 150
615, 1333.33333333, 37.5, 160
616, 1333.33333333, 65, 140
617, 1333.33333333, 65, 150
618, 1333.33333333, 65, 160
619, 1333.33333333, 92.5, 140
620, 1333.33333333, 92.5, 150
621, 1333.33333333, 92.5, 160
622, 1333.33333333, 120, 140
623, 1333.33333333, 120, 150
624, 1333.33333333, 120, 160
625, 1444.44444444, -10, 0
626, 1444.44444444, 0, 0
627, 1444.44444444, -10, 28
628, 1444.44444444, 0, 28
629, 1444.44444444, -10, 56
630, 1444.44444444, 0, 56
631, 1444.44444444, -10, 84
632, 1444.44444444, 0, 84
633, 1444.44444444, -10, 112
634, 1444.44444444, 0, 112
635, 1444.44444444, -10, 140
636, 1444.44444444, 0, 140
637, 1444.44444444, 10, 0
638, 1444.44444444, 10, 28
639, 1444.44444444, 10, 56
640, 1444.44444444, 10, 84
641, 1444.44444444, 10, 112
642, 1444.44444444, 10, 140
643, 1444.44444444, -120, 140
644, 1444.44444444, -92.5, 140
645, 1444.44444444, -120, 150
646, 1444.44444444, -92.5, 150
647, 1444.44444444, -120, 160
648, 1444.44444444, -92.5, 160
649, 1444.44444444, -65, 140
650, 1444.44444444, -65, 150
651, 1444.44444444, -65, 160
652, 1444.44444444, -37.5, 140
653, 1444.44444444, -37.5, 150
654, 1444.44444444, -37.5, 160
655, 1444.44444444, -10, 150
656, 1444.44444444, -10, 160
657, 1444.44444444, 0, 150
658, 1444.44444444, 0, 160
659, 1444.44444444, 10, 150
660, 1444.44444444, 10, 160
661, 1444.44444444, 37.5, 140
662, 1444.44444444, 37.5, 150
663, 1444.44444444, 37.5, 160
664, 1444.44444444, 65, 140
665, 1444.44444444, 65, 150
666, 1444.44444444, 65, 160
667, 1444.44444444, 92.5, 140
668, 1444.44444444, 92.5, 150
669, 1444.44444444, 92.5, 160
670, 1444.44444444, 120, 140
671, 1444.44444444, 120, 150
672, 1444.44444444, 120, 160
673, 1555.55555556, -10, 0
674, 1555.55555556, 0, 0
675, 1555.55555556, -10, 28
676, 1555.55555556, 0, 28
677, 1555.55555556, -10, 56
678, 1555.55555556, 0, 56
679, 1555.55555556, -10, 84
680, 1555.55555556, 0, 84
681, 1555.55555556, -10, 112
682, 1555.55555556, 0, 112
683, 1555.55555556, -10, 140
684, 1555.55555556, 0, 140
685, 1555.55555556, 10, 0
686, 1555.55555556, 10, 28
687, 1555.55555556, 10, 56
688, 1555.55555556, 10, 84
689, 1555.55555556, 10, 112
690, 1555.55555556, 10, 140
691, 1555.55555556, -120, 140
692, 1555.55555556, -92.5, 140
693, 1555.55555556, -120, 150
694, 1555.55555556, -92.5, 150
695, 1555.55555556, -120, 160
696, 1555.55555556, -92.5, 160
697, 1555.55555556, -65, 140
698, 1555.55555556, -65, 150
699, 1555.55555556, -65, 160
700, 1555.55555556, -37.5, 140
701, 1555.55555556, -37.5, 150
702, 1555.55555556, -37.5, 160
703, 1555.55555556, -10, 150
704, 1555.55555556, -10, 160
705, 1555.55555556, 0, 150
706, 1555.55555556, 0, 160
707, 1555.55555556, 10, 150
708, 1555.55555556, 10, 160
709, 1555.55555556, 37.5, 140
710, 1555.55555556, 37.5, 150
711, 1555.55555556, 37.5, 160
712, 1555.55555556, 65, 140
713, 1555.55555556, 65, 150
714, 1555.55555556, 65, 160
715, 1555.55555556, 92.5, 140
716, 1555.55555556, 92.5, 150
717, 1555.55555556, 92.5, 160
718, 1555.55555556, 120, 140
719, 1555.55555556, 120, 150
720, 1555.55555556, 120, 160
721, 1666.66666667, -10, 0
722, 1666.66666667, 0, 0
723, 1666.66666667, -10, 28
724, 1666.66666667, 0, 28
725, 1666.66666667, -10, 56
726, 1666.66666667, 0, 56
727, 1666.66666667, -10, 84
728, 1666.66666667, 0, 84
729, 1666.66666667, -10, 112
730, 1666.66666667, 0, 112
731, 1666.66666667, -10, 140
732, 1666.66666667, 0, 140
733, 1666.66666667, 10, 0
734, 1666.66666667, 10, 28
735, 1666.66666667, 10, 56
736, 1666.66666667, 10, 84
737, 1666.66666667, 10, 112
738, 1666.66666667, 10, 140
739, 1666.66666667, -120, 140
740, 1666.66666667, -92.5, 140
741, 1666.66666667, -120, 150
742, 1666.66666667, -92.5, 150
743, 1666.66666667, -120, 160
744, 1666.66666667, -92.5, 160
745, 1666.66666667, -65, 140
746, 1666.66666667, -65, 150
747, 1666.66666667, -65, 160
748, 1666.66666667, -37.5, 140
749, 1666.66666667, -37.5, 150
750, 1666.66666667, -37.5, 160
751, 1666.66666667, -10, 150
752, 1666.66666667, -10, 160
753, 1666.66666667, 0, 150
754, 1666.66666667, 0, 160
755, 1666.66666667, 10, 150
756, 1666.66666667, 10, 160
757, 1666.66666667, 37.5, 140
758, 1666.66666667, 37.5, 150
759, 1666.66666667, 37.5, 160
760, 1666.66666667, 65, 140
761, 1666.66666667, 65, 150
762, 1666.66666667, 65, 160
763, 1666.66666667, 92.5, 140
764, 1666.66666667, 92.5, 150
765, 1666.66666667, 92.5, 160
766, 1666.66666667, 120, 140
767, 1666.66666667, 120, 150
768, 1666.66666667, 120, 160
769, 1777.77777778, -10, 0
770, 1777.77777778, 0, 0
771, 1777.77777778, -10, 28
772, 1777.77777778, 0, 28
773, 1777.77777778, -10, 56
774, 1777.77777778, 0, 56
775, 1777.77777778, -10, 84
776, 1777.77777778, 0, 84
777, 1777.77777778, -10, 112
778, 1777.77777778, 0, 112
779, 1777.77777778, -10, 140
780, 1777.77777778, 0, 140
781, 1777.77777778, 10, 0
782, 1777.77777778, 10, 28
783, 1777.77777778, 10, 56
784, 1777.77777778, 10, 84
785, 1777.77777778, 10, 112
786, 1777.77777778, 10, 140
787, 1777.77777778, -120, 140
788, 1777.77777778, -92.5, 140
789, 1777.77777778, -120, 150
790, 1777.77777778, -92.5, 150
791, 1777.77777778, -120, 160
792, 1777.77777778, -92.5, 160
793, 1777.77777778, -65, 140
794, 1777.77777778, -65, 150
795, 1777.77777778, -65, 160
796, 1777.77777778, -37.5, 140
797, 1777.77777778, -37.5, 150
798, 1777.77777778, -37.5, 160
799, 1777.77777778, -10, 150
800, 1777.77777778, -10, 160
801, 1777.77777778, 0, 150
802, 1777.77777778, 0, 160
803, 1777.77777778, 10, 150
804, 1777.77777778, 10, 160
805, 1777.77777778, 37.5, 140
806, 1777.77777778, 37.5, 150
807, 1777.77777778, 37.5, 160
808, 1777.77777778, 65, 140
809, 1777.77777778, 65, 150
810, 1777.77777778, 65, 160
811, 1777.77777778, 92.5, 140
812, 1777.77777778, 92.5, 150
813, 1777.77777778, 92.5, 160
814, 1777.77777778, 120, 140
815, 1777.77777778, 120, 150
816, 1777.77777778, 120, 160
817, 1888.88888889, -10, 0
818, 1888.88888889, 0, 0
819, 1888.88888889, -10, 28
820, 1888.88888889, 0, 28
821, 1888.88888889, -10, 56
822, 1888.88888889, 0, 56
823, 1888.88888889, -10, 84
824, 1888.88888889, 0, 84
825, 1888.88888889, -10, 112
826, 1888.88888889, 0, 112
827, 1888.88888889, -10, 140
828, 1888.88888889, 0, 140
829, 1888.88888889, 10, 0
830, 1888.88888889, 10, 28
831, 1888.88888889, 10, 56
832, 1888.88888889, 10, 84
833, 1888.88888889, 10, 112
834, 1888.88888889, 10, 140
835, 1888.88888889, -120, 140
836, 1888.88888889, -92.5, 140
837, 1888.88888889, -120, 150
838, 1888.88888889, -92.5, 150
839, 1888.88888889, -120, 160
840, 1888.88888889, -92.5, 160
841, 1888.88888889, -65, 140
842, 1888.88888889, -65, 150
843, 1888.88888889, -65, 160
844, 1888.88888889, -37.5, 140
845, 1888.88888889, -37.5, 150
846, 1888.88888889, -37.5, 160
847, 1888.88888889, -10, 150
848, 1888.88888889, -10, 160
849, 1888.88888889, 0, 150
850, 1888.88888889, 0, 160
851, 1888.88888889, 10, 150
852, 1888.88888889, 10, 160
853, 1888.88888889, 37.5, 140
854, 1888.88888889, 37.5, 150
855, 1888.88888889, 37.5, 160
856, 1888.88888889, 65, 140
857, 1888.88888889, 65, 150
858, 1888.88888889, 65, 160
859, 1888.88888889, 92.5, 140
860, 1888.88888889, 92.5, 150
861, 1888.88888889, 92.5, 160
862, 1888.88888889, 120, 140
863, 1888.88888889, 120, 150
864, 1888.88888889, 120, 160
865, 2000, -10, 0
866, 2000, 0, 0
867, 2000, -10, 28
868, 2000, 0, 28
869, 2000, -10, 56
870, 2000, 0, 56
871, 2000, -10, 84
872, 2000, 0, 84
873, 2000, -10, 112
874, 2000, 0, 112
875, 2000, -10, 140
876, 2000, 0, 140
877, 2000, 10, 0
878, 2000, 10, 28
879, 2000, 10, 56
880, 2000, 10, 84
881, 2000, 10, 112
882, 2000, 10, 140
883, 2000, -120, 140
884, 2000, -92.5, 140
885, 2000, -120, 150
886, 2000, -92.5, 150
887, 2000, -120, 160
888, 2000, -92.5, 160
889, 2000, -65, 140
890, 2000, -65, 150
891, 2000, -65, 160
892, 2000, -37.5, 140
893, 2000, -37.5, 150
894, 2000, -37.5, 160
895, 2000, -10, 150
896, 2000, -10, 160
897, 2000, 0, 150
898, 2000, 0, 160
899, 2000, 10, 150
900, 2000, 10, 160
901, 2000, 37.5, 140
902, 2000, 37.5, 150
903, 2000, 37.5, 160
904, 2000, 65, 140
905, 2000, 65, 150
906, 2000, 65, 160
907, 2000, 92.5, 140
908, 2000, 92.5, 150
909, 2000, 92.5, 160
910, 2000, 120, 140
911, 2000, 120, 150
912, 2000, 120, 160
913, 0, -10, 14
914, 0, -5, 0
915, 0, -5, 14
916, 0, -5, 28
917, 0, 0, 14
918, 55.5555555556, -10, 0
919, 55.5555555556, -10, 14
920, 55.5555555556, -10, 28
921, 55.5555555556, -5, 0
922, 55.5555555556, -5, 14
923, 55.5555555556, -5, 28
924, 55.5555555556, 0, 0
925, 55.5555555556, 0, 14
926, 55.5555555556, 0, 28
927, 111.111111111, -10, 14
928, 111.111111111, -5, 0
929, 111.111111111, -5, 14
930, 111.111111111, -5, 28
931, 111.111111111, 0, 14
932, 0, -10, 42
933, 0, -5, 42
934, 0, -5, 56
935, 0, 0, 42
936, 55.5555555556, -10, 42
937, 55.5555555556, -10, 56
938, 55.5555555556, -5, 42
939, 55.5555555556, -5, 56
940, 55.5555555556, 0, 42
941, 55.5555555556, 0, 56
942, 111.111111111, -10, 42
943, 111.111111111, -5, 42
944, 111.111111111, -5, 56
945, 111.111111111, 0, 42
946, 0, -10, 70
947, 0, -5, 70
948, 0, -5, 84
949, 0, 0, 70
950, 55.5555555556, -10, 70
951, 55.5555555556, -10, 84
952, 55.5555555556, -5, 70
953, 55.5555555556, -5, 84
954, 55.5555555556, 0, 70
955, 55.5555555556, 0, 84
956, 111.111111111, -10, 70
957, 111.111111111, -5, 70
958, 111.111111111, -5, 84
959, 111.111111111, 0, 70
960, 0, -10, 98
961, 0, -5, 98
962, 0, -5, 112
963, 0, 0, 98
964, 55.5555555556, -10, 98
965, 55.5555555556, -10, 112
966, 55.5555555556, -5, 98
967, 55.5555555556, -5, 112
968, 55.5555555556, 0, 98
969, 55.5555555556, 0, 112
970, 111.111111111, -10, 98
971, 111.111111111, -5, 98
972, 111.111111111, -5, 112
973, 111.111111111, 0, 98
974, 0, -10, 126
975, 0, -5, 126
976, 0, -5, 140
977, 0, 0, 126
978, 55.5555555556, -10, 126
979, 55.5555555556, -10, 140
980, 55.5555555556, -5, 126
981, 55.5555555556, -5, 140
982, 55.5555555556, 0, 126
983, 55.5555555556, 0, 140
984, 111.111111111, -10, 126
985, 111.111111111, -5, 126
986, 111.111111111, -5, 140
987, 111.111111111, 0, 126
988, 0, 5, 0
989, 0, 5, 14
990, 0, 5, 28
991, 0, 10, 14
992, 55.5555555556, 5, 0
993, 55.5555555556, 5, 14
994, 55.5555555556, 5, 28
995, 55.5555555556, 10, 0
996, 55.5555555556, 10, 14
997, 55.5555555556, 10, 28
998, 111.111111111, 5, 0
999, 111.111111111, 5, 14
1000, 111.111111111, 5, 28
1001, 111.111111111, 10, 14
1002, 0, 5, 42
1003, 0, 5, 56
1004, 0, 10, 42
1005, 55.5555555556, 5, 42
1006, 55.5555555556, 5, 56
1007, 55.5555555556, 10, 42
1008, 55.5555555556, 10, 56
1009, 111.111111111, 5, 42
1010, 111.111111111, 5, 56
1011, 111.111111111, 10, 42
1012, 0, 5, 70
1013, 0, 5, 84
1014, 0, 10, 70
1015, 55.5555555556, 5, 70
1016, 55.5555555556, 5, 84
1017, 55.5555555556, 10, 70
1018, 55.5555555556, 10, 84
1019, 111.111111111, 5, 70
1020, 111.111111111, 5, 84
1021, 111.111111111, 10, 70
1022, 0, 5, 98
1023, 0, 5, 112
1024, 0, 10, 98
1025, 55.5555555556, 5, 98
1026, 55.5555555556, 5, 112
1027, 55.5555555556, 10, 98
1028, 55.5555555556, 10, 112
1029, 111.111111111, 5, 98
1030, 111.111111111, 5, 112
1031, 111.111111111, 10, 98
1032, 0, 5, 126
1033, 0, 5, 140
1034, 0, 10, 126
1035, 55.5555555556, 5, 126
1036, 55.5555555556, 5, 140
1037, 55.5555555556, 10, 126
1038, 55.5555555556, 10, 140
1039, 111.111111111, 5, 126
1040, 111.111111111, 5, 140
1041, 111.111111111, 10, 126
1042, 0, -120, 145
1043, 0, -106.25, 140
1044, 0, -106.25, 145
1045, 0, -106.25, 150
1046, 0, -92.5, 145
1047, 55.5555555556, -120, 140
1048, 55.5555555556, -120, 145
1049, 55.5555555556, -120, 150
1050, 55.5555555556, -106.25, 140
1051, 55.5555555556, -106.25, 145
1052, 55.5555555556, -106.25, 150
1053, 55.5555555556, -92.5, 140
1054, 55.5555555556, -92.5, 145
1055, 55.5555555556, -92.5, 150
1056, 111.111111111, -120, 145
1057, 111.111111111, -106.25, 140
1058, 111.111111111, -106.25, 145
1059, 111.111111111, -106.25, 150
1060, 111.111111111, -92.5, 145
1061, 0, -120, 155
1062, 0, -106.25, 155
1063, 0, -106.25, 160
1064, 0, -92.5, 155
1065, 55.5555555556, -120, 155
1066, 55.5555555556, -120, 160
1067, 55.5555555556, -106.25, 155
1068, 55.5555555556, -106.25, 160
1069, 55.5555555556, -92.5, 155
1070, 55.5555555556, -92.5, 160
1071, 111.111111111, -120, 155
1072, 111.111111111, -106.25, 155
1073, 111.111111111, -106.25, 160
1074, 111.111111111, -92.5, 155
1075, 0, -78.75, 150
1076, 0, -78.75, 155
1077, 0, -78.75, 160
1078, 0, -65, 155
1079, 55.5555555556, -78.75, 150
1080, 55.5555555556, -78.75, 155
1081, 55.5555555556, -78.75, 160
1082, 55.5555555556, -65, 150
1083, 55.5555555556, -65, 155
1084, 55.5555555556, -65, 160
1085, 111.111111111, -78.75, 150
1086, 111.111111111, -78.75, 155
1087, 111.111111111, -78.75, 160
1088, 111.111111111, -65, 155
1089, 0, -65, 145
1090, 0, -51.25, 140
1091, 0, -51.25, 145
1092, 0, -51.25, 150
1093, 0, -37.5, 145
1094, 55.5555555556, -65, 140
1095, 55.5555555556, -65, 145
1096, 55.5555555556, -51.25, 140
1097, 55.5555555556, -51.25, 145
1098, 55.5555555556, -51.25, 150
1099, 55.5555555556, -37.5, 140
1100, 55.5555555556, -37.5, 145
1101, 55.5555555556, -37.5, 150
1102, 111.111111111, -65, 145
1103, 111.111111111, -51.25, 140
1104, 111.111111111, -51.25, 145
1105, 111.111111111, -51.25, 150
1106, 111.111111111, -37.5, 145
1107, 0, -51.25, 155
1108, 0, -51.25, 160
1109, 0, -37.5, 155
1110, 55.5555555556, -51.25, 155
1111, 55.5555555556, -51.25, 160
1112, 55.5555555556, -37.5, 155
1113, 55.5555555556, -37.5, 160
1114, 111.111111111, -51.25, 155
1115, 111.111111111, -51.25, 160
1116, 111.111111111, -37.5, 155
1117, 0, -23.75, 140
1118, 0, -23.75, 145
1119, 0, -23.75, 150
1120, 0, -10, 145
1121, 55.5555555556, -23.75, 140
1122, 55.5555555556, -23.75, 145
1123, 55.5555555556, -23.75, 150
1124, 55.5555555556, -10, 145
1125, 55.5555555556, -10, 150
1126, 111.111111111, -23.75, 140
1127, 111.111111111, -23.75, 145
1128, 111.111111111, -23.75, 150
1129, 111.111111111, -10, 145
1130, 0, -23.75, 155
1131, 0, -23.75, 160
1132, 0, -10, 155
1133, 55.5555555556, -23.75, 155
1134, 55.5555555556, -23.75, 160
1135, 55.5555555556, -10, 155
1136, 55.5555555556, -10, 160
1137, 111.111111111, -23.75, 155
1138, 111.111111111, -23.75, 160
1139, 111.111111111, -10, 155
1140, 0, -5, 145
1141, 0, -5, 150
1142, 0, 0, 145
1143, 55.5555555556, -5, 145
1144, 55.5555555556, -5, 150
1145, 55.5555555556, 0, 145
1146, 55.5555555556, 0, 150
1147, 111.111111111, -5, 145
1148, 111.111111111, -5, 150
1149, 111.111111111, 0, 145
1150, 0, 5, 145
1151, 0, 5, 150
1152, 0, 10, 145
1153, 55.5555555556, 5, 145
1154, 55.5555555556, 5, 150
1155, 55.5555555556, 10, 145
1156, 55.5555555556, 10, 150
1157, 111.111111111, 5, 145
1158, 111.111111111, 5, 150
1159, 111.111111111, 10, 145
1160, 0, 23.75, 140
1161, 0, 23.75, 145
1162, 0, 23.75, 150
1163, 0, 37.5, 145
1164, 55.5555555556, 23.75, 140
1165, 55.5555555556, 23.75, 145
1166, 55.5555555556, 23.75, 150
1167, 55.5555555556, 37.5, 140
1168, 55.5555555556, 37.5, 145
1169, 55.5555555556, 37.5, 150
1170, 111.111111111, 23.75, 140
1171, 111.111111111, 23.75, 145
1172, 111.111111111, 23.75, 150
1173, 111.111111111, 37.5, 145
1174, 0, 10, 155
1175, 0, 23.75, 155
1176, 0, 23.75, 160
1177, 0, 37.5, 155
1178, 55.5555555556, 10, 155
1179, 55.5555555556, 10, 160
1180, 55.5555555556, 23.75, 155
1181, 55.5555555556, 23.75, 160
1182, 55.5555555556, 37.5, 155
1183, 55.5555555556, 37.5, 160
1184, 111.111111111, 10, 155
1185, 111.111111111, 23.75, 155
1186, 111.111111111, 23.75, 160
1187, 111.111111111, 37.5, 155
1188, 0, 51.25, 140
1189, 0, 51.25, 145
1190, 0, 51.25, 150
1191, 0, 65, 145
1192, 55.5555555556, 51.25, 140
1193, 55.5555555556, 51.25, 145
1194, 55.5555555556, 51.25, 150
1195, 55.5555555556, 65, 140
1196, 55.5555555556, 65, 145
1197, 55.5555555556, 65, 150
1198, 111.111111111, 51.25, 140
1199, 111.111111111, 51.25, 145
1200, 111.111111111, 51.25, 150
1201, 111.111111111, 65, 145
1202, 0, 51.25, 155
1203, 0, 51.25, 160
1204, 0, 65, 155
1205, 55.5555555556, 51.25, 155
1206, 55.5555555556, 51.25, 160
1207, 55.5555555556, 65, 155
1208, 55.5555555556, 65, 160
1209, 111.111111111, 51.25, 155
1210, 111.111111111, 51.25, 160
1211, 111.111111111, 65, 155
1212, 0, 78.75, 150
1213, 0, 78.75, 155
1214, 0, 78.75, 160
1215, 0, 92.5, 155
1216, 55.5555555556, 78.75, 150
1217, 55.5555555556, 78.75, 155
1218, 55.5555555556, 78.75, 160
1219, 55.5555555556, 92.5, 150
1220, 55.5555555556, 92.5, 155
1221, 55.5555555556, 92.5, 160
1222, 111.111111111, 78.75, 150
1223, 111.111111111, 78.75, 155
1224, 111.111111111, 78.75, 160
1225, 111.111111111, 92.5, 155
1226, 0, 92.5, 145
1227, 0, 106.25, 140
1228, 0, 106.25, 145
1229, 0, 106.25, 150
1230, 0, 120, 145
1231, 55.5555555556, 92.5, 140
1232, 55.5555555556, 92.5, 145
1233, 55.5555555556, 106.25, 140
1234, 55.5555555556, 106.25, 145
1235, 55.5555555556, 106.25, 150
1236, 55.5555555556, 120, 140
1237, 55.5555555556, 120, 145
1238, 55.5555555556, 120, 150
1239, 111.111111111, 92.5, 145
1240, 111.111111111, 106.25, 140
1241, 111.111111111, 106.25, 145
1242, 111.111111111, 106.25, 150
1243, 111.111111111, 120, 145
1244, 0, 106.25, 155
1245, 0, 106.25, 160
1246, 0, 120, 155
1247, 55.5555555556, 106.25, 155
1248, 55.5555555556, 106.25, 160
1249, 55.5555555556, 120, 155
1250, 55.5555555556, 120, 160
1251, 111.111111111, 106.25, 155
1252, 111.111111111, 106.25, 160
1253, 111.111111111, 120, 155
1254, 166.666666667, -10, 0
1255, 166.666666667, -10, 14
1256, 166.666666667, -10, 28
1257, 166.666666667, -5, 0
1258, 166.666666667, -5, 14
1259, 166.666666667, -5, 28
1260, 166.666666667, 0, 0
1261, 166.666666667, 0, 14
1262, 166.666666667, 0, 28
1263, 222.222222222, -10, 14
1264, 222.222222222, -5, 0
1265, 222.222222222, -5, 14
1266, 222.222222222, -5, 28
1267, 222.222222222, 0, 14
1268, 166.666666667, -10, 42
1269, 166.666666667, -10, 56
1270, 166.666666667, -5, 42
1271, 166.666666667, -5, 56
1272, 166.666666667, 0, 42
1273, 166.666666667, 0, 56
1274, 222.222222222, -10, 42
1275, 222.222222222, -5, 42
1276, 222.222222222, -5, 56
1277, 222.222222222, 0, 42
1278, 166.666666667, 5, 0
1279, 166.666666667, 5, 14
1280, 166.666666667, 5, 28
1281, 166.666666667, 10, 0
1282, 166.666666667, 10, 14
1283, 166.666666667, 10, 28
1284, 222.222222222, 5, 0
1285, 222.222222222, 5, 14
1286, 222.222222222, 5, 28
1287, 222.222222222, 10, 14
1288, 166.666666667, 5, 42
1289, 166.666666667, 5, 56
1290, 166.666666667, 10, 42
1291, 166.666666667, 10, 56
1292, 222.222222222, 5, 42
1293, 222.222222222, 5, 56
1294, 222.222222222, 10, 42
1295, 1666.66666667, -10, 14
1296, 1666.66666667, -5, 0
1297, 1666.66666667, -5, 14
1298, 1666.66666667, -5, 28
1299, 1666.66666667, 0, 14
1300, 1722.22222222, -10, 0
1301, 1722.22222222, -10, 14
1302, 1722.22222222, -10, 28
1303, 1722.22222222, -5, 0
1304, 1722.22222222, -5, 14
1305, 1722.22222222, -5, 28
1306, 1722.22222222, 0, 0
1307, 1722.22222222, 0, 14
1308, 1722.22222222, 0, 28
1309, 1777.77777778, -10, 14
1310, 1777.77777778, -5, 0
1311, 1777.77777778, -5, 14
1312, 1777.77777778, -5, 28
1313, 1777.77777778, 0, 14
1314, 1666.66666667, 5, 0
1315, 1666.66666667, 5, 14
1316, 1666.66666667, 5, 28
1317, 1666.66666667, 10, 14
1318, 1722.22222222, 5, 0
1319, 1722.22222222, 5, 14
1320, 1722.22222222, 5, 28
1321, 1722.22222222, 10, 0
1322, 1722.22222222, 10, 14
1323, 1722.22222222, 10, 28
1324, 1777.77777778, 5, 0
1325, 1777.77777778, 5, 14
1326, 1777.77777778, 5, 28
1327, 1777.77777778, 10, 14
1328, 1888.88888889, -10, 126
1329, 1888.88888889, -5, 112
1330, 1888.88888889, -5, 126
1331, 1888.88888889, -5, 140
1332, 1888.88888889, 0, 126
1333, 1944.44444444, -10, 112
1334, 1944.44444444, -10, 126
1335, 1944.44444444, -10, 140
1336, 1944.44444444, -5, 112
1337, 1944.44444444, -5, 126
1338, 1944.44444444, -5, 140
1339, 1944.44444444, 0, 112
1340, 1944.44444444, 0, 126
1341, 1944.44444444, 0, 140
1342, 2000, -10, 126
1343, 2000, -5, 112
1344, 2000, -5, 126
1345, 2000, -5, 140
1346, 2000, 0, 126
1347, 1888.88888889, 5, 112
1348, 1888.88888889, 5, 126
1349, 1888.88888889, 5, 140
1350, 1888.88888889, 10, 126
1351, 1944.44444444, 5, 112
1352, 1944.44444444, 5, 126
1353, 1944.44444444, 5, 140
1354, 1944.44444444, 10, 112
1355, 1944.44444444, 10, 126
1356, 1944.44444444, 10, 140
1357, 2000, 5, 112
1358, 2000, 5, 126
1359, 2000, 5, 140
1360, 2000, 10, 126
1361, 1888.88888889, -120, 155
1362, 1888.88888889, -106.25, 150
1363, 1888.88888889, -106.25, 155
1364, 1888.88888889, -106.25, 160
1365, 1888.88888889, -92.5, 155
1366, 1944.44444444, -120, 150
1367, 1944.44444444, -120, 155
1368, 1944.44444444, -120, 160
1369, 1944.44444444, -106.25, 150
1370, 1944.44444444, -106.25, 155
1371, 1944.44444444, -106.25, 160
1372, 1944.44444444, -92.5, 150
1373, 1944.44444444, -92.5, 155
1374, 1944.44444444, -92.5, 160
1375, 2000, -120, 155
1376, 2000, -106.25, 150
1377, 2000, -106.25, 155
1378, 2000, -106.25, 160
1379, 2000, -92.5, 155
1380, 1888.88888889, -78.75, 150
1381, 1888.88888889, -78.75, 155
1382, 1888.88888889, -78.75, 160
1383, 1888.88888889, -65, 155
1384, 1944.44444444, -78.75, 150
1385, 1944.44444444, -78.75, 155
1386, 1944.44444444, -78.75, 160
1387, 1944.44444444, -65, 150
1388, 1944.44444444, -65, 155
1389, 1944.44444444, -65, 160
1390, 2000, -78.75, 150
1391, 2000, -78.75, 155
1392, 2000, -78.75, 160
1393, 2000, -65, 155
1394, 1888.88888889, -51.25, 150
1395, 1888.88888889, -51.25, 155
1396, 1888.88888889, -51.25, 160
1397, 1888.88888889, -37.5, 155
1398, 1944.44444444, -51.25, 150
1399, 1944.44444444, -51.25, 155
1400, 1944.44444444, -51.25, 160
1401, 1944.44444444, -37.5, 150
1402, 1944.44444444, -37.5, 155
1403, 1944.44444444, -37.5, 160
1404, 2000, -51.25, 150
1405, 2000, -51.25, 155
1406, 2000, -51.25, 160
1407, 2000, -37.5, 155
1408, 1888.88888889, -37.5, 145
1409, 1888.88888889, -23.75, 140
1410, 1888.88888889, -23.75, 145
1411, 1888.88888889, -23.75, 150
1412, 1888.88888889, -10, 145
1413, 1944.44444444, -37.5, 140
1414, 1944.44444444, -37.5, 145
1415, 1944.44444444, -23.75, 140
1416, 1944.44444444, -23.75, 145
1417, 1944.44444444, -23.75, 150
1418, 1944.44444444, -10, 145
1419, 1944.44444444, -10, 150
1420, 2000, -37.5, 145
1421, 2000, -23.75, 140
1422, 2000, -23.75, 145
1423, 2000, -23.75, 150
1424, 2000, -10, 145
1425, 1888.88888889, -23.75, 155
1426, 1888.88888889, -23.75, 160
1427, 1888.88888889, -10, 155
1428, 1944.44444444, -23.75, 155
1429, 1944.44444444, -23.75, 160
1430, 1944.44444444, -10, 155
1431, 1944.44444444, -10, 160
1432, 2000, -23.75, 155
1433, 2000, -23.75, 160
1434, 2000, -10, 155
1435, 1888.88888889, -5, 145
1436, 1888.88888889, -5, 150
1437, 1888.88888889, 0, 145
1438, 1944.44444444, -5, 145
1439, 1944.44444444, -5, 150
1440, 1944.44444444, 0, 145
1441, 1944.44444444, 0, 150
1442, 2000, -5, 145
1443, 2000, -5, 150
1444, 2000, 0, 145
1445, 1888.88888889, -5, 155
1446, 1888.88888889, -5, 160
1447, 1888.88888889, 0, 155
1448, 1944.44444444, -5, 155
1449, 1944.44444444, -5, 160
1450, 1944.44444444, 0, 155
1451, 1944.44444444, 0, 160
1452, 2000, -5, 155
1453, 2000, -5, 160
1454, 2000, 0, 155
1455, 1888.88888889, 5, 145
1456, 1888.88888889, 5, 150
1457, 1888.88888889, 10, 145
1458, 1944.44444444, 5, 145
1459, 1944.44444444, 5, 150
1460, 1944.44444444, 10, 145
1461, 1944.44444444, 10, 150
1462, 2000, 5, 145
1463, 2000, 5, 150
1464, 2000, 10, 145
1465, 1888.88888889, 5, 155
1466, 1888.88888889, 5, 160
1467, 1888.88888889, 10, 155
1468, 1944.44444444, 5, 155
1469, 1944.44444444, 5, 160
1470, 1944.44444444, 10, 155
1471, 1944.44444444, 10, 160
1472, 2000, 5, 155
1473, 2000, 5, 160
1474, 2000, 10, 155
1475, 1888.88888889, 23.75, 140
1476, 1888.88888889, 23.75, 145
1477, 1888.88888889, 23.75, 150
1478, 1888.88888889, 37.5, 145
1479, 1944.44444444, 23.75, 140
1480, 1944.44444444, 23.75, 145
1481, 1944.44444444, 23.75, 150
1482, 1944.44444444, 37.5, 140
1483, 1944.44444444, 37.5, 145
1484, 1944.44444444, 37.5, 150
1485, 2000, 23.75, 140
1486, 2000, 23.75, 145
1487, 2000, 23.75, 150
1488, 2000, 37.5, 145
1489, 1888.88888889, 23.75, 155
1490, 1888.88888889, 23.75, 160
1491, 1888.88888889, 37.5, 155
1492, 1944.44444444, 23.75, 155
1493, 1944.44444444, 23.75, 160
1494, 1944.44444444, 37.5, 155
1495, 1944.44444444, 37.5, 160
1496, 2000, 23.75, 155
1497, 2000, 23.75, 160
1498, 2000, 37.5, 155
1499, 1888.88888889, 51.25, 150
1500, 1888.88888889, 51.25, 155
1501, 1888.88888889, 51.25, 160
1502, 1888.88888889, 65, 155
1503, 1944.44444444, 51.25, 150
1504, 1944.44444444, 51.25, 155
1505, 1944.44444444, 51.25, 160
1506, 1944.44444444, 65, 150
1507, 1944.44444444, 65, 155
1508, 1944.44444444, 65, 160
1509, 2000, 51.25, 150
1510, 2000, 51.25, 155
1511, 2000, 51.25, 160
1512, 2000, 65, 155
1513, 1888.88888889, 78.75, 150
1514, 1888.88888889, 78.75, 155
1515, 1888.88888889, 78.75, 160
1516, 1888.88888889, 92.5, 155
1517, 1944.44444444, 78.75, 150
1518, 1944.44444444, 78.75, 155
1519, 1944.44444444, 78.75, 160
1520, 1944.44444444, 92.5, 150
1521, 1944.44444444, 92.5, 155
1522, 1944.44444444, 92.5, 160
1523, 2000, 78.75, 150
1524, 2000, 78.75, 155
1525, 2000, 78.75, 160
1526, 2000, 92.5, 155
1527, 1888.88888889, 106.25, 150
1528, 1888.88888889, 106.25, 155
1529, 1888.88888889, 106.25, 160
1530, 1888.88888889, 120, 155
1531, 1944.44444444, 106.25, 150
1532, 1944.44444444, 106.25, 155
1533, 1944.44444444, 106.25, 160
1534, 1944.44444444, 120, 150
1535, 1944.44444444, 120, 155
1536, 1944.44444444, 120, 160
1537, 2000, 106.25, 150
1538, 2000, 106.25, 155
1539, 2000, 106.25, 160
1540, 2000, 120, 155
1541, 55.5555555556, -10, 7
1542, 55.5555555556, -7.5, 0
1543, 55.5555555556, -7.5, 7
1544, 55.5555555556, -7.5, 14
1545, 55.5555555556, -5, 7
1546, 83.3333333333, -10, 0
1547, 83.3333333333, -10, 7
1548, 83.3333333333, -10, 14
1549, 83.3333333333, -7.5, 0
1550, 83.3333333333, -7.5, 7
1551, 83.3333333333, -7.5, 14
1552, 83.3333333333, -5, 0
1553, 83.3333333333, -5, 7
1554, 83.3333333333, -5, 14
1555, 111.111111111, -10, 7
1556, 111.111111111, -7.5, 0
1557, 111.111111111, -7.5, 7
1558, 111.111111111, -7.5, 14
1559, 111.111111111, -5, 7
1560, 55.5555555556, -2.5, 0
1561, 55.5555555556, -2.5, 7
1562, 55.5555555556, -2.5, 14
1563, 55.5555555556, 0, 7
1564, 83.3333333333, -2.5, 0
1565, 83.3333333333, -2.5, 7
1566, 83.3333333333, -2.5, 14
1567, 83.3333333333, 0, 0
1568, 83.3333333333, 0, 7
1569, 83.3333333333, 0, 14
1570, 111.111111111, -2.5, 0
1571, 111.111111111, -2.5, 7
1572, 111.111111111, -2.5, 14
1573, 111.111111111, 0, 7
1574, 55.5555555556, -10, 49
1575, 55.5555555556, -7.5, 42
1576, 55.5555555556, -7.5, 49
1577, 55.5555555556, -7.5, 56
1578, 55.5555555556, -5, 49
1579, 83.3333333333, -10, 42
1580, 83.3333333333, -10, 49
1581, 83.3333333333, -10, 56
1582, 83.3333333333, -7.5, 42
1583, 83.3333333333, -7.5, 49
1584, 83.3333333333, -7.5, 56
1585, 83.3333333333, -5, 42
1586, 83.3333333333, -5, 49
1587, 83.3333333333, -5, 56
1588, 111.111111111, -10, 49
1589, 111.111111111, -7.5, 42
1590, 111.111111111, -7.5, 49
1591, 111.111111111, -7.5, 56
1592, 111.111111111, -5, 49
1593, 55.5555555556, 2.5, 0
1594, 55.5555555556, 2.5, 7
1595, 55.5555555556, 2.5, 14
1596, 55.5555555556, 5, 7
1597, 83.3333333333, 2.5, 0
1598, 83.3333333333, 2.5, 7
1599, 83.3333333333, 2.5, 14
1600, 83.3333333333, 5, 0
1601, 83.3333333333, 5, 7
1602, 83.3333333333, 5, 14
1603, 111.111111111, 2.5, 0
1604, 111.111111111, 2.5, 7
1605, 111.111111111, 2.5, 14
1606, 111.111111111, 5, 7
1607, 55.5555555556, 7.5, 0
1608, 55.5555555556, 7.5, 7
1609, 55.5555555556, 7.5, 14
1610, 55.5555555556, 10, 7
1611, 83.3333333333, 7.5, 0
1612, 83.3333333333, 7.5, 7
1613, 83.3333333333, 7.5, 14
1614, 83.3333333333, 10, 0
1615, 83.3333333333, 10, 7
1616, 83.3333333333, 10, 14
1617, 111.111111111, 7.5, 0
1618, 111.111111111, 7.5, 7
1619, 111.111111111, 7.5, 14
1620, 111.111111111, 10, 7
1621, 55.5555555556, 5, 49
1622, 55.5555555556, 7.5, 42
1623, 55.5555555556, 7.5, 49
1624, 55.5555555556, 7.5, 56
1625, 55.5555555556, 10, 49
1626, 83.3333333333, 5, 42
1627, 83.3333333333, 5, 49
1628, 83.3333333333, 5, 56
1629, 83.3333333333, 7.5, 42
1630, 83.3333333333, 7.5, 49
1631, 83.3333333333, 7.5, 56
1632, 83.3333333333, 10, 42
1633, 83.3333333333, 10, 49
1634, 83.3333333333, 10, 56
1635, 111.111111111, 5, 49
1636, 111.111111111, 7.5, 42
1637, 111.111111111, 7.5, 49
1638, 111.111111111, 7.5, 56
1639, 111.111111111, 10, 49
1640, 55.5555555556, -120, 142.5
1641, 55.5555555556, -113.125, 140
1642, 55.5555555556, -113.125, 142.5
1643, 55.5555555556, -113.125, 145
1644, 55.5555555556, -106.25, 142.5
1645, 83.3333333333, -120, 140
1646, 83.3333333333, -120, 142.5
1647, 83.3333333333, -120, 145
1648, 83.3333333333, -113.125, 140
1649, 83.3333333333, -113.125, 142.5
1650, 83.3333333333, -113.125, 145
1651, 83.3333333333, -106.25, 140
1652, 83.3333333333, -106.25, 142.5
1653, 83.3333333333, -106.25, 145
1654, 111.111111111, -120, 142.5
1655, 111.111111111, -113.125, 140
1656, 111.111111111, -113.125, 142.5
1657, 111.111111111, -113.125, 145
1658, 111.111111111, -106.25, 142.5
1659, 0, -106.25, 152.5
1660, 0, -99.375, 150
1661, 0, -99.375, 152.5
1662, 0, -99.375, 155
1663, 0, -92.5, 152.5
1664, 27.7777777778, -106.25, 150
1665, 27.7777777778, -106.25, 152.5
1666, 27.7777777778, -106.25, 155
1667, 27.7777777778, -99.375, 150
1668, 27.7777777778, -99.375, 152.5
1669, 27.7777777778, -99.375, 155
1670, 27.7777777778, -92.5, 150
1671, 27.7777777778, -92.5, 152.5
1672, 27.7777777778, -92.5, 155
1673, 55.5555555556, -106.25, 152.5
1674, 55.5555555556, -99.375, 150
1675, 55.5555555556, -99.375, 152.5
1676, 55.5555555556, -99.375, 155
1677, 55.5555555556, -92.5, 152.5
1678, 0, -106.25, 157.5
1679, 0, -99.375, 157.5
1680, 0, -99.375, 160
1681, 0, -92.5, 157.5
1682, 27.7777777778, -106.25, 157.5
1683, 27.7777777778, -106.25, 160
1684, 27.7777777778, -99.375, 157.5
1685, 27.7777777778, -99.375, 160
1686, 27.7777777778, -92.5, 157.5
1687, 27.7777777778, -92.5, 160
1688, 55.5555555556, -106.25, 157.5
1689, 55.5555555556, -99.375, 157.5
1690, 55.5555555556, -99.375, 160
1691, 55.5555555556, -92.5, 157.5
1692, 83.3333333333, -106.25, 150
1693, 83.3333333333, -106.25, 152.5
1694, 83.3333333333, -106.25, 155
1695, 83.3333333333, -99.375, 150
1696, 83.3333333333, -99.375, 152.5
1697, 83.3333333333, -99.375, 155
1698, 83.3333333333, -92.5, 150
1699, 83.3333333333, -92.5, 152.5
1700, 83.3333333333, -92.5, 155
1701, 111.111111111, -106.25, 152.5
1702, 111.111111111, -99.375, 150
1703, 111.111111111, -99.375, 152.5
1704, 111.111111111, -99.375, 155
1705, 111.111111111, -92.5, 152.5
1706, 83.3333333333, -106.25, 157.5
1707, 83.3333333333, -106.25, 160
1708, 83.3333333333, -99.375, 157.5
1709, 83.3333333333, -99.375, 160
1710, 83.3333333333, -92.5, 157.5
1711, 83.3333333333, -92.5, 160
1712, 111.111111111, -106.25, 157.5
1713, 111.111111111, -99.375, 157.5
1714, 111.111111111, -99.375, 160
1715, 111.111111111, -92.5, 157.5
1716, 0, -78.75, 140
1717, 0, -78.75, 145
1718, 55.5555555556, -78.75, 140
1719, 55.5555555556, -78.75, 145
1720, 111.111111111, -78.75, 140
1721, 111.111111111, -78.75, 145
1722, 0, -85.625, 155
1723, 0, -85.625, 157.5
1724, 0, -85.625, 160
1725, 0, -78.75, 157.5
1726, 27.7777777778, -85.625, 155
1727, 27.7777777778, -85.625, 157.5
1728, 27.7777777778, -85.625, 160
1729, 27.7777777778, -78.75, 155
1730, 27.7777777778, -78.75, 157.5
1731, 27.7777777778, -78.75, 160
1732, 55.5555555556, -85.625, 155
1733, 55.5555555556, -85.625, 157.5
1734, 55.5555555556, -85.625, 160
1735, 55.5555555556, -78.75, 157.5
1736, 0, -71.875, 155
1737, 0, -71.875, 157.5
1738, 0, -71.875, 160
1739, 0, -65, 157.5
1740, 27.7777777778, -71.875, 155
1741, 27.7777777778, -71.875, 157.5
1742, 27.7777777778, -71.875, 160
1743, 27.7777777778, -65, 155
1744, 27.7777777778, -65, 157.5
1745, 27.7777777778, -65, 160
1746, 55.5555555556, -71.875, 155
1747, 55.5555555556, -71.875, 157.5
1748, 55.5555555556, -71.875, 160
1749, 55.5555555556, -65, 157.5
1750, 83.3333333333, -85.625, 155
1751, 83.3333333333, -85.625, 157.5
1752, 83.3333333333, -85.625, 160
1753, 83.3333333333, -78.75, 155
1754, 83.3333333333, -78.75, 157.5
1755, 83.3333333333, -78.75, 160
1756, 111.111111111, -85.625, 155
1757, 111.111111111, -85.625, 157.5
1758, 111.111111111, -85.625, 160
1759, 111.111111111, -78.75, 157.5
1760, 83.3333333333, -71.875, 155
1761, 83.3333333333, -71.875, 157.5
1762, 83.3333333333, -71.875, 160
1763, 83.3333333333, -65, 155
1764, 83.3333333333, -65, 157.5
1765, 83.3333333333, -65, 160
1766, 111.111111111, -71.875, 155
1767, 111.111111111, -71.875, 157.5
1768, 111.111111111, -71.875, 160
1769, 111.111111111, -65, 157.5
1770, 0, -51.25, 142.5
1771, 0, -44.375, 140
1772, 0, -44.375, 142.5
1773, 0, -44.375, 145
1774, 0, -37.5, 142.5
1775, 27.7777777778, -51.25, 140
1776, 27.7777777778, -51.25, 142.5
1777, 27.7777777778, -51.25, 145
1778, 27.7777777778, -44.375, 140
1779, 27.7777777778, -44.375, 142.5
1780, 27.7777777778, -44.375, 145
1781, 27.7777777778, -37.5, 140
1782, 27.7777777778, -37.5, 142.5
1783, 27.7777777778, -37.5, 145
1784, 55.5555555556, -51.25, 142.5
1785, 55.5555555556, -44.375, 140
1786, 55.5555555556, -44.375, 142.5
1787, 55.5555555556, -44.375, 145
1788, 55.5555555556, -37.5, 142.5
1789, 83.3333333333, -51.25, 140
1790, 83.3333333333, -51.25, 142.5
1791, 83.3333333333, -51.25, 145
1792, 83.3333333333, -44.375, 140
1793, 83.3333333333, -44.375, 142.5
1794, 83.3333333333, -44.375, 145
1795, 83.3333333333, -37.5, 140
1796, 83.3333333333, -37.5, 142.5
1797, 83.3333333333, -37.5, 145
1798, 111.111111111, -51.25, 142.5
1799, 111.111111111, -44.375, 140
1800, 111.111111111, -44.375, 142.5
1801, 111.111111111, -44.375, 145
1802, 111.111111111, -37.5, 142.5
1803, 0, -65, 152.5
1804, 0, -58.125, 150
1805, 0, -58.125, 152.5
1806, 0, -58.125, 155
1807, 0, -51.25, 152.5
1808, 27.7777777778, -65, 150
1809, 27.7777777778, -65, 152.5
1810, 27.7777777778, -58.125, 150
1811, 27.7777777778, -58.125, 152.5
1812, 27.7777777778, -58.125, 155
1813, 27.7777777778, -51.25, 150
1814, 27.7777777778, -51.25, 152.5
1815, 27.7777777778, -51.25, 155
1816, 55.5555555556, -65, 152.5
1817, 55.5555555556, -58.125, 150
1818, 55.5555555556, -58.125, 152.5
1819, 55.5555555556, -58.125, 155
1820, 55.5555555556, -51.25, 152.5
1821, 0, -58.125, 157.5
1822, 0, -58.125, 160
1823, 0, -51.25, 157.5
1824, 27.7777777778, -58.125, 157.5
1825, 27.7777777778, -58.125, 160
1826, 27.7777777778, -51.25, 157.5
1827, 27.7777777778, -51.25, 160
1828, 55.5555555556, -58.125, 157.5
1829, 55.5555555556, -58.125, 160
1830, 55.5555555556, -51.25, 157.5
1831, 83.3333333333, -65, 150
1832, 83.3333333333, -65, 152.5
1833, 83.3333333333, -58.125, 150
1834, 83.3333333333, -58.125, 152.5
1835, 83.3333333333, -58.125, 155
1836, 83.3333333333, -51.25, 150
1837, 83.3333333333, -51.25, 152.5
1838, 83.3333333333, -51.25, 155
1839, 111.111111111, -65, 152.5
1840, 111.111111111, -58.125, 150
1841, 111.111111111, -58.125, 152.5
1842, 111.111111111, -58.125, 155
1843, 111.111111111, -51.25, 152.5
1844, 83.3333333333, -58.125, 157.5
1845, 83.3333333333, -58.125, 160
1846, 83.3333333333, -51.25, 157.5
1847, 83.3333333333, -51.25, 160
1848, 111.111111111, -58.125, 157.5
1849, 111.111111111, -58.125, 160
1850, 111.111111111, -51.25, 157.5
1851, 0, -23.75, 142.5
1852, 0, -16.875, 140
1853, 0, -16.875, 142.5
1854, 0, -16.875, 145
1855, 0, -10, 142.5
1856, 27.7777777778, -23.75, 140
1857, 27.7777777778, -23.75, 142.5
1858, 27.7777777778, -23.75, 145
1859, 27.7777777778, -16.875, 140
1860, 27.7777777778, -16.875, 142.5
1861, 27.7777777778, -16.875, 145
1862, 27.7777777778, -10, 140
1863, 27.7777777778, -10, 142.5
1864, 27.7777777778, -10, 145
1865, 55.5555555556, -23.75, 142.5
1866, 55.5555555556, -16.875, 140
1867, 55.5555555556, -16.875, 142.5
1868, 55.5555555556, -16.875, 145
1869, 55.5555555556, -10, 142.5
1870, 0, -23.75, 147.5
1871, 0, -16.875, 147.5
1872, 0, -16.875, 150
1873, 0, -10, 147.5
1874, 27.7777777778, -23.75, 147.5
1875, 27.7777777778, -23.75, 150
1876, 27.7777777778, -16.875, 147.5
1877, 27.7777777778, -16.875, 150
1878, 27.7777777778, -10, 147.5
1879, 27.7777777778, -10, 150
1880, 55.5555555556, -23.75, 147.5
1881, 55.5555555556, -16.875, 147.5
1882, 55.5555555556, -16.875, 150
1883, 55.5555555556, -10, 147.5
1884, 83.3333333333, -23.75, 140
1885, 83.3333333333, -23.75, 142.5
1886, 83.3333333333, -23.75, 145
1887, 83.3333333333, -16.875, 140
1888, 83.3333333333, -16.875, 142.5
1889, 83.3333333333, -16.875, 145
1890, 83.3333333333, -10, 140
1891, 83.3333333333, -10, 142.5
1892, 83.3333333333, -10, 145
1893, 111.111111111, -23.75, 142.5
1894, 111.111111111, -16.875, 140
1895, 111.111111111, -16.875, 142.5
1896, 111.111111111, -16.875, 145
1897, 111.111111111, -10, 142.5
1898, 83.3333333333, -23.75, 147.5
1899, 83.3333333333, -23.75, 150
1900, 83.3333333333, -16.875, 147.5
1901, 83.3333333333, -16.875, 150
1902, 83.3333333333, -10, 147.5
1903, 83.3333333333, -10, 150
1904, 111.111111111, -23.75, 147.5
1905, 111.111111111, -16.875, 147.5
1906, 111.111111111, -16.875, 150
1907, 111.111111111, -10, 147.5
1908, 0, -37.5, 157.5
1909, 0, -30.625, 155
1910, 0, -30.625, 157.5
1911, 0, -30.625, 160
1912, 0, -23.75, 157.5
1913, 27.7777777778, -37.5, 155
1914, 27.7777777778, -37.5, 157.5
1915, 27.7777777778, -37.5, 160
1916, 27.7777777778, -30.625, 155
1917, 27.7777777778, -30.625, 157.5
1918, 27.7777777778, -30.625, 160
1919, 27.7777777778, -23.75, 155
1920, 27.7777777778, -23.75, 157.5
1921, 27.7777777778, -23.75, 160
1922, 55.5555555556, -37.5, 157.5
1923, 55.5555555556, -30.625, 155
1924, 55.5555555556, -30.625, 157.5
1925, 55.5555555556, -30.625, 160
1926, 55.5555555556, -23.75, 157.5
1927, 83.3333333333, -37.5, 155
1928, 83.3333333333, -37.5, 157.5
1929, 83.3333333333, -37.5, 160
1930, 83.3333333333, -30.625, 155
1931, 83.3333333333, -30.625, 157.5
1932, 83.3333333333, -30.625, 160
1933, 83.3333333333, -23.75, 155
1934, 83.3333333333, -23.75, 157.5
1935, 83.3333333333, -23.75, 160
1936, 111.111111111, -37.5, 157.5
1937, 111.111111111, -30.625, 155
1938, 111.111111111, -30.625, 157.5
1939, 111.111111111, -30.625, 160
1940, 111.111111111, -23.75, 157.5
1941, 0, -5, 155
1942, 0, -5, 160
1943, 0, 0, 155
1944, 55.5555555556, -5, 155
1945, 55.5555555556, -5, 160
1946, 55.5555555556, 0, 155
1947, 55.5555555556, 0, 160
1948, 111.111111111, -5, 155
1949, 111.111111111, -5, 160
1950, 111.111111111, 0, 155
1951, 0, 5, 155
1952, 0, 5, 160
1953, 55.5555555556, 5, 155
1954, 55.5555555556, 5, 160
1955, 111.111111111, 5, 155
1956, 111.111111111, 5, 160
1957, 0, 10, 142.5
1958, 0, 16.875, 140
1959, 0, 16.875, 142.5
1960, 0, 16.875, 145
1961, 0, 23.75, 142.5
1962, 27.7777777778, 10, 140
1963, 27.7777777778, 10, 142.5
1964, 27.7777777778, 10, 145
1965, 27.7777777778, 16.875, 140
1966, 27.7777777778, 16.875, 142.5
1967, 27.7777777778, 16.875, 145
1968, 27.7777777778, 23.75, 140
1969, 27.7777777778, 23.75, 142.5
1970, 27.7777777778, 23.75, 145
1971, 55.5555555556, 10, 142.5
1972, 55.5555555556, 16.875, 140
1973, 55.5555555556, 16.875, 142.5
1974, 55.5555555556, 16.875, 145
1975, 55.5555555556, 23.75, 142.5
1976, 0, 10, 147.5
1977, 0, 16.875, 147.5
1978, 0, 16.875, 150
1979, 0, 23.75, 147.5
1980, 27.7777777778, 10, 147.5
1981, 27.7777777778, 10, 150
1982, 27.7777777778, 16.875, 147.5
1983, 27.7777777778, 16.875, 150
1984, 27.7777777778, 23.75, 147.5
1985, 27.7777777778, 23.75, 150
1986, 55.5555555556, 10, 147.5
1987, 55.5555555556, 16.875, 147.5
1988, 55.5555555556, 16.875, 150
1989, 55.5555555556, 23.75, 147.5
1990, 83.3333333333, 10, 140
1991, 83.3333333333, 10, 142.5
1992, 83.3333333333, 10, 145
1993, 83.3333333333, 16.875, 140
1994, 83.3333333333, 16.875, 142.5
1995, 83.3333333333, 16.875, 145
1996, 83.3333333333, 23.75, 140
1997, 83.3333333333, 23.75, 142.5
1998, 83.3333333333, 23.75, 145
1999, 111.111111111, 10, 142.5
2000, 111.111111111, 16.875, 140
2001, 111.111111111, 16.875, 142.5
2002, 111.111111111, 16.875, 145
2003, 111.111111111, 23.75, 142.5
2004, 83.3333333333, 10, 147.5
2005, 83.3333333333, 10, 150
2006, 83.3333333333, 16.875, 147.5
2007, 83.3333333333, 16.875, 150
2008, 83.3333333333, 23.75, 147.5
2009, 83.3333333333, 23.75, 150
2010, 111.111111111, 10, 147.5
2011, 111.111111111, 16.875, 147.5
2012, 111.111111111, 16.875, 150
2013, 111.111111111, 23.75, 147.5
2014, 0, 23.75, 157.5
2015, 0, 30.625, 155
2016, 0, 30.625, 157.5
2017, 0, 30.625, 160
2018, 0, 37.5, 157.5
2019, 27.7777777778, 23.75, 155
2020, 27.7777777778, 23.75, 157.5
2021, 27.7777777778, 23.75, 160
2022, 27.7777777778, 30.625, 155
2023, 27.7777777778, 30.625, 157.5
2024, 27.7777777778, 30.625, 160
2025, 27.7777777778, 37.5, 155
2026, 27.7777777778, 37.5, 157.5
2027, 27.7777777778, 37.5, 160
2028, 55.5555555556, 23.75, 157.5
2029, 55.5555555556, 30.625, 155
2030, 55.5555555556, 30.625, 157.5
2031, 55.5555555556, 30.625, 160
2032, 55.5555555556, 37.5, 157.5
2033, 83.3333333333, 23.75, 155
2034, 83.3333333333, 23.75, 157.5
2035, 83.3333333333, 23.75, 160
2036, 83.3333333333, 30.625, 155
2037, 83.3333333333, 30.625, 157.5
2038, 83.3333333333, 30.625, 160
2039, 83.3333333333, 37.5, 155
2040, 83.3333333333, 37.5, 157.5
2041, 83.3333333333, 37.5, 160
2042, 111.111111111, 23.75, 157.5
2043, 111.111111111, 30.625, 155
2044, 111.111111111, 30.625, 157.5
2045, 111.111111111, 30.625, 160
2046, 111.111111111, 37.5, 157.5
2047, 0, 37.5, 142.5
2048, 0, 44.375, 140
2049, 0, 44.375, 142.5
2050, 0, 44.375, 145
2051, 0, 51.25, 142.5
2052, 27.7777777778, 37.5, 140
2053, 27.7777777778, 37.5, 142.5
2054, 27.7777777778, 37.5, 145
2055, 27.7777777778, 44.375, 140
2056, 27.7777777778, 44.375, 142.5
2057, 27.7777777778, 44.375, 145
2058, 27.7777777778, 51.25, 140
2059, 27.7777777778, 51.25, 142.5
2060, 27.7777777778, 51.25, 145
2061, 55.5555555556, 37.5, 142.5
2062, 55.5555555556, 44.375, 140
2063, 55.5555555556, 44.375, 142.5
2064, 55.5555555556, 44.375, 145
2065, 55.5555555556, 51.25, 142.5
2066, 83.3333333333, 37.5, 140
2067, 83.3333333333, 37.5, 142.5
2068, 83.3333333333, 37.5, 145
2069, 83.3333333333, 44.375, 140
2070, 83.3333333333, 44.375, 142.5
2071, 83.3333333333, 44.375, 145
2072, 83.3333333333, 51.25, 140
2073, 83.3333333333, 51.25, 142.5
2074, 83.3333333333, 51.25, 145
2075, 111.111111111, 37.5, 142.5
2076, 111.111111111, 44.375, 140
2077, 111.111111111, 44.375, 142.5
2078, 111.111111111, 44.375, 145
2079, 111.111111111, 51.25, 142.5
2080, 0, 51.25, 152.5
2081, 0, 58.125, 150
2082, 0, 58.125, 152.5
2083, 0, 58.125, 155
2084, 0, 65, 152.5
2085, 27.7777777778, 51.25, 150
2086, 27.7777777778, 51.25, 152.5
2087, 27.7777777778, 51.25, 155
2088, 27.7777777778, 58.125, 150
2089, 27.7777777778, 58.125, 152.5
2090, 27.7777777778, 58.125, 155
2091, 27.7777777778, 65, 150
2092, 27.7777777778, 65, 152.5
2093, 27.7777777778, 65, 155
2094, 55.5555555556, 51.25, 152.5
2095, 55.5555555556, 58.125, 150
2096, 55.5555555556, 58.125, 152.5
2097, 55.5555555556, 58.125, 155
2098, 55.5555555556, 65, 152.5
2099, 0, 51.25, 157.5
2100, 0, 58.125, 157.5
2101, 0, 58.125, 160
2102, 0, 65, 157.5
2103, 27.7777777778, 51.25, 157.5
2104, 27.7777777778, 51.25, 160
2105, 27.7777777778, 58.125, 157.5
2106, 27.7777777778, 58.125, 160
2107, 27.7777777778, 65, 157.5
2108, 27.7777777778, 65, 160
2109, 55.5555555556, 51.25, 157.5
2110, 55.5555555556, 58.125, 157.5
2111, 55.5555555556, 58.125, 160
2112, 55.5555555556, 65, 157.5
2113, 83.3333333333, 51.25, 150
2114, 83.3333333333, 51.25, 152.5
2115, 83.3333333333, 51.25, 155
2116, 83.3333333333, 58.125, 150
2117, 83.3333333333, 58.125, 152.5
2118, 83.3333333333, 58.125, 155
2119, 83.3333333333, 65, 150
2120, 83.3333333333, 65, 152.5
2121, 83.3333333333, 65, 155
2122, 111.111111111, 51.25, 152.5
2123, 111.111111111, 58.125, 150
2124, 111.111111111, 58.125, 152.5
2125, 111.111111111, 58.125, 155
2126, 111.111111111, 65, 152.5
2127, 83.3333333333, 51.25, 157.5
2128, 83.3333333333, 51.25, 160
2129, 83.3333333333, 58.125, 157.5
2130, 83.3333333333, 58.125, 160
2131, 83.3333333333, 65, 157.5
2132, 83.3333333333, 65, 160
2133, 111.111111111, 51.25, 157.5
2134, 111.111111111, 58.125, 157.5
2135, 111.111111111, 58.125, 160
2136, 111.111111111, 65, 157.5
2137, 0, 78.75, 140
2138, 0, 78.75, 145
2139, 55.5555555556, 78.75, 140
2140, 55.5555555556, 78.75, 145
2141, 111.111111111, 78.75, 140
2142, 111.111111111, 78.75, 145
2143, 0, 71.875, 155
2144, 0, 71.875, 157.5
2145, 0, 71.875, 160
2146, 0, 78.75, 157.5
2147, 27.7777777778, 71.875, 155
2148, 27.7777777778, 71.875, 157.5
2149, 27.7777777778, 71.875, 160
2150, 27.7777777778, 78.75, 155
2151, 27.7777777778, 78.75, 157.5
2152, 27.7777777778, 78.75, 160
2153, 55.5555555556, 71.875, 155
2154, 55.5555555556, 71.875, 157.5
2155, 55.5555555556, 71.875, 160
2156, 55.5555555556, 78.75, 157.5
2157, 0, 85.625, 155
2158, 0, 85.625, 157.5
2159, 0, 85.625, 160
2160, 0, 92.5, 157.5
2161, 27.7777777778, 85.625, 155
2162, 27.7777777778, 85.625, 157.5
2163, 27.7777777778, 85.625, 160
2164, 27.7777777778, 92.5, 155
2165, 27.7777777778, 92.5, 157.5
2166, 27.7777777778, 92.5, 160
2167, 55.5555555556, 85.625, 155
2168, 55.5555555556, 85.625, 157.5
2169, 55.5555555556, 85.625, 160
2170, 55.5555555556, 92.5, 157.5
2171, 83.3333333333, 71.875, 155
2172, 83.3333333333, 71.875, 157.5
2173, 83.3333333333, 71.875, 160
2174, 83.3333333333, 78.75, 155
2175, 83.3333333333, 78.75, 157.5
2176, 83.3333333333, 78.75, 160
2177, 111.111111111, 71.875, 155
2178, 111.111111111, 71.875, 157.5
2179, 111.111111111, 71.875, 160
2180, 111.111111111, 78.75, 157.5
2181, 83.3333333333, 85.625, 155
2182, 83.3333333333, 85.625, 157.5
2183, 83.3333333333, 85.625, 160
2184, 83.3333333333, 92.5, 155
2185, 83.3333333333, 92.5, 157.5
2186, 83.3333333333, 92.5, 160
2187, 111.111111111, 85.625, 155
2188, 111.111111111, 85.625, 157.5
2189, 111.111111111, 85.625, 160
2190, 111.111111111, 92.5, 157.5
2191, 55.5555555556, 106.25, 142.5
2192, 55.5555555556, 113.125, 140
2193, 55.5555555556, 113.125, 142.5
2194, 55.5555555556, 113.125, 145
2195, 55.5555555556, 120, 142.5
2196, 83.3333333333, 106.25, 140
2197, 83.3333333333, 106.25, 142.5
2198, 83.3333333333, 106.25, 145
2199, 83.3333333333, 113.125, 140
2200, 83.3333333333, 113.125, 142.5
2201, 83.3333333333, 113.125, 145
2202, 83.3333333333, 120, 140
2203, 83.3333333333, 120, 142.5
2204, 83.3333333333, 120, 145
2205, 111.111111111, 106.25, 142.5
2206, 111.111111111, 113.125, 140
2207, 111.111111111, 113.125, 142.5
2208, 111.111111111, 113.125, 145
2209, 111.111111111, 120, 142.5
2210, 0, 92.5, 152.5
2211, 0, 99.375, 150
2212, 0, 99.375, 152.5
2213, 0, 99.375, 155
2214, 0, 106.25, 152.5
2215, 27.7777777778, 92.5, 150
2216, 27.7777777778, 92.5, 152.5
2217, 27.7777777778, 99.375, 150
2218, 27.7777777778, 99.375, 152.5
2219, 27.7777777778, 99.375, 155
2220, 27.7777777778, 106.25, 150
2221, 27.7777777778, 106.25, 152.5
2222, 27.7777777778, 106.25, 155
2223, 55.5555555556, 92.5, 152.5
2224, 55.5555555556, 99.375, 150
2225, 55.5555555556, 99.375, 152.5
2226, 55.5555555556, 99.375, 155
2227, 55.5555555556, 106.25, 152.5
2228, 0, 99.375, 157.5
2229, 0, 99.375, 160
2230, 0, 106.25, 157.5
2231, 27.7777777778, 99.375, 157.5
2232, 27.7777777778, 99.375, 160
2233, 27.7777777778, 106.25, 157.5
2234, 27.7777777778, 106.25, 160
2235, 55.5555555556, 99.375, 157.5
2236, 55.5555555556, 99.375, 160
2237, 55.5555555556, 106.25, 157.5
2238, 83.3333333333, 92.5, 150
2239, 83.3333333333, 92.5, 152.5
2240, 83.3333333333, 99.375, 150
2241, 83.3333333333, 99.375, 152.5
2242, 83.3333333333, 99.375, 155
2243, 83.3333333333, 106.25, 150
2244, 83.3333333333, 106.25, 152.5
2245, 83.3333333333, 106.25, 155
2246, 111.111111111, 92.5, 152.5
2247, 111.111111111, 99.375, 150
2248, 111.111111111, 99.375, 152.5
2249, 111.111111111, 99.375, 155
2250, 111.111111111, 106.25, 152.5
2251, 83.3333333333, 99.375, 157.5
2252, 83.3333333333, 99.375, 160
2253, 83.3333333333, 106.25, 157.5
2254, 83.3333333333, 106.25, 160
2255, 111.111111111, 99.375, 157.5
2256, 111.111111111, 99.375, 160
2257, 111.111111111, 106.25, 157.5
2258, 166.666666667, -10, 112
2259, 166.666666667, -10, 126
2260, 166.666666667, -10, 140
2261, 166.666666667, -5, 112
2262, 166.666666667, -5, 126
2263, 166.666666667, -5, 140
2264, 166.666666667, 0, 112
2265, 166.666666667, 0, 126
2266, 166.666666667, 0, 140
2267, 222.222222222, -10, 126
2268, 222.222222222, -5, 112
2269, 222.222222222, -5, 126
2270, 222.222222222, -5, 140
2271, 222.222222222, 0, 126
2272, 166.666666667, 5, 112
2273, 166.666666667, 5, 126
2274, 166.666666667, 5, 140
2275, 166.666666667, 10, 112
2276, 166.666666667, 10, 126
2277, 166.666666667, 10, 140
2278, 222.222222222, 5, 112
2279, 222.222222222, 5, 126
2280, 222.222222222, 5, 140
2281, 222.222222222, 10, 126
2282, 166.666666667, -37.5, 140
2283, 166.666666667, -37.5, 145
2284, 166.666666667, -37.5, 150
2285, 166.666666667, -23.75, 140
2286, 166.666666667, -23.75, 145
2287, 166.666666667, -23.75, 150
2288, 166.666666667, -10, 145
2289, 166.666666667, -10, 150
2290, 222.222222222, -37.5, 145
2291, 222.222222222, -23.75, 140
2292, 222.222222222, -23.75, 145
2293, 222.222222222, -23.75, 150
2294, 222.222222222, -10, 145
2295, 166.666666667, -37.5, 155
2296, 166.666666667, -37.5, 160
2297, 166.666666667, -23.75, 155
2298, 166.666666667, -23.75, 160
2299, 166.666666667, -10, 155
2300, 166.666666667, -10, 160
2301, 222.222222222, -37.5, 155
2302, 222.222222222, -23.75, 155
2303, 222.222222222, -23.75, 160
2304, 222.222222222, -10, 155
2305, 166.666666667, -5, 145
2306, 166.666666667, -5, 150
2307, 166.666666667, 0, 145
2308, 166.666666667, 0, 150
2309, 222.222222222, -5, 145
2310, 222.222222222, -5, 150
2311, 222.222222222, 0, 145
2312, 166.666666667, -5, 155
2313, 166.666666667, -5, 160
2314, 166.666666667, 0, 155
2315, 166.666666667, 0, 160
2316, 222.222222222, -5, 155
2317, 222.222222222, -5, 160
2318, 222.222222222, 0, 155
2319, 166.666666667, 5, 145
2320, 166.666666667, 5, 150
2321, 166.666666667, 10, 145
2322, 166.666666667, 10, 150
2323, 222.222222222, 5, 145
2324, 222.222222222, 5, 150
2325, 222.222222222, 10, 145
2326, 166.666666667, 5, 155
2327, 166.666666667, 5, 160
2328, 166.666666667, 10, 155
2329, 166.666666667, 10, 160
2330, 222.222222222, 5, 155
2331, 222.222222222, 5, 160
2332, 222.222222222, 10, 155
2333, 166.666666667, 23.75, 140
2334, 166.666666667, 23.75, 145
2335, 166.666666667, 23.75, 150
2336, 166.666666667, 37.5, 140
2337, 166.666666667, 37.5, 145
2338, 166.666666667, 37.5, 150
2339, 222.222222222, 23.75, 140
2340, 222.222222222, 23.75, 145
2341, 222.222222222, 23.75, 150
2342, 222.222222222, 37.5, 145
2343, 166.666666667, 23.75, 155
2344, 166.666666667, 23.75, 160
2345, 166.666666667, 37.5, 155
2346, 166.666666667, 37.5, 160
2347, 222.222222222, 23.75, 155
2348, 222.222222222, 23.75, 160
2349, 222.222222222, 37.5, 155
2350, 277.777777778, -10, 0
2351, 277.777777778, -10, 14
2352, 277.777777778, -10, 28
2353, 277.777777778, -5, 0
2354, 277.777777778, -5, 14
2355, 277.777777778, -5, 28
2356, 277.777777778, 0, 0
2357, 277.777777778, 0, 14
2358, 277.777777778, 0, 28
2359, 333.333333333, -10, 14
2360, 333.333333333, -5, 0
2361, 333.333333333, -5, 14
2362, 333.333333333, -5, 28
2363, 333.333333333, 0, 14
2364, 277.777777778, -10, 42
2365, 277.777777778, -10, 56
2366, 277.777777778, -5, 42
2367, 277.777777778, -5, 56
2368, 277.777777778, 0, 42
2369, 277.777777778, 0, 56
2370, 333.333333333, -10, 42
2371, 333.333333333, -5, 42
2372, 333.333333333, -5, 56
2373, 333.333333333, 0, 42
2374, 222.222222222, -10, 70
2375, 222.222222222, -5, 70
2376, 222.222222222, -5, 84
2377, 222.222222222, 0, 70
2378, 277.777777778, -10, 70
2379, 277.777777778, -10, 84
2380, 277.777777778, -5, 70
2381, 277.777777778, -5, 84
2382, 277.777777778, 0, 70
2383, 277.777777778, 0, 84
2384, 333.333333333, -10, 70
2385, 333.333333333, -5, 70
2386, 333.333333333, -5, 84
2387, 333.333333333, 0, 70
2388, 277.777777778, 5, 0
2389, 277.777777778, 5, 14
2390, 277.777777778, 5, 28
2391, 277.777777778, 10, 0
2392, 277.777777778, 10, 14
2393, 277.777777778, 10, 28
2394, 333.333333333, 5, 0
2395, 333.333333333, 5, 14
2396, 333.333333333, 5, 28
2397, 333.333333333, 10, 14
2398, 277.777777778, 5, 42
2399, 277.777777778, 5, 56
2400, 277.777777778, 10, 42
2401, 277.777777778, 10, 56
2402, 333.333333333, 5, 42
2403, 333.333333333, 5, 56
2404, 333.333333333, 10, 42
2405, 222.222222222, 5, 70
2406, 222.222222222, 5, 84
2407, 222.222222222, 10, 70
2408, 277.777777778, 5, 70
2409, 277.777777778, 5, 84
2410, 277.777777778, 10, 70
2411, 277.777777778, 10, 84
2412, 333.333333333, 5, 70
2413, 333.333333333, 5, 84
2414, 333.333333333, 10, 70
2415, 388.888888889, -10, 0
2416, 388.888888889, -10, 14
2417, 388.888888889, -10, 28
2418, 388.888888889, -5, 0
2419, 388.888888889, -5, 14
2420, 388.888888889, -5, 28
2421, 388.888888889, 0, 0
2422, 388.888888889, 0, 14
2423, 388.888888889, 0, 28
2424, 444.444444444, -10, 14
2425, 444.444444444, -5, 0
2426, 444.444444444, -5, 14
2427, 444.444444444, -5, 28
2428, 444.444444444, 0, 14
2429, 388.888888889, 5, 0
2430, 388.888888889, 5, 14
2431, 388.888888889, 5, 28
2432, 388.888888889, 10, 0
2433, 388.888888889, 10, 14
2434, 388.888888889, 10, 28
2435, 444.444444444, 5, 0
2436, 444.444444444, 5, 14
2437, 444.444444444, 5, 28
2438, 444.444444444, 10, 14
2439, 500, -10, 0
2440, 500, -10, 14
2441, 500, -10, 28
2442, 500, -5, 0
2443, 500, -5, 14
2444, 500, -5, 28
2445, 500, 0, 0
2446, 500, 0, 14
2447, 500, 0, 28
2448, 555.555555556, -10, 14
2449, 555.555555556, -5, 0
2450, 555.555555556, -5, 14
2451, 555.555555556, -5, 28
2452, 555.555555556, 0, 14
2453, 500, 5, 0
2454, 500, 5, 14
2455, 500, 5, 28
2456, 500, 10, 0
2457, 500, 10, 14
2458, 500, 10, 28
2459, 555.555555556, 5, 0
2460, 555.555555556, 5, 14
2461, 555.555555556, 5, 28
2462, 555.555555556, 10, 14
2463, 611.111111111, -10, 0
2464, 611.111111111, -10, 14
2465, 611.111111111, -10, 28
2466, 611.111111111, -5, 0
2467, 611.111111111, -5, 14
2468, 611.111111111, -5, 28
2469, 611.111111111, 0, 0
2470, 611.111111111, 0, 14
2471, 611.111111111, 0, 28
2472, 666.666666667, -10, 14
2473, 666.666666667, -5, 0
2474, 666.666666667, -5, 14
2475, 666.666666667, -5, 28
2476, 666.666666667, 0, 14
2477, 611.111111111, 5, 0
2478, 611.111111111, 5, 14
2479, 611.111111111, 5, 28
2480, 611.111111111, 10, 0
2481, 611.111111111, 10, 14
2482, 611.111111111, 10, 28
2483, 666.666666667, 5, 0
2484, 666.666666667, 5, 14
2485, 666.666666667, 5, 28
2486, 666.666666667, 10, 14
2487, 722.222222222, -10, 0
2488, 722.222222222, -10, 14
2489, 722.222222222, -10, 28
2490, 722.222222222, -5, 0
2491, 722.222222222, -5, 14
2492, 722.222222222, -5, 28
2493, 722.222222222, 0, 0
2494, 722.222222222, 0, 14
2495, 722.222222222, 0, 28
2496, 777.777777778, -10, 14
2497, 777.777777778, -5, 0
2498, 777.777777778, -5, 14
2499, 777.777777778, -5, 28
2500, 777.777777778, 0, 14
2501, 722.222222222, 5, 0
2502, 722.222222222, 5, 14
2503, 722.222222222, 5, 28
2504, 722.222222222, 10, 0
2505, 722.222222222, 10, 14
2506, 722.222222222, 10, 28
2507, 777.777777778, 5, 0
2508, 777.777777778, 5, 14
2509, 777.777777778, 5, 28
2510, 777.777777778, 10, 14
2511, 833.333333333, -10, 0
2512, 833.333333333, -10, 14
2513, 833.333333333, -10, 28
2514, 833.333333333, -5, 0
2515, 833.333333333, -5, 14
2516, 833.333333333, -5, 28
2517, 833.333333333, 0, 0
2518, 833.333333333, 0, 14
2519, 833.333333333, 0, 28
2520, 888.888888889, -10, 14
2521, 888.888888889, -5, 0
2522, 888.888888889, -5, 14
2523, 888.888888889, -5, 28
2524, 888.888888889, 0, 14
2525, 833.333333333, 5, 0
2526, 833.333333333, 5, 14
2527, 833.333333333, 5, 28
2528, 833.333333333, 10, 0
2529, 833.333333333, 10, 14
2530, 833.333333333, 10, 28
2531, 888.888888889, 5, 0
2532, 888.888888889, 5, 14
2533, 888.888888889, 5, 28
2534, 888.888888889, 10, 14
2535, 944.444444444, -10, 0
2536, 944.444444444, -10, 14
2537, 944.444444444, -10, 28
2538, 944.444444444, -5, 0
2539, 944.444444444, -5, 14
2540, 944.444444444, -5, 28
2541, 944.444444444, 0, 0
2542, 944.444444444, 0, 14
2543, 944.444444444, 0, 28
2544, 1000, -10, 14
2545, 1000, -5, 0
2546, 1000, -5, 14
2547, 1000, -5, 28
2548, 1000, 0, 14
2549, 944.444444444, 5, 0
2550, 944.444444444, 5, 14
2551, 944.444444444, 5, 28
2552, 944.444444444, 10, 0
2553, 944.444444444, 10, 14
2554, 944.444444444, 10, 28
2555, 1000, 5, 0
2556, 1000, 5, 14
2557, 1000, 5, 28
2558, 1000, 10, 14
2559, 1055.55555556, -10, 0
2560, 1055.55555556, -10, 14
2561, 1055.55555556, -10, 28
2562, 1055.55555556, -5, 0
2563, 1055.55555556, -5, 14
2564, 1055.55555556, -5, 28
2565, 1055.55555556, 0, 0
2566, 1055.55555556, 0, 14
2567, 1055.55555556, 0, 28
2568, 1111.11111111, -10, 14
2569, 1111.11111111, -5, 0
2570, 1111.11111111, -5, 14
2571, 1111.11111111, -5, 28
2572, 1111.11111111, 0, 14
2573, 1055.55555556, 5, 0
2574, 1055.55555556, 5, 14
2575, 1055.55555556, 5, 28
2576, 1055.55555556, 10, 0
2577, 1055.55555556, 10, 14
2578, 1055.55555556, 10, 28
2579, 1111.11111111, 5, 0
2580, 1111.11111111, 5, 14
2581, 1111.11111111, 5, 28
2582, 1111.11111111, 10, 14
2583, 1166.66666667, -10, 0
2584, 1166.66666667, -10, 14
2585, 1166.66666667, -10, 28
2586, 1166.66666667, -5, 0
2587, 1166.66666667, -5, 14
2588, 1166.66666667, -5, 28
2589, 1166.66666667, 0, 0
2590, 1166.66666667, 0, 14
2591, 1166.66666667, 0, 28
2592, 1222.22222222, -10, 14
2593, 1222.22222222, -5, 0
2594, 1222.22222222, -5, 14
2595, 1222.22222222, -5, 28
2596, 1222.22222222, 0, 14
2597, 1166.66666667, 5, 0
2598, 1166.66666667, 5, 14
2599, 1166.66666667, 5, 28
2600, 1166.66666667, 10, 0
2601, 1166.66666667, 10, 14
2602, 1166.66666667, 10, 28
2603, 1222.22222222, 5, 0
2604, 1222.22222222, 5, 14
2605, 1222.22222222, 5, 28
2606, 1222.22222222, 10, 14
2607, 1277.77777778, -10, 0
2608, 1277.77777778, -10, 14
2609, 1277.77777778, -10, 28
2610, 1277.77777778, -5, 0
2611, 1277.77777778, -5, 14
2612, 1277.77777778, -5, 28
2613, 1277.77777778, 0, 0
2614, 1277.77777778, 0, 14
2615, 1277.77777778, 0, 28
2616, 1333.33333333, -10, 14
2617, 1333.33333333, -5, 0
2618, 1333.33333333, -5, 14
2619, 1333.33333333, -5, 28
2620, 1333.33333333, 0, 14
2621, 1277.77777778, 5, 0
2622, 1277.77777778, 5, 14
2623, 1277.77777778, 5, 28
2624, 1277.77777778, 10, 0
2625, 1277.77777778, 10, 14
2626, 1277.77777778, 10, 28
2627, 1333.33333333, 5, 0
2628, 1333.33333333, 5, 14
2629, 1333.33333333, 5, 28
2630, 1333.33333333, 10, 14
2631, 1388.88888889, -10, 0
2632, 1388.88888889, -10, 14
2633, 1388.88888889, -10, 28
2634, 1388.88888889, -5, 0
2635, 1388.88888889, -5, 14
2636, 1388.88888889, -5, 28
2637, 1388.88888889, 0, 0
2638, 1388.88888889, 0, 14
2639, 1388.88888889, 0, 28
2640, 1444.44444444, -10, 14
2641, 1444.44444444, -5, 0
2642, 1444.44444444, -5, 14
2643, 1444.44444444, -5, 28
2644, 1444.44444444, 0, 14
2645, 1388.88888889, 5, 0
2646, 1388.88888889, 5, 14
2647, 1388.88888889, 5, 28
2648, 1388.88888889, 10, 0
2649, 1388.88888889, 10, 14
2650, 1388.88888889, 10, 28
2651, 1444.44444444, 5, 0
2652, 1444.44444444, 5, 14
2653, 1444.44444444, 5, 28
2654, 1444.44444444, 10, 14
2655, 1500, -10, 0
2656, 1500, -10, 14
2657, 1500, -10, 28
2658, 1500, -5, 0
2659, 1500, -5, 14
2660, 1500, -5, 28
2661, 1500, 0, 0
2662, 1500, 0, 14
2663, 1500, 0, 28
2664, 1555.55555556, -10, 14
2665, 1555.55555556, -5, 0
2666, 1555.55555556, -5, 14
2667, 1555.55555556, -5, 28
2668, 1555.55555556, 0, 14
2669, 1500, 5, 0
2670, 1500, 5, 14
2671, 1500, 5, 28
2672, 1500, 10, 0
2673, 1500, 10, 14
2674, 1500, 10, 28
2675, 1555.55555556, 5, 0
2676, 1555.55555556, 5, 14
2677, 1555.55555556, 5, 28
2678, 1555.55555556, 10, 14
2679, 1944.44444444, -120, 157.5
2680, 1944.44444444, -113.125, 155
2681, 1944.44444444, -113.125, 157.5
2682, 1944.44444444, -113.125, 160
2683, 1944.44444444, -106.25, 157.5
2684, 1972.22222222, -120, 155
2685, 1972.22222222, -120, 157.5
2686, 1972.22222222, -120, 160
2687, 1972.22222222, -113.125, 155
2688, 1972.22222222, -113.125, 157.5
2689, 1972.22222222, -113.125, 160
2690, 1972.22222222, -106.25, 155
2691, 1972.22222222, -106.25, 157.5
2692, 1972.22222222, -106.25, 160
2693, 2000, -120, 157.5
2694, 2000, -113.125, 155
2695, 2000, -113.125, 157.5
2696, 2000, -113.125, 160
2697, 2000, -106.25, 157.5
2698, 1944.44444444, -99.375, 155
2699, 1944.44444444, -99.375, 157.5
2700, 1944.44444444, -99.375, 160
2701, 1944.44444444, -92.5, 157.5
2702, 1972.22222222, -99.375, 155
2703, 1972.22222222, -99.375, 157.5
2704, 1972.22222222, -99.375, 160
2705, 1972.22222222, -92.5, 155
2706, 1972.22222222, -92.5, 157.5
2707, 1972.22222222, -92.5, 160
2708, 2000, -99.375, 155
2709, 2000, -99.375, 157.5
2710, 2000, -99.375, 160
2711, 2000, -92.5, 157.5
2712, 1944.44444444, -85.625, 155
2713, 1944.44444444, -85.625, 157.5
2714, 1944.44444444, -85.625, 160
2715, 1944.44444444, -78.75, 157.5
2716, 1972.22222222, -85.625, 155
2717, 1972.22222222, -85.625, 157.5
2718, 1972.22222222, -85.625, 160
2719, 1972.22222222, -78.75, 155
2720, 1972.22222222, -78.75, 157.5
2721, 1972.22222222, -78.75, 160
2722, 2000, -85.625, 155
2723, 2000, -85.625, 157.5
2724, 2000, -85.625, 160
2725, 2000, -78.75, 157.5
2726, 1944.44444444, -71.875, 155
2727, 1944.44444444, -71.875, 157.5
2728, 1944.44444444, -71.875, 160
2729, 1944.44444444, -65, 157.5
2730, 1972.22222222, -71.875, 155
2731, 1972.22222222, -71.875, 157.5
2732, 1972.22222222, -71.875, 160
2733, 1972.22222222, -65, 155
2734, 1972.22222222, -65, 157.5
2735, 1972.22222222, -65, 160
2736, 2000, -71.875, 155
2737, 2000, -71.875, 157.5
2738, 2000, -71.875, 160
2739, 2000, -65, 157.5
2740, 1944.44444444, -58.125, 155
2741, 1944.44444444, -58.125, 157.5
2742, 1944.44444444, -58.125, 160
2743, 1944.44444444, -51.25, 157.5
2744, 1972.22222222, -58.125, 155
2745, 1972.22222222, -58.125, 157.5
2746, 1972.22222222, -58.125, 160
2747, 1972.22222222, -51.25, 155
2748, 1972.22222222, -51.25, 157.5
2749, 1972.22222222, -51.25, 160
2750, 2000, -58.125, 155
2751, 2000, -58.125, 157.5
2752, 2000, -58.125, 160
2753, 2000, -51.25, 157.5
2754, 1944.44444444, -44.375, 155
2755, 1944.44444444, -44.375, 157.5
2756, 1944.44444444, -44.375, 160
2757, 1944.44444444, -37.5, 157.5
2758, 1972.22222222, -44.375, 155
2759, 1972.22222222, -44.375, 157.5
2760, 1972.22222222, -44.375, 160
2761, 1972.22222222, -37.5, 155
2762, 1972.22222222, -37.5, 157.5
2763, 1972.22222222, -37.5, 160
2764, 2000, -44.375, 155
2765, 2000, -44.375, 157.5
2766, 2000, -44.375, 160
2767, 2000, -37.5, 157.5
2768, 1944.44444444, -30.625, 155
2769, 1944.44444444, -30.625, 157.5
2770, 1944.44444444, -30.625, 160
2771, 1944.44444444, -23.75, 157.5
2772, 1972.22222222, -30.625, 155
2773, 1972.22222222, -30.625, 157.5
2774, 1972.22222222, -30.625, 160
2775, 1972.22222222, -23.75, 155
2776, 1972.22222222, -23.75, 157.5
2777, 1972.22222222, -23.75, 160
2778, 2000, -30.625, 155
2779, 2000, -30.625, 157.5
2780, 2000, -30.625, 160
2781, 2000, -23.75, 157.5
2782, 1944.44444444, -16.875, 155
2783, 1944.44444444, -16.875, 157.5
2784, 1944.44444444, -16.875, 160
2785, 1944.44444444, -10, 157.5
2786, 1972.22222222, -16.875, 155
2787, 1972.22222222, -16.875, 157.5
2788, 1972.22222222, -16.875, 160
2789, 1972.22222222, -10, 155
2790, 1972.22222222, -10, 157.5
2791, 1972.22222222, -10, 160
2792, 2000, -16.875, 155
2793, 2000, -16.875, 157.5
2794, 2000, -16.875, 160
2795, 2000, -10, 157.5
2796, 1944.44444444, -7.5, 155
2797, 1944.44444444, -7.5, 157.5
2798, 1944.44444444, -7.5, 160
2799, 1944.44444444, -5, 157.5
2800, 1972.22222222, -7.5, 155
2801, 1972.22222222, -7.5, 157.5
2802, 1972.22222222, -7.5, 160
2803, 1972.22222222, -5, 155
2804, 1972.22222222, -5, 157.5
2805, 1972.22222222, -5, 160
2806, 2000, -7.5, 155
2807, 2000, -7.5, 157.5
2808, 2000, -7.5, 160
2809, 2000, -5, 157.5
2810, 1944.44444444, -2.5, 155
2811, 1944.44444444, -2.5, 157.5
2812, 1944.44444444, -2.5, 160
2813, 1944.44444444, 0, 157.5
2814, 1972.22222222, -2.5, 155
2815, 1972.22222222, -2.5, 157.5
2816, 1972.22222222, -2.5, 160
2817, 1972.22222222, 0, 155
2818, 1972.22222222, 0, 157.5
2819, 1972.22222222, 0, 160
2820, 2000, -2.5, 155
2821, 2000, -2.5, 157.5
2822, 2000, -2.5, 160
2823, 2000, 0, 157.5
2824, 1944.44444444, 2.5, 155
2825, 1944.44444444, 2.5, 157.5
2826, 1944.44444444, 2.5, 160
2827, 1944.44444444, 5, 157.5
2828, 1972.22222222, 2.5, 155
2829, 1972.22222222, 2.5, 157.5
2830, 1972.22222222, 2.5, 160
2831, 1972.22222222, 5, 155
2832, 1972.22222222, 5, 157.5
2833, 1972.22222222, 5, 160
2834, 2000, 2.5, 155
2835, 2000, 2.5, 157.5
2836, 2000, 2.5, 160
2837, 2000, 5, 157.5
2838, 1944.44444444, 7.5, 155
2839, 1944.44444444, 7.5, 157.5
2840, 1944.44444444, 7.5, 160
2841, 1944.44444444, 10, 157.5
2842, 1972.22222222, 7.5, 155
2843, 1972.22222222, 7.5, 157.5
2844, 1972.22222222, 7.5, 160
2845, 1972.22222222, 10, 155
2846, 1972.22222222, 10, 157.5
2847, 1972.22222222, 10, 160
2848, 2000, 7.5, 155
2849, 2000, 7.5, 157.5
2850, 2000, 7.5, 160
2851, 2000, 10, 157.5
2852, 1944.44444444, 16.875, 155
2853, 1944.44444444, 16.875, 157.5
2854, 1944.44444444, 16.875, 160
2855, 1944.44444444, 23.75, 157.5
2856, 1972.22222222, 16.875, 155
2857, 1972.22222222, 16.875, 157.5
2858, 1972.22222222, 16.875, 160
2859, 1972.22222222, 23.75, 155
2860, 1972.22222222, 23.75, 157.5
2861, 1972.22222222, 23.75, 160
2862, 2000, 16.875, 155
2863, 2000, 16.875, 157.5
2864, 2000, 16.875, 160
2865, 2000, 23.75, 157.5
2866, 1944.44444444, 30.625, 155
2867, 1944.44444444, 30.625, 157.5
2868, 1944.44444444, 30.625, 160
2869, 1944.44444444, 37.5, 157.5
2870, 1972.22222222, 30.625, 155
2871, 1972.22222222, 30.625, 157.5
2872, 1972.22222222, 30.625, 160
2873, 1972.22222222, 37.5, 155
2874, 1972.22222222, 37.5, 157.5
2875, 1972.22222222, 37.5, 160
2876, 2000, 30.625, 155
2877, 2000, 30.625, 157.5
2878, 2000, 30.625, 160
2879, 2000, 37.5, 157.5
2880, 1944.44444444, 44.375, 155
2881, 1944.44444444, 44.375, 157.5
2882, 1944.44444444, 44.375, 160
2883, 1944.44444444, 51.25, 157.5
2884, 1972.22222222, 44.375, 155
2885, 1972.22222222, 44.375, 157.5
2886, 1972.22222222, 44.375, 160
2887, 1972.22222222, 51.25, 155
2888, 1972.22222222, 51.25, 157.5
2889, 1972.22222222, 51.25, 160
2890, 2000, 44.375, 155
2891, 2000, 44.375, 157.5
2892, 2000, 44.375, 160
2893, 2000, 51.25, 157.5
2894, 1944.44444444, 58.125, 155
2895, 1944.44444444, 58.125, 157.5
2896, 1944.44444444, 58.125, 160
2897, 1944.44444444, 65, 157.5
2898, 1972.22222222, 58.125, 155
2899, 1972.22222222, 58.125, 157.5
2900, 1972.22222222, 58.125, 160
2901, 1972.22222222, 65, 155
2902, 1972.22222222, 65, 157.5
2903, 1972.22222222, 65, 160
2904, 2000, 58.125, 155
2905, 2000, 58.125, 157.5
2906, 2000, 58.125, 160
2907, 2000, 65, 157.5
2908, 1944.44444444, 71.875, 155
2909, 1944.44444444, 71.875, 157.5
2910, 1944.44444444, 71.875, 160
2911, 1944.44444444, 78.75, 157.5
2912, 1972.22222222, 71.875, 155
2913, 1972.22222222, 71.875, 157.5
2914, 1972.22222222, 71.875, 160
2915, 1972.22222222, 78.75, 155
2916, 1972.22222222, 78.75, 157.5
2917, 1972.22222222, 78.75, 160
2918, 2000, 71.875, 155
2919, 2000, 71.875, 157.5
2920, 2000, 71.875, 160
2921, 2000, 78.75, 157.5
2922, 1944.44444444, 85.625, 155
2923, 1944.44444444, 85.625, 157.5
2924, 1944.44444444, 85.625, 160
2925, 1944.44444444, 92.5, 157.5
2926, 1972.22222222, 85.625, 155
2927, 1972.22222222, 85.625, 157.5
2928, 1972.22222222, 85.625, 160
2929, 1972.22222222, 92.5, 155
2930, 1972.22222222, 92.5, 157.5
2931, 1972.22222222, 92.5, 160
2932, 2000, 85.625, 155
2933, 2000, 85.625, 157.5
2934, 2000, 85.625, 160
2935, 2000, 92.5, 157.5
2936, 1944.44444444, 99.375, 155
2937, 1944.44444444, 99.375, 157.5
2938, 1944.44444444, 99.375, 160
2939, 1944.44444444, 106.25, 157.5
2940, 1972.22222222, 99.375, 155
2941, 1972.22222222, 99.375, 157.5
2942, 1972.22222222, 99.375, 160
2943, 1972.22222222, 106.25, 155
2944, 1972.22222222, 106.25, 157.5
2945, 1972.22222222, 106.25, 160
2946, 2000, 99.375, 155
2947, 2000, 99.375, 157.5
2948, 2000, 99.375, 160
2949, 2000, 106.25, 157.5
2950, 1944.44444444, 113.125, 155
2951, 1944.44444444, 113.125, 157.5
2952, 1944.44444444, 113.125, 160
2953, 1944.44444444, 120, 157.5
2954, 1972.22222222, 113.125, 155
2955, 1972.22222222, 113.125, 157.5
2956, 1972.22222222, 113.125, 160
2957, 1972.22222222, 120, 155
2958, 1972.22222222, 120, 157.5
2959, 1972.22222222, 120, 160
2960, 2000, 113.125, 155
2961, 2000, 113.125, 157.5
2962, 2000, 113.125, 160
2963, 2000, 120, 157.5
*ELEMENT, TYPE=C3D8, ELSET=EALL
1, 1, 918, 921, 914, 913, 919, 922, 915
2, 913, 919, 922, 915, 5, 920, 923, 916
3, 914, 921, 924, 4, 915, 922, 925, 917
4, 915, 922, 925, 917, 916, 923, 926, 8
5, 918, 1546, 1549, 1542, 1541, 1547, 1550, 1543
6, 1541, 1547, 1550, 1543, 919, 1548, 1551, 1544
7, 1542, 1549, 1552, 921, 1543, 1550, 1553, 1545
8, 1543, 1550, 1553, 1545, 1544, 1551, 1554, 922
9, 1546, 2, 1556, 1549, 1547, 1555, 1557, 1550
10, 1547, 1555, 1557, 1550, 1548, 927, 1558, 1551
11, 1549, 1556, 928, 1552, 1550, 1557, 1559, 1553
12, 1550, 1557, 1559, 1553, 1551, 1558, 929, 1554
13, 919, 927, 929, 922, 920, 6, 930, 923
14, 921, 1552, 1564, 1560, 1545, 1553, 1565, 1561
15, 1545, 1553, 1565, 1561, 922, 1554, 1566, 1562
16, 1560, 1564, 1567, 924, 1561, 1565, 1568, 1563
17, 1561, 1565, 1568, 1563, 1562, 1566, 1569, 925
18, 1552, 928, 1570, 1564, 1553, 1559, 1571, 1565
19, 1553, 1559, 1571, 1565, 1554, 929, 1572, 1566
20, 1564, 1570, 3, 1567, 1565, 1571, 1573, 1568
21, 1565, 1571, 1573, 1568, 1566, 1572, 931, 1569
22, 922, 929, 931, 925, 923, 930, 7, 926
23, 5, 920, 923, 916, 932, 936, 938, 933
24, 932, 936, 938, 933, 9, 937, 939, 934
25, 916, 923, 926, 8, 933, 938, 940, 935
26, 933, 938, 940, 935, 934, 939, 941, 12
27, 920, 6, 930, 923, 936, 942, 943, 938
28, 936, 1579, 1582, 1575, 1574, 1580, 1583, 1576
29, 1574, 1580, 1583, 1576, 937, 1581, 1584, 1577
30, 1575, 1582, 1585, 938, 1576, 1583, 1586, 1578
31, 1576, 1583, 1586, 1578, 1577, 1584, 1587, 939
32, 1579, 942, 1589, 1582, 1580, 1588, 1590, 1583
33, 1580, 1588, 1590, 1583, 1581, 10, 1591, 1584
34, 1582, 1589, 943, 1585, 1583, 1590, 1592, 1586
35, 1583, 1590, 1592, 1586, 1584, 1591, 944, 1587
36, 923, 930, 7, 926, 938, 943, 945, 940
37, 938, 943, 945, 940, 939, 944, 11, 941
38, 9, 937, 939, 934, 946, 950, 952, 947
39, 946, 950, 952, 947, 13, 951, 953, 948
40, 934, 939, 941, 12, 947, 952, 954, 949
41, 947, 952, 954, 949, 948, 953, 955, 16
42, 937, 10, 944, 939, 950, 956, 957, 952
43, 950, 956, 957, 952, 951, 14, 958, 953
44, 939, 944, 11, 941, 952, 957, 959, 954
45, 952, 957, 959, 954, 953, 958, 15, 955
46, 13, 951, 953, 948, 960, 964, 966, 961
47, 960, 964, 966, 961, 17, 965, 967, 962
48, 948, 953, 955, 16, 961, 966, 968, 963
49, 961, 966, 968, 963, 962, 967, 969, 20
50, 951, 14, 958, 953, 964, 970, 971, 966
51, 964, 970, 971, 966, 965, 18, 972, 967
52, 953, 958, 15, 955, 966, 971, 973, 968
53, 966, 971, 973, 968, 967, 972, 19, 969
54, 17, 965, 967, 962, 974, 978, 980, 975
55, 974, 978, 980, 975, 21, 979, 981, 976
56, 962, 967, 969, 20, 975, 980, 982, 977
57, 975, 980, 982, 977, 976, 981, 983, 24
58, 965, 18, 972, 967, 978, 984, 985, 980
59, 978, 984, 985, 980, 979, 22, 986, 981
60, 967, 972, 19, 969, 980, 985, 987, 982
61, 980, 985, 987, 982, 981, 986, 23, 983
62, 4, 924, 992, 988, 917, 925, 993, 989
63, 917, 925, 993, 989, 8, 926, 994, 990
64, 988, 992, 995, 26, 989, 993, 996, 991
65, 989, 993, 996, 991, 990, 994, 997, 28
66, 924, 1567, 1597, 1593, 1563, 1568, 1598, 1594
67, 1563, 1568, 1598, 1594, 925, 1569, 1599, 1595
68, 1593, 1597, 1600, 992, 1594, 1598, 1601, 1596
69, 1594, 1598, 1601, 1596, 1595, 1599, 1602, 993
70, 1567, 3, 1603, 1597, 1568, 1573, 1604, 1598
71, 1568, 1573, 1604, 1598, 1569, 931, 1605, 1599
72, 1597, 1603, 998, 1600, 1598, 1604, 1606, 1601
73, 1598, 1604, 1606, 1601, 1599, 1605, 999, 1602
74, 925, 931, 999, 993, 926, 7, 1000, 994
75, 992, 1600, 1611, 1607, 1596, 1601, 1612, 1608
76, 1596, 1601, 1612, 1608, 993, 1602, 1613, 1609
77, 1607, 1611, 1614, 995, 1608, 1612, 1615, 1610
78, 1608, 1612, 1615, 1610, 1609, 1613, 1616, 996
79, 1600, 998, 1617, 1611, 1601, 1606, 1618, 1612
80, 1601, 1606, 1618, 1612, 1602, 999, 1619, 1613
81, 1611, 1617, 25, 1614, 1612, 1618, 1620, 1615
82, 1612, 1618, 1620, 1615, 1613, 1619, 1001, 1616
83, 993, 999, 1001, 996, 994, 1000, 27, 997
84, 8, 926, 994, 990, 935, 940, 1005, 1002
85, 935, 940, 1005, 1002, 12, 941, 1006, 1003
86, 990, 994, 997, 28, 1002, 1005, 1007, 1004
87, 1002, 1005, 1007, 1004, 1003, 1006, 1008, 30
88, 926, 7, 1000, 994, 940, 945, 1009, 1005
89, 940, 945, 1009, 1005, 941, 11, 1010, 1006
90, 994, 1000, 27, 997, 1005, 1009, 1011, 1007
91, 1005, 1626, 1629, 1622, 1621, 1627, 1630, 1623
92, 1621, 1627, 1630, 1623, 1006, 1628, 1631, 1624
93, 1622, 1629, 1632, 1007, 1623, 1630, 1633, 1625
94, 1623, 1630, 1633, 1625, 1624, 1631, 1634, 1008
95, 1626, 1009, 1636, 1629, 1627, 1635, 1637, 1630
96, 1627, 1635, 1637, 1630, 1628, 1010, 1638, 1631
97, 1629, 1636, 1011, 1632, 1630, 1637, 1639, 1633
98, 1630, 1637, 1639, 1633, 1631, 1638, 29, 1634
99, 12, 941, 1006, 1003, 949, 954, 1015, 1012
100, 949, 954, 1015, 1012, 16, 955, 1016, 1013
101, 1003, 1006, 1008, 30, 1012, 1015, 1017, 1014
102, 1012, 1015, 1017, 1014, 1013, 1016, 1018, 32
103, 941, 11, 1010, 1006, 954, 959, 1019, 1015
104, 954, 959, 1019, 1015, 955, 15, 1020, 1016
105, 1006, 1010, 29, 1008, 1015, 1019, 1021, 1017
106, 1015, 1019, 1021, 1017, 1016, 1020, 31, 1018
107, 16, 955, 1016, 1013, 963, 968, 1025, 1022
108, 963, 968, 1025, 1022, 20, 969, 1026, 1023
109, 1013, 1016, 1018, 32, 1022, 1025, 1027, 1024
110, 1022, 1025, 1027, 1024, 1023, 1026, 1028, 34
111, 955, 15, 1020, 1016, 968, 973, 1029, 1025
112, 968, 973, 1029, 1025, 969, 19, 1030, 1026
113, 1016, 1020, 31, 1018, 1025, 1029, 1031, 1027
114, 1025, 1029, 1031, 1027, 1026, 1030, 33, 1028
115, 20, 969, 1026, 1023, 977, 982, 1035, 1032
116, 977, 982, 1035, 1032, 24, 983, 1036, 1033
117, 1023, 1026, 1028, 34, 1032, 1035, 1037, 1034
118, 1032, 1035, 1037, 1034, 1033, 1036, 1038, 36
119, 969, 19, 1030, 1026, 982, 987, 1039, 1035
120, 982, 987, 1039, 1035, 983, 23, 1040, 1036
121, 1026, 1030, 33, 1028, 1035, 1039, 1041, 1037
122, 1035, 1039, 1041, 1037, 1036, 1040, 35, 1038
123, 37, 1047, 1050, 1043, 1042, 1048, 1051, 1044
124, 1042, 1048, 1051, 1044, 41, 1049, 1052, 1045
125, 1043, 1050, 1053, 40, 1044, 1051, 1054, 1046
126, 1044, 1051, 1054, 1046, 1045, 1052, 1055, 44
127, 1047, 1645, 1648, 1641, 1640, 1646, 1649, 1642
128, 1640, 1646, 1649, 1642, 1048, 1647, 1650, 1643
129, 1641, 1648, 1651, 1050, 1642, 1649, 1652, 1644
130, 1642, 1649, 1652, 1644, 1643, 1650, 1653, 1051
131, 1645, 38, 1655, 1648, 1646, 1654, 1656, 1649
132, 1646, 1654, 1656, 1649, 1647, 1056, 1657, 1650
133, 1648, 1655, 1057, 1651, 1649, 1656, 1658, 1652
134, 1649, 1656, 1658, 1652, 1650, 1657, 1058, 1653
135, 1048, 1056, 1058, 1051, 1049, 42, 1059, 1052
136, 1050, 1057, 39, 1053, 1051, 1058, 1060, 1054
137, 1051, 1058, 1060, 1054, 1052, 1059, 43, 1055
138, 41, 1049, 1052, 1045, 1061, 1065, 1067, 1062
139, 1061, 1065, 1067, 1062, 45, 1066, 1068, 1063
140, 1045, 1664, 1667, 1660, 1659, 1665, 1668, 1661
141, 1659, 1665, 1668, 1661, 1062, 1666, 1669, 1662
142, 1660, 1667, 1670, 44, 1661, 1668, 1671, 1663
143, 1661, 1668, 1671, 1663, 1662, 1669, 1672, 1064
144, 1664, 1052, 1674, 1667, 1665, 1673, 1675, 1668
145, 1665, 1673, 1675, 1668, 1666, 1067, 1676, 1669
146, 1667, 1674, 1055, 1670, 1668, 1675, 1677, 1671
147, 1668, 1675, 1677, 1671, 1669, 1676, 1069, 1672
148, 1062, 1666, 1669, 1662, 1678, 1682, 1684, 1679
149, 1678, 1682, 1684, 1679, 1063, 1683, 1685, 1680
150, 1662, 1669, 1672, 1064, 1679, 1684, 1686, 1681
151, 1679, 1684, 1686, 1681, 1680, 1685, 1687, 48
152, 1666, 1067, 1676, 1669, 1682, 1688, 1689, 1684
153, 1682, 1688, 1689, 1684, 1683, 1068, 1690, 1685
154, 1669, 1676, 1069, 1672, 1684, 1689, 1691, 1686
155, 1684, 1689, 1691, 1686, 1685, 1690, 1070, 1687
156, 1049, 42, 1059, 1052, 1065, 1071, 1072, 1067
157, 1065, 1071, 1072, 1067, 1066, 46, 1073, 1068
158, 1052, 1692, 1695, 1674, 1673, 1693, 1696, 1675
159, 1673, 1693, 1696, 1675, 1067, 1694, 1697, 1676
160, 1674, 1695, 1698, 1055, 1675, 1696, 1699, 1677
161, 1675, 1696, 1699, 1677, 1676, 1697, 1700, 1069
162, 1692, 1059, 1702, 1695, 1693, 1701, 1703, 1696
163, 1693, 1701, 1703, 1696, 1694, 1072, 1704, 1697
164, 1695, 1702, 43, 1698, 1696, 1703, 1705, 1699
165, 1696, 1703, 1705, 1699, 1697, 1704, 1074, 1700
166, 1067, 1694, 1697, 1676, 1688, 1706, 1708, 1689
167, 1688, 1706, 1708, 1689, 1068, 1707, 1709, 1690
168, 1676, 1697, 1700, 1069, 1689, 1708, 1710, 1691
169, 1689, 1708, 1710, 1691, 1690, 1709, 1711, 1070
170, 1694, 1072, 1704, 1697, 1706, 1712, 1713, 1708
171, 1706, 1712, 1713, 1708, 1707, 1073, 1714, 1709
172, 1697, 1704, 1074, 1700, 1708, 1713, 1715, 1710
173, 1708, 1713, 1715, 1710, 1709, 1714, 47, 1711
174, 40, 1053, 1718, 1716, 1046, 1054, 1719, 1717
175, 1046, 1054, 1719, 1717, 44, 1055, 1079, 1075
176, 1716, 1718, 1094, 50, 1717, 1719, 1095, 1089
177, 1717, 1719, 1095, 1089, 1075, 1079, 1082, 52
178, 1053, 39, 1720, 1718, 1054, 1060, 1721, 1719
179, 1054, 1060, 1721, 1719, 1055, 43, 1085, 1079
180, 1718, 1720, 49, 1094, 1719, 1721, 1102, 1095
181, 1719, 1721, 1102, 1095, 1079, 1085, 51, 1082
182, 44, 1055, 1079, 1075, 1064, 1069, 1080, 1076
183, 1064, 1672, 1726, 1722, 1681, 1686, 1727, 1723
184, 1681, 1686, 1727, 1723, 48, 1687, 1728, 1724
185, 1722, 1726, 1729, 1076, 1723, 1727, 1730, 1725
186, 1723, 1727, 1730, 1725, 1724, 1728, 1731, 1077
187, 1672, 1069, 1732, 1726, 1686, 1691, 1733, 1727
188, 1686, 1691, 1733, 1727, 1687, 1070, 1734, 1728
189, 1726, 1732, 1080, 1729, 1727, 1733, 1735, 1730
190, 1727, 1733, 1735, 1730, 1728, 1734, 1081, 1731
191, 1075, 1079, 1082, 52, 1076, 1080, 1083, 1078
192, 1076, 1729, 1740, 1736, 1725, 1730, 1741, 1737
193, 1725, 1730, 1741, 1737, 1077, 1731, 1742, 1738
194, 1736, 1740, 1743, 1078, 1737, 1741, 1744, 1739
195, 1737, 1741, 1744, 1739, 1738, 1742, 1745, 54
196, 1729, 1080, 1746, 1740, 1730, 1735, 1747, 1741
197, 1730, 1735, 1747, 1741, 1731, 1081, 1748, 1742
198, 1740, 1746, 1083, 1743, 1741, 1747, 1749, 1744
199, 1741, 1747, 1749, 1744, 1742, 1748, 1084, 1745
200, 1055, 43, 1085, 1079, 1069, 1074, 1086, 1080
201, 1069, 1700, 1750, 1732, 1691, 1710, 1751, 1733
202, 1691, 1710, 1751, 1733, 1070, 1711, 1752, 1734
203, 1732, 1750, 1753, 1080, 1733, 1751, 1754, 1735
204, 1733, 1751, 1754, 1735, 1734, 1752, 1755, 1081
205, 1700, 1074, 1756, 1750, 1710, 1715, 1757, 1751
206, 1710, 1715, 1757, 1751, 1711, 47, 1758, 1752
207, 1750, 1756, 1086, 1753, 1751, 1757, 1759, 1754
208, 1751, 1757, 1759, 1754, 1752, 1758, 1087, 1755
209, 1079, 1085, 51, 1082, 1080, 1086, 1088, 1083
210, 1080, 1753, 1760, 1746, 1735, 1754, 1761, 1747
211, 1735, 1754, 1761, 1747, 1081, 1755, 1762, 1748
212, 1746, 1760, 1763, 1083, 1747, 1761, 1764, 1749
213, 1747, 1761, 1764, 1749, 1748, 1762, 1765, 1084
214, 1753, 1086, 1766, 1760, 1754, 1759, 1767, 1761
215, 1754, 1759, 1767, 1761, 1755, 1087, 1768, 1762
216, 1760, 1766, 1088, 1763, 1761, 1767, 1769, 1764
217, 1761, 1767, 1769, 1764, 1762, 1768, 53, 1765
218, 50, 1094, 1096, 1090, 1089, 1095, 1097, 1091
219, 1089, 1095, 1097, 1091, 52, 1082, 1098, 1092
220, 1090, 1775, 1778, 1771, 1770, 1776, 1779, 1772
221, 1770, 1776, 1779, 1772, 1091, 1777, 1780, 1773
222, 1771, 1778, 1781, 56, 1772, 1779, 1782, 1774
223, 1772, 1779, 1782, 1774, 1773, 1780, 1783, 1093
224, 1775, 1096, 1785, 1778, 1776, 1784, 1786, 1779
225, 1776, 1784, 1786, 1779, 1777, 1097, 1787, 1780
226, 1778, 1785, 1099, 1781, 1779, 1786, 1788, 1782
227, 1779, 1786, 1788, 1782, 1780, 1787, 1100, 1783
228, 1091, 1097, 1100, 1093, 1092, 1098, 1101, 58
229, 1094, 49, 1103, 1096, 1095, 1102, 1104, 1097
230, 1095, 1102, 1104, 1097, 1082, 51, 1105, 1098
231, 1096, 1789, 1792, 1785, 1784, 1790, 1793, 1786
232, 1784, 1790, 1793, 1786, 1097, 1791, 1794, 1787
233, 1785, 1792, 1795, 1099, 1786, 1793, 1796, 1788
234, 1786, 1793, 1796, 1788, 1787, 1794, 1797, 1100
235, 1789, 1103, 1799, 1792, 1790, 1798, 1800, 1793
236, 1790, 1798, 1800, 1793, 1791, 1104, 1801, 1794
237, 1792, 1799, 55, 1795, 1793, 1800, 1802, 1796
238, 1793, 1800, 1802, 1796, 1794, 1801, 1106, 1797
239, 1097, 1104, 1106, 1100, 1098, 1105, 57, 1101
240, 52, 1808, 1810, 1804, 1803, 1809, 1811, 1805
241, 1803, 1809, 1811, 1805, 1078, 1743, 1812, 1806
242, 1804, 1810, 1813, 1092, 1805, 1811, 1814, 1807
243, 1805, 1811, 1814, 1807, 1806, 1812, 1815, 1107
244, 1808, 1082, 1817, 1810, 1809, 1816, 1818, 1811
245, 1809, 1816, 1818, 1811, 1743, 1083, 1819, 1812
246, 1810, 1817, 1098, 1813, 1811, 1818, 1820, 1814
247, 1811, 1818, 1820, 1814, 1812, 1819, 1110, 1815
248, 1078, 1743, 1812, 1806, 1739, 1744, 1824, 1821
249, 1739, 1744, 1824, 1821, 54, 1745, 1825, 1822
250, 1806, 1812, 1815, 1107, 1821, 1824, 1826, 1823
251, 1821, 1824, 1826, 1823, 1822, 1825, 1827, 1108
252, 1743, 1083, 1819, 1812, 1744, 1749, 1828, 1824
253, 1744, 1749, 1828, 1824, 1745, 1084, 1829, 1825
254, 1812, 1819, 1110, 1815, 1824, 1828, 1830, 1826
255, 1824, 1828, 1830, 1826, 1825, 1829, 1111, 1827
256, 1092, 1098, 1101, 58, 1107, 1110, 1112, 1109
257, 1107, 1110, 1112, 1109, 1108, 1111, 1113, 60
258, 1082, 1831, 1833, 1817, 1816, 1832, 1834, 1818
259, 1816, 1832, 1834, 1818, 1083, 1763, 1835, 1819
260, 1817, 1833, 1836, 1098, 1818, 1834, 1837, 1820
261, 1818, 1834, 1837, 1820, 1819, 1835, 1838, 1110
262, 1831, 51, 1840, 1833, 1832, 1839, 1841, 1834
263, 1832, 1839, 1841, 1834, 1763, 1088, 1842, 1835
264, 1833, 1840, 1105, 1836, 1834, 1841, 1843, 1837
265, 1834, 1841, 1843, 1837, 1835, 1842, 1114, 1838
266, 1083, 1763, 1835, 1819, 1749, 1764, 1844, 1828
267, 1749, 1764, 1844, 1828, 1084, 1765, 1845, 1829
268, 1819, 1835, 1838, 1110, 1828, 1844, 1846, 1830
269, 1828, 1844, 1846, 1830, 1829, 1845, 1847, 1111
270, 1763, 1088, 1842, 1835, 1764, 1769, 1848, 1844
271, 1764, 1769, 1848, 1844, 1765, 53, 1849, 1845
272, 1835, 1842, 1114, 1838, 1844, 1848, 1850, 1846
273, 1844, 1848, 1850, 1846, 1845, 1849, 1115, 1847
274, 1098, 1105, 57, 1101, 1110, 1114, 1116, 1112
275, 1110, 1114, 1116, 1112, 1111, 1115, 59, 1113
276, 56, 1099, 1121, 1117, 1093, 1100, 1122, 1118
277, 1093, 1100, 1122, 1118, 58, 1101, 1123, 1119
278, 1117, 1856, 1859, 1852, 1851, 1857, 1860, 1853
279, 1851, 1857, 1860, 1853, 1118, 1858, 1861, 1854
280, 1852, 1859, 1862, 21, 1853, 1860, 1863, 1855
281, 1853, 1860, 1863, 1855, 1854, 1861, 1864, 1120
282, 1856, 1121, 1866, 1859, 1857, 1865, 1867, 1860
283, 1857, 1865, 1867, 1860, 1858, 1122, 1868, 1861
284, 1859, 1866, 979, 1862, 1860, 1867, 1869, 1863
285, 1860, 1867, 1869, 1863, 1861, 1868, 1124, 1864
286, 1118, 1858, 1861, 1854, 1870, 1874, 1876, 1871
287, 1870, 1874, 1876, 1871, 1119, 1875, 1877, 1872
288, 1854, 1861, 1864, 1120, 1871, 1876, 1878, 1873
289, 1871, 1876, 1878, 1873, 1872, 1877, 1879, 62
290, 1858, 1122, 1868, 1861, 1874, 1880, 1881, 1876
291, 1874, 1880, 1881, 1876, 1875, 1123, 1882, 1877
292, 1861, 1868, 1124, 1864, 1876, 1881, 1883, 1878
293, 1876, 1881, 1883, 1878, 1877, 1882, 1125, 1879
294, 1099, 55, 1126, 1121, 1100, 1106, 1127, 1122
295, 1100, 1106, 1127, 1122, 1101, 57, 1128, 1123
296, 1121, 1884, 1887, 1866, 1865, 1885, 1888, 1867
297, 1865, 1885, 1888, 1867, 1122, 1886, 1889, 1868
298, 1866, 1887, 1890, 979, 1867, 1888, 1891, 1869
299, 1867, 1888, 1891, 1869, 1868, 1889, 1892, 1124
300, 1884, 1126, 1894, 1887, 1885, 1893, 1895, 1888
301, 1885, 1893, 1895, 1888, 1886, 1127, 1896, 1889
302, 1887, 1894, 22, 1890, 1888, 1895, 1897, 1891
303, 1888, 1895, 1897, 1891, 1889, 1896, 1129, 1892
304, 1122, 1886, 1889, 1868, 1880, 1898, 1900, 1881
305, 1880, 1898, 1900, 1881, 1123, 1899, 1901, 1882
306, 1868, 1889, 1892, 1124, 1881, 1900, 1902, 1883
307, 1881, 1900, 1902, 1883, 1882, 1901, 1903, 1125
308, 1886, 1127, 1896, 1889, 1898, 1904, 1905, 1900
309, 1898, 1904, 1905, 1900, 1899, 1128, 1906, 1901
310, 1889, 1896, 1129, 1892, 1900, 1905, 1907, 1902
311, 1900, 1905, 1907, 1902, 1901, 1906, 61, 1903
312, 58, 1101, 1123, 1119, 1109, 1112, 1133, 1130
313, 1109, 1913, 1916, 1909, 1908, 1914, 1917, 1910
314, 1908, 1914, 1917, 1910, 60, 1915, 1918, 1911
315, 1909, 1916, 1919, 1130, 1910, 1917, 1920, 1912
316, 1910, 1917, 1920, 1912, 1911, 1918, 1921, 1131
317, 1913, 1112, 1923, 1916, 1914, 1922, 1924, 1917
318, 1914, 1922, 1924, 1917, 1915, 1113, 1925, 1918
319, 1916, 1923, 1133, 1919, 1917, 1924, 1926, 1920
320, 1917, 1924, 1926, 1920, 1918, 1925, 1134, 1921
321, 1119, 1123, 1125, 62, 1130, 1133, 1135, 1132
322, 1130, 1133, 1135, 1132, 1131, 1134, 1136, 64
323, 1101, 57, 1128, 1123, 1112, 1116, 1137, 1133
324, 1112, 1927, 1930, 1923, 1922, 1928, 1931, 1924
325, 1922, 1928, 1931, 1924, 1113, 1929, 1932, 1925
326, 1923, 1930, 1933, 1133, 1924, 1931, 1934, 1926
327, 1924, 1931, 1934, 1926, 1925, 1932, 1935, 1134
328, 1927, 1116, 1937, 1930, 1928, 1936, 1938, 1931
329, 1928, 1936, 1938, 1931, 1929, 59, 1939, 1932
330, 1930, 1937, 1137, 1933, 1931, 1938, 1940, 1934
331, 1931, 1938, 1940, 1934, 1932, 1939, 1138, 1935
332, 1123, 1128, 61, 1125, 1133, 1137, 1139, 1135
333, 1133, 1137, 1139, 1135, 1134, 1138, 63, 1136
334, 21, 979, 981, 976, 1120, 1124, 1143, 1140
335, 1120, 1124, 1143, 1140, 62, 1125, 1144, 1141
336, 976, 981, 983, 24, 1140, 1143, 1145, 1142
337, 1140, 1143, 1145, 1142, 1141, 1144, 1146, 66
338, 979, 22, 986, 981, 1124, 1129, 1147, 1143
339, 1124, 1129, 1147, 1143, 1125, 61, 1148, 1144
340, 981, 986, 23, 983, 1143, 1147, 1149, 1145
341, 1143, 1147, 1149, 1145, 1144, 1148, 65, 1146
342, 62, 1125, 1144, 1141, 1132, 1135, 1944, 1941
343, 1132, 1135, 1944, 1941, 64, 1136, 1945, 1942
344, 1141, 1144, 1146, 66, 1941, 1944, 1946, 1943
345, 1941, 1944, 1946, 1943, 1942, 1945, 1947, 68
346, 1125, 61, 1148, 1144, 1135, 1139, 1948, 1944
347, 1135, 1139, 1948, 1944, 1136, 63, 1949, 1945
348, 1144, 1148, 65, 1146, 1944, 1948, 1950, 1946
349, 1944, 1948, 1950, 1946, 1945, 1949, 67, 1947
350, 24, 983, 1036, 1033, 1142, 1145, 1153, 1150
351, 1142, 1145, 1153, 1150, 66, 1146, 1154, 1151
352, 1033, 1036, 1038, 36, 1150, 1153, 1155, 1152
353, 1150, 1153, 1155, 1152, 1151, 1154, 1156, 70
354, 983, 23, 1040, 1036, 1145, 1149, 1157, 1153
355, 1145, 1149, 1157, 1153, 1146, 65, 1158, 1154
356, 1036, 1040, 35, 1038, 1153, 1157, 1159, 1155
357, 1153, 1157, 1159, 1155, 1154, 1158, 69, 1156
358, 66, 1146, 1154, 1151, 1943, 1946, 1953, 1951
359, 1943, 1946, 1953, 1951, 68, 1947, 1954, 1952
360, 1151, 1154, 1156, 70, 1951, 1953, 1178, 1174
361, 1951, 1953, 1178, 1174, 1952, 1954, 1179, 72
362, 1146, 65, 1158, 1154, 1946, 1950, 1955, 1953
363, 1946, 1950, 1955, 1953, 1947, 67, 1956, 1954
364, 1154, 1158, 69, 1156, 1953, 1955, 1184, 1178
365, 1953, 1955, 1184, 1178, 1954, 1956, 71, 1179
366, 36, 1962, 1965, 1958, 1957, 1963, 1966, 1959
367, 1957, 1963, 1966, 1959, 1152, 1964, 1967, 1960
368, 1958, 1965, 1968, 1160, 1959, 1966, 1969, 1961
369, 1959, 1966, 1969, 1961, 1960, 1967, 1970, 1161
370, 1962, 1038, 1972, 1965, 1963, 1971, 1973, 1966
371, 1963, 1971, 1973, 1966, 1964, 1155, 1974, 1967
372, 1965, 1972, 1164, 1968, 1966, 1973, 1975, 1969
373, 1966, 1973, 1975, 1969, 1967, 1974, 1165, 1970
374, 1152, 1964, 1967, 1960, 1976, 1980, 1982, 1977
375, 1976, 1980, 1982, 1977, 70, 1981, 1983, 1978
376, 1960, 1967, 1970, 1161, 1977, 1982, 1984, 1979
377, 1977, 1982, 1984, 1979, 1978, 1983, 1985, 1162
378, 1964, 1155, 1974, 1967, 1980, 1986, 1987, 1982
379, 1980, 1986, 1987, 1982, 1981, 1156, 1988, 1983
380, 1967, 1974, 1165, 1970, 1982, 1987, 1989, 1984
381, 1982, 1987, 1989, 1984, 1983, 1988, 1166, 1985
382, 1160, 1164, 1167, 74, 1161, 1165, 1168, 1163
383, 1161, 1165, 1168, 1163, 1162, 1166, 1169, 76
384, 1038, 1990, 1993, 1972, 1971, 1991, 1994, 1973
385, 1971, 1991, 1994, 1973, 1155, 1992, 1995, 1974
386, 1972, 1993, 1996, 1164, 1973, 1994, 1997, 1975
387, 1973, 1994, 1997, 1975, 1974, 1995, 1998, 1165
388, 1990, 35, 2000, 1993, 1991, 1999, 2001, 1994
389, 1991, 1999, 2001, 1994, 1992, 1159, 2002, 1995
390, 1993, 2000, 1170, 1996, 1994, 2001, 2003, 1997
391, 1994, 2001, 2003, 1997, 1995, 2002, 1171, 1998
392, 1155, 1992, 1995, 1974, 1986, 2004, 2006, 1987
393, 1986, 2004, 2006, 1987, 1156, 2005, 2007, 1988
394, 1974, 1995, 1998, 1165, 1987, 2006, 2008, 1989
395, 1987, 2006, 2008, 1989, 1988, 2007, 2009, 1166
396, 1992, 1159, 2002, 1995, 2004, 2010, 2011, 2006
397, 2004, 2010, 2011, 2006, 2005, 69, 2012, 2007
398, 1995, 2002, 1171, 1998, 2006, 2011, 2013, 2008
399, 2006, 2011, 2013, 2008, 2007, 2012, 1172, 2009
400, 1164, 1170, 73, 1167, 1165, 1171, 1173, 1168
401, 1165, 1171, 1173, 1168, 1166, 1172, 75, 1169
402, 70, 1156, 1166, 1162, 1174, 1178, 1180, 1175
403, 1174, 1178, 1180, 1175, 72, 1179, 1181, 1176
404, 1162, 1166, 1169, 76, 1175, 1180, 1182, 1177
405, 1175, 2019, 2022, 2015, 2014, 2020, 2023, 2016
406, 2014, 2020, 2023, 2016, 1176, 2021, 2024, 2017
407, 2015, 2022, 2025, 1177, 2016, 2023, 2026, 2018
408, 2016, 2023, 2026, 2018, 2017, 2024, 2027, 78
409, 2019, 1180, 2029, 2022, 2020, 2028, 2030, 2023
410, 2020, 2028, 2030, 2023, 2021, 1181, 2031, 2024
411, 2022, 2029, 1182, 2025, 2023, 2030, 2032, 2026
412, 2023, 2030, 2032, 2026, 2024, 2031, 1183, 2027
413, 1156, 69, 1172, 1166, 1178, 1184, 1185, 1180
414, 1178, 1184, 1185, 1180, 1179, 71, 1186, 1181
415, 1166, 1172, 75, 1169, 1180, 1185, 1187, 1182
416, 1180, 2033, 2036, 2029, 2028, 2034, 2037, 2030
417, 2028, 2034, 2037, 2030, 1181, 2035, 2038, 2031
418, 2029, 2036, 2039, 1182, 2030, 2037, 2040, 2032
419, 2030, 2037, 2040, 2032, 2031, 2038, 2041, 1183
420, 2033, 1185, 2043, 2036, 2034, 2042, 2044, 2037
421, 2034, 2042, 2044, 2037, 2035, 1186, 2045, 2038
422, 2036, 2043, 1187, 2039, 2037, 2044, 2046, 2040
423, 2037, 2044, 2046, 2040, 2038, 2045, 77, 2041
424, 74, 2052, 2055, 2048, 2047, 2053, 2056, 2049
425, 2047, 2053, 2056, 2049, 1163, 2054, 2057, 2050
426, 2048, 2055, 2058, 1188, 2049, 2056, 2059, 2051
427, 2049, 2056, 2059, 2051, 2050, 2057, 2060, 1189
428, 2052, 1167, 2062, 2055, 2053, 2061, 2063, 2056
429, 2053, 2061, 2063, 2056, 2054, 1168, 2064, 2057
430, 2055, 2062, 1192, 2058, 2056, 2063, 2065, 2059
431, 2056, 2063, 2065, 2059, 2057, 2064, 1193, 2060
432, 1163, 1168, 1193, 1189, 76, 1169, 1194, 1190
433, 1188, 1192, 1195, 80, 1189, 1193, 1196, 1191
434, 1189, 1193, 1196, 1191, 1190, 1194, 1197, 82
435, 1167, 2066, 2069, 2062, 2061, 2067, 2070, 2063
436, 2061, 2067, 2070, 2063, 1168, 2068, 2071, 2064
437, 2062, 2069, 2072, 1192, 2063, 2070, 2073, 2065
438, 2063, 2070, 2073, 2065, 2064, 2071, 2074, 1193
439, 2066, 73, 2076, 2069, 2067, 2075, 2077, 2070
440, 2067, 2075, 2077, 2070, 2068, 1173, 2078, 2071
441, 2069, 2076, 1198, 2072, 2070, 2077, 2079, 2073
442, 2070, 2077, 2079, 2073, 2071, 2078, 1199, 2074
443, 1168, 1173, 1199, 1193, 1169, 75, 1200, 1194
444, 1192, 1198, 79, 1195, 1193, 1199, 1201, 1196
445, 1193, 1199, 1201, 1196, 1194, 1200, 81, 1197
446, 76, 1169, 1194, 1190, 1177, 1182, 1205, 1202
447, 1177, 1182, 1205, 1202, 78, 1183, 1206, 1203
448, 1190, 2085, 2088, 2081, 2080, 2086, 2089, 2082
449, 2080, 2086, 2089, 2082, 1202, 2087, 2090, 2083
450, 2081, 2088, 2091, 82, 2082, 2089, 2092, 2084
451, 2082, 2089, 2092, 2084, 2083, 2090, 2093, 1204
452, 2085, 1194, 2095, 2088, 2086, 2094, 2096, 2089
453, 2086, 2094, 2096, 2089, 2087, 1205, 2097, 2090
454, 2088, 2095, 1197, 2091, 2089, 2096, 2098, 2092
455, 2089, 2096, 2098, 2092, 2090, 2097, 1207, 2093
456, 1202, 2087, 2090, 2083, 2099, 2103, 2105, 2100
457, 2099, 2103, 2105, 2100, 1203, 2104, 2106, 2101
458, 2083, 2090, 2093, 1204, 2100, 2105, 2107, 2102
459, 2100, 2105, 2107, 2102, 2101, 2106, 2108, 84
460, 2087, 1205, 2097, 2090, 2103, 2109, 2110, 2105
461, 2103, 2109, 2110, 2105, 2104, 1206, 2111, 2106
462, 2090, 2097, 1207, 2093, 2105, 2110, 2112, 2107
463, 2105, 2110, 2112, 2107, 2106, 2111, 1208, 2108
464, 1169, 75, 1200, 1194, 1182, 1187, 1209, 1205
465, 1182, 1187, 1209, 1205, 1183, 77, 1210, 1206
466, 1194, 2113, 2116, 2095, 2094, 2114, 2117, 2096
467, 2094, 2114, 2117, 2096, 1205, 2115, 2118, 2097
468, 2095, 2116, 2119, 1197, 2096, 2117, 2120, 2098
469, 2096, 2117, 2120, 2098, 2097, 2118, 2121, 1207
470, 2113, 1200, 2123, 2116, 2114, 2122, 2124, 2117
471, 2114, 2122, 2124, 2117, 2115, 1209, 2125, 2118
472, 2116, 2123, 81, 2119, 2117, 2124, 2126, 2120
473, 2117, 2124, 2126, 2120, 2118, 2125, 1211, 2121
474, 1205, 2115, 2118, 2097, 2109, 2127, 2129, 2110
475, 2109, 2127, 2129, 2110, 1206, 2128, 2130, 2111
476, 2097, 2118, 2121, 1207, 2110, 2129, 2131, 2112
477, 2110, 2129, 2131, 2112, 2111, 2130, 2132, 1208
478, 2115, 1209, 2125, 2118, 2127, 2133, 2134, 2129
479, 2127, 2133, 2134, 2129, 2128, 1210, 2135, 2130
480, 2118, 2125, 1211, 2121, 2129, 2134, 2136, 2131
481, 2129, 2134, 2136, 2131, 2130, 2135, 83, 2132
482, 80, 1195, 2139, 2137, 1191, 1196, 2140, 2138
483, 1191, 1196, 2140, 2138, 82, 1197, 1216, 1212
484, 2137, 2139, 1231, 86, 2138, 2140, 1232, 1226
485, 2138, 2140, 1232, 1226, 1212, 1216, 1219, 88
486, 1195, 79, 2141, 2139, 1196, 1201, 2142, 2140
487, 1196, 1201, 2142, 2140, 1197, 81, 1222, 1216
488, 2139, 2141, 85, 1231, 2140, 2142, 1239, 1232
489, 2140, 2142, 1239, 1232, 1216, 1222, 87, 1219
490, 82, 1197, 1216, 1212, 1204, 1207, 1217, 1213
491, 1204, 2093, 2147, 2143, 2102, 2107, 2148, 2144
492, 2102, 2107, 2148, 2144, 84, 2108, 2149, 2145
493, 2143, 2147, 2150, 1213, 2144, 2148, 2151, 2146
494, 2144, 2148, 2151, 2146, 2145, 2149, 2152, 1214
495, 2093, 1207, 2153, 2147, 2107, 2112, 2154, 2148
496, 2107, 2112, 2154, 2148, 2108, 1208, 2155, 2149
497, 2147, 2153, 1217, 2150, 2148, 2154, 2156, 2151
498, 2148, 2154, 2156, 2151, 2149, 2155, 1218, 2152
499, 1212, 1216, 1219, 88, 1213, 1217, 1220, 1215
500, 1213, 2150, 2161, 2157, 2146, 2151, 2162, 2158
501, 2146, 2151, 2162, 2158, 1214, 2152, 2163, 2159
502, 2157, 2161, 2164, 1215, 2158, 2162, 2165, 2160
503, 2158, 2162, 2165, 2160, 2159, 2163, 2166, 90
504, 2150, 1217, 2167, 2161, 2151, 2156, 2168, 2162
505, 2151, 2156, 2168, 2162, 2152, 1218, 2169, 2163
506, 2161, 2167, 1220, 2164, 2162, 2168, 2170, 2165
507, 2162, 2168, 2170, 2165, 2163, 2169, 1221, 2166
508, 1197, 81, 1222, 1216, 1207, 1211, 1223, 1217
509, 1207, 2121, 2171, 2153, 2112, 2131, 2172, 2154
510, 2112, 2131, 2172, 2154, 1208, 2132, 2173, 2155
511, 2153, 2171, 2174, 1217, 2154, 2172, 2175, 2156
512, 2154, 2172, 2175, 2156, 2155, 2173, 2176, 1218
513, 2121, 1211, 2177, 2171, 2131, 2136, 2178, 2172
514, 2131, 2136, 2178, 2172, 2132, 83, 2179, 2173
515, 2171, 2177, 1223, 2174, 2172, 2178, 2180, 2175
516, 2172, 2178, 2180, 2175, 2173, 2179, 1224, 2176
517, 1216, 1222, 87, 1219, 1217, 1223, 1225, 1220
518, 1217, 2174, 2181, 2167, 2156, 2175, 2182, 2168
519, 2156, 2175, 2182, 2168, 1218, 2176, 2183, 2169
520, 2167, 2181, 2184, 1220, 2168, 2182, 2185, 2170
521, 2168, 2182, 2185, 2170, 2169, 2183, 2186, 1221
522, 2174, 1223, 2187, 2181, 2175, 2180, 2188, 2182
523, 2175, 2180, 2188, 2182, 2176, 1224, 2189, 2183
524, 2181, 2187, 1225, 2184, 2182, 2188, 2190, 2185
525, 2182, 2188, 2190, 2185, 2183, 2189, 89, 2186
526, 86, 1231, 1233, 1227, 1226, 1232, 1234, 1228
527, 1226, 1232, 1234, 1228, 88, 1219, 1235, 1229
528, 1227, 1233, 1236, 92, 1228, 1234, 1237, 1230
529, 1228, 1234, 1237, 1230, 1229, 1235, 1238, 94
530, 1231, 85, 1240, 1233, 1232, 1239, 1241, 1234
531, 1232, 1239, 1241, 1234, 1219, 87, 1242, 1235
532, 1233, 2196, 2199, 2192, 2191, 2197, 2200, 2193
533, 2191, 2197, 2200, 2193, 1234, 2198, 2201, 2194
534, 2192, 2199, 2202, 1236, 2193, 2200, 2203, 2195
535, 2193, 2200, 2203, 2195, 2194, 2201, 2204, 1237
536, 2196, 1240, 2206, 2199, 2197, 2205, 2207, 2200
537, 2197, 2205, 2207, 2200, 2198, 1241, 2208, 2201
538, 2199, 2206, 91, 2202, 2200, 2207, 2209, 2203
539, 2200, 2207, 2209, 2203, 2201, 2208, 1243, 2204
540, 1234, 1241, 1243, 1237, 1235, 1242, 93, 1238
541, 88, 2215, 2217, 2211, 2210, 2216, 2218, 2212
542, 2210, 2216, 2218, 2212, 1215, 2164, 2219, 2213
543, 2211, 2217, 2220, 1229, 2212, 2218, 2221, 2214
544, 2212, 2218, 2221, 2214, 2213, 2219, 2222, 1244
545, 2215, 1219, 2224, 2217, 2216, 2223, 2225, 2218
546, 2216, 2223, 2225, 2218, 2164, 1220, 2226, 2219
547, 2217, 2224, 1235, 2220, 2218, 2225, 2227, 2221
548, 2218, 2225, 2227, 2221, 2219, 2226, 1247, 2222
549, 1215, 2164, 2219, 2213, 2160, 2165, 2231, 2228
550, 2160, 2165, 2231, 2228, 90, 2166, 2232, 2229
551, 2213, 2219, 2222, 1244, 2228, 2231, 2233, 2230
552, 2228, 2231, 2233, 2230, 2229, 2232, 2234, 1245
553, 2164, 1220, 2226, 2219, 2165, 2170, 2235, 2231
554, 2165, 2170, 2235, 2231, 2166, 1221, 2236, 2232
555, 2219, 2226, 1247, 2222, 2231, 2235, 2237, 2233
556, 2231, 2235, 2237, 2233, 2232, 2236, 1248, 2234
557, 1229, 1235, 1238, 94, 1244, 1247, 1249, 1246
558, 1244, 1247, 1249, 1246, 1245, 1248, 1250, 96
559, 1219, 2238, 2240, 2224, 2223, 2239, 2241, 2225
560, 2223, 2239, 2241, 2225, 1220, 2184, 2242, 2226
561, 2224, 2240, 2243, 1235, 2225, 2241, 2244, 2227
562, 2225, 2241, 2244, 2227, 2226, 2242, 2245, 1247
563, 2238, 87, 2247, 2240, 2239, 2246, 2248, 2241
564, 2239, 2246, 2248, 2241, 2184, 1225, 2249, 2242
565, 2240, 2247, 1242, 2243, 2241, 2248, 2250, 2244
566, 2241, 2248, 2250, 2244, 2242, 2249, 1251, 2245
567, 1220, 2184, 2242, 2226, 2170, 2185, 2251, 2235
568, 2170, 2185, 2251, 2235, 1221, 2186, 2252, 2236
569, 2226, 2242, 2245, 1247, 2235, 2251, 2253, 2237
570, 2235, 2251, 2253, 2237, 2236, 2252, 2254, 1248
571, 2184, 1225, 2249, 2242, 2185, 2190, 2255, 2251
572, 2185, 2190, 2255, 2251, 2186, 89, 2256, 2252
573, 2242, 2249, 1251, 2245, 2251, 2255, 2257, 2253
574, 2251, 2255, 2257, 2253, 2252, 2256, 1252, 2254
575, 1235, 1242, 93, 1238, 1247, 1251, 1253, 1249
576, 1247, 1251, 1253, 1249, 1248, 1252, 95, 1250
577, 2, 1254, 1257, 928, 927, 1255, 1258, 929
578, 927, 1255, 1258, 929, 6, 1256, 1259, 930
579, 928, 1257, 1260, 3, 929, 1258, 1261, 931
580, 929, 1258, 1261, 931, 930, 1259, 1262, 7
581, 1254, 97, 1264, 1257, 1255, 1263, 1265, 1258
582, 1255, 1263, 1265, 1258, 1256, 99, 1266, 1259
583, 1257, 1264, 98, 1260, 1258, 1265, 1267, 1261
584, 1258, 1265, 1267, 1261, 1259, 1266, 100, 1262
585, 6, 1256, 1259, 930, 942, 1268, 1270, 943
586, 942, 1268, 1270, 943, 10, 1269, 1271, 944
587, 930, 1259, 1262, 7, 943, 1270, 1272, 945
588, 943, 1270, 1272, 945, 944, 1271, 1273, 11
589, 1256, 99, 1266, 1259, 1268, 1274, 1275, 1270
590, 1268, 1274, 1275, 1270, 1269, 101, 1276, 1271
591, 1259, 1266, 100, 1262, 1270, 1275, 1277, 1272
592, 1270, 1275, 1277, 1272, 1271, 1276, 102, 1273
593, 10, 101, 102, 11, 14, 103, 104, 15
594, 14, 103, 104, 15, 18, 105, 106, 19
595, 18, 2258, 2261, 972, 984, 2259, 2262, 985
596, 984, 2259, 2262, 985, 22, 2260, 2263, 986
597, 972, 2261, 2264, 19, 985, 2262, 2265, 987
598, 985, 2262, 2265, 987, 986, 2263, 2266, 23
599, 2258, 105, 2268, 2261, 2259, 2267, 2269, 2262
600, 2259, 2267, 2269, 2262, 2260, 107, 2270, 2263
601, 2261, 2268, 106, 2264, 2262, 2269, 2271, 2265
602, 2262, 2269, 2271, 2265, 2263, 2270, 108, 2266
603, 3, 1260, 1278, 998, 931, 1261, 1279, 999
604, 931, 1261, 1279, 999, 7, 1262, 1280, 1000
605, 998, 1278, 1281, 25, 999, 1279, 1282, 1001
606, 999, 1279, 1282, 1001, 1000, 1280, 1283, 27
607, 1260, 98, 1284, 1278, 1261, 1267, 1285, 1279
608, 1261, 1267, 1285, 1279, 1262, 100, 1286, 1280
609, 1278, 1284, 109, 1281, 1279, 1285, 1287, 1282
610, 1279, 1285, 1287, 1282, 1280, 1286, 110, 1283
611, 7, 1262, 1280, 1000, 945, 1272, 1288, 1009
612, 945, 1272, 1288, 1009, 11, 1273, 1289, 1010
613, 1000, 1280, 1283, 27, 1009, 1288, 1290, 1011
614, 1009, 1288, 1290, 1011, 1010, 1289, 1291, 29
615, 1262, 100, 1286, 1280, 1272, 1277, 1292, 1288
616, 1272, 1277, 1292, 1288, 1273, 102, 1293, 1289
617, 1280, 1286, 110, 1283, 1288, 1292, 1294, 1290
618, 1288, 1292, 1294, 1290, 1289, 1293, 111, 1291
619, 11, 102, 111, 29, 15, 104, 112, 31
620, 15, 104, 112, 31, 19, 106, 113, 33
621, 19, 2264, 2272, 1030, 987, 2265, 2273, 1039
622, 987, 2265, 2273, 1039, 23, 2266, 2274, 1040
623, 1030, 2272, 2275, 33, 1039, 2273, 2276, 1041
624, 1039, 2273, 2276, 1041, 1040, 2274, 2277, 35
625, 2264, 106, 2278, 2272, 2265, 2271, 2279, 2273
626, 2265, 2271, 2279, 2273, 2266, 108, 2280, 2274
627, 2272, 2278, 113, 2275, 2273, 2279, 2281, 2276
628, 2273, 2279, 2281, 2276, 2274, 2280, 114, 2277
629, 38, 115, 116, 39, 42, 117, 118, 43
630, 42, 117, 118, 43, 46, 119, 120, 47
631, 39, 116, 121, 49, 43, 118, 122, 51
632, 43, 118, 122, 51, 47, 120, 123, 53
633, 49, 121, 124, 55, 51, 122, 125, 57
634, 51, 122, 125, 57, 53, 123, 126, 59
635, 55, 2282, 2285, 1126, 1106, 2283, 2286, 1127
636, 1106, 2283, 2286, 1127, 57, 2284, 2287, 1128
637, 1126, 2285, 2260, 22, 1127, 2286, 2288, 1129
638, 1127, 2286, 2288, 1129, 1128, 2287, 2289, 61
639, 2282, 124, 2291, 2285, 2283, 2290, 2292, 2286
640, 2283, 2290, 2292, 2286, 2284, 125, 2293, 2287
641, 2285, 2291, 107, 2260, 2286, 2292, 2294, 2288
642, 2286, 2292, 2294, 2288, 2287, 2293, 127, 2289
643, 57, 2284, 2287, 1128, 1116, 2295, 2297, 1137
644, 1116, 2295, 2297, 1137, 59, 2296, 2298, 1138
645, 1128, 2287, 2289, 61, 1137, 2297, 2299, 1139
646, 1137, 2297, 2299, 1139, 1138, 2298, 2300, 63
647, 2284, 125, 2293, 2287, 2295, 2301, 2302, 2297
648, 2295, 2301, 2302, 2297, 2296, 126, 2303, 2298
649, 2287, 2293, 127, 2289, 2297, 2302, 2304, 2299
650, 2297, 2302, 2304, 2299, 2298, 2303, 128, 2300
651, 22, 2260, 2263, 986, 1129, 2288, 2305, 1147
652, 1129, 2288, 2305, 1147, 61, 2289, 2306, 1148
653, 986, 2263, 2266, 23, 1147, 2305, 2307, 1149
654, 1147, 2305, 2307, 1149, 1148, 2306, 2308, 65
655, 2260, 107, 2270, 2263, 2288, 2294, 2309, 2305
656, 2288, 2294, 2309, 2305, 2289, 127, 2310, 2306
657, 2263, 2270, 108, 2266, 2305, 2309, 2311, 2307
658, 2305, 2309, 2311, 2307, 2306, 2310, 129, 2308
659, 61, 2289, 2306, 1148, 1139, 2299, 2312, 1948
660, 1139, 2299, 2312, 1948, 63, 2300, 2313, 1949
661, 1148, 2306, 2308, 65, 1948, 2312, 2314, 1950
662, 1948, 2312, 2314, 1950, 1949, 2313, 2315, 67
663, 2289, 127, 2310, 2306, 2299, 2304, 2316, 2312
664, 2299, 2304, 2316, 2312, 2300, 128, 2317, 2313
665, 2306, 2310, 129, 2308, 2312, 2316, 2318, 2314
666, 2312, 2316, 2318, 2314, 2313, 2317, 130, 2315
667, 23, 2266, 2274, 1040, 1149, 2307, 2319, 1157
668, 1149, 2307, 2319, 1157, 65, 2308, 2320, 1158
669, 1040, 2274, 2277, 35, 1157, 2319, 2321, 1159
670, 1157, 2319, 2321, 1159, 1158, 2320, 2322, 69
671, 2266, 108, 2280, 2274, 2307, 2311, 2323, 2319
672, 2307, 2311, 2323, 2319, 2308, 129, 2324, 2320
673, 2274, 2280, 114, 2277, 2319, 2323, 2325, 2321
674, 2319, 2323, 2325, 2321, 2320, 2324, 131, 2322
675, 65, 2308, 2320, 1158, 1950, 2314, 2326, 1955
676, 1950, 2314, 2326, 1955, 67, 2315, 2327, 1956
677, 1158, 2320, 2322, 69, 1955, 2326, 2328, 1184
678, 1955, 2326, 2328, 1184, 1956, 2327, 2329, 71
679, 2308, 129, 2324, 2320, 2314, 2318, 2330, 2326
680, 2314, 2318, 2330, 2326, 2315, 130, 2331, 2327
681, 2320, 2324, 131, 2322, 2326, 2330, 2332, 2328
682, 2326, 2330, 2332, 2328, 2327, 2331, 132, 2329
683, 35, 2277, 2333, 1170, 1159, 2321, 2334, 1171
684, 1159, 2321, 2334, 1171, 69, 2322, 2335, 1172
685, 1170, 2333, 2336, 73, 1171, 2334, 2337, 1173
686, 1171, 2334, 2337, 1173, 1172, 2335, 2338, 75
687, 2277, 114, 2339, 2333, 2321, 2325, 2340, 2334
688, 2321, 2325, 2340, 2334, 2322, 131, 2341, 2335
689, 2333, 2339, 133, 2336, 2334, 2340, 2342, 2337
690, 2334, 2340, 2342, 2337, 2335, 2341, 134, 2338
691, 69, 2322, 2335, 1172, 1184, 2328, 2343, 1185
692, 1184, 2328, 2343, 1185, 71, 2329, 2344, 1186
693, 1172, 2335, 2338, 75, 1185, 2343, 2345, 1187
694, 1185, 2343, 2345, 1187, 1186, 2344, 2346, 77
695, 2322, 131, 2341, 2335, 2328, 2332, 2347, 2343
696, 2328, 2332, 2347, 2343, 2329, 132, 2348, 2344
697, 2335, 2341, 134, 2338, 2343, 2347, 2349, 2345
698, 2343, 2347, 2349, 2345, 2344, 2348, 135, 2346
699, 73, 133, 136, 79, 75, 134, 137, 81
700, 75, 134, 137, 81, 77, 135, 138, 83
701, 79, 136, 139, 85, 81, 137, 140, 87
702, 81, 137, 140, 87, 83, 138, 141, 89
703, 85, 139, 142, 91, 87, 140, 143, 93
704, 87, 140, 143, 93, 89, 141, 144, 95
705, 97, 2350, 2353, 1264, 1263, 2351, 2354, 1265
706, 1263, 2351, 2354, 1265, 99, 2352, 2355, 1266
707, 1264, 2353, 2356, 98, 1265, 2354, 2357, 1267
708, 1265, 2354, 2357, 1267, 1266, 2355, 2358, 100
709, 2350, 145, 2360, 2353, 2351, 2359, 2361, 2354
710, 2351, 2359, 2361, 2354, 2352, 147, 2362, 2355
711, 2353, 2360, 146, 2356, 2354, 2361, 2363, 2357
712, 2354, 2361, 2363, 2357, 2355, 2362, 148, 2358
713, 99, 2352, 2355, 1266, 1274, 2364, 2366, 1275
714, 1274, 2364, 2366, 1275, 101, 2365, 2367, 1276
715, 1266, 2355, 2358, 100, 1275, 2366, 2368, 1277
716, 1275, 2366, 2368, 1277, 1276, 2367, 2369, 102
717, 2352, 147, 2362, 2355, 2364, 2370, 2371, 2366
718, 2364, 2370, 2371, 2366, 2365, 149, 2372, 2367
719, 2355, 2362, 148, 2358, 2366, 2371, 2373, 2368
720, 2366, 2371, 2373, 2368, 2367, 2372, 150, 2369
721, 101, 2365, 2367, 1276, 2374, 2378, 2380, 2375
722, 2374, 2378, 2380, 2375, 103, 2379, 2381, 2376
723, 1276, 2367, 2369, 102, 2375, 2380, 2382, 2377
724, 2375, 2380, 2382, 2377, 2376, 2381, 2383, 104
725, 2365, 149, 2372, 2367, 2378, 2384, 2385, 2380
726, 2378, 2384, 2385, 2380, 2379, 151, 2386, 2381
727, 2367, 2372, 150, 2369, 2380, 2385, 2387, 2382
728, 2380, 2385, 2387, 2382, 2381, 2386, 152, 2383
729, 103, 151, 152, 104, 105, 153, 154, 106
730, 105, 153, 154, 106, 107, 155, 156, 108
731, 98, 2356, 2388, 1284, 1267, 2357, 2389, 1285
732, 1267, 2357, 2389, 1285, 100, 2358, 2390, 1286
733, 1284, 2388, 2391, 109, 1285, 2389, 2392, 1287
734, 1285, 2389, 2392, 1287, 1286, 2390, 2393, 110
735, 2356, 146, 2394, 2388, 2357, 2363, 2395, 2389
736, 2357, 2363, 2395, 2389, 2358, 148, 2396, 2390
737, 2388, 2394, 157, 2391, 2389, 2395, 2397, 2392
738, 2389, 2395, 2397, 2392, 2390, 2396, 158, 2393
739, 100, 2358, 2390, 1286, 1277, 2368, 2398, 1292
740, 1277, 2368, 2398, 1292, 102, 2369, 2399, 1293
741, 1286, 2390, 2393, 110, 1292, 2398, 2400, 1294
742, 1292, 2398, 2400, 1294, 1293, 2399, 2401, 111
743, 2358, 148, 2396, 2390, 2368, 2373, 2402, 2398
744, 2368, 2373, 2402, 2398, 2369, 150, 2403, 2399
745, 2390, 2396, 158, 2393, 2398, 2402, 2404, 2400
746, 2398, 2402, 2404, 2400, 2399, 2403, 159, 2401
747, 102, 2369, 2399, 1293, 2377, 2382, 2408, 2405
748, 2377, 2382, 2408, 2405, 104, 2383, 2409, 2406
749, 1293, 2399, 2401, 111, 2405, 2408, 2410, 2407
750, 2405, 2408, 2410, 2407, 2406, 2409, 2411, 112
751, 2369, 150, 2403, 2399, 2382, 2387, 2412, 2408
752, 2382, 2387, 2412, 2408, 2383, 152, 2413, 2409
753, 2399, 2403, 159, 2401, 2408, 2412, 2414, 2410
754, 2408, 2412, 2414, 2410, 2409, 2413, 160, 2411
755, 104, 152, 160, 112, 106, 154, 161, 113
756, 106, 154, 161, 113, 108, 156, 162, 114
757, 115, 163, 164, 116, 117, 165, 166, 118
758, 117, 165, 166, 118, 119, 167, 168, 120
759, 116, 164, 169, 121, 118, 166, 170, 122
760, 118, 166, 170, 122, 120, 168, 171, 123
761, 121, 169, 172, 124, 122, 170, 173, 125
762, 122, 170, 173, 125, 123, 171, 174, 126
763, 124, 172, 155, 107, 125, 173, 175, 127
764, 125, 173, 175, 127, 126, 174, 176, 128
765, 107, 155, 156, 108, 127, 175, 177, 129
766, 127, 175, 177, 129, 128, 176, 178, 130
767, 108, 156, 162, 114, 129, 177, 179, 131
768, 129, 177, 179, 131, 130, 178, 180, 132
769, 114, 162, 181, 133, 131, 179, 182, 134
770, 131, 179, 182, 134, 132, 180, 183, 135
771, 133, 181, 184, 136, 134, 182, 185, 137
772, 134, 182, 185, 137, 135, 183, 186, 138
773, 136, 184, 187, 139, 137, 185, 188, 140
774, 137, 185, 188, 140, 138, 186, 189, 141
775, 139, 187, 190, 142, 140, 188, 191, 143
776, 140, 188, 191, 143, 141, 189, 192, 144
777, 145, 2415, 2418, 2360, 2359, 2416, 2419, 2361
778, 2359, 2416, 2419, 2361, 147, 2417, 2420, 2362
779, 2360, 2418, 2421, 146, 2361, 2419, 2422, 2363
780, 2361, 2419, 2422, 2363, 2362, 2420, 2423, 148
781, 2415, 193, 2425, 2418, 2416, 2424, 2426, 2419
782, 2416, 2424, 2426, 2419, 2417, 195, 2427, 2420
783, 2418, 2425, 194, 2421, 2419, 2426, 2428, 2422
784, 2419, 2426, 2428, 2422, 2420, 2427, 196, 2423
785, 147, 195, 196, 148, 149, 197, 198, 150
786, 149, 197, 198, 150, 151, 199, 200, 152
787, 151, 199, 200, 152, 153, 201, 202, 154
788, 153, 201, 202, 154, 155, 203, 204, 156
789, 146, 2421, 2429, 2394, 2363, 2422, 2430, 2395
790, 2363, 2422, 2430, 2395, 148, 2423, 2431, 2396
791, 2394, 2429, 2432, 157, 2395, 2430, 2433, 2397
792, 2395, 2430, 2433, 2397, 2396, 2431, 2434, 158
793, 2421, 194, 2435, 2429, 2422, 2428, 2436, 2430
794, 2422, 2428, 2436, 2430, 2423, 196, 2437, 2431
795, 2429, 2435, 205, 2432, 2430, 2436, 2438, 2433
796, 2430, 2436, 2438, 2433, 2431, 2437, 206, 2434
797, 148, 196, 206, 158, 150, 198, 207, 159
798, 150, 198, 207, 159, 152, 200, 208, 160
799, 152, 200, 208, 160, 154, 202, 209, 161
800, 154, 202, 209, 161, 156, 204, 210, 162
801, 163, 211, 212, 164, 165, 213, 214, 166
802, 165, 213, 214, 166, 167, 215, 216, 168
803, 164, 212, 217, 169, 166, 214, 218, 170
804, 166, 214, 218, 170, 168, 216, 219, 171
805, 169, 217, 220, 172, 170, 218, 221, 173
806, 170, 218, 221, 173, 171, 219, 222, 174
807, 172, 220, 203, 155, 173, 221, 223, 175
808, 173, 221, 223, 175, 174, 222, 224, 176
809, 155, 203, 204, 156, 175, 223, 225, 177
810, 175, 223, 225, 177, 176, 224, 226, 178
811, 156, 204, 210, 162, 177, 225, 227, 179
812, 177, 225, 227, 179, 178, 226, 228, 180
813, 162, 210, 229, 181, 179, 227, 230, 182
814, 179, 227, 230, 182, 180, 228, 231, 183
815, 181, 229, 232, 184, 182, 230, 233, 185
816, 182, 230, 233, 185, 183, 231, 234, 186
817, 184, 232, 235, 187, 185, 233, 236, 188
818, 185, 233, 236, 188, 186, 234, 237, 189
819, 187, 235, 238, 190, 188, 236, 239, 191
820, 188, 236, 239, 191, 189, 237, 240, 192
821, 193, 2439, 2442, 2425, 2424, 2440, 2443, 2426
822, 2424, 2440, 2443, 2426, 195, 2441, 2444, 2427
823, 2425, 2442, 2445, 194, 2426, 2443, 2446, 2428
824, 2426, 2443, 2446, 2428, 2427, 2444, 2447, 196
825, 2439, 241, 2449, 2442, 2440, 2448, 2450, 2443
826, 2440, 2448, 2450, 2443, 2441, 243, 2451, 2444
827, 2442, 2449, 242, 2445, 2443, 2450, 2452, 2446
828, 2443, 2450, 2452, 2446, 2444, 2451, 244, 2447
829, 195, 243, 244, 196, 197, 245, 246, 198
830, 197, 245, 246, 198, 199, 247, 248, 200
831, 199, 247, 248, 200, 201, 249, 250, 202
832, 201, 249, 250, 202, 203, 251, 252, 204
833, 194, 2445, 2453, 2435, 2428, 2446, 2454, 2436
834, 2428, 2446, 2454, 2436, 196, 2447, 2455, 2437
835, 2435, 2453, 2456, 205, 2436, 2454, 2457, 2438
836, 2436, 2454, 2457, 2438, 2437, 2455, 2458, 206
837, 2445, 242, 2459, 2453, 2446, 2452, 2460, 2454
838, 2446, 2452, 2460, 2454, 2447, 244, 2461, 2455
839, 2453, 2459, 253, 2456, 2454, 2460, 2462, 2457
840, 2454, 2460, 2462, 2457, 2455, 2461, 254, 2458
841, 196, 244, 254, 206, 198, 246, 255, 207
842, 198, 246, 255, 207, 200, 248, 256, 208
843, 200, 248, 256, 208, 202, 250, 257, 209
844, 202, 250, 257, 209, 204, 252, 258, 210
845, 211, 259, 260, 212, 213, 261, 262, 214
846, 213, 261, 262, 214, 215, 263, 264, 216
847, 212, 260, 265, 217, 214, 262, 266, 218
848, 214, 262, 266, 218, 216, 264, 267, 219
849, 217, 265, 268, 220, 218, 266, 269, 221
850, 218, 266, 269, 221, 219, 267, 270, 222
851, 220, 268, 251, 203, 221, 269, 271, 223
852, 221, 269, 271, 223, 222, 270, 272, 224
853, 203, 251, 252, 204, 223, 271, 273, 225
854, 223, 271, 273, 225, 224, 272, 274, 226
855, 204, 252, 258, 210, 225, 273, 275, 227
856, 225, 273, 275, 227, 226, 274, 276, 228
857, 210, 258, 277, 229, 227, 275, 278, 230
858, 227, 275, 278, 230, 228, 276, 279, 231
859, 229, 277, 280, 232, 230, 278, 281, 233
860, 230, 278, 281, 233, 231, 279, 282, 234
861, 232, 280, 283, 235, 233, 281, 284, 236
862, 233, 281, 284, 236, 234, 282, 285, 237
863, 235, 283, 286, 238, 236, 284, 287, 239
864, 236, 284, 287, 239, 237, 285, 288, 240
865, 241, 2463, 2466, 2449, 2448, 2464, 2467, 2450
866, 2448, 2464, 2467, 2450, 243, 2465, 2468, 2451
867, 2449, 2466, 2469, 242, 2450, 2467, 2470, 2452
868, 2450, 2467, 2470, 2452, 2451, 2468, 2471, 244
869, 2463, 289, 2473, 2466, 2464, 2472, 2474, 2467
870, 2464, 2472, 2474, 2467, 2465, 291, 2475, 2468
871, 2466, 2473, 290, 2469, 2467, 2474, 2476, 2470
872, 2467, 2474, 2476, 2470, 2468, 2475, 292, 2471
873, 243, 291, 292, 244, 245, 293, 294, 246
874, 245, 293, 294, 246, 247, 295, 296, 248
875, 247, 295, 296, 248, 249, 297, 298, 250
876, 249, 297, 298, 250, 251, 299, 300, 252
877, 242, 2469, 2477, 2459, 2452, 2470, 2478, 2460
878, 2452, 2470, 2478, 2460, 244, 2471, 2479, 2461
879, 2459, 2477, 2480, 253, 2460, 2478, 2481, 2462
880, 2460, 2478, 2481, 2462, 2461, 2479, 2482, 254
881, 2469, 290, 2483, 2477, 2470, 2476, 2484, 2478
882, 2470, 2476, 2484, 2478, 2471, 292, 2485, 2479
883, 2477, 2483, 301, 2480, 2478, 2484, 2486, 2481
884, 2478, 2484, 2486, 2481, 2479, 2485, 302, 2482
885, 244, 292, 302, 254, 246, 294, 303, 255
886, 246, 294, 303, 255, 248, 296, 304, 256
887, 248, 296, 304, 256, 250, 298, 305, 257
888, 250, 298, 305, 257, 252, 300, 306, 258
889, 259, 307, 308, 260, 261, 309, 310, 262
890, 261, 309, 310, 262, 263, 311, 312, 264
891, 260, 308, 313, 265, 262, 310, 314, 266
892, 262, 310, 314, 266, 264, 312, 315, 267
893, 265, 313, 316, 268, 266, 314, 317, 269
894, 266, 314, 317, 269, 267, 315, 318, 270
895, 268, 316, 299, 251, 269, 317, 319, 271
896, 269, 317, 319, 271, 270, 318, 320, 272
897, 251, 299, 300, 252, 271, 319, 321, 273
898, 271, 319, 321, 273, 272, 320, 322, 274
899, 252, 300, 306, 258, 273, 321, 323, 275
900, 273, 321, 323, 275, 274, 322, 324, 276
901, 258, 306, 325, 277, 275, 323, 326, 278
902, 275, 323, 326, 278, 276, 324, 327, 279
903, 277, 325, 328, 280, 278, 326, 329, 281
904, 278, 326, 329, 281, 279, 327, 330, 282
905, 280, 328, 331, 283, 281, 329, 332, 284
906, 281, 329, 332, 284, 282, 330, 333, 285
907, 283, 331, 334, 286, 284, 332, 335, 287
908, 284, 332, 335, 287, 285, 333, 336, 288
909, 289, 2487, 2490, 2473, 2472, 2488, 2491, 2474
910, 2472, 2488, 2491, 2474, 291, 2489, 2492, 2475
911, 2473, 2490, 2493, 290, 2474, 2491, 2494, 2476
912, 2474, 2491, 2494, 2476, 2475, 2492, 2495, 292
913, 2487, 337, 2497, 2490, 2488, 2496, 2498, 2491
914, 2488, 2496, 2498, 2491, 2489, 339, 2499, 2492
915, 2490, 2497, 338, 2493, 2491, 2498, 2500, 2494
916, 2491, 2498, 2500, 2494, 2492, 2499, 340, 2495
917, 291, 339, 340, 292, 293, 341, 342, 294
918, 293, 341, 342, 294, 295, 343, 344, 296
919, 295, 343, 344, 296, 297, 345, 346, 298
920, 297, 345, 346, 298, 299, 347, 348, 300
921, 290, 2493, 2501, 2483, 2476, 2494, 2502, 2484
922, 2476, 2494, 2502, 2484, 292, 2495, 2503, 2485
923, 2483, 2501, 2504, 301, 2484, 2502, 2505, 2486
924, 2484, 2502, 2505, 2486, 2485, 2503, 2506, 302
925, 2493, 338, 2507, 2501, 2494, 2500, 2508, 2502
926, 2494, 2500, 2508, 2502, 2495, 340, 2509, 2503
927, 2501, 2507, 349, 2504, 2502, 2508, 2510, 2505
928, 2502, 2508, 2510, 2505, 2503, 2509, 350, 2506
929, 292, 340, 350, 302, 294, 342, 351, 303
930, 294, 342, 351, 303, 296, 344, 352, 304
931, 296, 344, 352, 304, 298, 346, 353, 305
932, 298, 346, 353, 305, 300, 348, 354, 306
933, 307, 355, 356, 308, 309, 357, 358, 310
934, 309, 357, 358, 310, 311, 359, 360, 312
935, 308, 356, 361, 313, 310, 358, 362, 314
936, 310, 358, 362, 314, 312, 360, 363, 315
937, 313, 361, 364, 316, 314, 362, 365, 317
938, 314, 362, 365, 317, 315, 363, 366, 318
939, 316, 364, 347, 299, 317, 365, 367, 319
940, 317, 365, 367, 319, 318, 366, 368, 320
941, 299, 347, 348, 300, 319, 367, 369, 321
942, 319, 367, 369, 321, 320, 368, 370, 322
943, 300, 348, 354, 306, 321, 369, 371, 323
944, 321, 369, 371, 323, 322, 370, 372, 324
945, 306, 354, 373, 325, 323, 371, 374, 326
946, 323, 371, 374, 326, 324, 372, 375, 327
947, 325, 373, 376, 328, 326, 374, 377, 329
948, 326, 374, 377, 329, 327, 375, 378, 330
949, 328, 376, 379, 331, 329, 377, 380, 332
950, 329, 377, 380, 332, 330, 378, 381, 333
951, 331, 379, 382, 334, 332, 380, 383, 335
952, 332, 380, 383, 335, 333, 381, 384, 336
953, 337, 2511, 2514, 2497, 2496, 2512, 2515, 2498
954, 2496, 2512, 2515, 2498, 339, 2513, 2516, 2499
955, 2497, 2514, 2517, 338, 2498, 2515, 2518, 2500
956, 2498, 2515, 2518, 2500, 2499, 2516, 2519, 340
957, 2511, 385, 2521, 2514, 2512, 2520, 2522, 2515
958, 2512, 2520, 2522, 2515, 2513, 387, 2523, 2516
959, 2514, 2521, 386, 2517, 2515, 2522, 2524, 2518
960, 2515, 2522, 2524, 2518, 2516, 2523, 388, 2519
961, 339, 387, 388, 340, 341, 389, 390, 342
962, 341, 389, 390, 342, 343, 391, 392, 344
963, 343, 391, 392, 344, 345, 393, 394, 346
964, 345, 393, 394, 346, 347, 395, 396, 348
965, 338, 2517, 2525, 2507, 2500, 2518, 2526, 2508
966, 2500, 2518, 2526, 2508, 340, 2519, 2527, 2509
967, 2507, 2525, 2528, 349, 2508, 2526, 2529, 2510
968, 2508, 2526, 2529, 2510, 2509, 2527, 2530, 350
969, 2517, 386, 2531, 2525, 2518, 2524, 2532, 2526
970, 2518, 2524, 2532, 2526, 2519, 388, 2533, 2527
971, 2525, 2531, 397, 2528, 2526, 2532, 2534, 2529
972, 2526, 2532, 2534, 2529, 2527, 2533, 398, 2530
973, 340, 388, 398, 350, 342, 390, 399, 351
974, 342, 390, 399, 351, 344, 392, 400, 352
975, 344, 392, 400, 352, 346, 394, 401, 353
976, 346, 394, 401, 353, 348, 396, 402, 354
977, 355, 403, 404, 356, 357, 405, 406, 358
978, 357, 405, 406, 358, 359, 407, 408, 360
979, 356, 404, 409, 361, 358, 406, 410, 362
980, 358, 406, 410, 362, 360, 408, 411, 363
981, 361, 409, 412, 364, 362, 410, 413, 365
982, 362, 410, 413, 365, 363, 411, 414, 366
983, 364, 412, 395, 347, 365, 413, 415, 367
984, 365, 413, 415, 367, 366, 414, 416, 368
985, 347, 395, 396, 348, 367, 415, 417, 369
986, 367, 415, 417, 369, 368, 416, 418, 370
987, 348, 396, 402, 354, 369, 417, 419, 371
988, 369, 417, 419, 371, 370, 418, 420, 372
989, 354, 402, 421, 373, 371, 419, 422, 374
990, 371, 419, 422, 374, 372, 420, 423, 375
991, 373, 421, 424, 376, 374, 422, 425, 377
992, 374, 422, 425, 377, 375, 423, 426, 378
993, 376, 424, 427, 379, 377, 425, 428, 380
994, 377, 425, 428, 380, 378, 426, 429, 381
995, 379, 427, 430, 382, 380, 428, 431, 383
996, 380, 428, 431, 383, 381, 429, 432, 384
997, 385, 2535, 2538, 2521, 2520, 2536, 2539, 2522
998, 2520, 2536, 2539, 2522, 387, 2537, 2540, 2523
999, 2521, 2538, 2541, 386, 2522, 2539, 2542, 2524
1000, 2522, 2539, 2542, 2524, 2523, 2540, 2543, 388
1001, 2535, 433, 2545, 2538, 2536, 2544, 2546, 2539
1002, 2536, 2544, 2546, 2539, 2537, 435, 2547, 2540
1003, 2538, 2545, 434, 2541, 2539, 2546, 2548, 2542
1004, 2539, 2546, 2548, 2542, 2540, 2547, 436, 2543
1005, 387, 435, 436, 388, 389, 437, 438, 390
1006, 389, 437, 438, 390, 391, 439, 440, 392
1007, 391, 439, 440, 392, 393, 441, 442, 394
1008, 393, 441, 442, 394, 395, 443, 444, 396
1009, 386, 2541, 2549, 2531, 2524, 2542, 2550, 2532
1010, 2524, 2542, 2550, 2532, 388, 2543, 2551, 2533
1011, 2531, 2549, 2552, 397, 2532, 2550, 2553, 2534
1012, 2532, 2550, 2553, 2534, 2533, 2551, 2554, 398
1013, 2541, 434, 2555, 2549, 2542, 2548, 2556, 2550
1014, 2542, 2548, 2556, 2550, 2543, 436, 2557, 2551
1015, 2549, 2555, 445, 2552, 2550, 2556, 2558, 2553
1016, 2550, 2556, 2558, 2553, 2551, 2557, 446, 2554
1017, 388, 436, 446, 398, 390, 438, 447, 399
1018, 390, 438, 447, 399, 392, 440, 448, 400
1019, 392, 440, 448, 400, 394, 442, 449, 401
1020, 394, 442, 449, 401, 396, 444, 450, 402
1021, 403, 451, 452, 404, 405, 453, 454, 406
1022, 405, 453, 454, 406, 407, 455, 456, 408
1023, 404, 452, 457, 409, 406, 454, 458, 410
1024, 406, 454, 458, 410, 408, 456, 459, 411
1025, 409, 457, 460, 412, 410, 458, 461, 413
1026, 410, 458, 461, 413, 411, 459, 462, 414
1027, 412, 460, 443, 395, 413, 461, 463, 415
1028, 413, 461, 463, 415, 414, 462, 464, 416
1029, 395, 443, 444, 396, 415, 463, 465, 417
1030, 415, 463, 465, 417, 416, 464, 466, 418
1031, 396, 444, 450, 402, 417, 465, 467, 419
1032, 417, 465, 467, 419, 418, 466, 468, 420
1033, 402, 450, 469, 421, 419, 467, 470, 422
1034, 419, 467, 470, 422, 420, 468, 471, 423
1035, 421, 469, 472, 424, 422, 470, 473, 425
1036, 422, 470, 473, 425, 423, 471, 474, 426
1037, 424, 472, 475, 427, 425, 473, 476, 428
1038, 425, 473, 476, 428, 426, 474, 477, 429
1039, 427, 475, 478, 430, 428, 476, 479, 431
1040, 428, 476, 479, 431, 429, 477, 480, 432
1041, 433, 2559, 2562, 2545, 2544, 2560, 2563, 2546
1042, 2544, 2560, 2563, 2546, 435, 2561, 2564, 2547
1043, 2545, 2562, 2565, 434, 2546, 2563, 2566, 2548
1044, 2546, 2563, 2566, 2548, 2547, 2564, 2567, 436
1045, 2559, 481, 2569, 2562, 2560, 2568, 2570, 2563
1046, 2560, 2568, 2570, 2563, 2561, 483, 2571, 2564
1047, 2562, 2569, 482, 2565, 2563, 2570, 2572, 2566
1048, 2563, 2570, 2572, 2566, 2564, 2571, 484, 2567
1049, 435, 483, 484, 436, 437, 485, 486, 438
1050, 437, 485, 486, 438, 439, 487, 488, 440
1051, 439, 487, 488, 440, 441, 489, 490, 442
1052, 441, 489, 490, 442, 443, 491, 492, 444
1053, 434, 2565, 2573, 2555, 2548, 2566, 2574, 2556
1054, 2548, 2566, 2574, 2556, 436, 2567, 2575, 2557
1055, 2555, 2573, 2576, 445, 2556, 2574, 2577, 2558
1056, 2556, 2574, 2577, 2558, 2557, 2575, 2578, 446
1057, 2565, 482, 2579, 2573, 2566, 2572, 2580, 2574
1058, 2566, 2572, 2580, 2574, 2567, 484, 2581, 2575
1059, 2573, 2579, 493, 2576, 2574, 2580, 2582, 2577
1060, 2574, 2580, 2582, 2577, 2575, 2581, 494, 2578
1061, 436, 484, 494, 446, 438, 486, 495, 447
1062, 438, 486, 495, 447, 440, 488, 496, 448
1063, 440, 488, 496, 448, 442, 490, 497, 449
1064, 442, 490, 497, 449, 444, 492, 498, 450
1065, 451, 499, 500, 452, 453, 501, 502, 454
1066, 453, 501, 502, 454, 455, 503, 504, 456
1067, 452, 500, 505, 457, 454, 502, 506, 458
1068, 454, 502, 506, 458, 456, 504, 507, 459
1069, 457, 505, 508, 460, 458, 506, 509, 461
1070, 458, 506, 509, 461, 459, 507, 510, 462
1071, 460, 508, 491, 443, 461, 509, 511, 463
1072, 461, 509, 511, 463, 462, 510, 512, 464
1073, 443, 491, 492, 444, 463, 511, 513, 465
1074, 463, 511, 513, 465, 464, 512, 514, 466
1075, 444, 492, 498, 450, 465, 513, 515, 467
1076, 465, 513, 515, 467, 466, 514, 516, 468
1077, 450, 498, 517, 469, 467, 515, 518, 470
1078, 467, 515, 518, 470, 468, 516, 519, 471
1079, 469, 517, 520, 472, 470, 518, 521, 473
1080, 470, 518, 521, 473, 471, 519, 522, 474
1081, 472, 520, 523, 475, 473, 521, 524, 476
1082, 473, 521, 524, 476, 474, 522, 525, 477
1083, 475, 523, 526, 478, 476, 524, 527, 479
1084, 476, 524, 527, 479, 477, 525, 528, 480
1085, 481, 2583, 2586, 2569, 2568, 2584, 2587, 2570
1086, 2568, 2584, 2587, 2570, 483, 2585, 2588, 2571
1087, 2569, 2586, 2589, 482, 2570, 2587, 2590, 2572
1088, 2570, 2587, 2590, 2572, 2571, 2588, 2591, 484
1089, 2583, 529, 2593, 2586, 2584, 2592, 2594, 2587
1090, 2584, 2592, 2594, 2587, 2585, 531, 2595, 2588
1091, 2586, 2593, 530, 2589, 2587, 2594, 2596, 2590
1092, 2587, 2594, 2596, 2590, 2588, 2595, 532, 2591
1093, 483, 531, 532, 484, 485, 533, 534, 486
1094, 485, 533, 534, 486, 487, 535, 536, 488
1095, 487, 535, 536, 488, 489, 537, 538, 490
1096, 489, 537, 538, 490, 491, 539, 540, 492
1097, 482, 2589, 2597, 2579, 2572, 2590, 2598, 2580
1098, 2572, 2590, 2598, 2580, 484, 2591, 2599, 2581
1099, 2579, 2597, 2600, 493, 2580, 2598, 2601, 2582
1100, 2580, 2598, 2601, 2582, 2581, 2599, 2602, 494
1101, 2589, 530, 2603, 2597, 2590, 2596, 2604, 2598
1102, 2590, 2596, 2604, 2598, 2591, 532, 2605, 2599
1103, 2597, 2603, 541, 2600, 2598, 2604, 2606, 2601
1104, 2598, 2604, 2606, 2601, 2599, 2605, 542, 2602
1105, 484, 532, 542, 494, 486, 534, 543, 495
1106, 486, 534, 543, 495, 488, 536, 544, 496
1107, 488, 536, 544, 496, 490, 538, 545, 497
1108, 490, 538, 545, 497, 492, 540, 546, 498
1109, 499, 547, 548, 500, 501, 549, 550, 502
1110, 501, 549, 550, 502, 503, 551, 552, 504
1111, 500, 548, 553, 505, 502, 550, 554, 506
1112, 502, 550, 554, 506, 504, 552, 555, 507
1113, 505, 553, 556, 508, 506, 554, 557, 509
1114, 506, 554, 557, 509, 507, 555, 558, 510
1115, 508, 556, 539, 491, 509, 557, 559, 511
1116, 509, 557, 559, 511, 510, 558, 560, 512
1117, 491, 539, 540, 492, 511, 559, 561, 513
1118, 511, 559, 561, 513, 512, 560, 562, 514
1119, 492, 540, 546, 498, 513, 561, 563, 515
1120, 513, 561, 563, 515, 514, 562, 564, 516
1121, 498, 546, 565, 517, 515, 563, 566, 518
1122, 515, 563, 566, 518, 516, 564, 567, 519
1123, 517, 565, 568, 520, 518, 566, 569, 521
1124, 518, 566, 569, 521, 519, 567, 570, 522
1125, 520, 568, 571, 523, 521, 569, 572, 524
1126, 521, 569, 572, 524, 522, 570, 573, 525
1127, 523, 571, 574, 526, 524, 572, 575, 527
1128, 524, 572, 575, 527, 525, 573, 576, 528
1129, 529, 2607, 2610, 2593, 2592, 2608, 2611, 2594
1130, 2592, 2608, 2611, 2594, 531, 2609, 2612, 2595
1131, 2593, 2610, 2613, 530, 2594, 2611, 2614, 2596
1132, 2594, 2611, 2614, 2596, 2595, 2612, 2615, 532
1133, 2607, 577, 2617, 2610, 2608, 2616, 2618, 2611
1134, 2608, 2616, 2618, 2611, 2609, 579, 2619, 2612
1135, 2610, 2617, 578, 2613, 2611, 2618, 2620, 2614
1136, 2611, 2618, 2620, 2614, 2612, 2619, 580, 2615
1137, 531, 579, 580, 532, 533, 581, 582, 534
1138, 533, 581, 582, 534, 535, 583, 584, 536
1139, 535, 583, 584, 536, 537, 585, 586, 538
1140, 537, 585, 586, 538, 539, 587, 588, 540
1141, 530, 2613, 2621, 2603, 2596, 2614, 2622, 2604
1142, 2596, 2614, 2622, 2604, 532, 2615, 2623, 2605
1143, 2603, 2621, 2624, 541, 2604, 2622, 2625, 2606
1144, 2604, 2622, 2625, 2606, 2605, 2623, 2626, 542
1145, 2613, 578, 2627, 2621, 2614, 2620, 2628, 2622
1146, 2614, 2620, 2628, 2622, 2615, 580, 2629, 2623
1147, 2621, 2627, 589, 2624, 2622, 2628, 2630, 2625
1148, 2622, 2628, 2630, 2625, 2623, 2629, 590, 2626
1149, 532, 580, 590, 542, 534, 582, 591, 543
1150, 534, 582, 591, 543, 536, 584, 592, 544
1151, 536, 584, 592, 544, 538, 586, 593, 545
1152, 538, 586, 593, 545, 540, 588, 594, 546
1153, 547, 595, 596, 548, 549, 597, 598, 550
1154, 549, 597, 598, 550, 551, 599, 600, 552
1155, 548, 596, 601, 553, 550, 598, 602, 554
1156, 550, 598, 602, 554, 552, 600, 603, 555
1157, 553, 601, 604, 556, 554, 602, 605, 557
1158, 554, 602, 605, 557, 555, 603, 606, 558
1159, 556, 604, 587, 539, 557, 605, 607, 559
1160, 557, 605, 607, 559, 558, 606, 608, 560
1161, 539, 587, 588, 540, 559, 607, 609, 561
1162, 559, 607, 609, 561, 560, 608, 610, 562
1163, 540, 588, 594, 546, 561, 609, 611, 563
1164, 561, 609, 611, 563, 562, 610, 612, 564
1165, 546, 594, 613, 565, 563, 611, 614, 566
1166, 563, 611, 614, 566, 564, 612, 615, 567
1167, 565, 613, 616, 568, 566, 614, 617, 569
1168, 566, 614, 617, 569, 567, 615, 618, 570
1169, 568, 616, 619, 571, 569, 617, 620, 572
1170, 569, 617, 620, 572, 570, 618, 621, 573
1171, 571, 619, 622, 574, 572, 620, 623, 575
1172, 572, 620, 623, 575, 573, 621, 624, 576
1173, 577, 2631, 2634, 2617, 2616, 2632, 2635, 2618
1174, 2616, 2632, 2635, 2618, 579, 2633, 2636, 2619
1175, 2617, 2634, 2637, 578, 2618, 2635, 2638, 2620
1176, 2618, 2635, 2638, 2620, 2619, 2636, 2639, 580
1177, 2631, 625, 2641, 2634, 2632, 2640, 2642, 2635
1178, 2632, 2640, 2642, 2635, 2633, 627, 2643, 2636
1179, 2634, 2641, 626, 2637, 2635, 2642, 2644, 2638
1180, 2635, 2642, 2644, 2638, 2636, 2643, 628, 2639
1181, 579, 627, 628, 580, 581, 629, 630, 582
1182, 581, 629, 630, 582, 583, 631, 632, 584
1183, 583, 631, 632, 584, 585, 633, 634, 586
1184, 585, 633, 634, 586, 587, 635, 636, 588
1185, 578, 2637, 2645, 2627, 2620, 2638, 2646, 2628
1186, 2620, 2638, 2646, 2628, 580, 2639, 2647, 2629
1187, 2627, 2645, 2648, 589, 2628, 2646, 2649, 2630
1188, 2628, 2646, 2649, 2630, 2629, 2647, 2650, 590
1189, 2637, 626, 2651, 2645, 2638, 2644, 2652, 2646
1190, 2638, 2644, 2652, 2646, 2639, 628, 2653, 2647
1191, 2645, 2651, 637, 2648, 2646, 2652, 2654, 2649
1192, 2646, 2652, 2654, 2649, 2647, 2653, 638, 2650
1193, 580, 628, 638, 590, 582, 630, 639, 591
1194, 582, 630, 639, 591, 584, 632, 640, 592
1195, 584, 632, 640, 592, 586, 634, 641, 593
1196, 586, 634, 641, 593, 588, 636, 642, 594
1197, 595, 643, 644, 596, 597, 645, 646, 598
1198, 597, 645, 646, 598, 599, 647, 648, 600
1199, 596, 644, 649, 601, 598, 646, 650, 602
1200, 598, 646, 650, 602, 600, 648, 651, 603
1201, 601, 649, 652, 604, 602, 650, 653, 605
1202, 602, 650, 653, 605, 603, 651, 654, 606
1203, 604, 652, 635, 587, 605, 653, 655, 607
1204, 605, 653, 655, 607, 606, 654, 656, 608
1205, 587, 635, 636, 588, 607, 655, 657, 609
1206, 607, 655, 657, 609, 608, 656, 658, 610
1207, 588, 636, 642, 594, 609, 657, 659, 611
1208, 609, 657, 659, 611, 610, 658, 660, 612
1209, 594, 642, 661, 613, 611, 659, 662, 614
1210, 611, 659, 662, 614, 612, 660, 663, 615
1211, 613, 661, 664, 616, 614, 662, 665, 617
1212, 614, 662, 665, 617, 615, 663, 666, 618
1213, 616, 664, 667, 619, 617, 665, 668, 620
1214, 617, 665, 668, 620, 618, 666, 669, 621
1215, 619, 667, 670, 622, 620, 668, 671, 623
1216, 620, 668, 671, 623, 621, 669, 672, 624
1217, 625, 2655, 2658, 2641, 2640, 2656, 2659, 2642
1218, 2640, 2656, 2659, 2642, 627, 2657, 2660, 2643
1219, 2641, 2658, 2661, 626, 2642, 2659, 2662, 2644
1220, 2642, 2659, 2662, 2644, 2643, 2660, 2663, 628
1221, 2655, 673, 2665, 2658, 2656, 2664, 2666, 2659
1222, 2656, 2664, 2666, 2659, 2657, 675, 2667, 2660
1223, 2658, 2665, 674, 2661, 2659, 2666, 2668, 2662
1224, 2659, 2666, 2668, 2662, 2660, 2667, 676, 2663
1225, 627, 675, 676, 628, 629, 677, 678, 630
1226, 629, 677, 678, 630, 631, 679, 680, 632
1227, 631, 679, 680, 632, 633, 681, 682, 634
1228, 633, 681, 682, 634, 635, 683, 684, 636
1229, 626, 2661, 2669, 2651, 2644, 2662, 2670, 2652
1230, 2644, 2662, 2670, 2652, 628, 2663, 2671, 2653
1231, 2651, 2669, 2672, 637, 2652, 2670, 2673, 2654
1232, 2652, 2670, 2673, 2654, 2653, 2671, 2674, 638
1233, 2661, 674, 2675, 2669, 2662, 2668, 2676, 2670
1234, 2662, 2668, 2676, 2670, 2663, 676, 2677, 2671
1235, 2669, 2675, 685, 2672, 2670, 2676, 2678, 2673
1236, 2670, 2676, 2678, 2673, 2671, 2677, 686, 2674
1237, 628, 676, 686, 638, 630, 678, 687, 639
1238, 630, 678, 687, 639, 632, 680, 688, 640
1239, 632, 680, 688, 640, 634, 682, 689, 641
1240, 634, 682, 689, 641, 636, 684, 690, 642
1241, 643, 691, 692, 644, 645, 693, 694, 646
1242, 645, 693, 694, 646, 647, 695, 696, 648
1243, 644, 692, 697, 649, 646, 694, 698, 650
1244, 646, 694, 698, 650, 648, 696, 699, 651
1245, 649, 697, 700, 652, 650, 698, 701, 653
1246, 650, 698, 701, 653, 651, 699, 702, 654
1247, 652, 700, 683, 635, 653, 701, 703, 655
1248, 653, 701, 703, 655, 654, 702, 704, 656
1249, 635, 683, 684, 636, 655, 703, 705, 657
1250, 655, 703, 705, 657, 656, 704, 706, 658
1251, 636, 684, 690, 642, 657, 705, 707, 659
1252, 657, 705, 707, 659, 658, 706, 708, 660
1253, 642, 690, 709, 661, 659, 707, 710, 662
1254, 659, 707, 710, 662, 660, 708, 711, 663
1255, 661, 709, 712, 664, 662, 710, 713, 665
1256, 662, 710, 713, 665, 663, 711, 714, 666
1257, 664, 712, 715, 667, 665, 713, 716, 668
1258, 665, 713, 716, 668, 666, 714, 717, 669
1259, 667, 715, 718, 670, 668, 716, 719, 671
1260, 668, 716, 719, 671, 669, 717, 720, 672
1261, 673, 721, 722, 674, 675, 723, 724, 676
1262, 675, 723, 724, 676, 677, 725, 726, 678
1263, 677, 725, 726, 678, 679, 727, 728, 680
1264, 679, 727, 728, 680, 681, 729, 730, 682
1265, 681, 729, 730, 682, 683, 731, 732, 684
1266, 674, 722, 733, 685, 676, 724, 734, 686
1267, 676, 724, 734, 686, 678, 726, 735, 687
1268, 678, 726, 735, 687, 680, 728, 736, 688
1269, 680, 728, 736, 688, 682, 730, 737, 689
1270, 682, 730, 737, 689, 684, 732, 738, 690
1271, 691, 739, 740, 692, 693, 741, 742, 694
1272, 693, 741, 742, 694, 695, 743, 744, 696
1273, 692, 740, 745, 697, 694, 742, 746, 698
1274, 694, 742, 746, 698, 696, 744, 747, 699
1275, 697, 745, 748, 700, 698, 746, 749, 701
1276, 698, 746, 749, 701, 699, 747, 750, 702
1277, 700, 748, 731, 683, 701, 749, 751, 703
1278, 701, 749, 751, 703, 702, 750, 752, 704
1279, 683, 731, 732, 684, 703, 751, 753, 705
1280, 703, 751, 753, 705, 704, 752, 754, 706
1281, 684, 732, 738, 690, 705, 753, 755, 707
1282, 705, 753, 755, 707, 706, 754, 756, 708
1283, 690, 738, 757, 709, 707, 755, 758, 710
1284, 707, 755, 758, 710, 708, 756, 759, 711
1285, 709, 757, 760, 712, 710, 758, 761, 713
1286, 710, 758, 761, 713, 711, 759, 762, 714
1287, 712, 760, 763, 715, 713, 761, 764, 716
1288, 713, 761, 764, 716, 714, 762, 765, 717
1289, 715, 763, 766, 718, 716, 764, 767, 719
1290, 716, 764, 767, 719, 717, 765, 768, 720
1291, 721, 1300, 1303, 1296, 1295, 1301, 1304, 1297
1292, 1295, 1301, 1304, 1297, 723, 1302, 1305, 1298
1293, 1296, 1303, 1306, 722, 1297, 1304, 1307, 1299
1294, 1297, 1304, 1307, 1299, 1298, 1305, 1308, 724
1295, 1300, 769, 1310, 1303, 1301, 1309, 1311, 1304
1296, 1301, 1309, 1311, 1304, 1302, 771, 1312, 1305
1297, 1303, 1310, 770, 1306, 1304, 1311, 1313, 1307
1298, 1304, 1311, 1313, 1307, 1305, 1312, 772, 1308
1299, 723, 771, 772, 724, 725, 773, 774, 726
1300, 725, 773, 774, 726, 727, 775, 776, 728
1301, 727, 775, 776, 728, 729, 777, 778, 730
1302, 729, 777, 778, 730, 731, 779, 780, 732
1303, 722, 1306, 1318, 1314, 1299, 1307, 1319, 1315
1304, 1299, 1307, 1319, 1315, 724, 1308, 1320, 1316
1305, 1314, 1318, 1321, 733, 1315, 1319, 1322, 1317
1306, 1315, 1319, 1322, 1317, 1316, 1320, 1323, 734
1307, 1306, 770, 1324, 1318, 1307, 1313, 1325, 1319
1308, 1307, 1313, 1325, 1319, 1308, 772, 1326, 1320
1309, 1318, 1324, 781, 1321, 1319, 1325, 1327, 1322
1310, 1319, 1325, 1327, 1322, 1320, 1326, 782, 1323
1311, 724, 772, 782, 734, 726, 774, 783, 735
1312, 726, 774, 783, 735, 728, 776, 784, 736
1313, 728, 776, 784, 736, 730, 778, 785, 737
1314, 730, 778, 785, 737, 732, 780, 786, 738
1315, 739, 787, 788, 740, 741, 789, 790, 742
1316, 741, 789, 790, 742, 743, 791, 792, 744
1317, 740, 788, 793, 745, 742, 790, 794, 746
1318, 742, 790, 794, 746, 744, 792, 795, 747
1319, 745, 793, 796, 748, 746, 794, 797, 749
1320, 746, 794, 797, 749, 747, 795, 798, 750
1321, 748, 796, 779, 731, 749, 797, 799, 751
1322, 749, 797, 799, 751, 750, 798, 800, 752
1323, 731, 779, 780, 732, 751, 799, 801, 753
1324, 751, 799, 801, 753, 752, 800, 802, 754
1325, 732, 780, 786, 738, 753, 801, 803, 755
1326, 753, 801, 803, 755, 754, 802, 804, 756
1327, 738, 786, 805, 757, 755, 803, 806, 758
1328, 755, 803, 806, 758, 756, 804, 807, 759
1329, 757, 805, 808, 760, 758, 806, 809, 761
1330, 758, 806, 809, 761, 759, 807, 810, 762
1331, 760, 808, 811, 763, 761, 809, 812, 764
1332, 761, 809, 812, 764, 762, 810, 813, 765
1333, 763, 811, 814, 766, 764, 812, 815, 767
1334, 764, 812, 815, 767, 765, 813, 816, 768
1335, 769, 817, 818, 770, 771, 819, 820, 772
1336, 771, 819, 820, 772, 773, 821, 822, 774
1337, 773, 821, 822, 774, 775, 823, 824, 776
1338, 775, 823, 824, 776, 777, 825, 826, 778
1339, 777, 825, 826, 778, 779, 827, 828, 780
1340, 770, 818, 829, 781, 772, 820, 830, 782
1341, 772, 820, 830, 782, 774, 822, 831, 783
1342, 774, 822, 831, 783, 776, 824, 832, 784
1343, 776, 824, 832, 784, 778, 826, 833, 785
1344, 778, 826, 833, 785, 780, 828, 834, 786
1345, 787, 835, 836, 788, 789, 837, 838, 790
1346, 789, 837, 838, 790, 791, 839, 840, 792
1347, 788, 836, 841, 793, 790, 838, 842, 794
1348, 790, 838, 842, 794, 792, 840, 843, 795
1349, 793, 841, 844, 796, 794, 842, 845, 797
1350, 794, 842, 845, 797, 795, 843, 846, 798
1351, 796, 844, 827, 779, 797, 845, 847, 799
1352, 797, 845, 847, 799, 798, 846, 848, 800
1353, 779, 827, 828, 780, 799, 847, 849, 801
1354, 799, 847, 849, 801, 800, 848, 850, 802
1355, 780, 828, 834, 786, 801, 849, 851, 803
1356, 801, 849, 851, 803, 802, 850, 852, 804
1357, 786, 834, 853, 805, 803, 851, 854, 806
1358, 803, 851, 854, 806, 804, 852, 855, 807
1359, 805, 853, 856, 808, 806, 854, 857, 809
1360, 806, 854, 857, 809, 807, 855, 858, 810
1361, 808, 856, 859, 811, 809, 857, 860, 812
1362, 809, 857, 860, 812, 810, 858, 861, 813
1363, 811, 859, 862, 814, 812, 860, 863, 815
1364, 812, 860, 863, 815, 813, 861, 864, 816
1365, 817, 865, 866, 818, 819, 867, 868, 820
1366, 819, 867, 868, 820, 821, 869, 870, 822
1367, 821, 869, 870, 822, 823, 871, 872, 824
1368, 823, 871, 872, 824, 825, 873, 874, 826
1369, 825, 1333, 1336, 1329, 1328, 1334, 1337, 1330
1370, 1328, 1334, 1337, 1330, 827, 1335, 1338, 1331
1371, 1329, 1336, 1339, 826, 1330, 1337, 1340, 1332
1372, 1330, 1337, 1340, 1332, 1331, 1338, 1341, 828
1373, 1333, 873, 1343, 1336, 1334, 1342, 1344, 1337
1374, 1334, 1342, 1344, 1337, 1335, 875, 1345, 1338
1375, 1336, 1343, 874, 1339, 1337, 1344, 1346, 1340
1376, 1337, 1344, 1346, 1340, 1338, 1345, 876, 1341
1377, 818, 866, 877, 829, 820, 868, 878, 830
1378, 820, 868, 878, 830, 822, 870, 879, 831
1379, 822, 870, 879, 831, 824, 872, 880, 832
1380, 824, 872, 880, 832, 826, 874, 881, 833
1381, 826, 1339, 1351, 1347, 1332, 1340, 1352, 1348
1382, 1332, 1340, 1352, 1348, 828, 1341, 1353, 1349
1383, 1347, 1351, 1354, 833, 1348, 1352, 1355, 1350
1384, 1348, 1352, 1355, 1350, 1349, 1353, 1356, 834
1385, 1339, 874, 1357, 1351, 1340, 1346, 1358, 1352
1386, 1340, 1346, 1358, 1352, 1341, 876, 1359, 1353
1387, 1351, 1357, 881, 1354, 1352, 1358, 1360, 1355
1388, 1352, 1358, 1360, 1355, 1353, 1359, 882, 1356
1389, 835, 883, 884, 836, 837, 885, 886, 838
1390, 837, 1366, 1369, 1362, 1361, 1367, 1370, 1363
1391, 1361, 1367, 1370, 1363, 839, 1368, 1371, 1364
1392, 1362, 1369, 1372, 838, 1363, 1370, 1373, 1365
1393, 1363, 1370, 1373, 1365, 1364, 1371, 1374, 840
1394, 1366, 885, 1376, 1369, 1367, 1375, 1377, 1370
1395, 1367, 2684, 2687, 2680, 2679, 2685, 2688, 2681
1396, 2679, 2685, 2688, 2681, 1368, 2686, 2689, 2682
1397, 2680, 2687, 2690, 1370, 2681, 2688, 2691, 2683
1398, 2681, 2688, 2691, 2683, 2682, 2689, 2692, 1371
1399, 2684, 1375, 2694, 2687, 2685, 2693, 2695, 2688
1400, 2685, 2693, 2695, 2688, 2686, 887, 2696, 2689
1401, 2687, 2694, 1377, 2690, 2688, 2695, 2697, 2691
1402, 2688, 2695, 2697, 2691, 2689, 2696, 1378, 2692
1403, 1369, 1376, 886, 1372, 1370, 1377, 1379, 1373
1404, 1370, 2690, 2702, 2698, 2683, 2691, 2703, 2699
1405, 2683, 2691, 2703, 2699, 1371, 2692, 2704, 2700
1406, 2698, 2702, 2705, 1373, 2699, 2703, 2706, 2701
1407, 2699, 2703, 2706, 2701, 2700, 2704, 2707, 1374
1408, 2690, 1377, 2708, 2702, 2691, 2697, 2709, 2703
1409, 2691, 2697, 2709, 2703, 2692, 1378, 2710, 2704
1410, 2702, 2708, 1379, 2705, 2703, 2709, 2711, 2706
1411, 2703, 2709, 2711, 2706, 2704, 2710, 888, 2707
1412, 836, 884, 889, 841, 838, 886, 890, 842
1413, 838, 1372, 1384, 1380, 1365, 1373, 1385, 1381
1414, 1365, 1373, 1385, 1381, 840, 1374, 1386, 1382
1415, 1380, 1384, 1387, 842, 1381, 1385, 1388, 1383
1416, 1381, 1385, 1388, 1383, 1382, 1386, 1389, 843
1417, 1372, 886, 1390, 1384, 1373, 1379, 1391, 1385
1418, 1373, 2705, 2716, 2712, 2701, 2706, 2717, 2713
1419, 2701, 2706, 2717, 2713, 1374, 2707, 2718, 2714
1420, 2712, 2716, 2719, 1385, 2713, 2717, 2720, 2715
1421, 2713, 2717, 2720, 2715, 2714, 2718, 2721, 1386
1422, 2705, 1379, 2722, 2716, 2706, 2711, 2723, 2717
1423, 2706, 2711, 2723, 2717, 2707, 888, 2724, 2718
1424, 2716, 2722, 1391, 2719, 2717, 2723, 2725, 2720
1425, 2717, 2723, 2725, 2720, 2718, 2724, 1392, 2721
1426, 1384, 1390, 890, 1387, 1385, 1391, 1393, 1388
1427, 1385, 2719, 2730, 2726, 2715, 2720, 2731, 2727
1428, 2715, 2720, 2731, 2727, 1386, 2721, 2732, 2728
1429, 2726, 2730, 2733, 1388, 2727, 2731, 2734, 2729
1430, 2727, 2731, 2734, 2729, 2728, 2732, 2735, 1389
1431, 2719, 1391, 2736, 2730, 2720, 2725, 2737, 2731
1432, 2720, 2725, 2737, 2731, 2721, 1392, 2738, 2732
1433, 2730, 2736, 1393, 2733, 2731, 2737, 2739, 2734
1434, 2731, 2737, 2739, 2734, 2732, 2738, 891, 2735
1435, 841, 889, 892, 844, 842, 890, 893, 845
1436, 842, 1387, 1398, 1394, 1383, 1388, 1399, 1395
1437, 1383, 1388, 1399, 1395, 843, 1389, 1400, 1396
1438, 1394, 1398, 1401, 845, 1395, 1399, 1402, 1397
1439, 1395, 1399, 1402, 1397, 1396, 1400, 1403, 846
1440, 1387, 890, 1404, 1398, 1388, 1393, 1405, 1399
1441, 1388, 2733, 2744, 2740, 2729, 2734, 2745, 2741
1442, 2729, 2734, 2745, 2741, 1389, 2735, 2746, 2742
1443, 2740, 2744, 2747, 1399, 2741, 2745, 2748, 2743
1444, 2741, 2745, 2748, 2743, 2742, 2746, 2749, 1400
1445, 2733, 1393, 2750, 2744, 2734, 2739, 2751, 2745
1446, 2734, 2739, 2751, 2745, 2735, 891, 2752, 2746
1447, 2744, 2750, 1405, 2747, 2745, 2751, 2753, 2748
1448, 2745, 2751, 2753, 2748, 2746, 2752, 1406, 2749
1449, 1398, 1404, 893, 1401, 1399, 1405, 1407, 1402
1450, 1399, 2747, 2758, 2754, 2743, 2748, 2759, 2755
1451, 2743, 2748, 2759, 2755, 1400, 2749, 2760, 2756
1452, 2754, 2758, 2761, 1402, 2755, 2759, 2762, 2757
1453, 2755, 2759, 2762, 2757, 2756, 2760, 2763, 1403
1454, 2747, 1405, 2764, 2758, 2748, 2753, 2765, 2759
1455, 2748, 2753, 2765, 2759, 2749, 1406, 2766, 2760
1456, 2758, 2764, 1407, 2761, 2759, 2765, 2767, 2762
1457, 2759, 2765, 2767, 2762, 2760, 2766, 894, 2763
1458, 844, 1413, 1415, 1409, 1408, 1414, 1416, 1410
1459, 1408, 1414, 1416, 1410, 845, 1401, 1417, 1411
1460, 1409, 1415, 1335, 827, 1410, 1416, 1418, 1412
1461, 1410, 1416, 1418, 1412, 1411, 1417, 1419, 847
1462, 1413, 892, 1421, 1415, 1414, 1420, 1422, 1416
1463, 1414, 1420, 1422, 1416, 1401, 893, 1423, 1417
1464, 1415, 1421, 875, 1335, 1416, 1422, 1424, 1418
1465, 1416, 1422, 1424, 1418, 1417, 1423, 895, 1419
1466, 845, 1401, 1417, 1411, 1397, 1402, 1428, 1425
1467, 1397, 1402, 1428, 1425, 846, 1403, 1429, 1426
1468, 1411, 1417, 1419, 847, 1425, 1428, 1430, 1427
1469, 1425, 1428, 1430, 1427, 1426, 1429, 1431, 848
1470, 1401, 893, 1423, 1417, 1402, 1407, 1432, 1428
1471, 1402, 2761, 2772, 2768, 2757, 2762, 2773, 2769
1472, 2757, 2762, 2773, 2769, 1403, 2763, 2774, 2770
1473, 2768, 2772, 2775, 1428, 2769, 2773, 2776, 2771
1474, 2769, 2773, 2776, 2771, 2770, 2774, 2777, 1429
1475, 2761, 1407, 2778, 2772, 2762, 2767, 2779, 2773
1476, 2762, 2767, 2779, 2773, 2763, 894, 2780, 2774
1477, 2772, 2778, 1432, 2775, 2773, 2779, 2781, 2776
1478, 2773, 2779, 2781, 2776, 2774, 2780, 1433, 2777
1479, 1417, 1423, 895, 1419, 1428, 1432, 1434, 1430
1480, 1428, 2775, 2786, 2782, 2771, 2776, 2787, 2783
1481, 2771, 2776, 2787, 2783, 1429, 2777, 2788, 2784
1482, 2782, 2786, 2789, 1430, 2783, 2787, 2790, 2785
1483, 2783, 2787, 2790, 2785, 2784, 2788, 2791, 1431
1484, 2775, 1432, 2792, 2786, 2776, 2781, 2793, 2787
1485, 2776, 2781, 2793, 2787, 2777, 1433, 2794, 2788
1486, 2786, 2792, 1434, 2789, 2787, 2793, 2795, 2790
1487, 2787, 2793, 2795, 2790, 2788, 2794, 896, 2791
1488, 827, 1335, 1338, 1331, 1412, 1418, 1438, 1435
1489, 1412, 1418, 1438, 1435, 847, 1419, 1439, 1436
1490, 1331, 1338, 1341, 828, 1435, 1438, 1440, 1437
1491, 1435, 1438, 1440, 1437, 1436, 1439, 1441, 849
1492, 1335, 875, 1345, 1338, 1418, 1424, 1442, 1438
1493, 1418, 1424, 1442, 1438, 1419, 895, 1443, 1439
1494, 1338, 1345, 876, 1341, 1438, 1442, 1444, 1440
1495, 1438, 1442, 1444, 1440, 1439, 1443, 897, 1441
1496, 847, 1419, 1439, 1436, 1427, 1430, 1448, 1445
1497, 1427, 1430, 1448, 1445, 848, 1431, 1449, 1446
1498, 1436, 1439, 1441, 849, 1445, 1448, 1450, 1447
1499, 1445, 1448, 1450, 1447, 1446, 1449, 1451, 850
1500, 1419, 895, 1443, 1439, 1430, 1434, 1452, 1448
1501, 1430, 2789, 2800, 2796, 2785, 2790, 2801, 2797
1502, 2785, 2790, 2801, 2797, 1431, 2791, 2802, 2798
1503, 2796, 2800, 2803, 1448, 2797, 2801, 2804, 2799
1504, 2797, 2801, 2804, 2799, 2798, 2802, 2805, 1449
1505, 2789, 1434, 2806, 2800, 2790, 2795, 2807, 2801
1506, 2790, 2795, 2807, 2801, 2791, 896, 2808, 2802
1507, 2800, 2806, 1452, 2803, 2801, 2807, 2809, 2804
1508, 2801, 2807, 2809, 2804, 2802, 2808, 1453, 2805
1509, 1439, 1443, 897, 1441, 1448, 1452, 1454, 1450
1510, 1448, 2803, 2814, 2810, 2799, 2804, 2815, 2811
1511, 2799, 2804, 2815, 2811, 1449, 2805, 2816, 2812
1512, 2810, 2814, 2817, 1450, 2811, 2815, 2818, 2813
1513, 2811, 2815, 2818, 2813, 2812, 2816, 2819, 1451
1514, 2803, 1452, 2820, 2814, 2804, 2809, 2821, 2815
1515, 2804, 2809, 2821, 2815, 2805, 1453, 2822, 2816
1516, 2814, 2820, 1454, 2817, 2815, 2821, 2823, 2818
1517, 2815, 2821, 2823, 2818, 2816, 2822, 898, 2819
1518, 828, 1341, 1353, 1349, 1437, 1440, 1458, 1455
1519, 1437, 1440, 1458, 1455, 849, 1441, 1459, 1456
1520, 1349, 1353, 1356, 834, 1455, 1458, 1460, 1457
1521, 1455, 1458, 1460, 1457, 1456, 1459, 1461, 851
1522, 1341, 876, 1359, 1353, 1440, 1444, 1462, 1458
1523, 1440, 1444, 1462, 1458, 1441, 897, 1463, 1459
1524, 1353, 1359, 882, 1356, 1458, 1462, 1464, 1460
1525, 1458, 1462, 1464, 1460, 1459, 1463, 899, 1461
1526, 849, 1441, 1459, 1456, 1447, 1450, 1468, 1465
1527, 1447, 1450, 1468, 1465, 850, 1451, 1469, 1466
1528, 1456, 1459, 1461, 851, 1465, 1468, 1470, 1467
1529, 1465, 1468, 1470, 1467, 1466, 1469, 1471, 852
1530, 1441, 897, 1463, 1459, 1450, 1454, 1472, 1468
1531, 1450, 2817, 2828, 2824, 2813, 2818, 2829, 2825
1532, 2813, 2818, 2829, 2825, 1451, 2819, 2830, 2826
1533, 2824, 2828, 2831, 1468, 2825, 2829, 2832, 2827
1534, 2825, 2829, 2832, 2827, 2826, 2830, 2833, 1469
1535, 2817, 1454, 2834, 2828, 2818, 2823, 2835, 2829
1536, 2818, 2823, 2835, 2829, 2819, 898, 2836, 2830
1537, 2828, 2834, 1472, 2831, 2829, 2835, 2837, 2832
1538, 2829, 2835, 2837, 2832, 2830, 2836, 1473, 2833
1539, 1459, 1463, 899, 1461, 1468, 1472, 1474, 1470
1540, 1468, 2831, 2842, 2838, 2827, 2832, 2843, 2839
1541, 2827, 2832, 2843, 2839, 1469, 2833, 2844, 2840
1542, 2838, 2842, 2845, 1470, 2839, 2843, 2846, 2841
1543, 2839, 2843, 2846, 2841, 2840, 2844, 2847, 1471
1544, 2831, 1472, 2848, 2842, 2832, 2837, 2849, 2843
1545, 2832, 2837, 2849, 2843, 2833, 1473, 2850, 2844
1546, 2842, 2848, 1474, 2845, 2843, 2849, 2851, 2846
1547, 2843, 2849, 2851, 2846, 2844, 2850, 900, 2847
1548, 834, 1356, 1479, 1475, 1457, 1460, 1480, 1476
1549, 1457, 1460, 1480, 1476, 851, 1461, 1481, 1477
1550, 1475, 1479, 1482, 853, 1476, 1480, 1483, 1478
1551, 1476, 1480, 1483, 1478, 1477, 1481, 1484, 854
1552, 1356, 882, 1485, 1479, 1460, 1464, 1486, 1480
1553, 1460, 1464, 1486, 1480, 1461, 899, 1487, 1481
1554, 1479, 1485, 901, 1482, 1480, 1486, 1488, 1483
1555, 1480, 1486, 1488, 1483, 1481, 1487, 902, 1484
1556, 851, 1461, 1481, 1477, 1467, 1470, 1492, 1489
1557, 1467, 1470, 1492, 1489, 852, 1471, 1493, 1490
1558, 1477, 1481, 1484, 854, 1489, 1492, 1494, 1491
1559, 1489, 1492, 1494, 1491, 1490, 1493, 1495, 855
1560, 1461, 899, 1487, 1481, 1470, 1474, 1496, 1492
1561, 1470, 2845, 2856, 2852, 2841, 2846, 2857, 2853
1562, 2841, 2846, 2857, 2853, 1471, 2847, 2858, 2854
1563, 2852, 2856, 2859, 1492, 2853, 2857, 2860, 2855
1564, 2853, 2857, 2860, 2855, 2854, 2858, 2861, 1493
1565, 2845, 1474, 2862, 2856, 2846, 2851, 2863, 2857
1566, 2846, 2851, 2863, 2857, 2847, 900, 2864, 2858
1567, 2856, 2862, 1496, 2859, 2857, 2863, 2865, 2860
1568, 2857, 2863, 2865, 2860, 2858, 2864, 1497, 2861
1569, 1481, 1487, 902, 1484, 1492, 1496, 1498, 1494
1570, 1492, 2859, 2870, 2866, 2855, 2860, 2871, 2867
1571, 2855, 2860, 2871, 2867, 1493, 2861, 2872, 2868
1572, 2866, 2870, 2873, 1494, 2867, 2871, 2874, 2869
1573, 2867, 2871, 2874, 2869, 2868, 2872, 2875, 1495
1574, 2859, 1496, 2876, 2870, 2860, 2865, 2877, 2871
1575, 2860, 2865, 2877, 2871, 2861, 1497, 2878, 2872
1576, 2870, 2876, 1498, 2873, 2871, 2877, 2879, 2874
1577, 2871, 2877, 2879, 2874, 2872, 2878, 903, 2875
1578, 853, 901, 904, 856, 854, 902, 905, 857
1579, 854, 1484, 1503, 1499, 1491, 1494, 1504, 1500
1580, 1491, 1494, 1504, 1500, 855, 1495, 1505, 1501
1581, 1499, 1503, 1506, 857, 1500, 1504, 1507, 1502
1582, 1500, 1504, 1507, 1502, 1501, 1505, 1508, 858
1583, 1484, 902, 1509, 1503, 1494, 1498, 1510, 1504
1584, 1494, 2873, 2884, 2880, 2869, 2874, 2885, 2881
1585, 2869, 2874, 2885, 2881, 1495, 2875, 2886, 2882
1586, 2880, 2884, 2887, 1504, 2881, 2885, 2888, 2883
1587, 2881, 2885, 2888, 2883, 2882, 2886, 2889, 1505
1588, 2873, 1498, 2890, 2884, 2874, 2879, 2891, 2885
1589, 2874, 2879, 2891, 2885, 2875, 903, 2892, 2886
1590, 2884, 2890, 1510, 2887, 2885, 2891, 2893, 2888
1591, 2885, 2891, 2893, 2888, 2886, 2892, 1511, 2889
1592, 1503, 1509, 905, 1506, 1504, 1510, 1512, 1507
1593, 1504, 2887, 2898, 2894, 2883, 2888, 2899, 2895
1594, 2883, 2888, 2899, 2895, 1505, 2889, 2900, 2896
1595, 2894, 2898, 2901, 1507, 2895, 2899, 2902, 2897
1596, 2895, 2899, 2902, 2897, 2896, 2900, 2903, 1508
1597, 2887, 1510, 2904, 2898, 2888, 2893, 2905, 2899
1598, 2888, 2893, 2905, 2899, 2889, 1511, 2906, 2900
1599, 2898, 2904, 1512, 2901, 2899, 2905, 2907, 2902
1600, 2899, 2905, 2907, 2902, 2900, 2906, 906, 2903
1601, 856, 904, 907, 859, 857, 905, 908, 860
1602, 857, 1506, 1517, 1513, 1502, 1507, 1518, 1514
1603, 1502, 1507, 1518, 1514, 858, 1508, 1519, 1515
1604, 1513, 1517, 1520, 860, 1514, 1518, 1521, 1516
1605, 1514, 1518, 1521, 1516, 1515, 1519, 1522, 861
1606, 1506, 905, 1523, 1517, 1507, 1512, 1524, 1518
1607, 1507, 2901, 2912, 2908, 2897, 2902, 2913, 2909
1608, 2897, 2902, 2913, 2909, 1508, 2903, 2914, 2910
1609, 2908, 2912, 2915, 1518, 2909, 2913, 2916, 2911
1610, 2909, 2913, 2916, 2911, 2910, 2914, 2917, 1519
1611, 2901, 1512, 2918, 2912, 2902, 2907, 2919, 2913
1612, 2902, 2907, 2919, 2913, 2903, 906, 2920, 2914
1613, 2912, 2918, 1524, 2915, 2913, 2919, 2921, 2916
1614, 2913, 2919, 2921, 2916, 2914, 2920, 1525, 2917
1615, 1517, 1523, 908, 1520, 1518, 1524, 1526, 1521
1616, 1518, 2915, 2926, 2922, 2911, 2916, 2927, 2923
1617, 2911, 2916, 2927, 2923, 1519, 2917, 2928, 2924
1618, 2922, 2926, 2929, 1521, 2923, 2927, 2930, 2925
1619, 2923, 2927, 2930, 2925, 2924, 2928, 2931, 1522
1620, 2915, 1524, 2932, 2926, 2916, 2921, 2933, 2927
1621, 2916, 2921, 2933, 2927, 2917, 1525, 2934, 2928
1622, 2926, 2932, 1526, 2929, 2927, 2933, 2935, 2930
1623, 2927, 2933, 2935, 2930, 2928, 2934, 909, 2931
1624, 859, 907, 910, 862, 860, 908, 911, 863
1625, 860, 1520, 1531, 1527, 1516, 1521, 1532, 1528
1626, 1516, 1521, 1532, 1528, 861, 1522, 1533, 1529
1627, 1527, 1531, 1534, 863, 1528, 1532, 1535, 1530
1628, 1528, 1532, 1535, 1530, 1529, 1533, 1536, 864
1629, 1520, 908, 1537, 1531, 1521, 1526, 1538, 1532
1630, 1521, 2929, 2940, 2936, 2925, 2930, 2941, 2937
1631, 2925, 2930, 2941, 2937, 1522, 2931, 2942, 2938
1632, 2936, 2940, 2943, 1532, 2937, 2941, 2944, 2939
1633, 2937, 2941, 2944, 2939, 2938, 2942, 2945, 1533
1634, 2929, 1526, 2946, 2940, 2930, 2935, 2947, 2941
1635, 2930, 2935, 2947, 2941, 2931, 909, 2948, 2942
1636, 2940, 2946, 1538, 2943, 2941, 2947, 2949, 2944
1637, 2941, 2947, 2949, 2944, 2942, 2948, 1539, 2945
1638, 1531, 1537, 911, 1534, 1532, 1538, 1540, 1535
1639, 1532, 2943, 2954, 2950, 2939, 2944, 2955, 2951
1640, 2939, 2944, 2955, 2951, 1533, 2945, 2956, 2952
1641, 2950, 2954, 2957, 1535, 2951, 2955, 2958, 2953
1642, 2951, 2955, 2958, 2953, 2952, 2956, 2959, 1536
1643, 2943, 1538, 2960, 2954, 2944, 2949, 2961, 2955
1644, 2944, 2949, 2961, 2955, 2945, 1539, 2962, 2956
1645, 2954, 2960, 1540, 2957, 2955, 2961, 2963, 2958
1646, 2955, 2961, 2963, 2958, 2956, 2962, 912, 2959
*NSET, NSET=CLAMP
1, 4, 5, 8, 9, 12, 13, 16, 17, 20, 21, 24, 26, 28, 30, 32
34, 36, 37, 40, 41, 44, 45, 48, 50, 52, 54, 56, 58, 60, 62, 64
66, 68, 70, 72, 74, 76, 78, 80, 82, 84, 86, 88, 90, 92, 94, 96
913, 914, 915, 916, 917, 932, 933, 934, 935, 946, 947, 948, 949, 960, 961, 962
963, 974, 975, 976, 977, 988, 989, 990, 991, 1002, 1003, 1004, 1012, 1013, 1014, 1022
1023, 1024, 1032, 1033, 1034, 1042, 1043, 1044, 1045, 1046, 1061, 1062, 1063, 1064, 1075, 1076
1077, 1078, 1089, 1090, 1091, 1092, 1093, 1107, 1108, 1109, 1117, 1118, 1119, 1120, 1130, 1131
1132, 1140, 1141, 1142, 1150, 1151, 1152, 1160, 1161, 1162, 1163, 1174, 1175, 1176, 1177, 1188
1189, 1190, 1191, 1202, 1203, 1204, 1212, 1213, 1214, 1215, 1226, 1227, 1228, 1229, 1230, 1244
1245, 1246, 1659, 1660, 1661, 1662, 1663, 1678, 1679, 1680, 1681, 1716, 1717, 1722, 1723, 1724
1725, 1736, 1737, 1738, 1739, 1770, 1771, 1772, 1773, 1774, 1803, 1804, 1805, 1806, 1807, 1821
1822, 1823, 1851, 1852, 1853, 1854, 1855, 1870, 1871, 1872, 1873, 1908, 1909, 1910, 1911, 1912
1941, 1942, 1943, 1951, 1952, 1957, 1958, 1959, 1960, 1961, 1976, 1977, 1978, 1979, 2014, 2015
2016, 2017, 2018, 2047, 2048, 2049, 2050, 2051, 2080, 2081, 2082, 2083, 2084, 2099, 2100, 2101
2102, 2137, 2138, 2143, 2144, 2145, 2146, 2157, 2158, 2159, 2160, 2210, 2211, 2212, 2213, 2214
2228, 2229, 2230
*NSET, NSET=TIP_TOP
887, 888, 891, 894, 896, 898, 900, 903, 906, 909, 912, 1378, 1392, 1406, 1433, 1453
1473, 1497, 1511, 1525, 1539, 2696, 2710, 2724, 2738, 2752, 2766, 2780, 2794, 2808, 2822, 2836
2850, 2864, 2878, 2892, 2906, 2920, 2934, 2948, 2962
*MATERIAL, NAME=STEEL
*ELASTIC
210000, 0.3
*SOLID SECTION, ELSET=EALL, MATERIAL=STEEL
*EQUATION
3
944, 1, 1.0, 10, 1, -0.5, 11, 1, -0.5
*EQUATION
3
944, 2, 1.0, 10, 2, -0.5, 11, 2, -0.5
*EQUATION
3
944, 3, 1.0, 10, 3, -0.5, 11, 3, -0.5
*EQUATION
3
956, 1, 1.0, 10, 1, -0.5, 14, 1, -0.5
*EQUATION
3
956, 2, 1.0, 10, 2, -0.5, 14, 2, -0.5
*EQUATION
3
956, 3, 1.0, 10, 3, -0.5, 14, 3, -0.5
*EQUATION
5
957, 1, 1.0, 10, 1, -0.25, 11, 1, -0.25, 15, 1, -0.25, 14, 1, -0.25
*EQUATION
5
957, 2, 1.0, 10, 2, -0.25, 11, 2, -0.25, 15, 2, -0.25, 14, 2, -0.25
*EQUATION
5
957, 3, 1.0, 10, 3, -0.25, 11, 3, -0.25, 15, 3, -0.25, 14, 3, -0.25
*EQUATION
3
958, 1, 1.0, 14, 1, -0.5, 15, 1, -0.5
*EQUATION
3
958, 2, 1.0, 14, 2, -0.5, 15, 2, -0.5
*EQUATION
3
958, 3, 1.0, 14, 3, -0.5, 15, 3, -0.5
*EQUATION
3
959, 1, 1.0, 11, 1, -0.5, 15, 1, -0.5
*EQUATION
3
959, 2, 1.0, 11, 2, -0.5, 15, 2, -0.5
*EQUATION
3
959, 3, 1.0, 11, 3, -0.5, 15, 3, -0.5
*EQUATION
3
970, 1, 1.0, 14, 1, -0.5, 18, 1, -0.5
*EQUATION
3
970, 2, 1.0, 14, 2, -0.5, 18, 2, -0.5
*EQUATION
3
970, 3, 1.0, 14, 3, -0.5, 18, 3, -0.5
*EQUATION
5
971, 1, 1.0, 14, 1, -0.25, 15, 1, -0.25, 19, 1, -0.25, 18, 1, -0.25
*EQUATION
5
971, 2, 1.0, 14, 2, -0.25, 15, 2, -0.25, 19, 2, -0.25, 18, 2, -0.25
*EQUATION
5
971, 3, 1.0, 14, 3, -0.25, 15, 3, -0.25, 19, 3, -0.25, 18, 3, -0.25
*EQUATION
3
972, 1, 1.0, 18, 1, -0.5, 19, 1, -0.5
*EQUATION
3
972, 2, 1.0, 18, 2, -0.5, 19, 2, -0.5
*EQUATION
3
972, 3, 1.0, 18, 3, -0.5, 19, 3, -0.5
*EQUATION
3
973, 1, 1.0, 15, 1, -0.5, 19, 1, -0.5
*EQUATION
3
973, 2, 1.0, 15, 2, -0.5, 19, 2, -0.5
*EQUATION
3
973, 3, 1.0, 15, 3, -0.5, 19, 3, -0.5
*EQUATION
3
1010, 1, 1.0, 11, 1, -0.5, 29, 1, -0.5
*EQUATION
3
1010, 2, 1.0, 11, 2, -0.5, 29, 2, -0.5
*EQUATION
3
1010, 3, 1.0, 11, 3, -0.5, 29, 3, -0.5
*EQUATION
5
1019, 1, 1.0, 11, 1, -0.25, 29, 1, -0.25, 31, 1, -0.25, 15, 1, -0.25
*EQUATION
5
1019, 2, 1.0, 11, 2, -0.25, 29, 2, -0.25, 31, 2, -0.25, 15, 2, -0.25
*EQUATION
5
1019, 3, 1.0, 11, 3, -0.25, 29, 3, -0.25, 31, 3, -0.25, 15, 3, -0.25
*EQUATION
3
1020, 1, 1.0, 15, 1, -0.5, 31, 1, -0.5
*EQUATION
3
1020, 2, 1.0, 15, 2, -0.5, 31, 2, -0.5
*EQUATION
3
1020, 3, 1.0, 15, 3, -0.5, 31, 3, -0.5
*EQUATION
3
1021, 1, 1.0, 29, 1, -0.5, 31, 1, -0.5
*EQUATION
3
1021, 2, 1.0, 29, 2, -0.5, 31, 2, -0.5
*EQUATION
3
1021, 3, 1.0, 29, 3, -0.5, 31, 3, -0.5
*EQUATION
5
1029, 1, 1.0, 15, 1, -0.25, 31, 1, -0.25, 33, 1, -0.25, 19, 1, -0.25
*EQUATION
5
1029, 2, 1.0, 15, 2, -0.25, 31, 2, -0.25, 33, 2, -0.25, 19, 2, -0.25
*EQUATION
5
1029, 3, 1.0, 15, 3, -0.25, 31, 3, -0.25, 33, 3, -0.25, 19, 3, -0.25
*EQUATION
3
1030, 1, 1.0, 19, 1, -0.5, 33, 1, -0.5
*EQUATION
3
1030, 2, 1.0, 19, 2, -0.5, 33, 2, -0.5
*EQUATION
3
1030, 3, 1.0, 19, 3, -0.5, 33, 3, -0.5
*EQUATION
3
1031, 1, 1.0, 31, 1, -0.5, 33, 1, -0.5
*EQUATION
3
1031, 2, 1.0, 31, 2, -0.5, 33, 2, -0.5
*EQUATION
3
1031, 3, 1.0, 31, 3, -0.5, 33, 3, -0.5
*EQUATION
3
1056, 1, 1.0, 38, 1, -0.5, 42, 1, -0.5
*EQUATION
3
1056, 2, 1.0, 38, 2, -0.5, 42, 2, -0.5
*EQUATION
3
1056, 3, 1.0, 38, 3, -0.5, 42, 3, -0.5
*EQUATION
3
1057, 1, 1.0, 38, 1, -0.5, 39, 1, -0.5
*EQUATION
3
1057, 2, 1.0, 38, 2, -0.5, 39, 2, -0.5
*EQUATION
3
1057, 3, 1.0, 38, 3, -0.5, 39, 3, -0.5
*EQUATION
5
1058, 1, 1.0, 38, 1, -0.25, 39, 1, -0.25, 43, 1, -0.25, 42, 1, -0.25
*EQUATION
5
1058, 2, 1.0, 38, 2, -0.25, 39, 2, -0.25, 43, 2, -0.25, 42, 2, -0.25
*EQUATION
5
1058, 3, 1.0, 38, 3, -0.25, 39, 3, -0.25, 43, 3, -0.25, 42, 3, -0.25
*EQUATION
3
1059, 1, 1.0, 42, 1, -0.5, 43, 1, -0.5
*EQUATION
3
1059, 2, 1.0, 42, 2, -0.5, 43, 2, -0.5
*EQUATION
3
1059, 3, 1.0, 42, 3, -0.5, 43, 3, -0.5
*EQUATION
3
1060, 1, 1.0, 39, 1, -0.5, 43, 1, -0.5
*EQUATION
3
1060, 2, 1.0, 39, 2, -0.5, 43, 2, -0.5
*EQUATION
3
1060, 3, 1.0, 39, 3, -0.5, 43, 3, -0.5
*EQUATION
3
1071, 1, 1.0, 42, 1, -0.5, 46, 1, -0.5
*EQUATION
3
1071, 2, 1.0, 42, 2, -0.5, 46, 2, -0.5
*EQUATION
3
1071, 3, 1.0, 42, 3, -0.5, 46, 3, -0.5
*EQUATION
5
1072, 1, 1.0, 42, 1, -0.25, 43, 1, -0.25, 47, 1, -0.25, 46, 1, -0.25
*EQUATION
5
1072, 2, 1.0, 42, 2, -0.25, 43, 2, -0.25, 47, 2, -0.25, 46, 2, -0.25
*EQUATION
5
1072, 3, 1.0, 42, 3, -0.25, 43, 3, -0.25, 47, 3, -0.25, 46, 3, -0.25
*EQUATION
3
1073, 1, 1.0, 46, 1, -0.5, 47, 1, -0.5
*EQUATION
3
1073, 2, 1.0, 46, 2, -0.5, 47, 2, -0.5
*EQUATION
3
1073, 3, 1.0, 46, 3, -0.5, 47, 3, -0.5
*EQUATION
3
1074, 1, 1.0, 43, 1, -0.5, 47, 1, -0.5
*EQUATION
3
1074, 2, 1.0, 43, 2, -0.5, 47, 2, -0.5
*EQUATION
3
1074, 3, 1.0, 43, 3, -0.5, 47, 3, -0.5
*EQUATION
3
1085, 1, 1.0, 43, 1, -0.5, 51, 1, -0.5
*EQUATION
3
1085, 2, 1.0, 43, 2, -0.5, 51, 2, -0.5
*EQUATION
3
1085, 3, 1.0, 43, 3, -0.5, 51, 3, -0.5
*EQUATION
5
1086, 1, 1.0, 43, 1, -0.25, 51, 1, -0.25, 53, 1, -0.25, 47, 1, -0.25
*EQUATION
5
1086, 2, 1.0, 43, 2, -0.25, 51, 2, -0.25, 53, 2, -0.25, 47, 2, -0.25
*EQUATION
5
1086, 3, 1.0, 43, 3, -0.25, 51, 3, -0.25, 53, 3, -0.25, 47, 3, -0.25
*EQUATION
3
1087, 1, 1.0, 47, 1, -0.5, 53, 1, -0.5
*EQUATION
3
1087, 2, 1.0, 47, 2, -0.5, 53, 2, -0.5
*EQUATION
3
1087, 3, 1.0, 47, 3, -0.5, 53, 3, -0.5
*EQUATION
3
1088, 1, 1.0, 51, 1, -0.5, 53, 1, -0.5
*EQUATION
3
1088, 2, 1.0, 51, 2, -0.5, 53, 2, -0.5
*EQUATION
3
1088, 3, 1.0, 51, 3, -0.5, 53, 3, -0.5
*EQUATION
3
1102, 1, 1.0, 49, 1, -0.5, 51, 1, -0.5
*EQUATION
3
1102, 2, 1.0, 49, 2, -0.5, 51, 2, -0.5
*EQUATION
3
1102, 3, 1.0, 49, 3, -0.5, 51, 3, -0.5
*EQUATION
3
1103, 1, 1.0, 49, 1, -0.5, 55, 1, -0.5
*EQUATION
3
1103, 2, 1.0, 49, 2, -0.5, 55, 2, -0.5
*EQUATION
3
1103, 3, 1.0, 49, 3, -0.5, 55, 3, -0.5
*EQUATION
5
1104, 1, 1.0, 49, 1, -0.25, 55, 1, -0.25, 57, 1, -0.25, 51, 1, -0.25
*EQUATION
5
1104, 2, 1.0, 49, 2, -0.25, 55, 2, -0.25, 57, 2, -0.25, 51, 2, -0.25
*EQUATION
5
1104, 3, 1.0, 49, 3, -0.25, 55, 3, -0.25, 57, 3, -0.25, 51, 3, -0.25
*EQUATION
3
1105, 1, 1.0, 51, 1, -0.5, 57, 1, -0.5
*EQUATION
3
1105, 2, 1.0, 51, 2, -0.5, 57, 2, -0.5
*EQUATION
3
1105, 3, 1.0, 51, 3, -0.5, 57, 3, -0.5
*EQUATION
3
1106, 1, 1.0, 55, 1, -0.5, 57, 1, -0.5
*EQUATION
3
1106, 2, 1.0, 55, 2, -0.5, 57, 2, -0.5
*EQUATION
3
1106, 3, 1.0, 55, 3, -0.5, 57, 3, -0.5
*EQUATION
5
1114, 1, 1.0, 51, 1, -0.25, 57, 1, -0.25, 59, 1, -0.25, 53, 1, -0.25
*EQUATION
5
1114, 2, 1.0, 51, 2, -0.25, 57, 2, -0.25, 59, 2, -0.25, 53, 2, -0.25
*EQUATION
5
1114, 3, 1.0, 51, 3, -0.25, 57, 3, -0.25, 59, 3, -0.25, 53, 3, -0.25
*EQUATION
3
1115, 1, 1.0, 53, 1, -0.5, 59, 1, -0.5
*EQUATION
3
1115, 2, 1.0, 53, 2, -0.5, 59, 2, -0.5
*EQUATION
3
1115, 3, 1.0, 53, 3, -0.5, 59, 3, -0.5
*EQUATION
3
1116, 1, 1.0, 57, 1, -0.5, 59, 1, -0.5
*EQUATION
3
1116, 2, 1.0, 57, 2, -0.5, 59, 2, -0.5
*EQUATION
3
1116, 3, 1.0, 57, 3, -0.5, 59, 3, -0.5
*EQUATION
3
1173, 1, 1.0, 73, 1, -0.5, 75, 1, -0.5
*EQUATION
3
1173, 2, 1.0, 73, 2, -0.5, 75, 2, -0.5
*EQUATION
3
1173, 3, 1.0, 73, 3, -0.5, 75, 3, -0.5
*EQUATION
3
1187, 1, 1.0, 75, 1, -0.5, 77, 1, -0.5
*EQUATION
3
1187, 2, 1.0, 75, 2, -0.5, 77, 2, -0.5
*EQUATION
3
1187, 3, 1.0, 75, 3, -0.5, 77, 3, -0.5
*EQUATION
3
1198, 1, 1.0, 73, 1, -0.5, 79, 1, -0.5
*EQUATION
3
1198, 2, 1.0, 73, 2, -0.5, 79, 2, -0.5
*EQUATION
3
1198, 3, 1.0, 73, 3, -0.5, 79, 3, -0.5
*EQUATION
5
1199, 1, 1.0, 73, 1, -0.25, 79, 1, -0.25, 81, 1, -0.25, 75, 1, -0.25
*EQUATION
5
1199, 2, 1.0, 73, 2, -0.25, 79, 2, -0.25, 81, 2, -0.25, 75, 2, -0.25
*EQUATION
5
1199, 3, 1.0, 73, 3, -0.25, 79, 3, -0.25, 81, 3, -0.25, 75, 3, -0.25
*EQUATION
3
1200, 1, 1.0, 75, 1, -0.5, 81, 1, -0.5
*EQUATION
3
1200, 2, 1.0, 75, 2, -0.5, 81, 2, -0.5
*EQUATION
3
1200, 3, 1.0, 75, 3, -0.5, 81, 3, -0.5
*EQUATION
3
1201, 1, 1.0, 79, 1, -0.5, 81, 1, -0.5
*EQUATION
3
1201, 2, 1.0, 79, 2, -0.5, 81, 2, -0.5
*EQUATION
3
1201, 3, 1.0, 79, 3, -0.5, 81, 3, -0.5
*EQUATION
5
1209, 1, 1.0, 75, 1, -0.25, 81, 1, -0.25, 83, 1, -0.25, 77, 1, -0.25
*EQUATION
5
1209, 2, 1.0, 75, 2, -0.25, 81, 2, -0.25, 83, 2, -0.25, 77, 2, -0.25
*EQUATION
5
1209, 3, 1.0, 75, 3, -0.25, 81, 3, -0.25, 83, 3, -0.25, 77, 3, -0.25
*EQUATION
3
1210, 1, 1.0, 77, 1, -0.5, 83, 1, -0.5
*EQUATION
3
1210, 2, 1.0, 77, 2, -0.5, 83, 2, -0.5
*EQUATION
3
1210, 3, 1.0, 77, 3, -0.5, 83, 3, -0.5
*EQUATION
3
1211, 1, 1.0, 81, 1, -0.5, 83, 1, -0.5
*EQUATION
3
1211, 2, 1.0, 81, 2, -0.5, 83, 2, -0.5
*EQUATION
3
1211, 3, 1.0, 81, 3, -0.5, 83, 3, -0.5
*EQUATION
3
1222, 1, 1.0, 81, 1, -0.5, 87, 1, -0.5
*EQUATION
3
1222, 2, 1.0, 81, 2, -0.5, 87, 2, -0.5
*EQUATION
3
1222, 3, 1.0, 81, 3, -0.5, 87, 3, -0.5
*EQUATION
5
1223, 1, 1.0, 81, 1, -0.25, 87, 1, -0.25, 89, 1, -0.25, 83, 1, -0.25
*EQUATION
5
1223, 2, 1.0, 81, 2, -0.25, 87, 2, -0.25, 89, 2, -0.25, 83, 2, -0.25
*EQUATION
5
1223, 3, 1.0, 81, 3, -0.25, 87, 3, -0.25, 89, 3, -0.25, 83, 3, -0.25
*EQUATION
3
1224, 1, 1.0, 83, 1, -0.5, 89, 1, -0.5
*EQUATION
3
1224, 2, 1.0, 83, 2, -0.5, 89, 2, -0.5
*EQUATION
3
1224, 3, 1.0, 83, 3, -0.5, 89, 3, -0.5
*EQUATION
3
1225, 1, 1.0, 87, 1, -0.5, 89, 1, -0.5
*EQUATION
3
1225, 2, 1.0, 87, 2, -0.5, 89, 2, -0.5
*EQUATION
3
1225, 3, 1.0, 87, 3, -0.5, 89, 3, -0.5
*EQUATION
3
1239, 1, 1.0, 85, 1, -0.5, 87, 1, -0.5
*EQUATION
3
1239, 2, 1.0, 85, 2, -0.5, 87, 2, -0.5
*EQUATION
3
1239, 3, 1.0, 85, 3, -0.5, 87, 3, -0.5
*EQUATION
3
1240, 1, 1.0, 85, 1, -0.5, 91, 1, -0.5
*EQUATION
3
1240, 2, 1.0, 85, 2, -0.5, 91, 2, -0.5
*EQUATION
3
1240, 3, 1.0, 85, 3, -0.5, 91, 3, -0.5
*EQUATION
5
1241, 1, 1.0, 85, 1, -0.25, 91, 1, -0.25, 93, 1, -0.25, 87, 1, -0.25
*EQUATION
5
1241, 2, 1.0, 85, 2, -0.25, 91, 2, -0.25, 93, 2, -0.25, 87, 2, -0.25
*EQUATION
5
1241, 3, 1.0, 85, 3, -0.25, 91, 3, -0.25, 93, 3, -0.25, 87, 3, -0.25
*EQUATION
3
1242, 1, 1.0, 87, 1, -0.5, 93, 1, -0.5
*EQUATION
3
1242, 2, 1.0, 87, 2, -0.5, 93, 2, -0.5
*EQUATION
3
1242, 3, 1.0, 87, 3, -0.5, 93, 3, -0.5
*EQUATION
3
1243, 1, 1.0, 91, 1, -0.5, 93, 1, -0.5
*EQUATION
3
1243, 2, 1.0, 91, 2, -0.5, 93, 2, -0.5
*EQUATION
3
1243, 3, 1.0, 91, 3, -0.5, 93, 3, -0.5
*EQUATION
5
1251, 1, 1.0, 87, 1, -0.25, 93, 1, -0.25, 95, 1, -0.25, 89, 1, -0.25
*EQUATION
5
1251, 2, 1.0, 87, 2, -0.25, 93, 2, -0.25, 95, 2, -0.25, 89, 2, -0.25
*EQUATION
5
1251, 3, 1.0, 87, 3, -0.25, 93, 3, -0.25, 95, 3, -0.25, 89, 3, -0.25
*EQUATION
3
1252, 1, 1.0, 89, 1, -0.5, 95, 1, -0.5
*EQUATION
3
1252, 2, 1.0, 89, 2, -0.5, 95, 2, -0.5
*EQUATION
3
1252, 3, 1.0, 89, 3, -0.5, 95, 3, -0.5
*EQUATION
3
1253, 1, 1.0, 93, 1, -0.5, 95, 1, -0.5
*EQUATION
3
1253, 2, 1.0, 93, 2, -0.5, 95, 2, -0.5
*EQUATION
3
1253, 3, 1.0, 93, 3, -0.5, 95, 3, -0.5
*EQUATION
3
1269, 1, 1.0, 10, 1, -0.5, 101, 1, -0.5
*EQUATION
3
1269, 2, 1.0, 10, 2, -0.5, 101, 2, -0.5
*EQUATION
3
1269, 3, 1.0, 10, 3, -0.5, 101, 3, -0.5
*EQUATION
5
1271, 1, 1.0, 10, 1, -0.25, 101, 1, -0.25, 102, 1, -0.25, 11, 1, -0.25
*EQUATION
5
1271, 2, 1.0, 10, 2, -0.25, 101, 2, -0.25, 102, 2, -0.25, 11, 2, -0.25
*EQUATION
5
1271, 3, 1.0, 10, 3, -0.25, 101, 3, -0.25, 102, 3, -0.25, 11, 3, -0.25
*EQUATION
3
1273, 1, 1.0, 11, 1, -0.5, 102, 1, -0.5
*EQUATION
3
1273, 2, 1.0, 11, 2, -0.5, 102, 2, -0.5
*EQUATION
3
1273, 3, 1.0, 11, 3, -0.5, 102, 3, -0.5
*EQUATION
3
1276, 1, 1.0, 101, 1, -0.5, 102, 1, -0.5
*EQUATION
3
1276, 2, 1.0, 101, 2, -0.5, 102, 2, -0.5
*EQUATION
3
1276, 3, 1.0, 101, 3, -0.5, 102, 3, -0.5
*EQUATION
5
1289, 1, 1.0, 11, 1, -0.25, 102, 1, -0.25, 111, 1, -0.25, 29, 1, -0.25
*EQUATION
5
1289, 2, 1.0, 11, 2, -0.25, 102, 2, -0.25, 111, 2, -0.25, 29, 2, -0.25
*EQUATION
5
1289, 3, 1.0, 11, 3, -0.25, 102, 3, -0.25, 111, 3, -0.25, 29, 3, -0.25
*EQUATION
3
1291, 1, 1.0, 29, 1, -0.5, 111, 1, -0.5
*EQUATION
3
1291, 2, 1.0, 29, 2, -0.5, 111, 2, -0.5
*EQUATION
3
1291, 3, 1.0, 29, 3, -0.5, 111, 3, -0.5
*EQUATION
3
1293, 1, 1.0, 102, 1, -0.5, 111, 1, -0.5
*EQUATION
3
1293, 2, 1.0, 102, 2, -0.5, 111, 2, -0.5
*EQUATION
3
1293, 3, 1.0, 102, 3, -0.5, 111, 3, -0.5
*EQUATION
3
1295, 1, 1.0, 721, 1, -0.5, 723, 1, -0.5
*EQUATION
3
1295, 2, 1.0, 721, 2, -0.5, 723, 2, -0.5
*EQUATION
3
1295, 3, 1.0, 721, 3, -0.5, 723, 3, -0.5
*EQUATION
3
1296, 1, 1.0, 721, 1, -0.5, 722, 1, -0.5
*EQUATION
3
1296, 2, 1.0, 721, 2, -0.5, 722, 2, -0.5
*EQUATION
3
1296, 3, 1.0, 721, 3, -0.5, 722, 3, -0.5
*EQUATION
5
1297, 1, 1.0, 721, 1, -0.25, 722, 1, -0.25, 724, 1, -0.25, 723, 1, -0.25
*EQUATION
5
1297, 2, 1.0, 721, 2, -0.25, 722, 2, -0.25, 724, 2, -0.25, 723, 2, -0.25
*EQUATION
5
1297, 3, 1.0, 721, 3, -0.25, 722, 3, -0.25, 724, 3, -0.25, 723, 3, -0.25
*EQUATION
3
1298, 1, 1.0, 723, 1, -0.5, 724, 1, -0.5
*EQUATION
3
1298, 2, 1.0, 723, 2, -0.5, 724, 2, -0.5
*EQUATION
3
1298, 3, 1.0, 723, 3, -0.5, 724, 3, -0.5
*EQUATION
3
1299, 1, 1.0, 722, 1, -0.5, 724, 1, -0.5
*EQUATION
3
1299, 2, 1.0, 722, 2, -0.5, 724, 2, -0.5
*EQUATION
3
1299, 3, 1.0, 722, 3, -0.5, 724, 3, -0.5
*EQUATION
3
1302, 1, 1.0, 723, 1, -0.5, 771, 1, -0.5
*EQUATION
3
1302, 2, 1.0, 723, 2, -0.5, 771, 2, -0.5
*EQUATION
3
1302, 3, 1.0, 723, 3, -0.5, 771, 3, -0.5
*EQUATION
5
1305, 1, 1.0, 723, 1, -0.25, 771, 1, -0.25, 772, 1, -0.25, 724, 1, -0.25
*EQUATION
5
1305, 2, 1.0, 723, 2, -0.25, 771, 2, -0.25, 772, 2, -0.25, 724, 2, -0.25
*EQUATION
5
1305, 3, 1.0, 723, 3, -0.25, 771, 3, -0.25, 772, 3, -0.25, 724, 3, -0.25
*EQUATION
3
1308, 1, 1.0, 724, 1, -0.5, 772, 1, -0.5
*EQUATION
3
1308, 2, 1.0, 724, 2, -0.5, 772, 2, -0.5
*EQUATION
3
1308, 3, 1.0, 724, 3, -0.5, 772, 3, -0.5
*EQUATION
3
1309, 1, 1.0, 769, 1, -0.5, 771, 1, -0.5
*EQUATION
3
1309, 2, 1.0, 769, 2, -0.5, 771, 2, -0.5
*EQUATION
3
1309, 3, 1.0, 769, 3, -0.5, 771, 3, -0.5
*EQUATION
3
1310, 1, 1.0, 769, 1, -0.5, 770, 1, -0.5
*EQUATION
3
1310, 2, 1.0, 769, 2, -0.5, 770, 2, -0.5
*EQUATION
3
1310, 3, 1.0, 769, 3, -0.5, 770, 3, -0.5
*EQUATION
5
1311, 1, 1.0, 769, 1, -0.25, 770, 1, -0.25, 772, 1, -0.25, 771, 1, -0.25
*EQUATION
5
1311, 2, 1.0, 769, 2, -0.25, 770, 2, -0.25, 772, 2, -0.25, 771, 2, -0.25
*EQUATION
5
1311, 3, 1.0, 769, 3, -0.25, 770, 3, -0.25, 772, 3, -0.25, 771, 3, -0.25
*EQUATION
3
1312, 1, 1.0, 771, 1, -0.5, 772, 1, -0.5
*EQUATION
3
1312, 2, 1.0, 771, 2, -0.5, 772, 2, -0.5
*EQUATION
3
1312, 3, 1.0, 771, 3, -0.5, 772, 3, -0.5
*EQUATION
3
1313, 1, 1.0, 770, 1, -0.5, 772, 1, -0.5
*EQUATION
3
1313, 2, 1.0, 770, 2, -0.5, 772, 2, -0.5
*EQUATION
3
1313, 3, 1.0, 770, 3, -0.5, 772, 3, -0.5
*EQUATION
3
1314, 1, 1.0, 722, 1, -0.5, 733, 1, -0.5
*EQUATION
3
1314, 2, 1.0, 722, 2, -0.5, 733, 2, -0.5
*EQUATION
3
1314, 3, 1.0, 722, 3, -0.5, 733, 3, -0.5
*EQUATION
5
1315, 1, 1.0, 722, 1, -0.25, 733, 1, -0.25, 734, 1, -0.25, 724, 1, -0.25
*EQUATION
5
1315, 2, 1.0, 722, 2, -0.25, 733, 2, -0.25, 734, 2, -0.25, 724, 2, -0.25
*EQUATION
5
1315, 3, 1.0, 722, 3, -0.25, 733, 3, -0.25, 734, 3, -0.25, 724, 3, -0.25
*EQUATION
3
1316, 1, 1.0, 724, 1, -0.5, 734, 1, -0.5
*EQUATION
3
1316, 2, 1.0, 724, 2, -0.5, 734, 2, -0.5
*EQUATION
3
1316, 3, 1.0, 724, 3, -0.5, 734, 3, -0.5
*EQUATION
3
1317, 1, 1.0, 733, 1, -0.5, 734, 1, -0.5
*EQUATION
3
1317, 2, 1.0, 733, 2, -0.5, 734, 2, -0.5
*EQUATION
3
1317, 3, 1.0, 733, 3, -0.5, 734, 3, -0.5
*EQUATION
5
1320, 1, 1.0, 724, 1, -0.25, 772, 1, -0.25, 782, 1, -0.25, 734, 1, -0.25
*EQUATION
5
1320, 2, 1.0, 724, 2, -0.25, 772, 2, -0.25, 782, 2, -0.25, 734, 2, -0.25
*EQUATION
5
1320, 3, 1.0, 724, 3, -0.25, 772, 3, -0.25, 782, 3, -0.25, 734, 3, -0.25
*EQUATION
3
1323, 1, 1.0, 734, 1, -0.5, 782, 1, -0.5
*EQUATION
3
1323, 2, 1.0, 734, 2, -0.5, 782, 2, -0.5
*EQUATION
3
1323, 3, 1.0, 734, 3, -0.5, 782, 3, -0.5
*EQUATION
3
1324, 1, 1.0, 770, 1, -0.5, 781, 1, -0.5
*EQUATION
3
1324, 2, 1.0, 770, 2, -0.5, 781, 2, -0.5
*EQUATION
3
1324, 3, 1.0, 770, 3, -0.5, 781, 3, -0.5
*EQUATION
5
1325, 1, 1.0, 770, 1, -0.25, 781, 1, -0.25, 782, 1, -0.25, 772, 1, -0.25
*EQUATION
5
1325, 2, 1.0, 770, 2, -0.25, 781, 2, -0.25, 782, 2, -0.25, 772, 2, -0.25
*EQUATION
5
1325, 3, 1.0, 770, 3, -0.25, 781, 3, -0.25, 782, 3, -0.25, 772, 3, -0.25
*EQUATION
3
1326, 1, 1.0, 772, 1, -0.5, 782, 1, -0.5
*EQUATION
3
1326, 2, 1.0, 772, 2, -0.5, 782, 2, -0.5
*EQUATION
3
1326, 3, 1.0, 772, 3, -0.5, 782, 3, -0.5
*EQUATION
3
1327, 1, 1.0, 781, 1, -0.5, 782, 1, -0.5
*EQUATION
3
1327, 2, 1.0, 781, 2, -0.5, 782, 2, -0.5
*EQUATION
3
1327, 3, 1.0, 781, 3, -0.5, 782, 3, -0.5
*EQUATION
3
1328, 1, 1.0, 825, 1, -0.5, 827, 1, -0.5
*EQUATION
3
1328, 2, 1.0, 825, 2, -0.5, 827, 2, -0.5
*EQUATION
3
1328, 3, 1.0, 825, 3, -0.5, 827, 3, -0.5
*EQUATION
3
1329, 1, 1.0, 825, 1, -0.5, 826, 1, -0.5
*EQUATION
3
1329, 2, 1.0, 825, 2, -0.5, 826, 2, -0.5
*EQUATION
3
1329, 3, 1.0, 825, 3, -0.5, 826, 3, -0.5
*EQUATION
5
1330, 1, 1.0, 825, 1, -0.25, 826, 1, -0.25, 828, 1, -0.25, 827, 1, -0.25
*EQUATION
5
1330, 2, 1.0, 825, 2, -0.25, 826, 2, -0.25, 828, 2, -0.25, 827, 2, -0.25
*EQUATION
5
1330, 3, 1.0, 825, 3, -0.25, 826, 3, -0.25, 828, 3, -0.25, 827, 3, -0.25
*EQUATION
3
1331, 1, 1.0, 827, 1, -0.5, 828, 1, -0.5
*EQUATION
3
1331, 2, 1.0, 827, 2, -0.5, 828, 2, -0.5
*EQUATION
3
1331, 3, 1.0, 827, 3, -0.5, 828, 3, -0.5
*EQUATION
3
1332, 1, 1.0, 826, 1, -0.5, 828, 1, -0.5
*EQUATION
3
1332, 2, 1.0, 826, 2, -0.5, 828, 2, -0.5
*EQUATION
3
1332, 3, 1.0, 826, 3, -0.5, 828, 3, -0.5
*EQUATION
3
1333, 1, 1.0, 825, 1, -0.5, 873, 1, -0.5
*EQUATION
3
1333, 2, 1.0, 825, 2, -0.5, 873, 2, -0.5
*EQUATION
3
1333, 3, 1.0, 825, 3, -0.5, 873, 3, -0.5
*EQUATION
5
1336, 1, 1.0, 825, 1, -0.25, 873, 1, -0.25, 874, 1, -0.25, 826, 1, -0.25
*EQUATION
5
1336, 2, 1.0, 825, 2, -0.25, 873, 2, -0.25, 874, 2, -0.25, 826, 2, -0.25
*EQUATION
5
1336, 3, 1.0, 825, 3, -0.25, 873, 3, -0.25, 874, 3, -0.25, 826, 3, -0.25
*EQUATION
3
1339, 1, 1.0, 826, 1, -0.5, 874, 1, -0.5
*EQUATION
3
1339, 2, 1.0, 826, 2, -0.5, 874, 2, -0.5
*EQUATION
3
1339, 3, 1.0, 826, 3, -0.5, 874, 3, -0.5
*EQUATION
3
1343, 1, 1.0, 873, 1, -0.5, 874, 1, -0.5
*EQUATION
3
1343, 2, 1.0, 873, 2, -0.5, 874, 2, -0.5
*EQUATION
3
1343, 3, 1.0, 873, 3, -0.5, 874, 3, -0.5
*EQUATION
3
1347, 1, 1.0, 826, 1, -0.5, 833, 1, -0.5
*EQUATION
3
1347, 2, 1.0, 826, 2, -0.5, 833, 2, -0.5
*EQUATION
3
1347, 3, 1.0, 826, 3, -0.5, 833, 3, -0.5
*EQUATION
5
1348, 1, 1.0, 826, 1, -0.25, 833, 1, -0.25, 834, 1, -0.25, 828, 1, -0.25
*EQUATION
5
1348, 2, 1.0, 826, 2, -0.25, 833, 2, -0.25, 834, 2, -0.25, 828, 2, -0.25
*EQUATION
5
1348, 3, 1.0, 826, 3, -0.25, 833, 3, -0.25, 834, 3, -0.25, 828, 3, -0.25
*EQUATION
3
1349, 1, 1.0, 828, 1, -0.5, 834, 1, -0.5
*EQUATION
3
1349, 2, 1.0, 828, 2, -0.5, 834, 2, -0.5
*EQUATION
3
1349, 3, 1.0, 828, 3, -0.5, 834, 3, -0.5
*EQUATION
3
1350, 1, 1.0, 833, 1, -0.5, 834, 1, -0.5
*EQUATION
3
1350, 2, 1.0, 833, 2, -0.5, 834, 2, -0.5
*EQUATION
3
1350, 3, 1.0, 833, 3, -0.5, 834, 3, -0.5
*EQUATION
5
1351, 1, 1.0, 826, 1, -0.25, 874, 1, -0.25, 881, 1, -0.25, 833, 1, -0.25
*EQUATION
5
1351, 2, 1.0, 826, 2, -0.25, 874, 2, -0.25, 881, 2, -0.25, 833, 2, -0.25
*EQUATION
5
1351, 3, 1.0, 826, 3, -0.25, 874, 3, -0.25, 881, 3, -0.25, 833, 3, -0.25
*EQUATION
3
1354, 1, 1.0, 833, 1, -0.5, 881, 1, -0.5
*EQUATION
3
1354, 2, 1.0, 833, 2, -0.5, 881, 2, -0.5
*EQUATION
3
1354, 3, 1.0, 833, 3, -0.5, 881, 3, -0.5
*EQUATION
3
1357, 1, 1.0, 874, 1, -0.5, 881, 1, -0.5
*EQUATION
3
1357, 2, 1.0, 874, 2, -0.5, 881, 2, -0.5
*EQUATION
3
1357, 3, 1.0, 874, 3, -0.5, 881, 3, -0.5
*EQUATION
3
1361, 1, 1.0, 837, 1, -0.5, 839, 1, -0.5
*EQUATION
3
1361, 2, 1.0, 837, 2, -0.5, 839, 2, -0.5
*EQUATION
3
1361, 3, 1.0, 837, 3, -0.5, 839, 3, -0.5
*EQUATION
3
1362, 1, 1.0, 837, 1, -0.5, 838, 1, -0.5
*EQUATION
3
1362, 2, 1.0, 837, 2, -0.5, 838, 2, -0.5
*EQUATION
3
1362, 3, 1.0, 837, 3, -0.5, 838, 3, -0.5
*EQUATION
5
1363, 1, 1.0, 837, 1, -0.25, 838, 1, -0.25, 840, 1, -0.25, 839, 1, -0.25
*EQUATION
5
1363, 2, 1.0, 837, 2, -0.25, 838, 2, -0.25, 840, 2, -0.25, 839, 2, -0.25
*EQUATION
5
1363, 3, 1.0, 837, 3, -0.25, 838, 3, -0.25, 840, 3, -0.25, 839, 3, -0.25
*EQUATION
3
1364, 1, 1.0, 839, 1, -0.5, 840, 1, -0.5
*EQUATION
3
1364, 2, 1.0, 839, 2, -0.5, 840, 2, -0.5
*EQUATION
3
1364, 3, 1.0, 839, 3, -0.5, 840, 3, -0.5
*EQUATION
3
1365, 1, 1.0, 838, 1, -0.5, 840, 1, -0.5
*EQUATION
3
1365, 2, 1.0, 838, 2, -0.5, 840, 2, -0.5
*EQUATION
3
1365, 3, 1.0, 838, 3, -0.5, 840, 3, -0.5
*EQUATION
3
1366, 1, 1.0, 837, 1, -0.5, 885, 1, -0.5
*EQUATION
3
1366, 2, 1.0, 837, 2, -0.5, 885, 2, -0.5
*EQUATION
3
1366, 3, 1.0, 837, 3, -0.5, 885, 3, -0.5
*EQUATION
5
1369, 1, 1.0, 837, 1, -0.25, 885, 1, -0.25, 886, 1, -0.25, 838, 1, -0.25
*EQUATION
5
1369, 2, 1.0, 837, 2, -0.25, 885, 2, -0.25, 886, 2, -0.25, 838, 2, -0.25
*EQUATION
5
1369, 3, 1.0, 837, 3, -0.25, 885, 3, -0.25, 886, 3, -0.25, 838, 3, -0.25
*EQUATION
3
1372, 1, 1.0, 838, 1, -0.5, 886, 1, -0.5
*EQUATION
3
1372, 2, 1.0, 838, 2, -0.5, 886, 2, -0.5
*EQUATION
3
1372, 3, 1.0, 838, 3, -0.5, 886, 3, -0.5
*EQUATION
3
1376, 1, 1.0, 885, 1, -0.5, 886, 1, -0.5
*EQUATION
3
1376, 2, 1.0, 885, 2, -0.5, 886, 2, -0.5
*EQUATION
3
1376, 3, 1.0, 885, 3, -0.5, 886, 3, -0.5
*EQUATION
3
1380, 1, 1.0, 838, 1, -0.5, 842, 1, -0.5
*EQUATION
3
1380, 2, 1.0, 838, 2, -0.5, 842, 2, -0.5
*EQUATION
3
1380, 3, 1.0, 838, 3, -0.5, 842, 3, -0.5
*EQUATION
5
1381, 1, 1.0, 838, 1, -0.25, 842, 1, -0.25, 843, 1, -0.25, 840, 1, -0.25
*EQUATION
5
1381, 2, 1.0, 838, 2, -0.25, 842, 2, -0.25, 843, 2, -0.25, 840, 2, -0.25
*EQUATION
5
1381, 3, 1.0, 838, 3, -0.25, 842, 3, -0.25, 843, 3, -0.25, 840, 3, -0.25
*EQUATION
3
1382, 1, 1.0, 840, 1, -0.5, 843, 1, -0.5
*EQUATION
3
1382, 2, 1.0, 840, 2, -0.5, 843, 2, -0.5
*EQUATION
3
1382, 3, 1.0, 840, 3, -0.5, 843, 3, -0.5
*EQUATION
3
1383, 1, 1.0, 842, 1, -0.5, 843, 1, -0.5
*EQUATION
3
1383, 2, 1.0, 842, 2, -0.5, 843, 2, -0.5
*EQUATION
3
1383, 3, 1.0, 842, 3, -0.5, 843, 3, -0.5
*EQUATION
5
1384, 1, 1.0, 838, 1, -0.25, 886, 1, -0.25, 890, 1, -0.25, 842, 1, -0.25
*EQUATION
5
1384, 2, 1.0, 838, 2, -0.25, 886, 2, -0.25, 890, 2, -0.25, 842, 2, -0.25
*EQUATION
5
1384, 3, 1.0, 838, 3, -0.25, 886, 3, -0.25, 890, 3, -0.25, 842, 3, -0.25
*EQUATION
3
1387, 1, 1.0, 842, 1, -0.5, 890, 1, -0.5
*EQUATION
3
1387, 2, 1.0, 842, 2, -0.5, 890, 2, -0.5
*EQUATION
3
1387, 3, 1.0, 842, 3, -0.5, 890, 3, -0.5
*EQUATION
3
1390, 1, 1.0, 886, 1, -0.5, 890, 1, -0.5
*EQUATION
3
1390, 2, 1.0, 886, 2, -0.5, 890, 2, -0.5
*EQUATION
3
1390, 3, 1.0, 886, 3, -0.5, 890, 3, -0.5
*EQUATION
3
1394, 1, 1.0, 842, 1, -0.5, 845, 1, -0.5
*EQUATION
3
1394, 2, 1.0, 842, 2, -0.5, 845, 2, -0.5
*EQUATION
3
1394, 3, 1.0, 842, 3, -0.5, 845, 3, -0.5
*EQUATION
5
1395, 1, 1.0, 842, 1, -0.25, 845, 1, -0.25, 846, 1, -0.25, 843, 1, -0.25
*EQUATION
5
1395, 2, 1.0, 842, 2, -0.25, 845, 2, -0.25, 846, 2, -0.25, 843, 2, -0.25
*EQUATION
5
1395, 3, 1.0, 842, 3, -0.25, 845, 3, -0.25, 846, 3, -0.25, 843, 3, -0.25
*EQUATION
3
1396, 1, 1.0, 843, 1, -0.5, 846, 1, -0.5
*EQUATION
3
1396, 2, 1.0, 843, 2, -0.5, 846, 2, -0.5
*EQUATION
3
1396, 3, 1.0, 843, 3, -0.5, 846, 3, -0.5
*EQUATION
3
1397, 1, 1.0, 845, 1, -0.5, 846, 1, -0.5
*EQUATION
3
1397, 2, 1.0, 845, 2, -0.5, 846, 2, -0.5
*EQUATION
3
1397, 3, 1.0, 845, 3, -0.5, 846, 3, -0.5
*EQUATION
5
1398, 1, 1.0, 842, 1, -0.25, 890, 1, -0.25, 893, 1, -0.25, 845, 1, -0.25
*EQUATION
5
1398, 2, 1.0, 842, 2, -0.25, 890, 2, -0.25, 893, 2, -0.25, 845, 2, -0.25
*EQUATION
5
1398, 3, 1.0, 842, 3, -0.25, 890, 3, -0.25, 893, 3, -0.25, 845, 3, -0.25
*EQUATION
3
1401, 1, 1.0, 845, 1, -0.5, 893, 1, -0.5
*EQUATION
3
1401, 2, 1.0, 845, 2, -0.5, 893, 2, -0.5
*EQUATION
3
1401, 3, 1.0, 845, 3, -0.5, 893, 3, -0.5
*EQUATION
3
1404, 1, 1.0, 890, 1, -0.5, 893, 1, -0.5
*EQUATION
3
1404, 2, 1.0, 890, 2, -0.5, 893, 2, -0.5
*EQUATION
3
1404, 3, 1.0, 890, 3, -0.5, 893, 3, -0.5
*EQUATION
3
1408, 1, 1.0, 844, 1, -0.5, 845, 1, -0.5
*EQUATION
3
1408, 2, 1.0, 844, 2, -0.5, 845, 2, -0.5
*EQUATION
3
1408, 3, 1.0, 844, 3, -0.5, 845, 3, -0.5
*EQUATION
3
1409, 1, 1.0, 827, 1, -0.5, 844, 1, -0.5
*EQUATION
3
1409, 2, 1.0, 827, 2, -0.5, 844, 2, -0.5
*EQUATION
3
1409, 3, 1.0, 827, 3, -0.5, 844, 3, -0.5
*EQUATION
5
1410, 1, 1.0, 844, 1, -0.25, 827, 1, -0.25, 847, 1, -0.25, 845, 1, -0.25
*EQUATION
5
1410, 2, 1.0, 844, 2, -0.25, 827, 2, -0.25, 847, 2, -0.25, 845, 2, -0.25
*EQUATION
5
1410, 3, 1.0, 844, 3, -0.25, 827, 3, -0.25, 847, 3, -0.25, 845, 3, -0.25
*EQUATION
3
1411, 1, 1.0, 845, 1, -0.5, 847, 1, -0.5
*EQUATION
3
1411, 2, 1.0, 845, 2, -0.5, 847, 2, -0.5
*EQUATION
3
1411, 3, 1.0, 845, 3, -0.5, 847, 3, -0.5
*EQUATION
3
1412, 1, 1.0, 827, 1, -0.5, 847, 1, -0.5
*EQUATION
3
1412, 2, 1.0, 827, 2, -0.5, 847, 2, -0.5
*EQUATION
3
1412, 3, 1.0, 827, 3, -0.5, 847, 3, -0.5
*EQUATION
3
1413, 1, 1.0, 844, 1, -0.5, 892, 1, -0.5
*EQUATION
3
1413, 2, 1.0, 844, 2, -0.5, 892, 2, -0.5
*EQUATION
3
1413, 3, 1.0, 844, 3, -0.5, 892, 3, -0.5
*EQUATION
5
1414, 1, 1.0, 844, 1, -0.25, 892, 1, -0.25, 893, 1, -0.25, 845, 1, -0.25
*EQUATION
5
1414, 2, 1.0, 844, 2, -0.25, 892, 2, -0.25, 893, 2, -0.25, 845, 2, -0.25
*EQUATION
5
1414, 3, 1.0, 844, 3, -0.25, 892, 3, -0.25, 893, 3, -0.25, 845, 3, -0.25
*EQUATION
3
1420, 1, 1.0, 892, 1, -0.5, 893, 1, -0.5
*EQUATION
3
1420, 2, 1.0, 892, 2, -0.5, 893, 2, -0.5
*EQUATION
3
1420, 3, 1.0, 892, 3, -0.5, 893, 3, -0.5
*EQUATION
5
1425, 1, 1.0, 845, 1, -0.25, 847, 1, -0.25, 848, 1, -0.25, 846, 1, -0.25
*EQUATION
5
1425, 2, 1.0, 845, 2, -0.25, 847, 2, -0.25, 848, 2, -0.25, 846, 2, -0.25
*EQUATION
5
1425, 3, 1.0, 845, 3, -0.25, 847, 3, -0.25, 848, 3, -0.25, 846, 3, -0.25
*EQUATION
3
1426, 1, 1.0, 846, 1, -0.5, 848, 1, -0.5
*EQUATION
3
1426, 2, 1.0, 846, 2, -0.5, 848, 2, -0.5
*EQUATION
3
1426, 3, 1.0, 846, 3, -0.5, 848, 3, -0.5
*EQUATION
3
1427, 1, 1.0, 847, 1, -0.5, 848, 1, -0.5
*EQUATION
3
1427, 2, 1.0, 847, 2, -0.5, 848, 2, -0.5
*EQUATION
3
1427, 3, 1.0, 847, 3, -0.5, 848, 3, -0.5
*EQUATION
5
1435, 1, 1.0, 827, 1, -0.25, 828, 1, -0.25, 849, 1, -0.25, 847, 1, -0.25
*EQUATION
5
1435, 2, 1.0, 827, 2, -0.25, 828, 2, -0.25, 849, 2, -0.25, 847, 2, -0.25
*EQUATION
5
1435, 3, 1.0, 827, 3, -0.25, 828, 3, -0.25, 849, 3, -0.25, 847, 3, -0.25
*EQUATION
3
1436, 1, 1.0, 847, 1, -0.5, 849, 1, -0.5
*EQUATION
3
1436, 2, 1.0, 847, 2, -0.5, 849, 2, -0.5
*EQUATION
3
1436, 3, 1.0, 847, 3, -0.5, 849, 3, -0.5
*EQUATION
3
1437, 1, 1.0, 828, 1, -0.5, 849, 1, -0.5
*EQUATION
3
1437, 2, 1.0, 828, 2, -0.5, 849, 2, -0.5
*EQUATION
3
1437, 3, 1.0, 828, 3, -0.5, 849, 3, -0.5
*EQUATION
5
1445, 1, 1.0, 847, 1, -0.25, 849, 1, -0.25, 850, 1, -0.25, 848, 1, -0.25
*EQUATION
5
1445, 2, 1.0, 847, 2, -0.25, 849, 2, -0.25, 850, 2, -0.25, 848, 2, -0.25
*EQUATION
5
1445, 3, 1.0, 847, 3, -0.25, 849, 3, -0.25, 850, 3, -0.25, 848, 3, -0.25
*EQUATION
3
1446, 1, 1.0, 848, 1, -0.5, 850, 1, -0.5
*EQUATION
3
1446, 2, 1.0, 848, 2, -0.5, 850, 2, -0.5
*EQUATION
3
1446, 3, 1.0, 848, 3, -0.5, 850, 3, -0.5
*EQUATION
3
1447, 1, 1.0, 849, 1, -0.5, 850, 1, -0.5
*EQUATION
3
1447, 2, 1.0, 849, 2, -0.5, 850, 2, -0.5
*EQUATION
3
1447, 3, 1.0, 849, 3, -0.5, 850, 3, -0.5
*EQUATION
5
1455, 1, 1.0, 828, 1, -0.25, 834, 1, -0.25, 851, 1, -0.25, 849, 1, -0.25
*EQUATION
5
1455, 2, 1.0, 828, 2, -0.25, 834, 2, -0.25, 851, 2, -0.25, 849, 2, -0.25
*EQUATION
5
1455, 3, 1.0, 828, 3, -0.25, 834, 3, -0.25, 851, 3, -0.25, 849, 3, -0.25
*EQUATION
3
1456, 1, 1.0, 849, 1, -0.5, 851, 1, -0.5
*EQUATION
3
1456, 2, 1.0, 849, 2, -0.5, 851, 2, -0.5
*EQUATION
3
1456, 3, 1.0, 849, 3, -0.5, 851, 3, -0.5
*EQUATION
3
1457, 1, 1.0, 834, 1, -0.5, 851, 1, -0.5
*EQUATION
3
1457, 2, 1.0, 834, 2, -0.5, 851, 2, -0.5
*EQUATION
3
1457, 3, 1.0, 834, 3, -0.5, 851, 3, -0.5
*EQUATION
5
1465, 1, 1.0, 849, 1, -0.25, 851, 1, -0.25, 852, 1, -0.25, 850, 1, -0.25
*EQUATION
5
1465, 2, 1.0, 849, 2, -0.25, 851, 2, -0.25, 852, 2, -0.25, 850, 2, -0.25
*EQUATION
5
1465, 3, 1.0, 849, 3, -0.25, 851, 3, -0.25, 852, 3, -0.25, 850, 3, -0.25
*EQUATION
3
1466, 1, 1.0, 850, 1, -0.5, 852, 1, -0.5
*EQUATION
3
1466, 2, 1.0, 850, 2, -0.5, 852, 2, -0.5
*EQUATION
3
1466, 3, 1.0, 850, 3, -0.5, 852, 3, -0.5
*EQUATION
3
1467, 1, 1.0, 851, 1, -0.5, 852, 1, -0.5
*EQUATION
3
1467, 2, 1.0, 851, 2, -0.5, 852, 2, -0.5
*EQUATION
3
1467, 3, 1.0, 851, 3, -0.5, 852, 3, -0.5
*EQUATION
3
1475, 1, 1.0, 834, 1, -0.5, 853, 1, -0.5
*EQUATION
3
1475, 2, 1.0, 834, 2, -0.5, 853, 2, -0.5
*EQUATION
3
1475, 3, 1.0, 834, 3, -0.5, 853, 3, -0.5
*EQUATION
5
1476, 1, 1.0, 834, 1, -0.25, 853, 1, -0.25, 854, 1, -0.25, 851, 1, -0.25
*EQUATION
5
1476, 2, 1.0, 834, 2, -0.25, 853, 2, -0.25, 854, 2, -0.25, 851, 2, -0.25
*EQUATION
5
1476, 3, 1.0, 834, 3, -0.25, 853, 3, -0.25, 854, 3, -0.25, 851, 3, -0.25
*EQUATION
3
1477, 1, 1.0, 851, 1, -0.5, 854, 1, -0.5
*EQUATION
3
1477, 2, 1.0, 851, 2, -0.5, 854, 2, -0.5
*EQUATION
3
1477, 3, 1.0, 851, 3, -0.5, 854, 3, -0.5
*EQUATION
3
1478, 1, 1.0, 853, 1, -0.5, 854, 1, -0.5
*EQUATION
3
1478, 2, 1.0, 853, 2, -0.5, 854, 2, -0.5
*EQUATION
3
1478, 3, 1.0, 853, 3, -0.5, 854, 3, -0.5
*EQUATION
3
1482, 1, 1.0, 853, 1, -0.5, 901, 1, -0.5
*EQUATION
3
1482, 2, 1.0, 853, 2, -0.5, 901, 2, -0.5
*EQUATION
3
1482, 3, 1.0, 853, 3, -0.5, 901, 3, -0.5
*EQUATION
5
1483, 1, 1.0, 853, 1, -0.25, 901, 1, -0.25, 902, 1, -0.25, 854, 1, -0.25
*EQUATION
5
1483, 2, 1.0, 853, 2, -0.25, 901, 2, -0.25, 902, 2, -0.25, 854, 2, -0.25
*EQUATION
5
1483, 3, 1.0, 853, 3, -0.25, 901, 3, -0.25, 902, 3, -0.25, 854, 3, -0.25
*EQUATION
3
1484, 1, 1.0, 854, 1, -0.5, 902, 1, -0.5
*EQUATION
3
1484, 2, 1.0, 854, 2, -0.5, 902, 2, -0.5
*EQUATION
3
1484, 3, 1.0, 854, 3, -0.5, 902, 3, -0.5
*EQUATION
3
1488, 1, 1.0, 901, 1, -0.5, 902, 1, -0.5
*EQUATION
3
1488, 2, 1.0, 901, 2, -0.5, 902, 2, -0.5
*EQUATION
3
1488, 3, 1.0, 901, 3, -0.5, 902, 3, -0.5
*EQUATION
5
1489, 1, 1.0, 851, 1, -0.25, 854, 1, -0.25, 855, 1, -0.25, 852, 1, -0.25
*EQUATION
5
1489, 2, 1.0, 851, 2, -0.25, 854, 2, -0.25, 855, 2, -0.25, 852, 2, -0.25
*EQUATION
5
1489, 3, 1.0, 851, 3, -0.25, 854, 3, -0.25, 855, 3, -0.25, 852, 3, -0.25
*EQUATION
3
1490, 1, 1.0, 852, 1, -0.5, 855, 1, -0.5
*EQUATION
3
1490, 2, 1.0, 852, 2, -0.5, 855, 2, -0.5
*EQUATION
3
1490, 3, 1.0, 852, 3, -0.5, 855, 3, -0.5
*EQUATION
3
1491, 1, 1.0, 854, 1, -0.5, 855, 1, -0.5
*EQUATION
3
1491, 2, 1.0, 854, 2, -0.5, 855, 2, -0.5
*EQUATION
3
1491, 3, 1.0, 854, 3, -0.5, 855, 3, -0.5
*EQUATION
3
1499, 1, 1.0, 854, 1, -0.5, 857, 1, -0.5
*EQUATION
3
1499, 2, 1.0, 854, 2, -0.5, 857, 2, -0.5
*EQUATION
3
1499, 3, 1.0, 854, 3, -0.5, 857, 3, -0.5
*EQUATION
5
1500, 1, 1.0, 854, 1, -0.25, 857, 1, -0.25, 858, 1, -0.25, 855, 1, -0.25
*EQUATION
5
1500, 2, 1.0, 854, 2, -0.25, 857, 2, -0.25, 858, 2, -0.25, 855, 2, -0.25
*EQUATION
5
1500, 3, 1.0, 854, 3, -0.25, 857, 3, -0.25, 858, 3, -0.25, 855, 3, -0.25
*EQUATION
3
1501, 1, 1.0, 855, 1, -0.5, 858, 1, -0.5
*EQUATION
3
1501, 2, 1.0, 855, 2, -0.5, 858, 2, -0.5
*EQUATION
3
1501, 3, 1.0, 855, 3, -0.5, 858, 3, -0.5
*EQUATION
3
1502, 1, 1.0, 857, 1, -0.5, 858, 1, -0.5
*EQUATION
3
1502, 2, 1.0, 857, 2, -0.5, 858, 2, -0.5
*EQUATION
3
1502, 3, 1.0, 857, 3, -0.5, 858, 3, -0.5
*EQUATION
5
1503, 1, 1.0, 854, 1, -0.25, 902, 1, -0.25, 905, 1, -0.25, 857, 1, -0.25
*EQUATION
5
1503, 2, 1.0, 854, 2, -0.25, 902, 2, -0.25, 905, 2, -0.25, 857, 2, -0.25
*EQUATION
5
1503, 3, 1.0, 854, 3, -0.25, 902, 3, -0.25, 905, 3, -0.25, 857, 3, -0.25
*EQUATION
3
1506, 1, 1.0, 857, 1, -0.5, 905, 1, -0.5
*EQUATION
3
1506, 2, 1.0, 857, 2, -0.5, 905, 2, -0.5
*EQUATION
3
1506, 3, 1.0, 857, 3, -0.5, 905, 3, -0.5
*EQUATION
3
1509, 1, 1.0, 902, 1, -0.5, 905, 1, -0.5
*EQUATION
3
1509, 2, 1.0, 902, 2, -0.5, 905, 2, -0.5
*EQUATION
3
1509, 3, 1.0, 902, 3, -0.5, 905, 3, -0.5
*EQUATION
3
1513, 1, 1.0, 857, 1, -0.5, 860, 1, -0.5
*EQUATION
3
1513, 2, 1.0, 857, 2, -0.5, 860, 2, -0.5
*EQUATION
3
1513, 3, 1.0, 857, 3, -0.5, 860, 3, -0.5
*EQUATION
5
1514, 1, 1.0, 857, 1, -0.25, 860, 1, -0.25, 861, 1, -0.25, 858, 1, -0.25
*EQUATION
5
1514, 2, 1.0, 857, 2, -0.25, 860, 2, -0.25, 861, 2, -0.25, 858, 2, -0.25
*EQUATION
5
1514, 3, 1.0, 857, 3, -0.25, 860, 3, -0.25, 861, 3, -0.25, 858, 3, -0.25
*EQUATION
3
1515, 1, 1.0, 858, 1, -0.5, 861, 1, -0.5
*EQUATION
3
1515, 2, 1.0, 858, 2, -0.5, 861, 2, -0.5
*EQUATION
3
1515, 3, 1.0, 858, 3, -0.5, 861, 3, -0.5
*EQUATION
3
1516, 1, 1.0, 860, 1, -0.5, 861, 1, -0.5
*EQUATION
3
1516, 2, 1.0, 860, 2, -0.5, 861, 2, -0.5
*EQUATION
3
1516, 3, 1.0, 860, 3, -0.5, 861, 3, -0.5
*EQUATION
5
1517, 1, 1.0, 857, 1, -0.25, 905, 1, -0.25, 908, 1, -0.25, 860, 1, -0.25
*EQUATION
5
1517, 2, 1.0, 857, 2, -0.25, 905, 2, -0.25, 908, 2, -0.25, 860, 2, -0.25
*EQUATION
5
1517, 3, 1.0, 857, 3, -0.25, 905, 3, -0.25, 908, 3, -0.25, 860, 3, -0.25
*EQUATION
3
1520, 1, 1.0, 860, 1, -0.5, 908, 1, -0.5
*EQUATION
3
1520, 2, 1.0, 860, 2, -0.5, 908, 2, -0.5
*EQUATION
3
1520, 3, 1.0, 860, 3, -0.5, 908, 3, -0.5
*EQUATION
3
1523, 1, 1.0, 905, 1, -0.5, 908, 1, -0.5
*EQUATION
3
1523, 2, 1.0, 905, 2, -0.5, 908, 2, -0.5
*EQUATION
3
1523, 3, 1.0, 905, 3, -0.5, 908, 3, -0.5
*EQUATION
3
1527, 1, 1.0, 860, 1, -0.5, 863, 1, -0.5
*EQUATION
3
1527, 2, 1.0, 860, 2, -0.5, 863, 2, -0.5
*EQUATION
3
1527, 3, 1.0, 860, 3, -0.5, 863, 3, -0.5
*EQUATION
5
1528, 1, 1.0, 860, 1, -0.25, 863, 1, -0.25, 864, 1, -0.25, 861, 1, -0.25
*EQUATION
5
1528, 2, 1.0, 860, 2, -0.25, 863, 2, -0.25, 864, 2, -0.25, 861, 2, -0.25
*EQUATION
5
1528, 3, 1.0, 860, 3, -0.25, 863, 3, -0.25, 864, 3, -0.25, 861, 3, -0.25
*EQUATION
3
1529, 1, 1.0, 861, 1, -0.5, 864, 1, -0.5
*EQUATION
3
1529, 2, 1.0, 861, 2, -0.5, 864, 2, -0.5
*EQUATION
3
1529, 3, 1.0, 861, 3, -0.5, 864, 3, -0.5
*EQUATION
3
1530, 1, 1.0, 863, 1, -0.5, 864, 1, -0.5
*EQUATION
3
1530, 2, 1.0, 863, 2, -0.5, 864, 2, -0.5
*EQUATION
3
1530, 3, 1.0, 863, 3, -0.5, 864, 3, -0.5
*EQUATION
5
1531, 1, 1.0, 860, 1, -0.25, 908, 1, -0.25, 911, 1, -0.25, 863, 1, -0.25
*EQUATION
5
1531, 2, 1.0, 860, 2, -0.25, 908, 2, -0.25, 911, 2, -0.25, 863, 2, -0.25
*EQUATION
5
1531, 3, 1.0, 860, 3, -0.25, 908, 3, -0.25, 911, 3, -0.25, 863, 3, -0.25
*EQUATION
3
1534, 1, 1.0, 863, 1, -0.5, 911, 1, -0.5
*EQUATION
3
1534, 2, 1.0, 863, 2, -0.5, 911, 2, -0.5
*EQUATION
3
1534, 3, 1.0, 863, 3, -0.5, 911, 3, -0.5
*EQUATION
3
1537, 1, 1.0, 908, 1, -0.5, 911, 1, -0.5
*EQUATION
3
1537, 2, 1.0, 908, 2, -0.5, 911, 2, -0.5
*EQUATION
3
1537, 3, 1.0, 908, 3, -0.5, 911, 3, -0.5
*EQUATION
3
1541, 1, 1.0, 918, 1, -0.5, 919, 1, -0.5
*EQUATION
3
1541, 2, 1.0, 918, 2, -0.5, 919, 2, -0.5
*EQUATION
3
1541, 3, 1.0, 918, 3, -0.5, 919, 3, -0.5
*EQUATION
3
1542, 1, 1.0, 918, 1, -0.5, 921, 1, -0.5
*EQUATION
3
1542, 2, 1.0, 918, 2, -0.5, 921, 2, -0.5
*EQUATION
3
1542, 3, 1.0, 918, 3, -0.5, 921, 3, -0.5
*EQUATION
5
1543, 1, 1.0, 918, 1, -0.25, 921, 1, -0.25, 922, 1, -0.25, 919, 1, -0.25
*EQUATION
5
1543, 2, 1.0, 918, 2, -0.25, 921, 2, -0.25, 922, 2, -0.25, 919, 2, -0.25
*EQUATION
5
1543, 3, 1.0, 918, 3, -0.25, 921, 3, -0.25, 922, 3, -0.25, 919, 3, -0.25
*EQUATION
3
1544, 1, 1.0, 919, 1, -0.5, 922, 1, -0.5
*EQUATION
3
1544, 2, 1.0, 919, 2, -0.5, 922, 2, -0.5
*EQUATION
3
1544, 3, 1.0, 919, 3, -0.5, 922, 3, -0.5
*EQUATION
3
1545, 1, 1.0, 921, 1, -0.5, 922, 1, -0.5
*EQUATION
3
1545, 2, 1.0, 921, 2, -0.5, 922, 2, -0.5
*EQUATION
3
1545, 3, 1.0, 921, 3, -0.5, 922, 3, -0.5
*EQUATION
3
1548, 1, 1.0, 919, 1, -0.5, 927, 1, -0.5
*EQUATION
3
1548, 2, 1.0, 919, 2, -0.5, 927, 2, -0.5
*EQUATION
3
1548, 3, 1.0, 919, 3, -0.5, 927, 3, -0.5
*EQUATION
5
1551, 1, 1.0, 919, 1, -0.25, 927, 1, -0.25, 929, 1, -0.25, 922, 1, -0.25
*EQUATION
5
1551, 2, 1.0, 919, 2, -0.25, 927, 2, -0.25, 929, 2, -0.25, 922, 2, -0.25
*EQUATION
5
1551, 3, 1.0, 919, 3, -0.25, 927, 3, -0.25, 929, 3, -0.25, 922, 3, -0.25
*EQUATION
3
1554, 1, 1.0, 922, 1, -0.5, 929, 1, -0.5
*EQUATION
3
1554, 2, 1.0, 922, 2, -0.5, 929, 2, -0.5
*EQUATION
3
1554, 3, 1.0, 922, 3, -0.5, 929, 3, -0.5
*EQUATION
3
1555, 1, 1.0, 2, 1, -0.5, 927, 1, -0.5
*EQUATION
3
1555, 2, 1.0, 2, 2, -0.5, 927, 2, -0.5
*EQUATION
3
1555, 3, 1.0, 2, 3, -0.5, 927, 3, -0.5
*EQUATION
3
1556, 1, 1.0, 2, 1, -0.5, 928, 1, -0.5
*EQUATION
3
1556, 2, 1.0, 2, 2, -0.5, 928, 2, -0.5
*EQUATION
3
1556, 3, 1.0, 2, 3, -0.5, 928, 3, -0.5
*EQUATION
5
1557, 1, 1.0, 2, 1, -0.25, 928, 1, -0.25, 929, 1, -0.25, 927, 1, -0.25
*EQUATION
5
1557, 2, 1.0, 2, 2, -0.25, 928, 2, -0.25, 929, 2, -0.25, 927, 2, -0.25
*EQUATION
5
1557, 3, 1.0, 2, 3, -0.25, 928, 3, -0.25, 929, 3, -0.25, 927, 3, -0.25
*EQUATION
3
1558, 1, 1.0, 927, 1, -0.5, 929, 1, -0.5
*EQUATION
3
1558, 2, 1.0, 927, 2, -0.5, 929, 2, -0.5
*EQUATION
3
1558, 3, 1.0, 927, 3, -0.5, 929, 3, -0.5
*EQUATION
3
1559, 1, 1.0, 928, 1, -0.5, 929, 1, -0.5
*EQUATION
3
1559, 2, 1.0, 928, 2, -0.5, 929, 2, -0.5
*EQUATION
3
1559, 3, 1.0, 928, 3, -0.5, 929, 3, -0.5
*EQUATION
3
1560, 1, 1.0, 921, 1, -0.5, 924, 1, -0.5
*EQUATION
3
1560, 2, 1.0, 921, 2, -0.5, 924, 2, -0.5
*EQUATION
3
1560, 3, 1.0, 921, 3, -0.5, 924, 3, -0.5
*EQUATION
5
1561, 1, 1.0, 921, 1, -0.25, 924, 1, -0.25, 925, 1, -0.25, 922, 1, -0.25
*EQUATION
5
1561, 2, 1.0, 921, 2, -0.25, 924, 2, -0.25, 925, 2, -0.25, 922, 2, -0.25
*EQUATION
5
1561, 3, 1.0, 921, 3, -0.25, 924, 3, -0.25, 925, 3, -0.25, 922, 3, -0.25
*EQUATION
3
1562, 1, 1.0, 922, 1, -0.5, 925, 1, -0.5
*EQUATION
3
1562, 2, 1.0, 922, 2, -0.5, 925, 2, -0.5
*EQUATION
3
1562, 3, 1.0, 922, 3, -0.5, 925, 3, -0.5
*EQUATION
3
1563, 1, 1.0, 924, 1, -0.5, 925, 1, -0.5
*EQUATION
3
1563, 2, 1.0, 924, 2, -0.5, 925, 2, -0.5
*EQUATION
3
1563, 3, 1.0, 924, 3, -0.5, 925, 3, -0.5
*EQUATION
5
1566, 1, 1.0, 922, 1, -0.25, 929, 1, -0.25, 931, 1, -0.25, 925, 1, -0.25
*EQUATION
5
1566, 2, 1.0, 922, 2, -0.25, 929, 2, -0.25, 931, 2, -0.25, 925, 2, -0.25
*EQUATION
5
1566, 3, 1.0, 922, 3, -0.25, 929, 3, -0.25, 931, 3, -0.25, 925, 3, -0.25
*EQUATION
3
1569, 1, 1.0, 925, 1, -0.5, 931, 1, -0.5
*EQUATION
3
1569, 2, 1.0, 925, 2, -0.5, 931, 2, -0.5
*EQUATION
3
1569, 3, 1.0, 925, 3, -0.5, 931, 3, -0.5
*EQUATION
3
1570, 1, 1.0, 3, 1, -0.5, 928, 1, -0.5
*EQUATION
3
1570, 2, 1.0, 3, 2, -0.5, 928, 2, -0.5
*EQUATION
3
1570, 3, 1.0, 3, 3, -0.5, 928, 3, -0.5
*EQUATION
5
1571, 1, 1.0, 928, 1, -0.25, 3, 1, -0.25, 931, 1, -0.25, 929, 1, -0.25
*EQUATION
5
1571, 2, 1.0, 928, 2, -0.25, 3, 2, -0.25, 931, 2, -0.25, 929, 2, -0.25
*EQUATION
5
1571, 3, 1.0, 928, 3, -0.25, 3, 3, -0.25, 931, 3, -0.25, 929, 3, -0.25
*EQUATION
3
1572, 1, 1.0, 929, 1, -0.5, 931, 1, -0.5
*EQUATION
3
1572, 2, 1.0, 929, 2, -0.5, 931, 2, -0.5
*EQUATION
3
1572, 3, 1.0, 929, 3, -0.5, 931, 3, -0.5
*EQUATION
3
1573, 1, 1.0, 3, 1, -0.5, 931, 1, -0.5
*EQUATION
3
1573, 2, 1.0, 3, 2, -0.5, 931, 2, -0.5
*EQUATION
3
1573, 3, 1.0, 3, 3, -0.5, 931, 3, -0.5
*EQUATION
3
1574, 1, 1.0, 936, 1, -0.5, 937, 1, -0.5
*EQUATION
3
1574, 2, 1.0, 936, 2, -0.5, 937, 2, -0.5
*EQUATION
3
1574, 3, 1.0, 936, 3, -0.5, 937, 3, -0.5
*EQUATION
3
1575, 1, 1.0, 936, 1, -0.5, 938, 1, -0.5
*EQUATION
3
1575, 2, 1.0, 936, 2, -0.5, 938, 2, -0.5
*EQUATION
3
1575, 3, 1.0, 936, 3, -0.5, 938, 3, -0.5
*EQUATION
5
1576, 1, 1.0, 936, 1, -0.25, 938, 1, -0.25, 939, 1, -0.25, 937, 1, -0.25
*EQUATION
5
1576, 2, 1.0, 936, 2, -0.25, 938, 2, -0.25, 939, 2, -0.25, 937, 2, -0.25
*EQUATION
5
1576, 3, 1.0, 936, 3, -0.25, 938, 3, -0.25, 939, 3, -0.25, 937, 3, -0.25
*EQUATION
3
1577, 1, 1.0, 937, 1, -0.5, 939, 1, -0.5
*EQUATION
3
1577, 2, 1.0, 937, 2, -0.5, 939, 2, -0.5
*EQUATION
3
1577, 3, 1.0, 937, 3, -0.5, 939, 3, -0.5
*EQUATION
3
1578, 1, 1.0, 938, 1, -0.5, 939, 1, -0.5
*EQUATION
3
1578, 2, 1.0, 938, 2, -0.5, 939, 2, -0.5
*EQUATION
3
1578, 3, 1.0, 938, 3, -0.5, 939, 3, -0.5
*EQUATION
3
1579, 1, 1.0, 936, 1, -0.5, 942, 1, -0.5
*EQUATION
3
1579, 2, 1.0, 936, 2, -0.5, 942, 2, -0.5
*EQUATION
3
1579, 3, 1.0, 936, 3, -0.5, 942, 3, -0.5
*EQUATION
3
1581, 1, 1.0, 10, 1, -0.5, 937, 1, -0.5
*EQUATION
3
1581, 2, 1.0, 10, 2, -0.5, 937, 2, -0.5
*EQUATION
3
1581, 3, 1.0, 10, 3, -0.5, 937, 3, -0.5
*EQUATION
5
1582, 1, 1.0, 936, 1, -0.25, 942, 1, -0.25, 943, 1, -0.25, 938, 1, -0.25
*EQUATION
5
1582, 2, 1.0, 936, 2, -0.25, 942, 2, -0.25, 943, 2, -0.25, 938, 2, -0.25
*EQUATION
5
1582, 3, 1.0, 936, 3, -0.25, 942, 3, -0.25, 943, 3, -0.25, 938, 3, -0.25
*EQUATION
5
1584, 1, 1.0, 937, 1, -0.25, 10, 1, -0.25, 944, 1, -0.25, 939, 1, -0.25
*EQUATION
5
1584, 2, 1.0, 937, 2, -0.25, 10, 2, -0.25, 944, 2, -0.25, 939, 2, -0.25
*EQUATION
5
1584, 3, 1.0, 937, 3, -0.25, 10, 3, -0.25, 944, 3, -0.25, 939, 3, -0.25
*EQUATION
3
1585, 1, 1.0, 938, 1, -0.5, 943, 1, -0.5
*EQUATION
3
1585, 2, 1.0, 938, 2, -0.5, 943, 2, -0.5
*EQUATION
3
1585, 3, 1.0, 938, 3, -0.5, 943, 3, -0.5
*EQUATION
5
1586, 1, 1.0, 938, 1, -0.25, 943, 1, -0.25, 944, 1, -0.25, 939, 1, -0.25
*EQUATION
5
1586, 2, 1.0, 938, 2, -0.25, 943, 2, -0.25, 944, 2, -0.25, 939, 2, -0.25
*EQUATION
5
1586, 3, 1.0, 938, 3, -0.25, 943, 3, -0.25, 944, 3, -0.25, 939, 3, -0.25
*EQUATION
3
1587, 1, 1.0, 939, 1, -0.5, 944, 1, -0.5
*EQUATION
3
1587, 2, 1.0, 939, 2, -0.5, 944, 2, -0.5
*EQUATION
3
1587, 3, 1.0, 939, 3, -0.5, 944, 3, -0.5
*EQUATION
3
1588, 1, 1.0, 10, 1, -0.5, 942, 1, -0.5
*EQUATION
3
1588, 2, 1.0, 10, 2, -0.5, 942, 2, -0.5
*EQUATION
3
1588, 3, 1.0, 10, 3, -0.5, 942, 3, -0.5
*EQUATION
3
1589, 1, 1.0, 942, 1, -0.5, 943, 1, -0.5
*EQUATION
3
1589, 2, 1.0, 942, 2, -0.5, 943, 2, -0.5
*EQUATION
3
1589, 3, 1.0, 942, 3, -0.5, 943, 3, -0.5
*EQUATION
5
1590, 1, 1.0, 942, 1, -0.25, 943, 1, -0.25, 944, 1, -0.25, 10, 1, -0.25
*EQUATION
5
1590, 2, 1.0, 942, 2, -0.25, 943, 2, -0.25, 944, 2, -0.25, 10, 2, -0.25
*EQUATION
5
1590, 3, 1.0, 942, 3, -0.25, 943, 3, -0.25, 944, 3, -0.25, 10, 3, -0.25
*EQUATION
3
1591, 1, 1.0, 10, 1, -0.5, 944, 1, -0.5
*EQUATION
3
1591, 2, 1.0, 10, 2, -0.5, 944, 2, -0.5
*EQUATION
3
1591, 3, 1.0, 10, 3, -0.5, 944, 3, -0.5
*EQUATION
3
1592, 1, 1.0, 943, 1, -0.5, 944, 1, -0.5
*EQUATION
3
1592, 2, 1.0, 943, 2, -0.5, 944, 2, -0.5
*EQUATION
3
1592, 3, 1.0, 943, 3, -0.5, 944, 3, -0.5
*EQUATION
3
1593, 1, 1.0, 924, 1, -0.5, 992, 1, -0.5
*EQUATION
3
1593, 2, 1.0, 924, 2, -0.5, 992, 2, -0.5
*EQUATION
3
1593, 3, 1.0, 924, 3, -0.5, 992, 3, -0.5
*EQUATION
5
1594, 1, 1.0, 924, 1, -0.25, 992, 1, -0.25, 993, 1, -0.25, 925, 1, -0.25
*EQUATION
5
1594, 2, 1.0, 924, 2, -0.25, 992, 2, -0.25, 993, 2, -0.25, 925, 2, -0.25
*EQUATION
5
1594, 3, 1.0, 924, 3, -0.25, 992, 3, -0.25, 993, 3, -0.25, 925, 3, -0.25
*EQUATION
3
1595, 1, 1.0, 925, 1, -0.5, 993, 1, -0.5
*EQUATION
3
1595, 2, 1.0, 925, 2, -0.5, 993, 2, -0.5
*EQUATION
3
1595, 3, 1.0, 925, 3, -0.5, 993, 3, -0.5
*EQUATION
3
1596, 1, 1.0, 992, 1, -0.5, 993, 1, -0.5
*EQUATION
3
1596, 2, 1.0, 992, 2, -0.5, 993, 2, -0.5
*EQUATION
3
1596, 3, 1.0, 992, 3, -0.5, 993, 3, -0.5
*EQUATION
5
1599, 1, 1.0, 925, 1, -0.25, 931, 1, -0.25, 999, 1, -0.25, 993, 1, -0.25
*EQUATION
5
1599, 2, 1.0, 925, 2, -0.25, 931, 2, -0.25, 999, 2, -0.25, 993, 2, -0.25
*EQUATION
5
1599, 3, 1.0, 925, 3, -0.25, 931, 3, -0.25, 999, 3, -0.25, 993, 3, -0.25
*EQUATION
3
1602, 1, 1.0, 993, 1, -0.5, 999, 1, -0.5
*EQUATION
3
1602, 2, 1.0, 993, 2, -0.5, 999, 2, -0.5
*EQUATION
3
1602, 3, 1.0, 993, 3, -0.5, 999, 3, -0.5
*EQUATION
3
1603, 1, 1.0, 3, 1, -0.5, 998, 1, -0.5
*EQUATION
3
1603, 2, 1.0, 3, 2, -0.5, 998, 2, -0.5
*EQUATION
3
1603, 3, 1.0, 3, 3, -0.5, 998, 3, -0.5
*EQUATION
5
1604, 1, 1.0, 3, 1, -0.25, 998, 1, -0.25, 999, 1, -0.25, 931, 1, -0.25
*EQUATION
5
1604, 2, 1.0, 3, 2, -0.25, 998, 2, -0.25, 999, 2, -0.25, 931, 2, -0.25
*EQUATION
5
1604, 3, 1.0, 3, 3, -0.25, 998, 3, -0.25, 999, 3, -0.25, 931, 3, -0.25
*EQUATION
3
1605, 1, 1.0, 931, 1, -0.5, 999, 1, -0.5
*EQUATION
3
1605, 2, 1.0, 931, 2, -0.5, 999, 2, -0.5
*EQUATION
3
1605, 3, 1.0, 931, 3, -0.5, 999, 3, -0.5
*EQUATION
3
1606, 1, 1.0, 998, 1, -0.5, 999, 1, -0.5
*EQUATION
3
1606, 2, 1.0, 998, 2, -0.5, 999, 2, -0.5
*EQUATION
3
1606, 3, 1.0, 998, 3, -0.5, 999, 3, -0.5
*EQUATION
3
1607, 1, 1.0, 992, 1, -0.5, 995, 1, -0.5
*EQUATION
3
1607, 2, 1.0, 992, 2, -0.5, 995, 2, -0.5
*EQUATION
3
1607, 3, 1.0, 992, 3, -0.5, 995, 3, -0.5
*EQUATION
5
1608, 1, 1.0, 992, 1, -0.25, 995, 1, -0.25, 996, 1, -0.25, 993, 1, -0.25
*EQUATION
5
1608, 2, 1.0, 992, 2, -0.25, 995, 2, -0.25, 996, 2, -0.25, 993, 2, -0.25
*EQUATION
5
1608, 3, 1.0, 992, 3, -0.25, 995, 3, -0.25, 996, 3, -0.25, 993, 3, -0.25
*EQUATION
3
1609, 1, 1.0, 993, 1, -0.5, 996, 1, -0.5
*EQUATION
3
1609, 2, 1.0, 993, 2, -0.5, 996, 2, -0.5
*EQUATION
3
1609, 3, 1.0, 993, 3, -0.5, 996, 3, -0.5
*EQUATION
3
1610, 1, 1.0, 995, 1, -0.5, 996, 1, -0.5
*EQUATION
3
1610, 2, 1.0, 995, 2, -0.5, 996, 2, -0.5
*EQUATION
3
1610, 3, 1.0, 995, 3, -0.5, 996, 3, -0.5
*EQUATION
5
1613, 1, 1.0, 993, 1, -0.25, 999, 1, -0.25, 1001, 1, -0.25, 996, 1, -0.25
*EQUATION
5
1613, 2, 1.0, 993, 2, -0.25, 999, 2, -0.25, 1001, 2, -0.25, 996, 2, -0.25
*EQUATION
5
1613, 3, 1.0, 993, 3, -0.25, 999, 3, -0.25, 1001, 3, -0.25, 996, 3, -0.25
*EQUATION
3
1616, 1, 1.0, 996, 1, -0.5, 1001, 1, -0.5
*EQUATION
3
1616, 2, 1.0, 996, 2, -0.5, 1001, 2, -0.5
*EQUATION
3
1616, 3, 1.0, 996, 3, -0.5, 1001, 3, -0.5
*EQUATION
3
1617, 1, 1.0, 25, 1, -0.5, 998, 1, -0.5
*EQUATION
3
1617, 2, 1.0, 25, 2, -0.5, 998, 2, -0.5
*EQUATION
3
1617, 3, 1.0, 25, 3, -0.5, 998, 3, -0.5
*EQUATION
5
1618, 1, 1.0, 998, 1, -0.25, 25, 1, -0.25, 1001, 1, -0.25, 999, 1, -0.25
*EQUATION
5
1618, 2, 1.0, 998, 2, -0.25, 25, 2, -0.25, 1001, 2, -0.25, 999, 2, -0.25
*EQUATION
5
1618, 3, 1.0, 998, 3, -0.25, 25, 3, -0.25, 1001, 3, -0.25, 999, 3, -0.25
*EQUATION
3
1619, 1, 1.0, 999, 1, -0.5, 1001, 1, -0.5
*EQUATION
3
1619, 2, 1.0, 999, 2, -0.5, 1001, 2, -0.5
*EQUATION
3
1619, 3, 1.0, 999, 3, -0.5, 1001, 3, -0.5
*EQUATION
3
1620, 1, 1.0, 25, 1, -0.5, 1001, 1, -0.5
*EQUATION
3
1620, 2, 1.0, 25, 2, -0.5, 1001, 2, -0.5
*EQUATION
3
1620, 3, 1.0, 25, 3, -0.5, 1001, 3, -0.5
*EQUATION
3
1621, 1, 1.0, 1005, 1, -0.5, 1006, 1, -0.5
*EQUATION
3
1621, 2, 1.0, 1005, 2, -0.5, 1006, 2, -0.5
*EQUATION
3
1621, 3, 1.0, 1005, 3, -0.5, 1006, 3, -0.5
*EQUATION
3
1622, 1, 1.0, 1005, 1, -0.5, 1007, 1, -0.5
*EQUATION
3
1622, 2, 1.0, 1005, 2, -0.5, 1007, 2, -0.5
*EQUATION
3
1622, 3, 1.0, 1005, 3, -0.5, 1007, 3, -0.5
*EQUATION
5
1623, 1, 1.0, 1005, 1, -0.25, 1007, 1, -0.25, 1008, 1, -0.25, 1006, 1, -0.25
*EQUATION
5
1623, 2, 1.0, 1005, 2, -0.25, 1007, 2, -0.25, 1008, 2, -0.25, 1006, 2, -0.25
*EQUATION
5
1623, 3, 1.0, 1005, 3, -0.25, 1007, 3, -0.25, 1008, 3, -0.25, 1006, 3, -0.25
*EQUATION
3
1624, 1, 1.0, 1006, 1, -0.5, 1008, 1, -0.5
*EQUATION
3
1624, 2, 1.0, 1006, 2, -0.5, 1008, 2, -0.5
*EQUATION
3
1624, 3, 1.0, 1006, 3, -0.5, 1008, 3, -0.5
*EQUATION
3
1625, 1, 1.0, 1007, 1, -0.5, 1008, 1, -0.5
*EQUATION
3
1625, 2, 1.0, 1007, 2, -0.5, 1008, 2, -0.5
*EQUATION
3
1625, 3, 1.0, 1007, 3, -0.5, 1008, 3, -0.5
*EQUATION
3
1626, 1, 1.0, 1005, 1, -0.5, 1009, 1, -0.5
*EQUATION
3
1626, 2, 1.0, 1005, 2, -0.5, 1009, 2, -0.5
*EQUATION
3
1626, 3, 1.0, 1005, 3, -0.5, 1009, 3, -0.5
*EQUATION
5
1627, 1, 1.0, 1005, 1, -0.25, 1009, 1, -0.25, 1010, 1, -0.25, 1006, 1, -0.25
*EQUATION
5
1627, 2, 1.0, 1005, 2, -0.25, 1009, 2, -0.25, 1010, 2, -0.25, 1006, 2, -0.25
*EQUATION
5
1627, 3, 1.0, 1005, 3, -0.25, 1009, 3, -0.25, 1010, 3, -0.25, 1006, 3, -0.25
*EQUATION
3
1628, 1, 1.0, 1006, 1, -0.5, 1010, 1, -0.5
*EQUATION
3
1628, 2, 1.0, 1006, 2, -0.5, 1010, 2, -0.5
*EQUATION
3
1628, 3, 1.0, 1006, 3, -0.5, 1010, 3, -0.5
*EQUATION
5
1629, 1, 1.0, 1005, 1, -0.25, 1009, 1, -0.25, 1011, 1, -0.25, 1007, 1, -0.25
*EQUATION
5
1629, 2, 1.0, 1005, 2, -0.25, 1009, 2, -0.25, 1011, 2, -0.25, 1007, 2, -0.25
*EQUATION
5
1629, 3, 1.0, 1005, 3, -0.25, 1009, 3, -0.25, 1011, 3, -0.25, 1007, 3, -0.25
*EQUATION
5
1631, 1, 1.0, 1006, 1, -0.25, 1010, 1, -0.25, 29, 1, -0.25, 1008, 1, -0.25
*EQUATION
5
1631, 2, 1.0, 1006, 2, -0.25, 1010, 2, -0.25, 29, 2, -0.25, 1008, 2, -0.25
*EQUATION
5
1631, 3, 1.0, 1006, 3, -0.25, 1010, 3, -0.25, 29, 3, -0.25, 1008, 3, -0.25
*EQUATION
3
1632, 1, 1.0, 1007, 1, -0.5, 1011, 1, -0.5
*EQUATION
3
1632, 2, 1.0, 1007, 2, -0.5, 1011, 2, -0.5
*EQUATION
3
1632, 3, 1.0, 1007, 3, -0.5, 1011, 3, -0.5
*EQUATION
3
1634, 1, 1.0, 29, 1, -0.5, 1008, 1, -0.5
*EQUATION
3
1634, 2, 1.0, 29, 2, -0.5, 1008, 2, -0.5
*EQUATION
3
1634, 3, 1.0, 29, 3, -0.5, 1008, 3, -0.5
*EQUATION
3
1635, 1, 1.0, 1009, 1, -0.5, 1010, 1, -0.5
*EQUATION
3
1635, 2, 1.0, 1009, 2, -0.5, 1010, 2, -0.5
*EQUATION
3
1635, 3, 1.0, 1009, 3, -0.5, 1010, 3, -0.5
*EQUATION
3
1636, 1, 1.0, 1009, 1, -0.5, 1011, 1, -0.5
*EQUATION
3
1636, 2, 1.0, 1009, 2, -0.5, 1011, 2, -0.5
*EQUATION
3
1636, 3, 1.0, 1009, 3, -0.5, 1011, 3, -0.5
*EQUATION
5
1637, 1, 1.0, 1009, 1, -0.25, 1011, 1, -0.25, 29, 1, -0.25, 1010, 1, -0.25
*EQUATION
5
1637, 2, 1.0, 1009, 2, -0.25, 1011, 2, -0.25, 29, 2, -0.25, 1010, 2, -0.25
*EQUATION
5
1637, 3, 1.0, 1009, 3, -0.25, 1011, 3, -0.25, 29, 3, -0.25, 1010, 3, -0.25
*EQUATION
3
1638, 1, 1.0, 29, 1, -0.5, 1010, 1, -0.5
*EQUATION
3
1638, 2, 1.0, 29, 2, -0.5, 1010, 2, -0.5
*EQUATION
3
1638, 3, 1.0, 29, 3, -0.5, 1010, 3, -0.5
*EQUATION
3
1639, 1, 1.0, 29, 1, -0.5, 1011, 1, -0.5
*EQUATION
3
1639, 2, 1.0, 29, 2, -0.5, 1011, 2, -0.5
*EQUATION
3
1639, 3, 1.0, 29, 3, -0.5, 1011, 3, -0.5
*EQUATION
3
1640, 1, 1.0, 1047, 1, -0.5, 1048, 1, -0.5
*EQUATION
3
1640, 2, 1.0, 1047, 2, -0.5, 1048, 2, -0.5
*EQUATION
3
1640, 3, 1.0, 1047, 3, -0.5, 1048, 3, -0.5
*EQUATION
3
1641, 1, 1.0, 1047, 1, -0.5, 1050, 1, -0.5
*EQUATION
3
1641, 2, 1.0, 1047, 2, -0.5, 1050, 2, -0.5
*EQUATION
3
1641, 3, 1.0, 1047, 3, -0.5, 1050, 3, -0.5
*EQUATION
5
1642, 1, 1.0, 1047, 1, -0.25, 1050, 1, -0.25, 1051, 1, -0.25, 1048, 1, -0.25
*EQUATION
5
1642, 2, 1.0, 1047, 2, -0.25, 1050, 2, -0.25, 1051, 2, -0.25, 1048, 2, -0.25
*EQUATION
5
1642, 3, 1.0, 1047, 3, -0.25, 1050, 3, -0.25, 1051, 3, -0.25, 1048, 3, -0.25
*EQUATION
3
1643, 1, 1.0, 1048, 1, -0.5, 1051, 1, -0.5
*EQUATION
3
1643, 2, 1.0, 1048, 2, -0.5, 1051, 2, -0.5
*EQUATION
3
1643, 3, 1.0, 1048, 3, -0.5, 1051, 3, -0.5
*EQUATION
3
1644, 1, 1.0, 1050, 1, -0.5, 1051, 1, -0.5
*EQUATION
3
1644, 2, 1.0, 1050, 2, -0.5, 1051, 2, -0.5
*EQUATION
3
1644, 3, 1.0, 1050, 3, -0.5, 1051, 3, -0.5
*EQUATION
3
1647, 1, 1.0, 1048, 1, -0.5, 1056, 1, -0.5
*EQUATION
3
1647, 2, 1.0, 1048, 2, -0.5, 1056, 2, -0.5
*EQUATION
3
1647, 3, 1.0, 1048, 3, -0.5, 1056, 3, -0.5
*EQUATION
5
1650, 1, 1.0, 1048, 1, -0.25, 1056, 1, -0.25, 1058, 1, -0.25, 1051, 1, -0.25
*EQUATION
5
1650, 2, 1.0, 1048, 2, -0.25, 1056, 2, -0.25, 1058, 2, -0.25, 1051, 2, -0.25
*EQUATION
5
1650, 3, 1.0, 1048, 3, -0.25, 1056, 3, -0.25, 1058, 3, -0.25, 1051, 3, -0.25
*EQUATION
3
1651, 1, 1.0, 1050, 1, -0.5, 1057, 1, -0.5
*EQUATION
3
1651, 2, 1.0, 1050, 2, -0.5, 1057, 2, -0.5
*EQUATION
3
1651, 3, 1.0, 1050, 3, -0.5, 1057, 3, -0.5
*EQUATION
5
1652, 1, 1.0, 1050, 1, -0.25, 1057, 1, -0.25, 1058, 1, -0.25, 1051, 1, -0.25
*EQUATION
5
1652, 2, 1.0, 1050, 2, -0.25, 1057, 2, -0.25, 1058, 2, -0.25, 1051, 2, -0.25
*EQUATION
5
1652, 3, 1.0, 1050, 3, -0.25, 1057, 3, -0.25, 1058, 3, -0.25, 1051, 3, -0.25
*EQUATION
3
1653, 1, 1.0, 1051, 1, -0.5, 1058, 1, -0.5
*EQUATION
3
1653, 2, 1.0, 1051, 2, -0.5, 1058, 2, -0.5
*EQUATION
3
1653, 3, 1.0, 1051, 3, -0.5, 1058, 3, -0.5
*EQUATION
3
1657, 1, 1.0, 1056, 1, -0.5, 1058, 1, -0.5
*EQUATION
3
1657, 2, 1.0, 1056, 2, -0.5, 1058, 2, -0.5
*EQUATION
3
1657, 3, 1.0, 1056, 3, -0.5, 1058, 3, -0.5
*EQUATION
3
1658, 1, 1.0, 1057, 1, -0.5, 1058, 1, -0.5
*EQUATION
3
1658, 2, 1.0, 1057, 2, -0.5, 1058, 2, -0.5
*EQUATION
3
1658, 3, 1.0, 1057, 3, -0.5, 1058, 3, -0.5
*EQUATION
3
1664, 1, 1.0, 1045, 1, -0.5, 1052, 1, -0.5
*EQUATION
3
1664, 2, 1.0, 1045, 2, -0.5, 1052, 2, -0.5
*EQUATION
3
1664, 3, 1.0, 1045, 3, -0.5, 1052, 3, -0.5
*EQUATION
5
1665, 1, 1.0, 1045, 1, -0.25, 1052, 1, -0.25, 1067, 1, -0.25, 1062, 1, -0.25
*EQUATION
5
1665, 2, 1.0, 1045, 2, -0.25, 1052, 2, -0.25, 1067, 2, -0.25, 1062, 2, -0.25
*EQUATION
5
1665, 3, 1.0, 1045, 3, -0.25, 1052, 3, -0.25, 1067, 3, -0.25, 1062, 3, -0.25
*EQUATION
3
1666, 1, 1.0, 1062, 1, -0.5, 1067, 1, -0.5
*EQUATION
3
1666, 2, 1.0, 1062, 2, -0.5, 1067, 2, -0.5
*EQUATION
3
1666, 3, 1.0, 1062, 3, -0.5, 1067, 3, -0.5
*EQUATION
5
1667, 1, 1.0, 1045, 1, -0.25, 1052, 1, -0.25, 1055, 1, -0.25, 44, 1, -0.25
*EQUATION
5
1667, 2, 1.0, 1045, 2, -0.25, 1052, 2, -0.25, 1055, 2, -0.25, 44, 2, -0.25
*EQUATION
5
1667, 3, 1.0, 1045, 3, -0.25, 1052, 3, -0.25, 1055, 3, -0.25, 44, 3, -0.25
*EQUATION
3
1670, 1, 1.0, 44, 1, -0.5, 1055, 1, -0.5
*EQUATION
3
1670, 2, 1.0, 44, 2, -0.5, 1055, 2, -0.5
*EQUATION
3
1670, 3, 1.0, 44, 3, -0.5, 1055, 3, -0.5
*EQUATION
5
1671, 1, 1.0, 44, 1, -0.25, 1055, 1, -0.25, 1069, 1, -0.25, 1064, 1, -0.25
*EQUATION
5
1671, 2, 1.0, 44, 2, -0.25, 1055, 2, -0.25, 1069, 2, -0.25, 1064, 2, -0.25
*EQUATION
5
1671, 3, 1.0, 44, 3, -0.25, 1055, 3, -0.25, 1069, 3, -0.25, 1064, 3, -0.25
*EQUATION
3
1672, 1, 1.0, 1064, 1, -0.5, 1069, 1, -0.5
*EQUATION
3
1672, 2, 1.0, 1064, 2, -0.5, 1069, 2, -0.5
*EQUATION
3
1672, 3, 1.0, 1064, 3, -0.5, 1069, 3, -0.5
*EQUATION
3
1673, 1, 1.0, 1052, 1, -0.5, 1067, 1, -0.5
*EQUATION
3
1673, 2, 1.0, 1052, 2, -0.5, 1067, 2, -0.5
*EQUATION
3
1673, 3, 1.0, 1052, 3, -0.5, 1067, 3, -0.5
*EQUATION
3
1674, 1, 1.0, 1052, 1, -0.5, 1055, 1, -0.5
*EQUATION
3
1674, 2, 1.0, 1052, 2, -0.5, 1055, 2, -0.5
*EQUATION
3
1674, 3, 1.0, 1052, 3, -0.5, 1055, 3, -0.5
*EQUATION
3
1677, 1, 1.0, 1055, 1, -0.5, 1069, 1, -0.5
*EQUATION
3
1677, 2, 1.0, 1055, 2, -0.5, 1069, 2, -0.5
*EQUATION
3
1677, 3, 1.0, 1055, 3, -0.5, 1069, 3, -0.5
*EQUATION
5
1682, 1, 1.0, 1062, 1, -0.25, 1067, 1, -0.25, 1068, 1, -0.25, 1063, 1, -0.25
*EQUATION
5
1682, 2, 1.0, 1062, 2, -0.25, 1067, 2, -0.25, 1068, 2, -0.25, 1063, 2, -0.25
*EQUATION
5
1682, 3, 1.0, 1062, 3, -0.25, 1067, 3, -0.25, 1068, 3, -0.25, 1063, 3, -0.25
*EQUATION
3
1683, 1, 1.0, 1063, 1, -0.5, 1068, 1, -0.5
*EQUATION
3
1683, 2, 1.0, 1063, 2, -0.5, 1068, 2, -0.5
*EQUATION
3
1683, 3, 1.0, 1063, 3, -0.5, 1068, 3, -0.5
*EQUATION
3
1688, 1, 1.0, 1067, 1, -0.5, 1068, 1, -0.5
*EQUATION
3
1688, 2, 1.0, 1067, 2, -0.5, 1068, 2, -0.5
*EQUATION
3
1688, 3, 1.0, 1067, 3, -0.5, 1068, 3, -0.5
*EQUATION
3
1692, 1, 1.0, 1052, 1, -0.5, 1059, 1, -0.5
*EQUATION
3
1692, 2, 1.0, 1052, 2, -0.5, 1059, 2, -0.5
*EQUATION
3
1692, 3, 1.0, 1052, 3, -0.5, 1059, 3, -0.5
*EQUATION
5
1693, 1, 1.0, 1052, 1, -0.25, 1059, 1, -0.25, 1072, 1, -0.25, 1067, 1, -0.25
*EQUATION
5
1693, 2, 1.0, 1052, 2, -0.25, 1059, 2, -0.25, 1072, 2, -0.25, 1067, 2, -0.25
*EQUATION
5
1693, 3, 1.0, 1052, 3, -0.25, 1059, 3, -0.25, 1072, 3, -0.25, 1067, 3, -0.25
*EQUATION
3
1694, 1, 1.0, 1067, 1, -0.5, 1072, 1, -0.5
*EQUATION
3
1694, 2, 1.0, 1067, 2, -0.5, 1072, 2, -0.5
*EQUATION
3
1694, 3, 1.0, 1067, 3, -0.5, 1072, 3, -0.5
*EQUATION
5
1695, 1, 1.0, 1052, 1, -0.25, 1059, 1, -0.25, 43, 1, -0.25, 1055, 1, -0.25
*EQUATION
5
1695, 2, 1.0, 1052, 2, -0.25, 1059, 2, -0.25, 43, 2, -0.25, 1055, 2, -0.25
*EQUATION
5
1695, 3, 1.0, 1052, 3, -0.25, 1059, 3, -0.25, 43, 3, -0.25, 1055, 3, -0.25
*EQUATION
3
1698, 1, 1.0, 43, 1, -0.5, 1055, 1, -0.5
*EQUATION
3
1698, 2, 1.0, 43, 2, -0.5, 1055, 2, -0.5
*EQUATION
3
1698, 3, 1.0, 43, 3, -0.5, 1055, 3, -0.5
*EQUATION
5
1699, 1, 1.0, 1055, 1, -0.25, 43, 1, -0.25, 1074, 1, -0.25, 1069, 1, -0.25
*EQUATION
5
1699, 2, 1.0, 1055, 2, -0.25, 43, 2, -0.25, 1074, 2, -0.25, 1069, 2, -0.25
*EQUATION
5
1699, 3, 1.0, 1055, 3, -0.25, 43, 3, -0.25, 1074, 3, -0.25, 1069, 3, -0.25
*EQUATION
3
1700, 1, 1.0, 1069, 1, -0.5, 1074, 1, -0.5
*EQUATION
3
1700, 2, 1.0, 1069, 2, -0.5, 1074, 2, -0.5
*EQUATION
3
1700, 3, 1.0, 1069, 3, -0.5, 1074, 3, -0.5
*EQUATION
3
1701, 1, 1.0, 1059, 1, -0.5, 1072, 1, -0.5
*EQUATION
3
1701, 2, 1.0, 1059, 2, -0.5, 1072, 2, -0.5
*EQUATION
3
1701, 3, 1.0, 1059, 3, -0.5, 1072, 3, -0.5
*EQUATION
3
1702, 1, 1.0, 43, 1, -0.5, 1059, 1, -0.5
*EQUATION
3
1702, 2, 1.0, 43, 2, -0.5, 1059, 2, -0.5
*EQUATION
3
1702, 3, 1.0, 43, 3, -0.5, 1059, 3, -0.5
*EQUATION
3
1705, 1, 1.0, 43, 1, -0.5, 1074, 1, -0.5
*EQUATION
3
1705, 2, 1.0, 43, 2, -0.5, 1074, 2, -0.5
*EQUATION
3
1705, 3, 1.0, 43, 3, -0.5, 1074, 3, -0.5
*EQUATION
5
1706, 1, 1.0, 1067, 1, -0.25, 1072, 1, -0.25, 1073, 1, -0.25, 1068, 1, -0.25
*EQUATION
5
1706, 2, 1.0, 1067, 2, -0.25, 1072, 2, -0.25, 1073, 2, -0.25, 1068, 2, -0.25
*EQUATION
5
1706, 3, 1.0, 1067, 3, -0.25, 1072, 3, -0.25, 1073, 3, -0.25, 1068, 3, -0.25
*EQUATION
3
1707, 1, 1.0, 1068, 1, -0.5, 1073, 1, -0.5
*EQUATION
3
1707, 2, 1.0, 1068, 2, -0.5, 1073, 2, -0.5
*EQUATION
3
1707, 3, 1.0, 1068, 3, -0.5, 1073, 3, -0.5
*EQUATION
3
1712, 1, 1.0, 1072, 1, -0.5, 1073, 1, -0.5
*EQUATION
3
1712, 2, 1.0, 1072, 2, -0.5, 1073, 2, -0.5
*EQUATION
3
1712, 3, 1.0, 1072, 3, -0.5, 1073, 3, -0.5
*EQUATION
3
1720, 1, 1.0, 39, 1, -0.5, 49, 1, -0.5
*EQUATION
3
1720, 2, 1.0, 39, 2, -0.5, 49, 2, -0.5
*EQUATION
3
1720, 3, 1.0, 39, 3, -0.5, 49, 3, -0.5
*EQUATION
5
1721, 1, 1.0, 39, 1, -0.25, 49, 1, -0.25, 51, 1, -0.25, 43, 1, -0.25
*EQUATION
5
1721, 2, 1.0, 39, 2, -0.25, 49, 2, -0.25, 51, 2, -0.25, 43, 2, -0.25
*EQUATION
5
1721, 3, 1.0, 39, 3, -0.25, 49, 3, -0.25, 51, 3, -0.25, 43, 3, -0.25
*EQUATION
5
1726, 1, 1.0, 1064, 1, -0.25, 1069, 1, -0.25, 1080, 1, -0.25, 1076, 1, -0.25
*EQUATION
5
1726, 2, 1.0, 1064, 2, -0.25, 1069, 2, -0.25, 1080, 2, -0.25, 1076, 2, -0.25
*EQUATION
5
1726, 3, 1.0, 1064, 3, -0.25, 1069, 3, -0.25, 1080, 3, -0.25, 1076, 3, -0.25
*EQUATION
3
1729, 1, 1.0, 1076, 1, -0.5, 1080, 1, -0.5
*EQUATION
3
1729, 2, 1.0, 1076, 2, -0.5, 1080, 2, -0.5
*EQUATION
3
1729, 3, 1.0, 1076, 3, -0.5, 1080, 3, -0.5
*EQUATION
3
1732, 1, 1.0, 1069, 1, -0.5, 1080, 1, -0.5
*EQUATION
3
1732, 2, 1.0, 1069, 2, -0.5, 1080, 2, -0.5
*EQUATION
3
1732, 3, 1.0, 1069, 3, -0.5, 1080, 3, -0.5
*EQUATION
5
1740, 1, 1.0, 1076, 1, -0.25, 1080, 1, -0.25, 1083, 1, -0.25, 1078, 1, -0.25
*EQUATION
5
1740, 2, 1.0, 1076, 2, -0.25, 1080, 2, -0.25, 1083, 2, -0.25, 1078, 2, -0.25
*EQUATION
5
1740, 3, 1.0, 1076, 3, -0.25, 1080, 3, -0.25, 1083, 3, -0.25, 1078, 3, -0.25
*EQUATION
3
1743, 1, 1.0, 1078, 1, -0.5, 1083, 1, -0.5
*EQUATION
3
1743, 2, 1.0, 1078, 2, -0.5, 1083, 2, -0.5
*EQUATION
3
1743, 3, 1.0, 1078, 3, -0.5, 1083, 3, -0.5
*EQUATION
3
1746, 1, 1.0, 1080, 1, -0.5, 1083, 1, -0.5
*EQUATION
3
1746, 2, 1.0, 1080, 2, -0.5, 1083, 2, -0.5
*EQUATION
3
1746, 3, 1.0, 1080, 3, -0.5, 1083, 3, -0.5
*EQUATION
5
1750, 1, 1.0, 1069, 1, -0.25, 1074, 1, -0.25, 1086, 1, -0.25, 1080, 1, -0.25
*EQUATION
5
1750, 2, 1.0, 1069, 2, -0.25, 1074, 2, -0.25, 1086, 2, -0.25, 1080, 2, -0.25
*EQUATION
5
1750, 3, 1.0, 1069, 3, -0.25, 1074, 3, -0.25, 1086, 3, -0.25, 1080, 3, -0.25
*EQUATION
3
1753, 1, 1.0, 1080, 1, -0.5, 1086, 1, -0.5
*EQUATION
3
1753, 2, 1.0, 1080, 2, -0.5, 1086, 2, -0.5
*EQUATION
3
1753, 3, 1.0, 1080, 3, -0.5, 1086, 3, -0.5
*EQUATION
3
1756, 1, 1.0, 1074, 1, -0.5, 1086, 1, -0.5
*EQUATION
3
1756, 2, 1.0, 1074, 2, -0.5, 1086, 2, -0.5
*EQUATION
3
1756, 3, 1.0, 1074, 3, -0.5, 1086, 3, -0.5
*EQUATION
5
1760, 1, 1.0, 1080, 1, -0.25, 1086, 1, -0.25, 1088, 1, -0.25, 1083, 1, -0.25
*EQUATION
5
1760, 2, 1.0, 1080, 2, -0.25, 1086, 2, -0.25, 1088, 2, -0.25, 1083, 2, -0.25
*EQUATION
5
1760, 3, 1.0, 1080, 3, -0.25, 1086, 3, -0.25, 1088, 3, -0.25, 1083, 3, -0.25
*EQUATION
3
1763, 1, 1.0, 1083, 1, -0.5, 1088, 1, -0.5
*EQUATION
3
1763, 2, 1.0, 1083, 2, -0.5, 1088, 2, -0.5
*EQUATION
3
1763, 3, 1.0, 1083, 3, -0.5, 1088, 3, -0.5
*EQUATION
3
1766, 1, 1.0, 1086, 1, -0.5, 1088, 1, -0.5
*EQUATION
3
1766, 2, 1.0, 1086, 2, -0.5, 1088, 2, -0.5
*EQUATION
3
1766, 3, 1.0, 1086, 3, -0.5, 1088, 3, -0.5
*EQUATION
3
1775, 1, 1.0, 1090, 1, -0.5, 1096, 1, -0.5
*EQUATION
3
1775, 2, 1.0, 1090, 2, -0.5, 1096, 2, -0.5
*EQUATION
3
1775, 3, 1.0, 1090, 3, -0.5, 1096, 3, -0.5
*EQUATION
5
1776, 1, 1.0, 1090, 1, -0.25, 1096, 1, -0.25, 1097, 1, -0.25, 1091, 1, -0.25
*EQUATION
5
1776, 2, 1.0, 1090, 2, -0.25, 1096, 2, -0.25, 1097, 2, -0.25, 1091, 2, -0.25
*EQUATION
5
1776, 3, 1.0, 1090, 3, -0.25, 1096, 3, -0.25, 1097, 3, -0.25, 1091, 3, -0.25
*EQUATION
3
1777, 1, 1.0, 1091, 1, -0.5, 1097, 1, -0.5
*EQUATION
3
1777, 2, 1.0, 1091, 2, -0.5, 1097, 2, -0.5
*EQUATION
3
1777, 3, 1.0, 1091, 3, -0.5, 1097, 3, -0.5
*EQUATION
5
1780, 1, 1.0, 1091, 1, -0.25, 1097, 1, -0.25, 1100, 1, -0.25, 1093, 1, -0.25
*EQUATION
5
1780, 2, 1.0, 1091, 2, -0.25, 1097, 2, -0.25, 1100, 2, -0.25, 1093, 2, -0.25
*EQUATION
5
1780, 3, 1.0, 1091, 3, -0.25, 1097, 3, -0.25, 1100, 3, -0.25, 1093, 3, -0.25
*EQUATION
3
1781, 1, 1.0, 56, 1, -0.5, 1099, 1, -0.5
*EQUATION
3
1781, 2, 1.0, 56, 2, -0.5, 1099, 2, -0.5
*EQUATION
3
1781, 3, 1.0, 56, 3, -0.5, 1099, 3, -0.5
*EQUATION
5
1782, 1, 1.0, 56, 1, -0.25, 1099, 1, -0.25, 1100, 1, -0.25, 1093, 1, -0.25
*EQUATION
5
1782, 2, 1.0, 56, 2, -0.25, 1099, 2, -0.25, 1100, 2, -0.25, 1093, 2, -0.25
*EQUATION
5
1782, 3, 1.0, 56, 3, -0.25, 1099, 3, -0.25, 1100, 3, -0.25, 1093, 3, -0.25
*EQUATION
3
1783, 1, 1.0, 1093, 1, -0.5, 1100, 1, -0.5
*EQUATION
3
1783, 2, 1.0, 1093, 2, -0.5, 1100, 2, -0.5
*EQUATION
3
1783, 3, 1.0, 1093, 3, -0.5, 1100, 3, -0.5
*EQUATION
3
1784, 1, 1.0, 1096, 1, -0.5, 1097, 1, -0.5
*EQUATION
3
1784, 2, 1.0, 1096, 2, -0.5, 1097, 2, -0.5
*EQUATION
3
1784, 3, 1.0, 1096, 3, -0.5, 1097, 3, -0.5
*EQUATION
3
1787, 1, 1.0, 1097, 1, -0.5, 1100, 1, -0.5
*EQUATION
3
1787, 2, 1.0, 1097, 2, -0.5, 1100, 2, -0.5
*EQUATION
3
1787, 3, 1.0, 1097, 3, -0.5, 1100, 3, -0.5
*EQUATION
3
1788, 1, 1.0, 1099, 1, -0.5, 1100, 1, -0.5
*EQUATION
3
1788, 2, 1.0, 1099, 2, -0.5, 1100, 2, -0.5
*EQUATION
3
1788, 3, 1.0, 1099, 3, -0.5, 1100, 3, -0.5
*EQUATION
3
1789, 1, 1.0, 1096, 1, -0.5, 1103, 1, -0.5
*EQUATION
3
1789, 2, 1.0, 1096, 2, -0.5, 1103, 2, -0.5
*EQUATION
3
1789, 3, 1.0, 1096, 3, -0.5, 1103, 3, -0.5
*EQUATION
5
1790, 1, 1.0, 1096, 1, -0.25, 1103, 1, -0.25, 1104, 1, -0.25, 1097, 1, -0.25
*EQUATION
5
1790, 2, 1.0, 1096, 2, -0.25, 1103, 2, -0.25, 1104, 2, -0.25, 1097, 2, -0.25
*EQUATION
5
1790, 3, 1.0, 1096, 3, -0.25, 1103, 3, -0.25, 1104, 3, -0.25, 1097, 3, -0.25
*EQUATION
3
1791, 1, 1.0, 1097, 1, -0.5, 1104, 1, -0.5
*EQUATION
3
1791, 2, 1.0, 1097, 2, -0.5, 1104, 2, -0.5
*EQUATION
3
1791, 3, 1.0, 1097, 3, -0.5, 1104, 3, -0.5
*EQUATION
5
1794, 1, 1.0, 1097, 1, -0.25, 1104, 1, -0.25, 1106, 1, -0.25, 1100, 1, -0.25
*EQUATION
5
1794, 2, 1.0, 1097, 2, -0.25, 1104, 2, -0.25, 1106, 2, -0.25, 1100, 2, -0.25
*EQUATION
5
1794, 3, 1.0, 1097, 3, -0.25, 1104, 3, -0.25, 1106, 3, -0.25, 1100, 3, -0.25
*EQUATION
3
1795, 1, 1.0, 55, 1, -0.5, 1099, 1, -0.5
*EQUATION
3
1795, 2, 1.0, 55, 2, -0.5, 1099, 2, -0.5
*EQUATION
3
1795, 3, 1.0, 55, 3, -0.5, 1099, 3, -0.5
*EQUATION
5
1796, 1, 1.0, 1099, 1, -0.25, 55, 1, -0.25, 1106, 1, -0.25, 1100, 1, -0.25
*EQUATION
5
1796, 2, 1.0, 1099, 2, -0.25, 55, 2, -0.25, 1106, 2, -0.25, 1100, 2, -0.25
*EQUATION
5
1796, 3, 1.0, 1099, 3, -0.25, 55, 3, -0.25, 1106, 3, -0.25, 1100, 3, -0.25
*EQUATION
3
1797, 1, 1.0, 1100, 1, -0.5, 1106, 1, -0.5
*EQUATION
3
1797, 2, 1.0, 1100, 2, -0.5, 1106, 2, -0.5
*EQUATION
3
1797, 3, 1.0, 1100, 3, -0.5, 1106, 3, -0.5
*EQUATION
3
1798, 1, 1.0, 1103, 1, -0.5, 1104, 1, -0.5
*EQUATION
3
1798, 2, 1.0, 1103, 2, -0.5, 1104, 2, -0.5
*EQUATION
3
1798, 3, 1.0, 1103, 3, -0.5, 1104, 3, -0.5
*EQUATION
3
1801, 1, 1.0, 1104, 1, -0.5, 1106, 1, -0.5
*EQUATION
3
1801, 2, 1.0, 1104, 2, -0.5, 1106, 2, -0.5
*EQUATION
3
1801, 3, 1.0, 1104, 3, -0.5, 1106, 3, -0.5
*EQUATION
3
1802, 1, 1.0, 55, 1, -0.5, 1106, 1, -0.5
*EQUATION
3
1802, 2, 1.0, 55, 2, -0.5, 1106, 2, -0.5
*EQUATION
3
1802, 3, 1.0, 55, 3, -0.5, 1106, 3, -0.5
*EQUATION
3
1808, 1, 1.0, 52, 1, -0.5, 1082, 1, -0.5
*EQUATION
3
1808, 2, 1.0, 52, 2, -0.5, 1082, 2, -0.5
*EQUATION
3
1808, 3, 1.0, 52, 3, -0.5, 1082, 3, -0.5
*EQUATION
5
1809, 1, 1.0, 52, 1, -0.25, 1082, 1, -0.25, 1083, 1, -0.25, 1078, 1, -0.25
*EQUATION
5
1809, 2, 1.0, 52, 2, -0.25, 1082, 2, -0.25, 1083, 2, -0.25, 1078, 2, -0.25
*EQUATION
5
1809, 3, 1.0, 52, 3, -0.25, 1082, 3, -0.25, 1083, 3, -0.25, 1078, 3, -0.25
*EQUATION
5
1810, 1, 1.0, 52, 1, -0.25, 1082, 1, -0.25, 1098, 1, -0.25, 1092, 1, -0.25
*EQUATION
5
1810, 2, 1.0, 52, 2, -0.25, 1082, 2, -0.25, 1098, 2, -0.25, 1092, 2, -0.25
*EQUATION
5
1810, 3, 1.0, 52, 3, -0.25, 1082, 3, -0.25, 1098, 3, -0.25, 1092, 3, -0.25
*EQUATION
3
1813, 1, 1.0, 1092, 1, -0.5, 1098, 1, -0.5
*EQUATION
3
1813, 2, 1.0, 1092, 2, -0.5, 1098, 2, -0.5
*EQUATION
3
1813, 3, 1.0, 1092, 3, -0.5, 1098, 3, -0.5
*EQUATION
5
1814, 1, 1.0, 1092, 1, -0.25, 1098, 1, -0.25, 1110, 1, -0.25, 1107, 1, -0.25
*EQUATION
5
1814, 2, 1.0, 1092, 2, -0.25, 1098, 2, -0.25, 1110, 2, -0.25, 1107, 2, -0.25
*EQUATION
5
1814, 3, 1.0, 1092, 3, -0.25, 1098, 3, -0.25, 1110, 3, -0.25, 1107, 3, -0.25
*EQUATION
3
1815, 1, 1.0, 1107, 1, -0.5, 1110, 1, -0.5
*EQUATION
3
1815, 2, 1.0, 1107, 2, -0.5, 1110, 2, -0.5
*EQUATION
3
1815, 3, 1.0, 1107, 3, -0.5, 1110, 3, -0.5
*EQUATION
3
1816, 1, 1.0, 1082, 1, -0.5, 1083, 1, -0.5
*EQUATION
3
1816, 2, 1.0, 1082, 2, -0.5, 1083, 2, -0.5
*EQUATION
3
1816, 3, 1.0, 1082, 3, -0.5, 1083, 3, -0.5
*EQUATION
3
1817, 1, 1.0, 1082, 1, -0.5, 1098, 1, -0.5
*EQUATION
3
1817, 2, 1.0, 1082, 2, -0.5, 1098, 2, -0.5
*EQUATION
3
1817, 3, 1.0, 1082, 3, -0.5, 1098, 3, -0.5
*EQUATION
3
1820, 1, 1.0, 1098, 1, -0.5, 1110, 1, -0.5
*EQUATION
3
1820, 2, 1.0, 1098, 2, -0.5, 1110, 2, -0.5
*EQUATION
3
1820, 3, 1.0, 1098, 3, -0.5, 1110, 3, -0.5
*EQUATION
5
1826, 1, 1.0, 1107, 1, -0.25, 1110, 1, -0.25, 1111, 1, -0.25, 1108, 1, -0.25
*EQUATION
5
1826, 2, 1.0, 1107, 2, -0.25, 1110, 2, -0.25, 1111, 2, -0.25, 1108, 2, -0.25
*EQUATION
5
1826, 3, 1.0, 1107, 3, -0.25, 1110, 3, -0.25, 1111, 3, -0.25, 1108, 3, -0.25
*EQUATION
3
1827, 1, 1.0, 1108, 1, -0.5, 1111, 1, -0.5
*EQUATION
3
1827, 2, 1.0, 1108, 2, -0.5, 1111, 2, -0.5
*EQUATION
3
1827, 3, 1.0, 1108, 3, -0.5, 1111, 3, -0.5
*EQUATION
3
1830, 1, 1.0, 1110, 1, -0.5, 1111, 1, -0.5
*EQUATION
3
1830, 2, 1.0, 1110, 2, -0.5, 1111, 2, -0.5
*EQUATION
3
1830, 3, 1.0, 1110, 3, -0.5, 1111, 3, -0.5
*EQUATION
3
1831, 1, 1.0, 51, 1, -0.5, 1082, 1, -0.5
*EQUATION
3
1831, 2, 1.0, 51, 2, -0.5, 1082, 2, -0.5
*EQUATION
3
1831, 3, 1.0, 51, 3, -0.5, 1082, 3, -0.5
*EQUATION
5
1832, 1, 1.0, 1082, 1, -0.25, 51, 1, -0.25, 1088, 1, -0.25, 1083, 1, -0.25
*EQUATION
5
1832, 2, 1.0, 1082, 2, -0.25, 51, 2, -0.25, 1088, 2, -0.25, 1083, 2, -0.25
*EQUATION
5
1832, 3, 1.0, 1082, 3, -0.25, 51, 3, -0.25, 1088, 3, -0.25, 1083, 3, -0.25
*EQUATION
5
1833, 1, 1.0, 1082, 1, -0.25, 51, 1, -0.25, 1105, 1, -0.25, 1098, 1, -0.25
*EQUATION
5
1833, 2, 1.0, 1082, 2, -0.25, 51, 2, -0.25, 1105, 2, -0.25, 1098, 2, -0.25
*EQUATION
5
1833, 3, 1.0, 1082, 3, -0.25, 51, 3, -0.25, 1105, 3, -0.25, 1098, 3, -0.25
*EQUATION
3
1836, 1, 1.0, 1098, 1, -0.5, 1105, 1, -0.5
*EQUATION
3
1836, 2, 1.0, 1098, 2, -0.5, 1105, 2, -0.5
*EQUATION
3
1836, 3, 1.0, 1098, 3, -0.5, 1105, 3, -0.5
*EQUATION
5
1837, 1, 1.0, 1098, 1, -0.25, 1105, 1, -0.25, 1114, 1, -0.25, 1110, 1, -0.25
*EQUATION
5
1837, 2, 1.0, 1098, 2, -0.25, 1105, 2, -0.25, 1114, 2, -0.25, 1110, 2, -0.25
*EQUATION
5
1837, 3, 1.0, 1098, 3, -0.25, 1105, 3, -0.25, 1114, 3, -0.25, 1110, 3, -0.25
*EQUATION
3
1838, 1, 1.0, 1110, 1, -0.5, 1114, 1, -0.5
*EQUATION
3
1838, 2, 1.0, 1110, 2, -0.5, 1114, 2, -0.5
*EQUATION
3
1838, 3, 1.0, 1110, 3, -0.5, 1114, 3, -0.5
*EQUATION
3
1839, 1, 1.0, 51, 1, -0.5, 1088, 1, -0.5
*EQUATION
3
1839, 2, 1.0, 51, 2, -0.5, 1088, 2, -0.5
*EQUATION
3
1839, 3, 1.0, 51, 3, -0.5, 1088, 3, -0.5
*EQUATION
3
1840, 1, 1.0, 51, 1, -0.5, 1105, 1, -0.5
*EQUATION
3
1840, 2, 1.0, 51, 2, -0.5, 1105, 2, -0.5
*EQUATION
3
1840, 3, 1.0, 51, 3, -0.5, 1105, 3, -0.5
*EQUATION
3
1843, 1, 1.0, 1105, 1, -0.5, 1114, 1, -0.5
*EQUATION
3
1843, 2, 1.0, 1105, 2, -0.5, 1114, 2, -0.5
*EQUATION
3
1843, 3, 1.0, 1105, 3, -0.5, 1114, 3, -0.5
*EQUATION
5
1846, 1, 1.0, 1110, 1, -0.25, 1114, 1, -0.25, 1115, 1, -0.25, 1111, 1, -0.25
*EQUATION
5
1846, 2, 1.0, 1110, 2, -0.25, 1114, 2, -0.25, 1115, 2, -0.25, 1111, 2, -0.25
*EQUATION
5
1846, 3, 1.0, 1110, 3, -0.25, 1114, 3, -0.25, 1115, 3, -0.25, 1111, 3, -0.25
*EQUATION
3
1847, 1, 1.0, 1111, 1, -0.5, 1115, 1, -0.5
*EQUATION
3
1847, 2, 1.0, 1111, 2, -0.5, 1115, 2, -0.5
*EQUATION
3
1847, 3, 1.0, 1111, 3, -0.5, 1115, 3, -0.5
*EQUATION
3
1850, 1, 1.0, 1114, 1, -0.5, 1115, 1, -0.5
*EQUATION
3
1850, 2, 1.0, 1114, 2, -0.5, 1115, 2, -0.5
*EQUATION
3
1850, 3, 1.0, 1114, 3, -0.5, 1115, 3, -0.5
*EQUATION
3
1856, 1, 1.0, 1117, 1, -0.5, 1121, 1, -0.5
*EQUATION
3
1856, 2, 1.0, 1117, 2, -0.5, 1121, 2, -0.5
*EQUATION
3
1856, 3, 1.0, 1117, 3, -0.5, 1121, 3, -0.5
*EQUATION
5
1857, 1, 1.0, 1117, 1, -0.25, 1121, 1, -0.25, 1122, 1, -0.25, 1118, 1, -0.25
*EQUATION
5
1857, 2, 1.0, 1117, 2, -0.25, 1121, 2, -0.25, 1122, 2, -0.25, 1118, 2, -0.25
*EQUATION
5
1857, 3, 1.0, 1117, 3, -0.25, 1121, 3, -0.25, 1122, 3, -0.25, 1118, 3, -0.25
*EQUATION
3
1858, 1, 1.0, 1118, 1, -0.5, 1122, 1, -0.5
*EQUATION
3
1858, 2, 1.0, 1118, 2, -0.5, 1122, 2, -0.5
*EQUATION
3
1858, 3, 1.0, 1118, 3, -0.5, 1122, 3, -0.5
*EQUATION
3
1862, 1, 1.0, 21, 1, -0.5, 979, 1, -0.5
*EQUATION
3
1862, 2, 1.0, 21, 2, -0.5, 979, 2, -0.5
*EQUATION
3
1862, 3, 1.0, 21, 3, -0.5, 979, 3, -0.5
*EQUATION
5
1863, 1, 1.0, 21, 1, -0.25, 979, 1, -0.25, 1124, 1, -0.25, 1120, 1, -0.25
*EQUATION
5
1863, 2, 1.0, 21, 2, -0.25, 979, 2, -0.25, 1124, 2, -0.25, 1120, 2, -0.25
*EQUATION
5
1863, 3, 1.0, 21, 3, -0.25, 979, 3, -0.25, 1124, 3, -0.25, 1120, 3, -0.25
*EQUATION
3
1864, 1, 1.0, 1120, 1, -0.5, 1124, 1, -0.5
*EQUATION
3
1864, 2, 1.0, 1120, 2, -0.5, 1124, 2, -0.5
*EQUATION
3
1864, 3, 1.0, 1120, 3, -0.5, 1124, 3, -0.5
*EQUATION
3
1865, 1, 1.0, 1121, 1, -0.5, 1122, 1, -0.5
*EQUATION
3
1865, 2, 1.0, 1121, 2, -0.5, 1122, 2, -0.5
*EQUATION
3
1865, 3, 1.0, 1121, 3, -0.5, 1122, 3, -0.5
*EQUATION
3
1869, 1, 1.0, 979, 1, -0.5, 1124, 1, -0.5
*EQUATION
3
1869, 2, 1.0, 979, 2, -0.5, 1124, 2, -0.5
*EQUATION
3
1869, 3, 1.0, 979, 3, -0.5, 1124, 3, -0.5
*EQUATION
5
1874, 1, 1.0, 1118, 1, -0.25, 1122, 1, -0.25, 1123, 1, -0.25, 1119, 1, -0.25
*EQUATION
5
1874, 2, 1.0, 1118, 2, -0.25, 1122, 2, -0.25, 1123, 2, -0.25, 1119, 2, -0.25
*EQUATION
5
1874, 3, 1.0, 1118, 3, -0.25, 1122, 3, -0.25, 1123, 3, -0.25, 1119, 3, -0.25
*EQUATION
3
1875, 1, 1.0, 1119, 1, -0.5, 1123, 1, -0.5
*EQUATION
3
1875, 2, 1.0, 1119, 2, -0.5, 1123, 2, -0.5
*EQUATION
3
1875, 3, 1.0, 1119, 3, -0.5, 1123, 3, -0.5
*EQUATION
5
1877, 1, 1.0, 1119, 1, -0.25, 1123, 1, -0.25, 1125, 1, -0.25, 62, 1, -0.25
*EQUATION
5
1877, 2, 1.0, 1119, 2, -0.25, 1123, 2, -0.25, 1125, 2, -0.25, 62, 2, -0.25
*EQUATION
5
1877, 3, 1.0, 1119, 3, -0.25, 1123, 3, -0.25, 1125, 3, -0.25, 62, 3, -0.25
*EQUATION
5
1878, 1, 1.0, 1120, 1, -0.25, 1124, 1, -0.25, 1125, 1, -0.25, 62, 1, -0.25
*EQUATION
5
1878, 2, 1.0, 1120, 2, -0.25, 1124, 2, -0.25, 1125, 2, -0.25, 62, 2, -0.25
*EQUATION
5
1878, 3, 1.0, 1120, 3, -0.25, 1124, 3, -0.25, 1125, 3, -0.25, 62, 3, -0.25
*EQUATION
3
1879, 1, 1.0, 62, 1, -0.5, 1125, 1, -0.5
*EQUATION
3
1879, 2, 1.0, 62, 2, -0.5, 1125, 2, -0.5
*EQUATION
3
1879, 3, 1.0, 62, 3, -0.5, 1125, 3, -0.5
*EQUATION
3
1880, 1, 1.0, 1122, 1, -0.5, 1123, 1, -0.5
*EQUATION
3
1880, 2, 1.0, 1122, 2, -0.5, 1123, 2, -0.5
*EQUATION
3
1880, 3, 1.0, 1122, 3, -0.5, 1123, 3, -0.5
*EQUATION
3
1882, 1, 1.0, 1123, 1, -0.5, 1125, 1, -0.5
*EQUATION
3
1882, 2, 1.0, 1123, 2, -0.5, 1125, 2, -0.5
*EQUATION
3
1882, 3, 1.0, 1123, 3, -0.5, 1125, 3, -0.5
*EQUATION
3
1883, 1, 1.0, 1124, 1, -0.5, 1125, 1, -0.5
*EQUATION
3
1883, 2, 1.0, 1124, 2, -0.5, 1125, 2, -0.5
*EQUATION
3
1883, 3, 1.0, 1124, 3, -0.5, 1125, 3, -0.5
*EQUATION
3
1884, 1, 1.0, 1121, 1, -0.5, 1126, 1, -0.5
*EQUATION
3
1884, 2, 1.0, 1121, 2, -0.5, 1126, 2, -0.5
*EQUATION
3
1884, 3, 1.0, 1121, 3, -0.5, 1126, 3, -0.5
*EQUATION
5
1885, 1, 1.0, 1121, 1, -0.25, 1126, 1, -0.25, 1127, 1, -0.25, 1122, 1, -0.25
*EQUATION
5
1885, 2, 1.0, 1121, 2, -0.25, 1126, 2, -0.25, 1127, 2, -0.25, 1122, 2, -0.25
*EQUATION
5
1885, 3, 1.0, 1121, 3, -0.25, 1126, 3, -0.25, 1127, 3, -0.25, 1122, 3, -0.25
*EQUATION
3
1886, 1, 1.0, 1122, 1, -0.5, 1127, 1, -0.5
*EQUATION
3
1886, 2, 1.0, 1122, 2, -0.5, 1127, 2, -0.5
*EQUATION
3
1886, 3, 1.0, 1122, 3, -0.5, 1127, 3, -0.5
*EQUATION
3
1890, 1, 1.0, 22, 1, -0.5, 979, 1, -0.5
*EQUATION
3
1890, 2, 1.0, 22, 2, -0.5, 979, 2, -0.5
*EQUATION
3
1890, 3, 1.0, 22, 3, -0.5, 979, 3, -0.5
*EQUATION
5
1891, 1, 1.0, 979, 1, -0.25, 22, 1, -0.25, 1129, 1, -0.25, 1124, 1, -0.25
*EQUATION
5
1891, 2, 1.0, 979, 2, -0.25, 22, 2, -0.25, 1129, 2, -0.25, 1124, 2, -0.25
*EQUATION
5
1891, 3, 1.0, 979, 3, -0.25, 22, 3, -0.25, 1129, 3, -0.25, 1124, 3, -0.25
*EQUATION
3
1892, 1, 1.0, 1124, 1, -0.5, 1129, 1, -0.5
*EQUATION
3
1892, 2, 1.0, 1124, 2, -0.5, 1129, 2, -0.5
*EQUATION
3
1892, 3, 1.0, 1124, 3, -0.5, 1129, 3, -0.5
*EQUATION
3
1893, 1, 1.0, 1126, 1, -0.5, 1127, 1, -0.5
*EQUATION
3
1893, 2, 1.0, 1126, 2, -0.5, 1127, 2, -0.5
*EQUATION
3
1893, 3, 1.0, 1126, 3, -0.5, 1127, 3, -0.5
*EQUATION
3
1894, 1, 1.0, 22, 1, -0.5, 1126, 1, -0.5
*EQUATION
3
1894, 2, 1.0, 22, 2, -0.5, 1126, 2, -0.5
*EQUATION
3
1894, 3, 1.0, 22, 3, -0.5, 1126, 3, -0.5
*EQUATION
5
1895, 1, 1.0, 1126, 1, -0.25, 22, 1, -0.25, 1129, 1, -0.25, 1127, 1, -0.25
*EQUATION
5
1895, 2, 1.0, 1126, 2, -0.25, 22, 2, -0.25, 1129, 2, -0.25, 1127, 2, -0.25
*EQUATION
5
1895, 3, 1.0, 1126, 3, -0.25, 22, 3, -0.25, 1129, 3, -0.25, 1127, 3, -0.25
*EQUATION
3
1896, 1, 1.0, 1127, 1, -0.5, 1129, 1, -0.5
*EQUATION
3
1896, 2, 1.0, 1127, 2, -0.5, 1129, 2, -0.5
*EQUATION
3
1896, 3, 1.0, 1127, 3, -0.5, 1129, 3, -0.5
*EQUATION
3
1897, 1, 1.0, 22, 1, -0.5, 1129, 1, -0.5
*EQUATION
3
1897, 2, 1.0, 22, 2, -0.5, 1129, 2, -0.5
*EQUATION
3
1897, 3, 1.0, 22, 3, -0.5, 1129, 3, -0.5
*EQUATION
5
1898, 1, 1.0, 1122, 1, -0.25, 1127, 1, -0.25, 1128, 1, -0.25, 1123, 1, -0.25
*EQUATION
5
1898, 2, 1.0, 1122, 2, -0.25, 1127, 2, -0.25, 1128, 2, -0.25, 1123, 2, -0.25
*EQUATION
5
1898, 3, 1.0, 1122, 3, -0.25, 1127, 3, -0.25, 1128, 3, -0.25, 1123, 3, -0.25
*EQUATION
3
1899, 1, 1.0, 1123, 1, -0.5, 1128, 1, -0.5
*EQUATION
3
1899, 2, 1.0, 1123, 2, -0.5, 1128, 2, -0.5
*EQUATION
3
1899, 3, 1.0, 1123, 3, -0.5, 1128, 3, -0.5
*EQUATION
5
1901, 1, 1.0, 1123, 1, -0.25, 1128, 1, -0.25, 61, 1, -0.25, 1125, 1, -0.25
*EQUATION
5
1901, 2, 1.0, 1123, 2, -0.25, 1128, 2, -0.25, 61, 2, -0.25, 1125, 2, -0.25
*EQUATION
5
1901, 3, 1.0, 1123, 3, -0.25, 1128, 3, -0.25, 61, 3, -0.25, 1125, 3, -0.25
*EQUATION
5
1902, 1, 1.0, 1124, 1, -0.25, 1129, 1, -0.25, 61, 1, -0.25, 1125, 1, -0.25
*EQUATION
5
1902, 2, 1.0, 1124, 2, -0.25, 1129, 2, -0.25, 61, 2, -0.25, 1125, 2, -0.25
*EQUATION
5
1902, 3, 1.0, 1124, 3, -0.25, 1129, 3, -0.25, 61, 3, -0.25, 1125, 3, -0.25
*EQUATION
3
1903, 1, 1.0, 61, 1, -0.5, 1125, 1, -0.5
*EQUATION
3
1903, 2, 1.0, 61, 2, -0.5, 1125, 2, -0.5
*EQUATION
3
1903, 3, 1.0, 61, 3, -0.5, 1125, 3, -0.5
*EQUATION
3
1904, 1, 1.0, 1127, 1, -0.5, 1128, 1, -0.5
*EQUATION
3
1904, 2, 1.0, 1127, 2, -0.5, 1128, 2, -0.5
*EQUATION
3
1904, 3, 1.0, 1127, 3, -0.5, 1128, 3, -0.5
*EQUATION
5
1905, 1, 1.0, 1127, 1, -0.25, 1129, 1, -0.25, 61, 1, -0.25, 1128, 1, -0.25
*EQUATION
5
1905, 2, 1.0, 1127, 2, -0.25, 1129, 2, -0.25, 61, 2, -0.25, 1128, 2, -0.25
*EQUATION
5
1905, 3, 1.0, 1127, 3, -0.25, 1129, 3, -0.25, 61, 3, -0.25, 1128, 3, -0.25
*EQUATION
3
1906, 1, 1.0, 61, 1, -0.5, 1128, 1, -0.5
*EQUATION
3
1906, 2, 1.0, 61, 2, -0.5, 1128, 2, -0.5
*EQUATION
3
1906, 3, 1.0, 61, 3, -0.5, 1128, 3, -0.5
*EQUATION
3
1907, 1, 1.0, 61, 1, -0.5, 1129, 1, -0.5
*EQUATION
3
1907, 2, 1.0, 61, 2, -0.5, 1129, 2, -0.5
*EQUATION
3
1907, 3, 1.0, 61, 3, -0.5, 1129, 3, -0.5
*EQUATION
3
1913, 1, 1.0, 1109, 1, -0.5, 1112, 1, -0.5
*EQUATION
3
1913, 2, 1.0, 1109, 2, -0.5, 1112, 2, -0.5
*EQUATION
3
1913, 3, 1.0, 1109, 3, -0.5, 1112, 3, -0.5
*EQUATION
5
1914, 1, 1.0, 1109, 1, -0.25, 1112, 1, -0.25, 1113, 1, -0.25, 60, 1, -0.25
*EQUATION
5
1914, 2, 1.0, 1109, 2, -0.25, 1112, 2, -0.25, 1113, 2, -0.25, 60, 2, -0.25
*EQUATION
5
1914, 3, 1.0, 1109, 3, -0.25, 1112, 3, -0.25, 1113, 3, -0.25, 60, 3, -0.25
*EQUATION
3
1915, 1, 1.0, 60, 1, -0.5, 1113, 1, -0.5
*EQUATION
3
1915, 2, 1.0, 60, 2, -0.5, 1113, 2, -0.5
*EQUATION
3
1915, 3, 1.0, 60, 3, -0.5, 1113, 3, -0.5
*EQUATION
5
1916, 1, 1.0, 1109, 1, -0.25, 1112, 1, -0.25, 1133, 1, -0.25, 1130, 1, -0.25
*EQUATION
5
1916, 2, 1.0, 1109, 2, -0.25, 1112, 2, -0.25, 1133, 2, -0.25, 1130, 2, -0.25
*EQUATION
5
1916, 3, 1.0, 1109, 3, -0.25, 1112, 3, -0.25, 1133, 3, -0.25, 1130, 3, -0.25
*EQUATION
3
1919, 1, 1.0, 1130, 1, -0.5, 1133, 1, -0.5
*EQUATION
3
1919, 2, 1.0, 1130, 2, -0.5, 1133, 2, -0.5
*EQUATION
3
1919, 3, 1.0, 1130, 3, -0.5, 1133, 3, -0.5
*EQUATION
5
1920, 1, 1.0, 1130, 1, -0.25, 1133, 1, -0.25, 1134, 1, -0.25, 1131, 1, -0.25
*EQUATION
5
1920, 2, 1.0, 1130, 2, -0.25, 1133, 2, -0.25, 1134, 2, -0.25, 1131, 2, -0.25
*EQUATION
5
1920, 3, 1.0, 1130, 3, -0.25, 1133, 3, -0.25, 1134, 3, -0.25, 1131, 3, -0.25
*EQUATION
3
1921, 1, 1.0, 1131, 1, -0.5, 1134, 1, -0.5
*EQUATION
3
1921, 2, 1.0, 1131, 2, -0.5, 1134, 2, -0.5
*EQUATION
3
1921, 3, 1.0, 1131, 3, -0.5, 1134, 3, -0.5
*EQUATION
3
1922, 1, 1.0, 1112, 1, -0.5, 1113, 1, -0.5
*EQUATION
3
1922, 2, 1.0, 1112, 2, -0.5, 1113, 2, -0.5
*EQUATION
3
1922, 3, 1.0, 1112, 3, -0.5, 1113, 3, -0.5
*EQUATION
3
1923, 1, 1.0, 1112, 1, -0.5, 1133, 1, -0.5
*EQUATION
3
1923, 2, 1.0, 1112, 2, -0.5, 1133, 2, -0.5
*EQUATION
3
1923, 3, 1.0, 1112, 3, -0.5, 1133, 3, -0.5
*EQUATION
3
1926, 1, 1.0, 1133, 1, -0.5, 1134, 1, -0.5
*EQUATION
3
1926, 2, 1.0, 1133, 2, -0.5, 1134, 2, -0.5
*EQUATION
3
1926, 3, 1.0, 1133, 3, -0.5, 1134, 3, -0.5
*EQUATION
3
1927, 1, 1.0, 1112, 1, -0.5, 1116, 1, -0.5
*EQUATION
3
1927, 2, 1.0, 1112, 2, -0.5, 1116, 2, -0.5
*EQUATION
3
1927, 3, 1.0, 1112, 3, -0.5, 1116, 3, -0.5
*EQUATION
5
1928, 1, 1.0, 1112, 1, -0.25, 1116, 1, -0.25, 59, 1, -0.25, 1113, 1, -0.25
*EQUATION
5
1928, 2, 1.0, 1112, 2, -0.25, 1116, 2, -0.25, 59, 2, -0.25, 1113, 2, -0.25
*EQUATION
5
1928, 3, 1.0, 1112, 3, -0.25, 1116, 3, -0.25, 59, 3, -0.25, 1113, 3, -0.25
*EQUATION
3
1929, 1, 1.0, 59, 1, -0.5, 1113, 1, -0.5
*EQUATION
3
1929, 2, 1.0, 59, 2, -0.5, 1113, 2, -0.5
*EQUATION
3
1929, 3, 1.0, 59, 3, -0.5, 1113, 3, -0.5
*EQUATION
5
1930, 1, 1.0, 1112, 1, -0.25, 1116, 1, -0.25, 1137, 1, -0.25, 1133, 1, -0.25
*EQUATION
5
1930, 2, 1.0, 1112, 2, -0.25, 1116, 2, -0.25, 1137, 2, -0.25, 1133, 2, -0.25
*EQUATION
5
1930, 3, 1.0, 1112, 3, -0.25, 1116, 3, -0.25, 1137, 3, -0.25, 1133, 3, -0.25
*EQUATION
3
1933, 1, 1.0, 1133, 1, -0.5, 1137, 1, -0.5
*EQUATION
3
1933, 2, 1.0, 1133, 2, -0.5, 1137, 2, -0.5
*EQUATION
3
1933, 3, 1.0, 1133, 3, -0.5, 1137, 3, -0.5
*EQUATION
5
1934, 1, 1.0, 1133, 1, -0.25, 1137, 1, -0.25, 1138, 1, -0.25, 1134, 1, -0.25
*EQUATION
5
1934, 2, 1.0, 1133, 2, -0.25, 1137, 2, -0.25, 1138, 2, -0.25, 1134, 2, -0.25
*EQUATION
5
1934, 3, 1.0, 1133, 3, -0.25, 1137, 3, -0.25, 1138, 3, -0.25, 1134, 3, -0.25
*EQUATION
3
1935, 1, 1.0, 1134, 1, -0.5, 1138, 1, -0.5
*EQUATION
3
1935, 2, 1.0, 1134, 2, -0.5, 1138, 2, -0.5
*EQUATION
3
1935, 3, 1.0, 1134, 3, -0.5, 1138, 3, -0.5
*EQUATION
3
1936, 1, 1.0, 59, 1, -0.5, 1116, 1, -0.5
*EQUATION
3
1936, 2, 1.0, 59, 2, -0.5, 1116, 2, -0.5
*EQUATION
3
1936, 3, 1.0, 59, 3, -0.5, 1116, 3, -0.5
*EQUATION
3
1937, 1, 1.0, 1116, 1, -0.5, 1137, 1, -0.5
*EQUATION
3
1937, 2, 1.0, 1116, 2, -0.5, 1137, 2, -0.5
*EQUATION
3
1937, 3, 1.0, 1116, 3, -0.5, 1137, 3, -0.5
*EQUATION
5
1938, 1, 1.0, 1116, 1, -0.25, 1137, 1, -0.25, 1138, 1, -0.25, 59, 1, -0.25
*EQUATION
5
1938, 2, 1.0, 1116, 2, -0.25, 1137, 2, -0.25, 1138, 2, -0.25, 59, 2, -0.25
*EQUATION
5
1938, 3, 1.0, 1116, 3, -0.25, 1137, 3, -0.25, 1138, 3, -0.25, 59, 3, -0.25
*EQUATION
3
1939, 1, 1.0, 59, 1, -0.5, 1138, 1, -0.5
*EQUATION
3
1939, 2, 1.0, 59, 2, -0.5, 1138, 2, -0.5
*EQUATION
3
1939, 3, 1.0, 59, 3, -0.5, 1138, 3, -0.5
*EQUATION
3
1940, 1, 1.0, 1137, 1, -0.5, 1138, 1, -0.5
*EQUATION
3
1940, 2, 1.0, 1137, 2, -0.5, 1138, 2, -0.5
*EQUATION
3
1940, 3, 1.0, 1137, 3, -0.5, 1138, 3, -0.5
*EQUATION
3
1962, 1, 1.0, 36, 1, -0.5, 1038, 1, -0.5
*EQUATION
3
1962, 2, 1.0, 36, 2, -0.5, 1038, 2, -0.5
*EQUATION
3
1962, 3, 1.0, 36, 3, -0.5, 1038, 3, -0.5
*EQUATION
5
1963, 1, 1.0, 36, 1, -0.25, 1038, 1, -0.25, 1155, 1, -0.25, 1152, 1, -0.25
*EQUATION
5
1963, 2, 1.0, 36, 2, -0.25, 1038, 2, -0.25, 1155, 2, -0.25, 1152, 2, -0.25
*EQUATION
5
1963, 3, 1.0, 36, 3, -0.25, 1038, 3, -0.25, 1155, 3, -0.25, 1152, 3, -0.25
*EQUATION
3
1964, 1, 1.0, 1152, 1, -0.5, 1155, 1, -0.5
*EQUATION
3
1964, 2, 1.0, 1152, 2, -0.5, 1155, 2, -0.5
*EQUATION
3
1964, 3, 1.0, 1152, 3, -0.5, 1155, 3, -0.5
*EQUATION
3
1968, 1, 1.0, 1160, 1, -0.5, 1164, 1, -0.5
*EQUATION
3
1968, 2, 1.0, 1160, 2, -0.5, 1164, 2, -0.5
*EQUATION
3
1968, 3, 1.0, 1160, 3, -0.5, 1164, 3, -0.5
*EQUATION
5
1969, 1, 1.0, 1160, 1, -0.25, 1164, 1, -0.25, 1165, 1, -0.25, 1161, 1, -0.25
*EQUATION
5
1969, 2, 1.0, 1160, 2, -0.25, 1164, 2, -0.25, 1165, 2, -0.25, 1161, 2, -0.25
*EQUATION
5
1969, 3, 1.0, 1160, 3, -0.25, 1164, 3, -0.25, 1165, 3, -0.25, 1161, 3, -0.25
*EQUATION
3
1970, 1, 1.0, 1161, 1, -0.5, 1165, 1, -0.5
*EQUATION
3
1970, 2, 1.0, 1161, 2, -0.5, 1165, 2, -0.5
*EQUATION
3
1970, 3, 1.0, 1161, 3, -0.5, 1165, 3, -0.5
*EQUATION
3
1971, 1, 1.0, 1038, 1, -0.5, 1155, 1, -0.5
*EQUATION
3
1971, 2, 1.0, 1038, 2, -0.5, 1155, 2, -0.5
*EQUATION
3
1971, 3, 1.0, 1038, 3, -0.5, 1155, 3, -0.5
*EQUATION
3
1975, 1, 1.0, 1164, 1, -0.5, 1165, 1, -0.5
*EQUATION
3
1975, 2, 1.0, 1164, 2, -0.5, 1165, 2, -0.5
*EQUATION
3
1975, 3, 1.0, 1164, 3, -0.5, 1165, 3, -0.5
*EQUATION
5
1980, 1, 1.0, 1152, 1, -0.25, 1155, 1, -0.25, 1156, 1, -0.25, 70, 1, -0.25
*EQUATION
5
1980, 2, 1.0, 1152, 2, -0.25, 1155, 2, -0.25, 1156, 2, -0.25, 70, 2, -0.25
*EQUATION
5
1980, 3, 1.0, 1152, 3, -0.25, 1155, 3, -0.25, 1156, 3, -0.25, 70, 3, -0.25
*EQUATION
3
1981, 1, 1.0, 70, 1, -0.5, 1156, 1, -0.5
*EQUATION
3
1981, 2, 1.0, 70, 2, -0.5, 1156, 2, -0.5
*EQUATION
3
1981, 3, 1.0, 70, 3, -0.5, 1156, 3, -0.5
*EQUATION
5
1983, 1, 1.0, 70, 1, -0.25, 1156, 1, -0.25, 1166, 1, -0.25, 1162, 1, -0.25
*EQUATION
5
1983, 2, 1.0, 70, 2, -0.25, 1156, 2, -0.25, 1166, 2, -0.25, 1162, 2, -0.25
*EQUATION
5
1983, 3, 1.0, 70, 3, -0.25, 1156, 3, -0.25, 1166, 3, -0.25, 1162, 3, -0.25
*EQUATION
5
1984, 1, 1.0, 1161, 1, -0.25, 1165, 1, -0.25, 1166, 1, -0.25, 1162, 1, -0.25
*EQUATION
5
1984, 2, 1.0, 1161, 2, -0.25, 1165, 2, -0.25, 1166, 2, -0.25, 1162, 2, -0.25
*EQUATION
5
1984, 3, 1.0, 1161, 3, -0.25, 1165, 3, -0.25, 1166, 3, -0.25, 1162, 3, -0.25
*EQUATION
3
1985, 1, 1.0, 1162, 1, -0.5, 1166, 1, -0.5
*EQUATION
3
1985, 2, 1.0, 1162, 2, -0.5, 1166, 2, -0.5
*EQUATION
3
1985, 3, 1.0, 1162, 3, -0.5, 1166, 3, -0.5
*EQUATION
3
1986, 1, 1.0, 1155, 1, -0.5, 1156, 1, -0.5
*EQUATION
3
1986, 2, 1.0, 1155, 2, -0.5, 1156, 2, -0.5
*EQUATION
3
1986, 3, 1.0, 1155, 3, -0.5, 1156, 3, -0.5
*EQUATION
3
1988, 1, 1.0, 1156, 1, -0.5, 1166, 1, -0.5
*EQUATION
3
1988, 2, 1.0, 1156, 2, -0.5, 1166, 2, -0.5
*EQUATION
3
1988, 3, 1.0, 1156, 3, -0.5, 1166, 3, -0.5
*EQUATION
3
1989, 1, 1.0, 1165, 1, -0.5, 1166, 1, -0.5
*EQUATION
3
1989, 2, 1.0, 1165, 2, -0.5, 1166, 2, -0.5
*EQUATION
3
1989, 3, 1.0, 1165, 3, -0.5, 1166, 3, -0.5
*EQUATION
3
1990, 1, 1.0, 35, 1, -0.5, 1038, 1, -0.5
*EQUATION
3
1990, 2, 1.0, 35, 2, -0.5, 1038, 2, -0.5
*EQUATION
3
1990, 3, 1.0, 35, 3, -0.5, 1038, 3, -0.5
*EQUATION
5
1991, 1, 1.0, 1038, 1, -0.25, 35, 1, -0.25, 1159, 1, -0.25, 1155, 1, -0.25
*EQUATION
5
1991, 2, 1.0, 1038, 2, -0.25, 35, 2, -0.25, 1159, 2, -0.25, 1155, 2, -0.25
*EQUATION
5
1991, 3, 1.0, 1038, 3, -0.25, 35, 3, -0.25, 1159, 3, -0.25, 1155, 3, -0.25
*EQUATION
3
1992, 1, 1.0, 1155, 1, -0.5, 1159, 1, -0.5
*EQUATION
3
1992, 2, 1.0, 1155, 2, -0.5, 1159, 2, -0.5
*EQUATION
3
1992, 3, 1.0, 1155, 3, -0.5, 1159, 3, -0.5
*EQUATION
3
1996, 1, 1.0, 1164, 1, -0.5, 1170, 1, -0.5
*EQUATION
3
1996, 2, 1.0, 1164, 2, -0.5, 1170, 2, -0.5
*EQUATION
3
1996, 3, 1.0, 1164, 3, -0.5, 1170, 3, -0.5
*EQUATION
5
1997, 1, 1.0, 1164, 1, -0.25, 1170, 1, -0.25, 1171, 1, -0.25, 1165, 1, -0.25
*EQUATION
5
1997, 2, 1.0, 1164, 2, -0.25, 1170, 2, -0.25, 1171, 2, -0.25, 1165, 2, -0.25
*EQUATION
5
1997, 3, 1.0, 1164, 3, -0.25, 1170, 3, -0.25, 1171, 3, -0.25, 1165, 3, -0.25
*EQUATION
3
1998, 1, 1.0, 1165, 1, -0.5, 1171, 1, -0.5
*EQUATION
3
1998, 2, 1.0, 1165, 2, -0.5, 1171, 2, -0.5
*EQUATION
3
1998, 3, 1.0, 1165, 3, -0.5, 1171, 3, -0.5
*EQUATION
3
1999, 1, 1.0, 35, 1, -0.5, 1159, 1, -0.5
*EQUATION
3
1999, 2, 1.0, 35, 2, -0.5, 1159, 2, -0.5
*EQUATION
3
1999, 3, 1.0, 35, 3, -0.5, 1159, 3, -0.5
*EQUATION
3
2000, 1, 1.0, 35, 1, -0.5, 1170, 1, -0.5
*EQUATION
3
2000, 2, 1.0, 35, 2, -0.5, 1170, 2, -0.5
*EQUATION
3
2000, 3, 1.0, 35, 3, -0.5, 1170, 3, -0.5
*EQUATION
5
2001, 1, 1.0, 35, 1, -0.25, 1170, 1, -0.25, 1171, 1, -0.25, 1159, 1, -0.25
*EQUATION
5
2001, 2, 1.0, 35, 2, -0.25, 1170, 2, -0.25, 1171, 2, -0.25, 1159, 2, -0.25
*EQUATION
5
2001, 3, 1.0, 35, 3, -0.25, 1170, 3, -0.25, 1171, 3, -0.25, 1159, 3, -0.25
*EQUATION
3
2002, 1, 1.0, 1159, 1, -0.5, 1171, 1, -0.5
*EQUATION
3
2002, 2, 1.0, 1159, 2, -0.5, 1171, 2, -0.5
*EQUATION
3
2002, 3, 1.0, 1159, 3, -0.5, 1171, 3, -0.5
*EQUATION
3
2003, 1, 1.0, 1170, 1, -0.5, 1171, 1, -0.5
*EQUATION
3
2003, 2, 1.0, 1170, 2, -0.5, 1171, 2, -0.5
*EQUATION
3
2003, 3, 1.0, 1170, 3, -0.5, 1171, 3, -0.5
*EQUATION
5
2004, 1, 1.0, 1155, 1, -0.25, 1159, 1, -0.25, 69, 1, -0.25, 1156, 1, -0.25
*EQUATION
5
2004, 2, 1.0, 1155, 2, -0.25, 1159, 2, -0.25, 69, 2, -0.25, 1156, 2, -0.25
*EQUATION
5
2004, 3, 1.0, 1155, 3, -0.25, 1159, 3, -0.25, 69, 3, -0.25, 1156, 3, -0.25
*EQUATION
3
2005, 1, 1.0, 69, 1, -0.5, 1156, 1, -0.5
*EQUATION
3
2005, 2, 1.0, 69, 2, -0.5, 1156, 2, -0.5
*EQUATION
3
2005, 3, 1.0, 69, 3, -0.5, 1156, 3, -0.5
*EQUATION
5
2007, 1, 1.0, 1156, 1, -0.25, 69, 1, -0.25, 1172, 1, -0.25, 1166, 1, -0.25
*EQUATION
5
2007, 2, 1.0, 1156, 2, -0.25, 69, 2, -0.25, 1172, 2, -0.25, 1166, 2, -0.25
*EQUATION
5
2007, 3, 1.0, 1156, 3, -0.25, 69, 3, -0.25, 1172, 3, -0.25, 1166, 3, -0.25
*EQUATION
5
2008, 1, 1.0, 1165, 1, -0.25, 1171, 1, -0.25, 1172, 1, -0.25, 1166, 1, -0.25
*EQUATION
5
2008, 2, 1.0, 1165, 2, -0.25, 1171, 2, -0.25, 1172, 2, -0.25, 1166, 2, -0.25
*EQUATION
5
2008, 3, 1.0, 1165, 3, -0.25, 1171, 3, -0.25, 1172, 3, -0.25, 1166, 3, -0.25
*EQUATION
3
2009, 1, 1.0, 1166, 1, -0.5, 1172, 1, -0.5
*EQUATION
3
2009, 2, 1.0, 1166, 2, -0.5, 1172, 2, -0.5
*EQUATION
3
2009, 3, 1.0, 1166, 3, -0.5, 1172, 3, -0.5
*EQUATION
3
2010, 1, 1.0, 69, 1, -0.5, 1159, 1, -0.5
*EQUATION
3
2010, 2, 1.0, 69, 2, -0.5, 1159, 2, -0.5
*EQUATION
3
2010, 3, 1.0, 69, 3, -0.5, 1159, 3, -0.5
*EQUATION
5
2011, 1, 1.0, 1159, 1, -0.25, 1171, 1, -0.25, 1172, 1, -0.25, 69, 1, -0.25
*EQUATION
5
2011, 2, 1.0, 1159, 2, -0.25, 1171, 2, -0.25, 1172, 2, -0.25, 69, 2, -0.25
*EQUATION
5
2011, 3, 1.0, 1159, 3, -0.25, 1171, 3, -0.25, 1172, 3, -0.25, 69, 3, -0.25
*EQUATION
3
2012, 1, 1.0, 69, 1, -0.5, 1172, 1, -0.5
*EQUATION
3
2012, 2, 1.0, 69, 2, -0.5, 1172, 2, -0.5
*EQUATION
3
2012, 3, 1.0, 69, 3, -0.5, 1172, 3, -0.5
*EQUATION
3
2013, 1, 1.0, 1171, 1, -0.5, 1172, 1, -0.5
*EQUATION
3
2013, 2, 1.0, 1171, 2, -0.5, 1172, 2, -0.5
*EQUATION
3
2013, 3, 1.0, 1171, 3, -0.5, 1172, 3, -0.5
*EQUATION
3
2019, 1, 1.0, 1175, 1, -0.5, 1180, 1, -0.5
*EQUATION
3
2019, 2, 1.0, 1175, 2, -0.5, 1180, 2, -0.5
*EQUATION
3
2019, 3, 1.0, 1175, 3, -0.5, 1180, 3, -0.5
*EQUATION
5
2020, 1, 1.0, 1175, 1, -0.25, 1180, 1, -0.25, 1181, 1, -0.25, 1176, 1, -0.25
*EQUATION
5
2020, 2, 1.0, 1175, 2, -0.25, 1180, 2, -0.25, 1181, 2, -0.25, 1176, 2, -0.25
*EQUATION
5
2020, 3, 1.0, 1175, 3, -0.25, 1180, 3, -0.25, 1181, 3, -0.25, 1176, 3, -0.25
*EQUATION
3
2021, 1, 1.0, 1176, 1, -0.5, 1181, 1, -0.5
*EQUATION
3
2021, 2, 1.0, 1176, 2, -0.5, 1181, 2, -0.5
*EQUATION
3
2021, 3, 1.0, 1176, 3, -0.5, 1181, 3, -0.5
*EQUATION
5
2022, 1, 1.0, 1175, 1, -0.25, 1180, 1, -0.25, 1182, 1, -0.25, 1177, 1, -0.25
*EQUATION
5
2022, 2, 1.0, 1175, 2, -0.25, 1180, 2, -0.25, 1182, 2, -0.25, 1177, 2, -0.25
*EQUATION
5
2022, 3, 1.0, 1175, 3, -0.25, 1180, 3, -0.25, 1182, 3, -0.25, 1177, 3, -0.25
*EQUATION
3
2025, 1, 1.0, 1177, 1, -0.5, 1182, 1, -0.5
*EQUATION
3
2025, 2, 1.0, 1177, 2, -0.5, 1182, 2, -0.5
*EQUATION
3
2025, 3, 1.0, 1177, 3, -0.5, 1182, 3, -0.5
*EQUATION
5
2026, 1, 1.0, 1177, 1, -0.25, 1182, 1, -0.25, 1183, 1, -0.25, 78, 1, -0.25
*EQUATION
5
2026, 2, 1.0, 1177, 2, -0.25, 1182, 2, -0.25, 1183, 2, -0.25, 78, 2, -0.25
*EQUATION
5
2026, 3, 1.0, 1177, 3, -0.25, 1182, 3, -0.25, 1183, 3, -0.25, 78, 3, -0.25
*EQUATION
3
2027, 1, 1.0, 78, 1, -0.5, 1183, 1, -0.5
*EQUATION
3
2027, 2, 1.0, 78, 2, -0.5, 1183, 2, -0.5
*EQUATION
3
2027, 3, 1.0, 78, 3, -0.5, 1183, 3, -0.5
*EQUATION
3
2028, 1, 1.0, 1180, 1, -0.5, 1181, 1, -0.5
*EQUATION
3
2028, 2, 1.0, 1180, 2, -0.5, 1181, 2, -0.5
*EQUATION
3
2028, 3, 1.0, 1180, 3, -0.5, 1181, 3, -0.5
*EQUATION
3
2029, 1, 1.0, 1180, 1, -0.5, 1182, 1, -0.5
*EQUATION
3
2029, 2, 1.0, 1180, 2, -0.5, 1182, 2, -0.5
*EQUATION
3
2029, 3, 1.0, 1180, 3, -0.5, 1182, 3, -0.5
*EQUATION
3
2032, 1, 1.0, 1182, 1, -0.5, 1183, 1, -0.5
*EQUATION
3
2032, 2, 1.0, 1182, 2, -0.5, 1183, 2, -0.5
*EQUATION
3
2032, 3, 1.0, 1182, 3, -0.5, 1183, 3, -0.5
*EQUATION
3
2033, 1, 1.0, 1180, 1, -0.5, 1185, 1, -0.5
*EQUATION
3
2033, 2, 1.0, 1180, 2, -0.5, 1185, 2, -0.5
*EQUATION
3
2033, 3, 1.0, 1180, 3, -0.5, 1185, 3, -0.5
*EQUATION
5
2034, 1, 1.0, 1180, 1, -0.25, 1185, 1, -0.25, 1186, 1, -0.25, 1181, 1, -0.25
*EQUATION
5
2034, 2, 1.0, 1180, 2, -0.25, 1185, 2, -0.25, 1186, 2, -0.25, 1181, 2, -0.25
*EQUATION
5
2034, 3, 1.0, 1180, 3, -0.25, 1185, 3, -0.25, 1186, 3, -0.25, 1181, 3, -0.25
*EQUATION
3
2035, 1, 1.0, 1181, 1, -0.5, 1186, 1, -0.5
*EQUATION
3
2035, 2, 1.0, 1181, 2, -0.5, 1186, 2, -0.5
*EQUATION
3
2035, 3, 1.0, 1181, 3, -0.5, 1186, 3, -0.5
*EQUATION
5
2036, 1, 1.0, 1180, 1, -0.25, 1185, 1, -0.25, 1187, 1, -0.25, 1182, 1, -0.25
*EQUATION
5
2036, 2, 1.0, 1180, 2, -0.25, 1185, 2, -0.25, 1187, 2, -0.25, 1182, 2, -0.25
*EQUATION
5
2036, 3, 1.0, 1180, 3, -0.25, 1185, 3, -0.25, 1187, 3, -0.25, 1182, 3, -0.25
*EQUATION
3
2039, 1, 1.0, 1182, 1, -0.5, 1187, 1, -0.5
*EQUATION
3
2039, 2, 1.0, 1182, 2, -0.5, 1187, 2, -0.5
*EQUATION
3
2039, 3, 1.0, 1182, 3, -0.5, 1187, 3, -0.5
*EQUATION
5
2040, 1, 1.0, 1182, 1, -0.25, 1187, 1, -0.25, 77, 1, -0.25, 1183, 1, -0.25
*EQUATION
5
2040, 2, 1.0, 1182, 2, -0.25, 1187, 2, -0.25, 77, 2, -0.25, 1183, 2, -0.25
*EQUATION
5
2040, 3, 1.0, 1182, 3, -0.25, 1187, 3, -0.25, 77, 3, -0.25, 1183, 3, -0.25
*EQUATION
3
2041, 1, 1.0, 77, 1, -0.5, 1183, 1, -0.5
*EQUATION
3
2041, 2, 1.0, 77, 2, -0.5, 1183, 2, -0.5
*EQUATION
3
2041, 3, 1.0, 77, 3, -0.5, 1183, 3, -0.5
*EQUATION
3
2042, 1, 1.0, 1185, 1, -0.5, 1186, 1, -0.5
*EQUATION
3
2042, 2, 1.0, 1185, 2, -0.5, 1186, 2, -0.5
*EQUATION
3
2042, 3, 1.0, 1185, 3, -0.5, 1186, 3, -0.5
*EQUATION
3
2043, 1, 1.0, 1185, 1, -0.5, 1187, 1, -0.5
*EQUATION
3
2043, 2, 1.0, 1185, 2, -0.5, 1187, 2, -0.5
*EQUATION
3
2043, 3, 1.0, 1185, 3, -0.5, 1187, 3, -0.5
*EQUATION
5
2044, 1, 1.0, 1185, 1, -0.25, 1187, 1, -0.25, 77, 1, -0.25, 1186, 1, -0.25
*EQUATION
5
2044, 2, 1.0, 1185, 2, -0.25, 1187, 2, -0.25, 77, 2, -0.25, 1186, 2, -0.25
*EQUATION
5
2044, 3, 1.0, 1185, 3, -0.25, 1187, 3, -0.25, 77, 3, -0.25, 1186, 3, -0.25
*EQUATION
3
2045, 1, 1.0, 77, 1, -0.5, 1186, 1, -0.5
*EQUATION
3
2045, 2, 1.0, 77, 2, -0.5, 1186, 2, -0.5
*EQUATION
3
2045, 3, 1.0, 77, 3, -0.5, 1186, 3, -0.5
*EQUATION
3
2046, 1, 1.0, 77, 1, -0.5, 1187, 1, -0.5
*EQUATION
3
2046, 2, 1.0, 77, 2, -0.5, 1187, 2, -0.5
*EQUATION
3
2046, 3, 1.0, 77, 3, -0.5, 1187, 3, -0.5
*EQUATION
3
2052, 1, 1.0, 74, 1, -0.5, 1167, 1, -0.5
*EQUATION
3
2052, 2, 1.0, 74, 2, -0.5, 1167, 2, -0.5
*EQUATION
3
2052, 3, 1.0, 74, 3, -0.5, 1167, 3, -0.5
*EQUATION
5
2053, 1, 1.0, 74, 1, -0.25, 1167, 1, -0.25, 1168, 1, -0.25, 1163, 1, -0.25
*EQUATION
5
2053, 2, 1.0, 74, 2, -0.25, 1167, 2, -0.25, 1168, 2, -0.25, 1163, 2, -0.25
*EQUATION
5
2053, 3, 1.0, 74, 3, -0.25, 1167, 3, -0.25, 1168, 3, -0.25, 1163, 3, -0.25
*EQUATION
3
2054, 1, 1.0, 1163, 1, -0.5, 1168, 1, -0.5
*EQUATION
3
2054, 2, 1.0, 1163, 2, -0.5, 1168, 2, -0.5
*EQUATION
3
2054, 3, 1.0, 1163, 3, -0.5, 1168, 3, -0.5
*EQUATION
5
2057, 1, 1.0, 1163, 1, -0.25, 1168, 1, -0.25, 1193, 1, -0.25, 1189, 1, -0.25
*EQUATION
5
2057, 2, 1.0, 1163, 2, -0.25, 1168, 2, -0.25, 1193, 2, -0.25, 1189, 2, -0.25
*EQUATION
5
2057, 3, 1.0, 1163, 3, -0.25, 1168, 3, -0.25, 1193, 3, -0.25, 1189, 3, -0.25
*EQUATION
3
2058, 1, 1.0, 1188, 1, -0.5, 1192, 1, -0.5
*EQUATION
3
2058, 2, 1.0, 1188, 2, -0.5, 1192, 2, -0.5
*EQUATION
3
2058, 3, 1.0, 1188, 3, -0.5, 1192, 3, -0.5
*EQUATION
5
2059, 1, 1.0, 1188, 1, -0.25, 1192, 1, -0.25, 1193, 1, -0.25, 1189, 1, -0.25
*EQUATION
5
2059, 2, 1.0, 1188, 2, -0.25, 1192, 2, -0.25, 1193, 2, -0.25, 1189, 2, -0.25
*EQUATION
5
2059, 3, 1.0, 1188, 3, -0.25, 1192, 3, -0.25, 1193, 3, -0.25, 1189, 3, -0.25
*EQUATION
3
2060, 1, 1.0, 1189, 1, -0.5, 1193, 1, -0.5
*EQUATION
3
2060, 2, 1.0, 1189, 2, -0.5, 1193, 2, -0.5
*EQUATION
3
2060, 3, 1.0, 1189, 3, -0.5, 1193, 3, -0.5
*EQUATION
3
2061, 1, 1.0, 1167, 1, -0.5, 1168, 1, -0.5
*EQUATION
3
2061, 2, 1.0, 1167, 2, -0.5, 1168, 2, -0.5
*EQUATION
3
2061, 3, 1.0, 1167, 3, -0.5, 1168, 3, -0.5
*EQUATION
3
2064, 1, 1.0, 1168, 1, -0.5, 1193, 1, -0.5
*EQUATION
3
2064, 2, 1.0, 1168, 2, -0.5, 1193, 2, -0.5
*EQUATION
3
2064, 3, 1.0, 1168, 3, -0.5, 1193, 3, -0.5
*EQUATION
3
2065, 1, 1.0, 1192, 1, -0.5, 1193, 1, -0.5
*EQUATION
3
2065, 2, 1.0, 1192, 2, -0.5, 1193, 2, -0.5
*EQUATION
3
2065, 3, 1.0, 1192, 3, -0.5, 1193, 3, -0.5
*EQUATION
3
2066, 1, 1.0, 73, 1, -0.5, 1167, 1, -0.5
*EQUATION
3
2066, 2, 1.0, 73, 2, -0.5, 1167, 2, -0.5
*EQUATION
3
2066, 3, 1.0, 73, 3, -0.5, 1167, 3, -0.5
*EQUATION
5
2067, 1, 1.0, 1167, 1, -0.25, 73, 1, -0.25, 1173, 1, -0.25, 1168, 1, -0.25
*EQUATION
5
2067, 2, 1.0, 1167, 2, -0.25, 73, 2, -0.25, 1173, 2, -0.25, 1168, 2, -0.25
*EQUATION
5
2067, 3, 1.0, 1167, 3, -0.25, 73, 3, -0.25, 1173, 3, -0.25, 1168, 3, -0.25
*EQUATION
3
2068, 1, 1.0, 1168, 1, -0.5, 1173, 1, -0.5
*EQUATION
3
2068, 2, 1.0, 1168, 2, -0.5, 1173, 2, -0.5
*EQUATION
3
2068, 3, 1.0, 1168, 3, -0.5, 1173, 3, -0.5
*EQUATION
5
2071, 1, 1.0, 1168, 1, -0.25, 1173, 1, -0.25, 1199, 1, -0.25, 1193, 1, -0.25
*EQUATION
5
2071, 2, 1.0, 1168, 2, -0.25, 1173, 2, -0.25, 1199, 2, -0.25, 1193, 2, -0.25
*EQUATION
5
2071, 3, 1.0, 1168, 3, -0.25, 1173, 3, -0.25, 1199, 3, -0.25, 1193, 3, -0.25
*EQUATION
3
2072, 1, 1.0, 1192, 1, -0.5, 1198, 1, -0.5
*EQUATION
3
2072, 2, 1.0, 1192, 2, -0.5, 1198, 2, -0.5
*EQUATION
3
2072, 3, 1.0, 1192, 3, -0.5, 1198, 3, -0.5
*EQUATION
5
2073, 1, 1.0, 1192, 1, -0.25, 1198, 1, -0.25, 1199, 1, -0.25, 1193, 1, -0.25
*EQUATION
5
2073, 2, 1.0, 1192, 2, -0.25, 1198, 2, -0.25, 1199, 2, -0.25, 1193, 2, -0.25
*EQUATION
5
2073, 3, 1.0, 1192, 3, -0.25, 1198, 3, -0.25, 1199, 3, -0.25, 1193, 3, -0.25
*EQUATION
3
2074, 1, 1.0, 1193, 1, -0.5, 1199, 1, -0.5
*EQUATION
3
2074, 2, 1.0, 1193, 2, -0.5, 1199, 2, -0.5
*EQUATION
3
2074, 3, 1.0, 1193, 3, -0.5, 1199, 3, -0.5
*EQUATION
3
2075, 1, 1.0, 73, 1, -0.5, 1173, 1, -0.5
*EQUATION
3
2075, 2, 1.0, 73, 2, -0.5, 1173, 2, -0.5
*EQUATION
3
2075, 3, 1.0, 73, 3, -0.5, 1173, 3, -0.5
*EQUATION
3
2078, 1, 1.0, 1173, 1, -0.5, 1199, 1, -0.5
*EQUATION
3
2078, 2, 1.0, 1173, 2, -0.5, 1199, 2, -0.5
*EQUATION
3
2078, 3, 1.0, 1173, 3, -0.5, 1199, 3, -0.5
*EQUATION
3
2079, 1, 1.0, 1198, 1, -0.5, 1199, 1, -0.5
*EQUATION
3
2079, 2, 1.0, 1198, 2, -0.5, 1199, 2, -0.5
*EQUATION
3
2079, 3, 1.0, 1198, 3, -0.5, 1199, 3, -0.5
*EQUATION
3
2085, 1, 1.0, 1190, 1, -0.5, 1194, 1, -0.5
*EQUATION
3
2085, 2, 1.0, 1190, 2, -0.5, 1194, 2, -0.5
*EQUATION
3
2085, 3, 1.0, 1190, 3, -0.5, 1194, 3, -0.5
*EQUATION
5
2086, 1, 1.0, 1190, 1, -0.25, 1194, 1, -0.25, 1205, 1, -0.25, 1202, 1, -0.25
*EQUATION
5
2086, 2, 1.0, 1190, 2, -0.25, 1194, 2, -0.25, 1205, 2, -0.25, 1202, 2, -0.25
*EQUATION
5
2086, 3, 1.0, 1190, 3, -0.25, 1194, 3, -0.25, 1205, 3, -0.25, 1202, 3, -0.25
*EQUATION
3
2087, 1, 1.0, 1202, 1, -0.5, 1205, 1, -0.5
*EQUATION
3
2087, 2, 1.0, 1202, 2, -0.5, 1205, 2, -0.5
*EQUATION
3
2087, 3, 1.0, 1202, 3, -0.5, 1205, 3, -0.5
*EQUATION
5
2088, 1, 1.0, 1190, 1, -0.25, 1194, 1, -0.25, 1197, 1, -0.25, 82, 1, -0.25
*EQUATION
5
2088, 2, 1.0, 1190, 2, -0.25, 1194, 2, -0.25, 1197, 2, -0.25, 82, 2, -0.25
*EQUATION
5
2088, 3, 1.0, 1190, 3, -0.25, 1194, 3, -0.25, 1197, 3, -0.25, 82, 3, -0.25
*EQUATION
3
2091, 1, 1.0, 82, 1, -0.5, 1197, 1, -0.5
*EQUATION
3
2091, 2, 1.0, 82, 2, -0.5, 1197, 2, -0.5
*EQUATION
3
2091, 3, 1.0, 82, 3, -0.5, 1197, 3, -0.5
*EQUATION
5
2092, 1, 1.0, 82, 1, -0.25, 1197, 1, -0.25, 1207, 1, -0.25, 1204, 1, -0.25
*EQUATION
5
2092, 2, 1.0, 82, 2, -0.25, 1197, 2, -0.25, 1207, 2, -0.25, 1204, 2, -0.25
*EQUATION
5
2092, 3, 1.0, 82, 3, -0.25, 1197, 3, -0.25, 1207, 3, -0.25, 1204, 3, -0.25
*EQUATION
3
2093, 1, 1.0, 1204, 1, -0.5, 1207, 1, -0.5
*EQUATION
3
2093, 2, 1.0, 1204, 2, -0.5, 1207, 2, -0.5
*EQUATION
3
2093, 3, 1.0, 1204, 3, -0.5, 1207, 3, -0.5
*EQUATION
3
2094, 1, 1.0, 1194, 1, -0.5, 1205, 1, -0.5
*EQUATION
3
2094, 2, 1.0, 1194, 2, -0.5, 1205, 2, -0.5
*EQUATION
3
2094, 3, 1.0, 1194, 3, -0.5, 1205, 3, -0.5
*EQUATION
3
2095, 1, 1.0, 1194, 1, -0.5, 1197, 1, -0.5
*EQUATION
3
2095, 2, 1.0, 1194, 2, -0.5, 1197, 2, -0.5
*EQUATION
3
2095, 3, 1.0, 1194, 3, -0.5, 1197, 3, -0.5
*EQUATION
3
2098, 1, 1.0, 1197, 1, -0.5, 1207, 1, -0.5
*EQUATION
3
2098, 2, 1.0, 1197, 2, -0.5, 1207, 2, -0.5
*EQUATION
3
2098, 3, 1.0, 1197, 3, -0.5, 1207, 3, -0.5
*EQUATION
5
2103, 1, 1.0, 1202, 1, -0.25, 1205, 1, -0.25, 1206, 1, -0.25, 1203, 1, -0.25
*EQUATION
5
2103, 2, 1.0, 1202, 2, -0.25, 1205, 2, -0.25, 1206, 2, -0.25, 1203, 2, -0.25
*EQUATION
5
2103, 3, 1.0, 1202, 3, -0.25, 1205, 3, -0.25, 1206, 3, -0.25, 1203, 3, -0.25
*EQUATION
3
2104, 1, 1.0, 1203, 1, -0.5, 1206, 1, -0.5
*EQUATION
3
2104, 2, 1.0, 1203, 2, -0.5, 1206, 2, -0.5
*EQUATION
3
2104, 3, 1.0, 1203, 3, -0.5, 1206, 3, -0.5
*EQUATION
3
2109, 1, 1.0, 1205, 1, -0.5, 1206, 1, -0.5
*EQUATION
3
2109, 2, 1.0, 1205, 2, -0.5, 1206, 2, -0.5
*EQUATION
3
2109, 3, 1.0, 1205, 3, -0.5, 1206, 3, -0.5
*EQUATION
3
2113, 1, 1.0, 1194, 1, -0.5, 1200, 1, -0.5
*EQUATION
3
2113, 2, 1.0, 1194, 2, -0.5, 1200, 2, -0.5
*EQUATION
3
2113, 3, 1.0, 1194, 3, -0.5, 1200, 3, -0.5
*EQUATION
5
2114, 1, 1.0, 1194, 1, -0.25, 1200, 1, -0.25, 1209, 1, -0.25, 1205, 1, -0.25
*EQUATION
5
2114, 2, 1.0, 1194, 2, -0.25, 1200, 2, -0.25, 1209, 2, -0.25, 1205, 2, -0.25
*EQUATION
5
2114, 3, 1.0, 1194, 3, -0.25, 1200, 3, -0.25, 1209, 3, -0.25, 1205, 3, -0.25
*EQUATION
3
2115, 1, 1.0, 1205, 1, -0.5, 1209, 1, -0.5
*EQUATION
3
2115, 2, 1.0, 1205, 2, -0.5, 1209, 2, -0.5
*EQUATION
3
2115, 3, 1.0, 1205, 3, -0.5, 1209, 3, -0.5
*EQUATION
5
2116, 1, 1.0, 1194, 1, -0.25, 1200, 1, -0.25, 81, 1, -0.25, 1197, 1, -0.25
*EQUATION
5
2116, 2, 1.0, 1194, 2, -0.25, 1200, 2, -0.25, 81, 2, -0.25, 1197, 2, -0.25
*EQUATION
5
2116, 3, 1.0, 1194, 3, -0.25, 1200, 3, -0.25, 81, 3, -0.25, 1197, 3, -0.25
*EQUATION
3
2119, 1, 1.0, 81, 1, -0.5, 1197, 1, -0.5
*EQUATION
3
2119, 2, 1.0, 81, 2, -0.5, 1197, 2, -0.5
*EQUATION
3
2119, 3, 1.0, 81, 3, -0.5, 1197, 3, -0.5
*EQUATION
5
2120, 1, 1.0, 1197, 1, -0.25, 81, 1, -0.25, 1211, 1, -0.25, 1207, 1, -0.25
*EQUATION
5
2120, 2, 1.0, 1197, 2, -0.25, 81, 2, -0.25, 1211, 2, -0.25, 1207, 2, -0.25
*EQUATION
5
2120, 3, 1.0, 1197, 3, -0.25, 81, 3, -0.25, 1211, 3, -0.25, 1207, 3, -0.25
*EQUATION
3
2121, 1, 1.0, 1207, 1, -0.5, 1211, 1, -0.5
*EQUATION
3
2121, 2, 1.0, 1207, 2, -0.5, 1211, 2, -0.5
*EQUATION
3
2121, 3, 1.0, 1207, 3, -0.5, 1211, 3, -0.5
*EQUATION
3
2122, 1, 1.0, 1200, 1, -0.5, 1209, 1, -0.5
*EQUATION
3
2122, 2, 1.0, 1200, 2, -0.5, 1209, 2, -0.5
*EQUATION
3
2122, 3, 1.0, 1200, 3, -0.5, 1209, 3, -0.5
*EQUATION
3
2123, 1, 1.0, 81, 1, -0.5, 1200, 1, -0.5
*EQUATION
3
2123, 2, 1.0, 81, 2, -0.5, 1200, 2, -0.5
*EQUATION
3
2123, 3, 1.0, 81, 3, -0.5, 1200, 3, -0.5
*EQUATION
3
2126, 1, 1.0, 81, 1, -0.5, 1211, 1, -0.5
*EQUATION
3
2126, 2, 1.0, 81, 2, -0.5, 1211, 2, -0.5
*EQUATION
3
2126, 3, 1.0, 81, 3, -0.5, 1211, 3, -0.5
*EQUATION
5
2127, 1, 1.0, 1205, 1, -0.25, 1209, 1, -0.25, 1210, 1, -0.25, 1206, 1, -0.25
*EQUATION
5
2127, 2, 1.0, 1205, 2, -0.25, 1209, 2, -0.25, 1210, 2, -0.25, 1206, 2, -0.25
*EQUATION
5
2127, 3, 1.0, 1205, 3, -0.25, 1209, 3, -0.25, 1210, 3, -0.25, 1206, 3, -0.25
*EQUATION
3
2128, 1, 1.0, 1206, 1, -0.5, 1210, 1, -0.5
*EQUATION
3
2128, 2, 1.0, 1206, 2, -0.5, 1210, 2, -0.5
*EQUATION
3
2128, 3, 1.0, 1206, 3, -0.5, 1210, 3, -0.5
*EQUATION
3
2133, 1, 1.0, 1209, 1, -0.5, 1210, 1, -0.5
*EQUATION
3
2133, 2, 1.0, 1209, 2, -0.5, 1210, 2, -0.5
*EQUATION
3
2133, 3, 1.0, 1209, 3, -0.5, 1210, 3, -0.5
*EQUATION
3
2141, 1, 1.0, 79, 1, -0.5, 85, 1, -0.5
*EQUATION
3
2141, 2, 1.0, 79, 2, -0.5, 85, 2, -0.5
*EQUATION
3
2141, 3, 1.0, 79, 3, -0.5, 85, 3, -0.5
*EQUATION
5
2142, 1, 1.0, 79, 1, -0.25, 85, 1, -0.25, 87, 1, -0.25, 81, 1, -0.25
*EQUATION
5
2142, 2, 1.0, 79, 2, -0.25, 85, 2, -0.25, 87, 2, -0.25, 81, 2, -0.25
*EQUATION
5
2142, 3, 1.0, 79, 3, -0.25, 85, 3, -0.25, 87, 3, -0.25, 81, 3, -0.25
*EQUATION
5
2147, 1, 1.0, 1204, 1, -0.25, 1207, 1, -0.25, 1217, 1, -0.25, 1213, 1, -0.25
*EQUATION
5
2147, 2, 1.0, 1204, 2, -0.25, 1207, 2, -0.25, 1217, 2, -0.25, 1213, 2, -0.25
*EQUATION
5
2147, 3, 1.0, 1204, 3, -0.25, 1207, 3, -0.25, 1217, 3, -0.25, 1213, 3, -0.25
*EQUATION
3
2150, 1, 1.0, 1213, 1, -0.5, 1217, 1, -0.5
*EQUATION
3
2150, 2, 1.0, 1213, 2, -0.5, 1217, 2, -0.5
*EQUATION
3
2150, 3, 1.0, 1213, 3, -0.5, 1217, 3, -0.5
*EQUATION
3
2153, 1, 1.0, 1207, 1, -0.5, 1217, 1, -0.5
*EQUATION
3
2153, 2, 1.0, 1207, 2, -0.5, 1217, 2, -0.5
*EQUATION
3
2153, 3, 1.0, 1207, 3, -0.5, 1217, 3, -0.5
*EQUATION
5
2161, 1, 1.0, 1213, 1, -0.25, 1217, 1, -0.25, 1220, 1, -0.25, 1215, 1, -0.25
*EQUATION
5
2161, 2, 1.0, 1213, 2, -0.25, 1217, 2, -0.25, 1220, 2, -0.25, 1215, 2, -0.25
*EQUATION
5
2161, 3, 1.0, 1213, 3, -0.25, 1217, 3, -0.25, 1220, 3, -0.25, 1215, 3, -0.25
*EQUATION
3
2164, 1, 1.0, 1215, 1, -0.5, 1220, 1, -0.5
*EQUATION
3
2164, 2, 1.0, 1215, 2, -0.5, 1220, 2, -0.5
*EQUATION
3
2164, 3, 1.0, 1215, 3, -0.5, 1220, 3, -0.5
*EQUATION
3
2167, 1, 1.0, 1217, 1, -0.5, 1220, 1, -0.5
*EQUATION
3
2167, 2, 1.0, 1217, 2, -0.5, 1220, 2, -0.5
*EQUATION
3
2167, 3, 1.0, 1217, 3, -0.5, 1220, 3, -0.5
*EQUATION
5
2171, 1, 1.0, 1207, 1, -0.25, 1211, 1, -0.25, 1223, 1, -0.25, 1217, 1, -0.25
*EQUATION
5
2171, 2, 1.0, 1207, 2, -0.25, 1211, 2, -0.25, 1223, 2, -0.25, 1217, 2, -0.25
*EQUATION
5
2171, 3, 1.0, 1207, 3, -0.25, 1211, 3, -0.25, 1223, 3, -0.25, 1217, 3, -0.25
*EQUATION
3
2174, 1, 1.0, 1217, 1, -0.5, 1223, 1, -0.5
*EQUATION
3
2174, 2, 1.0, 1217, 2, -0.5, 1223, 2, -0.5
*EQUATION
3
2174, 3, 1.0, 1217, 3, -0.5, 1223, 3, -0.5
*EQUATION
3
2177, 1, 1.0, 1211, 1, -0.5, 1223, 1, -0.5
*EQUATION
3
2177, 2, 1.0, 1211, 2, -0.5, 1223, 2, -0.5
*EQUATION
3
2177, 3, 1.0, 1211, 3, -0.5, 1223, 3, -0.5
*EQUATION
5
2181, 1, 1.0, 1217, 1, -0.25, 1223, 1, -0.25, 1225, 1, -0.25, 1220, 1, -0.25
*EQUATION
5
2181, 2, 1.0, 1217, 2, -0.25, 1223, 2, -0.25, 1225, 2, -0.25, 1220, 2, -0.25
*EQUATION
5
2181, 3, 1.0, 1217, 3, -0.25, 1223, 3, -0.25, 1225, 3, -0.25, 1220, 3, -0.25
*EQUATION
3
2184, 1, 1.0, 1220, 1, -0.5, 1225, 1, -0.5
*EQUATION
3
2184, 2, 1.0, 1220, 2, -0.5, 1225, 2, -0.5
*EQUATION
3
2184, 3, 1.0, 1220, 3, -0.5, 1225, 3, -0.5
*EQUATION
3
2187, 1, 1.0, 1223, 1, -0.5, 1225, 1, -0.5
*EQUATION
3
2187, 2, 1.0, 1223, 2, -0.5, 1225, 2, -0.5
*EQUATION
3
2187, 3, 1.0, 1223, 3, -0.5, 1225, 3, -0.5
*EQUATION
3
2191, 1, 1.0, 1233, 1, -0.5, 1234, 1, -0.5
*EQUATION
3
2191, 2, 1.0, 1233, 2, -0.5, 1234, 2, -0.5
*EQUATION
3
2191, 3, 1.0, 1233, 3, -0.5, 1234, 3, -0.5
*EQUATION
3
2192, 1, 1.0, 1233, 1, -0.5, 1236, 1, -0.5
*EQUATION
3
2192, 2, 1.0, 1233, 2, -0.5, 1236, 2, -0.5
*EQUATION
3
2192, 3, 1.0, 1233, 3, -0.5, 1236, 3, -0.5
*EQUATION
5
2193, 1, 1.0, 1233, 1, -0.25, 1236, 1, -0.25, 1237, 1, -0.25, 1234, 1, -0.25
*EQUATION
5
2193, 2, 1.0, 1233, 2, -0.25, 1236, 2, -0.25, 1237, 2, -0.25, 1234, 2, -0.25
*EQUATION
5
2193, 3, 1.0, 1233, 3, -0.25, 1236, 3, -0.25, 1237, 3, -0.25, 1234, 3, -0.25
*EQUATION
3
2194, 1, 1.0, 1234, 1, -0.5, 1237, 1, -0.5
*EQUATION
3
2194, 2, 1.0, 1234, 2, -0.5, 1237, 2, -0.5
*EQUATION
3
2194, 3, 1.0, 1234, 3, -0.5, 1237, 3, -0.5
*EQUATION
3
2195, 1, 1.0, 1236, 1, -0.5, 1237, 1, -0.5
*EQUATION
3
2195, 2, 1.0, 1236, 2, -0.5, 1237, 2, -0.5
*EQUATION
3
2195, 3, 1.0, 1236, 3, -0.5, 1237, 3, -0.5
*EQUATION
3
2196, 1, 1.0, 1233, 1, -0.5, 1240, 1, -0.5
*EQUATION
3
2196, 2, 1.0, 1233, 2, -0.5, 1240, 2, -0.5
*EQUATION
3
2196, 3, 1.0, 1233, 3, -0.5, 1240, 3, -0.5
*EQUATION
5
2197, 1, 1.0, 1233, 1, -0.25, 1240, 1, -0.25, 1241, 1, -0.25, 1234, 1, -0.25
*EQUATION
5
2197, 2, 1.0, 1233, 2, -0.25, 1240, 2, -0.25, 1241, 2, -0.25, 1234, 2, -0.25
*EQUATION
5
2197, 3, 1.0, 1233, 3, -0.25, 1240, 3, -0.25, 1241, 3, -0.25, 1234, 3, -0.25
*EQUATION
3
2198, 1, 1.0, 1234, 1, -0.5, 1241, 1, -0.5
*EQUATION
3
2198, 2, 1.0, 1234, 2, -0.5, 1241, 2, -0.5
*EQUATION
3
2198, 3, 1.0, 1234, 3, -0.5, 1241, 3, -0.5
*EQUATION
5
2201, 1, 1.0, 1234, 1, -0.25, 1241, 1, -0.25, 1243, 1, -0.25, 1237, 1, -0.25
*EQUATION
5
2201, 2, 1.0, 1234, 2, -0.25, 1241, 2, -0.25, 1243, 2, -0.25, 1237, 2, -0.25
*EQUATION
5
2201, 3, 1.0, 1234, 3, -0.25, 1241, 3, -0.25, 1243, 3, -0.25, 1237, 3, -0.25
*EQUATION
3
2204, 1, 1.0, 1237, 1, -0.5, 1243, 1, -0.5
*EQUATION
3
2204, 2, 1.0, 1237, 2, -0.5, 1243, 2, -0.5
*EQUATION
3
2204, 3, 1.0, 1237, 3, -0.5, 1243, 3, -0.5
*EQUATION
3
2205, 1, 1.0, 1240, 1, -0.5, 1241, 1, -0.5
*EQUATION
3
2205, 2, 1.0, 1240, 2, -0.5, 1241, 2, -0.5
*EQUATION
3
2205, 3, 1.0, 1240, 3, -0.5, 1241, 3, -0.5
*EQUATION
3
2208, 1, 1.0, 1241, 1, -0.5, 1243, 1, -0.5
*EQUATION
3
2208, 2, 1.0, 1241, 2, -0.5, 1243, 2, -0.5
*EQUATION
3
2208, 3, 1.0, 1241, 3, -0.5, 1243, 3, -0.5
*EQUATION
3
2215, 1, 1.0, 88, 1, -0.5, 1219, 1, -0.5
*EQUATION
3
2215, 2, 1.0, 88, 2, -0.5, 1219, 2, -0.5
*EQUATION
3
2215, 3, 1.0, 88, 3, -0.5, 1219, 3, -0.5
*EQUATION
5
2216, 1, 1.0, 88, 1, -0.25, 1219, 1, -0.25, 1220, 1, -0.25, 1215, 1, -0.25
*EQUATION
5
2216, 2, 1.0, 88, 2, -0.25, 1219, 2, -0.25, 1220, 2, -0.25, 1215, 2, -0.25
*EQUATION
5
2216, 3, 1.0, 88, 3, -0.25, 1219, 3, -0.25, 1220, 3, -0.25, 1215, 3, -0.25
*EQUATION
5
2217, 1, 1.0, 88, 1, -0.25, 1219, 1, -0.25, 1235, 1, -0.25, 1229, 1, -0.25
*EQUATION
5
2217, 2, 1.0, 88, 2, -0.25, 1219, 2, -0.25, 1235, 2, -0.25, 1229, 2, -0.25
*EQUATION
5
2217, 3, 1.0, 88, 3, -0.25, 1219, 3, -0.25, 1235, 3, -0.25, 1229, 3, -0.25
*EQUATION
3
2220, 1, 1.0, 1229, 1, -0.5, 1235, 1, -0.5
*EQUATION
3
2220, 2, 1.0, 1229, 2, -0.5, 1235, 2, -0.5
*EQUATION
3
2220, 3, 1.0, 1229, 3, -0.5, 1235, 3, -0.5
*EQUATION
5
2221, 1, 1.0, 1229, 1, -0.25, 1235, 1, -0.25, 1247, 1, -0.25, 1244, 1, -0.25
*EQUATION
5
2221, 2, 1.0, 1229, 2, -0.25, 1235, 2, -0.25, 1247, 2, -0.25, 1244, 2, -0.25
*EQUATION
5
2221, 3, 1.0, 1229, 3, -0.25, 1235, 3, -0.25, 1247, 3, -0.25, 1244, 3, -0.25
*EQUATION
3
2222, 1, 1.0, 1244, 1, -0.5, 1247, 1, -0.5
*EQUATION
3
2222, 2, 1.0, 1244, 2, -0.5, 1247, 2, -0.5
*EQUATION
3
2222, 3, 1.0, 1244, 3, -0.5, 1247, 3, -0.5
*EQUATION
3
2223, 1, 1.0, 1219, 1, -0.5, 1220, 1, -0.5
*EQUATION
3
2223, 2, 1.0, 1219, 2, -0.5, 1220, 2, -0.5
*EQUATION
3
2223, 3, 1.0, 1219, 3, -0.5, 1220, 3, -0.5
*EQUATION
3
2224, 1, 1.0, 1219, 1, -0.5, 1235, 1, -0.5
*EQUATION
3
2224, 2, 1.0, 1219, 2, -0.5, 1235, 2, -0.5
*EQUATION
3
2224, 3, 1.0, 1219, 3, -0.5, 1235, 3, -0.5
*EQUATION
3
2227, 1, 1.0, 1235, 1, -0.5, 1247, 1, -0.5
*EQUATION
3
2227, 2, 1.0, 1235, 2, -0.5, 1247, 2, -0.5
*EQUATION
3
2227, 3, 1.0, 1235, 3, -0.5, 1247, 3, -0.5
*EQUATION
5
2233, 1, 1.0, 1244, 1, -0.25, 1247, 1, -0.25, 1248, 1, -0.25, 1245, 1, -0.25
*EQUATION
5
2233, 2, 1.0, 1244, 2, -0.25, 1247, 2, -0.25, 1248, 2, -0.25, 1245, 2, -0.25
*EQUATION
5
2233, 3, 1.0, 1244, 3, -0.25, 1247, 3, -0.25, 1248, 3, -0.25, 1245, 3, -0.25
*EQUATION
3
2234, 1, 1.0, 1245, 1, -0.5, 1248, 1, -0.5
*EQUATION
3
2234, 2, 1.0, 1245, 2, -0.5, 1248, 2, -0.5
*EQUATION
3
2234, 3, 1.0, 1245, 3, -0.5, 1248, 3, -0.5
*EQUATION
3
2237, 1, 1.0, 1247, 1, -0.5, 1248, 1, -0.5
*EQUATION
3
2237, 2, 1.0, 1247, 2, -0.5, 1248, 2, -0.5
*EQUATION
3
2237, 3, 1.0, 1247, 3, -0.5, 1248, 3, -0.5
*EQUATION
3
2238, 1, 1.0, 87, 1, -0.5, 1219, 1, -0.5
*EQUATION
3
2238, 2, 1.0, 87, 2, -0.5, 1219, 2, -0.5
*EQUATION
3
2238, 3, 1.0, 87, 3, -0.5, 1219, 3, -0.5
*EQUATION
5
2239, 1, 1.0, 1219, 1, -0.25, 87, 1, -0.25, 1225, 1, -0.25, 1220, 1, -0.25
*EQUATION
5
2239, 2, 1.0, 1219, 2, -0.25, 87, 2, -0.25, 1225, 2, -0.25, 1220, 2, -0.25
*EQUATION
5
2239, 3, 1.0, 1219, 3, -0.25, 87, 3, -0.25, 1225, 3, -0.25, 1220, 3, -0.25
*EQUATION
5
2240, 1, 1.0, 1219, 1, -0.25, 87, 1, -0.25, 1242, 1, -0.25, 1235, 1, -0.25
*EQUATION
5
2240, 2, 1.0, 1219, 2, -0.25, 87, 2, -0.25, 1242, 2, -0.25, 1235, 2, -0.25
*EQUATION
5
2240, 3, 1.0, 1219, 3, -0.25, 87, 3, -0.25, 1242, 3, -0.25, 1235, 3, -0.25
*EQUATION
3
2243, 1, 1.0, 1235, 1, -0.5, 1242, 1, -0.5
*EQUATION
3
2243, 2, 1.0, 1235, 2, -0.5, 1242, 2, -0.5
*EQUATION
3
2243, 3, 1.0, 1235, 3, -0.5, 1242, 3, -0.5
*EQUATION
5
2244, 1, 1.0, 1235, 1, -0.25, 1242, 1, -0.25, 1251, 1, -0.25, 1247, 1, -0.25
*EQUATION
5
2244, 2, 1.0, 1235, 2, -0.25, 1242, 2, -0.25, 1251, 2, -0.25, 1247, 2, -0.25
*EQUATION
5
2244, 3, 1.0, 1235, 3, -0.25, 1242, 3, -0.25, 1251, 3, -0.25, 1247, 3, -0.25
*EQUATION
3
2245, 1, 1.0, 1247, 1, -0.5, 1251, 1, -0.5
*EQUATION
3
2245, 2, 1.0, 1247, 2, -0.5, 1251, 2, -0.5
*EQUATION
3
2245, 3, 1.0, 1247, 3, -0.5, 1251, 3, -0.5
*EQUATION
3
2246, 1, 1.0, 87, 1, -0.5, 1225, 1, -0.5
*EQUATION
3
2246, 2, 1.0, 87, 2, -0.5, 1225, 2, -0.5
*EQUATION
3
2246, 3, 1.0, 87, 3, -0.5, 1225, 3, -0.5
*EQUATION
3
2247, 1, 1.0, 87, 1, -0.5, 1242, 1, -0.5
*EQUATION
3
2247, 2, 1.0, 87, 2, -0.5, 1242, 2, -0.5
*EQUATION
3
2247, 3, 1.0, 87, 3, -0.5, 1242, 3, -0.5
*EQUATION
3
2250, 1, 1.0, 1242, 1, -0.5, 1251, 1, -0.5
*EQUATION
3
2250, 2, 1.0, 1242, 2, -0.5, 1251, 2, -0.5
*EQUATION
3
2250, 3, 1.0, 1242, 3, -0.5, 1251, 3, -0.5
*EQUATION
5
2253, 1, 1.0, 1247, 1, -0.25, 1251, 1, -0.25, 1252, 1, -0.25, 1248, 1, -0.25
*EQUATION
5
2253, 2, 1.0, 1247, 2, -0.25, 1251, 2, -0.25, 1252, 2, -0.25, 1248, 2, -0.25
*EQUATION
5
2253, 3, 1.0, 1247, 3, -0.25, 1251, 3, -0.25, 1252, 3, -0.25, 1248, 3, -0.25
*EQUATION
3
2254, 1, 1.0, 1248, 1, -0.5, 1252, 1, -0.5
*EQUATION
3
2254, 2, 1.0, 1248, 2, -0.5, 1252, 2, -0.5
*EQUATION
3
2254, 3, 1.0, 1248, 3, -0.5, 1252, 3, -0.5
*EQUATION
3
2257, 1, 1.0, 1251, 1, -0.5, 1252, 1, -0.5
*EQUATION
3
2257, 2, 1.0, 1251, 2, -0.5, 1252, 2, -0.5
*EQUATION
3
2257, 3, 1.0, 1251, 3, -0.5, 1252, 3, -0.5
*EQUATION
3
2258, 1, 1.0, 18, 1, -0.5, 105, 1, -0.5
*EQUATION
3
2258, 2, 1.0, 18, 2, -0.5, 105, 2, -0.5
*EQUATION
3
2258, 3, 1.0, 18, 3, -0.5, 105, 3, -0.5
*EQUATION
5
2261, 1, 1.0, 18, 1, -0.25, 105, 1, -0.25, 106, 1, -0.25, 19, 1, -0.25
*EQUATION
5
2261, 2, 1.0, 18, 2, -0.25, 105, 2, -0.25, 106, 2, -0.25, 19, 2, -0.25
*EQUATION
5
2261, 3, 1.0, 18, 3, -0.25, 105, 3, -0.25, 106, 3, -0.25, 19, 3, -0.25
*EQUATION
3
2264, 1, 1.0, 19, 1, -0.5, 106, 1, -0.5
*EQUATION
3
2264, 2, 1.0, 19, 2, -0.5, 106, 2, -0.5
*EQUATION
3
2264, 3, 1.0, 19, 3, -0.5, 106, 3, -0.5
*EQUATION
3
2267, 1, 1.0, 105, 1, -0.5, 107, 1, -0.5
*EQUATION
3
2267, 2, 1.0, 105, 2, -0.5, 107, 2, -0.5
*EQUATION
3
2267, 3, 1.0, 105, 3, -0.5, 107, 3, -0.5
*EQUATION
3
2268, 1, 1.0, 105, 1, -0.5, 106, 1, -0.5
*EQUATION
3
2268, 2, 1.0, 105, 2, -0.5, 106, 2, -0.5
*EQUATION
3
2268, 3, 1.0, 105, 3, -0.5, 106, 3, -0.5
*EQUATION
5
2269, 1, 1.0, 105, 1, -0.25, 106, 1, -0.25, 108, 1, -0.25, 107, 1, -0.25
*EQUATION
5
2269, 2, 1.0, 105, 2, -0.25, 106, 2, -0.25, 108, 2, -0.25, 107, 2, -0.25
*EQUATION
5
2269, 3, 1.0, 105, 3, -0.25, 106, 3, -0.25, 108, 3, -0.25, 107, 3, -0.25
*EQUATION
3
2270, 1, 1.0, 107, 1, -0.5, 108, 1, -0.5
*EQUATION
3
2270, 2, 1.0, 107, 2, -0.5, 108, 2, -0.5
*EQUATION
3
2270, 3, 1.0, 107, 3, -0.5, 108, 3, -0.5
*EQUATION
3
2271, 1, 1.0, 106, 1, -0.5, 108, 1, -0.5
*EQUATION
3
2271, 2, 1.0, 106, 2, -0.5, 108, 2, -0.5
*EQUATION
3
2271, 3, 1.0, 106, 3, -0.5, 108, 3, -0.5
*EQUATION
5
2272, 1, 1.0, 19, 1, -0.25, 106, 1, -0.25, 113, 1, -0.25, 33, 1, -0.25
*EQUATION
5
2272, 2, 1.0, 19, 2, -0.25, 106, 2, -0.25, 113, 2, -0.25, 33, 2, -0.25
*EQUATION
5
2272, 3, 1.0, 19, 3, -0.25, 106, 3, -0.25, 113, 3, -0.25, 33, 3, -0.25
*EQUATION
3
2275, 1, 1.0, 33, 1, -0.5, 113, 1, -0.5
*EQUATION
3
2275, 2, 1.0, 33, 2, -0.5, 113, 2, -0.5
*EQUATION
3
2275, 3, 1.0, 33, 3, -0.5, 113, 3, -0.5
*EQUATION
3
2278, 1, 1.0, 106, 1, -0.5, 113, 1, -0.5
*EQUATION
3
2278, 2, 1.0, 106, 2, -0.5, 113, 2, -0.5
*EQUATION
3
2278, 3, 1.0, 106, 3, -0.5, 113, 3, -0.5
*EQUATION
5
2279, 1, 1.0, 106, 1, -0.25, 113, 1, -0.25, 114, 1, -0.25, 108, 1, -0.25
*EQUATION
5
2279, 2, 1.0, 106, 2, -0.25, 113, 2, -0.25, 114, 2, -0.25, 108, 2, -0.25
*EQUATION
5
2279, 3, 1.0, 106, 3, -0.25, 113, 3, -0.25, 114, 3, -0.25, 108, 3, -0.25
*EQUATION
3
2280, 1, 1.0, 108, 1, -0.5, 114, 1, -0.5
*EQUATION
3
2280, 2, 1.0, 108, 2, -0.5, 114, 2, -0.5
*EQUATION
3
2280, 3, 1.0, 108, 3, -0.5, 114, 3, -0.5
*EQUATION
3
2281, 1, 1.0, 113, 1, -0.5, 114, 1, -0.5
*EQUATION
3
2281, 2, 1.0, 113, 2, -0.5, 114, 2, -0.5
*EQUATION
3
2281, 3, 1.0, 113, 3, -0.5, 114, 3, -0.5
*EQUATION
3
2282, 1, 1.0, 55, 1, -0.5, 124, 1, -0.5
*EQUATION
3
2282, 2, 1.0, 55, 2, -0.5, 124, 2, -0.5
*EQUATION
3
2282, 3, 1.0, 55, 3, -0.5, 124, 3, -0.5
*EQUATION
5
2283, 1, 1.0, 55, 1, -0.25, 124, 1, -0.25, 125, 1, -0.25, 57, 1, -0.25
*EQUATION
5
2283, 2, 1.0, 55, 2, -0.25, 124, 2, -0.25, 125, 2, -0.25, 57, 2, -0.25
*EQUATION
5
2283, 3, 1.0, 55, 3, -0.25, 124, 3, -0.25, 125, 3, -0.25, 57, 3, -0.25
*EQUATION
3
2284, 1, 1.0, 57, 1, -0.5, 125, 1, -0.5
*EQUATION
3
2284, 2, 1.0, 57, 2, -0.5, 125, 2, -0.5
*EQUATION
3
2284, 3, 1.0, 57, 3, -0.5, 125, 3, -0.5
*EQUATION
3
2290, 1, 1.0, 124, 1, -0.5, 125, 1, -0.5
*EQUATION
3
2290, 2, 1.0, 124, 2, -0.5, 125, 2, -0.5
*EQUATION
3
2290, 3, 1.0, 124, 3, -0.5, 125, 3, -0.5
*EQUATION
3
2291, 1, 1.0, 107, 1, -0.5, 124, 1, -0.5
*EQUATION
3
2291, 2, 1.0, 107, 2, -0.5, 124, 2, -0.5
*EQUATION
3
2291, 3, 1.0, 107, 3, -0.5, 124, 3, -0.5
*EQUATION
5
2292, 1, 1.0, 124, 1, -0.25, 107, 1, -0.25, 127, 1, -0.25, 125, 1, -0.25
*EQUATION
5
2292, 2, 1.0, 124, 2, -0.25, 107, 2, -0.25, 127, 2, -0.25, 125, 2, -0.25
*EQUATION
5
2292, 3, 1.0, 124, 3, -0.25, 107, 3, -0.25, 127, 3, -0.25, 125, 3, -0.25
*EQUATION
3
2293, 1, 1.0, 125, 1, -0.5, 127, 1, -0.5
*EQUATION
3
2293, 2, 1.0, 125, 2, -0.5, 127, 2, -0.5
*EQUATION
3
2293, 3, 1.0, 125, 3, -0.5, 127, 3, -0.5
*EQUATION
3
2294, 1, 1.0, 107, 1, -0.5, 127, 1, -0.5
*EQUATION
3
2294, 2, 1.0, 107, 2, -0.5, 127, 2, -0.5
*EQUATION
3
2294, 3, 1.0, 107, 3, -0.5, 127, 3, -0.5
*EQUATION
5
2295, 1, 1.0, 57, 1, -0.25, 125, 1, -0.25, 126, 1, -0.25, 59, 1, -0.25
*EQUATION
5
2295, 2, 1.0, 57, 2, -0.25, 125, 2, -0.25, 126, 2, -0.25, 59, 2, -0.25
*EQUATION
5
2295, 3, 1.0, 57, 3, -0.25, 125, 3, -0.25, 126, 3, -0.25, 59, 3, -0.25
*EQUATION
3
2296, 1, 1.0, 59, 1, -0.5, 126, 1, -0.5
*EQUATION
3
2296, 2, 1.0, 59, 2, -0.5, 126, 2, -0.5
*EQUATION
3
2296, 3, 1.0, 59, 3, -0.5, 126, 3, -0.5
*EQUATION
3
2301, 1, 1.0, 125, 1, -0.5, 126, 1, -0.5
*EQUATION
3
2301, 2, 1.0, 125, 2, -0.5, 126, 2, -0.5
*EQUATION
3
2301, 3, 1.0, 125, 3, -0.5, 126, 3, -0.5
*EQUATION
5
2302, 1, 1.0, 125, 1, -0.25, 127, 1, -0.25, 128, 1, -0.25, 126, 1, -0.25
*EQUATION
5
2302, 2, 1.0, 125, 2, -0.25, 127, 2, -0.25, 128, 2, -0.25, 126, 2, -0.25
*EQUATION
5
2302, 3, 1.0, 125, 3, -0.25, 127, 3, -0.25, 128, 3, -0.25, 126, 3, -0.25
*EQUATION
3
2303, 1, 1.0, 126, 1, -0.5, 128, 1, -0.5
*EQUATION
3
2303, 2, 1.0, 126, 2, -0.5, 128, 2, -0.5
*EQUATION
3
2303, 3, 1.0, 126, 3, -0.5, 128, 3, -0.5
*EQUATION
3
2304, 1, 1.0, 127, 1, -0.5, 128, 1, -0.5
*EQUATION
3
2304, 2, 1.0, 127, 2, -0.5, 128, 2, -0.5
*EQUATION
3
2304, 3, 1.0, 127, 3, -0.5, 128, 3, -0.5
*EQUATION
5
2309, 1, 1.0, 107, 1, -0.25, 108, 1, -0.25, 129, 1, -0.25, 127, 1, -0.25
*EQUATION
5
2309, 2, 1.0, 107, 2, -0.25, 108, 2, -0.25, 129, 2, -0.25, 127, 2, -0.25
*EQUATION
5
2309, 3, 1.0, 107, 3, -0.25, 108, 3, -0.25, 129, 3, -0.25, 127, 3, -0.25
*EQUATION
3
2310, 1, 1.0, 127, 1, -0.5, 129, 1, -0.5
*EQUATION
3
2310, 2, 1.0, 127, 2, -0.5, 129, 2, -0.5
*EQUATION
3
2310, 3, 1.0, 127, 3, -0.5, 129, 3, -0.5
*EQUATION
3
2311, 1, 1.0, 108, 1, -0.5, 129, 1, -0.5
*EQUATION
3
2311, 2, 1.0, 108, 2, -0.5, 129, 2, -0.5
*EQUATION
3
2311, 3, 1.0, 108, 3, -0.5, 129, 3, -0.5
*EQUATION
5
2316, 1, 1.0, 127, 1, -0.25, 129, 1, -0.25, 130, 1, -0.25, 128, 1, -0.25
*EQUATION
5
2316, 2, 1.0, 127, 2, -0.25, 129, 2, -0.25, 130, 2, -0.25, 128, 2, -0.25
*EQUATION
5
2316, 3, 1.0, 127, 3, -0.25, 129, 3, -0.25, 130, 3, -0.25, 128, 3, -0.25
*EQUATION
3
2317, 1, 1.0, 128, 1, -0.5, 130, 1, -0.5
*EQUATION
3
2317, 2, 1.0, 128, 2, -0.5, 130, 2, -0.5
*EQUATION
3
2317, 3, 1.0, 128, 3, -0.5, 130, 3, -0.5
*EQUATION
3
2318, 1, 1.0, 129, 1, -0.5, 130, 1, -0.5
*EQUATION
3
2318, 2, 1.0, 129, 2, -0.5, 130, 2, -0.5
*EQUATION
3
2318, 3, 1.0, 129, 3, -0.5, 130, 3, -0.5
*EQUATION
5
2323, 1, 1.0, 108, 1, -0.25, 114, 1, -0.25, 131, 1, -0.25, 129, 1, -0.25
*EQUATION
5
2323, 2, 1.0, 108, 2, -0.25, 114, 2, -0.25, 131, 2, -0.25, 129, 2, -0.25
*EQUATION
5
2323, 3, 1.0, 108, 3, -0.25, 114, 3, -0.25, 131, 3, -0.25, 129, 3, -0.25
*EQUATION
3
2324, 1, 1.0, 129, 1, -0.5, 131, 1, -0.5
*EQUATION
3
2324, 2, 1.0, 129, 2, -0.5, 131, 2, -0.5
*EQUATION
3
2324, 3, 1.0, 129, 3, -0.5, 131, 3, -0.5
*EQUATION
3
2325, 1, 1.0, 114, 1, -0.5, 131, 1, -0.5
*EQUATION
3
2325, 2, 1.0, 114, 2, -0.5, 131, 2, -0.5
*EQUATION
3
2325, 3, 1.0, 114, 3, -0.5, 131, 3, -0.5
*EQUATION
5
2330, 1, 1.0, 129, 1, -0.25, 131, 1, -0.25, 132, 1, -0.25, 130, 1, -0.25
*EQUATION
5
2330, 2, 1.0, 129, 2, -0.25, 131, 2, -0.25, 132, 2, -0.25, 130, 2, -0.25
*EQUATION
5
2330, 3, 1.0, 129, 3, -0.25, 131, 3, -0.25, 132, 3, -0.25, 130, 3, -0.25
*EQUATION
3
2331, 1, 1.0, 130, 1, -0.5, 132, 1, -0.5
*EQUATION
3
2331, 2, 1.0, 130, 2, -0.5, 132, 2, -0.5
*EQUATION
3
2331, 3, 1.0, 130, 3, -0.5, 132, 3, -0.5
*EQUATION
3
2332, 1, 1.0, 131, 1, -0.5, 132, 1, -0.5
*EQUATION
3
2332, 2, 1.0, 131, 2, -0.5, 132, 2, -0.5
*EQUATION
3
2332, 3, 1.0, 131, 3, -0.5, 132, 3, -0.5
*EQUATION
3
2336, 1, 1.0, 73, 1, -0.5, 133, 1, -0.5
*EQUATION
3
2336, 2, 1.0, 73, 2, -0.5, 133, 2, -0.5
*EQUATION
3
2336, 3, 1.0, 73, 3, -0.5, 133, 3, -0.5
*EQUATION
5
2337, 1, 1.0, 73, 1, -0.25, 133, 1, -0.25, 134, 1, -0.25, 75, 1, -0.25
*EQUATION
5
2337, 2, 1.0, 73, 2, -0.25, 133, 2, -0.25, 134, 2, -0.25, 75, 2, -0.25
*EQUATION
5
2337, 3, 1.0, 73, 3, -0.25, 133, 3, -0.25, 134, 3, -0.25, 75, 3, -0.25
*EQUATION
3
2338, 1, 1.0, 75, 1, -0.5, 134, 1, -0.5
*EQUATION
3
2338, 2, 1.0, 75, 2, -0.5, 134, 2, -0.5
*EQUATION
3
2338, 3, 1.0, 75, 3, -0.5, 134, 3, -0.5
*EQUATION
3
2339, 1, 1.0, 114, 1, -0.5, 133, 1, -0.5
*EQUATION
3
2339, 2, 1.0, 114, 2, -0.5, 133, 2, -0.5
*EQUATION
3
2339, 3, 1.0, 114, 3, -0.5, 133, 3, -0.5
*EQUATION
5
2340, 1, 1.0, 114, 1, -0.25, 133, 1, -0.25, 134, 1, -0.25, 131, 1, -0.25
*EQUATION
5
2340, 2, 1.0, 114, 2, -0.25, 133, 2, -0.25, 134, 2, -0.25, 131, 2, -0.25
*EQUATION
5
2340, 3, 1.0, 114, 3, -0.25, 133, 3, -0.25, 134, 3, -0.25, 131, 3, -0.25
*EQUATION
3
2341, 1, 1.0, 131, 1, -0.5, 134, 1, -0.5
*EQUATION
3
2341, 2, 1.0, 131, 2, -0.5, 134, 2, -0.5
*EQUATION
3
2341, 3, 1.0, 131, 3, -0.5, 134, 3, -0.5
*EQUATION
3
2342, 1, 1.0, 133, 1, -0.5, 134, 1, -0.5
*EQUATION
3
2342, 2, 1.0, 133, 2, -0.5, 134, 2, -0.5
*EQUATION
3
2342, 3, 1.0, 133, 3, -0.5, 134, 3, -0.5
*EQUATION
5
2345, 1, 1.0, 75, 1, -0.25, 134, 1, -0.25, 135, 1, -0.25, 77, 1, -0.25
*EQUATION
5
2345, 2, 1.0, 75, 2, -0.25, 134, 2, -0.25, 135, 2, -0.25, 77, 2, -0.25
*EQUATION
5
2345, 3, 1.0, 75, 3, -0.25, 134, 3, -0.25, 135, 3, -0.25, 77, 3, -0.25
*EQUATION
3
2346, 1, 1.0, 77, 1, -0.5, 135, 1, -0.5
*EQUATION
3
2346, 2, 1.0, 77, 2, -0.5, 135, 2, -0.5
*EQUATION
3
2346, 3, 1.0, 77, 3, -0.5, 135, 3, -0.5
*EQUATION
5
2347, 1, 1.0, 131, 1, -0.25, 134, 1, -0.25, 135, 1, -0.25, 132, 1, -0.25
*EQUATION
5
2347, 2, 1.0, 131, 2, -0.25, 134, 2, -0.25, 135, 2, -0.25, 132, 2, -0.25
*EQUATION
5
2347, 3, 1.0, 131, 3, -0.25, 134, 3, -0.25, 135, 3, -0.25, 132, 3, -0.25
*EQUATION
3
2348, 1, 1.0, 132, 1, -0.5, 135, 1, -0.5
*EQUATION
3
2348, 2, 1.0, 132, 2, -0.5, 135, 2, -0.5
*EQUATION
3
2348, 3, 1.0, 132, 3, -0.5, 135, 3, -0.5
*EQUATION
3
2349, 1, 1.0, 134, 1, -0.5, 135, 1, -0.5
*EQUATION
3
2349, 2, 1.0, 134, 2, -0.5, 135, 2, -0.5
*EQUATION
3
2349, 3, 1.0, 134, 3, -0.5, 135, 3, -0.5
*EQUATION
3
2362, 1, 1.0, 147, 1, -0.5, 148, 1, -0.5
*EQUATION
3
2362, 2, 1.0, 147, 2, -0.5, 148, 2, -0.5
*EQUATION
3
2362, 3, 1.0, 147, 3, -0.5, 148, 3, -0.5
*EQUATION
3
2370, 1, 1.0, 147, 1, -0.5, 149, 1, -0.5
*EQUATION
3
2370, 2, 1.0, 147, 2, -0.5, 149, 2, -0.5
*EQUATION
3
2370, 3, 1.0, 147, 3, -0.5, 149, 3, -0.5
*EQUATION
5
2371, 1, 1.0, 147, 1, -0.25, 148, 1, -0.25, 150, 1, -0.25, 149, 1, -0.25
*EQUATION
5
2371, 2, 1.0, 147, 2, -0.25, 148, 2, -0.25, 150, 2, -0.25, 149, 2, -0.25
*EQUATION
5
2371, 3, 1.0, 147, 3, -0.25, 148, 3, -0.25, 150, 3, -0.25, 149, 3, -0.25
*EQUATION
3
2372, 1, 1.0, 149, 1, -0.5, 150, 1, -0.5
*EQUATION
3
2372, 2, 1.0, 149, 2, -0.5, 150, 2, -0.5
*EQUATION
3
2372, 3, 1.0, 149, 3, -0.5, 150, 3, -0.5
*EQUATION
3
2373, 1, 1.0, 148, 1, -0.5, 150, 1, -0.5
*EQUATION
3
2373, 2, 1.0, 148, 2, -0.5, 150, 2, -0.5
*EQUATION
3
2373, 3, 1.0, 148, 3, -0.5, 150, 3, -0.5
*EQUATION
3
2374, 1, 1.0, 101, 1, -0.5, 103, 1, -0.5
*EQUATION
3
2374, 2, 1.0, 101, 2, -0.5, 103, 2, -0.5
*EQUATION
3
2374, 3, 1.0, 101, 3, -0.5, 103, 3, -0.5
*EQUATION
5
2375, 1, 1.0, 101, 1, -0.25, 102, 1, -0.25, 104, 1, -0.25, 103, 1, -0.25
*EQUATION
5
2375, 2, 1.0, 101, 2, -0.25, 102, 2, -0.25, 104, 2, -0.25, 103, 2, -0.25
*EQUATION
5
2375, 3, 1.0, 101, 3, -0.25, 102, 3, -0.25, 104, 3, -0.25, 103, 3, -0.25
*EQUATION
3
2376, 1, 1.0, 103, 1, -0.5, 104, 1, -0.5
*EQUATION
3
2376, 2, 1.0, 103, 2, -0.5, 104, 2, -0.5
*EQUATION
3
2376, 3, 1.0, 103, 3, -0.5, 104, 3, -0.5
*EQUATION
3
2377, 1, 1.0, 102, 1, -0.5, 104, 1, -0.5
*EQUATION
3
2377, 2, 1.0, 102, 2, -0.5, 104, 2, -0.5
*EQUATION
3
2377, 3, 1.0, 102, 3, -0.5, 104, 3, -0.5
*EQUATION
3
2379, 1, 1.0, 103, 1, -0.5, 151, 1, -0.5
*EQUATION
3
2379, 2, 1.0, 103, 2, -0.5, 151, 2, -0.5
*EQUATION
3
2379, 3, 1.0, 103, 3, -0.5, 151, 3, -0.5
*EQUATION
5
2381, 1, 1.0, 103, 1, -0.25, 151, 1, -0.25, 152, 1, -0.25, 104, 1, -0.25
*EQUATION
5
2381, 2, 1.0, 103, 2, -0.25, 151, 2, -0.25, 152, 2, -0.25, 104, 2, -0.25
*EQUATION
5
2381, 3, 1.0, 103, 3, -0.25, 151, 3, -0.25, 152, 3, -0.25, 104, 3, -0.25
*EQUATION
3
2383, 1, 1.0, 104, 1, -0.5, 152, 1, -0.5
*EQUATION
3
2383, 2, 1.0, 104, 2, -0.5, 152, 2, -0.5
*EQUATION
3
2383, 3, 1.0, 104, 3, -0.5, 152, 3, -0.5
*EQUATION
3
2384, 1, 1.0, 149, 1, -0.5, 151, 1, -0.5
*EQUATION
3
2384, 2, 1.0, 149, 2, -0.5, 151, 2, -0.5
*EQUATION
3
2384, 3, 1.0, 149, 3, -0.5, 151, 3, -0.5
*EQUATION
5
2385, 1, 1.0, 149, 1, -0.25, 150, 1, -0.25, 152, 1, -0.25, 151, 1, -0.25
*EQUATION
5
2385, 2, 1.0, 149, 2, -0.25, 150, 2, -0.25, 152, 2, -0.25, 151, 2, -0.25
*EQUATION
5
2385, 3, 1.0, 149, 3, -0.25, 150, 3, -0.25, 152, 3, -0.25, 151, 3, -0.25
*EQUATION
3
2386, 1, 1.0, 151, 1, -0.5, 152, 1, -0.5
*EQUATION
3
2386, 2, 1.0, 151, 2, -0.5, 152, 2, -0.5
*EQUATION
3
2386, 3, 1.0, 151, 3, -0.5, 152, 3, -0.5
*EQUATION
3
2387, 1, 1.0, 150, 1, -0.5, 152, 1, -0.5
*EQUATION
3
2387, 2, 1.0, 150, 2, -0.5, 152, 2, -0.5
*EQUATION
3
2387, 3, 1.0, 150, 3, -0.5, 152, 3, -0.5
*EQUATION
3
2396, 1, 1.0, 148, 1, -0.5, 158, 1, -0.5
*EQUATION
3
2396, 2, 1.0, 148, 2, -0.5, 158, 2, -0.5
*EQUATION
3
2396, 3, 1.0, 148, 3, -0.5, 158, 3, -0.5
*EQUATION
5
2402, 1, 1.0, 148, 1, -0.25, 158, 1, -0.25, 159, 1, -0.25, 150, 1, -0.25
*EQUATION
5
2402, 2, 1.0, 148, 2, -0.25, 158, 2, -0.25, 159, 2, -0.25, 150, 2, -0.25
*EQUATION
5
2402, 3, 1.0, 148, 3, -0.25, 158, 3, -0.25, 159, 3, -0.25, 150, 3, -0.25
*EQUATION
3
2403, 1, 1.0, 150, 1, -0.5, 159, 1, -0.5
*EQUATION
3
2403, 2, 1.0, 150, 2, -0.5, 159, 2, -0.5
*EQUATION
3
2403, 3, 1.0, 150, 3, -0.5, 159, 3, -0.5
*EQUATION
3
2404, 1, 1.0, 158, 1, -0.5, 159, 1, -0.5
*EQUATION
3
2404, 2, 1.0, 158, 2, -0.5, 159, 2, -0.5
*EQUATION
3
2404, 3, 1.0, 158, 3, -0.5, 159, 3, -0.5
*EQUATION
5
2405, 1, 1.0, 102, 1, -0.25, 111, 1, -0.25, 112, 1, -0.25, 104, 1, -0.25
*EQUATION
5
2405, 2, 1.0, 102, 2, -0.25, 111, 2, -0.25, 112, 2, -0.25, 104, 2, -0.25
*EQUATION
5
2405, 3, 1.0, 102, 3, -0.25, 111, 3, -0.25, 112, 3, -0.25, 104, 3, -0.25
*EQUATION
3
2406, 1, 1.0, 104, 1, -0.5, 112, 1, -0.5
*EQUATION
3
2406, 2, 1.0, 104, 2, -0.5, 112, 2, -0.5
*EQUATION
3
2406, 3, 1.0, 104, 3, -0.5, 112, 3, -0.5
*EQUATION
3
2407, 1, 1.0, 111, 1, -0.5, 112, 1, -0.5
*EQUATION
3
2407, 2, 1.0, 111, 2, -0.5, 112, 2, -0.5
*EQUATION
3
2407, 3, 1.0, 111, 3, -0.5, 112, 3, -0.5
*EQUATION
5
2409, 1, 1.0, 104, 1, -0.25, 152, 1, -0.25, 160, 1, -0.25, 112, 1, -0.25
*EQUATION
5
2409, 2, 1.0, 104, 2, -0.25, 152, 2, -0.25, 160, 2, -0.25, 112, 2, -0.25
*EQUATION
5
2409, 3, 1.0, 104, 3, -0.25, 152, 3, -0.25, 160, 3, -0.25, 112, 3, -0.25
*EQUATION
3
2411, 1, 1.0, 112, 1, -0.5, 160, 1, -0.5
*EQUATION
3
2411, 2, 1.0, 112, 2, -0.5, 160, 2, -0.5
*EQUATION
3
2411, 3, 1.0, 112, 3, -0.5, 160, 3, -0.5
*EQUATION
5
2412, 1, 1.0, 150, 1, -0.25, 159, 1, -0.25, 160, 1, -0.25, 152, 1, -0.25
*EQUATION
5
2412, 2, 1.0, 150, 2, -0.25, 159, 2, -0.25, 160, 2, -0.25, 152, 2, -0.25
*EQUATION
5
2412, 3, 1.0, 150, 3, -0.25, 159, 3, -0.25, 160, 3, -0.25, 152, 3, -0.25
*EQUATION
3
2413, 1, 1.0, 152, 1, -0.5, 160, 1, -0.5
*EQUATION
3
2413, 2, 1.0, 152, 2, -0.5, 160, 2, -0.5
*EQUATION
3
2413, 3, 1.0, 152, 3, -0.5, 160, 3, -0.5
*EQUATION
3
2414, 1, 1.0, 159, 1, -0.5, 160, 1, -0.5
*EQUATION
3
2414, 2, 1.0, 159, 2, -0.5, 160, 2, -0.5
*EQUATION
3
2414, 3, 1.0, 159, 3, -0.5, 160, 3, -0.5
*EQUATION
3
2417, 1, 1.0, 147, 1, -0.5, 195, 1, -0.5
*EQUATION
3
2417, 2, 1.0, 147, 2, -0.5, 195, 2, -0.5
*EQUATION
3
2417, 3, 1.0, 147, 3, -0.5, 195, 3, -0.5
*EQUATION
5
2420, 1, 1.0, 147, 1, -0.25, 195, 1, -0.25, 196, 1, -0.25, 148, 1, -0.25
*EQUATION
5
2420, 2, 1.0, 147, 2, -0.25, 195, 2, -0.25, 196, 2, -0.25, 148, 2, -0.25
*EQUATION
5
2420, 3, 1.0, 147, 3, -0.25, 195, 3, -0.25, 196, 3, -0.25, 148, 3, -0.25
*EQUATION
3
2423, 1, 1.0, 148, 1, -0.5, 196, 1, -0.5
*EQUATION
3
2423, 2, 1.0, 148, 2, -0.5, 196, 2, -0.5
*EQUATION
3
2423, 3, 1.0, 148, 3, -0.5, 196, 3, -0.5
*EQUATION
3
2427, 1, 1.0, 195, 1, -0.5, 196, 1, -0.5
*EQUATION
3
2427, 2, 1.0, 195, 2, -0.5, 196, 2, -0.5
*EQUATION
3
2427, 3, 1.0, 195, 3, -0.5, 196, 3, -0.5
*EQUATION
5
2431, 1, 1.0, 148, 1, -0.25, 196, 1, -0.25, 206, 1, -0.25, 158, 1, -0.25
*EQUATION
5
2431, 2, 1.0, 148, 2, -0.25, 196, 2, -0.25, 206, 2, -0.25, 158, 2, -0.25
*EQUATION
5
2431, 3, 1.0, 148, 3, -0.25, 196, 3, -0.25, 206, 3, -0.25, 158, 3, -0.25
*EQUATION
3
2434, 1, 1.0, 158, 1, -0.5, 206, 1, -0.5
*EQUATION
3
2434, 2, 1.0, 158, 2, -0.5, 206, 2, -0.5
*EQUATION
3
2434, 3, 1.0, 158, 3, -0.5, 206, 3, -0.5
*EQUATION
3
2437, 1, 1.0, 196, 1, -0.5, 206, 1, -0.5
*EQUATION
3
2437, 2, 1.0, 196, 2, -0.5, 206, 2, -0.5
*EQUATION
3
2437, 3, 1.0, 196, 3, -0.5, 206, 3, -0.5
*EQUATION
3
2441, 1, 1.0, 195, 1, -0.5, 243, 1, -0.5
*EQUATION
3
2441, 2, 1.0, 195, 2, -0.5, 243, 2, -0.5
*EQUATION
3
2441, 3, 1.0, 195, 3, -0.5, 243, 3, -0.5
*EQUATION
5
2444, 1, 1.0, 195, 1, -0.25, 243, 1, -0.25, 244, 1, -0.25, 196, 1, -0.25
*EQUATION
5
2444, 2, 1.0, 195, 2, -0.25, 243, 2, -0.25, 244, 2, -0.25, 196, 2, -0.25
*EQUATION
5
2444, 3, 1.0, 195, 3, -0.25, 243, 3, -0.25, 244, 3, -0.25, 196, 3, -0.25
*EQUATION
3
2447, 1, 1.0, 196, 1, -0.5, 244, 1, -0.5
*EQUATION
3
2447, 2, 1.0, 196, 2, -0.5, 244, 2, -0.5
*EQUATION
3
2447, 3, 1.0, 196, 3, -0.5, 244, 3, -0.5
*EQUATION
3
2451, 1, 1.0, 243, 1, -0.5, 244, 1, -0.5
*EQUATION
3
2451, 2, 1.0, 243, 2, -0.5, 244, 2, -0.5
*EQUATION
3
2451, 3, 1.0, 243, 3, -0.5, 244, 3, -0.5
*EQUATION
5
2455, 1, 1.0, 196, 1, -0.25, 244, 1, -0.25, 254, 1, -0.25, 206, 1, -0.25
*EQUATION
5
2455, 2, 1.0, 196, 2, -0.25, 244, 2, -0.25, 254, 2, -0.25, 206, 2, -0.25
*EQUATION
5
2455, 3, 1.0, 196, 3, -0.25, 244, 3, -0.25, 254, 3, -0.25, 206, 3, -0.25
*EQUATION
3
2458, 1, 1.0, 206, 1, -0.5, 254, 1, -0.5
*EQUATION
3
2458, 2, 1.0, 206, 2, -0.5, 254, 2, -0.5
*EQUATION
3
2458, 3, 1.0, 206, 3, -0.5, 254, 3, -0.5
*EQUATION
3
2461, 1, 1.0, 244, 1, -0.5, 254, 1, -0.5
*EQUATION
3
2461, 2, 1.0, 244, 2, -0.5, 254, 2, -0.5
*EQUATION
3
2461, 3, 1.0, 244, 3, -0.5, 254, 3, -0.5
*EQUATION
3
2465, 1, 1.0, 243, 1, -0.5, 291, 1, -0.5
*EQUATION
3
2465, 2, 1.0, 243, 2, -0.5, 291, 2, -0.5
*EQUATION
3
2465, 3, 1.0, 243, 3, -0.5, 291, 3, -0.5
*EQUATION
5
2468, 1, 1.0, 243, 1, -0.25, 291, 1, -0.25, 292, 1, -0.25, 244, 1, -0.25
*EQUATION
5
2468, 2, 1.0, 243, 2, -0.25, 291, 2, -0.25, 292, 2, -0.25, 244, 2, -0.25
*EQUATION
5
2468, 3, 1.0, 243, 3, -0.25, 291, 3, -0.25, 292, 3, -0.25, 244, 3, -0.25
*EQUATION
3
2471, 1, 1.0, 244, 1, -0.5, 292, 1, -0.5
*EQUATION
3
2471, 2, 1.0, 244, 2, -0.5, 292, 2, -0.5
*EQUATION
3
2471, 3, 1.0, 244, 3, -0.5, 292, 3, -0.5
*EQUATION
3
2475, 1, 1.0, 291, 1, -0.5, 292, 1, -0.5
*EQUATION
3
2475, 2, 1.0, 291, 2, -0.5, 292, 2, -0.5
*EQUATION
3
2475, 3, 1.0, 291, 3, -0.5, 292, 3, -0.5
*EQUATION
5
2479, 1, 1.0, 244, 1, -0.25, 292, 1, -0.25, 302, 1, -0.25, 254, 1, -0.25
*EQUATION
5
2479, 2, 1.0, 244, 2, -0.25, 292, 2, -0.25, 302, 2, -0.25, 254, 2, -0.25
*EQUATION
5
2479, 3, 1.0, 244, 3, -0.25, 292, 3, -0.25, 302, 3, -0.25, 254, 3, -0.25
*EQUATION
3
2482, 1, 1.0, 254, 1, -0.5, 302, 1, -0.5
*EQUATION
3
2482, 2, 1.0, 254, 2, -0.5, 302, 2, -0.5
*EQUATION
3
2482, 3, 1.0, 254, 3, -0.5, 302, 3, -0.5
*EQUATION
3
2485, 1, 1.0, 292, 1, -0.5, 302, 1, -0.5
*EQUATION
3
2485, 2, 1.0, 292, 2, -0.5, 302, 2, -0.5
*EQUATION
3
2485, 3, 1.0, 292, 3, -0.5, 302, 3, -0.5
*EQUATION
3
2489, 1, 1.0, 291, 1, -0.5, 339, 1, -0.5
*EQUATION
3
2489, 2, 1.0, 291, 2, -0.5, 339, 2, -0.5
*EQUATION
3
2489, 3, 1.0, 291, 3, -0.5, 339, 3, -0.5
*EQUATION
5
2492, 1, 1.0, 291, 1, -0.25, 339, 1, -0.25, 340, 1, -0.25, 292, 1, -0.25
*EQUATION
5
2492, 2, 1.0, 291, 2, -0.25, 339, 2, -0.25, 340, 2, -0.25, 292, 2, -0.25
*EQUATION
5
2492, 3, 1.0, 291, 3, -0.25, 339, 3, -0.25, 340, 3, -0.25, 292, 3, -0.25
*EQUATION
3
2495, 1, 1.0, 292, 1, -0.5, 340, 1, -0.5
*EQUATION
3
2495, 2, 1.0, 292, 2, -0.5, 340, 2, -0.5
*EQUATION
3
2495, 3, 1.0, 292, 3, -0.5, 340, 3, -0.5
*EQUATION
3
2499, 1, 1.0, 339, 1, -0.5, 340, 1, -0.5
*EQUATION
3
2499, 2, 1.0, 339, 2, -0.5, 340, 2, -0.5
*EQUATION
3
2499, 3, 1.0, 339, 3, -0.5, 340, 3, -0.5
*EQUATION
5
2503, 1, 1.0, 292, 1, -0.25, 340, 1, -0.25, 350, 1, -0.25, 302, 1, -0.25
*EQUATION
5
2503, 2, 1.0, 292, 2, -0.25, 340, 2, -0.25, 350, 2, -0.25, 302, 2, -0.25
*EQUATION
5
2503, 3, 1.0, 292, 3, -0.25, 340, 3, -0.25, 350, 3, -0.25, 302, 3, -0.25
*EQUATION
3
2506, 1, 1.0, 302, 1, -0.5, 350, 1, -0.5
*EQUATION
3
2506, 2, 1.0, 302, 2, -0.5, 350, 2, -0.5
*EQUATION
3
2506, 3, 1.0, 302, 3, -0.5, 350, 3, -0.5
*EQUATION
3
2509, 1, 1.0, 340, 1, -0.5, 350, 1, -0.5
*EQUATION
3
2509, 2, 1.0, 340, 2, -0.5, 350, 2, -0.5
*EQUATION
3
2509, 3, 1.0, 340, 3, -0.5, 350, 3, -0.5
*EQUATION
3
2513, 1, 1.0, 339, 1, -0.5, 387, 1, -0.5
*EQUATION
3
2513, 2, 1.0, 339, 2, -0.5, 387, 2, -0.5
*EQUATION
3
2513, 3, 1.0, 339, 3, -0.5, 387, 3, -0.5
*EQUATION
5
2516, 1, 1.0, 339, 1, -0.25, 387, 1, -0.25, 388, 1, -0.25, 340, 1, -0.25
*EQUATION
5
2516, 2, 1.0, 339, 2, -0.25, 387, 2, -0.25, 388, 2, -0.25, 340, 2, -0.25
*EQUATION
5
2516, 3, 1.0, 339, 3, -0.25, 387, 3, -0.25, 388, 3, -0.25, 340, 3, -0.25
*EQUATION
3
2519, 1, 1.0, 340, 1, -0.5, 388, 1, -0.5
*EQUATION
3
2519, 2, 1.0, 340, 2, -0.5, 388, 2, -0.5
*EQUATION
3
2519, 3, 1.0, 340, 3, -0.5, 388, 3, -0.5
*EQUATION
3
2523, 1, 1.0, 387, 1, -0.5, 388, 1, -0.5
*EQUATION
3
2523, 2, 1.0, 387, 2, -0.5, 388, 2, -0.5
*EQUATION
3
2523, 3, 1.0, 387, 3, -0.5, 388, 3, -0.5
*EQUATION
5
2527, 1, 1.0, 340, 1, -0.25, 388, 1, -0.25, 398, 1, -0.25, 350, 1, -0.25
*EQUATION
5
2527, 2, 1.0, 340, 2, -0.25, 388, 2, -0.25, 398, 2, -0.25, 350, 2, -0.25
*EQUATION
5
2527, 3, 1.0, 340, 3, -0.25, 388, 3, -0.25, 398, 3, -0.25, 350, 3, -0.25
*EQUATION
3
2530, 1, 1.0, 350, 1, -0.5, 398, 1, -0.5
*EQUATION
3
2530, 2, 1.0, 350, 2, -0.5, 398, 2, -0.5
*EQUATION
3
2530, 3, 1.0, 350, 3, -0.5, 398, 3, -0.5
*EQUATION
3
2533, 1, 1.0, 388, 1, -0.5, 398, 1, -0.5
*EQUATION
3
2533, 2, 1.0, 388, 2, -0.5, 398, 2, -0.5
*EQUATION
3
2533, 3, 1.0, 388, 3, -0.5, 398, 3, -0.5
*EQUATION
3
2537, 1, 1.0, 387, 1, -0.5, 435, 1, -0.5
*EQUATION
3
2537, 2, 1.0, 387, 2, -0.5, 435, 2, -0.5
*EQUATION
3
2537, 3, 1.0, 387, 3, -0.5, 435, 3, -0.5
*EQUATION
5
2540, 1, 1.0, 387, 1, -0.25, 435, 1, -0.25, 436, 1, -0.25, 388, 1, -0.25
*EQUATION
5
2540, 2, 1.0, 387, 2, -0.25, 435, 2, -0.25, 436, 2, -0.25, 388, 2, -0.25
*EQUATION
5
2540, 3, 1.0, 387, 3, -0.25, 435, 3, -0.25, 436, 3, -0.25, 388, 3, -0.25
*EQUATION
3
2543, 1, 1.0, 388, 1, -0.5, 436, 1, -0.5
*EQUATION
3
2543, 2, 1.0, 388, 2, -0.5, 436, 2, -0.5
*EQUATION
3
2543, 3, 1.0, 388, 3, -0.5, 436, 3, -0.5
*EQUATION
3
2547, 1, 1.0, 435, 1, -0.5, 436, 1, -0.5
*EQUATION
3
2547, 2, 1.0, 435, 2, -0.5, 436, 2, -0.5
*EQUATION
3
2547, 3, 1.0, 435, 3, -0.5, 436, 3, -0.5
*EQUATION
5
2551, 1, 1.0, 388, 1, -0.25, 436, 1, -0.25, 446, 1, -0.25, 398, 1, -0.25
*EQUATION
5
2551, 2, 1.0, 388, 2, -0.25, 436, 2, -0.25, 446, 2, -0.25, 398, 2, -0.25
*EQUATION
5
2551, 3, 1.0, 388, 3, -0.25, 436, 3, -0.25, 446, 3, -0.25, 398, 3, -0.25
*EQUATION
3
2554, 1, 1.0, 398, 1, -0.5, 446, 1, -0.5
*EQUATION
3
2554, 2, 1.0, 398, 2, -0.5, 446, 2, -0.5
*EQUATION
3
2554, 3, 1.0, 398, 3, -0.5, 446, 3, -0.5
*EQUATION
3
2557, 1, 1.0, 436, 1, -0.5, 446, 1, -0.5
*EQUATION
3
2557, 2, 1.0, 436, 2, -0.5, 446, 2, -0.5
*EQUATION
3
2557, 3, 1.0, 436, 3, -0.5, 446, 3, -0.5
*EQUATION
3
2561, 1, 1.0, 435, 1, -0.5, 483, 1, -0.5
*EQUATION
3
2561, 2, 1.0, 435, 2, -0.5, 483, 2, -0.5
*EQUATION
3
2561, 3, 1.0, 435, 3, -0.5, 483, 3, -0.5
*EQUATION
5
2564, 1, 1.0, 435, 1, -0.25, 483, 1, -0.25, 484, 1, -0.25, 436, 1, -0.25
*EQUATION
5
2564, 2, 1.0, 435, 2, -0.25, 483, 2, -0.25, 484, 2, -0.25, 436, 2, -0.25
*EQUATION
5
2564, 3, 1.0, 435, 3, -0.25, 483, 3, -0.25, 484, 3, -0.25, 436, 3, -0.25
*EQUATION
3
2567, 1, 1.0, 436, 1, -0.5, 484, 1, -0.5
*EQUATION
3
2567, 2, 1.0, 436, 2, -0.5, 484, 2, -0.5
*EQUATION
3
2567, 3, 1.0, 436, 3, -0.5, 484, 3, -0.5
*EQUATION
3
2571, 1, 1.0, 483, 1, -0.5, 484, 1, -0.5
*EQUATION
3
2571, 2, 1.0, 483, 2, -0.5, 484, 2, -0.5
*EQUATION
3
2571, 3, 1.0, 483, 3, -0.5, 484, 3, -0.5
*EQUATION
5
2575, 1, 1.0, 436, 1, -0.25, 484, 1, -0.25, 494, 1, -0.25, 446, 1, -0.25
*EQUATION
5
2575, 2, 1.0, 436, 2, -0.25, 484, 2, -0.25, 494, 2, -0.25, 446, 2, -0.25
*EQUATION
5
2575, 3, 1.0, 436, 3, -0.25, 484, 3, -0.25, 494, 3, -0.25, 446, 3, -0.25
*EQUATION
3
2578, 1, 1.0, 446, 1, -0.5, 494, 1, -0.5
*EQUATION
3
2578, 2, 1.0, 446, 2, -0.5, 494, 2, -0.5
*EQUATION
3
2578, 3, 1.0, 446, 3, -0.5, 494, 3, -0.5
*EQUATION
3
2581, 1, 1.0, 484, 1, -0.5, 494, 1, -0.5
*EQUATION
3
2581, 2, 1.0, 484, 2, -0.5, 494, 2, -0.5
*EQUATION
3
2581, 3, 1.0, 484, 3, -0.5, 494, 3, -0.5
*EQUATION
3
2585, 1, 1.0, 483, 1, -0.5, 531, 1, -0.5
*EQUATION
3
2585, 2, 1.0, 483, 2, -0.5, 531, 2, -0.5
*EQUATION
3
2585, 3, 1.0, 483, 3, -0.5, 531, 3, -0.5
*EQUATION
5
2588, 1, 1.0, 483, 1, -0.25, 531, 1, -0.25, 532, 1, -0.25, 484, 1, -0.25
*EQUATION
5
2588, 2, 1.0, 483, 2, -0.25, 531, 2, -0.25, 532, 2, -0.25, 484, 2, -0.25
*EQUATION
5
2588, 3, 1.0, 483, 3, -0.25, 531, 3, -0.25, 532, 3, -0.25, 484, 3, -0.25
*EQUATION
3
2591, 1, 1.0, 484, 1, -0.5, 532, 1, -0.5
*EQUATION
3
2591, 2, 1.0, 484, 2, -0.5, 532, 2, -0.5
*EQUATION
3
2591, 3, 1.0, 484, 3, -0.5, 532, 3, -0.5
*EQUATION
3
2595, 1, 1.0, 531, 1, -0.5, 532, 1, -0.5
*EQUATION
3
2595, 2, 1.0, 531, 2, -0.5, 532, 2, -0.5
*EQUATION
3
2595, 3, 1.0, 531, 3, -0.5, 532, 3, -0.5
*EQUATION
5
2599, 1, 1.0, 484, 1, -0.25, 532, 1, -0.25, 542, 1, -0.25, 494, 1, -0.25
*EQUATION
5
2599, 2, 1.0, 484, 2, -0.25, 532, 2, -0.25, 542, 2, -0.25, 494, 2, -0.25
*EQUATION
5
2599, 3, 1.0, 484, 3, -0.25, 532, 3, -0.25, 542, 3, -0.25, 494, 3, -0.25
*EQUATION
3
2602, 1, 1.0, 494, 1, -0.5, 542, 1, -0.5
*EQUATION
3
2602, 2, 1.0, 494, 2, -0.5, 542, 2, -0.5
*EQUATION
3
2602, 3, 1.0, 494, 3, -0.5, 542, 3, -0.5
*EQUATION
3
2605, 1, 1.0, 532, 1, -0.5, 542, 1, -0.5
*EQUATION
3
2605, 2, 1.0, 532, 2, -0.5, 542, 2, -0.5
*EQUATION
3
2605, 3, 1.0, 532, 3, -0.5, 542, 3, -0.5
*EQUATION
3
2609, 1, 1.0, 531, 1, -0.5, 579, 1, -0.5
*EQUATION
3
2609, 2, 1.0, 531, 2, -0.5, 579, 2, -0.5
*EQUATION
3
2609, 3, 1.0, 531, 3, -0.5, 579, 3, -0.5
*EQUATION
5
2612, 1, 1.0, 531, 1, -0.25, 579, 1, -0.25, 580, 1, -0.25, 532, 1, -0.25
*EQUATION
5
2612, 2, 1.0, 531, 2, -0.25, 579, 2, -0.25, 580, 2, -0.25, 532, 2, -0.25
*EQUATION
5
2612, 3, 1.0, 531, 3, -0.25, 579, 3, -0.25, 580, 3, -0.25, 532, 3, -0.25
*EQUATION
3
2615, 1, 1.0, 532, 1, -0.5, 580, 1, -0.5
*EQUATION
3
2615, 2, 1.0, 532, 2, -0.5, 580, 2, -0.5
*EQUATION
3
2615, 3, 1.0, 532, 3, -0.5, 580, 3, -0.5
*EQUATION
3
2619, 1, 1.0, 579, 1, -0.5, 580, 1, -0.5
*EQUATION
3
2619, 2, 1.0, 579, 2, -0.5, 580, 2, -0.5
*EQUATION
3
2619, 3, 1.0, 579, 3, -0.5, 580, 3, -0.5
*EQUATION
5
2623, 1, 1.0, 532, 1, -0.25, 580, 1, -0.25, 590, 1, -0.25, 542, 1, -0.25
*EQUATION
5
2623, 2, 1.0, 532, 2, -0.25, 580, 2, -0.25, 590, 2, -0.25, 542, 2, -0.25
*EQUATION
5
2623, 3, 1.0, 532, 3, -0.25, 580, 3, -0.25, 590, 3, -0.25, 542, 3, -0.25
*EQUATION
3
2626, 1, 1.0, 542, 1, -0.5, 590, 1, -0.5
*EQUATION
3
2626, 2, 1.0, 542, 2, -0.5, 590, 2, -0.5
*EQUATION
3
2626, 3, 1.0, 542, 3, -0.5, 590, 3, -0.5
*EQUATION
3
2629, 1, 1.0, 580, 1, -0.5, 590, 1, -0.5
*EQUATION
3
2629, 2, 1.0, 580, 2, -0.5, 590, 2, -0.5
*EQUATION
3
2629, 3, 1.0, 580, 3, -0.5, 590, 3, -0.5
*EQUATION
3
2633, 1, 1.0, 579, 1, -0.5, 627, 1, -0.5
*EQUATION
3
2633, 2, 1.0, 579, 2, -0.5, 627, 2, -0.5
*EQUATION
3
2633, 3, 1.0, 579, 3, -0.5, 627, 3, -0.5
*EQUATION
5
2636, 1, 1.0, 579, 1, -0.25, 627, 1, -0.25, 628, 1, -0.25, 580, 1, -0.25
*EQUATION
5
2636, 2, 1.0, 579, 2, -0.25, 627, 2, -0.25, 628, 2, -0.25, 580, 2, -0.25
*EQUATION
5
2636, 3, 1.0, 579, 3, -0.25, 627, 3, -0.25, 628, 3, -0.25, 580, 3, -0.25
*EQUATION
3
2639, 1, 1.0, 580, 1, -0.5, 628, 1, -0.5
*EQUATION
3
2639, 2, 1.0, 580, 2, -0.5, 628, 2, -0.5
*EQUATION
3
2639, 3, 1.0, 580, 3, -0.5, 628, 3, -0.5
*EQUATION
3
2643, 1, 1.0, 627, 1, -0.5, 628, 1, -0.5
*EQUATION
3
2643, 2, 1.0, 627, 2, -0.5, 628, 2, -0.5
*EQUATION
3
2643, 3, 1.0, 627, 3, -0.5, 628, 3, -0.5
*EQUATION
5
2647, 1, 1.0, 580, 1, -0.25, 628, 1, -0.25, 638, 1, -0.25, 590, 1, -0.25
*EQUATION
5
2647, 2, 1.0, 580, 2, -0.25, 628, 2, -0.25, 638, 2, -0.25, 590, 2, -0.25
*EQUATION
5
2647, 3, 1.0, 580, 3, -0.25, 628, 3, -0.25, 638, 3, -0.25, 590, 3, -0.25
*EQUATION
3
2650, 1, 1.0, 590, 1, -0.5, 638, 1, -0.5
*EQUATION
3
2650, 2, 1.0, 590, 2, -0.5, 638, 2, -0.5
*EQUATION
3
2650, 3, 1.0, 590, 3, -0.5, 638, 3, -0.5
*EQUATION
3
2653, 1, 1.0, 628, 1, -0.5, 638, 1, -0.5
*EQUATION
3
2653, 2, 1.0, 628, 2, -0.5, 638, 2, -0.5
*EQUATION
3
2653, 3, 1.0, 628, 3, -0.5, 638, 3, -0.5
*EQUATION
3
2657, 1, 1.0, 627, 1, -0.5, 675, 1, -0.5
*EQUATION
3
2657, 2, 1.0, 627, 2, -0.5, 675, 2, -0.5
*EQUATION
3
2657, 3, 1.0, 627, 3, -0.5, 675, 3, -0.5
*EQUATION
5
2660, 1, 1.0, 627, 1, -0.25, 675, 1, -0.25, 676, 1, -0.25, 628, 1, -0.25
*EQUATION
5
2660, 2, 1.0, 627, 2, -0.25, 675, 2, -0.25, 676, 2, -0.25, 628, 2, -0.25
*EQUATION
5
2660, 3, 1.0, 627, 3, -0.25, 675, 3, -0.25, 676, 3, -0.25, 628, 3, -0.25
*EQUATION
3
2663, 1, 1.0, 628, 1, -0.5, 676, 1, -0.5
*EQUATION
3
2663, 2, 1.0, 628, 2, -0.5, 676, 2, -0.5
*EQUATION
3
2663, 3, 1.0, 628, 3, -0.5, 676, 3, -0.5
*EQUATION
3
2664, 1, 1.0, 673, 1, -0.5, 675, 1, -0.5
*EQUATION
3
2664, 2, 1.0, 673, 2, -0.5, 675, 2, -0.5
*EQUATION
3
2664, 3, 1.0, 673, 3, -0.5, 675, 3, -0.5
*EQUATION
3
2665, 1, 1.0, 673, 1, -0.5, 674, 1, -0.5
*EQUATION
3
2665, 2, 1.0, 673, 2, -0.5, 674, 2, -0.5
*EQUATION
3
2665, 3, 1.0, 673, 3, -0.5, 674, 3, -0.5
*EQUATION
5
2666, 1, 1.0, 673, 1, -0.25, 674, 1, -0.25, 676, 1, -0.25, 675, 1, -0.25
*EQUATION
5
2666, 2, 1.0, 673, 2, -0.25, 674, 2, -0.25, 676, 2, -0.25, 675, 2, -0.25
*EQUATION
5
2666, 3, 1.0, 673, 3, -0.25, 674, 3, -0.25, 676, 3, -0.25, 675, 3, -0.25
*EQUATION
3
2667, 1, 1.0, 675, 1, -0.5, 676, 1, -0.5
*EQUATION
3
2667, 2, 1.0, 675, 2, -0.5, 676, 2, -0.5
*EQUATION
3
2667, 3, 1.0, 675, 3, -0.5, 676, 3, -0.5
*EQUATION
3
2668, 1, 1.0, 674, 1, -0.5, 676, 1, -0.5
*EQUATION
3
2668, 2, 1.0, 674, 2, -0.5, 676, 2, -0.5
*EQUATION
3
2668, 3, 1.0, 674, 3, -0.5, 676, 3, -0.5
*EQUATION
5
2671, 1, 1.0, 628, 1, -0.25, 676, 1, -0.25, 686, 1, -0.25, 638, 1, -0.25
*EQUATION
5
2671, 2, 1.0, 628, 2, -0.25, 676, 2, -0.25, 686, 2, -0.25, 638, 2, -0.25
*EQUATION
5
2671, 3, 1.0, 628, 3, -0.25, 676, 3, -0.25, 686, 3, -0.25, 638, 3, -0.25
*EQUATION
3
2674, 1, 1.0, 638, 1, -0.5, 686, 1, -0.5
*EQUATION
3
2674, 2, 1.0, 638, 2, -0.5, 686, 2, -0.5
*EQUATION
3
2674, 3, 1.0, 638, 3, -0.5, 686, 3, -0.5
*EQUATION
3
2675, 1, 1.0, 674, 1, -0.5, 685, 1, -0.5
*EQUATION
3
2675, 2, 1.0, 674, 2, -0.5, 685, 2, -0.5
*EQUATION
3
2675, 3, 1.0, 674, 3, -0.5, 685, 3, -0.5
*EQUATION
5
2676, 1, 1.0, 674, 1, -0.25, 685, 1, -0.25, 686, 1, -0.25, 676, 1, -0.25
*EQUATION
5
2676, 2, 1.0, 674, 2, -0.25, 685, 2, -0.25, 686, 2, -0.25, 676, 2, -0.25
*EQUATION
5
2676, 3, 1.0, 674, 3, -0.25, 685, 3, -0.25, 686, 3, -0.25, 676, 3, -0.25
*EQUATION
3
2677, 1, 1.0, 676, 1, -0.5, 686, 1, -0.5
*EQUATION
3
2677, 2, 1.0, 676, 2, -0.5, 686, 2, -0.5
*EQUATION
3
2677, 3, 1.0, 676, 3, -0.5, 686, 3, -0.5
*EQUATION
3
2678, 1, 1.0, 685, 1, -0.5, 686, 1, -0.5
*EQUATION
3
2678, 2, 1.0, 685, 2, -0.5, 686, 2, -0.5
*EQUATION
3
2678, 3, 1.0, 685, 3, -0.5, 686, 3, -0.5
*EQUATION
3
2679, 1, 1.0, 1367, 1, -0.5, 1368, 1, -0.5
*EQUATION
3
2679, 2, 1.0, 1367, 2, -0.5, 1368, 2, -0.5
*EQUATION
3
2679, 3, 1.0, 1367, 3, -0.5, 1368, 3, -0.5
*EQUATION
3
2680, 1, 1.0, 1367, 1, -0.5, 1370, 1, -0.5
*EQUATION
3
2680, 2, 1.0, 1367, 2, -0.5, 1370, 2, -0.5
*EQUATION
3
2680, 3, 1.0, 1367, 3, -0.5, 1370, 3, -0.5
*EQUATION
5
2681, 1, 1.0, 1367, 1, -0.25, 1370, 1, -0.25, 1371, 1, -0.25, 1368, 1, -0.25
*EQUATION
5
2681, 2, 1.0, 1367, 2, -0.25, 1370, 2, -0.25, 1371, 2, -0.25, 1368, 2, -0.25
*EQUATION
5
2681, 3, 1.0, 1367, 3, -0.25, 1370, 3, -0.25, 1371, 3, -0.25, 1368, 3, -0.25
*EQUATION
3
2682, 1, 1.0, 1368, 1, -0.5, 1371, 1, -0.5
*EQUATION
3
2682, 2, 1.0, 1368, 2, -0.5, 1371, 2, -0.5
*EQUATION
3
2682, 3, 1.0, 1368, 3, -0.5, 1371, 3, -0.5
*EQUATION
3
2683, 1, 1.0, 1370, 1, -0.5, 1371, 1, -0.5
*EQUATION
3
2683, 2, 1.0, 1370, 2, -0.5, 1371, 2, -0.5
*EQUATION
3
2683, 3, 1.0, 1370, 3, -0.5, 1371, 3, -0.5
*EQUATION
3
2684, 1, 1.0, 1367, 1, -0.5, 1375, 1, -0.5
*EQUATION
3
2684, 2, 1.0, 1367, 2, -0.5, 1375, 2, -0.5
*EQUATION
3
2684, 3, 1.0, 1367, 3, -0.5, 1375, 3, -0.5
*EQUATION
5
2687, 1, 1.0, 1367, 1, -0.25, 1375, 1, -0.25, 1377, 1, -0.25, 1370, 1, -0.25
*EQUATION
5
2687, 2, 1.0, 1367, 2, -0.25, 1375, 2, -0.25, 1377, 2, -0.25, 1370, 2, -0.25
*EQUATION
5
2687, 3, 1.0, 1367, 3, -0.25, 1375, 3, -0.25, 1377, 3, -0.25, 1370, 3, -0.25
*EQUATION
3
2690, 1, 1.0, 1370, 1, -0.5, 1377, 1, -0.5
*EQUATION
3
2690, 2, 1.0, 1370, 2, -0.5, 1377, 2, -0.5
*EQUATION
3
2690, 3, 1.0, 1370, 3, -0.5, 1377, 3, -0.5
*EQUATION
3
2694, 1, 1.0, 1375, 1, -0.5, 1377, 1, -0.5
*EQUATION
3
2694, 2, 1.0, 1375, 2, -0.5, 1377, 2, -0.5
*EQUATION
3
2694, 3, 1.0, 1375, 3, -0.5, 1377, 3, -0.5
*EQUATION
3
2698, 1, 1.0, 1370, 1, -0.5, 1373, 1, -0.5
*EQUATION
3
2698, 2, 1.0, 1370, 2, -0.5, 1373, 2, -0.5
*EQUATION
3
2698, 3, 1.0, 1370, 3, -0.5, 1373, 3, -0.5
*EQUATION
5
2699, 1, 1.0, 1370, 1, -0.25, 1373, 1, -0.25, 1374, 1, -0.25, 1371, 1, -0.25
*EQUATION
5
2699, 2, 1.0, 1370, 2, -0.25, 1373, 2, -0.25, 1374, 2, -0.25, 1371, 2, -0.25
*EQUATION
5
2699, 3, 1.0, 1370, 3, -0.25, 1373, 3, -0.25, 1374, 3, -0.25, 1371, 3, -0.25
*EQUATION
3
2700, 1, 1.0, 1371, 1, -0.5, 1374, 1, -0.5
*EQUATION
3
2700, 2, 1.0, 1371, 2, -0.5, 1374, 2, -0.5
*EQUATION
3
2700, 3, 1.0, 1371, 3, -0.5, 1374, 3, -0.5
*EQUATION
3
2701, 1, 1.0, 1373, 1, -0.5, 1374, 1, -0.5
*EQUATION
3
2701, 2, 1.0, 1373, 2, -0.5, 1374, 2, -0.5
*EQUATION
3
2701, 3, 1.0, 1373, 3, -0.5, 1374, 3, -0.5
*EQUATION
5
2702, 1, 1.0, 1370, 1, -0.25, 1377, 1, -0.25, 1379, 1, -0.25, 1373, 1, -0.25
*EQUATION
5
2702, 2, 1.0, 1370, 2, -0.25, 1377, 2, -0.25, 1379, 2, -0.25, 1373, 2, -0.25
*EQUATION
5
2702, 3, 1.0, 1370, 3, -0.25, 1377, 3, -0.25, 1379, 3, -0.25, 1373, 3, -0.25
*EQUATION
3
2705, 1, 1.0, 1373, 1, -0.5, 1379, 1, -0.5
*EQUATION
3
2705, 2, 1.0, 1373, 2, -0.5, 1379, 2, -0.5
*EQUATION
3
2705, 3, 1.0, 1373, 3, -0.5, 1379, 3, -0.5
*EQUATION
3
2708, 1, 1.0, 1377, 1, -0.5, 1379, 1, -0.5
*EQUATION
3
2708, 2, 1.0, 1377, 2, -0.5, 1379, 2, -0.5
*EQUATION
3
2708, 3, 1.0, 1377, 3, -0.5, 1379, 3, -0.5
*EQUATION
3
2712, 1, 1.0, 1373, 1, -0.5, 1385, 1, -0.5
*EQUATION
3
2712, 2, 1.0, 1373, 2, -0.5, 1385, 2, -0.5
*EQUATION
3
2712, 3, 1.0, 1373, 3, -0.5, 1385, 3, -0.5
*EQUATION
5
2713, 1, 1.0, 1373, 1, -0.25, 1385, 1, -0.25, 1386, 1, -0.25, 1374, 1, -0.25
*EQUATION
5
2713, 2, 1.0, 1373, 2, -0.25, 1385, 2, -0.25, 1386, 2, -0.25, 1374, 2, -0.25
*EQUATION
5
2713, 3, 1.0, 1373, 3, -0.25, 1385, 3, -0.25, 1386, 3, -0.25, 1374, 3, -0.25
*EQUATION
3
2714, 1, 1.0, 1374, 1, -0.5, 1386, 1, -0.5
*EQUATION
3
2714, 2, 1.0, 1374, 2, -0.5, 1386, 2, -0.5
*EQUATION
3
2714, 3, 1.0, 1374, 3, -0.5, 1386, 3, -0.5
*EQUATION
3
2715, 1, 1.0, 1385, 1, -0.5, 1386, 1, -0.5
*EQUATION
3
2715, 2, 1.0, 1385, 2, -0.5, 1386, 2, -0.5
*EQUATION
3
2715, 3, 1.0, 1385, 3, -0.5, 1386, 3, -0.5
*EQUATION
5
2716, 1, 1.0, 1373, 1, -0.25, 1379, 1, -0.25, 1391, 1, -0.25, 1385, 1, -0.25
*EQUATION
5
2716, 2, 1.0, 1373, 2, -0.25, 1379, 2, -0.25, 1391, 2, -0.25, 1385, 2, -0.25
*EQUATION
5
2716, 3, 1.0, 1373, 3, -0.25, 1379, 3, -0.25, 1391, 3, -0.25, 1385, 3, -0.25
*EQUATION
3
2719, 1, 1.0, 1385, 1, -0.5, 1391, 1, -0.5
*EQUATION
3
2719, 2, 1.0, 1385, 2, -0.5, 1391, 2, -0.5
*EQUATION
3
2719, 3, 1.0, 1385, 3, -0.5, 1391, 3, -0.5
*EQUATION
3
2722, 1, 1.0, 1379, 1, -0.5, 1391, 1, -0.5
*EQUATION
3
2722, 2, 1.0, 1379, 2, -0.5, 1391, 2, -0.5
*EQUATION
3
2722, 3, 1.0, 1379, 3, -0.5, 1391, 3, -0.5
*EQUATION
3
2726, 1, 1.0, 1385, 1, -0.5, 1388, 1, -0.5
*EQUATION
3
2726, 2, 1.0, 1385, 2, -0.5, 1388, 2, -0.5
*EQUATION
3
2726, 3, 1.0, 1385, 3, -0.5, 1388, 3, -0.5
*EQUATION
5
2727, 1, 1.0, 1385, 1, -0.25, 1388, 1, -0.25, 1389, 1, -0.25, 1386, 1, -0.25
*EQUATION
5
2727, 2, 1.0, 1385, 2, -0.25, 1388, 2, -0.25, 1389, 2, -0.25, 1386, 2, -0.25
*EQUATION
5
2727, 3, 1.0, 1385, 3, -0.25, 1388, 3, -0.25, 1389, 3, -0.25, 1386, 3, -0.25
*EQUATION
3
2728, 1, 1.0, 1386, 1, -0.5, 1389, 1, -0.5
*EQUATION
3
2728, 2, 1.0, 1386, 2, -0.5, 1389, 2, -0.5
*EQUATION
3
2728, 3, 1.0, 1386, 3, -0.5, 1389, 3, -0.5
*EQUATION
3
2729, 1, 1.0, 1388, 1, -0.5, 1389, 1, -0.5
*EQUATION
3
2729, 2, 1.0, 1388, 2, -0.5, 1389, 2, -0.5
*EQUATION
3
2729, 3, 1.0, 1388, 3, -0.5, 1389, 3, -0.5
*EQUATION
5
2730, 1, 1.0, 1385, 1, -0.25, 1391, 1, -0.25, 1393, 1, -0.25, 1388, 1, -0.25
*EQUATION
5
2730, 2, 1.0, 1385, 2, -0.25, 1391, 2, -0.25, 1393, 2, -0.25, 1388, 2, -0.25
*EQUATION
5
2730, 3, 1.0, 1385, 3, -0.25, 1391, 3, -0.25, 1393, 3, -0.25, 1388, 3, -0.25
*EQUATION
3
2733, 1, 1.0, 1388, 1, -0.5, 1393, 1, -0.5
*EQUATION
3
2733, 2, 1.0, 1388, 2, -0.5, 1393, 2, -0.5
*EQUATION
3
2733, 3, 1.0, 1388, 3, -0.5, 1393, 3, -0.5
*EQUATION
3
2736, 1, 1.0, 1391, 1, -0.5, 1393, 1, -0.5
*EQUATION
3
2736, 2, 1.0, 1391, 2, -0.5, 1393, 2, -0.5
*EQUATION
3
2736, 3, 1.0, 1391, 3, -0.5, 1393, 3, -0.5
*EQUATION
3
2740, 1, 1.0, 1388, 1, -0.5, 1399, 1, -0.5
*EQUATION
3
2740, 2, 1.0, 1388, 2, -0.5, 1399, 2, -0.5
*EQUATION
3
2740, 3, 1.0, 1388, 3, -0.5, 1399, 3, -0.5
*EQUATION
5
2741, 1, 1.0, 1388, 1, -0.25, 1399, 1, -0.25, 1400, 1, -0.25, 1389, 1, -0.25
*EQUATION
5
2741, 2, 1.0, 1388, 2, -0.25, 1399, 2, -0.25, 1400, 2, -0.25, 1389, 2, -0.25
*EQUATION
5
2741, 3, 1.0, 1388, 3, -0.25, 1399, 3, -0.25, 1400, 3, -0.25, 1389, 3, -0.25
*EQUATION
3
2742, 1, 1.0, 1389, 1, -0.5, 1400, 1, -0.5
*EQUATION
3
2742, 2, 1.0, 1389, 2, -0.5, 1400, 2, -0.5
*EQUATION
3
2742, 3, 1.0, 1389, 3, -0.5, 1400, 3, -0.5
*EQUATION
3
2743, 1, 1.0, 1399, 1, -0.5, 1400, 1, -0.5
*EQUATION
3
2743, 2, 1.0, 1399, 2, -0.5, 1400, 2, -0.5
*EQUATION
3
2743, 3, 1.0, 1399, 3, -0.5, 1400, 3, -0.5
*EQUATION
5
2744, 1, 1.0, 1388, 1, -0.25, 1393, 1, -0.25, 1405, 1, -0.25, 1399, 1, -0.25
*EQUATION
5
2744, 2, 1.0, 1388, 2, -0.25, 1393, 2, -0.25, 1405, 2, -0.25, 1399, 2, -0.25
*EQUATION
5
2744, 3, 1.0, 1388, 3, -0.25, 1393, 3, -0.25, 1405, 3, -0.25, 1399, 3, -0.25
*EQUATION
3
2747, 1, 1.0, 1399, 1, -0.5, 1405, 1, -0.5
*EQUATION
3
2747, 2, 1.0, 1399, 2, -0.5, 1405, 2, -0.5
*EQUATION
3
2747, 3, 1.0, 1399, 3, -0.5, 1405, 3, -0.5
*EQUATION
3
2750, 1, 1.0, 1393, 1, -0.5, 1405, 1, -0.5
*EQUATION
3
2750, 2, 1.0, 1393, 2, -0.5, 1405, 2, -0.5
*EQUATION
3
2750, 3, 1.0, 1393, 3, -0.5, 1405, 3, -0.5
*EQUATION
3
2754, 1, 1.0, 1399, 1, -0.5, 1402, 1, -0.5
*EQUATION
3
2754, 2, 1.0, 1399, 2, -0.5, 1402, 2, -0.5
*EQUATION
3
2754, 3, 1.0, 1399, 3, -0.5, 1402, 3, -0.5
*EQUATION
5
2755, 1, 1.0, 1399, 1, -0.25, 1402, 1, -0.25, 1403, 1, -0.25, 1400, 1, -0.25
*EQUATION
5
2755, 2, 1.0, 1399, 2, -0.25, 1402, 2, -0.25, 1403, 2, -0.25, 1400, 2, -0.25
*EQUATION
5
2755, 3, 1.0, 1399, 3, -0.25, 1402, 3, -0.25, 1403, 3, -0.25, 1400, 3, -0.25
*EQUATION
3
2756, 1, 1.0, 1400, 1, -0.5, 1403, 1, -0.5
*EQUATION
3
2756, 2, 1.0, 1400, 2, -0.5, 1403, 2, -0.5
*EQUATION
3
2756, 3, 1.0, 1400, 3, -0.5, 1403, 3, -0.5
*EQUATION
3
2757, 1, 1.0, 1402, 1, -0.5, 1403, 1, -0.5
*EQUATION
3
2757, 2, 1.0, 1402, 2, -0.5, 1403, 2, -0.5
*EQUATION
3
2757, 3, 1.0, 1402, 3, -0.5, 1403, 3, -0.5
*EQUATION
5
2758, 1, 1.0, 1399, 1, -0.25, 1405, 1, -0.25, 1407, 1, -0.25, 1402, 1, -0.25
*EQUATION
5
2758, 2, 1.0, 1399, 2, -0.25, 1405, 2, -0.25, 1407, 2, -0.25, 1402, 2, -0.25
*EQUATION
5
2758, 3, 1.0, 1399, 3, -0.25, 1405, 3, -0.25, 1407, 3, -0.25, 1402, 3, -0.25
*EQUATION
3
2761, 1, 1.0, 1402, 1, -0.5, 1407, 1, -0.5
*EQUATION
3
2761, 2, 1.0, 1402, 2, -0.5, 1407, 2, -0.5
*EQUATION
3
2761, 3, 1.0, 1402, 3, -0.5, 1407, 3, -0.5
*EQUATION
3
2764, 1, 1.0, 1405, 1, -0.5, 1407, 1, -0.5
*EQUATION
3
2764, 2, 1.0, 1405, 2, -0.5, 1407, 2, -0.5
*EQUATION
3
2764, 3, 1.0, 1405, 3, -0.5, 1407, 3, -0.5
*EQUATION
3
2768, 1, 1.0, 1402, 1, -0.5, 1428, 1, -0.5
*EQUATION
3
2768, 2, 1.0, 1402, 2, -0.5, 1428, 2, -0.5
*EQUATION
3
2768, 3, 1.0, 1402, 3, -0.5, 1428, 3, -0.5
*EQUATION
5
2769, 1, 1.0, 1402, 1, -0.25, 1428, 1, -0.25, 1429, 1, -0.25, 1403, 1, -0.25
*EQUATION
5
2769, 2, 1.0, 1402, 2, -0.25, 1428, 2, -0.25, 1429, 2, -0.25, 1403, 2, -0.25
*EQUATION
5
2769, 3, 1.0, 1402, 3, -0.25, 1428, 3, -0.25, 1429, 3, -0.25, 1403, 3, -0.25
*EQUATION
3
2770, 1, 1.0, 1403, 1, -0.5, 1429, 1, -0.5
*EQUATION
3
2770, 2, 1.0, 1403, 2, -0.5, 1429, 2, -0.5
*EQUATION
3
2770, 3, 1.0, 1403, 3, -0.5, 1429, 3, -0.5
*EQUATION
3
2771, 1, 1.0, 1428, 1, -0.5, 1429, 1, -0.5
*EQUATION
3
2771, 2, 1.0, 1428, 2, -0.5, 1429, 2, -0.5
*EQUATION
3
2771, 3, 1.0, 1428, 3, -0.5, 1429, 3, -0.5
*EQUATION
5
2772, 1, 1.0, 1402, 1, -0.25, 1407, 1, -0.25, 1432, 1, -0.25, 1428, 1, -0.25
*EQUATION
5
2772, 2, 1.0, 1402, 2, -0.25, 1407, 2, -0.25, 1432, 2, -0.25, 1428, 2, -0.25
*EQUATION
5
2772, 3, 1.0, 1402, 3, -0.25, 1407, 3, -0.25, 1432, 3, -0.25, 1428, 3, -0.25
*EQUATION
3
2775, 1, 1.0, 1428, 1, -0.5, 1432, 1, -0.5
*EQUATION
3
2775, 2, 1.0, 1428, 2, -0.5, 1432, 2, -0.5
*EQUATION
3
2775, 3, 1.0, 1428, 3, -0.5, 1432, 3, -0.5
*EQUATION
3
2778, 1, 1.0, 1407, 1, -0.5, 1432, 1, -0.5
*EQUATION
3
2778, 2, 1.0, 1407, 2, -0.5, 1432, 2, -0.5
*EQUATION
3
2778, 3, 1.0, 1407, 3, -0.5, 1432, 3, -0.5
*EQUATION
3
2782, 1, 1.0, 1428, 1, -0.5, 1430, 1, -0.5
*EQUATION
3
2782, 2, 1.0, 1428, 2, -0.5, 1430, 2, -0.5
*EQUATION
3
2782, 3, 1.0, 1428, 3, -0.5, 1430, 3, -0.5
*EQUATION
5
2783, 1, 1.0, 1428, 1, -0.25, 1430, 1, -0.25, 1431, 1, -0.25, 1429, 1, -0.25
*EQUATION
5
2783, 2, 1.0, 1428, 2, -0.25, 1430, 2, -0.25, 1431, 2, -0.25, 1429, 2, -0.25
*EQUATION
5
2783, 3, 1.0, 1428, 3, -0.25, 1430, 3, -0.25, 1431, 3, -0.25, 1429, 3, -0.25
*EQUATION
3
2784, 1, 1.0, 1429, 1, -0.5, 1431, 1, -0.5
*EQUATION
3
2784, 2, 1.0, 1429, 2, -0.5, 1431, 2, -0.5
*EQUATION
3
2784, 3, 1.0, 1429, 3, -0.5, 1431, 3, -0.5
*EQUATION
3
2785, 1, 1.0, 1430, 1, -0.5, 1431, 1, -0.5
*EQUATION
3
2785, 2, 1.0, 1430, 2, -0.5, 1431, 2, -0.5
*EQUATION
3
2785, 3, 1.0, 1430, 3, -0.5, 1431, 3, -0.5
*EQUATION
5
2786, 1, 1.0, 1428, 1, -0.25, 1432, 1, -0.25, 1434, 1, -0.25, 1430, 1, -0.25
*EQUATION
5
2786, 2, 1.0, 1428, 2, -0.25, 1432, 2, -0.25, 1434, 2, -0.25, 1430, 2, -0.25
*EQUATION
5
2786, 3, 1.0, 1428, 3, -0.25, 1432, 3, -0.25, 1434, 3, -0.25, 1430, 3, -0.25
*EQUATION
3
2789, 1, 1.0, 1430, 1, -0.5, 1434, 1, -0.5
*EQUATION
3
2789, 2, 1.0, 1430, 2, -0.5, 1434, 2, -0.5
*EQUATION
3
2789, 3, 1.0, 1430, 3, -0.5, 1434, 3, -0.5
*EQUATION
3
2792, 1, 1.0, 1432, 1, -0.5, 1434, 1, -0.5
*EQUATION
3
2792, 2, 1.0, 1432, 2, -0.5, 1434, 2, -0.5
*EQUATION
3
2792, 3, 1.0, 1432, 3, -0.5, 1434, 3, -0.5
*EQUATION
3
2796, 1, 1.0, 1430, 1, -0.5, 1448, 1, -0.5
*EQUATION
3
2796, 2, 1.0, 1430, 2, -0.5, 1448, 2, -0.5
*EQUATION
3
2796, 3, 1.0, 1430, 3, -0.5, 1448, 3, -0.5
*EQUATION
5
2797, 1, 1.0, 1430, 1, -0.25, 1448, 1, -0.25, 1449, 1, -0.25, 1431, 1, -0.25
*EQUATION
5
2797, 2, 1.0, 1430, 2, -0.25, 1448, 2, -0.25, 1449, 2, -0.25, 1431, 2, -0.25
*EQUATION
5
2797, 3, 1.0, 1430, 3, -0.25, 1448, 3, -0.25, 1449, 3, -0.25, 1431, 3, -0.25
*EQUATION
3
2798, 1, 1.0, 1431, 1, -0.5, 1449, 1, -0.5
*EQUATION
3
2798, 2, 1.0, 1431, 2, -0.5, 1449, 2, -0.5
*EQUATION
3
2798, 3, 1.0, 1431, 3, -0.5, 1449, 3, -0.5
*EQUATION
3
2799, 1, 1.0, 1448, 1, -0.5, 1449, 1, -0.5
*EQUATION
3
2799, 2, 1.0, 1448, 2, -0.5, 1449, 2, -0.5
*EQUATION
3
2799, 3, 1.0, 1448, 3, -0.5, 1449, 3, -0.5
*EQUATION
5
2800, 1, 1.0, 1430, 1, -0.25, 1434, 1, -0.25, 1452, 1, -0.25, 1448, 1, -0.25
*EQUATION
5
2800, 2, 1.0, 1430, 2, -0.25, 1434, 2, -0.25, 1452, 2, -0.25, 1448, 2, -0.25
*EQUATION
5
2800, 3, 1.0, 1430, 3, -0.25, 1434, 3, -0.25, 1452, 3, -0.25, 1448, 3, -0.25
*EQUATION
3
2803, 1, 1.0, 1448, 1, -0.5, 1452, 1, -0.5
*EQUATION
3
2803, 2, 1.0, 1448, 2, -0.5, 1452, 2, -0.5
*EQUATION
3
2803, 3, 1.0, 1448, 3, -0.5, 1452, 3, -0.5
*EQUATION
3
2806, 1, 1.0, 1434, 1, -0.5, 1452, 1, -0.5
*EQUATION
3
2806, 2, 1.0, 1434, 2, -0.5, 1452, 2, -0.5
*EQUATION
3
2806, 3, 1.0, 1434, 3, -0.5, 1452, 3, -0.5
*EQUATION
3
2810, 1, 1.0, 1448, 1, -0.5, 1450, 1, -0.5
*EQUATION
3
2810, 2, 1.0, 1448, 2, -0.5, 1450, 2, -0.5
*EQUATION
3
2810, 3, 1.0, 1448, 3, -0.5, 1450, 3, -0.5
*EQUATION
5
2811, 1, 1.0, 1448, 1, -0.25, 1450, 1, -0.25, 1451, 1, -0.25, 1449, 1, -0.25
*EQUATION
5
2811, 2, 1.0, 1448, 2, -0.25, 1450, 2, -0.25, 1451, 2, -0.25, 1449, 2, -0.25
*EQUATION
5
2811, 3, 1.0, 1448, 3, -0.25, 1450, 3, -0.25, 1451, 3, -0.25, 1449, 3, -0.25
*EQUATION
3
2812, 1, 1.0, 1449, 1, -0.5, 1451, 1, -0.5
*EQUATION
3
2812, 2, 1.0, 1449, 2, -0.5, 1451, 2, -0.5
*EQUATION
3
2812, 3, 1.0, 1449, 3, -0.5, 1451, 3, -0.5
*EQUATION
3
2813, 1, 1.0, 1450, 1, -0.5, 1451, 1, -0.5
*EQUATION
3
2813, 2, 1.0, 1450, 2, -0.5, 1451, 2, -0.5
*EQUATION
3
2813, 3, 1.0, 1450, 3, -0.5, 1451, 3, -0.5
*EQUATION
5
2814, 1, 1.0, 1448, 1, -0.25, 1452, 1, -0.25, 1454, 1, -0.25, 1450, 1, -0.25
*EQUATION
5
2814, 2, 1.0, 1448, 2, -0.25, 1452, 2, -0.25, 1454, 2, -0.25, 1450, 2, -0.25
*EQUATION
5
2814, 3, 1.0, 1448, 3, -0.25, 1452, 3, -0.25, 1454, 3, -0.25, 1450, 3, -0.25
*EQUATION
3
2817, 1, 1.0, 1450, 1, -0.5, 1454, 1, -0.5
*EQUATION
3
2817, 2, 1.0, 1450, 2, -0.5, 1454, 2, -0.5
*EQUATION
3
2817, 3, 1.0, 1450, 3, -0.5, 1454, 3, -0.5
*EQUATION
3
2820, 1, 1.0, 1452, 1, -0.5, 1454, 1, -0.5
*EQUATION
3
2820, 2, 1.0, 1452, 2, -0.5, 1454, 2, -0.5
*EQUATION
3
2820, 3, 1.0, 1452, 3, -0.5, 1454, 3, -0.5
*EQUATION
3
2824, 1, 1.0, 1450, 1, -0.5, 1468, 1, -0.5
*EQUATION
3
2824, 2, 1.0, 1450, 2, -0.5, 1468, 2, -0.5
*EQUATION
3
2824, 3, 1.0, 1450, 3, -0.5, 1468, 3, -0.5
*EQUATION
5
2825, 1, 1.0, 1450, 1, -0.25, 1468, 1, -0.25, 1469, 1, -0.25, 1451, 1, -0.25
*EQUATION
5
2825, 2, 1.0, 1450, 2, -0.25, 1468, 2, -0.25, 1469, 2, -0.25, 1451, 2, -0.25
*EQUATION
5
2825, 3, 1.0, 1450, 3, -0.25, 1468, 3, -0.25, 1469, 3, -0.25, 1451, 3, -0.25
*EQUATION
3
2826, 1, 1.0, 1451, 1, -0.5, 1469, 1, -0.5
*EQUATION
3
2826, 2, 1.0, 1451, 2, -0.5, 1469, 2, -0.5
*EQUATION
3
2826, 3, 1.0, 1451, 3, -0.5, 1469, 3, -0.5
*EQUATION
3
2827, 1, 1.0, 1468, 1, -0.5, 1469, 1, -0.5
*EQUATION
3
2827, 2, 1.0, 1468, 2, -0.5, 1469, 2, -0.5
*EQUATION
3
2827, 3, 1.0, 1468, 3, -0.5, 1469, 3, -0.5
*EQUATION
5
2828, 1, 1.0, 1450, 1, -0.25, 1454, 1, -0.25, 1472, 1, -0.25, 1468, 1, -0.25
*EQUATION
5
2828, 2, 1.0, 1450, 2, -0.25, 1454, 2, -0.25, 1472, 2, -0.25, 1468, 2, -0.25
*EQUATION
5
2828, 3, 1.0, 1450, 3, -0.25, 1454, 3, -0.25, 1472, 3, -0.25, 1468, 3, -0.25
*EQUATION
3
2831, 1, 1.0, 1468, 1, -0.5, 1472, 1, -0.5
*EQUATION
3
2831, 2, 1.0, 1468, 2, -0.5, 1472, 2, -0.5
*EQUATION
3
2831, 3, 1.0, 1468, 3, -0.5, 1472, 3, -0.5
*EQUATION
3
2834, 1, 1.0, 1454, 1, -0.5, 1472, 1, -0.5
*EQUATION
3
2834, 2, 1.0, 1454, 2, -0.5, 1472, 2, -0.5
*EQUATION
3
2834, 3, 1.0, 1454, 3, -0.5, 1472, 3, -0.5
*EQUATION
3
2838, 1, 1.0, 1468, 1, -0.5, 1470, 1, -0.5
*EQUATION
3
2838, 2, 1.0, 1468, 2, -0.5, 1470, 2, -0.5
*EQUATION
3
2838, 3, 1.0, 1468, 3, -0.5, 1470, 3, -0.5
*EQUATION
5
2839, 1, 1.0, 1468, 1, -0.25, 1470, 1, -0.25, 1471, 1, -0.25, 1469, 1, -0.25
*EQUATION
5
2839, 2, 1.0, 1468, 2, -0.25, 1470, 2, -0.25, 1471, 2, -0.25, 1469, 2, -0.25
*EQUATION
5
2839, 3, 1.0, 1468, 3, -0.25, 1470, 3, -0.25, 1471, 3, -0.25, 1469, 3, -0.25
*EQUATION
3
2840, 1, 1.0, 1469, 1, -0.5, 1471, 1, -0.5
*EQUATION
3
2840, 2, 1.0, 1469, 2, -0.5, 1471, 2, -0.5
*EQUATION
3
2840, 3, 1.0, 1469, 3, -0.5, 1471, 3, -0.5
*EQUATION
3
2841, 1, 1.0, 1470, 1, -0.5, 1471, 1, -0.5
*EQUATION
3
2841, 2, 1.0, 1470, 2, -0.5, 1471, 2, -0.5
*EQUATION
3
2841, 3, 1.0, 1470, 3, -0.5, 1471, 3, -0.5
*EQUATION
5
2842, 1, 1.0, 1468, 1, -0.25, 1472, 1, -0.25, 1474, 1, -0.25, 1470, 1, -0.25
*EQUATION
5
2842, 2, 1.0, 1468, 2, -0.25, 1472, 2, -0.25, 1474, 2, -0.25, 1470, 2, -0.25
*EQUATION
5
2842, 3, 1.0, 1468, 3, -0.25, 1472, 3, -0.25, 1474, 3, -0.25, 1470, 3, -0.25
*EQUATION
3
2845, 1, 1.0, 1470, 1, -0.5, 1474, 1, -0.5
*EQUATION
3
2845, 2, 1.0, 1470, 2, -0.5, 1474, 2, -0.5
*EQUATION
3
2845, 3, 1.0, 1470, 3, -0.5, 1474, 3, -0.5
*EQUATION
3
2848, 1, 1.0, 1472, 1, -0.5, 1474, 1, -0.5
*EQUATION
3
2848, 2, 1.0, 1472, 2, -0.5, 1474, 2, -0.5
*EQUATION
3
2848, 3, 1.0, 1472, 3, -0.5, 1474, 3, -0.5
*EQUATION
3
2852, 1, 1.0, 1470, 1, -0.5, 1492, 1, -0.5
*EQUATION
3
2852, 2, 1.0, 1470, 2, -0.5, 1492, 2, -0.5
*EQUATION
3
2852, 3, 1.0, 1470, 3, -0.5, 1492, 3, -0.5
*EQUATION
5
2853, 1, 1.0, 1470, 1, -0.25, 1492, 1, -0.25, 1493, 1, -0.25, 1471, 1, -0.25
*EQUATION
5
2853, 2, 1.0, 1470, 2, -0.25, 1492, 2, -0.25, 1493, 2, -0.25, 1471, 2, -0.25
*EQUATION
5
2853, 3, 1.0, 1470, 3, -0.25, 1492, 3, -0.25, 1493, 3, -0.25, 1471, 3, -0.25
*EQUATION
3
2854, 1, 1.0, 1471, 1, -0.5, 1493, 1, -0.5
*EQUATION
3
2854, 2, 1.0, 1471, 2, -0.5, 1493, 2, -0.5
*EQUATION
3
2854, 3, 1.0, 1471, 3, -0.5, 1493, 3, -0.5
*EQUATION
3
2855, 1, 1.0, 1492, 1, -0.5, 1493, 1, -0.5
*EQUATION
3
2855, 2, 1.0, 1492, 2, -0.5, 1493, 2, -0.5
*EQUATION
3
2855, 3, 1.0, 1492, 3, -0.5, 1493, 3, -0.5
*EQUATION
5
2856, 1, 1.0, 1470, 1, -0.25, 1474, 1, -0.25, 1496, 1, -0.25, 1492, 1, -0.25
*EQUATION
5
2856, 2, 1.0, 1470, 2, -0.25, 1474, 2, -0.25, 1496, 2, -0.25, 1492, 2, -0.25
*EQUATION
5
2856, 3, 1.0, 1470, 3, -0.25, 1474, 3, -0.25, 1496, 3, -0.25, 1492, 3, -0.25
*EQUATION
3
2859, 1, 1.0, 1492, 1, -0.5, 1496, 1, -0.5
*EQUATION
3
2859, 2, 1.0, 1492, 2, -0.5, 1496, 2, -0.5
*EQUATION
3
2859, 3, 1.0, 1492, 3, -0.5, 1496, 3, -0.5
*EQUATION
3
2862, 1, 1.0, 1474, 1, -0.5, 1496, 1, -0.5
*EQUATION
3
2862, 2, 1.0, 1474, 2, -0.5, 1496, 2, -0.5
*EQUATION
3
2862, 3, 1.0, 1474, 3, -0.5, 1496, 3, -0.5
*EQUATION
3
2866, 1, 1.0, 1492, 1, -0.5, 1494, 1, -0.5
*EQUATION
3
2866, 2, 1.0, 1492, 2, -0.5, 1494, 2, -0.5
*EQUATION
3
2866, 3, 1.0, 1492, 3, -0.5, 1494, 3, -0.5
*EQUATION
5
2867, 1, 1.0, 1492, 1, -0.25, 1494, 1, -0.25, 1495, 1, -0.25, 1493, 1, -0.25
*EQUATION
5
2867, 2, 1.0, 1492, 2, -0.25, 1494, 2, -0.25, 1495, 2, -0.25, 1493, 2, -0.25
*EQUATION
5
2867, 3, 1.0, 1492, 3, -0.25, 1494, 3, -0.25, 1495, 3, -0.25, 1493, 3, -0.25
*EQUATION
3
2868, 1, 1.0, 1493, 1, -0.5, 1495, 1, -0.5
*EQUATION
3
2868, 2, 1.0, 1493, 2, -0.5, 1495, 2, -0.5
*EQUATION
3
2868, 3, 1.0, 1493, 3, -0.5, 1495, 3, -0.5
*EQUATION
3
2869, 1, 1.0, 1494, 1, -0.5, 1495, 1, -0.5
*EQUATION
3
2869, 2, 1.0, 1494, 2, -0.5, 1495, 2, -0.5
*EQUATION
3
2869, 3, 1.0, 1494, 3, -0.5, 1495, 3, -0.5
*EQUATION
5
2870, 1, 1.0, 1492, 1, -0.25, 1496, 1, -0.25, 1498, 1, -0.25, 1494, 1, -0.25
*EQUATION
5
2870, 2, 1.0, 1492, 2, -0.25, 1496, 2, -0.25, 1498, 2, -0.25, 1494, 2, -0.25
*EQUATION
5
2870, 3, 1.0, 1492, 3, -0.25, 1496, 3, -0.25, 1498, 3, -0.25, 1494, 3, -0.25
*EQUATION
3
2873, 1, 1.0, 1494, 1, -0.5, 1498, 1, -0.5
*EQUATION
3
2873, 2, 1.0, 1494, 2, -0.5, 1498, 2, -0.5
*EQUATION
3
2873, 3, 1.0, 1494, 3, -0.5, 1498, 3, -0.5
*EQUATION
3
2876, 1, 1.0, 1496, 1, -0.5, 1498, 1, -0.5
*EQUATION
3
2876, 2, 1.0, 1496, 2, -0.5, 1498, 2, -0.5
*EQUATION
3
2876, 3, 1.0, 1496, 3, -0.5, 1498, 3, -0.5
*EQUATION
3
2880, 1, 1.0, 1494, 1, -0.5, 1504, 1, -0.5
*EQUATION
3
2880, 2, 1.0, 1494, 2, -0.5, 1504, 2, -0.5
*EQUATION
3
2880, 3, 1.0, 1494, 3, -0.5, 1504, 3, -0.5
*EQUATION
5
2881, 1, 1.0, 1494, 1, -0.25, 1504, 1, -0.25, 1505, 1, -0.25, 1495, 1, -0.25
*EQUATION
5
2881, 2, 1.0, 1494, 2, -0.25, 1504, 2, -0.25, 1505, 2, -0.25, 1495, 2, -0.25
*EQUATION
5
2881, 3, 1.0, 1494, 3, -0.25, 1504, 3, -0.25, 1505, 3, -0.25, 1495, 3, -0.25
*EQUATION
3
2882, 1, 1.0, 1495, 1, -0.5, 1505, 1, -0.5
*EQUATION
3
2882, 2, 1.0, 1495, 2, -0.5, 1505, 2, -0.5
*EQUATION
3
2882, 3, 1.0, 1495, 3, -0.5, 1505, 3, -0.5
*EQUATION
3
2883, 1, 1.0, 1504, 1, -0.5, 1505, 1, -0.5
*EQUATION
3
2883, 2, 1.0, 1504, 2, -0.5, 1505, 2, -0.5
*EQUATION
3
2883, 3, 1.0, 1504, 3, -0.5, 1505, 3, -0.5
*EQUATION
5
2884, 1, 1.0, 1494, 1, -0.25, 1498, 1, -0.25, 1510, 1, -0.25, 1504, 1, -0.25
*EQUATION
5
2884, 2, 1.0, 1494, 2, -0.25, 1498, 2, -0.25, 1510, 2, -0.25, 1504, 2, -0.25
*EQUATION
5
2884, 3, 1.0, 1494, 3, -0.25, 1498, 3, -0.25, 1510, 3, -0.25, 1504, 3, -0.25
*EQUATION
3
2887, 1, 1.0, 1504, 1, -0.5, 1510, 1, -0.5
*EQUATION
3
2887, 2, 1.0, 1504, 2, -0.5, 1510, 2, -0.5
*EQUATION
3
2887, 3, 1.0, 1504, 3, -0.5, 1510, 3, -0.5
*EQUATION
3
2890, 1, 1.0, 1498, 1, -0.5, 1510, 1, -0.5
*EQUATION
3
2890, 2, 1.0, 1498, 2, -0.5, 1510, 2, -0.5
*EQUATION
3
2890, 3, 1.0, 1498, 3, -0.5, 1510, 3, -0.5
*EQUATION
3
2894, 1, 1.0, 1504, 1, -0.5, 1507, 1, -0.5
*EQUATION
3
2894, 2, 1.0, 1504, 2, -0.5, 1507, 2, -0.5
*EQUATION
3
2894, 3, 1.0, 1504, 3, -0.5, 1507, 3, -0.5
*EQUATION
5
2895, 1, 1.0, 1504, 1, -0.25, 1507, 1, -0.25, 1508, 1, -0.25, 1505, 1, -0.25
*EQUATION
5
2895, 2, 1.0, 1504, 2, -0.25, 1507, 2, -0.25, 1508, 2, -0.25, 1505, 2, -0.25
*EQUATION
5
2895, 3, 1.0, 1504, 3, -0.25, 1507, 3, -0.25, 1508, 3, -0.25, 1505, 3, -0.25
*EQUATION
3
2896, 1, 1.0, 1505, 1, -0.5, 1508, 1, -0.5
*EQUATION
3
2896, 2, 1.0, 1505, 2, -0.5, 1508, 2, -0.5
*EQUATION
3
2896, 3, 1.0, 1505, 3, -0.5, 1508, 3, -0.5
*EQUATION
3
2897, 1, 1.0, 1507, 1, -0.5, 1508, 1, -0.5
*EQUATION
3
2897, 2, 1.0, 1507, 2, -0.5, 1508, 2, -0.5
*EQUATION
3
2897, 3, 1.0, 1507, 3, -0.5, 1508, 3, -0.5
*EQUATION
5
2898, 1, 1.0, 1504, 1, -0.25, 1510, 1, -0.25, 1512, 1, -0.25, 1507, 1, -0.25
*EQUATION
5
2898, 2, 1.0, 1504, 2, -0.25, 1510, 2, -0.25, 1512, 2, -0.25, 1507, 2, -0.25
*EQUATION
5
2898, 3, 1.0, 1504, 3, -0.25, 1510, 3, -0.25, 1512, 3, -0.25, 1507, 3, -0.25
*EQUATION
3
2901, 1, 1.0, 1507, 1, -0.5, 1512, 1, -0.5
*EQUATION
3
2901, 2, 1.0, 1507, 2, -0.5, 1512, 2, -0.5
*EQUATION
3
2901, 3, 1.0, 1507, 3, -0.5, 1512, 3, -0.5
*EQUATION
3
2904, 1, 1.0, 1510, 1, -0.5, 1512, 1, -0.5
*EQUATION
3
2904, 2, 1.0, 1510, 2, -0.5, 1512, 2, -0.5
*EQUATION
3
2904, 3, 1.0, 1510, 3, -0.5, 1512, 3, -0.5
*EQUATION
3
2908, 1, 1.0, 1507, 1, -0.5, 1518, 1, -0.5
*EQUATION
3
2908, 2, 1.0, 1507, 2, -0.5, 1518, 2, -0.5
*EQUATION
3
2908, 3, 1.0, 1507, 3, -0.5, 1518, 3, -0.5
*EQUATION
5
2909, 1, 1.0, 1507, 1, -0.25, 1518, 1, -0.25, 1519, 1, -0.25, 1508, 1, -0.25
*EQUATION
5
2909, 2, 1.0, 1507, 2, -0.25, 1518, 2, -0.25, 1519, 2, -0.25, 1508, 2, -0.25
*EQUATION
5
2909, 3, 1.0, 1507, 3, -0.25, 1518, 3, -0.25, 1519, 3, -0.25, 1508, 3, -0.25
*EQUATION
3
2910, 1, 1.0, 1508, 1, -0.5, 1519, 1, -0.5
*EQUATION
3
2910, 2, 1.0, 1508, 2, -0.5, 1519, 2, -0.5
*EQUATION
3
2910, 3, 1.0, 1508, 3, -0.5, 1519, 3, -0.5
*EQUATION
3
2911, 1, 1.0, 1518, 1, -0.5, 1519, 1, -0.5
*EQUATION
3
2911, 2, 1.0, 1518, 2, -0.5, 1519, 2, -0.5
*EQUATION
3
2911, 3, 1.0, 1518, 3, -0.5, 1519, 3, -0.5
*EQUATION
5
2912, 1, 1.0, 1507, 1, -0.25, 1512, 1, -0.25, 1524, 1, -0.25, 1518, 1, -0.25
*EQUATION
5
2912, 2, 1.0, 1507, 2, -0.25, 1512, 2, -0.25, 1524, 2, -0.25, 1518, 2, -0.25
*EQUATION
5
2912, 3, 1.0, 1507, 3, -0.25, 1512, 3, -0.25, 1524, 3, -0.25, 1518, 3, -0.25
*EQUATION
3
2915, 1, 1.0, 1518, 1, -0.5, 1524, 1, -0.5
*EQUATION
3
2915, 2, 1.0, 1518, 2, -0.5, 1524, 2, -0.5
*EQUATION
3
2915, 3, 1.0, 1518, 3, -0.5, 1524, 3, -0.5
*EQUATION
3
2918, 1, 1.0, 1512, 1, -0.5, 1524, 1, -0.5
*EQUATION
3
2918, 2, 1.0, 1512, 2, -0.5, 1524, 2, -0.5
*EQUATION
3
2918, 3, 1.0, 1512, 3, -0.5, 1524, 3, -0.5
*EQUATION
3
2922, 1, 1.0, 1518, 1, -0.5, 1521, 1, -0.5
*EQUATION
3
2922, 2, 1.0, 1518, 2, -0.5, 1521, 2, -0.5
*EQUATION
3
2922, 3, 1.0, 1518, 3, -0.5, 1521, 3, -0.5
*EQUATION
5
2923, 1, 1.0, 1518, 1, -0.25, 1521, 1, -0.25, 1522, 1, -0.25, 1519, 1, -0.25
*EQUATION
5
2923, 2, 1.0, 1518, 2, -0.25, 1521, 2, -0.25, 1522, 2, -0.25, 1519, 2, -0.25
*EQUATION
5
2923, 3, 1.0, 1518, 3, -0.25, 1521, 3, -0.25, 1522, 3, -0.25, 1519, 3, -0.25
*EQUATION
3
2924, 1, 1.0, 1519, 1, -0.5, 1522, 1, -0.5
*EQUATION
3
2924, 2, 1.0, 1519, 2, -0.5, 1522, 2, -0.5
*EQUATION
3
2924, 3, 1.0, 1519, 3, -0.5, 1522, 3, -0.5
*EQUATION
3
2925, 1, 1.0, 1521, 1, -0.5, 1522, 1, -0.5
*EQUATION
3
2925, 2, 1.0, 1521, 2, -0.5, 1522, 2, -0.5
*EQUATION
3
2925, 3, 1.0, 1521, 3, -0.5, 1522, 3, -0.5
*EQUATION
5
2926, 1, 1.0, 1518, 1, -0.25, 1524, 1, -0.25, 1526, 1, -0.25, 1521, 1, -0.25
*EQUATION
5
2926, 2, 1.0, 1518, 2, -0.25, 1524, 2, -0.25, 1526, 2, -0.25, 1521, 2, -0.25
*EQUATION
5
2926, 3, 1.0, 1518, 3, -0.25, 1524, 3, -0.25, 1526, 3, -0.25, 1521, 3, -0.25
*EQUATION
3
2929, 1, 1.0, 1521, 1, -0.5, 1526, 1, -0.5
*EQUATION
3
2929, 2, 1.0, 1521, 2, -0.5, 1526, 2, -0.5
*EQUATION
3
2929, 3, 1.0, 1521, 3, -0.5, 1526, 3, -0.5
*EQUATION
3
2932, 1, 1.0, 1524, 1, -0.5, 1526, 1, -0.5
*EQUATION
3
2932, 2, 1.0, 1524, 2, -0.5, 1526, 2, -0.5
*EQUATION
3
2932, 3, 1.0, 1524, 3, -0.5, 1526, 3, -0.5
*EQUATION
3
2936, 1, 1.0, 1521, 1, -0.5, 1532, 1, -0.5
*EQUATION
3
2936, 2, 1.0, 1521, 2, -0.5, 1532, 2, -0.5
*EQUATION
3
2936, 3, 1.0, 1521, 3, -0.5, 1532, 3, -0.5
*EQUATION
5
2937, 1, 1.0, 1521, 1, -0.25, 1532, 1, -0.25, 1533, 1, -0.25, 1522, 1, -0.25
*EQUATION
5
2937, 2, 1.0, 1521, 2, -0.25, 1532, 2, -0.25, 1533, 2, -0.25, 1522, 2, -0.25
*EQUATION
5
2937, 3, 1.0, 1521, 3, -0.25, 1532, 3, -0.25, 1533, 3, -0.25, 1522, 3, -0.25
*EQUATION
3
2938, 1, 1.0, 1522, 1, -0.5, 1533, 1, -0.5
*EQUATION
3
2938, 2, 1.0, 1522, 2, -0.5, 1533, 2, -0.5
*EQUATION
3
2938, 3, 1.0, 1522, 3, -0.5, 1533, 3, -0.5
*EQUATION
3
2939, 1, 1.0, 1532, 1, -0.5, 1533, 1, -0.5
*EQUATION
3
2939, 2, 1.0, 1532, 2, -0.5, 1533, 2, -0.5
*EQUATION
3
2939, 3, 1.0, 1532, 3, -0.5, 1533, 3, -0.5
*EQUATION
5
2940, 1, 1.0, 1521, 1, -0.25, 1526, 1, -0.25, 1538, 1, -0.25, 1532, 1, -0.25
*EQUATION
5
2940, 2, 1.0, 1521, 2, -0.25, 1526, 2, -0.25, 1538, 2, -0.25, 1532, 2, -0.25
*EQUATION
5
2940, 3, 1.0, 1521, 3, -0.25, 1526, 3, -0.25, 1538, 3, -0.25, 1532, 3, -0.25
*EQUATION
3
2943, 1, 1.0, 1532, 1, -0.5, 1538, 1, -0.5
*EQUATION
3
2943, 2, 1.0, 1532, 2, -0.5, 1538, 2, -0.5
*EQUATION
3
2943, 3, 1.0, 1532, 3, -0.5, 1538, 3, -0.5
*EQUATION
3
2946, 1, 1.0, 1526, 1, -0.5, 1538, 1, -0.5
*EQUATION
3
2946, 2, 1.0, 1526, 2, -0.5, 1538, 2, -0.5
*EQUATION
3
2946, 3, 1.0, 1526, 3, -0.5, 1538, 3, -0.5
*EQUATION
3
2950, 1, 1.0, 1532, 1, -0.5, 1535, 1, -0.5
*EQUATION
3
2950, 2, 1.0, 1532, 2, -0.5, 1535, 2, -0.5
*EQUATION
3
2950, 3, 1.0, 1532, 3, -0.5, 1535, 3, -0.5
*EQUATION
5
2951, 1, 1.0, 1532, 1, -0.25, 1535, 1, -0.25, 1536, 1, -0.25, 1533, 1, -0.25
*EQUATION
5
2951, 2, 1.0, 1532, 2, -0.25, 1535, 2, -0.25, 1536, 2, -0.25, 1533, 2, -0.25
*EQUATION
5
2951, 3, 1.0, 1532, 3, -0.25, 1535, 3, -0.25, 1536, 3, -0.25, 1533, 3, -0.25
*EQUATION
3
2952, 1, 1.0, 1533, 1, -0.5, 1536, 1, -0.5
*EQUATION
3
2952, 2, 1.0, 1533, 2, -0.5, 1536, 2, -0.5
*EQUATION
3
2952, 3, 1.0, 1533, 3, -0.5, 1536, 3, -0.5
*EQUATION
3
2953, 1, 1.0, 1535, 1, -0.5, 1536, 1, -0.5
*EQUATION
3
2953, 2, 1.0, 1535, 2, -0.5, 1536, 2, -0.5
*EQUATION
3
2953, 3, 1.0, 1535, 3, -0.5, 1536, 3, -0.5
*EQUATION
5
2954, 1, 1.0, 1532, 1, -0.25, 1538, 1, -0.25, 1540, 1, -0.25, 1535, 1, -0.25
*EQUATION
5
2954, 2, 1.0, 1532, 2, -0.25, 1538, 2, -0.25, 1540, 2, -0.25, 1535, 2, -0.25
*EQUATION
5
2954, 3, 1.0, 1532, 3, -0.25, 1538, 3, -0.25, 1540, 3, -0.25, 1535, 3, -0.25
*EQUATION
3
2957, 1, 1.0, 1535, 1, -0.5, 1540, 1, -0.5
*EQUATION
3
2957, 2, 1.0, 1535, 2, -0.5, 1540, 2, -0.5
*EQUATION
3
2957, 3, 1.0, 1535, 3, -0.5, 1540, 3, -0.5
*EQUATION
3
2960, 1, 1.0, 1538, 1, -0.5, 1540, 1, -0.5
*EQUATION
3
2960, 2, 1.0, 1538, 2, -0.5, 1540, 2, -0.5
*EQUATION
3
2960, 3, 1.0, 1538, 3, -0.5, 1540, 3, -0.5
*BOUNDARY
CLAMP, 1, 3, 0.0
*STEP
*STATIC
*CLOAD
887, 3, -121.951219512
888, 3, -121.951219512
891, 3, -121.951219512
894, 3, -121.951219512
896, 3, -121.951219512
898, 3, -121.951219512
900, 3, -121.951219512
903, 3, -121.951219512
906, 3, -121.951219512
909, 3, -121.951219512
912, 3, -121.951219512
1378, 3, -121.951219512
1392, 3, -121.951219512
1406, 3, -121.951219512
1433, 3, -121.951219512
1453, 3, -121.951219512
1473, 3, -121.951219512
1497, 3, -121.951219512
1511, 3, -121.951219512
1525, 3, -121.951219512
1539, 3, -121.951219512
2696, 3, -121.951219512
2710, 3, -121.951219512
2724, 3, -121.951219512
2738, 3, -121.951219512
2752, 3, -121.951219512
2766, 3, -121.951219512
2780, 3, -121.951219512
2794, 3, -121.951219512
2808, 3, -121.951219512
2822, 3, -121.951219512
2836, 3, -121.951219512
2850, 3, -121.951219512
2864, 3, -121.951219512
2878, 3, -121.951219512
2892, 3, -121.951219512
2906, 3, -121.951219512
2920, 3, -121.951219512
2934, 3, -121.951219512
2948, 3, -121.951219512
2962, 3, -121.951219512
*NODE FILE
U
*EL FILE
S, ENER
*NODE PRINT, NSET=TIP_TOP
U
*NODE PRINT, NSET=CLAMP
RF
*EL PRINT, ELSET=EALL
ELSE
*ENERGY PRINT
*END STEP
