*HEADING
Normalized cross-passage space-truss torsion benchmark
*NODE
1,-1.200000000000e+00,0.000000000000e+00,0.000000000000e+00
2,1.200000000000e+00,0.000000000000e+00,0.000000000000e+00
3,-1.200000000000e+00,0.000000000000e+00,2.000000000000e+00
4,1.200000000000e+00,0.000000000000e+00,2.000000000000e+00
5,-1.200000000000e+00,1.000000000000e+01,0.000000000000e+00
6,1.200000000000e+00,1.000000000000e+01,0.000000000000e+00
7,-1.200000000000e+00,1.000000000000e+01,2.000000000000e+00
8,1.200000000000e+00,1.000000000000e+01,2.000000000000e+00
9,-1.200000000000e+00,2.000000000000e+01,0.000000000000e+00
10,1.200000000000e+00,2.000000000000e+01,0.000000000000e+00
11,-1.200000000000e+00,2.000000000000e+01,2.000000000000e+00
12,1.200000000000e+00,2.000000000000e+01,2.000000000000e+00
13,-1.200000000000e+00,3.000000000000e+01,0.000000000000e+00
14,1.200000000000e+00,3.000000000000e+01,0.000000000000e+00
15,-1.200000000000e+00,3.000000000000e+01,2.000000000000e+00
16,1.200000000000e+00,3.000000000000e+01,2.000000000000e+00
17,-1.200000000000e+00,4.000000000000e+01,0.000000000000e+00
18,1.200000000000e+00,4.000000000000e+01,0.000000000000e+00
19,-1.200000000000e+00,4.000000000000e+01,2.000000000000e+00
20,1.200000000000e+00,4.000000000000e+01,2.000000000000e+00
21,-1.200000000000e+00,5.000000000000e+01,0.000000000000e+00
22,1.200000000000e+00,5.000000000000e+01,0.000000000000e+00
23,-1.200000000000e+00,5.000000000000e+01,2.000000000000e+00
24,1.200000000000e+00,5.000000000000e+01,2.000000000000e+00
25,-1.200000000000e+00,5.000000000000e+00,-1.500000000000e-01
26,1.200000000000e+00,5.000000000000e+00,1.500000000000e-01
27,-1.200000000000e+00,5.000000000000e+00,1.850000000000e+00
28,1.200000000000e+00,5.000000000000e+00,2.150000000000e+00
29,-1.200000000000e+00,1.500000000000e+01,-1.500000000000e-01
30,1.200000000000e+00,1.500000000000e+01,1.500000000000e-01
31,-1.200000000000e+00,1.500000000000e+01,1.850000000000e+00
32,1.200000000000e+00,1.500000000000e+01,2.150000000000e+00
33,-1.200000000000e+00,2.250000000000e+01,-1.060660171780e-01
34,-1.200000000000e+00,2.500000000000e+01,-1.500000000000e-01
35,-1.200000000000e+00,2.750000000000e+01,-1.060660171780e-01
36,1.200000000000e+00,2.250000000000e+01,1.060660171780e-01
37,1.200000000000e+00,2.500000000000e+01,1.500000000000e-01
38,1.200000000000e+00,2.750000000000e+01,1.060660171780e-01
39,-1.200000000000e+00,2.250000000000e+01,1.893933982822e+00
40,-1.200000000000e+00,2.500000000000e+01,1.850000000000e+00
41,-1.200000000000e+00,2.750000000000e+01,1.893933982822e+00
42,1.200000000000e+00,2.250000000000e+01,2.106066017178e+00
43,1.200000000000e+00,2.500000000000e+01,2.150000000000e+00
44,1.200000000000e+00,2.750000000000e+01,2.106066017178e+00
45,-1.200000000000e+00,3.250000000000e+01,-1.060660171780e-01
46,-1.200000000000e+00,3.500000000000e+01,-1.500000000000e-01
47,-1.200000000000e+00,3.750000000000e+01,-1.060660171780e-01
48,1.200000000000e+00,3.250000000000e+01,1.060660171780e-01
49,1.200000000000e+00,3.500000000000e+01,1.500000000000e-01
50,1.200000000000e+00,3.750000000000e+01,1.060660171780e-01
51,-1.200000000000e+00,3.250000000000e+01,1.893933982822e+00
52,-1.200000000000e+00,3.500000000000e+01,1.850000000000e+00
53,-1.200000000000e+00,3.750000000000e+01,1.893933982822e+00
54,1.200000000000e+00,3.250000000000e+01,2.106066017178e+00
55,1.200000000000e+00,3.500000000000e+01,2.150000000000e+00
56,1.200000000000e+00,3.750000000000e+01,2.106066017178e+00
57,-1.200000000000e+00,4.250000000000e+01,-1.060660171780e-01
58,-1.200000000000e+00,4.500000000000e+01,-1.500000000000e-01
59,-1.200000000000e+00,4.750000000000e+01,-1.060660171780e-01
60,1.200000000000e+00,4.250000000000e+01,1.060660171780e-01
61,1.200000000000e+00,4.500000000000e+01,1.500000000000e-01
62,1.200000000000e+00,4.750000000000e+01,1.060660171780e-01
63,-1.200000000000e+00,4.250000000000e+01,1.893933982822e+00
64,-1.200000000000e+00,4.500000000000e+01,1.850000000000e+00
65,-1.200000000000e+00,4.750000000000e+01,1.893933982822e+00
66,1.200000000000e+00,4.250000000000e+01,2.106066017178e+00
67,1.200000000000e+00,4.500000000000e+01,2.150000000000e+00
68,1.200000000000e+00,4.750000000000e+01,2.106066017178e+00
69,0.000000000000e+00,-3.600000000000e-02,0.000000000000e+00
70,0.000000000000e+00,3.600000000000e-02,2.000000000000e+00
71,-1.200000000000e+00,3.000000000000e-02,1.000000000000e+00
72,1.200000000000e+00,-3.000000000000e-02,1.000000000000e+00
73,0.000000000000e+00,9.964000000000e+00,0.000000000000e+00
74,0.000000000000e+00,1.003600000000e+01,2.000000000000e+00
75,-1.200000000000e+00,1.003000000000e+01,1.000000000000e+00
76,1.200000000000e+00,9.970000000000e+00,1.000000000000e+00
77,0.000000000000e+00,1.996400000000e+01,0.000000000000e+00
78,0.000000000000e+00,2.003600000000e+01,2.000000000000e+00
79,-1.200000000000e+00,2.003000000000e+01,1.000000000000e+00
80,1.200000000000e+00,1.997000000000e+01,1.000000000000e+00
81,0.000000000000e+00,2.996400000000e+01,0.000000000000e+00
82,0.000000000000e+00,3.003600000000e+01,2.000000000000e+00
83,-1.200000000000e+00,3.003000000000e+01,1.000000000000e+00
84,1.200000000000e+00,2.997000000000e+01,1.000000000000e+00
85,0.000000000000e+00,4.996400000000e+01,0.000000000000e+00
86,0.000000000000e+00,5.003600000000e+01,2.000000000000e+00
87,-1.200000000000e+00,5.003000000000e+01,1.000000000000e+00
88,1.200000000000e+00,4.997000000000e+01,1.000000000000e+00
89,-1.200000000000e+00,5.030000000000e+00,8.500000000000e-01
90,-1.200000000000e+00,5.030000000000e+00,1.150000000000e+00
91,1.200000000000e+00,5.030000000000e+00,8.500000000000e-01
92,1.200000000000e+00,5.030000000000e+00,1.150000000000e+00
93,1.500000000000e-01,4.964000000000e+00,0.000000000000e+00
94,-1.500000000000e-01,4.964000000000e+00,0.000000000000e+00
95,1.500000000000e-01,4.964000000000e+00,2.000000000000e+00
96,-1.500000000000e-01,4.964000000000e+00,2.000000000000e+00
97,-1.200000000000e+00,1.503000000000e+01,8.500000000000e-01
98,-1.200000000000e+00,1.503000000000e+01,1.150000000000e+00
99,1.200000000000e+00,1.503000000000e+01,8.500000000000e-01
100,1.200000000000e+00,1.503000000000e+01,1.150000000000e+00
101,1.500000000000e-01,1.496400000000e+01,0.000000000000e+00
102,-1.500000000000e-01,1.496400000000e+01,0.000000000000e+00
103,1.500000000000e-01,1.496400000000e+01,2.000000000000e+00
104,-1.500000000000e-01,1.496400000000e+01,2.000000000000e+00
105,-1.200000000000e+00,2.503000000000e+01,8.500000000000e-01
106,-1.200000000000e+00,2.503000000000e+01,1.150000000000e+00
107,1.200000000000e+00,2.503000000000e+01,8.500000000000e-01
108,1.200000000000e+00,2.503000000000e+01,1.150000000000e+00
109,1.500000000000e-01,2.496400000000e+01,0.000000000000e+00
110,-1.500000000000e-01,2.496400000000e+01,0.000000000000e+00
111,1.500000000000e-01,2.496400000000e+01,2.000000000000e+00
112,-1.500000000000e-01,2.496400000000e+01,2.000000000000e+00
113,-1.200000000000e+00,3.503000000000e+01,8.500000000000e-01
114,-1.200000000000e+00,3.503000000000e+01,1.150000000000e+00
115,1.200000000000e+00,3.503000000000e+01,8.500000000000e-01
116,1.200000000000e+00,3.503000000000e+01,1.150000000000e+00
117,1.500000000000e-01,3.496400000000e+01,0.000000000000e+00
118,-1.500000000000e-01,3.496400000000e+01,0.000000000000e+00
119,1.500000000000e-01,3.496400000000e+01,2.000000000000e+00
120,-1.500000000000e-01,3.496400000000e+01,2.000000000000e+00
121,-1.200000000000e+00,4.503000000000e+01,8.500000000000e-01
122,-1.200000000000e+00,4.503000000000e+01,1.150000000000e+00
123,1.200000000000e+00,4.503000000000e+01,8.500000000000e-01
124,1.200000000000e+00,4.503000000000e+01,1.150000000000e+00
125,1.500000000000e-01,4.496400000000e+01,0.000000000000e+00
126,-1.500000000000e-01,4.496400000000e+01,0.000000000000e+00
127,1.500000000000e-01,4.496400000000e+01,2.000000000000e+00
128,-1.500000000000e-01,4.496400000000e+01,2.000000000000e+00
*ELEMENT,TYPE=B31,ELSET=ALL
1,1,25
2,25,5
3,2,26
4,26,6
5,3,27
6,27,7
7,4,28
8,28,8
9,5,29
10,29,9
11,6,30
12,30,10
13,7,31
14,31,11
15,8,32
16,32,12
17,9,33
18,33,34
19,34,35
20,35,13
21,10,36
22,36,37
23,37,38
24,38,14
25,11,39
26,39,40
27,40,41
28,41,15
29,12,42
30,42,43
31,43,44
32,44,16
33,13,45
34,45,46
35,46,47
36,47,17
37,14,48
38,48,49
39,49,50
40,50,18
41,15,51
42,51,52
43,52,53
44,53,19
45,16,54
46,54,55
47,55,56
48,56,20
49,17,57
50,57,58
51,58,59
52,59,21
53,18,60
54,60,61
55,61,62
56,62,22
57,19,63
58,63,64
59,64,65
60,65,23
61,20,66
62,66,67
63,67,68
64,68,24
65,1,69
66,69,2
67,3,70
68,70,4
69,1,71
70,71,3
71,2,72
72,72,4
73,5,73
74,73,6
75,7,74
76,74,8
77,5,75
78,75,7
79,6,76
80,76,8
81,9,77
82,77,10
83,11,78
84,78,12
85,9,79
86,79,11
87,10,80
88,80,12
89,13,81
90,81,14
91,15,82
92,82,16
93,13,83
94,83,15
95,14,84
96,84,16
97,17,18
98,19,20
99,17,19
100,18,20
101,21,85
102,85,22
103,23,86
104,86,24
105,21,87
106,87,23
107,22,88
108,88,24
109,1,89
110,89,7
111,3,90
112,90,5
113,2,91
114,91,8
115,4,92
116,92,6
117,1,93
118,93,6
119,2,94
120,94,5
121,3,95
122,95,8
123,4,96
124,96,7
125,5,97
126,97,11
127,7,98
128,98,9
129,6,99
130,99,12
131,8,100
132,100,10
133,5,101
134,101,10
135,6,102
136,102,9
137,7,103
138,103,12
139,8,104
140,104,11
141,9,105
142,105,15
143,11,106
144,106,13
145,10,107
146,107,16
147,12,108
148,108,14
149,9,109
150,109,14
151,10,110
152,110,13
153,11,111
154,111,16
155,12,112
156,112,15
157,13,113
158,113,19
159,15,114
160,114,17
161,14,115
162,115,20
163,16,116
164,116,18
165,13,117
166,117,18
167,14,118
168,118,17
169,15,119
170,119,20
171,16,120
172,120,19
173,17,121
174,121,23
175,19,122
176,122,21
177,18,123
178,123,24
179,20,124
180,124,22
181,17,125
182,125,22
183,18,126
184,126,21
185,19,127
186,127,24
187,20,128
188,128,23
*NSET,NSET=NALL,GENERATE
1,128,1
*NSET,NSET=LEFT
1,2,3,4
*NSET,NSET=RIGHT
21,22,23,24
*MATERIAL,NAME=STEEL
*ELASTIC
2.100000000000e+11,0.300000000000
*BEAM SECTION,ELSET=ALL,MATERIAL=STEEL,SECTION=RECT
6.000000000000e-02,4.000000000000e-02
0.371390676354,0.557086014531,0.742781352708
*BOUNDARY
LEFT,1,6,0.0
*STEP
*STATIC
*BOUNDARY
21,1,1,5.000000000000e-03
21,2,2,0.0
21,3,3,-6.000000000000e-03
*BOUNDARY
22,1,1,5.000000000000e-03
22,2,2,0.0
22,3,3,6.000000000000e-03
*BOUNDARY
23,1,1,-5.000000000000e-03
23,2,2,0.0
23,3,3,-6.000000000000e-03
*BOUNDARY
24,1,1,-5.000000000000e-03
24,2,2,0.0
24,3,3,6.000000000000e-03
*NODE FILE,NSET=NALL
U
*NODE PRINT,NSET=NALL
U
*NODE PRINT,NSET=RIGHT
RF
*EL PRINT,ELSET=ALL,TOTALS=YES
ELSE
*END STEP
