*HEADING
Normalized cross-passage space-truss torsion benchmark
*NODE
1,-1.200000000000e+00,0.000000000000e+00,0.000000000000e+00
2,1.200000000000e+00,0.000000000000e+00,0.000000000000e+00
3,-1.200000000000e+00,0.000000000000e+00,2.000000000000e+00
4,1.200000000000e+00,0.000000000000e+00,2.000000000000e+00
5,-1.200000000000e+00,1.000000000000e+01,0.000000000000e+00
6,1.200000000000e+00,1.000000000000e+01,0.000000000000e+00
7,-1.200000000000e+00,1.000000000000e+01,2.000000000000e+00
8,1.200000000000e+00,1.000000000000e+01,2.000000000000e+00
9,-1.200000000000e+00,2.000000000000e+01,0.000000000000e+00
10,1.200000000000e+00,2.000000000000e+01,0.000000000000e+00
11,-1.200000000000e+00,2.000000000000e+01,2.000000000000e+00
12,1.200000000000e+00,2.000000000000e+01,2.000000000000e+00
13,-1.200000000000e+00,3.000000000000e+01,0.000000000000e+00
14,1.200000000000e+00,3.000000000000e+01,0.000000000000e+00
15,-1.200000000000e+00,3.000000000000e+01,2.000000000000e+00
16,1.200000000000e+00,3.000000000000e+01,2.000000000000e+00
17,-1.200000000000e+00,4.000000000000e+01,0.000000000000e+00
18,1.200000000000e+00,4.000000000000e+01,0.000000000000e+00
19,-1.200000000000e+00,4.000000000000e+01,2.000000000000e+00
20,1.200000000000e+00,4.000000000000e+01,2.000000000000e+00
21,-1.200000000000e+00,5.000000000000e+01,0.000000000000e+00
22,1.200000000000e+00,5.000000000000e+01,0.000000000000e+00
23,-1.200000000000e+00,5.000000000000e+01,2.000000000000e+00
24,1.200000000000e+00,5.000000000000e+01,2.000000000000e+00
25,-1.200000000000e+00,6.250000000000e-01,-2.926354830242e-02
26,-1.200000000000e+00,1.250000000000e+00,-5.740251485476e-02
27,-1.200000000000e+00,1.875000000000e+00,-8.333553495294e-02
28,-1.200000000000e+00,2.500000000000e+00,-1.060660171780e-01
29,-1.200000000000e+00,3.125000000000e+00,-1.247204418454e-01
30,-1.200000000000e+00,3.750000000000e+00,-1.385819298767e-01
31,-1.200000000000e+00,4.375000000000e+00,-1.471177920605e-01
32,-1.200000000000e+00,5.000000000000e+00,-1.500000000000e-01
33,-1.200000000000e+00,5.625000000000e+00,-1.471177920605e-01
34,-1.200000000000e+00,6.250000000000e+00,-1.385819298767e-01
35,-1.200000000000e+00,6.875000000000e+00,-1.247204418454e-01
36,-1.200000000000e+00,7.500000000000e+00,-1.060660171780e-01
37,-1.200000000000e+00,8.125000000000e+00,-8.333553495294e-02
38,-1.200000000000e+00,8.750000000000e+00,-5.740251485476e-02
39,-1.200000000000e+00,9.375000000000e+00,-2.926354830242e-02
40,1.200000000000e+00,6.250000000000e-01,2.926354830242e-02
41,1.200000000000e+00,1.250000000000e+00,5.740251485476e-02
42,1.200000000000e+00,1.875000000000e+00,8.333553495294e-02
43,1.200000000000e+00,2.500000000000e+00,1.060660171780e-01
44,1.200000000000e+00,3.125000000000e+00,1.247204418454e-01
45,1.200000000000e+00,3.750000000000e+00,1.385819298767e-01
46,1.200000000000e+00,4.375000000000e+00,1.471177920605e-01
47,1.200000000000e+00,5.000000000000e+00,1.500000000000e-01
48,1.200000000000e+00,5.625000000000e+00,1.471177920605e-01
49,1.200000000000e+00,6.250000000000e+00,1.385819298767e-01
50,1.200000000000e+00,6.875000000000e+00,1.247204418454e-01
51,1.200000000000e+00,7.500000000000e+00,1.060660171780e-01
52,1.200000000000e+00,8.125000000000e+00,8.333553495294e-02
53,1.200000000000e+00,8.750000000000e+00,5.740251485476e-02
54,1.200000000000e+00,9.375000000000e+00,2.926354830242e-02
55,-1.200000000000e+00,6.250000000000e-01,1.970736451698e+00
56,-1.200000000000e+00,1.250000000000e+00,1.942597485145e+00
57,-1.200000000000e+00,1.875000000000e+00,1.916664465047e+00
58,-1.200000000000e+00,2.500000000000e+00,1.893933982822e+00
59,-1.200000000000e+00,3.125000000000e+00,1.875279558155e+00
60,-1.200000000000e+00,3.750000000000e+00,1.861418070123e+00
61,-1.200000000000e+00,4.375000000000e+00,1.852882207940e+00
62,-1.200000000000e+00,5.000000000000e+00,1.850000000000e+00
63,-1.200000000000e+00,5.625000000000e+00,1.852882207940e+00
64,-1.200000000000e+00,6.250000000000e+00,1.861418070123e+00
65,-1.200000000000e+00,6.875000000000e+00,1.875279558155e+00
66,-1.200000000000e+00,7.500000000000e+00,1.893933982822e+00
67,-1.200000000000e+00,8.125000000000e+00,1.916664465047e+00
68,-1.200000000000e+00,8.750000000000e+00,1.942597485145e+00
69,-1.200000000000e+00,9.375000000000e+00,1.970736451698e+00
70,1.200000000000e+00,6.250000000000e-01,2.029263548302e+00
71,1.200000000000e+00,1.250000000000e+00,2.057402514855e+00
72,1.200000000000e+00,1.875000000000e+00,2.083335534953e+00
73,1.200000000000e+00,2.500000000000e+00,2.106066017178e+00
74,1.200000000000e+00,3.125000000000e+00,2.124720441845e+00
75,1.200000000000e+00,3.750000000000e+00,2.138581929877e+00
76,1.200000000000e+00,4.375000000000e+00,2.147117792060e+00
77,1.200000000000e+00,5.000000000000e+00,2.150000000000e+00
78,1.200000000000e+00,5.625000000000e+00,2.147117792060e+00
79,1.200000000000e+00,6.250000000000e+00,2.138581929877e+00
80,1.200000000000e+00,6.875000000000e+00,2.124720441845e+00
81,1.200000000000e+00,7.500000000000e+00,2.106066017178e+00
82,1.200000000000e+00,8.125000000000e+00,2.083335534953e+00
83,1.200000000000e+00,8.750000000000e+00,2.057402514855e+00
84,1.200000000000e+00,9.375000000000e+00,2.029263548302e+00
85,-1.200000000000e+00,1.062500000000e+01,-2.926354830242e-02
86,-1.200000000000e+00,1.125000000000e+01,-5.740251485476e-02
87,-1.200000000000e+00,1.187500000000e+01,-8.333553495294e-02
88,-1.200000000000e+00,1.250000000000e+01,-1.060660171780e-01
89,-1.200000000000e+00,1.312500000000e+01,-1.247204418454e-01
90,-1.200000000000e+00,1.375000000000e+01,-1.385819298767e-01
91,-1.200000000000e+00,1.437500000000e+01,-1.471177920605e-01
92,-1.200000000000e+00,1.500000000000e+01,-1.500000000000e-01
93,-1.200000000000e+00,1.562500000000e+01,-1.471177920605e-01
94,-1.200000000000e+00,1.625000000000e+01,-1.385819298767e-01
95,-1.200000000000e+00,1.687500000000e+01,-1.247204418454e-01
96,-1.200000000000e+00,1.750000000000e+01,-1.060660171780e-01
97,-1.200000000000e+00,1.812500000000e+01,-8.333553495294e-02
98,-1.200000000000e+00,1.875000000000e+01,-5.740251485476e-02
99,-1.200000000000e+00,1.937500000000e+01,-2.926354830242e-02
100,1.200000000000e+00,1.062500000000e+01,2.926354830242e-02
101,1.200000000000e+00,1.125000000000e+01,5.740251485476e-02
102,1.200000000000e+00,1.187500000000e+01,8.333553495294e-02
103,1.200000000000e+00,1.250000000000e+01,1.060660171780e-01
104,1.200000000000e+00,1.312500000000e+01,1.247204418454e-01
105,1.200000000000e+00,1.375000000000e+01,1.385819298767e-01
106,1.200000000000e+00,1.437500000000e+01,1.471177920605e-01
107,1.200000000000e+00,1.500000000000e+01,1.500000000000e-01
108,1.200000000000e+00,1.562500000000e+01,1.471177920605e-01
109,1.200000000000e+00,1.625000000000e+01,1.385819298767e-01
110,1.200000000000e+00,1.687500000000e+01,1.247204418454e-01
111,1.200000000000e+00,1.750000000000e+01,1.060660171780e-01
112,1.200000000000e+00,1.812500000000e+01,8.333553495294e-02
113,1.200000000000e+00,1.875000000000e+01,5.740251485476e-02
114,1.200000000000e+00,1.937500000000e+01,2.926354830242e-02
115,-1.200000000000e+00,1.062500000000e+01,1.970736451698e+00
116,-1.200000000000e+00,1.125000000000e+01,1.942597485145e+00
117,-1.200000000000e+00,1.187500000000e+01,1.916664465047e+00
118,-1.200000000000e+00,1.250000000000e+01,1.893933982822e+00
119,-1.200000000000e+00,1.312500000000e+01,1.875279558155e+00
120,-1.200000000000e+00,1.375000000000e+01,1.861418070123e+00
121,-1.200000000000e+00,1.437500000000e+01,1.852882207940e+00
122,-1.200000000000e+00,1.500000000000e+01,1.850000000000e+00
123,-1.200000000000e+00,1.562500000000e+01,1.852882207940e+00
124,-1.200000000000e+00,1.625000000000e+01,1.861418070123e+00
125,-1.200000000000e+00,1.687500000000e+01,1.875279558155e+00
126,-1.200000000000e+00,1.750000000000e+01,1.893933982822e+00
127,-1.200000000000e+00,1.812500000000e+01,1.916664465047e+00
128,-1.200000000000e+00,1.875000000000e+01,1.942597485145e+00
129,-1.200000000000e+00,1.937500000000e+01,1.970736451698e+00
130,1.200000000000e+00,1.062500000000e+01,2.029263548302e+00
131,1.200000000000e+00,1.125000000000e+01,2.057402514855e+00
132,1.200000000000e+00,1.187500000000e+01,2.083335534953e+00
133,1.200000000000e+00,1.250000000000e+01,2.106066017178e+00
134,1.200000000000e+00,1.312500000000e+01,2.124720441845e+00
135,1.200000000000e+00,1.375000000000e+01,2.138581929877e+00
136,1.200000000000e+00,1.437500000000e+01,2.147117792060e+00
137,1.200000000000e+00,1.500000000000e+01,2.150000000000e+00
138,1.200000000000e+00,1.562500000000e+01,2.147117792060e+00
139,1.200000000000e+00,1.625000000000e+01,2.138581929877e+00
140,1.200000000000e+00,1.687500000000e+01,2.124720441845e+00
141,1.200000000000e+00,1.750000000000e+01,2.106066017178e+00
142,1.200000000000e+00,1.812500000000e+01,2.083335534953e+00
143,1.200000000000e+00,1.875000000000e+01,2.057402514855e+00
144,1.200000000000e+00,1.937500000000e+01,2.029263548302e+00
145,-1.200000000000e+00,2.062500000000e+01,-2.926354830242e-02
146,-1.200000000000e+00,2.125000000000e+01,-5.740251485476e-02
147,-1.200000000000e+00,2.187500000000e+01,-8.333553495294e-02
148,-1.200000000000e+00,2.250000000000e+01,-1.060660171780e-01
149,-1.200000000000e+00,2.312500000000e+01,-1.247204418454e-01
150,-1.200000000000e+00,2.375000000000e+01,-1.385819298767e-01
151,-1.200000000000e+00,2.437500000000e+01,-1.471177920605e-01
152,-1.200000000000e+00,2.500000000000e+01,-1.500000000000e-01
153,-1.200000000000e+00,2.562500000000e+01,-1.471177920605e-01
154,-1.200000000000e+00,2.625000000000e+01,-1.385819298767e-01
155,-1.200000000000e+00,2.687500000000e+01,-1.247204418454e-01
156,-1.200000000000e+00,2.750000000000e+01,-1.060660171780e-01
157,-1.200000000000e+00,2.812500000000e+01,-8.333553495294e-02
158,-1.200000000000e+00,2.875000000000e+01,-5.740251485476e-02
159,-1.200000000000e+00,2.937500000000e+01,-2.926354830242e-02
160,1.200000000000e+00,2.062500000000e+01,2.926354830242e-02
161,1.200000000000e+00,2.125000000000e+01,5.740251485476e-02
162,1.200000000000e+00,2.187500000000e+01,8.333553495294e-02
163,1.200000000000e+00,2.250000000000e+01,1.060660171780e-01
164,1.200000000000e+00,2.312500000000e+01,1.247204418454e-01
165,1.200000000000e+00,2.375000000000e+01,1.385819298767e-01
166,1.200000000000e+00,2.437500000000e+01,1.471177920605e-01
167,1.200000000000e+00,2.500000000000e+01,1.500000000000e-01
168,1.200000000000e+00,2.562500000000e+01,1.471177920605e-01
169,1.200000000000e+00,2.625000000000e+01,1.385819298767e-01
170,1.200000000000e+00,2.687500000000e+01,1.247204418454e-01
171,1.200000000000e+00,2.750000000000e+01,1.060660171780e-01
172,1.200000000000e+00,2.812500000000e+01,8.333553495294e-02
173,1.200000000000e+00,2.875000000000e+01,5.740251485476e-02
174,1.200000000000e+00,2.937500000000e+01,2.926354830242e-02
175,-1.200000000000e+00,2.062500000000e+01,1.970736451698e+00
176,-1.200000000000e+00,2.125000000000e+01,1.942597485145e+00
177,-1.200000000000e+00,2.187500000000e+01,1.916664465047e+00
178,-1.200000000000e+00,2.250000000000e+01,1.893933982822e+00
179,-1.200000000000e+00,2.312500000000e+01,1.875279558155e+00
180,-1.200000000000e+00,2.375000000000e+01,1.861418070123e+00
181,-1.200000000000e+00,2.437500000000e+01,1.852882207940e+00
182,-1.200000000000e+00,2.500000000000e+01,1.850000000000e+00
183,-1.200000000000e+00,2.562500000000e+01,1.852882207940e+00
184,-1.200000000000e+00,2.625000000000e+01,1.861418070123e+00
185,-1.200000000000e+00,2.687500000000e+01,1.875279558155e+00
186,-1.200000000000e+00,2.750000000000e+01,1.893933982822e+00
187,-1.200000000000e+00,2.812500000000e+01,1.916664465047e+00
188,-1.200000000000e+00,2.875000000000e+01,1.942597485145e+00
189,-1.200000000000e+00,2.937500000000e+01,1.970736451698e+00
190,1.200000000000e+00,2.062500000000e+01,2.029263548302e+00
191,1.200000000000e+00,2.125000000000e+01,2.057402514855e+00
192,1.200000000000e+00,2.187500000000e+01,2.083335534953e+00
193,1.200000000000e+00,2.250000000000e+01,2.106066017178e+00
194,1.200000000000e+00,2.312500000000e+01,2.124720441845e+00
195,1.200000000000e+00,2.375000000000e+01,2.138581929877e+00
196,1.200000000000e+00,2.437500000000e+01,2.147117792060e+00
197,1.200000000000e+00,2.500000000000e+01,2.150000000000e+00
198,1.200000000000e+00,2.562500000000e+01,2.147117792060e+00
199,1.200000000000e+00,2.625000000000e+01,2.138581929877e+00
200,1.200000000000e+00,2.687500000000e+01,2.124720441845e+00
201,1.200000000000e+00,2.750000000000e+01,2.106066017178e+00
202,1.200000000000e+00,2.812500000000e+01,2.083335534953e+00
203,1.200000000000e+00,2.875000000000e+01,2.057402514855e+00
204,1.200000000000e+00,2.937500000000e+01,2.029263548302e+00
205,-1.200000000000e+00,3.062500000000e+01,-2.926354830242e-02
206,-1.200000000000e+00,3.125000000000e+01,-5.740251485476e-02
207,-1.200000000000e+00,3.187500000000e+01,-8.333553495294e-02
208,-1.200000000000e+00,3.250000000000e+01,-1.060660171780e-01
209,-1.200000000000e+00,3.312500000000e+01,-1.247204418454e-01
210,-1.200000000000e+00,3.375000000000e+01,-1.385819298767e-01
211,-1.200000000000e+00,3.437500000000e+01,-1.471177920605e-01
212,-1.200000000000e+00,3.500000000000e+01,-1.500000000000e-01
213,-1.200000000000e+00,3.562500000000e+01,-1.471177920605e-01
214,-1.200000000000e+00,3.625000000000e+01,-1.385819298767e-01
215,-1.200000000000e+00,3.687500000000e+01,-1.247204418454e-01
216,-1.200000000000e+00,3.750000000000e+01,-1.060660171780e-01
217,-1.200000000000e+00,3.812500000000e+01,-8.333553495294e-02
218,-1.200000000000e+00,3.875000000000e+01,-5.740251485476e-02
219,-1.200000000000e+00,3.937500000000e+01,-2.926354830242e-02
220,1.200000000000e+00,3.062500000000e+01,2.926354830242e-02
221,1.200000000000e+00,3.125000000000e+01,5.740251485476e-02
222,1.200000000000e+00,3.187500000000e+01,8.333553495294e-02
223,1.200000000000e+00,3.250000000000e+01,1.060660171780e-01
224,1.200000000000e+00,3.312500000000e+01,1.247204418454e-01
225,1.200000000000e+00,3.375000000000e+01,1.385819298767e-01
226,1.200000000000e+00,3.437500000000e+01,1.471177920605e-01
227,1.200000000000e+00,3.500000000000e+01,1.500000000000e-01
228,1.200000000000e+00,3.562500000000e+01,1.471177920605e-01
229,1.200000000000e+00,3.625000000000e+01,1.385819298767e-01
230,1.200000000000e+00,3.687500000000e+01,1.247204418454e-01
231,1.200000000000e+00,3.750000000000e+01,1.060660171780e-01
232,1.200000000000e+00,3.812500000000e+01,8.333553495294e-02
233,1.200000000000e+00,3.875000000000e+01,5.740251485476e-02
234,1.200000000000e+00,3.937500000000e+01,2.926354830242e-02
235,-1.200000000000e+00,3.062500000000e+01,1.970736451698e+00
236,-1.200000000000e+00,3.125000000000e+01,1.942597485145e+00
237,-1.200000000000e+00,3.187500000000e+01,1.916664465047e+00
238,-1.200000000000e+00,3.250000000000e+01,1.893933982822e+00
239,-1.200000000000e+00,3.312500000000e+01,1.875279558155e+00
240,-1.200000000000e+00,3.375000000000e+01,1.861418070123e+00
241,-1.200000000000e+00,3.437500000000e+01,1.852882207940e+00
242,-1.200000000000e+00,3.500000000000e+01,1.850000000000e+00
243,-1.200000000000e+00,3.562500000000e+01,1.852882207940e+00
244,-1.200000000000e+00,3.625000000000e+01,1.861418070123e+00
245,-1.200000000000e+00,3.687500000000e+01,1.875279558155e+00
246,-1.200000000000e+00,3.750000000000e+01,1.893933982822e+00
247,-1.200000000000e+00,3.812500000000e+01,1.916664465047e+00
248,-1.200000000000e+00,3.875000000000e+01,1.942597485145e+00
249,-1.200000000000e+00,3.937500000000e+01,1.970736451698e+00
250,1.200000000000e+00,3.062500000000e+01,2.029263548302e+00
251,1.200000000000e+00,3.125000000000e+01,2.057402514855e+00
252,1.200000000000e+00,3.187500000000e+01,2.083335534953e+00
253,1.200000000000e+00,3.250000000000e+01,2.106066017178e+00
254,1.200000000000e+00,3.312500000000e+01,2.124720441845e+00
255,1.200000000000e+00,3.375000000000e+01,2.138581929877e+00
256,1.200000000000e+00,3.437500000000e+01,2.147117792060e+00
257,1.200000000000e+00,3.500000000000e+01,2.150000000000e+00
258,1.200000000000e+00,3.562500000000e+01,2.147117792060e+00
259,1.200000000000e+00,3.625000000000e+01,2.138581929877e+00
260,1.200000000000e+00,3.687500000000e+01,2.124720441845e+00
261,1.200000000000e+00,3.750000000000e+01,2.106066017178e+00
262,1.200000000000e+00,3.812500000000e+01,2.083335534953e+00
263,1.200000000000e+00,3.875000000000e+01,2.057402514855e+00
264,1.200000000000e+00,3.937500000000e+01,2.029263548302e+00
265,-1.200000000000e+00,4.062500000000e+01,-2.926354830242e-02
266,-1.200000000000e+00,4.125000000000e+01,-5.740251485476e-02
267,-1.200000000000e+00,4.187500000000e+01,-8.333553495294e-02
268,-1.200000000000e+00,4.250000000000e+01,-1.060660171780e-01
269,-1.200000000000e+00,4.312500000000e+01,-1.247204418454e-01
270,-1.200000000000e+00,4.375000000000e+01,-1.385819298767e-01
271,-1.200000000000e+00,4.437500000000e+01,-1.471177920605e-01
272,-1.200000000000e+00,4.500000000000e+01,-1.500000000000e-01
273,-1.200000000000e+00,4.562500000000e+01,-1.471177920605e-01
274,-1.200000000000e+00,4.625000000000e+01,-1.385819298767e-01
275,-1.200000000000e+00,4.687500000000e+01,-1.247204418454e-01
276,-1.200000000000e+00,4.750000000000e+01,-1.060660171780e-01
277,-1.200000000000e+00,4.812500000000e+01,-8.333553495294e-02
278,-1.200000000000e+00,4.875000000000e+01,-5.740251485476e-02
279,-1.200000000000e+00,4.937500000000e+01,-2.926354830242e-02
280,1.200000000000e+00,4.062500000000e+01,2.926354830242e-02
281,1.200000000000e+00,4.125000000000e+01,5.740251485476e-02
282,1.200000000000e+00,4.187500000000e+01,8.333553495294e-02
283,1.200000000000e+00,4.250000000000e+01,1.060660171780e-01
284,1.200000000000e+00,4.312500000000e+01,1.247204418454e-01
285,1.200000000000e+00,4.375000000000e+01,1.385819298767e-01
286,1.200000000000e+00,4.437500000000e+01,1.471177920605e-01
287,1.200000000000e+00,4.500000000000e+01,1.500000000000e-01
288,1.200000000000e+00,4.562500000000e+01,1.471177920605e-01
289,1.200000000000e+00,4.625000000000e+01,1.385819298767e-01
290,1.200000000000e+00,4.687500000000e+01,1.247204418454e-01
291,1.200000000000e+00,4.750000000000e+01,1.060660171780e-01
292,1.200000000000e+00,4.812500000000e+01,8.333553495294e-02
293,1.200000000000e+00,4.875000000000e+01,5.740251485476e-02
294,1.200000000000e+00,4.937500000000e+01,2.926354830242e-02
295,-1.200000000000e+00,4.062500000000e+01,1.970736451698e+00
296,-1.200000000000e+00,4.125000000000e+01,1.942597485145e+00
297,-1.200000000000e+00,4.187500000000e+01,1.916664465047e+00
298,-1.200000000000e+00,4.250000000000e+01,1.893933982822e+00
299,-1.200000000000e+00,4.312500000000e+01,1.875279558155e+00
300,-1.200000000000e+00,4.375000000000e+01,1.861418070123e+00
301,-1.200000000000e+00,4.437500000000e+01,1.852882207940e+00
302,-1.200000000000e+00,4.500000000000e+01,1.850000000000e+00
303,-1.200000000000e+00,4.562500000000e+01,1.852882207940e+00
304,-1.200000000000e+00,4.625000000000e+01,1.861418070123e+00
305,-1.200000000000e+00,4.687500000000e+01,1.875279558155e+00
306,-1.200000000000e+00,4.750000000000e+01,1.893933982822e+00
307,-1.200000000000e+00,4.812500000000e+01,1.916664465047e+00
308,-1.200000000000e+00,4.875000000000e+01,1.942597485145e+00
309,-1.200000000000e+00,4.937500000000e+01,1.970736451698e+00
310,1.200000000000e+00,4.062500000000e+01,2.029263548302e+00
311,1.200000000000e+00,4.125000000000e+01,2.057402514855e+00
312,1.200000000000e+00,4.187500000000e+01,2.083335534953e+00
313,1.200000000000e+00,4.250000000000e+01,2.106066017178e+00
314,1.200000000000e+00,4.312500000000e+01,2.124720441845e+00
315,1.200000000000e+00,4.375000000000e+01,2.138581929877e+00
316,1.200000000000e+00,4.437500000000e+01,2.147117792060e+00
317,1.200000000000e+00,4.500000000000e+01,2.150000000000e+00
318,1.200000000000e+00,4.562500000000e+01,2.147117792060e+00
319,1.200000000000e+00,4.625000000000e+01,2.138581929877e+00
320,1.200000000000e+00,4.687500000000e+01,2.124720441845e+00
321,1.200000000000e+00,4.750000000000e+01,2.106066017178e+00
322,1.200000000000e+00,4.812500000000e+01,2.083335534953e+00
323,1.200000000000e+00,4.875000000000e+01,2.057402514855e+00
324,1.200000000000e+00,4.937500000000e+01,2.029263548302e+00
325,-1.050000000000e+00,-7.023251592581e-03,0.000000000000e+00
326,-9.000000000000e-01,-1.377660356514e-02,0.000000000000e+00
327,-7.500000000000e-01,-2.000052838871e-02,0.000000000000e+00
328,-6.000000000000e-01,-2.545584412272e-02,0.000000000000e+00
329,-4.500000000000e-01,-2.993290604289e-02,0.000000000000e+00
330,-3.000000000000e-01,-3.325966317041e-02,0.000000000000e+00
331,-1.500000000000e-01,-3.530827009452e-02,0.000000000000e+00
332,0.000000000000e+00,-3.600000000000e-02,0.000000000000e+00
333,1.500000000000e-01,-3.530827009452e-02,0.000000000000e+00
334,3.000000000000e-01,-3.325966317041e-02,0.000000000000e+00
335,4.500000000000e-01,-2.993290604289e-02,0.000000000000e+00
336,6.000000000000e-01,-2.545584412272e-02,0.000000000000e+00
337,7.500000000000e-01,-2.000052838871e-02,0.000000000000e+00
338,9.000000000000e-01,-1.377660356514e-02,0.000000000000e+00
339,1.050000000000e+00,-7.023251592581e-03,0.000000000000e+00
340,-1.050000000000e+00,7.023251592581e-03,2.000000000000e+00
341,-9.000000000000e-01,1.377660356514e-02,2.000000000000e+00
342,-7.500000000000e-01,2.000052838871e-02,2.000000000000e+00
343,-6.000000000000e-01,2.545584412272e-02,2.000000000000e+00
344,-4.500000000000e-01,2.993290604289e-02,2.000000000000e+00
345,-3.000000000000e-01,3.325966317041e-02,2.000000000000e+00
346,-1.500000000000e-01,3.530827009452e-02,2.000000000000e+00
347,0.000000000000e+00,3.600000000000e-02,2.000000000000e+00
348,1.500000000000e-01,3.530827009452e-02,2.000000000000e+00
349,3.000000000000e-01,3.325966317041e-02,2.000000000000e+00
350,4.500000000000e-01,2.993290604289e-02,2.000000000000e+00
351,6.000000000000e-01,2.545584412272e-02,2.000000000000e+00
352,7.500000000000e-01,2.000052838871e-02,2.000000000000e+00
353,9.000000000000e-01,1.377660356514e-02,2.000000000000e+00
354,1.050000000000e+00,7.023251592581e-03,2.000000000000e+00
355,-1.200000000000e+00,5.852709660484e-03,1.250000000000e-01
356,-1.200000000000e+00,1.148050297095e-02,2.500000000000e-01
357,-1.200000000000e+00,1.666710699059e-02,3.750000000000e-01
358,-1.200000000000e+00,2.121320343560e-02,5.000000000000e-01
359,-1.200000000000e+00,2.494408836908e-02,6.250000000000e-01
360,-1.200000000000e+00,2.771638597534e-02,7.500000000000e-01
361,-1.200000000000e+00,2.942355841210e-02,8.750000000000e-01
362,-1.200000000000e+00,3.000000000000e-02,1.000000000000e+00
363,-1.200000000000e+00,2.942355841210e-02,1.125000000000e+00
364,-1.200000000000e+00,2.771638597534e-02,1.250000000000e+00
365,-1.200000000000e+00,2.494408836908e-02,1.375000000000e+00
366,-1.200000000000e+00,2.121320343560e-02,1.500000000000e+00
367,-1.200000000000e+00,1.666710699059e-02,1.625000000000e+00
368,-1.200000000000e+00,1.148050297095e-02,1.750000000000e+00
369,-1.200000000000e+00,5.852709660484e-03,1.875000000000e+00
370,1.200000000000e+00,-5.852709660484e-03,1.250000000000e-01
371,1.200000000000e+00,-1.148050297095e-02,2.500000000000e-01
372,1.200000000000e+00,-1.666710699059e-02,3.750000000000e-01
373,1.200000000000e+00,-2.121320343560e-02,5.000000000000e-01
374,1.200000000000e+00,-2.494408836908e-02,6.250000000000e-01
375,1.200000000000e+00,-2.771638597534e-02,7.500000000000e-01
376,1.200000000000e+00,-2.942355841210e-02,8.750000000000e-01
377,1.200000000000e+00,-3.000000000000e-02,1.000000000000e+00
378,1.200000000000e+00,-2.942355841210e-02,1.125000000000e+00
379,1.200000000000e+00,-2.771638597534e-02,1.250000000000e+00
380,1.200000000000e+00,-2.494408836908e-02,1.375000000000e+00
381,1.200000000000e+00,-2.121320343560e-02,1.500000000000e+00
382,1.200000000000e+00,-1.666710699059e-02,1.625000000000e+00
383,1.200000000000e+00,-1.148050297095e-02,1.750000000000e+00
384,1.200000000000e+00,-5.852709660484e-03,1.875000000000e+00
385,-1.050000000000e+00,9.992976748407e+00,0.000000000000e+00
386,-9.000000000000e-01,9.986223396435e+00,0.000000000000e+00
387,-7.500000000000e-01,9.979999471611e+00,0.000000000000e+00
388,-6.000000000000e-01,9.974544155877e+00,0.000000000000e+00
389,-4.500000000000e-01,9.970067093957e+00,0.000000000000e+00
390,-3.000000000000e-01,9.966740336830e+00,0.000000000000e+00
391,-1.500000000000e-01,9.964691729905e+00,0.000000000000e+00
392,0.000000000000e+00,9.964000000000e+00,0.000000000000e+00
393,1.500000000000e-01,9.964691729905e+00,0.000000000000e+00
394,3.000000000000e-01,9.966740336830e+00,0.000000000000e+00
395,4.500000000000e-01,9.970067093957e+00,0.000000000000e+00
396,6.000000000000e-01,9.974544155877e+00,0.000000000000e+00
397,7.500000000000e-01,9.979999471611e+00,0.000000000000e+00
398,9.000000000000e-01,9.986223396435e+00,0.000000000000e+00
399,1.050000000000e+00,9.992976748407e+00,0.000000000000e+00
400,-1.050000000000e+00,1.000702325159e+01,2.000000000000e+00
401,-9.000000000000e-01,1.001377660357e+01,2.000000000000e+00
402,-7.500000000000e-01,1.002000052839e+01,2.000000000000e+00
403,-6.000000000000e-01,1.002545584412e+01,2.000000000000e+00
404,-4.500000000000e-01,1.002993290604e+01,2.000000000000e+00
405,-3.000000000000e-01,1.003325966317e+01,2.000000000000e+00
406,-1.500000000000e-01,1.003530827009e+01,2.000000000000e+00
407,0.000000000000e+00,1.003600000000e+01,2.000000000000e+00
408,1.500000000000e-01,1.003530827009e+01,2.000000000000e+00
409,3.000000000000e-01,1.003325966317e+01,2.000000000000e+00
410,4.500000000000e-01,1.002993290604e+01,2.000000000000e+00
411,6.000000000000e-01,1.002545584412e+01,2.000000000000e+00
412,7.500000000000e-01,1.002000052839e+01,2.000000000000e+00
413,9.000000000000e-01,1.001377660357e+01,2.000000000000e+00
414,1.050000000000e+00,1.000702325159e+01,2.000000000000e+00
415,-1.200000000000e+00,1.000585270966e+01,1.250000000000e-01
416,-1.200000000000e+00,1.001148050297e+01,2.500000000000e-01
417,-1.200000000000e+00,1.001666710699e+01,3.750000000000e-01
418,-1.200000000000e+00,1.002121320344e+01,5.000000000000e-01
419,-1.200000000000e+00,1.002494408837e+01,6.250000000000e-01
420,-1.200000000000e+00,1.002771638598e+01,7.500000000000e-01
421,-1.200000000000e+00,1.002942355841e+01,8.750000000000e-01
422,-1.200000000000e+00,1.003000000000e+01,1.000000000000e+00
423,-1.200000000000e+00,1.002942355841e+01,1.125000000000e+00
424,-1.200000000000e+00,1.002771638598e+01,1.250000000000e+00
425,-1.200000000000e+00,1.002494408837e+01,1.375000000000e+00
426,-1.200000000000e+00,1.002121320344e+01,1.500000000000e+00
427,-1.200000000000e+00,1.001666710699e+01,1.625000000000e+00
428,-1.200000000000e+00,1.001148050297e+01,1.750000000000e+00
429,-1.200000000000e+00,1.000585270966e+01,1.875000000000e+00
430,1.200000000000e+00,9.994147290340e+00,1.250000000000e-01
431,1.200000000000e+00,9.988519497029e+00,2.500000000000e-01
432,1.200000000000e+00,9.983332893009e+00,3.750000000000e-01
433,1.200000000000e+00,9.978786796564e+00,5.000000000000e-01
434,1.200000000000e+00,9.975055911631e+00,6.250000000000e-01
435,1.200000000000e+00,9.972283614025e+00,7.500000000000e-01
436,1.200000000000e+00,9.970576441588e+00,8.750000000000e-01
437,1.200000000000e+00,9.970000000000e+00,1.000000000000e+00
438,1.200000000000e+00,9.970576441588e+00,1.125000000000e+00
439,1.200000000000e+00,9.972283614025e+00,1.250000000000e+00
440,1.200000000000e+00,9.975055911631e+00,1.375000000000e+00
441,1.200000000000e+00,9.978786796564e+00,1.500000000000e+00
442,1.200000000000e+00,9.983332893009e+00,1.625000000000e+00
443,1.200000000000e+00,9.988519497029e+00,1.750000000000e+00
444,1.200000000000e+00,9.994147290340e+00,1.875000000000e+00
445,-1.050000000000e+00,1.999297674841e+01,0.000000000000e+00
446,-9.000000000000e-01,1.998622339643e+01,0.000000000000e+00
447,-7.500000000000e-01,1.997999947161e+01,0.000000000000e+00
448,-6.000000000000e-01,1.997454415588e+01,0.000000000000e+00
449,-4.500000000000e-01,1.997006709396e+01,0.000000000000e+00
450,-3.000000000000e-01,1.996674033683e+01,0.000000000000e+00
451,-1.500000000000e-01,1.996469172991e+01,0.000000000000e+00
452,0.000000000000e+00,1.996400000000e+01,0.000000000000e+00
453,1.500000000000e-01,1.996469172991e+01,0.000000000000e+00
454,3.000000000000e-01,1.996674033683e+01,0.000000000000e+00
455,4.500000000000e-01,1.997006709396e+01,0.000000000000e+00
456,6.000000000000e-01,1.997454415588e+01,0.000000000000e+00
457,7.500000000000e-01,1.997999947161e+01,0.000000000000e+00
458,9.000000000000e-01,1.998622339643e+01,0.000000000000e+00
459,1.050000000000e+00,1.999297674841e+01,0.000000000000e+00
460,-1.050000000000e+00,2.000702325159e+01,2.000000000000e+00
461,-9.000000000000e-01,2.001377660357e+01,2.000000000000e+00
462,-7.500000000000e-01,2.002000052839e+01,2.000000000000e+00
463,-6.000000000000e-01,2.002545584412e+01,2.000000000000e+00
464,-4.500000000000e-01,2.002993290604e+01,2.000000000000e+00
465,-3.000000000000e-01,2.003325966317e+01,2.000000000000e+00
466,-1.500000000000e-01,2.003530827009e+01,2.000000000000e+00
467,0.000000000000e+00,2.003600000000e+01,2.000000000000e+00
468,1.500000000000e-01,2.003530827009e+01,2.000000000000e+00
469,3.000000000000e-01,2.003325966317e+01,2.000000000000e+00
470,4.500000000000e-01,2.002993290604e+01,2.000000000000e+00
471,6.000000000000e-01,2.002545584412e+01,2.000000000000e+00
472,7.500000000000e-01,2.002000052839e+01,2.000000000000e+00
473,9.000000000000e-01,2.001377660357e+01,2.000000000000e+00
474,1.050000000000e+00,2.000702325159e+01,2.000000000000e+00
475,-1.200000000000e+00,2.000585270966e+01,1.250000000000e-01
476,-1.200000000000e+00,2.001148050297e+01,2.500000000000e-01
477,-1.200000000000e+00,2.001666710699e+01,3.750000000000e-01
478,-1.200000000000e+00,2.002121320344e+01,5.000000000000e-01
479,-1.200000000000e+00,2.002494408837e+01,6.250000000000e-01
480,-1.200000000000e+00,2.002771638598e+01,7.500000000000e-01
481,-1.200000000000e+00,2.002942355841e+01,8.750000000000e-01
482,-1.200000000000e+00,2.003000000000e+01,1.000000000000e+00
483,-1.200000000000e+00,2.002942355841e+01,1.125000000000e+00
484,-1.200000000000e+00,2.002771638598e+01,1.250000000000e+00
485,-1.200000000000e+00,2.002494408837e+01,1.375000000000e+00
486,-1.200000000000e+00,2.002121320344e+01,1.500000000000e+00
487,-1.200000000000e+00,2.001666710699e+01,1.625000000000e+00
488,-1.200000000000e+00,2.001148050297e+01,1.750000000000e+00
489,-1.200000000000e+00,2.000585270966e+01,1.875000000000e+00
490,1.200000000000e+00,1.999414729034e+01,1.250000000000e-01
491,1.200000000000e+00,1.998851949703e+01,2.500000000000e-01
492,1.200000000000e+00,1.998333289301e+01,3.750000000000e-01
493,1.200000000000e+00,1.997878679656e+01,5.000000000000e-01
494,1.200000000000e+00,1.997505591163e+01,6.250000000000e-01
495,1.200000000000e+00,1.997228361402e+01,7.500000000000e-01
496,1.200000000000e+00,1.997057644159e+01,8.750000000000e-01
497,1.200000000000e+00,1.997000000000e+01,1.000000000000e+00
498,1.200000000000e+00,1.997057644159e+01,1.125000000000e+00
499,1.200000000000e+00,1.997228361402e+01,1.250000000000e+00
500,1.200000000000e+00,1.997505591163e+01,1.375000000000e+00
501,1.200000000000e+00,1.997878679656e+01,1.500000000000e+00
502,1.200000000000e+00,1.998333289301e+01,1.625000000000e+00
503,1.200000000000e+00,1.998851949703e+01,1.750000000000e+00
504,1.200000000000e+00,1.999414729034e+01,1.875000000000e+00
505,-1.050000000000e+00,2.999297674841e+01,0.000000000000e+00
506,-9.000000000000e-01,2.998622339643e+01,0.000000000000e+00
507,-7.500000000000e-01,2.997999947161e+01,0.000000000000e+00
508,-6.000000000000e-01,2.997454415588e+01,0.000000000000e+00
509,-4.500000000000e-01,2.997006709396e+01,0.000000000000e+00
510,-3.000000000000e-01,2.996674033683e+01,0.000000000000e+00
511,-1.500000000000e-01,2.996469172991e+01,0.000000000000e+00
512,0.000000000000e+00,2.996400000000e+01,0.000000000000e+00
513,1.500000000000e-01,2.996469172991e+01,0.000000000000e+00
514,3.000000000000e-01,2.996674033683e+01,0.000000000000e+00
515,4.500000000000e-01,2.997006709396e+01,0.000000000000e+00
516,6.000000000000e-01,2.997454415588e+01,0.000000000000e+00
517,7.500000000000e-01,2.997999947161e+01,0.000000000000e+00
518,9.000000000000e-01,2.998622339643e+01,0.000000000000e+00
519,1.050000000000e+00,2.999297674841e+01,0.000000000000e+00
520,-1.050000000000e+00,3.000702325159e+01,2.000000000000e+00
521,-9.000000000000e-01,3.001377660357e+01,2.000000000000e+00
522,-7.500000000000e-01,3.002000052839e+01,2.000000000000e+00
523,-6.000000000000e-01,3.002545584412e+01,2.000000000000e+00
524,-4.500000000000e-01,3.002993290604e+01,2.000000000000e+00
525,-3.000000000000e-01,3.003325966317e+01,2.000000000000e+00
526,-1.500000000000e-01,3.003530827009e+01,2.000000000000e+00
527,0.000000000000e+00,3.003600000000e+01,2.000000000000e+00
528,1.500000000000e-01,3.003530827009e+01,2.000000000000e+00
529,3.000000000000e-01,3.003325966317e+01,2.000000000000e+00
530,4.500000000000e-01,3.002993290604e+01,2.000000000000e+00
531,6.000000000000e-01,3.002545584412e+01,2.000000000000e+00
532,7.500000000000e-01,3.002000052839e+01,2.000000000000e+00
533,9.000000000000e-01,3.001377660357e+01,2.000000000000e+00
534,1.050000000000e+00,3.000702325159e+01,2.000000000000e+00
535,-1.200000000000e+00,3.000585270966e+01,1.250000000000e-01
536,-1.200000000000e+00,3.001148050297e+01,2.500000000000e-01
537,-1.200000000000e+00,3.001666710699e+01,3.750000000000e-01
538,-1.200000000000e+00,3.002121320344e+01,5.000000000000e-01
539,-1.200000000000e+00,3.002494408837e+01,6.250000000000e-01
540,-1.200000000000e+00,3.002771638598e+01,7.500000000000e-01
541,-1.200000000000e+00,3.002942355841e+01,8.750000000000e-01
542,-1.200000000000e+00,3.003000000000e+01,1.000000000000e+00
543,-1.200000000000e+00,3.002942355841e+01,1.125000000000e+00
544,-1.200000000000e+00,3.002771638598e+01,1.250000000000e+00
545,-1.200000000000e+00,3.002494408837e+01,1.375000000000e+00
546,-1.200000000000e+00,3.002121320344e+01,1.500000000000e+00
547,-1.200000000000e+00,3.001666710699e+01,1.625000000000e+00
548,-1.200000000000e+00,3.001148050297e+01,1.750000000000e+00
549,-1.200000000000e+00,3.000585270966e+01,1.875000000000e+00
550,1.200000000000e+00,2.999414729034e+01,1.250000000000e-01
551,1.200000000000e+00,2.998851949703e+01,2.500000000000e-01
552,1.200000000000e+00,2.998333289301e+01,3.750000000000e-01
553,1.200000000000e+00,2.997878679656e+01,5.000000000000e-01
554,1.200000000000e+00,2.997505591163e+01,6.250000000000e-01
555,1.200000000000e+00,2.997228361402e+01,7.500000000000e-01
556,1.200000000000e+00,2.997057644159e+01,8.750000000000e-01
557,1.200000000000e+00,2.997000000000e+01,1.000000000000e+00
558,1.200000000000e+00,2.997057644159e+01,1.125000000000e+00
559,1.200000000000e+00,2.997228361402e+01,1.250000000000e+00
560,1.200000000000e+00,2.997505591163e+01,1.375000000000e+00
561,1.200000000000e+00,2.997878679656e+01,1.500000000000e+00
562,1.200000000000e+00,2.998333289301e+01,1.625000000000e+00
563,1.200000000000e+00,2.998851949703e+01,1.750000000000e+00
564,1.200000000000e+00,2.999414729034e+01,1.875000000000e+00
565,-1.050000000000e+00,3.999297674841e+01,0.000000000000e+00
566,-9.000000000000e-01,3.998622339643e+01,0.000000000000e+00
567,-7.500000000000e-01,3.997999947161e+01,0.000000000000e+00
568,-6.000000000000e-01,3.997454415588e+01,0.000000000000e+00
569,-4.500000000000e-01,3.997006709396e+01,0.000000000000e+00
570,-3.000000000000e-01,3.996674033683e+01,0.000000000000e+00
571,-1.500000000000e-01,3.996469172991e+01,0.000000000000e+00
572,0.000000000000e+00,3.996400000000e+01,0.000000000000e+00
573,1.500000000000e-01,3.996469172991e+01,0.000000000000e+00
574,3.000000000000e-01,3.996674033683e+01,0.000000000000e+00
575,4.500000000000e-01,3.997006709396e+01,0.000000000000e+00
576,6.000000000000e-01,3.997454415588e+01,0.000000000000e+00
577,7.500000000000e-01,3.997999947161e+01,0.000000000000e+00
578,9.000000000000e-01,3.998622339643e+01,0.000000000000e+00
579,1.050000000000e+00,3.999297674841e+01,0.000000000000e+00
580,-1.050000000000e+00,4.000702325159e+01,2.000000000000e+00
581,-9.000000000000e-01,4.001377660357e+01,2.000000000000e+00
582,-7.500000000000e-01,4.002000052839e+01,2.000000000000e+00
583,-6.000000000000e-01,4.002545584412e+01,2.000000000000e+00
584,-4.500000000000e-01,4.002993290604e+01,2.000000000000e+00
585,-3.000000000000e-01,4.003325966317e+01,2.000000000000e+00
586,-1.500000000000e-01,4.003530827009e+01,2.000000000000e+00
587,0.000000000000e+00,4.003600000000e+01,2.000000000000e+00
588,1.500000000000e-01,4.003530827009e+01,2.000000000000e+00
589,3.000000000000e-01,4.003325966317e+01,2.000000000000e+00
590,4.500000000000e-01,4.002993290604e+01,2.000000000000e+00
591,6.000000000000e-01,4.002545584412e+01,2.000000000000e+00
592,7.500000000000e-01,4.002000052839e+01,2.000000000000e+00
593,9.000000000000e-01,4.001377660357e+01,2.000000000000e+00
594,1.050000000000e+00,4.000702325159e+01,2.000000000000e+00
595,-1.200000000000e+00,4.000585270966e+01,1.250000000000e-01
596,-1.200000000000e+00,4.001148050297e+01,2.500000000000e-01
597,-1.200000000000e+00,4.001666710699e+01,3.750000000000e-01
598,-1.200000000000e+00,4.002121320344e+01,5.000000000000e-01
599,-1.200000000000e+00,4.002494408837e+01,6.250000000000e-01
600,-1.200000000000e+00,4.002771638598e+01,7.500000000000e-01
601,-1.200000000000e+00,4.002942355841e+01,8.750000000000e-01
602,-1.200000000000e+00,4.003000000000e+01,1.000000000000e+00
603,-1.200000000000e+00,4.002942355841e+01,1.125000000000e+00
604,-1.200000000000e+00,4.002771638598e+01,1.250000000000e+00
605,-1.200000000000e+00,4.002494408837e+01,1.375000000000e+00
606,-1.200000000000e+00,4.002121320344e+01,1.500000000000e+00
607,-1.200000000000e+00,4.001666710699e+01,1.625000000000e+00
608,-1.200000000000e+00,4.001148050297e+01,1.750000000000e+00
609,-1.200000000000e+00,4.000585270966e+01,1.875000000000e+00
610,1.200000000000e+00,3.999414729034e+01,1.250000000000e-01
611,1.200000000000e+00,3.998851949703e+01,2.500000000000e-01
612,1.200000000000e+00,3.998333289301e+01,3.750000000000e-01
613,1.200000000000e+00,3.997878679656e+01,5.000000000000e-01
614,1.200000000000e+00,3.997505591163e+01,6.250000000000e-01
615,1.200000000000e+00,3.997228361402e+01,7.500000000000e-01
616,1.200000000000e+00,3.997057644159e+01,8.750000000000e-01
617,1.200000000000e+00,3.997000000000e+01,1.000000000000e+00
618,1.200000000000e+00,3.997057644159e+01,1.125000000000e+00
619,1.200000000000e+00,3.997228361402e+01,1.250000000000e+00
620,1.200000000000e+00,3.997505591163e+01,1.375000000000e+00
621,1.200000000000e+00,3.997878679656e+01,1.500000000000e+00
622,1.200000000000e+00,3.998333289301e+01,1.625000000000e+00
623,1.200000000000e+00,3.998851949703e+01,1.750000000000e+00
624,1.200000000000e+00,3.999414729034e+01,1.875000000000e+00
625,-1.050000000000e+00,4.999297674841e+01,0.000000000000e+00
626,-9.000000000000e-01,4.998622339643e+01,0.000000000000e+00
627,-7.500000000000e-01,4.997999947161e+01,0.000000000000e+00
628,-6.000000000000e-01,4.997454415588e+01,0.000000000000e+00
629,-4.500000000000e-01,4.997006709396e+01,0.000000000000e+00
630,-3.000000000000e-01,4.996674033683e+01,0.000000000000e+00
631,-1.500000000000e-01,4.996469172991e+01,0.000000000000e+00
632,0.000000000000e+00,4.996400000000e+01,0.000000000000e+00
633,1.500000000000e-01,4.996469172991e+01,0.000000000000e+00
634,3.000000000000e-01,4.996674033683e+01,0.000000000000e+00
635,4.500000000000e-01,4.997006709396e+01,0.000000000000e+00
636,6.000000000000e-01,4.997454415588e+01,0.000000000000e+00
637,7.500000000000e-01,4.997999947161e+01,0.000000000000e+00
638,9.000000000000e-01,4.998622339643e+01,0.000000000000e+00
639,1.050000000000e+00,4.999297674841e+01,0.000000000000e+00
640,-1.050000000000e+00,5.000702325159e+01,2.000000000000e+00
641,-9.000000000000e-01,5.001377660357e+01,2.000000000000e+00
642,-7.500000000000e-01,5.002000052839e+01,2.000000000000e+00
643,-6.000000000000e-01,5.002545584412e+01,2.000000000000e+00
644,-4.500000000000e-01,5.002993290604e+01,2.000000000000e+00
645,-3.000000000000e-01,5.003325966317e+01,2.000000000000e+00
646,-1.500000000000e-01,5.003530827009e+01,2.000000000000e+00
647,0.000000000000e+00,5.003600000000e+01,2.000000000000e+00
648,1.500000000000e-01,5.003530827009e+01,2.000000000000e+00
649,3.000000000000e-01,5.003325966317e+01,2.000000000000e+00
650,4.500000000000e-01,5.002993290604e+01,2.000000000000e+00
651,6.000000000000e-01,5.002545584412e+01,2.000000000000e+00
652,7.500000000000e-01,5.002000052839e+01,2.000000000000e+00
653,9.000000000000e-01,5.001377660357e+01,2.000000000000e+00
654,1.050000000000e+00,5.000702325159e+01,2.000000000000e+00
655,-1.200000000000e+00,5.000585270966e+01,1.250000000000e-01
656,-1.200000000000e+00,5.001148050297e+01,2.500000000000e-01
657,-1.200000000000e+00,5.001666710699e+01,3.750000000000e-01
658,-1.200000000000e+00,5.002121320344e+01,5.000000000000e-01
659,-1.200000000000e+00,5.002494408837e+01,6.250000000000e-01
660,-1.200000000000e+00,5.002771638598e+01,7.500000000000e-01
661,-1.200000000000e+00,5.002942355841e+01,8.750000000000e-01
662,-1.200000000000e+00,5.003000000000e+01,1.000000000000e+00
663,-1.200000000000e+00,5.002942355841e+01,1.125000000000e+00
664,-1.200000000000e+00,5.002771638598e+01,1.250000000000e+00
665,-1.200000000000e+00,5.002494408837e+01,1.375000000000e+00
666,-1.200000000000e+00,5.002121320344e+01,1.500000000000e+00
667,-1.200000000000e+00,5.001666710699e+01,1.625000000000e+00
668,-1.200000000000e+00,5.001148050297e+01,1.750000000000e+00
669,-1.200000000000e+00,5.000585270966e+01,1.875000000000e+00
670,1.200000000000e+00,4.999414729034e+01,1.250000000000e-01
671,1.200000000000e+00,4.998851949703e+01,2.500000000000e-01
672,1.200000000000e+00,4.998333289301e+01,3.750000000000e-01
673,1.200000000000e+00,4.997878679656e+01,5.000000000000e-01
674,1.200000000000e+00,4.997505591163e+01,6.250000000000e-01
675,1.200000000000e+00,4.997228361402e+01,7.500000000000e-01
676,1.200000000000e+00,4.997057644159e+01,8.750000000000e-01
677,1.200000000000e+00,4.997000000000e+01,1.000000000000e+00
678,1.200000000000e+00,4.997057644159e+01,1.125000000000e+00
679,1.200000000000e+00,4.997228361402e+01,1.250000000000e+00
680,1.200000000000e+00,4.997505591163e+01,1.375000000000e+00
681,1.200000000000e+00,4.997878679656e+01,1.500000000000e+00
682,1.200000000000e+00,4.998333289301e+01,1.625000000000e+00
683,1.200000000000e+00,4.998851949703e+01,1.750000000000e+00
684,1.200000000000e+00,4.999414729034e+01,1.875000000000e+00
685,-1.200000000000e+00,6.308527096605e-01,9.573645169758e-02
686,-1.200000000000e+00,1.261480502971e+00,1.925974851452e-01
687,-1.200000000000e+00,1.891667106991e+00,2.916644650471e-01
688,-1.200000000000e+00,2.521213203436e+00,3.939339828220e-01
689,-1.200000000000e+00,3.149944088369e+00,5.002795581546e-01
690,-1.200000000000e+00,3.777716385975e+00,6.114180701233e-01
691,-1.200000000000e+00,4.404423558412e+00,7.278822079395e-01
692,-1.200000000000e+00,5.030000000000e+00,8.500000000000e-01
693,-1.200000000000e+00,5.654423558412e+00,9.778822079395e-01
694,-1.200000000000e+00,6.277716385975e+00,1.111418070123e+00
695,-1.200000000000e+00,6.899944088369e+00,1.250279558155e+00
696,-1.200000000000e+00,7.521213203436e+00,1.393933982822e+00
697,-1.200000000000e+00,8.141667106991e+00,1.541664465047e+00
698,-1.200000000000e+00,8.761480502971e+00,1.692597485145e+00
699,-1.200000000000e+00,9.380852709660e+00,1.845736451698e+00
700,-1.200000000000e+00,6.308527096605e-01,1.904263548302e+00
701,-1.200000000000e+00,1.261480502971e+00,1.807402514855e+00
702,-1.200000000000e+00,1.891667106991e+00,1.708335534953e+00
703,-1.200000000000e+00,2.521213203436e+00,1.606066017178e+00
704,-1.200000000000e+00,3.149944088369e+00,1.499720441845e+00
705,-1.200000000000e+00,3.777716385975e+00,1.388581929877e+00
706,-1.200000000000e+00,4.404423558412e+00,1.272117792060e+00
707,-1.200000000000e+00,5.030000000000e+00,1.150000000000e+00
708,-1.200000000000e+00,5.654423558412e+00,1.022117792060e+00
709,-1.200000000000e+00,6.277716385975e+00,8.885819298767e-01
710,-1.200000000000e+00,6.899944088369e+00,7.497204418454e-01
711,-1.200000000000e+00,7.521213203436e+00,6.060660171780e-01
712,-1.200000000000e+00,8.141667106991e+00,4.583355349529e-01
713,-1.200000000000e+00,8.761480502971e+00,3.074025148548e-01
714,-1.200000000000e+00,9.380852709660e+00,1.542635483024e-01
715,1.200000000000e+00,6.308527096605e-01,9.573645169758e-02
716,1.200000000000e+00,1.261480502971e+00,1.925974851452e-01
717,1.200000000000e+00,1.891667106991e+00,2.916644650471e-01
718,1.200000000000e+00,2.521213203436e+00,3.939339828220e-01
719,1.200000000000e+00,3.149944088369e+00,5.002795581546e-01
720,1.200000000000e+00,3.777716385975e+00,6.114180701233e-01
721,1.200000000000e+00,4.404423558412e+00,7.278822079395e-01
722,1.200000000000e+00,5.030000000000e+00,8.500000000000e-01
723,1.200000000000e+00,5.654423558412e+00,9.778822079395e-01
724,1.200000000000e+00,6.277716385975e+00,1.111418070123e+00
725,1.200000000000e+00,6.899944088369e+00,1.250279558155e+00
726,1.200000000000e+00,7.521213203436e+00,1.393933982822e+00
727,1.200000000000e+00,8.141667106991e+00,1.541664465047e+00
728,1.200000000000e+00,8.761480502971e+00,1.692597485145e+00
729,1.200000000000e+00,9.380852709660e+00,1.845736451698e+00
730,1.200000000000e+00,6.308527096605e-01,1.904263548302e+00
731,1.200000000000e+00,1.261480502971e+00,1.807402514855e+00
732,1.200000000000e+00,1.891667106991e+00,1.708335534953e+00
733,1.200000000000e+00,2.521213203436e+00,1.606066017178e+00
734,1.200000000000e+00,3.149944088369e+00,1.499720441845e+00
735,1.200000000000e+00,3.777716385975e+00,1.388581929877e+00
736,1.200000000000e+00,4.404423558412e+00,1.272117792060e+00
737,1.200000000000e+00,5.030000000000e+00,1.150000000000e+00
738,1.200000000000e+00,5.654423558412e+00,1.022117792060e+00
739,1.200000000000e+00,6.277716385975e+00,8.885819298767e-01
740,1.200000000000e+00,6.899944088369e+00,7.497204418454e-01
741,1.200000000000e+00,7.521213203436e+00,6.060660171780e-01
742,1.200000000000e+00,8.141667106991e+00,4.583355349529e-01
743,1.200000000000e+00,8.761480502971e+00,3.074025148548e-01
744,1.200000000000e+00,9.380852709660e+00,1.542635483024e-01
745,-1.020736451698e+00,6.179767484074e-01,0.000000000000e+00
746,-8.425974851452e-01,1.236223396435e+00,0.000000000000e+00
747,-6.666644650471e-01,1.854999471611e+00,0.000000000000e+00
748,-4.939339828220e-01,2.474544155877e+00,0.000000000000e+00
749,-3.252795581546e-01,3.095067093957e+00,0.000000000000e+00
750,-1.614180701233e-01,3.716740336830e+00,0.000000000000e+00
751,-2.882207939515e-03,4.339691729905e+00,0.000000000000e+00
752,1.500000000000e-01,4.964000000000e+00,0.000000000000e+00
753,2.971177920605e-01,5.589691729905e+00,0.000000000000e+00
754,4.385819298767e-01,6.216740336830e+00,0.000000000000e+00
755,5.747204418454e-01,6.845067093957e+00,0.000000000000e+00
756,7.060660171780e-01,7.474544155877e+00,0.000000000000e+00
757,8.333355349529e-01,8.104999471611e+00,0.000000000000e+00
758,9.574025148548e-01,8.736223396435e+00,0.000000000000e+00
759,1.079263548302e+00,9.367976748407e+00,0.000000000000e+00
760,1.020736451698e+00,6.179767484074e-01,0.000000000000e+00
761,8.425974851452e-01,1.236223396435e+00,0.000000000000e+00
762,6.666644650471e-01,1.854999471611e+00,0.000000000000e+00
763,4.939339828220e-01,2.474544155877e+00,0.000000000000e+00
764,3.252795581546e-01,3.095067093957e+00,0.000000000000e+00
765,1.614180701233e-01,3.716740336830e+00,0.000000000000e+00
766,2.882207939515e-03,4.339691729905e+00,0.000000000000e+00
767,-1.500000000000e-01,4.964000000000e+00,0.000000000000e+00
768,-2.971177920605e-01,5.589691729905e+00,0.000000000000e+00
769,-4.385819298767e-01,6.216740336830e+00,0.000000000000e+00
770,-5.747204418454e-01,6.845067093957e+00,0.000000000000e+00
771,-7.060660171780e-01,7.474544155877e+00,0.000000000000e+00
772,-8.333355349529e-01,8.104999471611e+00,0.000000000000e+00
773,-9.574025148548e-01,8.736223396435e+00,0.000000000000e+00
774,-1.079263548302e+00,9.367976748407e+00,0.000000000000e+00
775,-1.020736451698e+00,6.179767484074e-01,2.000000000000e+00
776,-8.425974851452e-01,1.236223396435e+00,2.000000000000e+00
777,-6.666644650471e-01,1.854999471611e+00,2.000000000000e+00
778,-4.939339828220e-01,2.474544155877e+00,2.000000000000e+00
779,-3.252795581546e-01,3.095067093957e+00,2.000000000000e+00
780,-1.614180701233e-01,3.716740336830e+00,2.000000000000e+00
781,-2.882207939515e-03,4.339691729905e+00,2.000000000000e+00
782,1.500000000000e-01,4.964000000000e+00,2.000000000000e+00
783,2.971177920605e-01,5.589691729905e+00,2.000000000000e+00
784,4.385819298767e-01,6.216740336830e+00,2.000000000000e+00
785,5.747204418454e-01,6.845067093957e+00,2.000000000000e+00
786,7.060660171780e-01,7.474544155877e+00,2.000000000000e+00
787,8.333355349529e-01,8.104999471611e+00,2.000000000000e+00
788,9.574025148548e-01,8.736223396435e+00,2.000000000000e+00
789,1.079263548302e+00,9.367976748407e+00,2.000000000000e+00
790,1.020736451698e+00,6.179767484074e-01,2.000000000000e+00
791,8.425974851452e-01,1.236223396435e+00,2.000000000000e+00
792,6.666644650471e-01,1.854999471611e+00,2.000000000000e+00
793,4.939339828220e-01,2.474544155877e+00,2.000000000000e+00
794,3.252795581546e-01,3.095067093957e+00,2.000000000000e+00
795,1.614180701233e-01,3.716740336830e+00,2.000000000000e+00
796,2.882207939515e-03,4.339691729905e+00,2.000000000000e+00
797,-1.500000000000e-01,4.964000000000e+00,2.000000000000e+00
798,-2.971177920605e-01,5.589691729905e+00,2.000000000000e+00
799,-4.385819298767e-01,6.216740336830e+00,2.000000000000e+00
800,-5.747204418454e-01,6.845067093957e+00,2.000000000000e+00
801,-7.060660171780e-01,7.474544155877e+00,2.000000000000e+00
802,-8.333355349529e-01,8.104999471611e+00,2.000000000000e+00
803,-9.574025148548e-01,8.736223396435e+00,2.000000000000e+00
804,-1.079263548302e+00,9.367976748407e+00,2.000000000000e+00
805,-1.200000000000e+00,1.063085270966e+01,9.573645169758e-02
806,-1.200000000000e+00,1.126148050297e+01,1.925974851452e-01
807,-1.200000000000e+00,1.189166710699e+01,2.916644650471e-01
808,-1.200000000000e+00,1.252121320344e+01,3.939339828220e-01
809,-1.200000000000e+00,1.314994408837e+01,5.002795581546e-01
810,-1.200000000000e+00,1.377771638598e+01,6.114180701233e-01
811,-1.200000000000e+00,1.440442355841e+01,7.278822079395e-01
812,-1.200000000000e+00,1.503000000000e+01,8.500000000000e-01
813,-1.200000000000e+00,1.565442355841e+01,9.778822079395e-01
814,-1.200000000000e+00,1.627771638598e+01,1.111418070123e+00
815,-1.200000000000e+00,1.689994408837e+01,1.250279558155e+00
816,-1.200000000000e+00,1.752121320344e+01,1.393933982822e+00
817,-1.200000000000e+00,1.814166710699e+01,1.541664465047e+00
818,-1.200000000000e+00,1.876148050297e+01,1.692597485145e+00
819,-1.200000000000e+00,1.938085270966e+01,1.845736451698e+00
820,-1.200000000000e+00,1.063085270966e+01,1.904263548302e+00
821,-1.200000000000e+00,1.126148050297e+01,1.807402514855e+00
822,-1.200000000000e+00,1.189166710699e+01,1.708335534953e+00
823,-1.200000000000e+00,1.252121320344e+01,1.606066017178e+00
824,-1.200000000000e+00,1.314994408837e+01,1.499720441845e+00
825,-1.200000000000e+00,1.377771638598e+01,1.388581929877e+00
826,-1.200000000000e+00,1.440442355841e+01,1.272117792060e+00
827,-1.200000000000e+00,1.503000000000e+01,1.150000000000e+00
828,-1.200000000000e+00,1.565442355841e+01,1.022117792060e+00
829,-1.200000000000e+00,1.627771638598e+01,8.885819298767e-01
830,-1.200000000000e+00,1.689994408837e+01,7.497204418454e-01
831,-1.200000000000e+00,1.752121320344e+01,6.060660171780e-01
832,-1.200000000000e+00,1.814166710699e+01,4.583355349529e-01
833,-1.200000000000e+00,1.876148050297e+01,3.074025148548e-01
834,-1.200000000000e+00,1.938085270966e+01,1.542635483024e-01
835,1.200000000000e+00,1.063085270966e+01,9.573645169758e-02
836,1.200000000000e+00,1.126148050297e+01,1.925974851452e-01
837,1.200000000000e+00,1.189166710699e+01,2.916644650471e-01
838,1.200000000000e+00,1.252121320344e+01,3.939339828220e-01
839,1.200000000000e+00,1.314994408837e+01,5.002795581546e-01
840,1.200000000000e+00,1.377771638598e+01,6.114180701233e-01
841,1.200000000000e+00,1.440442355841e+01,7.278822079395e-01
842,1.200000000000e+00,1.503000000000e+01,8.500000000000e-01
843,1.200000000000e+00,1.565442355841e+01,9.778822079395e-01
844,1.200000000000e+00,1.627771638598e+01,1.111418070123e+00
845,1.200000000000e+00,1.689994408837e+01,1.250279558155e+00
846,1.200000000000e+00,1.752121320344e+01,1.393933982822e+00
847,1.200000000000e+00,1.814166710699e+01,1.541664465047e+00
848,1.200000000000e+00,1.876148050297e+01,1.692597485145e+00
849,1.200000000000e+00,1.938085270966e+01,1.845736451698e+00
850,1.200000000000e+00,1.063085270966e+01,1.904263548302e+00
851,1.200000000000e+00,1.126148050297e+01,1.807402514855e+00
852,1.200000000000e+00,1.189166710699e+01,1.708335534953e+00
853,1.200000000000e+00,1.252121320344e+01,1.606066017178e+00
854,1.200000000000e+00,1.314994408837e+01,1.499720441845e+00
855,1.200000000000e+00,1.377771638598e+01,1.388581929877e+00
856,1.200000000000e+00,1.440442355841e+01,1.272117792060e+00
857,1.200000000000e+00,1.503000000000e+01,1.150000000000e+00
858,1.200000000000e+00,1.565442355841e+01,1.022117792060e+00
859,1.200000000000e+00,1.627771638598e+01,8.885819298767e-01
860,1.200000000000e+00,1.689994408837e+01,7.497204418454e-01
861,1.200000000000e+00,1.752121320344e+01,6.060660171780e-01
862,1.200000000000e+00,1.814166710699e+01,4.583355349529e-01
863,1.200000000000e+00,1.876148050297e+01,3.074025148548e-01
864,1.200000000000e+00,1.938085270966e+01,1.542635483024e-01
865,-1.020736451698e+00,1.061797674841e+01,0.000000000000e+00
866,-8.425974851452e-01,1.123622339643e+01,0.000000000000e+00
867,-6.666644650471e-01,1.185499947161e+01,0.000000000000e+00
868,-4.939339828220e-01,1.247454415588e+01,0.000000000000e+00
869,-3.252795581546e-01,1.309506709396e+01,0.000000000000e+00
870,-1.614180701233e-01,1.371674033683e+01,0.000000000000e+00
871,-2.882207939515e-03,1.433969172991e+01,0.000000000000e+00
872,1.500000000000e-01,1.496400000000e+01,0.000000000000e+00
873,2.971177920605e-01,1.558969172991e+01,0.000000000000e+00
874,4.385819298767e-01,1.621674033683e+01,0.000000000000e+00
875,5.747204418454e-01,1.684506709396e+01,0.000000000000e+00
876,7.060660171780e-01,1.747454415588e+01,0.000000000000e+00
877,8.333355349529e-01,1.810499947161e+01,0.000000000000e+00
878,9.574025148548e-01,1.873622339643e+01,0.000000000000e+00
879,1.079263548302e+00,1.936797674841e+01,0.000000000000e+00
880,1.020736451698e+00,1.061797674841e+01,0.000000000000e+00
881,8.425974851452e-01,1.123622339643e+01,0.000000000000e+00
882,6.666644650471e-01,1.185499947161e+01,0.000000000000e+00
883,4.939339828220e-01,1.247454415588e+01,0.000000000000e+00
884,3.252795581546e-01,1.309506709396e+01,0.000000000000e+00
885,1.614180701233e-01,1.371674033683e+01,0.000000000000e+00
886,2.882207939515e-03,1.433969172991e+01,0.000000000000e+00
887,-1.500000000000e-01,1.496400000000e+01,0.000000000000e+00
888,-2.971177920605e-01,1.558969172991e+01,0.000000000000e+00
889,-4.385819298767e-01,1.621674033683e+01,0.000000000000e+00
890,-5.747204418454e-01,1.684506709396e+01,0.000000000000e+00
891,-7.060660171780e-01,1.747454415588e+01,0.000000000000e+00
892,-8.333355349529e-01,1.810499947161e+01,0.000000000000e+00
893,-9.574025148548e-01,1.873622339643e+01,0.000000000000e+00
894,-1.079263548302e+00,1.936797674841e+01,0.000000000000e+00
895,-1.020736451698e+00,1.061797674841e+01,2.000000000000e+00
896,-8.425974851452e-01,1.123622339643e+01,2.000000000000e+00
897,-6.666644650471e-01,1.185499947161e+01,2.000000000000e+00
898,-4.939339828220e-01,1.247454415588e+01,2.000000000000e+00
899,-3.252795581546e-01,1.309506709396e+01,2.000000000000e+00
900,-1.614180701233e-01,1.371674033683e+01,2.000000000000e+00
901,-2.882207939515e-03,1.433969172991e+01,2.000000000000e+00
902,1.500000000000e-01,1.496400000000e+01,2.000000000000e+00
903,2.971177920605e-01,1.558969172991e+01,2.000000000000e+00
904,4.385819298767e-01,1.621674033683e+01,2.000000000000e+00
905,5.747204418454e-01,1.684506709396e+01,2.000000000000e+00
906,7.060660171780e-01,1.747454415588e+01,2.000000000000e+00
907,8.333355349529e-01,1.810499947161e+01,2.000000000000e+00
908,9.574025148548e-01,1.873622339643e+01,2.000000000000e+00
909,1.079263548302e+00,1.936797674841e+01,2.000000000000e+00
910,1.020736451698e+00,1.061797674841e+01,2.000000000000e+00
911,8.425974851452e-01,1.123622339643e+01,2.000000000000e+00
912,6.666644650471e-01,1.185499947161e+01,2.000000000000e+00
913,4.939339828220e-01,1.247454415588e+01,2.000000000000e+00
914,3.252795581546e-01,1.309506709396e+01,2.000000000000e+00
915,1.614180701233e-01,1.371674033683e+01,2.000000000000e+00
916,2.882207939515e-03,1.433969172991e+01,2.000000000000e+00
917,-1.500000000000e-01,1.496400000000e+01,2.000000000000e+00
918,-2.971177920605e-01,1.558969172991e+01,2.000000000000e+00
919,-4.385819298767e-01,1.621674033683e+01,2.000000000000e+00
920,-5.747204418454e-01,1.684506709396e+01,2.000000000000e+00
921,-7.060660171780e-01,1.747454415588e+01,2.000000000000e+00
922,-8.333355349529e-01,1.810499947161e+01,2.000000000000e+00
923,-9.574025148548e-01,1.873622339643e+01,2.000000000000e+00
924,-1.079263548302e+00,1.936797674841e+01,2.000000000000e+00
925,-1.200000000000e+00,2.063085270966e+01,9.573645169758e-02
926,-1.200000000000e+00,2.126148050297e+01,1.925974851452e-01
927,-1.200000000000e+00,2.189166710699e+01,2.916644650471e-01
928,-1.200000000000e+00,2.252121320344e+01,3.939339828220e-01
929,-1.200000000000e+00,2.314994408837e+01,5.002795581546e-01
930,-1.200000000000e+00,2.377771638598e+01,6.114180701233e-01
931,-1.200000000000e+00,2.440442355841e+01,7.278822079395e-01
932,-1.200000000000e+00,2.503000000000e+01,8.500000000000e-01
933,-1.200000000000e+00,2.565442355841e+01,9.778822079395e-01
934,-1.200000000000e+00,2.627771638598e+01,1.111418070123e+00
935,-1.200000000000e+00,2.689994408837e+01,1.250279558155e+00
936,-1.200000000000e+00,2.752121320344e+01,1.393933982822e+00
937,-1.200000000000e+00,2.814166710699e+01,1.541664465047e+00
938,-1.200000000000e+00,2.876148050297e+01,1.692597485145e+00
939,-1.200000000000e+00,2.938085270966e+01,1.845736451698e+00
940,-1.200000000000e+00,2.063085270966e+01,1.904263548302e+00
941,-1.200000000000e+00,2.126148050297e+01,1.807402514855e+00
942,-1.200000000000e+00,2.189166710699e+01,1.708335534953e+00
943,-1.200000000000e+00,2.252121320344e+01,1.606066017178e+00
944,-1.200000000000e+00,2.314994408837e+01,1.499720441845e+00
945,-1.200000000000e+00,2.377771638598e+01,1.388581929877e+00
946,-1.200000000000e+00,2.440442355841e+01,1.272117792060e+00
947,-1.200000000000e+00,2.503000000000e+01,1.150000000000e+00
948,-1.200000000000e+00,2.565442355841e+01,1.022117792060e+00
949,-1.200000000000e+00,2.627771638598e+01,8.885819298767e-01
950,-1.200000000000e+00,2.689994408837e+01,7.497204418454e-01
951,-1.200000000000e+00,2.752121320344e+01,6.060660171780e-01
952,-1.200000000000e+00,2.814166710699e+01,4.583355349529e-01
953,-1.200000000000e+00,2.876148050297e+01,3.074025148548e-01
954,-1.200000000000e+00,2.938085270966e+01,1.542635483024e-01
955,1.200000000000e+00,2.063085270966e+01,9.573645169758e-02
956,1.200000000000e+00,2.126148050297e+01,1.925974851452e-01
957,1.200000000000e+00,2.189166710699e+01,2.916644650471e-01
958,1.200000000000e+00,2.252121320344e+01,3.939339828220e-01
959,1.200000000000e+00,2.314994408837e+01,5.002795581546e-01
960,1.200000000000e+00,2.377771638598e+01,6.114180701233e-01
961,1.200000000000e+00,2.440442355841e+01,7.278822079395e-01
962,1.200000000000e+00,2.503000000000e+01,8.500000000000e-01
963,1.200000000000e+00,2.565442355841e+01,9.778822079395e-01
964,1.200000000000e+00,2.627771638598e+01,1.111418070123e+00
965,1.200000000000e+00,2.689994408837e+01,1.250279558155e+00
966,1.200000000000e+00,2.752121320344e+01,1.393933982822e+00
967,1.200000000000e+00,2.814166710699e+01,1.541664465047e+00
968,1.200000000000e+00,2.876148050297e+01,1.692597485145e+00
969,1.200000000000e+00,2.938085270966e+01,1.845736451698e+00
970,1.200000000000e+00,2.063085270966e+01,1.904263548302e+00
971,1.200000000000e+00,2.126148050297e+01,1.807402514855e+00
972,1.200000000000e+00,2.189166710699e+01,1.708335534953e+00
973,1.200000000000e+00,2.252121320344e+01,1.606066017178e+00
974,1.200000000000e+00,2.314994408837e+01,1.499720441845e+00
975,1.200000000000e+00,2.377771638598e+01,1.388581929877e+00
976,1.200000000000e+00,2.440442355841e+01,1.272117792060e+00
977,1.200000000000e+00,2.503000000000e+01,1.150000000000e+00
978,1.200000000000e+00,2.565442355841e+01,1.022117792060e+00
979,1.200000000000e+00,2.627771638598e+01,8.885819298767e-01
980,1.200000000000e+00,2.689994408837e+01,7.497204418454e-01
981,1.200000000000e+00,2.752121320344e+01,6.060660171780e-01
982,1.200000000000e+00,2.814166710699e+01,4.583355349529e-01
983,1.200000000000e+00,2.876148050297e+01,3.074025148548e-01
984,1.200000000000e+00,2.938085270966e+01,1.542635483024e-01
985,-1.020736451698e+00,2.061797674841e+01,0.000000000000e+00
986,-8.425974851452e-01,2.123622339643e+01,0.000000000000e+00
987,-6.666644650471e-01,2.185499947161e+01,0.000000000000e+00
988,-4.939339828220e-01,2.247454415588e+01,0.000000000000e+00
989,-3.252795581546e-01,2.309506709396e+01,0.000000000000e+00
990,-1.614180701233e-01,2.371674033683e+01,0.000000000000e+00
991,-2.882207939515e-03,2.433969172991e+01,0.000000000000e+00
992,1.500000000000e-01,2.496400000000e+01,0.000000000000e+00
993,2.971177920605e-01,2.558969172991e+01,0.000000000000e+00
994,4.385819298767e-01,2.621674033683e+01,0.000000000000e+00
995,5.747204418454e-01,2.684506709396e+01,0.000000000000e+00
996,7.060660171780e-01,2.747454415588e+01,0.000000000000e+00
997,8.333355349529e-01,2.810499947161e+01,0.000000000000e+00
998,9.574025148548e-01,2.873622339643e+01,0.000000000000e+00
999,1.079263548302e+00,2.936797674841e+01,0.000000000000e+00
1000,1.020736451698e+00,2.061797674841e+01,0.000000000000e+00
1001,8.425974851452e-01,2.123622339643e+01,0.000000000000e+00
1002,6.666644650471e-01,2.185499947161e+01,0.000000000000e+00
1003,4.939339828220e-01,2.247454415588e+01,0.000000000000e+00
1004,3.252795581546e-01,2.309506709396e+01,0.000000000000e+00
1005,1.614180701233e-01,2.371674033683e+01,0.000000000000e+00
1006,2.882207939515e-03,2.433969172991e+01,0.000000000000e+00
1007,-1.500000000000e-01,2.496400000000e+01,0.000000000000e+00
1008,-2.971177920605e-01,2.558969172991e+01,0.000000000000e+00
1009,-4.385819298767e-01,2.621674033683e+01,0.000000000000e+00
1010,-5.747204418454e-01,2.684506709396e+01,0.000000000000e+00
1011,-7.060660171780e-01,2.747454415588e+01,0.000000000000e+00
1012,-8.333355349529e-01,2.810499947161e+01,0.000000000000e+00
1013,-9.574025148548e-01,2.873622339643e+01,0.000000000000e+00
1014,-1.079263548302e+00,2.936797674841e+01,0.000000000000e+00
1015,-1.020736451698e+00,2.061797674841e+01,2.000000000000e+00
1016,-8.425974851452e-01,2.123622339643e+01,2.000000000000e+00
1017,-6.666644650471e-01,2.185499947161e+01,2.000000000000e+00
1018,-4.939339828220e-01,2.247454415588e+01,2.000000000000e+00
1019,-3.252795581546e-01,2.309506709396e+01,2.000000000000e+00
1020,-1.614180701233e-01,2.371674033683e+01,2.000000000000e+00
1021,-2.882207939515e-03,2.433969172991e+01,2.000000000000e+00
1022,1.500000000000e-01,2.496400000000e+01,2.000000000000e+00
1023,2.971177920605e-01,2.558969172991e+01,2.000000000000e+00
1024,4.385819298767e-01,2.621674033683e+01,2.000000000000e+00
1025,5.747204418454e-01,2.684506709396e+01,2.000000000000e+00
1026,7.060660171780e-01,2.747454415588e+01,2.000000000000e+00
1027,8.333355349529e-01,2.810499947161e+01,2.000000000000e+00
1028,9.574025148548e-01,2.873622339643e+01,2.000000000000e+00
1029,1.079263548302e+00,2.936797674841e+01,2.000000000000e+00
1030,1.020736451698e+00,2.061797674841e+01,2.000000000000e+00
1031,8.425974851452e-01,2.123622339643e+01,2.000000000000e+00
1032,6.666644650471e-01,2.185499947161e+01,2.000000000000e+00
1033,4.939339828220e-01,2.247454415588e+01,2.000000000000e+00
1034,3.252795581546e-01,2.309506709396e+01,2.000000000000e+00
1035,1.614180701233e-01,2.371674033683e+01,2.000000000000e+00
1036,2.882207939515e-03,2.433969172991e+01,2.000000000000e+00
1037,-1.500000000000e-01,2.496400000000e+01,2.000000000000e+00
1038,-2.971177920605e-01,2.558969172991e+01,2.000000000000e+00
1039,-4.385819298767e-01,2.621674033683e+01,2.000000000000e+00
1040,-5.747204418454e-01,2.684506709396e+01,2.000000000000e+00
1041,-7.060660171780e-01,2.747454415588e+01,2.000000000000e+00
1042,-8.333355349529e-01,2.810499947161e+01,2.000000000000e+00
1043,-9.574025148548e-01,2.873622339643e+01,2.000000000000e+00
1044,-1.079263548302e+00,2.936797674841e+01,2.000000000000e+00
1045,-1.200000000000e+00,3.063085270966e+01,9.573645169758e-02
1046,-1.200000000000e+00,3.126148050297e+01,1.925974851452e-01
1047,-1.200000000000e+00,3.189166710699e+01,2.916644650471e-01
1048,-1.200000000000e+00,3.252121320344e+01,3.939339828220e-01
1049,-1.200000000000e+00,3.314994408837e+01,5.002795581546e-01
1050,-1.200000000000e+00,3.377771638598e+01,6.114180701233e-01
1051,-1.200000000000e+00,3.440442355841e+01,7.278822079395e-01
1052,-1.200000000000e+00,3.503000000000e+01,8.500000000000e-01
1053,-1.200000000000e+00,3.565442355841e+01,9.778822079395e-01
1054,-1.200000000000e+00,3.627771638598e+01,1.111418070123e+00
1055,-1.200000000000e+00,3.689994408837e+01,1.250279558155e+00
1056,-1.200000000000e+00,3.752121320344e+01,1.393933982822e+00
1057,-1.200000000000e+00,3.814166710699e+01,1.541664465047e+00
1058,-1.200000000000e+00,3.876148050297e+01,1.692597485145e+00
1059,-1.200000000000e+00,3.938085270966e+01,1.845736451698e+00
1060,-1.200000000000e+00,3.063085270966e+01,1.904263548302e+00
1061,-1.200000000000e+00,3.126148050297e+01,1.807402514855e+00
1062,-1.200000000000e+00,3.189166710699e+01,1.708335534953e+00
1063,-1.200000000000e+00,3.252121320344e+01,1.606066017178e+00
1064,-1.200000000000e+00,3.314994408837e+01,1.499720441845e+00
1065,-1.200000000000e+00,3.377771638598e+01,1.388581929877e+00
1066,-1.200000000000e+00,3.440442355841e+01,1.272117792060e+00
1067,-1.200000000000e+00,3.503000000000e+01,1.150000000000e+00
1068,-1.200000000000e+00,3.565442355841e+01,1.022117792060e+00
1069,-1.200000000000e+00,3.627771638598e+01,8.885819298767e-01
1070,-1.200000000000e+00,3.689994408837e+01,7.497204418454e-01
1071,-1.200000000000e+00,3.752121320344e+01,6.060660171780e-01
1072,-1.200000000000e+00,3.814166710699e+01,4.583355349529e-01
1073,-1.200000000000e+00,3.876148050297e+01,3.074025148548e-01
1074,-1.200000000000e+00,3.938085270966e+01,1.542635483024e-01
1075,1.200000000000e+00,3.063085270966e+01,9.573645169758e-02
1076,1.200000000000e+00,3.126148050297e+01,1.925974851452e-01
1077,1.200000000000e+00,3.189166710699e+01,2.916644650471e-01
1078,1.200000000000e+00,3.252121320344e+01,3.939339828220e-01
1079,1.200000000000e+00,3.314994408837e+01,5.002795581546e-01
1080,1.200000000000e+00,3.377771638598e+01,6.114180701233e-01
1081,1.200000000000e+00,3.440442355841e+01,7.278822079395e-01
1082,1.200000000000e+00,3.503000000000e+01,8.500000000000e-01
1083,1.200000000000e+00,3.565442355841e+01,9.778822079395e-01
1084,1.200000000000e+00,3.627771638598e+01,1.111418070123e+00
1085,1.200000000000e+00,3.689994408837e+01,1.250279558155e+00
1086,1.200000000000e+00,3.752121320344e+01,1.393933982822e+00
1087,1.200000000000e+00,3.814166710699e+01,1.541664465047e+00
1088,1.200000000000e+00,3.876148050297e+01,1.692597485145e+00
1089,1.200000000000e+00,3.938085270966e+01,1.845736451698e+00
1090,1.200000000000e+00,3.063085270966e+01,1.904263548302e+00
1091,1.200000000000e+00,3.126148050297e+01,1.807402514855e+00
1092,1.200000000000e+00,3.189166710699e+01,1.708335534953e+00
1093,1.200000000000e+00,3.252121320344e+01,1.606066017178e+00
1094,1.200000000000e+00,3.314994408837e+01,1.499720441845e+00
1095,1.200000000000e+00,3.377771638598e+01,1.388581929877e+00
1096,1.200000000000e+00,3.440442355841e+01,1.272117792060e+00
1097,1.200000000000e+00,3.503000000000e+01,1.150000000000e+00
1098,1.200000000000e+00,3.565442355841e+01,1.022117792060e+00
1099,1.200000000000e+00,3.627771638598e+01,8.885819298767e-01
1100,1.200000000000e+00,3.689994408837e+01,7.497204418454e-01
1101,1.200000000000e+00,3.752121320344e+01,6.060660171780e-01
1102,1.200000000000e+00,3.814166710699e+01,4.583355349529e-01
1103,1.200000000000e+00,3.876148050297e+01,3.074025148548e-01
1104,1.200000000000e+00,3.938085270966e+01,1.542635483024e-01
1105,-1.020736451698e+00,3.061797674841e+01,0.000000000000e+00
1106,-8.425974851452e-01,3.123622339643e+01,0.000000000000e+00
1107,-6.666644650471e-01,3.185499947161e+01,0.000000000000e+00
1108,-4.939339828220e-01,3.247454415588e+01,0.000000000000e+00
1109,-3.252795581546e-01,3.309506709396e+01,0.000000000000e+00
1110,-1.614180701233e-01,3.371674033683e+01,0.000000000000e+00
1111,-2.882207939515e-03,3.433969172991e+01,0.000000000000e+00
1112,1.500000000000e-01,3.496400000000e+01,0.000000000000e+00
1113,2.971177920605e-01,3.558969172991e+01,0.000000000000e+00
1114,4.385819298767e-01,3.621674033683e+01,0.000000000000e+00
1115,5.747204418454e-01,3.684506709396e+01,0.000000000000e+00
1116,7.060660171780e-01,3.747454415588e+01,0.000000000000e+00
1117,8.333355349529e-01,3.810499947161e+01,0.000000000000e+00
1118,9.574025148548e-01,3.873622339643e+01,0.000000000000e+00
1119,1.079263548302e+00,3.936797674841e+01,0.000000000000e+00
1120,1.020736451698e+00,3.061797674841e+01,0.000000000000e+00
1121,8.425974851452e-01,3.123622339643e+01,0.000000000000e+00
1122,6.666644650471e-01,3.185499947161e+01,0.000000000000e+00
1123,4.939339828220e-01,3.247454415588e+01,0.000000000000e+00
1124,3.252795581546e-01,3.309506709396e+01,0.000000000000e+00
1125,1.614180701233e-01,3.371674033683e+01,0.000000000000e+00
1126,2.882207939515e-03,3.433969172991e+01,0.000000000000e+00
1127,-1.500000000000e-01,3.496400000000e+01,0.000000000000e+00
1128,-2.971177920605e-01,3.558969172991e+01,0.000000000000e+00
1129,-4.385819298767e-01,3.621674033683e+01,0.000000000000e+00
1130,-5.747204418454e-01,3.684506709396e+01,0.000000000000e+00
1131,-7.060660171780e-01,3.747454415588e+01,0.000000000000e+00
1132,-8.333355349529e-01,3.810499947161e+01,0.000000000000e+00
1133,-9.574025148548e-01,3.873622339643e+01,0.000000000000e+00
1134,-1.079263548302e+00,3.936797674841e+01,0.000000000000e+00
1135,-1.020736451698e+00,3.061797674841e+01,2.000000000000e+00
1136,-8.425974851452e-01,3.123622339643e+01,2.000000000000e+00
1137,-6.666644650471e-01,3.185499947161e+01,2.000000000000e+00
1138,-4.939339828220e-01,3.247454415588e+01,2.000000000000e+00
1139,-3.252795581546e-01,3.309506709396e+01,2.000000000000e+00
1140,-1.614180701233e-01,3.371674033683e+01,2.000000000000e+00
1141,-2.882207939515e-03,3.433969172991e+01,2.000000000000e+00
1142,1.500000000000e-01,3.496400000000e+01,2.000000000000e+00
1143,2.971177920605e-01,3.558969172991e+01,2.000000000000e+00
1144,4.385819298767e-01,3.621674033683e+01,2.000000000000e+00
1145,5.747204418454e-01,3.684506709396e+01,2.000000000000e+00
1146,7.060660171780e-01,3.747454415588e+01,2.000000000000e+00
1147,8.333355349529e-01,3.810499947161e+01,2.000000000000e+00
1148,9.574025148548e-01,3.873622339643e+01,2.000000000000e+00
1149,1.079263548302e+00,3.936797674841e+01,2.000000000000e+00
1150,1.020736451698e+00,3.061797674841e+01,2.000000000000e+00
1151,8.425974851452e-01,3.123622339643e+01,2.000000000000e+00
1152,6.666644650471e-01,3.185499947161e+01,2.000000000000e+00
1153,4.939339828220e-01,3.247454415588e+01,2.000000000000e+00
1154,3.252795581546e-01,3.309506709396e+01,2.000000000000e+00
1155,1.614180701233e-01,3.371674033683e+01,2.000000000000e+00
1156,2.882207939515e-03,3.433969172991e+01,2.000000000000e+00
1157,-1.500000000000e-01,3.496400000000e+01,2.000000000000e+00
1158,-2.971177920605e-01,3.558969172991e+01,2.000000000000e+00
1159,-4.385819298767e-01,3.621674033683e+01,2.000000000000e+00
1160,-5.747204418454e-01,3.684506709396e+01,2.000000000000e+00
1161,-7.060660171780e-01,3.747454415588e+01,2.000000000000e+00
1162,-8.333355349529e-01,3.810499947161e+01,2.000000000000e+00
1163,-9.574025148548e-01,3.873622339643e+01,2.000000000000e+00
1164,-1.079263548302e+00,3.936797674841e+01,2.000000000000e+00
1165,-1.200000000000e+00,4.063085270966e+01,9.573645169758e-02
1166,-1.200000000000e+00,4.126148050297e+01,1.925974851452e-01
1167,-1.200000000000e+00,4.189166710699e+01,2.916644650471e-01
1168,-1.200000000000e+00,4.252121320344e+01,3.939339828220e-01
1169,-1.200000000000e+00,4.314994408837e+01,5.002795581546e-01
1170,-1.200000000000e+00,4.377771638598e+01,6.114180701233e-01
1171,-1.200000000000e+00,4.440442355841e+01,7.278822079395e-01
1172,-1.200000000000e+00,4.503000000000e+01,8.500000000000e-01
1173,-1.200000000000e+00,4.565442355841e+01,9.778822079395e-01
1174,-1.200000000000e+00,4.627771638598e+01,1.111418070123e+00
1175,-1.200000000000e+00,4.689994408837e+01,1.250279558155e+00
1176,-1.200000000000e+00,4.752121320344e+01,1.393933982822e+00
1177,-1.200000000000e+00,4.814166710699e+01,1.541664465047e+00
1178,-1.200000000000e+00,4.876148050297e+01,1.692597485145e+00
1179,-1.200000000000e+00,4.938085270966e+01,1.845736451698e+00
1180,-1.200000000000e+00,4.063085270966e+01,1.904263548302e+00
1181,-1.200000000000e+00,4.126148050297e+01,1.807402514855e+00
1182,-1.200000000000e+00,4.189166710699e+01,1.708335534953e+00
1183,-1.200000000000e+00,4.252121320344e+01,1.606066017178e+00
1184,-1.200000000000e+00,4.314994408837e+01,1.499720441845e+00
1185,-1.200000000000e+00,4.377771638598e+01,1.388581929877e+00
1186,-1.200000000000e+00,4.440442355841e+01,1.272117792060e+00
1187,-1.200000000000e+00,4.503000000000e+01,1.150000000000e+00
1188,-1.200000000000e+00,4.565442355841e+01,1.022117792060e+00
1189,-1.200000000000e+00,4.627771638598e+01,8.885819298767e-01
1190,-1.200000000000e+00,4.689994408837e+01,7.497204418454e-01
1191,-1.200000000000e+00,4.752121320344e+01,6.060660171780e-01
1192,-1.200000000000e+00,4.814166710699e+01,4.583355349529e-01
1193,-1.200000000000e+00,4.876148050297e+01,3.074025148548e-01
1194,-1.200000000000e+00,4.938085270966e+01,1.542635483024e-01
1195,1.200000000000e+00,4.063085270966e+01,9.573645169758e-02
1196,1.200000000000e+00,4.126148050297e+01,1.925974851452e-01
1197,1.200000000000e+00,4.189166710699e+01,2.916644650471e-01
1198,1.200000000000e+00,4.252121320344e+01,3.939339828220e-01
1199,1.200000000000e+00,4.314994408837e+01,5.002795581546e-01
1200,1.200000000000e+00,4.377771638598e+01,6.114180701233e-01
1201,1.200000000000e+00,4.440442355841e+01,7.278822079395e-01
1202,1.200000000000e+00,4.503000000000e+01,8.500000000000e-01
1203,1.200000000000e+00,4.565442355841e+01,9.778822079395e-01
1204,1.200000000000e+00,4.627771638598e+01,1.111418070123e+00
1205,1.200000000000e+00,4.689994408837e+01,1.250279558155e+00
1206,1.200000000000e+00,4.752121320344e+01,1.393933982822e+00
1207,1.200000000000e+00,4.814166710699e+01,1.541664465047e+00
1208,1.200000000000e+00,4.876148050297e+01,1.692597485145e+00
1209,1.200000000000e+00,4.938085270966e+01,1.845736451698e+00
1210,1.200000000000e+00,4.063085270966e+01,1.904263548302e+00
1211,1.200000000000e+00,4.126148050297e+01,1.807402514855e+00
1212,1.200000000000e+00,4.189166710699e+01,1.708335534953e+00
1213,1.200000000000e+00,4.252121320344e+01,1.606066017178e+00
1214,1.200000000000e+00,4.314994408837e+01,1.499720441845e+00
1215,1.200000000000e+00,4.377771638598e+01,1.388581929877e+00
1216,1.200000000000e+00,4.440442355841e+01,1.272117792060e+00
1217,1.200000000000e+00,4.503000000000e+01,1.150000000000e+00
1218,1.200000000000e+00,4.565442355841e+01,1.022117792060e+00
1219,1.200000000000e+00,4.627771638598e+01,8.885819298767e-01
1220,1.200000000000e+00,4.689994408837e+01,7.497204418454e-01
1221,1.200000000000e+00,4.752121320344e+01,6.060660171780e-01
1222,1.200000000000e+00,4.814166710699e+01,4.583355349529e-01
1223,1.200000000000e+00,4.876148050297e+01,3.074025148548e-01
1224,1.200000000000e+00,4.938085270966e+01,1.542635483024e-01
1225,-1.020736451698e+00,4.061797674841e+01,0.000000000000e+00
1226,-8.425974851452e-01,4.123622339643e+01,0.000000000000e+00
1227,-6.666644650471e-01,4.185499947161e+01,0.000000000000e+00
1228,-4.939339828220e-01,4.247454415588e+01,0.000000000000e+00
1229,-3.252795581546e-01,4.309506709396e+01,0.000000000000e+00
1230,-1.614180701233e-01,4.371674033683e+01,0.000000000000e+00
1231,-2.882207939515e-03,4.433969172991e+01,0.000000000000e+00
1232,1.500000000000e-01,4.496400000000e+01,0.000000000000e+00
1233,2.971177920605e-01,4.558969172991e+01,0.000000000000e+00
1234,4.385819298767e-01,4.621674033683e+01,0.000000000000e+00
1235,5.747204418454e-01,4.684506709396e+01,0.000000000000e+00
1236,7.060660171780e-01,4.747454415588e+01,0.000000000000e+00
1237,8.333355349529e-01,4.810499947161e+01,0.000000000000e+00
1238,9.574025148548e-01,4.873622339643e+01,0.000000000000e+00
1239,1.079263548302e+00,4.936797674841e+01,0.000000000000e+00
1240,1.020736451698e+00,4.061797674841e+01,0.000000000000e+00
1241,8.425974851452e-01,4.123622339643e+01,0.000000000000e+00
1242,6.666644650471e-01,4.185499947161e+01,0.000000000000e+00
1243,4.939339828220e-01,4.247454415588e+01,0.000000000000e+00
1244,3.252795581546e-01,4.309506709396e+01,0.000000000000e+00
1245,1.614180701233e-01,4.371674033683e+01,0.000000000000e+00
1246,2.882207939515e-03,4.433969172991e+01,0.000000000000e+00
1247,-1.500000000000e-01,4.496400000000e+01,0.000000000000e+00
1248,-2.971177920605e-01,4.558969172991e+01,0.000000000000e+00
1249,-4.385819298767e-01,4.621674033683e+01,0.000000000000e+00
1250,-5.747204418454e-01,4.684506709396e+01,0.000000000000e+00
1251,-7.060660171780e-01,4.747454415588e+01,0.000000000000e+00
1252,-8.333355349529e-01,4.810499947161e+01,0.000000000000e+00
1253,-9.574025148548e-01,4.873622339643e+01,0.000000000000e+00
1254,-1.079263548302e+00,4.936797674841e+01,0.000000000000e+00
1255,-1.020736451698e+00,4.061797674841e+01,2.000000000000e+00
1256,-8.425974851452e-01,4.123622339643e+01,2.000000000000e+00
1257,-6.666644650471e-01,4.185499947161e+01,2.000000000000e+00
1258,-4.939339828220e-01,4.247454415588e+01,2.000000000000e+00
1259,-3.252795581546e-01,4.309506709396e+01,2.000000000000e+00
1260,-1.614180701233e-01,4.371674033683e+01,2.000000000000e+00
1261,-2.882207939515e-03,4.433969172991e+01,2.000000000000e+00
1262,1.500000000000e-01,4.496400000000e+01,2.000000000000e+00
1263,2.971177920605e-01,4.558969172991e+01,2.000000000000e+00
1264,4.385819298767e-01,4.621674033683e+01,2.000000000000e+00
1265,5.747204418454e-01,4.684506709396e+01,2.000000000000e+00
1266,7.060660171780e-01,4.747454415588e+01,2.000000000000e+00
1267,8.333355349529e-01,4.810499947161e+01,2.000000000000e+00
1268,9.574025148548e-01,4.873622339643e+01,2.000000000000e+00
1269,1.079263548302e+00,4.936797674841e+01,2.000000000000e+00
1270,1.020736451698e+00,4.061797674841e+01,2.000000000000e+00
1271,8.425974851452e-01,4.123622339643e+01,2.000000000000e+00
1272,6.666644650471e-01,4.185499947161e+01,2.000000000000e+00
1273,4.939339828220e-01,4.247454415588e+01,2.000000000000e+00
1274,3.252795581546e-01,4.309506709396e+01,2.000000000000e+00
1275,1.614180701233e-01,4.371674033683e+01,2.000000000000e+00
1276,2.882207939515e-03,4.433969172991e+01,2.000000000000e+00
1277,-1.500000000000e-01,4.496400000000e+01,2.000000000000e+00
1278,-2.971177920605e-01,4.558969172991e+01,2.000000000000e+00
1279,-4.385819298767e-01,4.621674033683e+01,2.000000000000e+00
1280,-5.747204418454e-01,4.684506709396e+01,2.000000000000e+00
1281,-7.060660171780e-01,4.747454415588e+01,2.000000000000e+00
1282,-8.333355349529e-01,4.810499947161e+01,2.000000000000e+00
1283,-9.574025148548e-01,4.873622339643e+01,2.000000000000e+00
1284,-1.079263548302e+00,4.936797674841e+01,2.000000000000e+00
*ELEMENT,TYPE=B31,ELSET=ALL
1,1,25
2,25,26
3,26,27
4,27,28
5,28,29
6,29,30
7,30,31
8,31,32
9,32,33
10,33,34
11,34,35
12,35,36
13,36,37
14,37,38
15,38,39
16,39,5
17,2,40
18,40,41
19,41,42
20,42,43
21,43,44
22,44,45
23,45,46
24,46,47
25,47,48
26,48,49
27,49,50
28,50,51
29,51,52
30,52,53
31,53,54
32,54,6
33,3,55
34,55,56
35,56,57
36,57,58
37,58,59
38,59,60
39,60,61
40,61,62
41,62,63
42,63,64
43,64,65
44,65,66
45,66,67
46,67,68
47,68,69
48,69,7
49,4,70
50,70,71
51,71,72
52,72,73
53,73,74
54,74,75
55,75,76
56,76,77
57,77,78
58,78,79
59,79,80
60,80,81
61,81,82
62,82,83
63,83,84
64,84,8
65,5,85
66,85,86
67,86,87
68,87,88
69,88,89
70,89,90
71,90,91
72,91,92
73,92,93
74,93,94
75,94,95
76,95,96
77,96,97
78,97,98
79,98,99
80,99,9
81,6,100
82,100,101
83,101,102
84,102,103
85,103,104
86,104,105
87,105,106
88,106,107
89,107,108
90,108,109
91,109,110
92,110,111
93,111,112
94,112,113
95,113,114
96,114,10
97,7,115
98,115,116
99,116,117
100,117,118
101,118,119
102,119,120
103,120,121
104,121,122
105,122,123
106,123,124
107,124,125
108,125,126
109,126,127
110,127,128
111,128,129
112,129,11
113,8,130
114,130,131
115,131,132
116,132,133
117,133,134
118,134,135
119,135,136
120,136,137
121,137,138
122,138,139
123,139,140
124,140,141
125,141,142
126,142,143
127,143,144
128,144,12
129,9,145
130,145,146
131,146,147
132,147,148
133,148,149
134,149,150
135,150,151
136,151,152
137,152,153
138,153,154
139,154,155
140,155,156
141,156,157
142,157,158
143,158,159
144,159,13
145,10,160
146,160,161
147,161,162
148,162,163
149,163,164
150,164,165
151,165,166
152,166,167
153,167,168
154,168,169
155,169,170
156,170,171
157,171,172
158,172,173
159,173,174
160,174,14
161,11,175
162,175,176
163,176,177
164,177,178
165,178,179
166,179,180
167,180,181
168,181,182
169,182,183
170,183,184
171,184,185
172,185,186
173,186,187
174,187,188
175,188,189
176,189,15
177,12,190
178,190,191
179,191,192
180,192,193
181,193,194
182,194,195
183,195,196
184,196,197
185,197,198
186,198,199
187,199,200
188,200,201
189,201,202
190,202,203
191,203,204
192,204,16
193,13,205
194,205,206
195,206,207
196,207,208
197,208,209
198,209,210
199,210,211
200,211,212
201,212,213
202,213,214
203,214,215
204,215,216
205,216,217
206,217,218
207,218,219
208,219,17
209,14,220
210,220,221
211,221,222
212,222,223
213,223,224
214,224,225
215,225,226
216,226,227
217,227,228
218,228,229
219,229,230
220,230,231
221,231,232
222,232,233
223,233,234
224,234,18
225,15,235
226,235,236
227,236,237
228,237,238
229,238,239
230,239,240
231,240,241
232,241,242
233,242,243
234,243,244
235,244,245
236,245,246
237,246,247
238,247,248
239,248,249
240,249,19
241,16,250
242,250,251
243,251,252
244,252,253
245,253,254
246,254,255
247,255,256
248,256,257
249,257,258
250,258,259
251,259,260
252,260,261
253,261,262
254,262,263
255,263,264
256,264,20
257,17,265
258,265,266
259,266,267
260,267,268
261,268,269
262,269,270
263,270,271
264,271,272
265,272,273
266,273,274
267,274,275
268,275,276
269,276,277
270,277,278
271,278,279
272,279,21
273,18,280
274,280,281
275,281,282
276,282,283
277,283,284
278,284,285
279,285,286
280,286,287
281,287,288
282,288,289
283,289,290
284,290,291
285,291,292
286,292,293
287,293,294
288,294,22
289,19,295
290,295,296
291,296,297
292,297,298
293,298,299
294,299,300
295,300,301
296,301,302
297,302,303
298,303,304
299,304,305
300,305,306
301,306,307
302,307,308
303,308,309
304,309,23
305,20,310
306,310,311
307,311,312
308,312,313
309,313,314
310,314,315
311,315,316
312,316,317
313,317,318
314,318,319
315,319,320
316,320,321
317,321,322
318,322,323
319,323,324
320,324,24
321,1,325
322,325,326
323,326,327
324,327,328
325,328,329
326,329,330
327,330,331
328,331,332
329,332,333
330,333,334
331,334,335
332,335,336
333,336,337
334,337,338
335,338,339
336,339,2
337,3,340
338,340,341
339,341,342
340,342,343
341,343,344
342,344,345
343,345,346
344,346,347
345,347,348
346,348,349
347,349,350
348,350,351
349,351,352
350,352,353
351,353,354
352,354,4
353,1,355
354,355,356
355,356,357
356,357,358
357,358,359
358,359,360
359,360,361
360,361,362
361,362,363
362,363,364
363,364,365
364,365,366
365,366,367
366,367,368
367,368,369
368,369,3
369,2,370
370,370,371
371,371,372
372,372,373
373,373,374
374,374,375
375,375,376
376,376,377
377,377,378
378,378,379
379,379,380
380,380,381
381,381,382
382,382,383
383,383,384
384,384,4
385,5,385
386,385,386
387,386,387
388,387,388
389,388,389
390,389,390
391,390,391
392,391,392
393,392,393
394,393,394
395,394,395
396,395,396
397,396,397
398,397,398
399,398,399
400,399,6
401,7,400
402,400,401
403,401,402
404,402,403
405,403,404
406,404,405
407,405,406
408,406,407
409,407,408
410,408,409
411,409,410
412,410,411
413,411,412
414,412,413
415,413,414
416,414,8
417,5,415
418,415,416
419,416,417
420,417,418
421,418,419
422,419,420
423,420,421
424,421,422
425,422,423
426,423,424
427,424,425
428,425,426
429,426,427
430,427,428
431,428,429
432,429,7
433,6,430
434,430,431
435,431,432
436,432,433
437,433,434
438,434,435
439,435,436
440,436,437
441,437,438
442,438,439
443,439,440
444,440,441
445,441,442
446,442,443
447,443,444
448,444,8
449,9,445
450,445,446
451,446,447
452,447,448
453,448,449
454,449,450
455,450,451
456,451,452
457,452,453
458,453,454
459,454,455
460,455,456
461,456,457
462,457,458
463,458,459
464,459,10
465,11,460
466,460,461
467,461,462
468,462,463
469,463,464
470,464,465
471,465,466
472,466,467
473,467,468
474,468,469
475,469,470
476,470,471
477,471,472
478,472,473
479,473,474
480,474,12
481,9,475
482,475,476
483,476,477
484,477,478
485,478,479
486,479,480
487,480,481
488,481,482
489,482,483
490,483,484
491,484,485
492,485,486
493,486,487
494,487,488
495,488,489
496,489,11
497,10,490
498,490,491
499,491,492
500,492,493
501,493,494
502,494,495
503,495,496
504,496,497
505,497,498
506,498,499
507,499,500
508,500,501
509,501,502
510,502,503
511,503,504
512,504,12
513,13,505
514,505,506
515,506,507
516,507,508
517,508,509
518,509,510
519,510,511
520,511,512
521,512,513
522,513,514
523,514,515
524,515,516
525,516,517
526,517,518
527,518,519
528,519,14
529,15,520
530,520,521
531,521,522
532,522,523
533,523,524
534,524,525
535,525,526
536,526,527
537,527,528
538,528,529
539,529,530
540,530,531
541,531,532
542,532,533
543,533,534
544,534,16
545,13,535
546,535,536
547,536,537
548,537,538
549,538,539
550,539,540
551,540,541
552,541,542
553,542,543
554,543,544
555,544,545
556,545,546
557,546,547
558,547,548
559,548,549
560,549,15
561,14,550
562,550,551
563,551,552
564,552,553
565,553,554
566,554,555
567,555,556
568,556,557
569,557,558
570,558,559
571,559,560
572,560,561
573,561,562
574,562,563
575,563,564
576,564,16
577,17,565
578,565,566
579,566,567
580,567,568
581,568,569
582,569,570
583,570,571
584,571,572
585,572,573
586,573,574
587,574,575
588,575,576
589,576,577
590,577,578
591,578,579
592,579,18
593,19,580
594,580,581
595,581,582
596,582,583
597,583,584
598,584,585
599,585,586
600,586,587
601,587,588
602,588,589
603,589,590
604,590,591
605,591,592
606,592,593
607,593,594
608,594,20
609,17,595
610,595,596
611,596,597
612,597,598
613,598,599
614,599,600
615,600,601
616,601,602
617,602,603
618,603,604
619,604,605
620,605,606
621,606,607
622,607,608
623,608,609
624,609,19
625,18,610
626,610,611
627,611,612
628,612,613
629,613,614
630,614,615
631,615,616
632,616,617
633,617,618
634,618,619
635,619,620
636,620,621
637,621,622
638,622,623
639,623,624
640,624,20
641,21,625
642,625,626
643,626,627
644,627,628
645,628,629
646,629,630
647,630,631
648,631,632
649,632,633
650,633,634
651,634,635
652,635,636
653,636,637
654,637,638
655,638,639
656,639,22
657,23,640
658,640,641
659,641,642
660,642,643
661,643,644
662,644,645
663,645,646
664,646,647
665,647,648
666,648,649
667,649,650
668,650,651
669,651,652
670,652,653
671,653,654
672,654,24
673,21,655
674,655,656
675,656,657
676,657,658
677,658,659
678,659,660
679,660,661
680,661,662
681,662,663
682,663,664
683,664,665
684,665,666
685,666,667
686,667,668
687,668,669
688,669,23
689,22,670
690,670,671
691,671,672
692,672,673
693,673,674
694,674,675
695,675,676
696,676,677
697,677,678
698,678,679
699,679,680
700,680,681
701,681,682
702,682,683
703,683,684
704,684,24
705,1,685
706,685,686
707,686,687
708,687,688
709,688,689
710,689,690
711,690,691
712,691,692
713,692,693
714,693,694
715,694,695
716,695,696
717,696,697
718,697,698
719,698,699
720,699,7
721,3,700
722,700,701
723,701,702
724,702,703
725,703,704
726,704,705
727,705,706
728,706,707
729,707,708
730,708,709
731,709,710
732,710,711
733,711,712
734,712,713
735,713,714
736,714,5
737,2,715
738,715,716
739,716,717
740,717,718
741,718,719
742,719,720
743,720,721
744,721,722
745,722,723
746,723,724
747,724,725
748,725,726
749,726,727
750,727,728
751,728,729
752,729,8
753,4,730
754,730,731
755,731,732
756,732,733
757,733,734
758,734,735
759,735,736
760,736,737
761,737,738
762,738,739
763,739,740
764,740,741
765,741,742
766,742,743
767,743,744
768,744,6
769,1,745
770,745,746
771,746,747
772,747,748
773,748,749
774,749,750
775,750,751
776,751,752
777,752,753
778,753,754
779,754,755
780,755,756
781,756,757
782,757,758
783,758,759
784,759,6
785,2,760
786,760,761
787,761,762
788,762,763
789,763,764
790,764,765
791,765,766
792,766,767
793,767,768
794,768,769
795,769,770
796,770,771
797,771,772
798,772,773
799,773,774
800,774,5
801,3,775
802,775,776
803,776,777
804,777,778
805,778,779
806,779,780
807,780,781
808,781,782
809,782,783
810,783,784
811,784,785
812,785,786
813,786,787
814,787,788
815,788,789
816,789,8
817,4,790
818,790,791
819,791,792
820,792,793
821,793,794
822,794,795
823,795,796
824,796,797
825,797,798
826,798,799
827,799,800
828,800,801
829,801,802
830,802,803
831,803,804
832,804,7
833,5,805
834,805,806
835,806,807
836,807,808
837,808,809
838,809,810
839,810,811
840,811,812
841,812,813
842,813,814
843,814,815
844,815,816
845,816,817
846,817,818
847,818,819
848,819,11
849,7,820
850,820,821
851,821,822
852,822,823
853,823,824
854,824,825
855,825,826
856,826,827
857,827,828
858,828,829
859,829,830
860,830,831
861,831,832
862,832,833
863,833,834
864,834,9
865,6,835
866,835,836
867,836,837
868,837,838
869,838,839
870,839,840
871,840,841
872,841,842
873,842,843
874,843,844
875,844,845
876,845,846
877,846,847
878,847,848
879,848,849
880,849,12
881,8,850
882,850,851
883,851,852
884,852,853
885,853,854
886,854,855
887,855,856
888,856,857
889,857,858
890,858,859
891,859,860
892,860,861
893,861,862
894,862,863
895,863,864
896,864,10
897,5,865
898,865,866
899,866,867
900,867,868
901,868,869
902,869,870
903,870,871
904,871,872
905,872,873
906,873,874
907,874,875
908,875,876
909,876,877
910,877,878
911,878,879
912,879,10
913,6,880
914,880,881
915,881,882
916,882,883
917,883,884
918,884,885
919,885,886
920,886,887
921,887,888
922,888,889
923,889,890
924,890,891
925,891,892
926,892,893
927,893,894
928,894,9
929,7,895
930,895,896
931,896,897
932,897,898
933,898,899
934,899,900
935,900,901
936,901,902
937,902,903
938,903,904
939,904,905
940,905,906
941,906,907
942,907,908
943,908,909
944,909,12
945,8,910
946,910,911
947,911,912
948,912,913
949,913,914
950,914,915
951,915,916
952,916,917
953,917,918
954,918,919
955,919,920
956,920,921
957,921,922
958,922,923
959,923,924
960,924,11
961,9,925
962,925,926
963,926,927
964,927,928
965,928,929
966,929,930
967,930,931
968,931,932
969,932,933
970,933,934
971,934,935
972,935,936
973,936,937
974,937,938
975,938,939
976,939,15
977,11,940
978,940,941
979,941,942
980,942,943
981,943,944
982,944,945
983,945,946
984,946,947
985,947,948
986,948,949
987,949,950
988,950,951
989,951,952
990,952,953
991,953,954
992,954,13
993,10,955
994,955,956
995,956,957
996,957,958
997,958,959
998,959,960
999,960,961
1000,961,962
1001,962,963
1002,963,964
1003,964,965
1004,965,966
1005,966,967
1006,967,968
1007,968,969
1008,969,16
1009,12,970
1010,970,971
1011,971,972
1012,972,973
1013,973,974
1014,974,975
1015,975,976
1016,976,977
1017,977,978
1018,978,979
1019,979,980
1020,980,981
1021,981,982
1022,982,983
1023,983,984
1024,984,14
1025,9,985
1026,985,986
1027,986,987
1028,987,988
1029,988,989
1030,989,990
1031,990,991
1032,991,992
1033,992,993
1034,993,994
1035,994,995
1036,995,996
1037,996,997
1038,997,998
1039,998,999
1040,999,14
1041,10,1000
1042,1000,1001
1043,1001,1002
1044,1002,1003
1045,1003,1004
1046,1004,1005
1047,1005,1006
1048,1006,1007
1049,1007,1008
1050,1008,1009
1051,1009,1010
1052,1010,1011
1053,1011,1012
1054,1012,1013
1055,1013,1014
1056,1014,13
1057,11,1015
1058,1015,1016
1059,1016,1017
1060,1017,1018
1061,1018,1019
1062,1019,1020
1063,1020,1021
1064,1021,1022
1065,1022,1023
1066,1023,1024
1067,1024,1025
1068,1025,1026
1069,1026,1027
1070,1027,1028
1071,1028,1029
1072,1029,16
1073,12,1030
1074,1030,1031
1075,1031,1032
1076,1032,1033
1077,1033,1034
1078,1034,1035
1079,1035,1036
1080,1036,1037
1081,1037,1038
1082,1038,1039
1083,1039,1040
1084,1040,1041
1085,1041,1042
1086,1042,1043
1087,1043,1044
1088,1044,15
1089,13,1045
1090,1045,1046
1091,1046,1047
1092,1047,1048
1093,1048,1049
1094,1049,1050
1095,1050,1051
1096,1051,1052
1097,1052,1053
1098,1053,1054
1099,1054,1055
1100,1055,1056
1101,1056,1057
1102,1057,1058
1103,1058,1059
1104,1059,19
1105,15,1060
1106,1060,1061
1107,1061,1062
1108,1062,1063
1109,1063,1064
1110,1064,1065
1111,1065,1066
1112,1066,1067
1113,1067,1068
1114,1068,1069
1115,1069,1070
1116,1070,1071
1117,1071,1072
1118,1072,1073
1119,1073,1074
1120,1074,17
1121,14,1075
1122,1075,1076
1123,1076,1077
1124,1077,1078
1125,1078,1079
1126,1079,1080
1127,1080,1081
1128,1081,1082
1129,1082,1083
1130,1083,1084
1131,1084,1085
1132,1085,1086
1133,1086,1087
1134,1087,1088
1135,1088,1089
1136,1089,20
1137,16,1090
1138,1090,1091
1139,1091,1092
1140,1092,1093
1141,1093,1094
1142,1094,1095
1143,1095,1096
1144,1096,1097
1145,1097,1098
1146,1098,1099
1147,1099,1100
1148,1100,1101
1149,1101,1102
1150,1102,1103
1151,1103,1104
1152,1104,18
1153,13,1105
1154,1105,1106
1155,1106,1107
1156,1107,1108
1157,1108,1109
1158,1109,1110
1159,1110,1111
1160,1111,1112
1161,1112,1113
1162,1113,1114
1163,1114,1115
1164,1115,1116
1165,1116,1117
1166,1117,1118
1167,1118,1119
1168,1119,18
1169,14,1120
1170,1120,1121
1171,1121,1122
1172,1122,1123
1173,1123,1124
1174,1124,1125
1175,1125,1126
1176,1126,1127
1177,1127,1128
1178,1128,1129
1179,1129,1130
1180,1130,1131
1181,1131,1132
1182,1132,1133
1183,1133,1134
1184,1134,17
1185,15,1135
1186,1135,1136
1187,1136,1137
1188,1137,1138
1189,1138,1139
1190,1139,1140
1191,1140,1141
1192,1141,1142
1193,1142,1143
1194,1143,1144
1195,1144,1145
1196,1145,1146
1197,1146,1147
1198,1147,1148
1199,1148,1149
1200,1149,20
1201,16,1150
1202,1150,1151
1203,1151,1152
1204,1152,1153
1205,1153,1154
1206,1154,1155
1207,1155,1156
1208,1156,1157
1209,1157,1158
1210,1158,1159
1211,1159,1160
1212,1160,1161
1213,1161,1162
1214,1162,1163
1215,1163,1164
1216,1164,19
1217,17,1165
1218,1165,1166
1219,1166,1167
1220,1167,1168
1221,1168,1169
1222,1169,1170
1223,1170,1171
1224,1171,1172
1225,1172,1173
1226,1173,1174
1227,1174,1175
1228,1175,1176
1229,1176,1177
1230,1177,1178
1231,1178,1179
1232,1179,23
1233,19,1180
1234,1180,1181
1235,1181,1182
1236,1182,1183
1237,1183,1184
1238,1184,1185
1239,1185,1186
1240,1186,1187
1241,1187,1188
1242,1188,1189
1243,1189,1190
1244,1190,1191
1245,1191,1192
1246,1192,1193
1247,1193,1194
1248,1194,21
1249,18,1195
1250,1195,1196
1251,1196,1197
1252,1197,1198
1253,1198,1199
1254,1199,1200
1255,1200,1201
1256,1201,1202
1257,1202,1203
1258,1203,1204
1259,1204,1205
1260,1205,1206
1261,1206,1207
1262,1207,1208
1263,1208,1209
1264,1209,24
1265,20,1210
1266,1210,1211
1267,1211,1212
1268,1212,1213
1269,1213,1214
1270,1214,1215
1271,1215,1216
1272,1216,1217
1273,1217,1218
1274,1218,1219
1275,1219,1220
1276,1220,1221
1277,1221,1222
1278,1222,1223
1279,1223,1224
1280,1224,22
1281,17,1225
1282,1225,1226
1283,1226,1227
1284,1227,1228
1285,1228,1229
1286,1229,1230
1287,1230,1231
1288,1231,1232
1289,1232,1233
1290,1233,1234
1291,1234,1235
1292,1235,1236
1293,1236,1237
1294,1237,1238
1295,1238,1239
1296,1239,22
1297,18,1240
1298,1240,1241
1299,1241,1242
1300,1242,1243
1301,1243,1244
1302,1244,1245
1303,1245,1246
1304,1246,1247
1305,1247,1248
1306,1248,1249
1307,1249,1250
1308,1250,1251
1309,1251,1252
1310,1252,1253
1311,1253,1254
1312,1254,21
1313,19,1255
1314,1255,1256
1315,1256,1257
1316,1257,1258
1317,1258,1259
1318,1259,1260
1319,1260,1261
1320,1261,1262
1321,1262,1263
1322,1263,1264
1323,1264,1265
1324,1265,1266
1325,1266,1267
1326,1267,1268
1327,1268,1269
1328,1269,24
1329,20,1270
1330,1270,1271
1331,1271,1272
1332,1272,1273
1333,1273,1274
1334,1274,1275
1335,1275,1276
1336,1276,1277
1337,1277,1278
1338,1278,1279
1339,1279,1280
1340,1280,1281
1341,1281,1282
1342,1282,1283
1343,1283,1284
1344,1284,23
*NSET,NSET=NALL,GENERATE
1,1284,1
*NSET,NSET=LEFT
1,2,3,4
*NSET,NSET=RIGHT
21,22,23,24
*MATERIAL,NAME=STEEL
*ELASTIC
2.100000000000e+11,0.300000000000
*BEAM SECTION,ELSET=ALL,MATERIAL=STEEL,SECTION=RECT
6.000000000000e-02,4.000000000000e-02
0.371390676354,0.557086014531,0.742781352708
*BOUNDARY
LEFT,1,6,0.0
*STEP
*STATIC
*BOUNDARY
21,1,1,5.000000000000e-03
21,2,2,0.0
21,3,3,-6.000000000000e-03
*BOUNDARY
22,1,1,5.000000000000e-03
22,2,2,0.0
22,3,3,6.000000000000e-03
*BOUNDARY
23,1,1,-5.000000000000e-03
23,2,2,0.0
23,3,3,-6.000000000000e-03
*BOUNDARY
24,1,1,-5.000000000000e-03
24,2,2,0.0
24,3,3,6.000000000000e-03
*NODE FILE,NSET=NALL
U
*NODE PRINT,NSET=NALL
U
*NODE PRINT,NSET=RIGHT
RF
*EL PRINT,ELSET=ALL,TOTALS=YES
ELSE
*END STEP
