*HEADING
Normalized cross-passage space-truss torsion benchmark
*NODE
1,-1.200000000000e+00,0.000000000000e+00,0.000000000000e+00
2,1.200000000000e+00,0.000000000000e+00,0.000000000000e+00
3,-1.200000000000e+00,0.000000000000e+00,2.000000000000e+00
4,1.200000000000e+00,0.000000000000e+00,2.000000000000e+00
5,-1.200000000000e+00,1.000000000000e+01,0.000000000000e+00
6,1.200000000000e+00,1.000000000000e+01,0.000000000000e+00
7,-1.200000000000e+00,1.000000000000e+01,2.000000000000e+00
8,1.200000000000e+00,1.000000000000e+01,2.000000000000e+00
9,-1.200000000000e+00,2.000000000000e+01,0.000000000000e+00
10,1.200000000000e+00,2.000000000000e+01,0.000000000000e+00
11,-1.200000000000e+00,2.000000000000e+01,2.000000000000e+00
12,1.200000000000e+00,2.000000000000e+01,2.000000000000e+00
13,-1.200000000000e+00,3.000000000000e+01,0.000000000000e+00
14,1.200000000000e+00,3.000000000000e+01,0.000000000000e+00
15,-1.200000000000e+00,3.000000000000e+01,2.000000000000e+00
16,1.200000000000e+00,3.000000000000e+01,2.000000000000e+00
17,-1.200000000000e+00,4.000000000000e+01,0.000000000000e+00
18,1.200000000000e+00,4.000000000000e+01,0.000000000000e+00
19,-1.200000000000e+00,4.000000000000e+01,2.000000000000e+00
20,1.200000000000e+00,4.000000000000e+01,2.000000000000e+00
21,-1.200000000000e+00,5.000000000000e+01,0.000000000000e+00
22,1.200000000000e+00,5.000000000000e+01,0.000000000000e+00
23,-1.200000000000e+00,5.000000000000e+01,2.000000000000e+00
24,1.200000000000e+00,5.000000000000e+01,2.000000000000e+00
25,-1.200000000000e+00,2.500000000000e+01,-1.500000000000e-01
26,1.200000000000e+00,2.500000000000e+01,1.500000000000e-01
27,-1.200000000000e+00,2.500000000000e+01,1.850000000000e+00
28,1.200000000000e+00,2.500000000000e+01,2.150000000000e+00
29,-1.200000000000e+00,3.250000000000e+01,-1.060660171780e-01
30,-1.200000000000e+00,3.500000000000e+01,-1.500000000000e-01
31,-1.200000000000e+00,3.750000000000e+01,-1.060660171780e-01
32,1.200000000000e+00,3.250000000000e+01,1.060660171780e-01
33,1.200000000000e+00,3.500000000000e+01,1.500000000000e-01
34,1.200000000000e+00,3.750000000000e+01,1.060660171780e-01
35,-1.200000000000e+00,3.250000000000e+01,1.893933982822e+00
36,-1.200000000000e+00,3.500000000000e+01,1.850000000000e+00
37,-1.200000000000e+00,3.750000000000e+01,1.893933982822e+00
38,1.200000000000e+00,3.250000000000e+01,2.106066017178e+00
39,1.200000000000e+00,3.500000000000e+01,2.150000000000e+00
40,1.200000000000e+00,3.750000000000e+01,2.106066017178e+00
41,-1.200000000000e+00,4.125000000000e+01,-5.740251485476e-02
42,-1.200000000000e+00,4.250000000000e+01,-1.060660171780e-01
43,-1.200000000000e+00,4.375000000000e+01,-1.385819298767e-01
44,-1.200000000000e+00,4.500000000000e+01,-1.500000000000e-01
45,-1.200000000000e+00,4.625000000000e+01,-1.385819298767e-01
46,-1.200000000000e+00,4.750000000000e+01,-1.060660171780e-01
47,-1.200000000000e+00,4.875000000000e+01,-5.740251485476e-02
48,1.200000000000e+00,4.125000000000e+01,5.740251485476e-02
49,1.200000000000e+00,4.250000000000e+01,1.060660171780e-01
50,1.200000000000e+00,4.375000000000e+01,1.385819298767e-01
51,1.200000000000e+00,4.500000000000e+01,1.500000000000e-01
52,1.200000000000e+00,4.625000000000e+01,1.385819298767e-01
53,1.200000000000e+00,4.750000000000e+01,1.060660171780e-01
54,1.200000000000e+00,4.875000000000e+01,5.740251485476e-02
55,-1.200000000000e+00,4.125000000000e+01,1.942597485145e+00
56,-1.200000000000e+00,4.250000000000e+01,1.893933982822e+00
57,-1.200000000000e+00,4.375000000000e+01,1.861418070123e+00
58,-1.200000000000e+00,4.500000000000e+01,1.850000000000e+00
59,-1.200000000000e+00,4.625000000000e+01,1.861418070123e+00
60,-1.200000000000e+00,4.750000000000e+01,1.893933982822e+00
61,-1.200000000000e+00,4.875000000000e+01,1.942597485145e+00
62,1.200000000000e+00,4.125000000000e+01,2.057402514855e+00
63,1.200000000000e+00,4.250000000000e+01,2.106066017178e+00
64,1.200000000000e+00,4.375000000000e+01,2.138581929877e+00
65,1.200000000000e+00,4.500000000000e+01,2.150000000000e+00
66,1.200000000000e+00,4.625000000000e+01,2.138581929877e+00
67,1.200000000000e+00,4.750000000000e+01,2.106066017178e+00
68,1.200000000000e+00,4.875000000000e+01,2.057402514855e+00
69,-6.000000000000e-01,-2.545584412272e-02,0.000000000000e+00
70,0.000000000000e+00,-3.600000000000e-02,0.000000000000e+00
71,6.000000000000e-01,-2.545584412272e-02,0.000000000000e+00
72,-6.000000000000e-01,2.545584412272e-02,2.000000000000e+00
73,0.000000000000e+00,3.600000000000e-02,2.000000000000e+00
74,6.000000000000e-01,2.545584412272e-02,2.000000000000e+00
75,-1.200000000000e+00,2.121320343560e-02,5.000000000000e-01
76,-1.200000000000e+00,3.000000000000e-02,1.000000000000e+00
77,-1.200000000000e+00,2.121320343560e-02,1.500000000000e+00
78,1.200000000000e+00,-2.121320343560e-02,5.000000000000e-01
79,1.200000000000e+00,-3.000000000000e-02,1.000000000000e+00
80,1.200000000000e+00,-2.121320343560e-02,1.500000000000e+00
81,0.000000000000e+00,1.996400000000e+01,0.000000000000e+00
82,0.000000000000e+00,2.003600000000e+01,2.000000000000e+00
83,-1.200000000000e+00,2.003000000000e+01,1.000000000000e+00
84,1.200000000000e+00,1.997000000000e+01,1.000000000000e+00
85,-6.000000000000e-01,3.997454415588e+01,0.000000000000e+00
86,0.000000000000e+00,3.996400000000e+01,0.000000000000e+00
87,6.000000000000e-01,3.997454415588e+01,0.000000000000e+00
88,-6.000000000000e-01,4.002545584412e+01,2.000000000000e+00
89,0.000000000000e+00,4.003600000000e+01,2.000000000000e+00
90,6.000000000000e-01,4.002545584412e+01,2.000000000000e+00
91,-1.200000000000e+00,4.002121320344e+01,5.000000000000e-01
92,-1.200000000000e+00,4.003000000000e+01,1.000000000000e+00
93,-1.200000000000e+00,4.002121320344e+01,1.500000000000e+00
94,1.200000000000e+00,3.997878679656e+01,5.000000000000e-01
95,1.200000000000e+00,3.997000000000e+01,1.000000000000e+00
96,1.200000000000e+00,3.997878679656e+01,1.500000000000e+00
97,-9.000000000000e-01,4.998622339643e+01,0.000000000000e+00
98,-6.000000000000e-01,4.997454415588e+01,0.000000000000e+00
99,-3.000000000000e-01,4.996674033683e+01,0.000000000000e+00
100,0.000000000000e+00,4.996400000000e+01,0.000000000000e+00
101,3.000000000000e-01,4.996674033683e+01,0.000000000000e+00
102,6.000000000000e-01,4.997454415588e+01,0.000000000000e+00
103,9.000000000000e-01,4.998622339643e+01,0.000000000000e+00
104,-9.000000000000e-01,5.001377660357e+01,2.000000000000e+00
105,-6.000000000000e-01,5.002545584412e+01,2.000000000000e+00
106,-3.000000000000e-01,5.003325966317e+01,2.000000000000e+00
107,0.000000000000e+00,5.003600000000e+01,2.000000000000e+00
108,3.000000000000e-01,5.003325966317e+01,2.000000000000e+00
109,6.000000000000e-01,5.002545584412e+01,2.000000000000e+00
110,9.000000000000e-01,5.001377660357e+01,2.000000000000e+00
111,-1.200000000000e+00,5.001148050297e+01,2.500000000000e-01
112,-1.200000000000e+00,5.002121320344e+01,5.000000000000e-01
113,-1.200000000000e+00,5.002771638598e+01,7.500000000000e-01
114,-1.200000000000e+00,5.003000000000e+01,1.000000000000e+00
115,-1.200000000000e+00,5.002771638598e+01,1.250000000000e+00
116,-1.200000000000e+00,5.002121320344e+01,1.500000000000e+00
117,-1.200000000000e+00,5.001148050297e+01,1.750000000000e+00
118,1.200000000000e+00,4.998851949703e+01,2.500000000000e-01
119,1.200000000000e+00,4.997878679656e+01,5.000000000000e-01
120,1.200000000000e+00,4.997228361402e+01,7.500000000000e-01
121,1.200000000000e+00,4.997000000000e+01,1.000000000000e+00
122,1.200000000000e+00,4.997228361402e+01,1.250000000000e+00
123,1.200000000000e+00,4.997878679656e+01,1.500000000000e+00
124,1.200000000000e+00,4.998851949703e+01,1.750000000000e+00
125,-1.200000000000e+00,5.030000000000e+00,8.500000000000e-01
126,-1.200000000000e+00,5.030000000000e+00,1.150000000000e+00
127,1.200000000000e+00,5.030000000000e+00,8.500000000000e-01
128,1.200000000000e+00,5.030000000000e+00,1.150000000000e+00
129,1.500000000000e-01,4.964000000000e+00,0.000000000000e+00
130,-1.500000000000e-01,4.964000000000e+00,0.000000000000e+00
131,1.500000000000e-01,4.964000000000e+00,2.000000000000e+00
132,-1.500000000000e-01,4.964000000000e+00,2.000000000000e+00
133,-1.200000000000e+00,1.503000000000e+01,8.500000000000e-01
134,-1.200000000000e+00,1.503000000000e+01,1.150000000000e+00
135,1.200000000000e+00,1.503000000000e+01,8.500000000000e-01
136,1.200000000000e+00,1.503000000000e+01,1.150000000000e+00
137,1.500000000000e-01,1.496400000000e+01,0.000000000000e+00
138,-1.500000000000e-01,1.496400000000e+01,0.000000000000e+00
139,1.500000000000e-01,1.496400000000e+01,2.000000000000e+00
140,-1.500000000000e-01,1.496400000000e+01,2.000000000000e+00
141,-1.200000000000e+00,4.126148050297e+01,1.925974851452e-01
142,-1.200000000000e+00,4.252121320344e+01,3.939339828220e-01
143,-1.200000000000e+00,4.377771638598e+01,6.114180701233e-01
144,-1.200000000000e+00,4.503000000000e+01,8.500000000000e-01
145,-1.200000000000e+00,4.627771638598e+01,1.111418070123e+00
146,-1.200000000000e+00,4.752121320344e+01,1.393933982822e+00
147,-1.200000000000e+00,4.876148050297e+01,1.692597485145e+00
148,-1.200000000000e+00,4.126148050297e+01,1.807402514855e+00
149,-1.200000000000e+00,4.252121320344e+01,1.606066017178e+00
150,-1.200000000000e+00,4.377771638598e+01,1.388581929877e+00
151,-1.200000000000e+00,4.503000000000e+01,1.150000000000e+00
152,-1.200000000000e+00,4.627771638598e+01,8.885819298767e-01
153,-1.200000000000e+00,4.752121320344e+01,6.060660171780e-01
154,-1.200000000000e+00,4.876148050297e+01,3.074025148548e-01
155,1.200000000000e+00,4.126148050297e+01,1.925974851452e-01
156,1.200000000000e+00,4.252121320344e+01,3.939339828220e-01
157,1.200000000000e+00,4.377771638598e+01,6.114180701233e-01
158,1.200000000000e+00,4.503000000000e+01,8.500000000000e-01
159,1.200000000000e+00,4.627771638598e+01,1.111418070123e+00
160,1.200000000000e+00,4.752121320344e+01,1.393933982822e+00
161,1.200000000000e+00,4.876148050297e+01,1.692597485145e+00
162,1.200000000000e+00,4.126148050297e+01,1.807402514855e+00
163,1.200000000000e+00,4.252121320344e+01,1.606066017178e+00
164,1.200000000000e+00,4.377771638598e+01,1.388581929877e+00
165,1.200000000000e+00,4.503000000000e+01,1.150000000000e+00
166,1.200000000000e+00,4.627771638598e+01,8.885819298767e-01
167,1.200000000000e+00,4.752121320344e+01,6.060660171780e-01
168,1.200000000000e+00,4.876148050297e+01,3.074025148548e-01
169,-8.425974851452e-01,4.123622339643e+01,0.000000000000e+00
170,-4.939339828220e-01,4.247454415588e+01,0.000000000000e+00
171,-1.614180701233e-01,4.371674033683e+01,0.000000000000e+00
172,1.500000000000e-01,4.496400000000e+01,0.000000000000e+00
173,4.385819298767e-01,4.621674033683e+01,0.000000000000e+00
174,7.060660171780e-01,4.747454415588e+01,0.000000000000e+00
175,9.574025148548e-01,4.873622339643e+01,0.000000000000e+00
176,8.425974851452e-01,4.123622339643e+01,0.000000000000e+00
177,4.939339828220e-01,4.247454415588e+01,0.000000000000e+00
178,1.614180701233e-01,4.371674033683e+01,0.000000000000e+00
179,-1.500000000000e-01,4.496400000000e+01,0.000000000000e+00
180,-4.385819298767e-01,4.621674033683e+01,0.000000000000e+00
181,-7.060660171780e-01,4.747454415588e+01,0.000000000000e+00
182,-9.574025148548e-01,4.873622339643e+01,0.000000000000e+00
183,-8.425974851452e-01,4.123622339643e+01,2.000000000000e+00
184,-4.939339828220e-01,4.247454415588e+01,2.000000000000e+00
185,-1.614180701233e-01,4.371674033683e+01,2.000000000000e+00
186,1.500000000000e-01,4.496400000000e+01,2.000000000000e+00
187,4.385819298767e-01,4.621674033683e+01,2.000000000000e+00
188,7.060660171780e-01,4.747454415588e+01,2.000000000000e+00
189,9.574025148548e-01,4.873622339643e+01,2.000000000000e+00
190,8.425974851452e-01,4.123622339643e+01,2.000000000000e+00
191,4.939339828220e-01,4.247454415588e+01,2.000000000000e+00
192,1.614180701233e-01,4.371674033683e+01,2.000000000000e+00
193,-1.500000000000e-01,4.496400000000e+01,2.000000000000e+00
194,-4.385819298767e-01,4.621674033683e+01,2.000000000000e+00
195,-7.060660171780e-01,4.747454415588e+01,2.000000000000e+00
196,-9.574025148548e-01,4.873622339643e+01,2.000000000000e+00
*ELEMENT,TYPE=B31,ELSET=ALL
1,1,5
2,2,6
3,3,7
4,4,8
5,5,9
6,6,10
7,7,11
8,8,12
9,9,25
10,25,13
11,10,26
12,26,14
13,11,27
14,27,15
15,12,28
16,28,16
17,13,29
18,29,30
19,30,31
20,31,17
21,14,32
22,32,33
23,33,34
24,34,18
25,15,35
26,35,36
27,36,37
28,37,19
29,16,38
30,38,39
31,39,40
32,40,20
33,17,41
34,41,42
35,42,43
36,43,44
37,44,45
38,45,46
39,46,47
40,47,21
41,18,48
42,48,49
43,49,50
44,50,51
45,51,52
46,52,53
47,53,54
48,54,22
49,19,55
50,55,56
51,56,57
52,57,58
53,58,59
54,59,60
55,60,61
56,61,23
57,20,62
58,62,63
59,63,64
60,64,65
61,65,66
62,66,67
63,67,68
64,68,24
65,1,69
66,69,70
67,70,71
68,71,2
69,3,72
70,72,73
71,73,74
72,74,4
73,1,75
74,75,76
75,76,77
76,77,3
77,2,78
78,78,79
79,79,80
80,80,4
81,5,6
82,7,8
83,5,7
84,6,8
85,9,81
86,81,10
87,11,82
88,82,12
89,9,83
90,83,11
91,10,84
92,84,12
93,13,14
94,15,16
95,13,15
96,14,16
97,17,85
98,85,86
99,86,87
100,87,18
101,19,88
102,88,89
103,89,90
104,90,20
105,17,91
106,91,92
107,92,93
108,93,19
109,18,94
110,94,95
111,95,96
112,96,20
113,21,97
114,97,98
115,98,99
116,99,100
117,100,101
118,101,102
119,102,103
120,103,22
121,23,104
122,104,105
123,105,106
124,106,107
125,107,108
126,108,109
127,109,110
128,110,24
129,21,111
130,111,112
131,112,113
132,113,114
133,114,115
134,115,116
135,116,117
136,117,23
137,22,118
138,118,119
139,119,120
140,120,121
141,121,122
142,122,123
143,123,124
144,124,24
145,1,125
146,125,7
147,3,126
148,126,5
149,2,127
150,127,8
151,4,128
152,128,6
153,1,129
154,129,6
155,2,130
156,130,5
157,3,131
158,131,8
159,4,132
160,132,7
161,5,133
162,133,11
163,7,134
164,134,9
165,6,135
166,135,12
167,8,136
168,136,10
169,5,137
170,137,10
171,6,138
172,138,9
173,7,139
174,139,12
175,8,140
176,140,11
177,9,15
178,11,13
179,10,16
180,12,14
181,9,14
182,10,13
183,11,16
184,12,15
185,13,19
186,15,17
187,14,20
188,16,18
189,13,18
190,14,17
191,15,20
192,16,19
193,17,141
194,141,142
195,142,143
196,143,144
197,144,145
198,145,146
199,146,147
200,147,23
201,19,148
202,148,149
203,149,150
204,150,151
205,151,152
206,152,153
207,153,154
208,154,21
209,18,155
210,155,156
211,156,157
212,157,158
213,158,159
214,159,160
215,160,161
216,161,24
217,20,162
218,162,163
219,163,164
220,164,165
221,165,166
222,166,167
223,167,168
224,168,22
225,17,169
226,169,170
227,170,171
228,171,172
229,172,173
230,173,174
231,174,175
232,175,22
233,18,176
234,176,177
235,177,178
236,178,179
237,179,180
238,180,181
239,181,182
240,182,21
241,19,183
242,183,184
243,184,185
244,185,186
245,186,187
246,187,188
247,188,189
248,189,24
249,20,190
250,190,191
251,191,192
252,192,193
253,193,194
254,194,195
255,195,196
256,196,23
*NSET,NSET=NALL,GENERATE
1,196,1
*NSET,NSET=LEFT
1,2,3,4
*NSET,NSET=RIGHT
21,22,23,24
*MATERIAL,NAME=STEEL
*ELASTIC
2.100000000000e+11,0.300000000000
*BEAM SECTION,ELSET=ALL,MATERIAL=STEEL,SECTION=RECT
6.000000000000e-02,4.000000000000e-02
0.371390676354,0.557086014531,0.742781352708
*BOUNDARY
LEFT,1,6,0.0
*STEP
*STATIC
*BOUNDARY
21,1,1,5.000000000000e-03
21,2,2,0.0
21,3,3,-6.000000000000e-03
*BOUNDARY
22,1,1,5.000000000000e-03
22,2,2,0.0
22,3,3,6.000000000000e-03
*BOUNDARY
23,1,1,-5.000000000000e-03
23,2,2,0.0
23,3,3,-6.000000000000e-03
*BOUNDARY
24,1,1,-5.000000000000e-03
24,2,2,0.0
24,3,3,6.000000000000e-03
*NODE FILE,NSET=NALL
U
*NODE PRINT,NSET=NALL
U
*NODE PRINT,NSET=RIGHT
RF
*EL PRINT,ELSET=ALL,TOTALS=YES
ELSE
*END STEP
