*HEADING
Normalized cross-passage space-truss torsion benchmark
*NODE
1,-1.200000000000e+00,0.000000000000e+00,0.000000000000e+00
2,1.200000000000e+00,0.000000000000e+00,0.000000000000e+00
3,-1.200000000000e+00,0.000000000000e+00,2.000000000000e+00
4,1.200000000000e+00,0.000000000000e+00,2.000000000000e+00
5,-1.200000000000e+00,1.000000000000e+01,0.000000000000e+00
6,1.200000000000e+00,1.000000000000e+01,0.000000000000e+00
7,-1.200000000000e+00,1.000000000000e+01,2.000000000000e+00
8,1.200000000000e+00,1.000000000000e+01,2.000000000000e+00
9,-1.200000000000e+00,2.000000000000e+01,0.000000000000e+00
10,1.200000000000e+00,2.000000000000e+01,0.000000000000e+00
11,-1.200000000000e+00,2.000000000000e+01,2.000000000000e+00
12,1.200000000000e+00,2.000000000000e+01,2.000000000000e+00
13,-1.200000000000e+00,3.000000000000e+01,0.000000000000e+00
14,1.200000000000e+00,3.000000000000e+01,0.000000000000e+00
15,-1.200000000000e+00,3.000000000000e+01,2.000000000000e+00
16,1.200000000000e+00,3.000000000000e+01,2.000000000000e+00
17,-1.200000000000e+00,4.000000000000e+01,0.000000000000e+00
18,1.200000000000e+00,4.000000000000e+01,0.000000000000e+00
19,-1.200000000000e+00,4.000000000000e+01,2.000000000000e+00
20,1.200000000000e+00,4.000000000000e+01,2.000000000000e+00
21,-1.200000000000e+00,5.000000000000e+01,0.000000000000e+00
22,1.200000000000e+00,5.000000000000e+01,0.000000000000e+00
23,-1.200000000000e+00,5.000000000000e+01,2.000000000000e+00
24,1.200000000000e+00,5.000000000000e+01,2.000000000000e+00
25,-1.200000000000e+00,5.000000000000e+00,-1.500000000000e-01
26,1.200000000000e+00,5.000000000000e+00,1.500000000000e-01
27,-1.200000000000e+00,5.000000000000e+00,1.850000000000e+00
28,1.200000000000e+00,5.000000000000e+00,2.150000000000e+00
29,-1.200000000000e+00,1.500000000000e+01,-1.500000000000e-01
30,1.200000000000e+00,1.500000000000e+01,1.500000000000e-01
31,-1.200000000000e+00,1.500000000000e+01,1.850000000000e+00
32,1.200000000000e+00,1.500000000000e+01,2.150000000000e+00
33,-1.200000000000e+00,2.500000000000e+01,-1.500000000000e-01
34,1.200000000000e+00,2.500000000000e+01,1.500000000000e-01
35,-1.200000000000e+00,2.500000000000e+01,1.850000000000e+00
36,1.200000000000e+00,2.500000000000e+01,2.150000000000e+00
37,-1.200000000000e+00,3.500000000000e+01,-1.500000000000e-01
38,1.200000000000e+00,3.500000000000e+01,1.500000000000e-01
39,-1.200000000000e+00,3.500000000000e+01,1.850000000000e+00
40,1.200000000000e+00,3.500000000000e+01,2.150000000000e+00
41,-1.200000000000e+00,4.500000000000e+01,-1.500000000000e-01
42,1.200000000000e+00,4.500000000000e+01,1.500000000000e-01
43,-1.200000000000e+00,4.500000000000e+01,1.850000000000e+00
44,1.200000000000e+00,4.500000000000e+01,2.150000000000e+00
45,0.000000000000e+00,-3.600000000000e-02,0.000000000000e+00
46,0.000000000000e+00,3.600000000000e-02,2.000000000000e+00
47,-1.200000000000e+00,3.000000000000e-02,1.000000000000e+00
48,1.200000000000e+00,-3.000000000000e-02,1.000000000000e+00
49,0.000000000000e+00,9.964000000000e+00,0.000000000000e+00
50,0.000000000000e+00,1.003600000000e+01,2.000000000000e+00
51,-1.200000000000e+00,1.003000000000e+01,1.000000000000e+00
52,1.200000000000e+00,9.970000000000e+00,1.000000000000e+00
53,0.000000000000e+00,1.996400000000e+01,0.000000000000e+00
54,0.000000000000e+00,2.003600000000e+01,2.000000000000e+00
55,-1.200000000000e+00,2.003000000000e+01,1.000000000000e+00
56,1.200000000000e+00,1.997000000000e+01,1.000000000000e+00
57,0.000000000000e+00,2.996400000000e+01,0.000000000000e+00
58,0.000000000000e+00,3.003600000000e+01,2.000000000000e+00
59,-1.200000000000e+00,3.003000000000e+01,1.000000000000e+00
60,1.200000000000e+00,2.997000000000e+01,1.000000000000e+00
61,0.000000000000e+00,3.996400000000e+01,0.000000000000e+00
62,0.000000000000e+00,4.003600000000e+01,2.000000000000e+00
63,-1.200000000000e+00,4.003000000000e+01,1.000000000000e+00
64,1.200000000000e+00,3.997000000000e+01,1.000000000000e+00
65,0.000000000000e+00,4.996400000000e+01,0.000000000000e+00
66,0.000000000000e+00,5.003600000000e+01,2.000000000000e+00
67,-1.200000000000e+00,5.003000000000e+01,1.000000000000e+00
68,1.200000000000e+00,4.997000000000e+01,1.000000000000e+00
69,-1.200000000000e+00,1.261480502971e+00,1.925974851452e-01
70,-1.200000000000e+00,2.521213203436e+00,3.939339828220e-01
71,-1.200000000000e+00,3.777716385975e+00,6.114180701233e-01
72,-1.200000000000e+00,5.030000000000e+00,8.500000000000e-01
73,-1.200000000000e+00,6.277716385975e+00,1.111418070123e+00
74,-1.200000000000e+00,7.521213203436e+00,1.393933982822e+00
75,-1.200000000000e+00,8.761480502971e+00,1.692597485145e+00
76,-1.200000000000e+00,1.261480502971e+00,1.807402514855e+00
77,-1.200000000000e+00,2.521213203436e+00,1.606066017178e+00
78,-1.200000000000e+00,3.777716385975e+00,1.388581929877e+00
79,-1.200000000000e+00,5.030000000000e+00,1.150000000000e+00
80,-1.200000000000e+00,6.277716385975e+00,8.885819298767e-01
81,-1.200000000000e+00,7.521213203436e+00,6.060660171780e-01
82,-1.200000000000e+00,8.761480502971e+00,3.074025148548e-01
83,1.200000000000e+00,1.261480502971e+00,1.925974851452e-01
84,1.200000000000e+00,2.521213203436e+00,3.939339828220e-01
85,1.200000000000e+00,3.777716385975e+00,6.114180701233e-01
86,1.200000000000e+00,5.030000000000e+00,8.500000000000e-01
87,1.200000000000e+00,6.277716385975e+00,1.111418070123e+00
88,1.200000000000e+00,7.521213203436e+00,1.393933982822e+00
89,1.200000000000e+00,8.761480502971e+00,1.692597485145e+00
90,1.200000000000e+00,1.261480502971e+00,1.807402514855e+00
91,1.200000000000e+00,2.521213203436e+00,1.606066017178e+00
92,1.200000000000e+00,3.777716385975e+00,1.388581929877e+00
93,1.200000000000e+00,5.030000000000e+00,1.150000000000e+00
94,1.200000000000e+00,6.277716385975e+00,8.885819298767e-01
95,1.200000000000e+00,7.521213203436e+00,6.060660171780e-01
96,1.200000000000e+00,8.761480502971e+00,3.074025148548e-01
97,-8.425974851452e-01,1.236223396435e+00,0.000000000000e+00
98,-4.939339828220e-01,2.474544155877e+00,0.000000000000e+00
99,-1.614180701233e-01,3.716740336830e+00,0.000000000000e+00
100,1.500000000000e-01,4.964000000000e+00,0.000000000000e+00
101,4.385819298767e-01,6.216740336830e+00,0.000000000000e+00
102,7.060660171780e-01,7.474544155877e+00,0.000000000000e+00
103,9.574025148548e-01,8.736223396435e+00,0.000000000000e+00
104,8.425974851452e-01,1.236223396435e+00,0.000000000000e+00
105,4.939339828220e-01,2.474544155877e+00,0.000000000000e+00
106,1.614180701233e-01,3.716740336830e+00,0.000000000000e+00
107,-1.500000000000e-01,4.964000000000e+00,0.000000000000e+00
108,-4.385819298767e-01,6.216740336830e+00,0.000000000000e+00
109,-7.060660171780e-01,7.474544155877e+00,0.000000000000e+00
110,-9.574025148548e-01,8.736223396435e+00,0.000000000000e+00
111,-8.425974851452e-01,1.236223396435e+00,2.000000000000e+00
112,-4.939339828220e-01,2.474544155877e+00,2.000000000000e+00
113,-1.614180701233e-01,3.716740336830e+00,2.000000000000e+00
114,1.500000000000e-01,4.964000000000e+00,2.000000000000e+00
115,4.385819298767e-01,6.216740336830e+00,2.000000000000e+00
116,7.060660171780e-01,7.474544155877e+00,2.000000000000e+00
117,9.574025148548e-01,8.736223396435e+00,2.000000000000e+00
118,8.425974851452e-01,1.236223396435e+00,2.000000000000e+00
119,4.939339828220e-01,2.474544155877e+00,2.000000000000e+00
120,1.614180701233e-01,3.716740336830e+00,2.000000000000e+00
121,-1.500000000000e-01,4.964000000000e+00,2.000000000000e+00
122,-4.385819298767e-01,6.216740336830e+00,2.000000000000e+00
123,-7.060660171780e-01,7.474544155877e+00,2.000000000000e+00
124,-9.574025148548e-01,8.736223396435e+00,2.000000000000e+00
125,-1.200000000000e+00,1.503000000000e+01,8.500000000000e-01
126,-1.200000000000e+00,1.503000000000e+01,1.150000000000e+00
127,1.200000000000e+00,1.503000000000e+01,8.500000000000e-01
128,1.200000000000e+00,1.503000000000e+01,1.150000000000e+00
129,1.500000000000e-01,1.496400000000e+01,0.000000000000e+00
130,-1.500000000000e-01,1.496400000000e+01,0.000000000000e+00
131,1.500000000000e-01,1.496400000000e+01,2.000000000000e+00
132,-1.500000000000e-01,1.496400000000e+01,2.000000000000e+00
133,-1.200000000000e+00,2.252121320344e+01,3.939339828220e-01
134,-1.200000000000e+00,2.503000000000e+01,8.500000000000e-01
135,-1.200000000000e+00,2.752121320344e+01,1.393933982822e+00
136,-1.200000000000e+00,2.252121320344e+01,1.606066017178e+00
137,-1.200000000000e+00,2.503000000000e+01,1.150000000000e+00
138,-1.200000000000e+00,2.752121320344e+01,6.060660171780e-01
139,1.200000000000e+00,2.252121320344e+01,3.939339828220e-01
140,1.200000000000e+00,2.503000000000e+01,8.500000000000e-01
141,1.200000000000e+00,2.752121320344e+01,1.393933982822e+00
142,1.200000000000e+00,2.252121320344e+01,1.606066017178e+00
143,1.200000000000e+00,2.503000000000e+01,1.150000000000e+00
144,1.200000000000e+00,2.752121320344e+01,6.060660171780e-01
145,-4.939339828220e-01,2.247454415588e+01,0.000000000000e+00
146,1.500000000000e-01,2.496400000000e+01,0.000000000000e+00
147,7.060660171780e-01,2.747454415588e+01,0.000000000000e+00
148,4.939339828220e-01,2.247454415588e+01,0.000000000000e+00
149,-1.500000000000e-01,2.496400000000e+01,0.000000000000e+00
150,-7.060660171780e-01,2.747454415588e+01,0.000000000000e+00
151,-4.939339828220e-01,2.247454415588e+01,2.000000000000e+00
152,1.500000000000e-01,2.496400000000e+01,2.000000000000e+00
153,7.060660171780e-01,2.747454415588e+01,2.000000000000e+00
154,4.939339828220e-01,2.247454415588e+01,2.000000000000e+00
155,-1.500000000000e-01,2.496400000000e+01,2.000000000000e+00
156,-7.060660171780e-01,2.747454415588e+01,2.000000000000e+00
157,-1.200000000000e+00,3.126148050297e+01,1.925974851452e-01
158,-1.200000000000e+00,3.252121320344e+01,3.939339828220e-01
159,-1.200000000000e+00,3.377771638598e+01,6.114180701233e-01
160,-1.200000000000e+00,3.503000000000e+01,8.500000000000e-01
161,-1.200000000000e+00,3.627771638598e+01,1.111418070123e+00
162,-1.200000000000e+00,3.752121320344e+01,1.393933982822e+00
163,-1.200000000000e+00,3.876148050297e+01,1.692597485145e+00
164,-1.200000000000e+00,3.126148050297e+01,1.807402514855e+00
165,-1.200000000000e+00,3.252121320344e+01,1.606066017178e+00
166,-1.200000000000e+00,3.377771638598e+01,1.388581929877e+00
167,-1.200000000000e+00,3.503000000000e+01,1.150000000000e+00
168,-1.200000000000e+00,3.627771638598e+01,8.885819298767e-01
169,-1.200000000000e+00,3.752121320344e+01,6.060660171780e-01
170,-1.200000000000e+00,3.876148050297e+01,3.074025148548e-01
171,1.200000000000e+00,3.126148050297e+01,1.925974851452e-01
172,1.200000000000e+00,3.252121320344e+01,3.939339828220e-01
173,1.200000000000e+00,3.377771638598e+01,6.114180701233e-01
174,1.200000000000e+00,3.503000000000e+01,8.500000000000e-01
175,1.200000000000e+00,3.627771638598e+01,1.111418070123e+00
176,1.200000000000e+00,3.752121320344e+01,1.393933982822e+00
177,1.200000000000e+00,3.876148050297e+01,1.692597485145e+00
178,1.200000000000e+00,3.126148050297e+01,1.807402514855e+00
179,1.200000000000e+00,3.252121320344e+01,1.606066017178e+00
180,1.200000000000e+00,3.377771638598e+01,1.388581929877e+00
181,1.200000000000e+00,3.503000000000e+01,1.150000000000e+00
182,1.200000000000e+00,3.627771638598e+01,8.885819298767e-01
183,1.200000000000e+00,3.752121320344e+01,6.060660171780e-01
184,1.200000000000e+00,3.876148050297e+01,3.074025148548e-01
185,-8.425974851452e-01,3.123622339643e+01,0.000000000000e+00
186,-4.939339828220e-01,3.247454415588e+01,0.000000000000e+00
187,-1.614180701233e-01,3.371674033683e+01,0.000000000000e+00
188,1.500000000000e-01,3.496400000000e+01,0.000000000000e+00
189,4.385819298767e-01,3.621674033683e+01,0.000000000000e+00
190,7.060660171780e-01,3.747454415588e+01,0.000000000000e+00
191,9.574025148548e-01,3.873622339643e+01,0.000000000000e+00
192,8.425974851452e-01,3.123622339643e+01,0.000000000000e+00
193,4.939339828220e-01,3.247454415588e+01,0.000000000000e+00
194,1.614180701233e-01,3.371674033683e+01,0.000000000000e+00
195,-1.500000000000e-01,3.496400000000e+01,0.000000000000e+00
196,-4.385819298767e-01,3.621674033683e+01,0.000000000000e+00
197,-7.060660171780e-01,3.747454415588e+01,0.000000000000e+00
198,-9.574025148548e-01,3.873622339643e+01,0.000000000000e+00
199,-8.425974851452e-01,3.123622339643e+01,2.000000000000e+00
200,-4.939339828220e-01,3.247454415588e+01,2.000000000000e+00
201,-1.614180701233e-01,3.371674033683e+01,2.000000000000e+00
202,1.500000000000e-01,3.496400000000e+01,2.000000000000e+00
203,4.385819298767e-01,3.621674033683e+01,2.000000000000e+00
204,7.060660171780e-01,3.747454415588e+01,2.000000000000e+00
205,9.574025148548e-01,3.873622339643e+01,2.000000000000e+00
206,8.425974851452e-01,3.123622339643e+01,2.000000000000e+00
207,4.939339828220e-01,3.247454415588e+01,2.000000000000e+00
208,1.614180701233e-01,3.371674033683e+01,2.000000000000e+00
209,-1.500000000000e-01,3.496400000000e+01,2.000000000000e+00
210,-4.385819298767e-01,3.621674033683e+01,2.000000000000e+00
211,-7.060660171780e-01,3.747454415588e+01,2.000000000000e+00
212,-9.574025148548e-01,3.873622339643e+01,2.000000000000e+00
213,-1.200000000000e+00,4.503000000000e+01,8.500000000000e-01
214,-1.200000000000e+00,4.503000000000e+01,1.150000000000e+00
215,1.200000000000e+00,4.503000000000e+01,8.500000000000e-01
216,1.200000000000e+00,4.503000000000e+01,1.150000000000e+00
217,1.500000000000e-01,4.496400000000e+01,0.000000000000e+00
218,-1.500000000000e-01,4.496400000000e+01,0.000000000000e+00
219,1.500000000000e-01,4.496400000000e+01,2.000000000000e+00
220,-1.500000000000e-01,4.496400000000e+01,2.000000000000e+00
*ELEMENT,TYPE=B31,ELSET=ALL
1,1,25
2,25,5
3,2,26
4,26,6
5,3,27
6,27,7
7,4,28
8,28,8
9,5,29
10,29,9
11,6,30
12,30,10
13,7,31
14,31,11
15,8,32
16,32,12
17,9,33
18,33,13
19,10,34
20,34,14
21,11,35
22,35,15
23,12,36
24,36,16
25,13,37
26,37,17
27,14,38
28,38,18
29,15,39
30,39,19
31,16,40
32,40,20
33,17,41
34,41,21
35,18,42
36,42,22
37,19,43
38,43,23
39,20,44
40,44,24
41,1,45
42,45,2
43,3,46
44,46,4
45,1,47
46,47,3
47,2,48
48,48,4
49,5,49
50,49,6
51,7,50
52,50,8
53,5,51
54,51,7
55,6,52
56,52,8
57,9,53
58,53,10
59,11,54
60,54,12
61,9,55
62,55,11
63,10,56
64,56,12
65,13,57
66,57,14
67,15,58
68,58,16
69,13,59
70,59,15
71,14,60
72,60,16
73,17,61
74,61,18
75,19,62
76,62,20
77,17,63
78,63,19
79,18,64
80,64,20
81,21,65
82,65,22
83,23,66
84,66,24
85,21,67
86,67,23
87,22,68
88,68,24
89,1,69
90,69,70
91,70,71
92,71,72
93,72,73
94,73,74
95,74,75
96,75,7
97,3,76
98,76,77
99,77,78
100,78,79
101,79,80
102,80,81
103,81,82
104,82,5
105,2,83
106,83,84
107,84,85
108,85,86
109,86,87
110,87,88
111,88,89
112,89,8
113,4,90
114,90,91
115,91,92
116,92,93
117,93,94
118,94,95
119,95,96
120,96,6
121,1,97
122,97,98
123,98,99
124,99,100
125,100,101
126,101,102
127,102,103
128,103,6
129,2,104
130,104,105
131,105,106
132,106,107
133,107,108
134,108,109
135,109,110
136,110,5
137,3,111
138,111,112
139,112,113
140,113,114
141,114,115
142,115,116
143,116,117
144,117,8
145,4,118
146,118,119
147,119,120
148,120,121
149,121,122
150,122,123
151,123,124
152,124,7
153,5,125
154,125,11
155,7,126
156,126,9
157,6,127
158,127,12
159,8,128
160,128,10
161,5,129
162,129,10
163,6,130
164,130,9
165,7,131
166,131,12
167,8,132
168,132,11
169,9,133
170,133,134
171,134,135
172,135,15
173,11,136
174,136,137
175,137,138
176,138,13
177,10,139
178,139,140
179,140,141
180,141,16
181,12,142
182,142,143
183,143,144
184,144,14
185,9,145
186,145,146
187,146,147
188,147,14
189,10,148
190,148,149
191,149,150
192,150,13
193,11,151
194,151,152
195,152,153
196,153,16
197,12,154
198,154,155
199,155,156
200,156,15
201,13,157
202,157,158
203,158,159
204,159,160
205,160,161
206,161,162
207,162,163
208,163,19
209,15,164
210,164,165
211,165,166
212,166,167
213,167,168
214,168,169
215,169,170
216,170,17
217,14,171
218,171,172
219,172,173
220,173,174
221,174,175
222,175,176
223,176,177
224,177,20
225,16,178
226,178,179
227,179,180
228,180,181
229,181,182
230,182,183
231,183,184
232,184,18
233,13,185
234,185,186
235,186,187
236,187,188
237,188,189
238,189,190
239,190,191
240,191,18
241,14,192
242,192,193
243,193,194
244,194,195
245,195,196
246,196,197
247,197,198
248,198,17
249,15,199
250,199,200
251,200,201
252,201,202
253,202,203
254,203,204
255,204,205
256,205,20
257,16,206
258,206,207
259,207,208
260,208,209
261,209,210
262,210,211
263,211,212
264,212,19
265,17,213
266,213,23
267,19,214
268,214,21
269,18,215
270,215,24
271,20,216
272,216,22
273,17,217
274,217,22
275,18,218
276,218,21
277,19,219
278,219,24
279,20,220
280,220,23
*NSET,NSET=NALL,GENERATE
1,220,1
*NSET,NSET=LEFT
1,2,3,4
*NSET,NSET=RIGHT
21,22,23,24
*MATERIAL,NAME=STEEL
*ELASTIC
2.100000000000e+11,0.300000000000
*BEAM SECTION,ELSET=ALL,MATERIAL=STEEL,SECTION=RECT
6.000000000000e-02,4.000000000000e-02
0.371390676354,0.557086014531,0.742781352708
*BOUNDARY
LEFT,1,6,0.0
*STEP
*STATIC
*BOUNDARY
21,1,1,5.000000000000e-03
21,2,2,0.0
21,3,3,-6.000000000000e-03
*BOUNDARY
22,1,1,5.000000000000e-03
22,2,2,0.0
22,3,3,6.000000000000e-03
*BOUNDARY
23,1,1,-5.000000000000e-03
23,2,2,0.0
23,3,3,-6.000000000000e-03
*BOUNDARY
24,1,1,-5.000000000000e-03
24,2,2,0.0
24,3,3,6.000000000000e-03
*NODE FILE,NSET=NALL
U
*NODE PRINT,NSET=NALL
U
*NODE PRINT,NSET=RIGHT
RF
*EL PRINT,ELSET=ALL,TOTALS=YES
ELSE
*END STEP
