*HEADING
T01 D-NLG t01_d-nlg_delegated conforming C3D8 frozen T
units: mm, N, s, MPa, t. Illustrative steel, not a coupon card.
beam=T01 case=D-NLG job=t01_d-nlg_delegated type=C3D8
E=210000.0 nu=0.3 fy=235.0 load=-30000.0 N on TIP_TOP
*NODE, NSET=NALL
1, 0, -10, 0
2, 58, -10, 3.48
3, 58, 0, 3.48
4, 0, 0, 0
5, 0, -10, 40
6, 58, -10, 42.784
7, 58, 0, 42.784
8, 0, 0, 40
9, 0, -10, 80
10, 58, -10, 82.088
11, 58, 0, 82.088
12, 0, 0, 80
13, 0, -10, 120
14, 58, -10, 121.392
15, 58, 0, 121.392
16, 0, 0, 120
17, 0, -10, 160
18, 58, -10, 160.696
19, 58, 0, 160.696
20, 0, 0, 160
21, 0, -10, 200
22, 58, -10, 200
23, 58, 0, 200
24, 0, 0, 200
25, 58, 10, 3.48
26, 0, 10, 0
27, 58, 10, 42.784
28, 0, 10, 40
29, 58, 10, 82.088
30, 0, 10, 80
31, 58, 10, 121.392
32, 0, 10, 120
33, 58, 10, 160.696
34, 0, 10, 160
35, 58, 10, 200
36, 0, 10, 200
37, 0, -120, 200
38, 58, -120, 200
39, 58, -92.5, 200
40, 0, -92.5, 200
41, 0, -120, 210
42, 58, -120, 210
43, 58, -92.5, 210
44, 0, -92.5, 210
45, 0, -120, 220
46, 58, -120, 220
47, 58, -92.5, 220
48, 0, -92.5, 220
49, 58, -65, 200
50, 0, -65, 200
51, 58, -65, 210
52, 0, -65, 210
53, 58, -65, 220
54, 0, -65, 220
55, 58, -37.5, 200
56, 0, -37.5, 200
57, 58, -37.5, 210
58, 0, -37.5, 210
59, 58, -37.5, 220
60, 0, -37.5, 220
61, 58, -10, 210
62, 0, -10, 210
63, 58, -10, 220
64, 0, -10, 220
65, 58, 0, 210
66, 0, 0, 210
67, 58, 0, 220
68, 0, 0, 220
69, 58, 10, 210
70, 0, 10, 210
71, 58, 10, 220
72, 0, 10, 220
73, 58, 37.5, 200
74, 0, 37.5, 200
75, 58, 37.5, 210
76, 0, 37.5, 210
77, 58, 37.5, 220
78, 0, 37.5, 220
79, 58, 65, 200
80, 0, 65, 200
81, 58, 65, 210
82, 0, 65, 210
83, 58, 65, 220
84, 0, 65, 220
85, 58, 92.5, 200
86, 0, 92.5, 200
87, 58, 92.5, 210
88, 0, 92.5, 210
89, 58, 92.5, 220
90, 0, 92.5, 220
91, 58, 120, 200
92, 0, 120, 200
93, 58, 120, 210
94, 0, 120, 210
95, 58, 120, 220
96, 0, 120, 220
97, 107.949250014, -10, 6.47695500086
98, 107.949250014, 0, 6.47695500086
99, 107.949250014, -10, 45.1815640007
100, 107.949250014, 0, 45.1815640007
101, 107.949250014, -10, 83.8861730005
102, 107.949250014, 0, 83.8861730005
103, 107.949250014, -10, 122.590782
104, 107.949250014, 0, 122.590782
105, 107.949250014, -10, 161.295391
106, 107.949250014, 0, 161.295391
107, 107.949250014, -10, 200
108, 107.949250014, 0, 200
109, 107.949250014, 10, 6.47695500086
110, 107.949250014, 10, 45.1815640007
111, 107.949250014, 10, 83.8861730005
112, 107.949250014, 10, 122.590782
113, 107.949250014, 10, 161.295391
114, 107.949250014, 10, 200
115, 107.949250014, -120, 200
116, 107.949250014, -92.5, 200
117, 107.949250014, -120, 210
118, 107.949250014, -92.5, 210
119, 107.949250014, -120, 220
120, 107.949250014, -92.5, 220
121, 107.949250014, -65, 200
122, 107.949250014, -65, 210
123, 107.949250014, -65, 220
124, 107.949250014, -37.5, 200
125, 107.949250014, -37.5, 210
126, 107.949250014, -37.5, 220
127, 107.949250014, -10, 210
128, 107.949250014, -10, 220
129, 107.949250014, 0, 210
130, 107.949250014, 0, 220
131, 107.949250014, 10, 210
132, 107.949250014, 10, 220
133, 107.949250014, 37.5, 200
134, 107.949250014, 37.5, 210
135, 107.949250014, 37.5, 220
136, 107.949250014, 65, 200
137, 107.949250014, 65, 210
138, 107.949250014, 65, 220
139, 107.949250014, 92.5, 200
140, 107.949250014, 92.5, 210
141, 107.949250014, 92.5, 220
142, 107.949250014, 120, 200
143, 107.949250014, 120, 210
144, 107.949250014, 120, 220
145, 171.99165641, -10, 10.3194993846
146, 171.99165641, 0, 10.3194993846
147, 171.99165641, -10, 48.2555995077
148, 171.99165641, 0, 48.2555995077
149, 171.99165641, -10, 86.1916996308
150, 171.99165641, 0, 86.1916996308
151, 171.99165641, -10, 124.127799754
152, 171.99165641, 0, 124.127799754
153, 171.99165641, -10, 162.063899877
154, 171.99165641, 0, 162.063899877
155, 171.99165641, -10, 200
156, 171.99165641, 0, 200
157, 171.99165641, 10, 10.3194993846
158, 171.99165641, 10, 48.2555995077
159, 171.99165641, 10, 86.1916996308
160, 171.99165641, 10, 124.127799754
161, 171.99165641, 10, 162.063899877
162, 171.99165641, 10, 200
163, 171.99165641, -120, 200
164, 171.99165641, -92.5, 200
165, 171.99165641, -120, 210
166, 171.99165641, -92.5, 210
167, 171.99165641, -120, 220
168, 171.99165641, -92.5, 220
169, 171.99165641, -65, 200
170, 171.99165641, -65, 210
171, 171.99165641, -65, 220
172, 171.99165641, -37.5, 200
173, 171.99165641, -37.5, 210
174, 171.99165641, -37.5, 220
175, 171.99165641, -10, 210
176, 171.99165641, -10, 220
177, 171.99165641, 0, 210
178, 171.99165641, 0, 220
179, 171.99165641, 10, 210
180, 171.99165641, 10, 220
181, 171.99165641, 37.5, 200
182, 171.99165641, 37.5, 210
183, 171.99165641, 37.5, 220
184, 171.99165641, 65, 200
185, 171.99165641, 65, 210
186, 171.99165641, 65, 220
187, 171.99165641, 92.5, 200
188, 171.99165641, 92.5, 210
189, 171.99165641, 92.5, 220
190, 171.99165641, 120, 200
191, 171.99165641, 120, 210
192, 171.99165641, 120, 220
193, 240.106571424, -10, 14.4063942854
194, 240.106571424, 0, 14.4063942854
195, 240.106571424, -10, 51.5251154283
196, 240.106571424, 0, 51.5251154283
197, 240.106571424, -10, 88.6438365713
198, 240.106571424, 0, 88.6438365713
199, 240.106571424, -10, 125.762557714
200, 240.106571424, 0, 125.762557714
201, 240.106571424, -10, 162.881278857
202, 240.106571424, 0, 162.881278857
203, 240.106571424, -10, 200
204, 240.106571424, 0, 200
205, 240.106571424, 10, 14.4063942854
206, 240.106571424, 10, 51.5251154283
207, 240.106571424, 10, 88.6438365713
208, 240.106571424, 10, 125.762557714
209, 240.106571424, 10, 162.881278857
210, 240.106571424, 10, 200
211, 240.106571424, -120, 200
212, 240.106571424, -92.5, 200
213, 240.106571424, -120, 210
214, 240.106571424, -92.5, 210
215, 240.106571424, -120, 220
216, 240.106571424, -92.5, 220
217, 240.106571424, -65, 200
218, 240.106571424, -65, 210
219, 240.106571424, -65, 220
220, 240.106571424, -37.5, 200
221, 240.106571424, -37.5, 210
222, 240.106571424, -37.5, 220
223, 240.106571424, -10, 210
224, 240.106571424, -10, 220
225, 240.106571424, 0, 210
226, 240.106571424, 0, 220
227, 240.106571424, 10, 210
228, 240.106571424, 10, 220
229, 240.106571424, 37.5, 200
230, 240.106571424, 37.5, 210
231, 240.106571424, 37.5, 220
232, 240.106571424, 65, 200
233, 240.106571424, 65, 210
234, 240.106571424, 65, 220
235, 240.106571424, 92.5, 200
236, 240.106571424, 92.5, 210
237, 240.106571424, 92.5, 220
238, 240.106571424, 120, 200
239, 240.106571424, 120, 210
240, 240.106571424, 120, 220
241, 308.372331946, -10, 18.5023399168
242, 308.372331946, 0, 18.5023399168
243, 308.372331946, -10, 54.8018719334
244, 308.372331946, 0, 54.8018719334
245, 308.372331946, -10, 91.1014039501
246, 308.372331946, 0, 91.1014039501
247, 308.372331946, -10, 127.400935967
248, 308.372331946, 0, 127.400935967
249, 308.372331946, -10, 163.700467983
250, 308.372331946, 0, 163.700467983
251, 308.372331946, -10, 200
252, 308.372331946, 0, 200
253, 308.372331946, 10, 18.5023399168
254, 308.372331946, 10, 54.8018719334
255, 308.372331946, 10, 91.1014039501
256, 308.372331946, 10, 127.400935967
257, 308.372331946, 10, 163.700467983
258, 308.372331946, 10, 200
259, 308.372331946, -120, 200
260, 308.372331946, -92.5, 200
261, 308.372331946, -120, 210
262, 308.372331946, -92.5, 210
263, 308.372331946, -120, 220
264, 308.372331946, -92.5, 220
265, 308.372331946, -65, 200
266, 308.372331946, -65, 210
267, 308.372331946, -65, 220
268, 308.372331946, -37.5, 200
269, 308.372331946, -37.5, 210
270, 308.372331946, -37.5, 220
271, 308.372331946, -10, 210
272, 308.372331946, -10, 220
273, 308.372331946, 0, 210
274, 308.372331946, 0, 220
275, 308.372331946, 10, 210
276, 308.372331946, 10, 220
277, 308.372331946, 37.5, 200
278, 308.372331946, 37.5, 210
279, 308.372331946, 37.5, 220
280, 308.372331946, 65, 200
281, 308.372331946, 65, 210
282, 308.372331946, 65, 220
283, 308.372331946, 92.5, 200
284, 308.372331946, 92.5, 210
285, 308.372331946, 92.5, 220
286, 308.372331946, 120, 200
287, 308.372331946, 120, 210
288, 308.372331946, 120, 220
289, 376.789607205, -10, 22.6073764323
290, 376.789607205, 0, 22.6073764323
291, 376.789607205, -10, 58.0859011459
292, 376.789607205, 0, 58.0859011459
293, 376.789607205, -10, 93.5644258594
294, 376.789607205, 0, 93.5644258594
295, 376.789607205, -10, 129.042950573
296, 376.789607205, 0, 129.042950573
297, 376.789607205, -10, 164.521475286
298, 376.789607205, 0, 164.521475286
299, 376.789607205, -10, 200
300, 376.789607205, 0, 200
301, 376.789607205, 10, 22.6073764323
302, 376.789607205, 10, 58.0859011459
303, 376.789607205, 10, 93.5644258594
304, 376.789607205, 10, 129.042950573
305, 376.789607205, 10, 164.521475286
306, 376.789607205, 10, 200
307, 376.789607205, -120, 200
308, 376.789607205, -92.5, 200
309, 376.789607205, -120, 210
310, 376.789607205, -92.5, 210
311, 376.789607205, -120, 220
312, 376.789607205, -92.5, 220
313, 376.789607205, -65, 200
314, 376.789607205, -65, 210
315, 376.789607205, -65, 220
316, 376.789607205, -37.5, 200
317, 376.789607205, -37.5, 210
318, 376.789607205, -37.5, 220
319, 376.789607205, -10, 210
320, 376.789607205, -10, 220
321, 376.789607205, 0, 210
322, 376.789607205, 0, 220
323, 376.789607205, 10, 210
324, 376.789607205, 10, 220
325, 376.789607205, 37.5, 200
326, 376.789607205, 37.5, 210
327, 376.789607205, 37.5, 220
328, 376.789607205, 65, 200
329, 376.789607205, 65, 210
330, 376.789607205, 65, 220
331, 376.789607205, 92.5, 200
332, 376.789607205, 92.5, 210
333, 376.789607205, 92.5, 220
334, 376.789607205, 120, 200
335, 376.789607205, 120, 210
336, 376.789607205, 120, 220
337, 445.359070891, -10, 26.7215442535
338, 445.359070891, 0, 26.7215442535
339, 445.359070891, -10, 61.3772354028
340, 445.359070891, 0, 61.3772354028
341, 445.359070891, -10, 96.0329265521
342, 445.359070891, 0, 96.0329265521
343, 445.359070891, -10, 130.688617701
344, 445.359070891, 0, 130.688617701
345, 445.359070891, -10, 165.344308851
346, 445.359070891, 0, 165.344308851
347, 445.359070891, -10, 200
348, 445.359070891, 0, 200
349, 445.359070891, 10, 26.7215442535
350, 445.359070891, 10, 61.3772354028
351, 445.359070891, 10, 96.0329265521
352, 445.359070891, 10, 130.688617701
353, 445.359070891, 10, 165.344308851
354, 445.359070891, 10, 200
355, 445.359070891, -120, 200
356, 445.359070891, -92.5, 200
357, 445.359070891, -120, 210
358, 445.359070891, -92.5, 210
359, 445.359070891, -120, 220
360, 445.359070891, -92.5, 220
361, 445.359070891, -65, 200
362, 445.359070891, -65, 210
363, 445.359070891, -65, 220
364, 445.359070891, -37.5, 200
365, 445.359070891, -37.5, 210
366, 445.359070891, -37.5, 220
367, 445.359070891, -10, 210
368, 445.359070891, -10, 220
369, 445.359070891, 0, 210
370, 445.359070891, 0, 220
371, 445.359070891, 10, 210
372, 445.359070891, 10, 220
373, 445.359070891, 37.5, 200
374, 445.359070891, 37.5, 210
375, 445.359070891, 37.5, 220
376, 445.359070891, 65, 200
377, 445.359070891, 65, 210
378, 445.359070891, 65, 220
379, 445.359070891, 92.5, 200
380, 445.359070891, 92.5, 210
381, 445.359070891, 92.5, 220
382, 445.359070891, 120, 200
383, 445.359070891, 120, 210
384, 445.359070891, 120, 220
385, 514.081401196, -10, 30.8448840717
386, 514.081401196, 0, 30.8448840717
387, 514.081401196, -10, 64.6759072574
388, 514.081401196, 0, 64.6759072574
389, 514.081401196, -10, 98.506930443
390, 514.081401196, 0, 98.506930443
391, 514.081401196, -10, 132.337953629
392, 514.081401196, 0, 132.337953629
393, 514.081401196, -10, 166.168976814
394, 514.081401196, 0, 166.168976814
395, 514.081401196, -10, 200
396, 514.081401196, 0, 200
397, 514.081401196, 10, 30.8448840717
398, 514.081401196, 10, 64.6759072574
399, 514.081401196, 10, 98.506930443
400, 514.081401196, 10, 132.337953629
401, 514.081401196, 10, 166.168976814
402, 514.081401196, 10, 200
403, 514.081401196, -120, 200
404, 514.081401196, -92.5, 200
405, 514.081401196, -120, 210
406, 514.081401196, -92.5, 210
407, 514.081401196, -120, 220
408, 514.081401196, -92.5, 220
409, 514.081401196, -65, 200
410, 514.081401196, -65, 210
411, 514.081401196, -65, 220
412, 514.081401196, -37.5, 200
413, 514.081401196, -37.5, 210
414, 514.081401196, -37.5, 220
415, 514.081401196, -10, 210
416, 514.081401196, -10, 220
417, 514.081401196, 0, 210
418, 514.081401196, 0, 220
419, 514.081401196, 10, 210
420, 514.081401196, 10, 220
421, 514.081401196, 37.5, 200
422, 514.081401196, 37.5, 210
423, 514.081401196, 37.5, 220
424, 514.081401196, 65, 200
425, 514.081401196, 65, 210
426, 514.081401196, 65, 220
427, 514.081401196, 92.5, 200
428, 514.081401196, 92.5, 210
429, 514.081401196, 92.5, 220
430, 514.081401196, 120, 200
431, 514.081401196, 120, 210
432, 514.081401196, 120, 220
433, 582.957280851, -10, 34.9774368511
434, 582.957280851, 0, 34.9774368511
435, 582.957280851, -10, 67.9819494809
436, 582.957280851, 0, 67.9819494809
437, 582.957280851, -10, 100.986462111
438, 582.957280851, 0, 100.986462111
439, 582.957280851, -10, 133.99097474
440, 582.957280851, 0, 133.99097474
441, 582.957280851, -10, 166.99548737
442, 582.957280851, 0, 166.99548737
443, 582.957280851, -10, 200
444, 582.957280851, 0, 200
445, 582.957280851, 10, 34.9774368511
446, 582.957280851, 10, 67.9819494809
447, 582.957280851, 10, 100.986462111
448, 582.957280851, 10, 133.99097474
449, 582.957280851, 10, 166.99548737
450, 582.957280851, 10, 200
451, 582.957280851, -120, 200
452, 582.957280851, -92.5, 200
453, 582.957280851, -120, 210
454, 582.957280851, -92.5, 210
455, 582.957280851, -120, 220
456, 582.957280851, -92.5, 220
457, 582.957280851, -65, 200
458, 582.957280851, -65, 210
459, 582.957280851, -65, 220
460, 582.957280851, -37.5, 200
461, 582.957280851, -37.5, 210
462, 582.957280851, -37.5, 220
463, 582.957280851, -10, 210
464, 582.957280851, -10, 220
465, 582.957280851, 0, 210
466, 582.957280851, 0, 220
467, 582.957280851, 10, 210
468, 582.957280851, 10, 220
469, 582.957280851, 37.5, 200
470, 582.957280851, 37.5, 210
471, 582.957280851, 37.5, 220
472, 582.957280851, 65, 200
473, 582.957280851, 65, 210
474, 582.957280851, 65, 220
475, 582.957280851, 92.5, 200
476, 582.957280851, 92.5, 210
477, 582.957280851, 92.5, 220
478, 582.957280851, 120, 200
479, 582.957280851, 120, 210
480, 582.957280851, 120, 220
481, 651.987397174, -10, 39.1192438304
482, 651.987397174, 0, 39.1192438304
483, 651.987397174, -10, 71.2953950644
484, 651.987397174, 0, 71.2953950644
485, 651.987397174, -10, 103.471546298
486, 651.987397174, 0, 103.471546298
487, 651.987397174, -10, 135.647697532
488, 651.987397174, 0, 135.647697532
489, 651.987397174, -10, 167.823848766
490, 651.987397174, 0, 167.823848766
491, 651.987397174, -10, 200
492, 651.987397174, 0, 200
493, 651.987397174, 10, 39.1192438304
494, 651.987397174, 10, 71.2953950644
495, 651.987397174, 10, 103.471546298
496, 651.987397174, 10, 135.647697532
497, 651.987397174, 10, 167.823848766
498, 651.987397174, 10, 200
499, 651.987397174, -120, 200
500, 651.987397174, -92.5, 200
501, 651.987397174, -120, 210
502, 651.987397174, -92.5, 210
503, 651.987397174, -120, 220
504, 651.987397174, -92.5, 220
505, 651.987397174, -65, 200
506, 651.987397174, -65, 210
507, 651.987397174, -65, 220
508, 651.987397174, -37.5, 200
509, 651.987397174, -37.5, 210
510, 651.987397174, -37.5, 220
511, 651.987397174, -10, 210
512, 651.987397174, -10, 220
513, 651.987397174, 0, 210
514, 651.987397174, 0, 220
515, 651.987397174, 10, 210
516, 651.987397174, 10, 220
517, 651.987397174, 37.5, 200
518, 651.987397174, 37.5, 210
519, 651.987397174, 37.5, 220
520, 651.987397174, 65, 200
521, 651.987397174, 65, 210
522, 651.987397174, 65, 220
523, 651.987397174, 92.5, 200
524, 651.987397174, 92.5, 210
525, 651.987397174, 92.5, 220
526, 651.987397174, 120, 200
527, 651.987397174, 120, 210
528, 651.987397174, 120, 220
529, 721.172442103, -10, 43.2703465262
530, 721.172442103, 0, 43.2703465262
531, 721.172442103, -10, 74.6162772209
532, 721.172442103, 0, 74.6162772209
533, 721.172442103, -10, 105.962207916
534, 721.172442103, 0, 105.962207916
535, 721.172442103, -10, 137.30813861
536, 721.172442103, 0, 137.30813861
537, 721.172442103, -10, 168.654069305
538, 721.172442103, 0, 168.654069305
539, 721.172442103, -10, 200
540, 721.172442103, 0, 200
541, 721.172442103, 10, 43.2703465262
542, 721.172442103, 10, 74.6162772209
543, 721.172442103, 10, 105.962207916
544, 721.172442103, 10, 137.30813861
545, 721.172442103, 10, 168.654069305
546, 721.172442103, 10, 200
547, 721.172442103, -120, 200
548, 721.172442103, -92.5, 200
549, 721.172442103, -120, 210
550, 721.172442103, -92.5, 210
551, 721.172442103, -120, 220
552, 721.172442103, -92.5, 220
553, 721.172442103, -65, 200
554, 721.172442103, -65, 210
555, 721.172442103, -65, 220
556, 721.172442103, -37.5, 200
557, 721.172442103, -37.5, 210
558, 721.172442103, -37.5, 220
559, 721.172442103, -10, 210
560, 721.172442103, -10, 220
561, 721.172442103, 0, 210
562, 721.172442103, 0, 220
563, 721.172442103, 10, 210
564, 721.172442103, 10, 220
565, 721.172442103, 37.5, 200
566, 721.172442103, 37.5, 210
567, 721.172442103, 37.5, 220
568, 721.172442103, 65, 200
569, 721.172442103, 65, 210
570, 721.172442103, 65, 220
571, 721.172442103, 92.5, 200
572, 721.172442103, 92.5, 210
573, 721.172442103, 92.5, 220
574, 721.172442103, 120, 200
575, 721.172442103, 120, 210
576, 721.172442103, 120, 220
577, 790.513112241, -10, 47.4307867345
578, 790.513112241, 0, 47.4307867345
579, 790.513112241, -10, 77.9446293876
580, 790.513112241, 0, 77.9446293876
581, 790.513112241, -10, 108.458472041
582, 790.513112241, 0, 108.458472041
583, 790.513112241, -10, 138.972314694
584, 790.513112241, 0, 138.972314694
585, 790.513112241, -10, 169.486157347
586, 790.513112241, 0, 169.486157347
587, 790.513112241, -10, 200
588, 790.513112241, 0, 200
589, 790.513112241, 10, 47.4307867345
590, 790.513112241, 10, 77.9446293876
591, 790.513112241, 10, 108.458472041
592, 790.513112241, 10, 138.972314694
593, 790.513112241, 10, 169.486157347
594, 790.513112241, 10, 200
595, 790.513112241, -120, 200
596, 790.513112241, -92.5, 200
597, 790.513112241, -120, 210
598, 790.513112241, -92.5, 210
599, 790.513112241, -120, 220
600, 790.513112241, -92.5, 220
601, 790.513112241, -65, 200
602, 790.513112241, -65, 210
603, 790.513112241, -65, 220
604, 790.513112241, -37.5, 200
605, 790.513112241, -37.5, 210
606, 790.513112241, -37.5, 220
607, 790.513112241, -10, 210
608, 790.513112241, -10, 220
609, 790.513112241, 0, 210
610, 790.513112241, 0, 220
611, 790.513112241, 10, 210
612, 790.513112241, 10, 220
613, 790.513112241, 37.5, 200
614, 790.513112241, 37.5, 210
615, 790.513112241, 37.5, 220
616, 790.513112241, 65, 200
617, 790.513112241, 65, 210
618, 790.513112241, 65, 220
619, 790.513112241, 92.5, 200
620, 790.513112241, 92.5, 210
621, 790.513112241, 92.5, 220
622, 790.513112241, 120, 200
623, 790.513112241, 120, 210
624, 790.513112241, 120, 220
625, 860.010108901, -10, 51.600606534
626, 860.010108901, 0, 51.600606534
627, 860.010108901, -10, 81.2804852272
628, 860.010108901, 0, 81.2804852272
629, 860.010108901, -10, 110.96036392
630, 860.010108901, 0, 110.96036392
631, 860.010108901, -10, 140.640242614
632, 860.010108901, 0, 140.640242614
633, 860.010108901, -10, 170.320121307
634, 860.010108901, 0, 170.320121307
635, 860.010108901, -10, 200
636, 860.010108901, 0, 200
637, 860.010108901, 10, 51.600606534
638, 860.010108901, 10, 81.2804852272
639, 860.010108901, 10, 110.96036392
640, 860.010108901, 10, 140.640242614
641, 860.010108901, 10, 170.320121307
642, 860.010108901, 10, 200
643, 860.010108901, -120, 200
644, 860.010108901, -92.5, 200
645, 860.010108901, -120, 210
646, 860.010108901, -92.5, 210
647, 860.010108901, -120, 220
648, 860.010108901, -92.5, 220
649, 860.010108901, -65, 200
650, 860.010108901, -65, 210
651, 860.010108901, -65, 220
652, 860.010108901, -37.5, 200
653, 860.010108901, -37.5, 210
654, 860.010108901, -37.5, 220
655, 860.010108901, -10, 210
656, 860.010108901, -10, 220
657, 860.010108901, 0, 210
658, 860.010108901, 0, 220
659, 860.010108901, 10, 210
660, 860.010108901, 10, 220
661, 860.010108901, 37.5, 200
662, 860.010108901, 37.5, 210
663, 860.010108901, 37.5, 220
664, 860.010108901, 65, 200
665, 860.010108901, 65, 210
666, 860.010108901, 65, 220
667, 860.010108901, 92.5, 200
668, 860.010108901, 92.5, 210
669, 860.010108901, 92.5, 220
670, 860.010108901, 120, 200
671, 860.010108901, 120, 210
672, 860.010108901, 120, 220
673, 929.664138142, -10, 55.7798482885
674, 929.664138142, 0, 55.7798482885
675, 929.664138142, -10, 84.6238786308
676, 929.664138142, 0, 84.6238786308
677, 929.664138142, -10, 113.467908973
678, 929.664138142, 0, 113.467908973
679, 929.664138142, -10, 142.311939315
680, 929.664138142, 0, 142.311939315
681, 929.664138142, -10, 171.155969658
682, 929.664138142, 0, 171.155969658
683, 929.664138142, -10, 200
684, 929.664138142, 0, 200
685, 929.664138142, 10, 55.7798482885
686, 929.664138142, 10, 84.6238786308
687, 929.664138142, 10, 113.467908973
688, 929.664138142, 10, 142.311939315
689, 929.664138142, 10, 171.155969658
690, 929.664138142, 10, 200
691, 929.664138142, -120, 200
692, 929.664138142, -92.5, 200
693, 929.664138142, -120, 210
694, 929.664138142, -92.5, 210
695, 929.664138142, -120, 220
696, 929.664138142, -92.5, 220
697, 929.664138142, -65, 200
698, 929.664138142, -65, 210
699, 929.664138142, -65, 220
700, 929.664138142, -37.5, 200
701, 929.664138142, -37.5, 210
702, 929.664138142, -37.5, 220
703, 929.664138142, -10, 210
704, 929.664138142, -10, 220
705, 929.664138142, 0, 210
706, 929.664138142, 0, 220
707, 929.664138142, 10, 210
708, 929.664138142, 10, 220
709, 929.664138142, 37.5, 200
710, 929.664138142, 37.5, 210
711, 929.664138142, 37.5, 220
712, 929.664138142, 65, 200
713, 929.664138142, 65, 210
714, 929.664138142, 65, 220
715, 929.664138142, 92.5, 200
716, 929.664138142, 92.5, 210
717, 929.664138142, 92.5, 220
718, 929.664138142, 120, 200
719, 929.664138142, 120, 210
720, 929.664138142, 120, 220
721, 999.475910817, -10, 59.968554649
722, 999.475910817, 0, 59.968554649
723, 999.475910817, -10, 87.9748437192
724, 999.475910817, 0, 87.9748437192
725, 999.475910817, -10, 115.981132789
726, 999.475910817, 0, 115.981132789
727, 999.475910817, -10, 143.98742186
728, 999.475910817, 0, 143.98742186
729, 999.475910817, -10, 171.99371093
730, 999.475910817, 0, 171.99371093
731, 999.475910817, -10, 200
732, 999.475910817, 0, 200
733, 999.475910817, 10, 59.968554649
734, 999.475910817, 10, 87.9748437192
735, 999.475910817, 10, 115.981132789
736, 999.475910817, 10, 143.98742186
737, 999.475910817, 10, 171.99371093
738, 999.475910817, 10, 200
739, 999.475910817, -120, 200
740, 999.475910817, -92.5, 200
741, 999.475910817, -120, 210
742, 999.475910817, -92.5, 210
743, 999.475910817, -120, 220
744, 999.475910817, -92.5, 220
745, 999.475910817, -65, 200
746, 999.475910817, -65, 210
747, 999.475910817, -65, 220
748, 999.475910817, -37.5, 200
749, 999.475910817, -37.5, 210
750, 999.475910817, -37.5, 220
751, 999.475910817, -10, 210
752, 999.475910817, -10, 220
753, 999.475910817, 0, 210
754, 999.475910817, 0, 220
755, 999.475910817, 10, 210
756, 999.475910817, 10, 220
757, 999.475910817, 37.5, 200
758, 999.475910817, 37.5, 210
759, 999.475910817, 37.5, 220
760, 999.475910817, 65, 200
761, 999.475910817, 65, 210
762, 999.475910817, 65, 220
763, 999.475910817, 92.5, 200
764, 999.475910817, 92.5, 210
765, 999.475910817, 92.5, 220
766, 999.475910817, 120, 200
767, 999.475910817, 120, 210
768, 999.475910817, 120, 220
769, 1069.44614262, -10, 64.1667685569
770, 1069.44614262, 0, 64.1667685569
771, 1069.44614262, -10, 91.3334148455
772, 1069.44614262, 0, 91.3334148455
773, 1069.44614262, -10, 118.500061134
774, 1069.44614262, 0, 118.500061134
775, 1069.44614262, -10, 145.666707423
776, 1069.44614262, 0, 145.666707423
777, 1069.44614262, -10, 172.833353711
778, 1069.44614262, 0, 172.833353711
779, 1069.44614262, -10, 200
780, 1069.44614262, 0, 200
781, 1069.44614262, 10, 64.1667685569
782, 1069.44614262, 10, 91.3334148455
783, 1069.44614262, 10, 118.500061134
784, 1069.44614262, 10, 145.666707423
785, 1069.44614262, 10, 172.833353711
786, 1069.44614262, 10, 200
787, 1069.44614262, -120, 200
788, 1069.44614262, -92.5, 200
789, 1069.44614262, -120, 210
790, 1069.44614262, -92.5, 210
791, 1069.44614262, -120, 220
792, 1069.44614262, -92.5, 220
793, 1069.44614262, -65, 200
794, 1069.44614262, -65, 210
795, 1069.44614262, -65, 220
796, 1069.44614262, -37.5, 200
797, 1069.44614262, -37.5, 210
798, 1069.44614262, -37.5, 220
799, 1069.44614262, -10, 210
800, 1069.44614262, -10, 220
801, 1069.44614262, 0, 210
802, 1069.44614262, 0, 220
803, 1069.44614262, 10, 210
804, 1069.44614262, 10, 220
805, 1069.44614262, 37.5, 200
806, 1069.44614262, 37.5, 210
807, 1069.44614262, 37.5, 220
808, 1069.44614262, 65, 200
809, 1069.44614262, 65, 210
810, 1069.44614262, 65, 220
811, 1069.44614262, 92.5, 200
812, 1069.44614262, 92.5, 210
813, 1069.44614262, 92.5, 220
814, 1069.44614262, 120, 200
815, 1069.44614262, 120, 210
816, 1069.44614262, 120, 220
817, 1139.57555411, -10, 68.3745332464
818, 1139.57555411, 0, 68.3745332464
819, 1139.57555411, -10, 94.6996265971
820, 1139.57555411, 0, 94.6996265971
821, 1139.57555411, -10, 121.024719948
822, 1139.57555411, 0, 121.024719948
823, 1139.57555411, -10, 147.349813299
824, 1139.57555411, 0, 147.349813299
825, 1139.57555411, -10, 173.674906649
826, 1139.57555411, 0, 173.674906649
827, 1139.57555411, -10, 200
828, 1139.57555411, 0, 200
829, 1139.57555411, 10, 68.3745332464
830, 1139.57555411, 10, 94.6996265971
831, 1139.57555411, 10, 121.024719948
832, 1139.57555411, 10, 147.349813299
833, 1139.57555411, 10, 173.674906649
834, 1139.57555411, 10, 200
835, 1139.57555411, -120, 200
836, 1139.57555411, -92.5, 200
837, 1139.57555411, -120, 210
838, 1139.57555411, -92.5, 210
839, 1139.57555411, -120, 220
840, 1139.57555411, -92.5, 220
841, 1139.57555411, -65, 200
842, 1139.57555411, -65, 210
843, 1139.57555411, -65, 220
844, 1139.57555411, -37.5, 200
845, 1139.57555411, -37.5, 210
846, 1139.57555411, -37.5, 220
847, 1139.57555411, -10, 210
848, 1139.57555411, -10, 220
849, 1139.57555411, 0, 210
850, 1139.57555411, 0, 220
851, 1139.57555411, 10, 210
852, 1139.57555411, 10, 220
853, 1139.57555411, 37.5, 200
854, 1139.57555411, 37.5, 210
855, 1139.57555411, 37.5, 220
856, 1139.57555411, 65, 200
857, 1139.57555411, 65, 210
858, 1139.57555411, 65, 220
859, 1139.57555411, 92.5, 200
860, 1139.57555411, 92.5, 210
861, 1139.57555411, 92.5, 220
862, 1139.57555411, 120, 200
863, 1139.57555411, 120, 210
864, 1139.57555411, 120, 220
865, 1209.86487078, -10, 72.5918922469
866, 1209.86487078, 0, 72.5918922469
867, 1209.86487078, -10, 98.0735137976
868, 1209.86487078, 0, 98.0735137976
869, 1209.86487078, -10, 123.555135348
870, 1209.86487078, 0, 123.555135348
871, 1209.86487078, -10, 149.036756899
872, 1209.86487078, 0, 149.036756899
873, 1209.86487078, -10, 174.518378449
874, 1209.86487078, 0, 174.518378449
875, 1209.86487078, -10, 200
876, 1209.86487078, 0, 200
877, 1209.86487078, 10, 72.5918922469
878, 1209.86487078, 10, 98.0735137976
879, 1209.86487078, 10, 123.555135348
880, 1209.86487078, 10, 149.036756899
881, 1209.86487078, 10, 174.518378449
882, 1209.86487078, 10, 200
883, 1209.86487078, -120, 200
884, 1209.86487078, -92.5, 200
885, 1209.86487078, -120, 210
886, 1209.86487078, -92.5, 210
887, 1209.86487078, -120, 220
888, 1209.86487078, -92.5, 220
889, 1209.86487078, -65, 200
890, 1209.86487078, -65, 210
891, 1209.86487078, -65, 220
892, 1209.86487078, -37.5, 200
893, 1209.86487078, -37.5, 210
894, 1209.86487078, -37.5, 220
895, 1209.86487078, -10, 210
896, 1209.86487078, -10, 220
897, 1209.86487078, 0, 210
898, 1209.86487078, 0, 220
899, 1209.86487078, 10, 210
900, 1209.86487078, 10, 220
901, 1209.86487078, 37.5, 200
902, 1209.86487078, 37.5, 210
903, 1209.86487078, 37.5, 220
904, 1209.86487078, 65, 200
905, 1209.86487078, 65, 210
906, 1209.86487078, 65, 220
907, 1209.86487078, 92.5, 200
908, 1209.86487078, 92.5, 210
909, 1209.86487078, 92.5, 220
910, 1209.86487078, 120, 200
911, 1209.86487078, 120, 210
912, 1209.86487078, 120, 220
913, 1280.31482311, -10, 76.8188893864
914, 1280.31482311, 0, 76.8188893864
915, 1280.31482311, -10, 101.455111509
916, 1280.31482311, 0, 101.455111509
917, 1280.31482311, -10, 126.091333632
918, 1280.31482311, 0, 126.091333632
919, 1280.31482311, -10, 150.727555755
920, 1280.31482311, 0, 150.727555755
921, 1280.31482311, -10, 175.363777877
922, 1280.31482311, 0, 175.363777877
923, 1280.31482311, -10, 200
924, 1280.31482311, 0, 200
925, 1280.31482311, 10, 76.8188893864
926, 1280.31482311, 10, 101.455111509
927, 1280.31482311, 10, 126.091333632
928, 1280.31482311, 10, 150.727555755
929, 1280.31482311, 10, 175.363777877
930, 1280.31482311, 10, 200
931, 1280.31482311, -120, 200
932, 1280.31482311, -92.5, 200
933, 1280.31482311, -120, 210
934, 1280.31482311, -92.5, 210
935, 1280.31482311, -120, 220
936, 1280.31482311, -92.5, 220
937, 1280.31482311, -65, 200
938, 1280.31482311, -65, 210
939, 1280.31482311, -65, 220
940, 1280.31482311, -37.5, 200
941, 1280.31482311, -37.5, 210
942, 1280.31482311, -37.5, 220
943, 1280.31482311, -10, 210
944, 1280.31482311, -10, 220
945, 1280.31482311, 0, 210
946, 1280.31482311, 0, 220
947, 1280.31482311, 10, 210
948, 1280.31482311, 10, 220
949, 1280.31482311, 37.5, 200
950, 1280.31482311, 37.5, 210
951, 1280.31482311, 37.5, 220
952, 1280.31482311, 65, 200
953, 1280.31482311, 65, 210
954, 1280.31482311, 65, 220
955, 1280.31482311, 92.5, 200
956, 1280.31482311, 92.5, 210
957, 1280.31482311, 92.5, 220
958, 1280.31482311, 120, 200
959, 1280.31482311, 120, 210
960, 1280.31482311, 120, 220
961, 1350.92614655, -10, 81.0555687933
962, 1350.92614655, 0, 81.0555687933
963, 1350.92614655, -10, 104.844455035
964, 1350.92614655, 0, 104.844455035
965, 1350.92614655, -10, 128.633341276
966, 1350.92614655, 0, 128.633341276
967, 1350.92614655, -10, 152.422227517
968, 1350.92614655, 0, 152.422227517
969, 1350.92614655, -10, 176.211113759
970, 1350.92614655, 0, 176.211113759
971, 1350.92614655, -10, 200
972, 1350.92614655, 0, 200
973, 1350.92614655, 10, 81.0555687933
974, 1350.92614655, 10, 104.844455035
975, 1350.92614655, 10, 128.633341276
976, 1350.92614655, 10, 152.422227517
977, 1350.92614655, 10, 176.211113759
978, 1350.92614655, 10, 200
979, 1350.92614655, -120, 200
980, 1350.92614655, -92.5, 200
981, 1350.92614655, -120, 210
982, 1350.92614655, -92.5, 210
983, 1350.92614655, -120, 220
984, 1350.92614655, -92.5, 220
985, 1350.92614655, -65, 200
986, 1350.92614655, -65, 210
987, 1350.92614655, -65, 220
988, 1350.92614655, -37.5, 200
989, 1350.92614655, -37.5, 210
990, 1350.92614655, -37.5, 220
991, 1350.92614655, -10, 210
992, 1350.92614655, -10, 220
993, 1350.92614655, 0, 210
994, 1350.92614655, 0, 220
995, 1350.92614655, 10, 210
996, 1350.92614655, 10, 220
997, 1350.92614655, 37.5, 200
998, 1350.92614655, 37.5, 210
999, 1350.92614655, 37.5, 220
1000, 1350.92614655, 65, 200
1001, 1350.92614655, 65, 210
1002, 1350.92614655, 65, 220
1003, 1350.92614655, 92.5, 200
1004, 1350.92614655, 92.5, 210
1005, 1350.92614655, 92.5, 220
1006, 1350.92614655, 120, 200
1007, 1350.92614655, 120, 210
1008, 1350.92614655, 120, 220
1009, 1421.69958167, -10, 85.3019749
1010, 1421.69958167, 0, 85.3019749
1011, 1421.69958167, -10, 108.24157992
1012, 1421.69958167, 0, 108.24157992
1013, 1421.69958167, -10, 131.18118494
1014, 1421.69958167, 0, 131.18118494
1015, 1421.69958167, -10, 154.12078996
1016, 1421.69958167, 0, 154.12078996
1017, 1421.69958167, -10, 177.06039498
1018, 1421.69958167, 0, 177.06039498
1019, 1421.69958167, -10, 200
1020, 1421.69958167, 0, 200
1021, 1421.69958167, 10, 85.3019749
1022, 1421.69958167, 10, 108.24157992
1023, 1421.69958167, 10, 131.18118494
1024, 1421.69958167, 10, 154.12078996
1025, 1421.69958167, 10, 177.06039498
1026, 1421.69958167, 10, 200
1027, 1421.69958167, -120, 200
1028, 1421.69958167, -92.5, 200
1029, 1421.69958167, -120, 210
1030, 1421.69958167, -92.5, 210
1031, 1421.69958167, -120, 220
1032, 1421.69958167, -92.5, 220
1033, 1421.69958167, -65, 200
1034, 1421.69958167, -65, 210
1035, 1421.69958167, -65, 220
1036, 1421.69958167, -37.5, 200
1037, 1421.69958167, -37.5, 210
1038, 1421.69958167, -37.5, 220
1039, 1421.69958167, -10, 210
1040, 1421.69958167, -10, 220
1041, 1421.69958167, 0, 210
1042, 1421.69958167, 0, 220
1043, 1421.69958167, 10, 210
1044, 1421.69958167, 10, 220
1045, 1421.69958167, 37.5, 200
1046, 1421.69958167, 37.5, 210
1047, 1421.69958167, 37.5, 220
1048, 1421.69958167, 65, 200
1049, 1421.69958167, 65, 210
1050, 1421.69958167, 65, 220
1051, 1421.69958167, 92.5, 200
1052, 1421.69958167, 92.5, 210
1053, 1421.69958167, 92.5, 220
1054, 1421.69958167, 120, 200
1055, 1421.69958167, 120, 210
1056, 1421.69958167, 120, 220
1057, 1492.63587409, -10, 89.5581524451
1058, 1492.63587409, 0, 89.5581524451
1059, 1492.63587409, -10, 111.646521956
1060, 1492.63587409, 0, 111.646521956
1061, 1492.63587409, -10, 133.734891467
1062, 1492.63587409, 0, 133.734891467
1063, 1492.63587409, -10, 155.823260978
1064, 1492.63587409, 0, 155.823260978
1065, 1492.63587409, -10, 177.911630489
1066, 1492.63587409, 0, 177.911630489
1067, 1492.63587409, -10, 200
1068, 1492.63587409, 0, 200
1069, 1492.63587409, 10, 89.5581524451
1070, 1492.63587409, 10, 111.646521956
1071, 1492.63587409, 10, 133.734891467
1072, 1492.63587409, 10, 155.823260978
1073, 1492.63587409, 10, 177.911630489
1074, 1492.63587409, 10, 200
1075, 1492.63587409, -120, 200
1076, 1492.63587409, -92.5, 200
1077, 1492.63587409, -120, 210
1078, 1492.63587409, -92.5, 210
1079, 1492.63587409, -120, 220
1080, 1492.63587409, -92.5, 220
1081, 1492.63587409, -65, 200
1082, 1492.63587409, -65, 210
1083, 1492.63587409, -65, 220
1084, 1492.63587409, -37.5, 200
1085, 1492.63587409, -37.5, 210
1086, 1492.63587409, -37.5, 220
1087, 1492.63587409, -10, 210
1088, 1492.63587409, -10, 220
1089, 1492.63587409, 0, 210
1090, 1492.63587409, 0, 220
1091, 1492.63587409, 10, 210
1092, 1492.63587409, 10, 220
1093, 1492.63587409, 37.5, 200
1094, 1492.63587409, 37.5, 210
1095, 1492.63587409, 37.5, 220
1096, 1492.63587409, 65, 200
1097, 1492.63587409, 65, 210
1098, 1492.63587409, 65, 220
1099, 1492.63587409, 92.5, 200
1100, 1492.63587409, 92.5, 210
1101, 1492.63587409, 92.5, 220
1102, 1492.63587409, 120, 200
1103, 1492.63587409, 120, 210
1104, 1492.63587409, 120, 220
1105, 1563.73577461, -10, 93.8241464768
1106, 1563.73577461, 0, 93.8241464768
1107, 1563.73577461, -10, 115.059317181
1108, 1563.73577461, 0, 115.059317181
1109, 1563.73577461, -10, 136.294487886
1110, 1563.73577461, 0, 136.294487886
1111, 1563.73577461, -10, 157.529658591
1112, 1563.73577461, 0, 157.529658591
1113, 1563.73577461, -10, 178.764829295
1114, 1563.73577461, 0, 178.764829295
1115, 1563.73577461, -10, 200
1116, 1563.73577461, 0, 200
1117, 1563.73577461, 10, 93.8241464768
1118, 1563.73577461, 10, 115.059317181
1119, 1563.73577461, 10, 136.294487886
1120, 1563.73577461, 10, 157.529658591
1121, 1563.73577461, 10, 178.764829295
1122, 1563.73577461, 10, 200
1123, 1563.73577461, -120, 200
1124, 1563.73577461, -92.5, 200
1125, 1563.73577461, -120, 210
1126, 1563.73577461, -92.5, 210
1127, 1563.73577461, -120, 220
1128, 1563.73577461, -92.5, 220
1129, 1563.73577461, -65, 200
1130, 1563.73577461, -65, 210
1131, 1563.73577461, -65, 220
1132, 1563.73577461, -37.5, 200
1133, 1563.73577461, -37.5, 210
1134, 1563.73577461, -37.5, 220
1135, 1563.73577461, -10, 210
1136, 1563.73577461, -10, 220
1137, 1563.73577461, 0, 210
1138, 1563.73577461, 0, 220
1139, 1563.73577461, 10, 210
1140, 1563.73577461, 10, 220
1141, 1563.73577461, 37.5, 200
1142, 1563.73577461, 37.5, 210
1143, 1563.73577461, 37.5, 220
1144, 1563.73577461, 65, 200
1145, 1563.73577461, 65, 210
1146, 1563.73577461, 65, 220
1147, 1563.73577461, 92.5, 200
1148, 1563.73577461, 92.5, 210
1149, 1563.73577461, 92.5, 220
1150, 1563.73577461, 120, 200
1151, 1563.73577461, 120, 210
1152, 1563.73577461, 120, 220
1153, 1635.00003925, -10, 98.100002355
1154, 1635.00003925, 0, 98.100002355
1155, 1635.00003925, -10, 118.480001884
1156, 1635.00003925, 0, 118.480001884
1157, 1635.00003925, -10, 138.860001413
1158, 1635.00003925, 0, 138.860001413
1159, 1635.00003925, -10, 159.240000942
1160, 1635.00003925, 0, 159.240000942
1161, 1635.00003925, -10, 179.620000471
1162, 1635.00003925, 0, 179.620000471
1163, 1635.00003925, -10, 200
1164, 1635.00003925, 0, 200
1165, 1635.00003925, 10, 98.100002355
1166, 1635.00003925, 10, 118.480001884
1167, 1635.00003925, 10, 138.860001413
1168, 1635.00003925, 10, 159.240000942
1169, 1635.00003925, 10, 179.620000471
1170, 1635.00003925, 10, 200
1171, 1635.00003925, -120, 200
1172, 1635.00003925, -92.5, 200
1173, 1635.00003925, -120, 210
1174, 1635.00003925, -92.5, 210
1175, 1635.00003925, -120, 220
1176, 1635.00003925, -92.5, 220
1177, 1635.00003925, -65, 200
1178, 1635.00003925, -65, 210
1179, 1635.00003925, -65, 220
1180, 1635.00003925, -37.5, 200
1181, 1635.00003925, -37.5, 210
1182, 1635.00003925, -37.5, 220
1183, 1635.00003925, -10, 210
1184, 1635.00003925, -10, 220
1185, 1635.00003925, 0, 210
1186, 1635.00003925, 0, 220
1187, 1635.00003925, 10, 210
1188, 1635.00003925, 10, 220
1189, 1635.00003925, 37.5, 200
1190, 1635.00003925, 37.5, 210
1191, 1635.00003925, 37.5, 220
1192, 1635.00003925, 65, 200
1193, 1635.00003925, 65, 210
1194, 1635.00003925, 65, 220
1195, 1635.00003925, 92.5, 200
1196, 1635.00003925, 92.5, 210
1197, 1635.00003925, 92.5, 220
1198, 1635.00003925, 120, 200
1199, 1635.00003925, 120, 210
1200, 1635.00003925, 120, 220
1201, 1706.42942925, -10, 102.385765755
1202, 1706.42942925, 0, 102.385765755
1203, 1706.42942925, -10, 121.908612604
1204, 1706.42942925, 0, 121.908612604
1205, 1706.42942925, -10, 141.431459453
1206, 1706.42942925, 0, 141.431459453
1207, 1706.42942925, -10, 160.954306302
1208, 1706.42942925, 0, 160.954306302
1209, 1706.42942925, -10, 180.477153151
1210, 1706.42942925, 0, 180.477153151
1211, 1706.42942925, -10, 200
1212, 1706.42942925, 0, 200
1213, 1706.42942925, 10, 102.385765755
1214, 1706.42942925, 10, 121.908612604
1215, 1706.42942925, 10, 141.431459453
1216, 1706.42942925, 10, 160.954306302
1217, 1706.42942925, 10, 180.477153151
1218, 1706.42942925, 10, 200
1219, 1706.42942925, -120, 200
1220, 1706.42942925, -92.5, 200
1221, 1706.42942925, -120, 210
1222, 1706.42942925, -92.5, 210
1223, 1706.42942925, -120, 220
1224, 1706.42942925, -92.5, 220
1225, 1706.42942925, -65, 200
1226, 1706.42942925, -65, 210
1227, 1706.42942925, -65, 220
1228, 1706.42942925, -37.5, 200
1229, 1706.42942925, -37.5, 210
1230, 1706.42942925, -37.5, 220
1231, 1706.42942925, -10, 210
1232, 1706.42942925, -10, 220
1233, 1706.42942925, 0, 210
1234, 1706.42942925, 0, 220
1235, 1706.42942925, 10, 210
1236, 1706.42942925, 10, 220
1237, 1706.42942925, 37.5, 200
1238, 1706.42942925, 37.5, 210
1239, 1706.42942925, 37.5, 220
1240, 1706.42942925, 65, 200
1241, 1706.42942925, 65, 210
1242, 1706.42942925, 65, 220
1243, 1706.42942925, 92.5, 200
1244, 1706.42942925, 92.5, 210
1245, 1706.42942925, 92.5, 220
1246, 1706.42942925, 120, 200
1247, 1706.42942925, 120, 210
1248, 1706.42942925, 120, 220
1249, 1778.02471116, -10, 106.681482669
1250, 1778.02471116, 0, 106.681482669
1251, 1778.02471116, -10, 125.345186136
1252, 1778.02471116, 0, 125.345186136
1253, 1778.02471116, -10, 144.008889602
1254, 1778.02471116, 0, 144.008889602
1255, 1778.02471116, -10, 162.672593068
1256, 1778.02471116, 0, 162.672593068
1257, 1778.02471116, -10, 181.336296534
1258, 1778.02471116, 0, 181.336296534
1259, 1778.02471116, -10, 200
1260, 1778.02471116, 0, 200
1261, 1778.02471116, 10, 106.681482669
1262, 1778.02471116, 10, 125.345186136
1263, 1778.02471116, 10, 144.008889602
1264, 1778.02471116, 10, 162.672593068
1265, 1778.02471116, 10, 181.336296534
1266, 1778.02471116, 10, 200
1267, 1778.02471116, -120, 200
1268, 1778.02471116, -92.5, 200
1269, 1778.02471116, -120, 210
1270, 1778.02471116, -92.5, 210
1271, 1778.02471116, -120, 220
1272, 1778.02471116, -92.5, 220
1273, 1778.02471116, -65, 200
1274, 1778.02471116, -65, 210
1275, 1778.02471116, -65, 220
1276, 1778.02471116, -37.5, 200
1277, 1778.02471116, -37.5, 210
1278, 1778.02471116, -37.5, 220
1279, 1778.02471116, -10, 210
1280, 1778.02471116, -10, 220
1281, 1778.02471116, 0, 210
1282, 1778.02471116, 0, 220
1283, 1778.02471116, 10, 210
1284, 1778.02471116, 10, 220
1285, 1778.02471116, 37.5, 200
1286, 1778.02471116, 37.5, 210
1287, 1778.02471116, 37.5, 220
1288, 1778.02471116, 65, 200
1289, 1778.02471116, 65, 210
1290, 1778.02471116, 65, 220
1291, 1778.02471116, 92.5, 200
1292, 1778.02471116, 92.5, 210
1293, 1778.02471116, 92.5, 220
1294, 1778.02471116, 120, 200
1295, 1778.02471116, 120, 210
1296, 1778.02471116, 120, 220
1297, 1849.78665688, -10, 110.987199413
1298, 1849.78665688, 0, 110.987199413
1299, 1849.78665688, -10, 128.78975953
1300, 1849.78665688, 0, 128.78975953
1301, 1849.78665688, -10, 146.592319648
1302, 1849.78665688, 0, 146.592319648
1303, 1849.78665688, -10, 164.394879765
1304, 1849.78665688, 0, 164.394879765
1305, 1849.78665688, -10, 182.197439883
1306, 1849.78665688, 0, 182.197439883
1307, 1849.78665688, -10, 200
1308, 1849.78665688, 0, 200
1309, 1849.78665688, 10, 110.987199413
1310, 1849.78665688, 10, 128.78975953
1311, 1849.78665688, 10, 146.592319648
1312, 1849.78665688, 10, 164.394879765
1313, 1849.78665688, 10, 182.197439883
1314, 1849.78665688, 10, 200
1315, 1849.78665688, -120, 200
1316, 1849.78665688, -92.5, 200
1317, 1849.78665688, -120, 210
1318, 1849.78665688, -92.5, 210
1319, 1849.78665688, -120, 220
1320, 1849.78665688, -92.5, 220
1321, 1849.78665688, -65, 200
1322, 1849.78665688, -65, 210
1323, 1849.78665688, -65, 220
1324, 1849.78665688, -37.5, 200
1325, 1849.78665688, -37.5, 210
1326, 1849.78665688, -37.5, 220
1327, 1849.78665688, -10, 210
1328, 1849.78665688, -10, 220
1329, 1849.78665688, 0, 210
1330, 1849.78665688, 0, 220
1331, 1849.78665688, 10, 210
1332, 1849.78665688, 10, 220
1333, 1849.78665688, 37.5, 200
1334, 1849.78665688, 37.5, 210
1335, 1849.78665688, 37.5, 220
1336, 1849.78665688, 65, 200
1337, 1849.78665688, 65, 210
1338, 1849.78665688, 65, 220
1339, 1849.78665688, 92.5, 200
1340, 1849.78665688, 92.5, 210
1341, 1849.78665688, 92.5, 220
1342, 1849.78665688, 120, 200
1343, 1849.78665688, 120, 210
1344, 1849.78665688, 120, 220
1345, 1921.7160437, -10, 115.302962622
1346, 1921.7160437, 0, 115.302962622
1347, 1921.7160437, -10, 132.242370098
1348, 1921.7160437, 0, 132.242370098
1349, 1921.7160437, -10, 149.181777573
1350, 1921.7160437, 0, 149.181777573
1351, 1921.7160437, -10, 166.121185049
1352, 1921.7160437, 0, 166.121185049
1353, 1921.7160437, -10, 183.060592524
1354, 1921.7160437, 0, 183.060592524
1355, 1921.7160437, -10, 200
1356, 1921.7160437, 0, 200
1357, 1921.7160437, 10, 115.302962622
1358, 1921.7160437, 10, 132.242370098
1359, 1921.7160437, 10, 149.181777573
1360, 1921.7160437, 10, 166.121185049
1361, 1921.7160437, 10, 183.060592524
1362, 1921.7160437, 10, 200
1363, 1921.7160437, -120, 200
1364, 1921.7160437, -92.5, 200
1365, 1921.7160437, -120, 210
1366, 1921.7160437, -92.5, 210
1367, 1921.7160437, -120, 220
1368, 1921.7160437, -92.5, 220
1369, 1921.7160437, -65, 200
1370, 1921.7160437, -65, 210
1371, 1921.7160437, -65, 220
1372, 1921.7160437, -37.5, 200
1373, 1921.7160437, -37.5, 210
1374, 1921.7160437, -37.5, 220
1375, 1921.7160437, -10, 210
1376, 1921.7160437, -10, 220
1377, 1921.7160437, 0, 210
1378, 1921.7160437, 0, 220
1379, 1921.7160437, 10, 210
1380, 1921.7160437, 10, 220
1381, 1921.7160437, 37.5, 200
1382, 1921.7160437, 37.5, 210
1383, 1921.7160437, 37.5, 220
1384, 1921.7160437, 65, 200
1385, 1921.7160437, 65, 210
1386, 1921.7160437, 65, 220
1387, 1921.7160437, 92.5, 200
1388, 1921.7160437, 92.5, 210
1389, 1921.7160437, 92.5, 220
1390, 1921.7160437, 120, 200
1391, 1921.7160437, 120, 210
1392, 1921.7160437, 120, 220
1393, 1974.70928812, -10, 118.482557287
1394, 1974.70928812, 0, 118.482557287
1395, 1974.70928812, -10, 134.78604583
1396, 1974.70928812, 0, 134.78604583
1397, 1974.70928812, -10, 151.089534372
1398, 1974.70928812, 0, 151.089534372
1399, 1974.70928812, -10, 167.393022915
1400, 1974.70928812, 0, 167.393022915
1401, 1974.70928812, -10, 183.696511457
1402, 1974.70928812, 0, 183.696511457
1403, 1974.70928812, -10, 200
1404, 1974.70928812, 0, 200
1405, 1974.70928812, 10, 118.482557287
1406, 1974.70928812, 10, 134.78604583
1407, 1974.70928812, 10, 151.089534372
1408, 1974.70928812, 10, 167.393022915
1409, 1974.70928812, 10, 183.696511457
1410, 1974.70928812, 10, 200
1411, 1974.70928812, -120, 200
1412, 1974.70928812, -92.5, 200
1413, 1974.70928812, -120, 210
1414, 1974.70928812, -92.5, 210
1415, 1974.70928812, -120, 220
1416, 1974.70928812, -92.5, 220
1417, 1974.70928812, -65, 200
1418, 1974.70928812, -65, 210
1419, 1974.70928812, -65, 220
1420, 1974.70928812, -37.5, 200
1421, 1974.70928812, -37.5, 210
1422, 1974.70928812, -37.5, 220
1423, 1974.70928812, -10, 210
1424, 1974.70928812, -10, 220
1425, 1974.70928812, 0, 210
1426, 1974.70928812, 0, 220
1427, 1974.70928812, 10, 210
1428, 1974.70928812, 10, 220
1429, 1974.70928812, 37.5, 200
1430, 1974.70928812, 37.5, 210
1431, 1974.70928812, 37.5, 220
1432, 1974.70928812, 65, 200
1433, 1974.70928812, 65, 210
1434, 1974.70928812, 65, 220
1435, 1974.70928812, 92.5, 200
1436, 1974.70928812, 92.5, 210
1437, 1974.70928812, 92.5, 220
1438, 1974.70928812, 120, 200
1439, 1974.70928812, 120, 210
1440, 1974.70928812, 120, 220
1441, 2000, -10, 120
1442, 2000, 0, 120
1443, 2000, -10, 136
1444, 2000, 0, 136
1445, 2000, -10, 152
1446, 2000, 0, 152
1447, 2000, -10, 168
1448, 2000, 0, 168
1449, 2000, -10, 184
1450, 2000, 0, 184
1451, 2000, -10, 200
1452, 2000, 0, 200
1453, 2000, 10, 120
1454, 2000, 10, 136
1455, 2000, 10, 152
1456, 2000, 10, 168
1457, 2000, 10, 184
1458, 2000, 10, 200
1459, 2000, -120, 200
1460, 2000, -92.5, 200
1461, 2000, -120, 210
1462, 2000, -92.5, 210
1463, 2000, -120, 220
1464, 2000, -92.5, 220
1465, 2000, -65, 200
1466, 2000, -65, 210
1467, 2000, -65, 220
1468, 2000, -37.5, 200
1469, 2000, -37.5, 210
1470, 2000, -37.5, 220
1471, 2000, -10, 210
1472, 2000, -10, 220
1473, 2000, 0, 210
1474, 2000, 0, 220
1475, 2000, 10, 210
1476, 2000, 10, 220
1477, 2000, 37.5, 200
1478, 2000, 37.5, 210
1479, 2000, 37.5, 220
1480, 2000, 65, 200
1481, 2000, 65, 210
1482, 2000, 65, 220
1483, 2000, 92.5, 200
1484, 2000, 92.5, 210
1485, 2000, 92.5, 220
1486, 2000, 120, 200
1487, 2000, 120, 210
1488, 2000, 120, 220
*ELEMENT, TYPE=C3D8, ELSET=EALL
1, 1, 2, 3, 4, 5, 6, 7, 8
2, 5, 6, 7, 8, 9, 10, 11, 12
3, 9, 10, 11, 12, 13, 14, 15, 16
4, 13, 14, 15, 16, 17, 18, 19, 20
5, 17, 18, 19, 20, 21, 22, 23, 24
6, 4, 3, 25, 26, 8, 7, 27, 28
7, 8, 7, 27, 28, 12, 11, 29, 30
8, 12, 11, 29, 30, 16, 15, 31, 32
9, 16, 15, 31, 32, 20, 19, 33, 34
10, 20, 19, 33, 34, 24, 23, 35, 36
11, 37, 38, 39, 40, 41, 42, 43, 44
12, 41, 42, 43, 44, 45, 46, 47, 48
13, 40, 39, 49, 50, 44, 43, 51, 52
14, 44, 43, 51, 52, 48, 47, 53, 54
15, 50, 49, 55, 56, 52, 51, 57, 58
16, 52, 51, 57, 58, 54, 53, 59, 60
17, 56, 55, 22, 21, 58, 57, 61, 62
18, 58, 57, 61, 62, 60, 59, 63, 64
19, 21, 22, 23, 24, 62, 61, 65, 66
20, 62, 61, 65, 66, 64, 63, 67, 68
21, 24, 23, 35, 36, 66, 65, 69, 70
22, 66, 65, 69, 70, 68, 67, 71, 72
23, 36, 35, 73, 74, 70, 69, 75, 76
24, 70, 69, 75, 76, 72, 71, 77, 78
25, 74, 73, 79, 80, 76, 75, 81, 82
26, 76, 75, 81, 82, 78, 77, 83, 84
27, 80, 79, 85, 86, 82, 81, 87, 88
28, 82, 81, 87, 88, 84, 83, 89, 90
29, 86, 85, 91, 92, 88, 87, 93, 94
30, 88, 87, 93, 94, 90, 89, 95, 96
31, 2, 97, 98, 3, 6, 99, 100, 7
32, 6, 99, 100, 7, 10, 101, 102, 11
33, 10, 101, 102, 11, 14, 103, 104, 15
34, 14, 103, 104, 15, 18, 105, 106, 19
35, 18, 105, 106, 19, 22, 107, 108, 23
36, 3, 98, 109, 25, 7, 100, 110, 27
37, 7, 100, 110, 27, 11, 102, 111, 29
38, 11, 102, 111, 29, 15, 104, 112, 31
39, 15, 104, 112, 31, 19, 106, 113, 33
40, 19, 106, 113, 33, 23, 108, 114, 35
41, 38, 115, 116, 39, 42, 117, 118, 43
42, 42, 117, 118, 43, 46, 119, 120, 47
43, 39, 116, 121, 49, 43, 118, 122, 51
44, 43, 118, 122, 51, 47, 120, 123, 53
45, 49, 121, 124, 55, 51, 122, 125, 57
46, 51, 122, 125, 57, 53, 123, 126, 59
47, 55, 124, 107, 22, 57, 125, 127, 61
48, 57, 125, 127, 61, 59, 126, 128, 63
49, 22, 107, 108, 23, 61, 127, 129, 65
50, 61, 127, 129, 65, 63, 128, 130, 67
51, 23, 108, 114, 35, 65, 129, 131, 69
52, 65, 129, 131, 69, 67, 130, 132, 71
53, 35, 114, 133, 73, 69, 131, 134, 75
54, 69, 131, 134, 75, 71, 132, 135, 77
55, 73, 133, 136, 79, 75, 134, 137, 81
56, 75, 134, 137, 81, 77, 135, 138, 83
57, 79, 136, 139, 85, 81, 137, 140, 87
58, 81, 137, 140, 87, 83, 138, 141, 89
59, 85, 139, 142, 91, 87, 140, 143, 93
60, 87, 140, 143, 93, 89, 141, 144, 95
61, 97, 145, 146, 98, 99, 147, 148, 100
62, 99, 147, 148, 100, 101, 149, 150, 102
63, 101, 149, 150, 102, 103, 151, 152, 104
64, 103, 151, 152, 104, 105, 153, 154, 106
65, 105, 153, 154, 106, 107, 155, 156, 108
66, 98, 146, 157, 109, 100, 148, 158, 110
67, 100, 148, 158, 110, 102, 150, 159, 111
68, 102, 150, 159, 111, 104, 152, 160, 112
69, 104, 152, 160, 112, 106, 154, 161, 113
70, 106, 154, 161, 113, 108, 156, 162, 114
71, 115, 163, 164, 116, 117, 165, 166, 118
72, 117, 165, 166, 118, 119, 167, 168, 120
73, 116, 164, 169, 121, 118, 166, 170, 122
74, 118, 166, 170, 122, 120, 168, 171, 123
75, 121, 169, 172, 124, 122, 170, 173, 125
76, 122, 170, 173, 125, 123, 171, 174, 126
77, 124, 172, 155, 107, 125, 173, 175, 127
78, 125, 173, 175, 127, 126, 174, 176, 128
79, 107, 155, 156, 108, 127, 175, 177, 129
80, 127, 175, 177, 129, 128, 176, 178, 130
81, 108, 156, 162, 114, 129, 177, 179, 131
82, 129, 177, 179, 131, 130, 178, 180, 132
83, 114, 162, 181, 133, 131, 179, 182, 134
84, 131, 179, 182, 134, 132, 180, 183, 135
85, 133, 181, 184, 136, 134, 182, 185, 137
86, 134, 182, 185, 137, 135, 183, 186, 138
87, 136, 184, 187, 139, 137, 185, 188, 140
88, 137, 185, 188, 140, 138, 186, 189, 141
89, 139, 187, 190, 142, 140, 188, 191, 143
90, 140, 188, 191, 143, 141, 189, 192, 144
91, 145, 193, 194, 146, 147, 195, 196, 148
92, 147, 195, 196, 148, 149, 197, 198, 150
93, 149, 197, 198, 150, 151, 199, 200, 152
94, 151, 199, 200, 152, 153, 201, 202, 154
95, 153, 201, 202, 154, 155, 203, 204, 156
96, 146, 194, 205, 157, 148, 196, 206, 158
97, 148, 196, 206, 158, 150, 198, 207, 159
98, 150, 198, 207, 159, 152, 200, 208, 160
99, 152, 200, 208, 160, 154, 202, 209, 161
100, 154, 202, 209, 161, 156, 204, 210, 162
101, 163, 211, 212, 164, 165, 213, 214, 166
102, 165, 213, 214, 166, 167, 215, 216, 168
103, 164, 212, 217, 169, 166, 214, 218, 170
104, 166, 214, 218, 170, 168, 216, 219, 171
105, 169, 217, 220, 172, 170, 218, 221, 173
106, 170, 218, 221, 173, 171, 219, 222, 174
107, 172, 220, 203, 155, 173, 221, 223, 175
108, 173, 221, 223, 175, 174, 222, 224, 176
109, 155, 203, 204, 156, 175, 223, 225, 177
110, 175, 223, 225, 177, 176, 224, 226, 178
111, 156, 204, 210, 162, 177, 225, 227, 179
112, 177, 225, 227, 179, 178, 226, 228, 180
113, 162, 210, 229, 181, 179, 227, 230, 182
114, 179, 227, 230, 182, 180, 228, 231, 183
115, 181, 229, 232, 184, 182, 230, 233, 185
116, 182, 230, 233, 185, 183, 231, 234, 186
117, 184, 232, 235, 187, 185, 233, 236, 188
118, 185, 233, 236, 188, 186, 234, 237, 189
119, 187, 235, 238, 190, 188, 236, 239, 191
120, 188, 236, 239, 191, 189, 237, 240, 192
121, 193, 241, 242, 194, 195, 243, 244, 196
122, 195, 243, 244, 196, 197, 245, 246, 198
123, 197, 245, 246, 198, 199, 247, 248, 200
124, 199, 247, 248, 200, 201, 249, 250, 202
125, 201, 249, 250, 202, 203, 251, 252, 204
126, 194, 242, 253, 205, 196, 244, 254, 206
127, 196, 244, 254, 206, 198, 246, 255, 207
128, 198, 246, 255, 207, 200, 248, 256, 208
129, 200, 248, 256, 208, 202, 250, 257, 209
130, 202, 250, 257, 209, 204, 252, 258, 210
131, 211, 259, 260, 212, 213, 261, 262, 214
132, 213, 261, 262, 214, 215, 263, 264, 216
133, 212, 260, 265, 217, 214, 262, 266, 218
134, 214, 262, 266, 218, 216, 264, 267, 219
135, 217, 265, 268, 220, 218, 266, 269, 221
136, 218, 266, 269, 221, 219, 267, 270, 222
137, 220, 268, 251, 203, 221, 269, 271, 223
138, 221, 269, 271, 223, 222, 270, 272, 224
139, 203, 251, 252, 204, 223, 271, 273, 225
140, 223, 271, 273, 225, 224, 272, 274, 226
141, 204, 252, 258, 210, 225, 273, 275, 227
142, 225, 273, 275, 227, 226, 274, 276, 228
143, 210, 258, 277, 229, 227, 275, 278, 230
144, 227, 275, 278, 230, 228, 276, 279, 231
145, 229, 277, 280, 232, 230, 278, 281, 233
146, 230, 278, 281, 233, 231, 279, 282, 234
147, 232, 280, 283, 235, 233, 281, 284, 236
148, 233, 281, 284, 236, 234, 282, 285, 237
149, 235, 283, 286, 238, 236, 284, 287, 239
150, 236, 284, 287, 239, 237, 285, 288, 240
151, 241, 289, 290, 242, 243, 291, 292, 244
152, 243, 291, 292, 244, 245, 293, 294, 246
153, 245, 293, 294, 246, 247, 295, 296, 248
154, 247, 295, 296, 248, 249, 297, 298, 250
155, 249, 297, 298, 250, 251, 299, 300, 252
156, 242, 290, 301, 253, 244, 292, 302, 254
157, 244, 292, 302, 254, 246, 294, 303, 255
158, 246, 294, 303, 255, 248, 296, 304, 256
159, 248, 296, 304, 256, 250, 298, 305, 257
160, 250, 298, 305, 257, 252, 300, 306, 258
161, 259, 307, 308, 260, 261, 309, 310, 262
162, 261, 309, 310, 262, 263, 311, 312, 264
163, 260, 308, 313, 265, 262, 310, 314, 266
164, 262, 310, 314, 266, 264, 312, 315, 267
165, 265, 313, 316, 268, 266, 314, 317, 269
166, 266, 314, 317, 269, 267, 315, 318, 270
167, 268, 316, 299, 251, 269, 317, 319, 271
168, 269, 317, 319, 271, 270, 318, 320, 272
169, 251, 299, 300, 252, 271, 319, 321, 273
170, 271, 319, 321, 273, 272, 320, 322, 274
171, 252, 300, 306, 258, 273, 321, 323, 275
172, 273, 321, 323, 275, 274, 322, 324, 276
173, 258, 306, 325, 277, 275, 323, 326, 278
174, 275, 323, 326, 278, 276, 324, 327, 279
175, 277, 325, 328, 280, 278, 326, 329, 281
176, 278, 326, 329, 281, 279, 327, 330, 282
177, 280, 328, 331, 283, 281, 329, 332, 284
178, 281, 329, 332, 284, 282, 330, 333, 285
179, 283, 331, 334, 286, 284, 332, 335, 287
180, 284, 332, 335, 287, 285, 333, 336, 288
181, 289, 337, 338, 290, 291, 339, 340, 292
182, 291, 339, 340, 292, 293, 341, 342, 294
183, 293, 341, 342, 294, 295, 343, 344, 296
184, 295, 343, 344, 296, 297, 345, 346, 298
185, 297, 345, 346, 298, 299, 347, 348, 300
186, 290, 338, 349, 301, 292, 340, 350, 302
187, 292, 340, 350, 302, 294, 342, 351, 303
188, 294, 342, 351, 303, 296, 344, 352, 304
189, 296, 344, 352, 304, 298, 346, 353, 305
190, 298, 346, 353, 305, 300, 348, 354, 306
191, 307, 355, 356, 308, 309, 357, 358, 310
192, 309, 357, 358, 310, 311, 359, 360, 312
193, 308, 356, 361, 313, 310, 358, 362, 314
194, 310, 358, 362, 314, 312, 360, 363, 315
195, 313, 361, 364, 316, 314, 362, 365, 317
196, 314, 362, 365, 317, 315, 363, 366, 318
197, 316, 364, 347, 299, 317, 365, 367, 319
198, 317, 365, 367, 319, 318, 366, 368, 320
199, 299, 347, 348, 300, 319, 367, 369, 321
200, 319, 367, 369, 321, 320, 368, 370, 322
201, 300, 348, 354, 306, 321, 369, 371, 323
202, 321, 369, 371, 323, 322, 370, 372, 324
203, 306, 354, 373, 325, 323, 371, 374, 326
204, 323, 371, 374, 326, 324, 372, 375, 327
205, 325, 373, 376, 328, 326, 374, 377, 329
206, 326, 374, 377, 329, 327, 375, 378, 330
207, 328, 376, 379, 331, 329, 377, 380, 332
208, 329, 377, 380, 332, 330, 378, 381, 333
209, 331, 379, 382, 334, 332, 380, 383, 335
210, 332, 380, 383, 335, 333, 381, 384, 336
211, 337, 385, 386, 338, 339, 387, 388, 340
212, 339, 387, 388, 340, 341, 389, 390, 342
213, 341, 389, 390, 342, 343, 391, 392, 344
214, 343, 391, 392, 344, 345, 393, 394, 346
215, 345, 393, 394, 346, 347, 395, 396, 348
216, 338, 386, 397, 349, 340, 388, 398, 350
217, 340, 388, 398, 350, 342, 390, 399, 351
218, 342, 390, 399, 351, 344, 392, 400, 352
219, 344, 392, 400, 352, 346, 394, 401, 353
220, 346, 394, 401, 353, 348, 396, 402, 354
221, 355, 403, 404, 356, 357, 405, 406, 358
222, 357, 405, 406, 358, 359, 407, 408, 360
223, 356, 404, 409, 361, 358, 406, 410, 362
224, 358, 406, 410, 362, 360, 408, 411, 363
225, 361, 409, 412, 364, 362, 410, 413, 365
226, 362, 410, 413, 365, 363, 411, 414, 366
227, 364, 412, 395, 347, 365, 413, 415, 367
228, 365, 413, 415, 367, 366, 414, 416, 368
229, 347, 395, 396, 348, 367, 415, 417, 369
230, 367, 415, 417, 369, 368, 416, 418, 370
231, 348, 396, 402, 354, 369, 417, 419, 371
232, 369, 417, 419, 371, 370, 418, 420, 372
233, 354, 402, 421, 373, 371, 419, 422, 374
234, 371, 419, 422, 374, 372, 420, 423, 375
235, 373, 421, 424, 376, 374, 422, 425, 377
236, 374, 422, 425, 377, 375, 423, 426, 378
237, 376, 424, 427, 379, 377, 425, 428, 380
238, 377, 425, 428, 380, 378, 426, 429, 381
239, 379, 427, 430, 382, 380, 428, 431, 383
240, 380, 428, 431, 383, 381, 429, 432, 384
241, 385, 433, 434, 386, 387, 435, 436, 388
242, 387, 435, 436, 388, 389, 437, 438, 390
243, 389, 437, 438, 390, 391, 439, 440, 392
244, 391, 439, 440, 392, 393, 441, 442, 394
245, 393, 441, 442, 394, 395, 443, 444, 396
246, 386, 434, 445, 397, 388, 436, 446, 398
247, 388, 436, 446, 398, 390, 438, 447, 399
248, 390, 438, 447, 399, 392, 440, 448, 400
249, 392, 440, 448, 400, 394, 442, 449, 401
250, 394, 442, 449, 401, 396, 444, 450, 402
251, 403, 451, 452, 404, 405, 453, 454, 406
252, 405, 453, 454, 406, 407, 455, 456, 408
253, 404, 452, 457, 409, 406, 454, 458, 410
254, 406, 454, 458, 410, 408, 456, 459, 411
255, 409, 457, 460, 412, 410, 458, 461, 413
256, 410, 458, 461, 413, 411, 459, 462, 414
257, 412, 460, 443, 395, 413, 461, 463, 415
258, 413, 461, 463, 415, 414, 462, 464, 416
259, 395, 443, 444, 396, 415, 463, 465, 417
260, 415, 463, 465, 417, 416, 464, 466, 418
261, 396, 444, 450, 402, 417, 465, 467, 419
262, 417, 465, 467, 419, 418, 466, 468, 420
263, 402, 450, 469, 421, 419, 467, 470, 422
264, 419, 467, 470, 422, 420, 468, 471, 423
265, 421, 469, 472, 424, 422, 470, 473, 425
266, 422, 470, 473, 425, 423, 471, 474, 426
267, 424, 472, 475, 427, 425, 473, 476, 428
268, 425, 473, 476, 428, 426, 474, 477, 429
269, 427, 475, 478, 430, 428, 476, 479, 431
270, 428, 476, 479, 431, 429, 477, 480, 432
271, 433, 481, 482, 434, 435, 483, 484, 436
272, 435, 483, 484, 436, 437, 485, 486, 438
273, 437, 485, 486, 438, 439, 487, 488, 440
274, 439, 487, 488, 440, 441, 489, 490, 442
275, 441, 489, 490, 442, 443, 491, 492, 444
276, 434, 482, 493, 445, 436, 484, 494, 446
277, 436, 484, 494, 446, 438, 486, 495, 447
278, 438, 486, 495, 447, 440, 488, 496, 448
279, 440, 488, 496, 448, 442, 490, 497, 449
280, 442, 490, 497, 449, 444, 492, 498, 450
281, 451, 499, 500, 452, 453, 501, 502, 454
282, 453, 501, 502, 454, 455, 503, 504, 456
283, 452, 500, 505, 457, 454, 502, 506, 458
284, 454, 502, 506, 458, 456, 504, 507, 459
285, 457, 505, 508, 460, 458, 506, 509, 461
286, 458, 506, 509, 461, 459, 507, 510, 462
287, 460, 508, 491, 443, 461, 509, 511, 463
288, 461, 509, 511, 463, 462, 510, 512, 464
289, 443, 491, 492, 444, 463, 511, 513, 465
290, 463, 511, 513, 465, 464, 512, 514, 466
291, 444, 492, 498, 450, 465, 513, 515, 467
292, 465, 513, 515, 467, 466, 514, 516, 468
293, 450, 498, 517, 469, 467, 515, 518, 470
294, 467, 515, 518, 470, 468, 516, 519, 471
295, 469, 517, 520, 472, 470, 518, 521, 473
296, 470, 518, 521, 473, 471, 519, 522, 474
297, 472, 520, 523, 475, 473, 521, 524, 476
298, 473, 521, 524, 476, 474, 522, 525, 477
299, 475, 523, 526, 478, 476, 524, 527, 479
300, 476, 524, 527, 479, 477, 525, 528, 480
301, 481, 529, 530, 482, 483, 531, 532, 484
302, 483, 531, 532, 484, 485, 533, 534, 486
303, 485, 533, 534, 486, 487, 535, 536, 488
304, 487, 535, 536, 488, 489, 537, 538, 490
305, 489, 537, 538, 490, 491, 539, 540, 492
306, 482, 530, 541, 493, 484, 532, 542, 494
307, 484, 532, 542, 494, 486, 534, 543, 495
308, 486, 534, 543, 495, 488, 536, 544, 496
309, 488, 536, 544, 496, 490, 538, 545, 497
310, 490, 538, 545, 497, 492, 540, 546, 498
311, 499, 547, 548, 500, 501, 549, 550, 502
312, 501, 549, 550, 502, 503, 551, 552, 504
313, 500, 548, 553, 505, 502, 550, 554, 506
314, 502, 550, 554, 506, 504, 552, 555, 507
315, 505, 553, 556, 508, 506, 554, 557, 509
316, 506, 554, 557, 509, 507, 555, 558, 510
317, 508, 556, 539, 491, 509, 557, 559, 511
318, 509, 557, 559, 511, 510, 558, 560, 512
319, 491, 539, 540, 492, 511, 559, 561, 513
320, 511, 559, 561, 513, 512, 560, 562, 514
321, 492, 540, 546, 498, 513, 561, 563, 515
322, 513, 561, 563, 515, 514, 562, 564, 516
323, 498, 546, 565, 517, 515, 563, 566, 518
324, 515, 563, 566, 518, 516, 564, 567, 519
325, 517, 565, 568, 520, 518, 566, 569, 521
326, 518, 566, 569, 521, 519, 567, 570, 522
327, 520, 568, 571, 523, 521, 569, 572, 524
328, 521, 569, 572, 524, 522, 570, 573, 525
329, 523, 571, 574, 526, 524, 572, 575, 527
330, 524, 572, 575, 527, 525, 573, 576, 528
331, 529, 577, 578, 530, 531, 579, 580, 532
332, 531, 579, 580, 532, 533, 581, 582, 534
333, 533, 581, 582, 534, 535, 583, 584, 536
334, 535, 583, 584, 536, 537, 585, 586, 538
335, 537, 585, 586, 538, 539, 587, 588, 540
336, 530, 578, 589, 541, 532, 580, 590, 542
337, 532, 580, 590, 542, 534, 582, 591, 543
338, 534, 582, 591, 543, 536, 584, 592, 544
339, 536, 584, 592, 544, 538, 586, 593, 545
340, 538, 586, 593, 545, 540, 588, 594, 546
341, 547, 595, 596, 548, 549, 597, 598, 550
342, 549, 597, 598, 550, 551, 599, 600, 552
343, 548, 596, 601, 553, 550, 598, 602, 554
344, 550, 598, 602, 554, 552, 600, 603, 555
345, 553, 601, 604, 556, 554, 602, 605, 557
346, 554, 602, 605, 557, 555, 603, 606, 558
347, 556, 604, 587, 539, 557, 605, 607, 559
348, 557, 605, 607, 559, 558, 606, 608, 560
349, 539, 587, 588, 540, 559, 607, 609, 561
350, 559, 607, 609, 561, 560, 608, 610, 562
351, 540, 588, 594, 546, 561, 609, 611, 563
352, 561, 609, 611, 563, 562, 610, 612, 564
353, 546, 594, 613, 565, 563, 611, 614, 566
354, 563, 611, 614, 566, 564, 612, 615, 567
355, 565, 613, 616, 568, 566, 614, 617, 569
356, 566, 614, 617, 569, 567, 615, 618, 570
357, 568, 616, 619, 571, 569, 617, 620, 572
358, 569, 617, 620, 572, 570, 618, 621, 573
359, 571, 619, 622, 574, 572, 620, 623, 575
360, 572, 620, 623, 575, 573, 621, 624, 576
361, 577, 625, 626, 578, 579, 627, 628, 580
362, 579, 627, 628, 580, 581, 629, 630, 582
363, 581, 629, 630, 582, 583, 631, 632, 584
364, 583, 631, 632, 584, 585, 633, 634, 586
365, 585, 633, 634, 586, 587, 635, 636, 588
366, 578, 626, 637, 589, 580, 628, 638, 590
367, 580, 628, 638, 590, 582, 630, 639, 591
368, 582, 630, 639, 591, 584, 632, 640, 592
369, 584, 632, 640, 592, 586, 634, 641, 593
370, 586, 634, 641, 593, 588, 636, 642, 594
371, 595, 643, 644, 596, 597, 645, 646, 598
372, 597, 645, 646, 598, 599, 647, 648, 600
373, 596, 644, 649, 601, 598, 646, 650, 602
374, 598, 646, 650, 602, 600, 648, 651, 603
375, 601, 649, 652, 604, 602, 650, 653, 605
376, 602, 650, 653, 605, 603, 651, 654, 606
377, 604, 652, 635, 587, 605, 653, 655, 607
378, 605, 653, 655, 607, 606, 654, 656, 608
379, 587, 635, 636, 588, 607, 655, 657, 609
380, 607, 655, 657, 609, 608, 656, 658, 610
381, 588, 636, 642, 594, 609, 657, 659, 611
382, 609, 657, 659, 611, 610, 658, 660, 612
383, 594, 642, 661, 613, 611, 659, 662, 614
384, 611, 659, 662, 614, 612, 660, 663, 615
385, 613, 661, 664, 616, 614, 662, 665, 617
386, 614, 662, 665, 617, 615, 663, 666, 618
387, 616, 664, 667, 619, 617, 665, 668, 620
388, 617, 665, 668, 620, 618, 666, 669, 621
389, 619, 667, 670, 622, 620, 668, 671, 623
390, 620, 668, 671, 623, 621, 669, 672, 624
391, 625, 673, 674, 626, 627, 675, 676, 628
392, 627, 675, 676, 628, 629, 677, 678, 630
393, 629, 677, 678, 630, 631, 679, 680, 632
394, 631, 679, 680, 632, 633, 681, 682, 634
395, 633, 681, 682, 634, 635, 683, 684, 636
396, 626, 674, 685, 637, 628, 676, 686, 638
397, 628, 676, 686, 638, 630, 678, 687, 639
398, 630, 678, 687, 639, 632, 680, 688, 640
399, 632, 680, 688, 640, 634, 682, 689, 641
400, 634, 682, 689, 641, 636, 684, 690, 642
401, 643, 691, 692, 644, 645, 693, 694, 646
402, 645, 693, 694, 646, 647, 695, 696, 648
403, 644, 692, 697, 649, 646, 694, 698, 650
404, 646, 694, 698, 650, 648, 696, 699, 651
405, 649, 697, 700, 652, 650, 698, 701, 653
406, 650, 698, 701, 653, 651, 699, 702, 654
407, 652, 700, 683, 635, 653, 701, 703, 655
408, 653, 701, 703, 655, 654, 702, 704, 656
409, 635, 683, 684, 636, 655, 703, 705, 657
410, 655, 703, 705, 657, 656, 704, 706, 658
411, 636, 684, 690, 642, 657, 705, 707, 659
412, 657, 705, 707, 659, 658, 706, 708, 660
413, 642, 690, 709, 661, 659, 707, 710, 662
414, 659, 707, 710, 662, 660, 708, 711, 663
415, 661, 709, 712, 664, 662, 710, 713, 665
416, 662, 710, 713, 665, 663, 711, 714, 666
417, 664, 712, 715, 667, 665, 713, 716, 668
418, 665, 713, 716, 668, 666, 714, 717, 669
419, 667, 715, 718, 670, 668, 716, 719, 671
420, 668, 716, 719, 671, 669, 717, 720, 672
421, 673, 721, 722, 674, 675, 723, 724, 676
422, 675, 723, 724, 676, 677, 725, 726, 678
423, 677, 725, 726, 678, 679, 727, 728, 680
424, 679, 727, 728, 680, 681, 729, 730, 682
425, 681, 729, 730, 682, 683, 731, 732, 684
426, 674, 722, 733, 685, 676, 724, 734, 686
427, 676, 724, 734, 686, 678, 726, 735, 687
428, 678, 726, 735, 687, 680, 728, 736, 688
429, 680, 728, 736, 688, 682, 730, 737, 689
430, 682, 730, 737, 689, 684, 732, 738, 690
431, 691, 739, 740, 692, 693, 741, 742, 694
432, 693, 741, 742, 694, 695, 743, 744, 696
433, 692, 740, 745, 697, 694, 742, 746, 698
434, 694, 742, 746, 698, 696, 744, 747, 699
435, 697, 745, 748, 700, 698, 746, 749, 701
436, 698, 746, 749, 701, 699, 747, 750, 702
437, 700, 748, 731, 683, 701, 749, 751, 703
438, 701, 749, 751, 703, 702, 750, 752, 704
439, 683, 731, 732, 684, 703, 751, 753, 705
440, 703, 751, 753, 705, 704, 752, 754, 706
441, 684, 732, 738, 690, 705, 753, 755, 707
442, 705, 753, 755, 707, 706, 754, 756, 708
443, 690, 738, 757, 709, 707, 755, 758, 710
444, 707, 755, 758, 710, 708, 756, 759, 711
445, 709, 757, 760, 712, 710, 758, 761, 713
446, 710, 758, 761, 713, 711, 759, 762, 714
447, 712, 760, 763, 715, 713, 761, 764, 716
448, 713, 761, 764, 716, 714, 762, 765, 717
449, 715, 763, 766, 718, 716, 764, 767, 719
450, 716, 764, 767, 719, 717, 765, 768, 720
451, 721, 769, 770, 722, 723, 771, 772, 724
452, 723, 771, 772, 724, 725, 773, 774, 726
453, 725, 773, 774, 726, 727, 775, 776, 728
454, 727, 775, 776, 728, 729, 777, 778, 730
455, 729, 777, 778, 730, 731, 779, 780, 732
456, 722, 770, 781, 733, 724, 772, 782, 734
457, 724, 772, 782, 734, 726, 774, 783, 735
458, 726, 774, 783, 735, 728, 776, 784, 736
459, 728, 776, 784, 736, 730, 778, 785, 737
460, 730, 778, 785, 737, 732, 780, 786, 738
461, 739, 787, 788, 740, 741, 789, 790, 742
462, 741, 789, 790, 742, 743, 791, 792, 744
463, 740, 788, 793, 745, 742, 790, 794, 746
464, 742, 790, 794, 746, 744, 792, 795, 747
465, 745, 793, 796, 748, 746, 794, 797, 749
466, 746, 794, 797, 749, 747, 795, 798, 750
467, 748, 796, 779, 731, 749, 797, 799, 751
468, 749, 797, 799, 751, 750, 798, 800, 752
469, 731, 779, 780, 732, 751, 799, 801, 753
470, 751, 799, 801, 753, 752, 800, 802, 754
471, 732, 780, 786, 738, 753, 801, 803, 755
472, 753, 801, 803, 755, 754, 802, 804, 756
473, 738, 786, 805, 757, 755, 803, 806, 758
474, 755, 803, 806, 758, 756, 804, 807, 759
475, 757, 805, 808, 760, 758, 806, 809, 761
476, 758, 806, 809, 761, 759, 807, 810, 762
477, 760, 808, 811, 763, 761, 809, 812, 764
478, 761, 809, 812, 764, 762, 810, 813, 765
479, 763, 811, 814, 766, 764, 812, 815, 767
480, 764, 812, 815, 767, 765, 813, 816, 768
481, 769, 817, 818, 770, 771, 819, 820, 772
482, 771, 819, 820, 772, 773, 821, 822, 774
483, 773, 821, 822, 774, 775, 823, 824, 776
484, 775, 823, 824, 776, 777, 825, 826, 778
485, 777, 825, 826, 778, 779, 827, 828, 780
486, 770, 818, 829, 781, 772, 820, 830, 782
487, 772, 820, 830, 782, 774, 822, 831, 783
488, 774, 822, 831, 783, 776, 824, 832, 784
489, 776, 824, 832, 784, 778, 826, 833, 785
490, 778, 826, 833, 785, 780, 828, 834, 786
491, 787, 835, 836, 788, 789, 837, 838, 790
492, 789, 837, 838, 790, 791, 839, 840, 792
493, 788, 836, 841, 793, 790, 838, 842, 794
494, 790, 838, 842, 794, 792, 840, 843, 795
495, 793, 841, 844, 796, 794, 842, 845, 797
496, 794, 842, 845, 797, 795, 843, 846, 798
497, 796, 844, 827, 779, 797, 845, 847, 799
498, 797, 845, 847, 799, 798, 846, 848, 800
499, 779, 827, 828, 780, 799, 847, 849, 801
500, 799, 847, 849, 801, 800, 848, 850, 802
501, 780, 828, 834, 786, 801, 849, 851, 803
502, 801, 849, 851, 803, 802, 850, 852, 804
503, 786, 834, 853, 805, 803, 851, 854, 806
504, 803, 851, 854, 806, 804, 852, 855, 807
505, 805, 853, 856, 808, 806, 854, 857, 809
506, 806, 854, 857, 809, 807, 855, 858, 810
507, 808, 856, 859, 811, 809, 857, 860, 812
508, 809, 857, 860, 812, 810, 858, 861, 813
509, 811, 859, 862, 814, 812, 860, 863, 815
510, 812, 860, 863, 815, 813, 861, 864, 816
511, 817, 865, 866, 818, 819, 867, 868, 820
512, 819, 867, 868, 820, 821, 869, 870, 822
513, 821, 869, 870, 822, 823, 871, 872, 824
514, 823, 871, 872, 824, 825, 873, 874, 826
515, 825, 873, 874, 826, 827, 875, 876, 828
516, 818, 866, 877, 829, 820, 868, 878, 830
517, 820, 868, 878, 830, 822, 870, 879, 831
518, 822, 870, 879, 831, 824, 872, 880, 832
519, 824, 872, 880, 832, 826, 874, 881, 833
520, 826, 874, 881, 833, 828, 876, 882, 834
521, 835, 883, 884, 836, 837, 885, 886, 838
522, 837, 885, 886, 838, 839, 887, 888, 840
523, 836, 884, 889, 841, 838, 886, 890, 842
524, 838, 886, 890, 842, 840, 888, 891, 843
525, 841, 889, 892, 844, 842, 890, 893, 845
526, 842, 890, 893, 845, 843, 891, 894, 846
527, 844, 892, 875, 827, 845, 893, 895, 847
528, 845, 893, 895, 847, 846, 894, 896, 848
529, 827, 875, 876, 828, 847, 895, 897, 849
530, 847, 895, 897, 849, 848, 896, 898, 850
531, 828, 876, 882, 834, 849, 897, 899, 851
532, 849, 897, 899, 851, 850, 898, 900, 852
533, 834, 882, 901, 853, 851, 899, 902, 854
534, 851, 899, 902, 854, 852, 900, 903, 855
535, 853, 901, 904, 856, 854, 902, 905, 857
536, 854, 902, 905, 857, 855, 903, 906, 858
537, 856, 904, 907, 859, 857, 905, 908, 860
538, 857, 905, 908, 860, 858, 906, 909, 861
539, 859, 907, 910, 862, 860, 908, 911, 863
540, 860, 908, 911, 863, 861, 909, 912, 864
541, 865, 913, 914, 866, 867, 915, 916, 868
542, 867, 915, 916, 868, 869, 917, 918, 870
543, 869, 917, 918, 870, 871, 919, 920, 872
544, 871, 919, 920, 872, 873, 921, 922, 874
545, 873, 921, 922, 874, 875, 923, 924, 876
546, 866, 914, 925, 877, 868, 916, 926, 878
547, 868, 916, 926, 878, 870, 918, 927, 879
548, 870, 918, 927, 879, 872, 920, 928, 880
549, 872, 920, 928, 880, 874, 922, 929, 881
550, 874, 922, 929, 881, 876, 924, 930, 882
551, 883, 931, 932, 884, 885, 933, 934, 886
552, 885, 933, 934, 886, 887, 935, 936, 888
553, 884, 932, 937, 889, 886, 934, 938, 890
554, 886, 934, 938, 890, 888, 936, 939, 891
555, 889, 937, 940, 892, 890, 938, 941, 893
556, 890, 938, 941, 893, 891, 939, 942, 894
557, 892, 940, 923, 875, 893, 941, 943, 895
558, 893, 941, 943, 895, 894, 942, 944, 896
559, 875, 923, 924, 876, 895, 943, 945, 897
560, 895, 943, 945, 897, 896, 944, 946, 898
561, 876, 924, 930, 882, 897, 945, 947, 899
562, 897, 945, 947, 899, 898, 946, 948, 900
563, 882, 930, 949, 901, 899, 947, 950, 902
564, 899, 947, 950, 902, 900, 948, 951, 903
565, 901, 949, 952, 904, 902, 950, 953, 905
566, 902, 950, 953, 905, 903, 951, 954, 906
567, 904, 952, 955, 907, 905, 953, 956, 908
568, 905, 953, 956, 908, 906, 954, 957, 909
569, 907, 955, 958, 910, 908, 956, 959, 911
570, 908, 956, 959, 911, 909, 957, 960, 912
571, 913, 961, 962, 914, 915, 963, 964, 916
572, 915, 963, 964, 916, 917, 965, 966, 918
573, 917, 965, 966, 918, 919, 967, 968, 920
574, 919, 967, 968, 920, 921, 969, 970, 922
575, 921, 969, 970, 922, 923, 971, 972, 924
576, 914, 962, 973, 925, 916, 964, 974, 926
577, 916, 964, 974, 926, 918, 966, 975, 927
578, 918, 966, 975, 927, 920, 968, 976, 928
579, 920, 968, 976, 928, 922, 970, 977, 929
580, 922, 970, 977, 929, 924, 972, 978, 930
581, 931, 979, 980, 932, 933, 981, 982, 934
582, 933, 981, 982, 934, 935, 983, 984, 936
583, 932, 980, 985, 937, 934, 982, 986, 938
584, 934, 982, 986, 938, 936, 984, 987, 939
585, 937, 985, 988, 940, 938, 986, 989, 941
586, 938, 986, 989, 941, 939, 987, 990, 942
587, 940, 988, 971, 923, 941, 989, 991, 943
588, 941, 989, 991, 943, 942, 990, 992, 944
589, 923, 971, 972, 924, 943, 991, 993, 945
590, 943, 991, 993, 945, 944, 992, 994, 946
591, 924, 972, 978, 930, 945, 993, 995, 947
592, 945, 993, 995, 947, 946, 994, 996, 948
593, 930, 978, 997, 949, 947, 995, 998, 950
594, 947, 995, 998, 950, 948, 996, 999, 951
595, 949, 997, 1000, 952, 950, 998, 1001, 953
596, 950, 998, 1001, 953, 951, 999, 1002, 954
597, 952, 1000, 1003, 955, 953, 1001, 1004, 956
598, 953, 1001, 1004, 956, 954, 1002, 1005, 957
599, 955, 1003, 1006, 958, 956, 1004, 1007, 959
600, 956, 1004, 1007, 959, 957, 1005, 1008, 960
601, 961, 1009, 1010, 962, 963, 1011, 1012, 964
602, 963, 1011, 1012, 964, 965, 1013, 1014, 966
603, 965, 1013, 1014, 966, 967, 1015, 1016, 968
604, 967, 1015, 1016, 968, 969, 1017, 1018, 970
605, 969, 1017, 1018, 970, 971, 1019, 1020, 972
606, 962, 1010, 1021, 973, 964, 1012, 1022, 974
607, 964, 1012, 1022, 974, 966, 1014, 1023, 975
608, 966, 1014, 1023, 975, 968, 1016, 1024, 976
609, 968, 1016, 1024, 976, 970, 1018, 1025, 977
610, 970, 1018, 1025, 977, 972, 1020, 1026, 978
611, 979, 1027, 1028, 980, 981, 1029, 1030, 982
612, 981, 1029, 1030, 982, 983, 1031, 1032, 984
613, 980, 1028, 1033, 985, 982, 1030, 1034, 986
614, 982, 1030, 1034, 986, 984, 1032, 1035, 987
615, 985, 1033, 1036, 988, 986, 1034, 1037, 989
616, 986, 1034, 1037, 989, 987, 1035, 1038, 990
617, 988, 1036, 1019, 971, 989, 1037, 1039, 991
618, 989, 1037, 1039, 991, 990, 1038, 1040, 992
619, 971, 1019, 1020, 972, 991, 1039, 1041, 993
620, 991, 1039, 1041, 993, 992, 1040, 1042, 994
621, 972, 1020, 1026, 978, 993, 1041, 1043, 995
622, 993, 1041, 1043, 995, 994, 1042, 1044, 996
623, 978, 1026, 1045, 997, 995, 1043, 1046, 998
624, 995, 1043, 1046, 998, 996, 1044, 1047, 999
625, 997, 1045, 1048, 1000, 998, 1046, 1049, 1001
626, 998, 1046, 1049, 1001, 999, 1047, 1050, 1002
627, 1000, 1048, 1051, 1003, 1001, 1049, 1052, 1004
628, 1001, 1049, 1052, 1004, 1002, 1050, 1053, 1005
629, 1003, 1051, 1054, 1006, 1004, 1052, 1055, 1007
630, 1004, 1052, 1055, 1007, 1005, 1053, 1056, 1008
631, 1009, 1057, 1058, 1010, 1011, 1059, 1060, 1012
632, 1011, 1059, 1060, 1012, 1013, 1061, 1062, 1014
633, 1013, 1061, 1062, 1014, 1015, 1063, 1064, 1016
634, 1015, 1063, 1064, 1016, 1017, 1065, 1066, 1018
635, 1017, 1065, 1066, 1018, 1019, 1067, 1068, 1020
636, 1010, 1058, 1069, 1021, 1012, 1060, 1070, 1022
637, 1012, 1060, 1070, 1022, 1014, 1062, 1071, 1023
638, 1014, 1062, 1071, 1023, 1016, 1064, 1072, 1024
639, 1016, 1064, 1072, 1024, 1018, 1066, 1073, 1025
640, 1018, 1066, 1073, 1025, 1020, 1068, 1074, 1026
641, 1027, 1075, 1076, 1028, 1029, 1077, 1078, 1030
642, 1029, 1077, 1078, 1030, 1031, 1079, 1080, 1032
643, 1028, 1076, 1081, 1033, 1030, 1078, 1082, 1034
644, 1030, 1078, 1082, 1034, 1032, 1080, 1083, 1035
645, 1033, 1081, 1084, 1036, 1034, 1082, 1085, 1037
646, 1034, 1082, 1085, 1037, 1035, 1083, 1086, 1038
647, 1036, 1084, 1067, 1019, 1037, 1085, 1087, 1039
648, 1037, 1085, 1087, 1039, 1038, 1086, 1088, 1040
649, 1019, 1067, 1068, 1020, 1039, 1087, 1089, 1041
650, 1039, 1087, 1089, 1041, 1040, 1088, 1090, 1042
651, 1020, 1068, 1074, 1026, 1041, 1089, 1091, 1043
652, 1041, 1089, 1091, 1043, 1042, 1090, 1092, 1044
653, 1026, 1074, 1093, 1045, 1043, 1091, 1094, 1046
654, 1043, 1091, 1094, 1046, 1044, 1092, 1095, 1047
655, 1045, 1093, 1096, 1048, 1046, 1094, 1097, 1049
656, 1046, 1094, 1097, 1049, 1047, 1095, 1098, 1050
657, 1048, 1096, 1099, 1051, 1049, 1097, 1100, 1052
658, 1049, 1097, 1100, 1052, 1050, 1098, 1101, 1053
659, 1051, 1099, 1102, 1054, 1052, 1100, 1103, 1055
660, 1052, 1100, 1103, 1055, 1053, 1101, 1104, 1056
661, 1057, 1105, 1106, 1058, 1059, 1107, 1108, 1060
662, 1059, 1107, 1108, 1060, 1061, 1109, 1110, 1062
663, 1061, 1109, 1110, 1062, 1063, 1111, 1112, 1064
664, 1063, 1111, 1112, 1064, 1065, 1113, 1114, 1066
665, 1065, 1113, 1114, 1066, 1067, 1115, 1116, 1068
666, 1058, 1106, 1117, 1069, 1060, 1108, 1118, 1070
667, 1060, 1108, 1118, 1070, 1062, 1110, 1119, 1071
668, 1062, 1110, 1119, 1071, 1064, 1112, 1120, 1072
669, 1064, 1112, 1120, 1072, 1066, 1114, 1121, 1073
670, 1066, 1114, 1121, 1073, 1068, 1116, 1122, 1074
671, 1075, 1123, 1124, 1076, 1077, 1125, 1126, 1078
672, 1077, 1125, 1126, 1078, 1079, 1127, 1128, 1080
673, 1076, 1124, 1129, 1081, 1078, 1126, 1130, 1082
674, 1078, 1126, 1130, 1082, 1080, 1128, 1131, 1083
675, 1081, 1129, 1132, 1084, 1082, 1130, 1133, 1085
676, 1082, 1130, 1133, 1085, 1083, 1131, 1134, 1086
677, 1084, 1132, 1115, 1067, 1085, 1133, 1135, 1087
678, 1085, 1133, 1135, 1087, 1086, 1134, 1136, 1088
679, 1067, 1115, 1116, 1068, 1087, 1135, 1137, 1089
680, 1087, 1135, 1137, 1089, 1088, 1136, 1138, 1090
681, 1068, 1116, 1122, 1074, 1089, 1137, 1139, 1091
682, 1089, 1137, 1139, 1091, 1090, 1138, 1140, 1092
683, 1074, 1122, 1141, 1093, 1091, 1139, 1142, 1094
684, 1091, 1139, 1142, 1094, 1092, 1140, 1143, 1095
685, 1093, 1141, 1144, 1096, 1094, 1142, 1145, 1097
686, 1094, 1142, 1145, 1097, 1095, 1143, 1146, 1098
687, 1096, 1144, 1147, 1099, 1097, 1145, 1148, 1100
688, 1097, 1145, 1148, 1100, 1098, 1146, 1149, 1101
689, 1099, 1147, 1150, 1102, 1100, 1148, 1151, 1103
690, 1100, 1148, 1151, 1103, 1101, 1149, 1152, 1104
691, 1105, 1153, 1154, 1106, 1107, 1155, 1156, 1108
692, 1107, 1155, 1156, 1108, 1109, 1157, 1158, 1110
693, 1109, 1157, 1158, 1110, 1111, 1159, 1160, 1112
694, 1111, 1159, 1160, 1112, 1113, 1161, 1162, 1114
695, 1113, 1161, 1162, 1114, 1115, 1163, 1164, 1116
696, 1106, 1154, 1165, 1117, 1108, 1156, 1166, 1118
697, 1108, 1156, 1166, 1118, 1110, 1158, 1167, 1119
698, 1110, 1158, 1167, 1119, 1112, 1160, 1168, 1120
699, 1112, 1160, 1168, 1120, 1114, 1162, 1169, 1121
700, 1114, 1162, 1169, 1121, 1116, 1164, 1170, 1122
701, 1123, 1171, 1172, 1124, 1125, 1173, 1174, 1126
702, 1125, 1173, 1174, 1126, 1127, 1175, 1176, 1128
703, 1124, 1172, 1177, 1129, 1126, 1174, 1178, 1130
704, 1126, 1174, 1178, 1130, 1128, 1176, 1179, 1131
705, 1129, 1177, 1180, 1132, 1130, 1178, 1181, 1133
706, 1130, 1178, 1181, 1133, 1131, 1179, 1182, 1134
707, 1132, 1180, 1163, 1115, 1133, 1181, 1183, 1135
708, 1133, 1181, 1183, 1135, 1134, 1182, 1184, 1136
709, 1115, 1163, 1164, 1116, 1135, 1183, 1185, 1137
710, 1135, 1183, 1185, 1137, 1136, 1184, 1186, 1138
711, 1116, 1164, 1170, 1122, 1137, 1185, 1187, 1139
712, 1137, 1185, 1187, 1139, 1138, 1186, 1188, 1140
713, 1122, 1170, 1189, 1141, 1139, 1187, 1190, 1142
714, 1139, 1187, 1190, 1142, 1140, 1188, 1191, 1143
715, 1141, 1189, 1192, 1144, 1142, 1190, 1193, 1145
716, 1142, 1190, 1193, 1145, 1143, 1191, 1194, 1146
717, 1144, 1192, 1195, 1147, 1145, 1193, 1196, 1148
718, 1145, 1193, 1196, 1148, 1146, 1194, 1197, 1149
719, 1147, 1195, 1198, 1150, 1148, 1196, 1199, 1151
720, 1148, 1196, 1199, 1151, 1149, 1197, 1200, 1152
721, 1153, 1201, 1202, 1154, 1155, 1203, 1204, 1156
722, 1155, 1203, 1204, 1156, 1157, 1205, 1206, 1158
723, 1157, 1205, 1206, 1158, 1159, 1207, 1208, 1160
724, 1159, 1207, 1208, 1160, 1161, 1209, 1210, 1162
725, 1161, 1209, 1210, 1162, 1163, 1211, 1212, 1164
726, 1154, 1202, 1213, 1165, 1156, 1204, 1214, 1166
727, 1156, 1204, 1214, 1166, 1158, 1206, 1215, 1167
728, 1158, 1206, 1215, 1167, 1160, 1208, 1216, 1168
729, 1160, 1208, 1216, 1168, 1162, 1210, 1217, 1169
730, 1162, 1210, 1217, 1169, 1164, 1212, 1218, 1170
731, 1171, 1219, 1220, 1172, 1173, 1221, 1222, 1174
732, 1173, 1221, 1222, 1174, 1175, 1223, 1224, 1176
733, 1172, 1220, 1225, 1177, 1174, 1222, 1226, 1178
734, 1174, 1222, 1226, 1178, 1176, 1224, 1227, 1179
735, 1177, 1225, 1228, 1180, 1178, 1226, 1229, 1181
736, 1178, 1226, 1229, 1181, 1179, 1227, 1230, 1182
737, 1180, 1228, 1211, 1163, 1181, 1229, 1231, 1183
738, 1181, 1229, 1231, 1183, 1182, 1230, 1232, 1184
739, 1163, 1211, 1212, 1164, 1183, 1231, 1233, 1185
740, 1183, 1231, 1233, 1185, 1184, 1232, 1234, 1186
741, 1164, 1212, 1218, 1170, 1185, 1233, 1235, 1187
742, 1185, 1233, 1235, 1187, 1186, 1234, 1236, 1188
743, 1170, 1218, 1237, 1189, 1187, 1235, 1238, 1190
744, 1187, 1235, 1238, 1190, 1188, 1236, 1239, 1191
745, 1189, 1237, 1240, 1192, 1190, 1238, 1241, 1193
746, 1190, 1238, 1241, 1193, 1191, 1239, 1242, 1194
747, 1192, 1240, 1243, 1195, 1193, 1241, 1244, 1196
748, 1193, 1241, 1244, 1196, 1194, 1242, 1245, 1197
749, 1195, 1243, 1246, 1198, 1196, 1244, 1247, 1199
750, 1196, 1244, 1247, 1199, 1197, 1245, 1248, 1200
751, 1201, 1249, 1250, 1202, 1203, 1251, 1252, 1204
752, 1203, 1251, 1252, 1204, 1205, 1253, 1254, 1206
753, 1205, 1253, 1254, 1206, 1207, 1255, 1256, 1208
754, 1207, 1255, 1256, 1208, 1209, 1257, 1258, 1210
755, 1209, 1257, 1258, 1210, 1211, 1259, 1260, 1212
756, 1202, 1250, 1261, 1213, 1204, 1252, 1262, 1214
757, 1204, 1252, 1262, 1214, 1206, 1254, 1263, 1215
758, 1206, 1254, 1263, 1215, 1208, 1256, 1264, 1216
759, 1208, 1256, 1264, 1216, 1210, 1258, 1265, 1217
760, 1210, 1258, 1265, 1217, 1212, 1260, 1266, 1218
761, 1219, 1267, 1268, 1220, 1221, 1269, 1270, 1222
762, 1221, 1269, 1270, 1222, 1223, 1271, 1272, 1224
763, 1220, 1268, 1273, 1225, 1222, 1270, 1274, 1226
764, 1222, 1270, 1274, 1226, 1224, 1272, 1275, 1227
765, 1225, 1273, 1276, 1228, 1226, 1274, 1277, 1229
766, 1226, 1274, 1277, 1229, 1227, 1275, 1278, 1230
767, 1228, 1276, 1259, 1211, 1229, 1277, 1279, 1231
768, 1229, 1277, 1279, 1231, 1230, 1278, 1280, 1232
769, 1211, 1259, 1260, 1212, 1231, 1279, 1281, 1233
770, 1231, 1279, 1281, 1233, 1232, 1280, 1282, 1234
771, 1212, 1260, 1266, 1218, 1233, 1281, 1283, 1235
772, 1233, 1281, 1283, 1235, 1234, 1282, 1284, 1236
773, 1218, 1266, 1285, 1237, 1235, 1283, 1286, 1238
774, 1235, 1283, 1286, 1238, 1236, 1284, 1287, 1239
775, 1237, 1285, 1288, 1240, 1238, 1286, 1289, 1241
776, 1238, 1286, 1289, 1241, 1239, 1287, 1290, 1242
777, 1240, 1288, 1291, 1243, 1241, 1289, 1292, 1244
778, 1241, 1289, 1292, 1244, 1242, 1290, 1293, 1245
779, 1243, 1291, 1294, 1246, 1244, 1292, 1295, 1247
780, 1244, 1292, 1295, 1247, 1245, 1293, 1296, 1248
781, 1249, 1297, 1298, 1250, 1251, 1299, 1300, 1252
782, 1251, 1299, 1300, 1252, 1253, 1301, 1302, 1254
783, 1253, 1301, 1302, 1254, 1255, 1303, 1304, 1256
784, 1255, 1303, 1304, 1256, 1257, 1305, 1306, 1258
785, 1257, 1305, 1306, 1258, 1259, 1307, 1308, 1260
786, 1250, 1298, 1309, 1261, 1252, 1300, 1310, 1262
787, 1252, 1300, 1310, 1262, 1254, 1302, 1311, 1263
788, 1254, 1302, 1311, 1263, 1256, 1304, 1312, 1264
789, 1256, 1304, 1312, 1264, 1258, 1306, 1313, 1265
790, 1258, 1306, 1313, 1265, 1260, 1308, 1314, 1266
791, 1267, 1315, 1316, 1268, 1269, 1317, 1318, 1270
792, 1269, 1317, 1318, 1270, 1271, 1319, 1320, 1272
793, 1268, 1316, 1321, 1273, 1270, 1318, 1322, 1274
794, 1270, 1318, 1322, 1274, 1272, 1320, 1323, 1275
795, 1273, 1321, 1324, 1276, 1274, 1322, 1325, 1277
796, 1274, 1322, 1325, 1277, 1275, 1323, 1326, 1278
797, 1276, 1324, 1307, 1259, 1277, 1325, 1327, 1279
798, 1277, 1325, 1327, 1279, 1278, 1326, 1328, 1280
799, 1259, 1307, 1308, 1260, 1279, 1327, 1329, 1281
800, 1279, 1327, 1329, 1281, 1280, 1328, 1330, 1282
801, 1260, 1308, 1314, 1266, 1281, 1329, 1331, 1283
802, 1281, 1329, 1331, 1283, 1282, 1330, 1332, 1284
803, 1266, 1314, 1333, 1285, 1283, 1331, 1334, 1286
804, 1283, 1331, 1334, 1286, 1284, 1332, 1335, 1287
805, 1285, 1333, 1336, 1288, 1286, 1334, 1337, 1289
806, 1286, 1334, 1337, 1289, 1287, 1335, 1338, 1290
807, 1288, 1336, 1339, 1291, 1289, 1337, 1340, 1292
808, 1289, 1337, 1340, 1292, 1290, 1338, 1341, 1293
809, 1291, 1339, 1342, 1294, 1292, 1340, 1343, 1295
810, 1292, 1340, 1343, 1295, 1293, 1341, 1344, 1296
811, 1297, 1345, 1346, 1298, 1299, 1347, 1348, 1300
812, 1299, 1347, 1348, 1300, 1301, 1349, 1350, 1302
813, 1301, 1349, 1350, 1302, 1303, 1351, 1352, 1304
814, 1303, 1351, 1352, 1304, 1305, 1353, 1354, 1306
815, 1305, 1353, 1354, 1306, 1307, 1355, 1356, 1308
816, 1298, 1346, 1357, 1309, 1300, 1348, 1358, 1310
817, 1300, 1348, 1358, 1310, 1302, 1350, 1359, 1311
818, 1302, 1350, 1359, 1311, 1304, 1352, 1360, 1312
819, 1304, 1352, 1360, 1312, 1306, 1354, 1361, 1313
820, 1306, 1354, 1361, 1313, 1308, 1356, 1362, 1314
821, 1315, 1363, 1364, 1316, 1317, 1365, 1366, 1318
822, 1317, 1365, 1366, 1318, 1319, 1367, 1368, 1320
823, 1316, 1364, 1369, 1321, 1318, 1366, 1370, 1322
824, 1318, 1366, 1370, 1322, 1320, 1368, 1371, 1323
825, 1321, 1369, 1372, 1324, 1322, 1370, 1373, 1325
826, 1322, 1370, 1373, 1325, 1323, 1371, 1374, 1326
827, 1324, 1372, 1355, 1307, 1325, 1373, 1375, 1327
828, 1325, 1373, 1375, 1327, 1326, 1374, 1376, 1328
829, 1307, 1355, 1356, 1308, 1327, 1375, 1377, 1329
830, 1327, 1375, 1377, 1329, 1328, 1376, 1378, 1330
831, 1308, 1356, 1362, 1314, 1329, 1377, 1379, 1331
832, 1329, 1377, 1379, 1331, 1330, 1378, 1380, 1332
833, 1314, 1362, 1381, 1333, 1331, 1379, 1382, 1334
834, 1331, 1379, 1382, 1334, 1332, 1380, 1383, 1335
835, 1333, 1381, 1384, 1336, 1334, 1382, 1385, 1337
836, 1334, 1382, 1385, 1337, 1335, 1383, 1386, 1338
837, 1336, 1384, 1387, 1339, 1337, 1385, 1388, 1340
838, 1337, 1385, 1388, 1340, 1338, 1386, 1389, 1341
839, 1339, 1387, 1390, 1342, 1340, 1388, 1391, 1343
840, 1340, 1388, 1391, 1343, 1341, 1389, 1392, 1344
841, 1345, 1393, 1394, 1346, 1347, 1395, 1396, 1348
842, 1347, 1395, 1396, 1348, 1349, 1397, 1398, 1350
843, 1349, 1397, 1398, 1350, 1351, 1399, 1400, 1352
844, 1351, 1399, 1400, 1352, 1353, 1401, 1402, 1354
845, 1353, 1401, 1402, 1354, 1355, 1403, 1404, 1356
846, 1346, 1394, 1405, 1357, 1348, 1396, 1406, 1358
847, 1348, 1396, 1406, 1358, 1350, 1398, 1407, 1359
848, 1350, 1398, 1407, 1359, 1352, 1400, 1408, 1360
849, 1352, 1400, 1408, 1360, 1354, 1402, 1409, 1361
850, 1354, 1402, 1409, 1361, 1356, 1404, 1410, 1362
851, 1363, 1411, 1412, 1364, 1365, 1413, 1414, 1366
852, 1365, 1413, 1414, 1366, 1367, 1415, 1416, 1368
853, 1364, 1412, 1417, 1369, 1366, 1414, 1418, 1370
854, 1366, 1414, 1418, 1370, 1368, 1416, 1419, 1371
855, 1369, 1417, 1420, 1372, 1370, 1418, 1421, 1373
856, 1370, 1418, 1421, 1373, 1371, 1419, 1422, 1374
857, 1372, 1420, 1403, 1355, 1373, 1421, 1423, 1375
858, 1373, 1421, 1423, 1375, 1374, 1422, 1424, 1376
859, 1355, 1403, 1404, 1356, 1375, 1423, 1425, 1377
860, 1375, 1423, 1425, 1377, 1376, 1424, 1426, 1378
861, 1356, 1404, 1410, 1362, 1377, 1425, 1427, 1379
862, 1377, 1425, 1427, 1379, 1378, 1426, 1428, 1380
863, 1362, 1410, 1429, 1381, 1379, 1427, 1430, 1382
864, 1379, 1427, 1430, 1382, 1380, 1428, 1431, 1383
865, 1381, 1429, 1432, 1384, 1382, 1430, 1433, 1385
866, 1382, 1430, 1433, 1385, 1383, 1431, 1434, 1386
867, 1384, 1432, 1435, 1387, 1385, 1433, 1436, 1388
868, 1385, 1433, 1436, 1388, 1386, 1434, 1437, 1389
869, 1387, 1435, 1438, 1390, 1388, 1436, 1439, 1391
870, 1388, 1436, 1439, 1391, 1389, 1437, 1440, 1392
871, 1393, 1441, 1442, 1394, 1395, 1443, 1444, 1396
872, 1395, 1443, 1444, 1396, 1397, 1445, 1446, 1398
873, 1397, 1445, 1446, 1398, 1399, 1447, 1448, 1400
874, 1399, 1447, 1448, 1400, 1401, 1449, 1450, 1402
875, 1401, 1449, 1450, 1402, 1403, 1451, 1452, 1404
876, 1394, 1442, 1453, 1405, 1396, 1444, 1454, 1406
877, 1396, 1444, 1454, 1406, 1398, 1446, 1455, 1407
878, 1398, 1446, 1455, 1407, 1400, 1448, 1456, 1408
879, 1400, 1448, 1456, 1408, 1402, 1450, 1457, 1409
880, 1402, 1450, 1457, 1409, 1404, 1452, 1458, 1410
881, 1411, 1459, 1460, 1412, 1413, 1461, 1462, 1414
882, 1413, 1461, 1462, 1414, 1415, 1463, 1464, 1416
883, 1412, 1460, 1465, 1417, 1414, 1462, 1466, 1418
884, 1414, 1462, 1466, 1418, 1416, 1464, 1467, 1419
885, 1417, 1465, 1468, 1420, 1418, 1466, 1469, 1421
886, 1418, 1466, 1469, 1421, 1419, 1467, 1470, 1422
887, 1420, 1468, 1451, 1403, 1421, 1469, 1471, 1423
888, 1421, 1469, 1471, 1423, 1422, 1470, 1472, 1424
889, 1403, 1451, 1452, 1404, 1423, 1471, 1473, 1425
890, 1423, 1471, 1473, 1425, 1424, 1472, 1474, 1426
891, 1404, 1452, 1458, 1410, 1425, 1473, 1475, 1427
892, 1425, 1473, 1475, 1427, 1426, 1474, 1476, 1428
893, 1410, 1458, 1477, 1429, 1427, 1475, 1478, 1430
894, 1427, 1475, 1478, 1430, 1428, 1476, 1479, 1431
895, 1429, 1477, 1480, 1432, 1430, 1478, 1481, 1433
896, 1430, 1478, 1481, 1433, 1431, 1479, 1482, 1434
897, 1432, 1480, 1483, 1435, 1433, 1481, 1484, 1436
898, 1433, 1481, 1484, 1436, 1434, 1482, 1485, 1437
899, 1435, 1483, 1486, 1438, 1436, 1484, 1487, 1439
900, 1436, 1484, 1487, 1439, 1437, 1485, 1488, 1440
*NSET, NSET=CLAMP
1, 4, 5, 8, 9, 12, 13, 16, 17, 20, 21, 24, 26, 28, 30, 32
34, 36, 37, 40, 41, 44, 45, 48, 50, 52, 54, 56, 58, 60, 62, 64
66, 68, 70, 72, 74, 76, 78, 80, 82, 84, 86, 88, 90, 92, 94, 96
*NSET, NSET=TIP_TOP
1463, 1464, 1467, 1470, 1472, 1474, 1476, 1479, 1482, 1485, 1488
*NSET, NSET=TIP_FLANGE
1463, 1464, 1467, 1470, 1472, 1474, 1476, 1479, 1482, 1485, 1488
*MATERIAL, NAME=STEEL
*ELASTIC
210000, 0.3
*DENSITY
7.85e-09
*SOLID SECTION, ELSET=EALL, MATERIAL=STEEL
*BOUNDARY
CLAMP, 1, 3, 0.0
*AMPLITUDE, NAME=PULSE
0, 0, 0.004, 1, 0.02, 0, 0.05, 0
*STEP, NLGEOM, INC=80
*DYNAMIC
5.0e-4, 0.050, 1.0e-6, 2.0e-3
*CLOAD, AMPLITUDE=PULSE
1463, 3, -2727.27272727
1464, 3, -2727.27272727
1467, 3, -2727.27272727
1470, 3, -2727.27272727
1472, 3, -2727.27272727
1474, 3, -2727.27272727
1476, 3, -2727.27272727
1479, 3, -2727.27272727
1482, 3, -2727.27272727
1485, 3, -2727.27272727
1488, 3, -2727.27272727
*NODE FILE, FREQUENCY=5
U
*EL FILE, FREQUENCY=5
S, ENER
*NODE PRINT, NSET=TIP_TOP
U
*NODE PRINT, NSET=CLAMP
RF
*EL PRINT, ELSET=EALL
ELSE
*ENERGY PRINT
*END STEP
