*HEADING
Normalized cross-passage space-truss torsion benchmark
*NODE
1,-1.200000000000e+00,0.000000000000e+00,0.000000000000e+00
2,1.200000000000e+00,0.000000000000e+00,0.000000000000e+00
3,-1.200000000000e+00,0.000000000000e+00,2.000000000000e+00
4,1.200000000000e+00,0.000000000000e+00,2.000000000000e+00
5,-1.200000000000e+00,1.000000000000e+01,0.000000000000e+00
6,1.200000000000e+00,1.000000000000e+01,0.000000000000e+00
7,-1.200000000000e+00,1.000000000000e+01,2.000000000000e+00
8,1.200000000000e+00,1.000000000000e+01,2.000000000000e+00
9,-1.200000000000e+00,2.000000000000e+01,0.000000000000e+00
10,1.200000000000e+00,2.000000000000e+01,0.000000000000e+00
11,-1.200000000000e+00,2.000000000000e+01,2.000000000000e+00
12,1.200000000000e+00,2.000000000000e+01,2.000000000000e+00
13,-1.200000000000e+00,3.000000000000e+01,0.000000000000e+00
14,1.200000000000e+00,3.000000000000e+01,0.000000000000e+00
15,-1.200000000000e+00,3.000000000000e+01,2.000000000000e+00
16,1.200000000000e+00,3.000000000000e+01,2.000000000000e+00
17,-1.200000000000e+00,4.000000000000e+01,0.000000000000e+00
18,1.200000000000e+00,4.000000000000e+01,0.000000000000e+00
19,-1.200000000000e+00,4.000000000000e+01,2.000000000000e+00
20,1.200000000000e+00,4.000000000000e+01,2.000000000000e+00
21,-1.200000000000e+00,5.000000000000e+01,0.000000000000e+00
22,1.200000000000e+00,5.000000000000e+01,0.000000000000e+00
23,-1.200000000000e+00,5.000000000000e+01,2.000000000000e+00
24,1.200000000000e+00,5.000000000000e+01,2.000000000000e+00
25,-6.000000000000e-01,-2.545584412272e-02,0.000000000000e+00
26,0.000000000000e+00,-3.600000000000e-02,0.000000000000e+00
27,6.000000000000e-01,-2.545584412272e-02,0.000000000000e+00
28,-6.000000000000e-01,2.545584412272e-02,2.000000000000e+00
29,0.000000000000e+00,3.600000000000e-02,2.000000000000e+00
30,6.000000000000e-01,2.545584412272e-02,2.000000000000e+00
31,-1.200000000000e+00,2.121320343560e-02,5.000000000000e-01
32,-1.200000000000e+00,3.000000000000e-02,1.000000000000e+00
33,-1.200000000000e+00,2.121320343560e-02,1.500000000000e+00
34,1.200000000000e+00,-2.121320343560e-02,5.000000000000e-01
35,1.200000000000e+00,-3.000000000000e-02,1.000000000000e+00
36,1.200000000000e+00,-2.121320343560e-02,1.500000000000e+00
37,-6.000000000000e-01,3.997454415588e+01,0.000000000000e+00
38,0.000000000000e+00,3.996400000000e+01,0.000000000000e+00
39,6.000000000000e-01,3.997454415588e+01,0.000000000000e+00
40,-6.000000000000e-01,4.002545584412e+01,2.000000000000e+00
41,0.000000000000e+00,4.003600000000e+01,2.000000000000e+00
42,6.000000000000e-01,4.002545584412e+01,2.000000000000e+00
43,-1.200000000000e+00,4.002121320344e+01,5.000000000000e-01
44,-1.200000000000e+00,4.003000000000e+01,1.000000000000e+00
45,-1.200000000000e+00,4.002121320344e+01,1.500000000000e+00
46,1.200000000000e+00,3.997878679656e+01,5.000000000000e-01
47,1.200000000000e+00,3.997000000000e+01,1.000000000000e+00
48,1.200000000000e+00,3.997878679656e+01,1.500000000000e+00
49,-6.000000000000e-01,4.997454415588e+01,0.000000000000e+00
50,0.000000000000e+00,4.996400000000e+01,0.000000000000e+00
51,6.000000000000e-01,4.997454415588e+01,0.000000000000e+00
52,-6.000000000000e-01,5.002545584412e+01,2.000000000000e+00
53,0.000000000000e+00,5.003600000000e+01,2.000000000000e+00
54,6.000000000000e-01,5.002545584412e+01,2.000000000000e+00
55,-1.200000000000e+00,5.002121320344e+01,5.000000000000e-01
56,-1.200000000000e+00,5.003000000000e+01,1.000000000000e+00
57,-1.200000000000e+00,5.002121320344e+01,1.500000000000e+00
58,1.200000000000e+00,4.997878679656e+01,5.000000000000e-01
59,1.200000000000e+00,4.997000000000e+01,1.000000000000e+00
60,1.200000000000e+00,4.997878679656e+01,1.500000000000e+00
61,-1.200000000000e+00,1.261480502971e+00,1.925974851452e-01
62,-1.200000000000e+00,2.521213203436e+00,3.939339828220e-01
63,-1.200000000000e+00,3.777716385975e+00,6.114180701233e-01
64,-1.200000000000e+00,5.030000000000e+00,8.500000000000e-01
65,-1.200000000000e+00,6.277716385975e+00,1.111418070123e+00
66,-1.200000000000e+00,7.521213203436e+00,1.393933982822e+00
67,-1.200000000000e+00,8.761480502971e+00,1.692597485145e+00
68,-1.200000000000e+00,1.261480502971e+00,1.807402514855e+00
69,-1.200000000000e+00,2.521213203436e+00,1.606066017178e+00
70,-1.200000000000e+00,3.777716385975e+00,1.388581929877e+00
71,-1.200000000000e+00,5.030000000000e+00,1.150000000000e+00
72,-1.200000000000e+00,6.277716385975e+00,8.885819298767e-01
73,-1.200000000000e+00,7.521213203436e+00,6.060660171780e-01
74,-1.200000000000e+00,8.761480502971e+00,3.074025148548e-01
75,1.200000000000e+00,1.261480502971e+00,1.925974851452e-01
76,1.200000000000e+00,2.521213203436e+00,3.939339828220e-01
77,1.200000000000e+00,3.777716385975e+00,6.114180701233e-01
78,1.200000000000e+00,5.030000000000e+00,8.500000000000e-01
79,1.200000000000e+00,6.277716385975e+00,1.111418070123e+00
80,1.200000000000e+00,7.521213203436e+00,1.393933982822e+00
81,1.200000000000e+00,8.761480502971e+00,1.692597485145e+00
82,1.200000000000e+00,1.261480502971e+00,1.807402514855e+00
83,1.200000000000e+00,2.521213203436e+00,1.606066017178e+00
84,1.200000000000e+00,3.777716385975e+00,1.388581929877e+00
85,1.200000000000e+00,5.030000000000e+00,1.150000000000e+00
86,1.200000000000e+00,6.277716385975e+00,8.885819298767e-01
87,1.200000000000e+00,7.521213203436e+00,6.060660171780e-01
88,1.200000000000e+00,8.761480502971e+00,3.074025148548e-01
89,-8.425974851452e-01,1.236223396435e+00,0.000000000000e+00
90,-4.939339828220e-01,2.474544155877e+00,0.000000000000e+00
91,-1.614180701233e-01,3.716740336830e+00,0.000000000000e+00
92,1.500000000000e-01,4.964000000000e+00,0.000000000000e+00
93,4.385819298767e-01,6.216740336830e+00,0.000000000000e+00
94,7.060660171780e-01,7.474544155877e+00,0.000000000000e+00
95,9.574025148548e-01,8.736223396435e+00,0.000000000000e+00
96,8.425974851452e-01,1.236223396435e+00,0.000000000000e+00
97,4.939339828220e-01,2.474544155877e+00,0.000000000000e+00
98,1.614180701233e-01,3.716740336830e+00,0.000000000000e+00
99,-1.500000000000e-01,4.964000000000e+00,0.000000000000e+00
100,-4.385819298767e-01,6.216740336830e+00,0.000000000000e+00
101,-7.060660171780e-01,7.474544155877e+00,0.000000000000e+00
102,-9.574025148548e-01,8.736223396435e+00,0.000000000000e+00
103,-8.425974851452e-01,1.236223396435e+00,2.000000000000e+00
104,-4.939339828220e-01,2.474544155877e+00,2.000000000000e+00
105,-1.614180701233e-01,3.716740336830e+00,2.000000000000e+00
106,1.500000000000e-01,4.964000000000e+00,2.000000000000e+00
107,4.385819298767e-01,6.216740336830e+00,2.000000000000e+00
108,7.060660171780e-01,7.474544155877e+00,2.000000000000e+00
109,9.574025148548e-01,8.736223396435e+00,2.000000000000e+00
110,8.425974851452e-01,1.236223396435e+00,2.000000000000e+00
111,4.939339828220e-01,2.474544155877e+00,2.000000000000e+00
112,1.614180701233e-01,3.716740336830e+00,2.000000000000e+00
113,-1.500000000000e-01,4.964000000000e+00,2.000000000000e+00
114,-4.385819298767e-01,6.216740336830e+00,2.000000000000e+00
115,-7.060660171780e-01,7.474544155877e+00,2.000000000000e+00
116,-9.574025148548e-01,8.736223396435e+00,2.000000000000e+00
117,-1.200000000000e+00,1.252121320344e+01,3.939339828220e-01
118,-1.200000000000e+00,1.503000000000e+01,8.500000000000e-01
119,-1.200000000000e+00,1.752121320344e+01,1.393933982822e+00
120,-1.200000000000e+00,1.252121320344e+01,1.606066017178e+00
121,-1.200000000000e+00,1.503000000000e+01,1.150000000000e+00
122,-1.200000000000e+00,1.752121320344e+01,6.060660171780e-01
123,1.200000000000e+00,1.252121320344e+01,3.939339828220e-01
124,1.200000000000e+00,1.503000000000e+01,8.500000000000e-01
125,1.200000000000e+00,1.752121320344e+01,1.393933982822e+00
126,1.200000000000e+00,1.252121320344e+01,1.606066017178e+00
127,1.200000000000e+00,1.503000000000e+01,1.150000000000e+00
128,1.200000000000e+00,1.752121320344e+01,6.060660171780e-01
129,-4.939339828220e-01,1.247454415588e+01,0.000000000000e+00
130,1.500000000000e-01,1.496400000000e+01,0.000000000000e+00
131,7.060660171780e-01,1.747454415588e+01,0.000000000000e+00
132,4.939339828220e-01,1.247454415588e+01,0.000000000000e+00
133,-1.500000000000e-01,1.496400000000e+01,0.000000000000e+00
134,-7.060660171780e-01,1.747454415588e+01,0.000000000000e+00
135,-4.939339828220e-01,1.247454415588e+01,2.000000000000e+00
136,1.500000000000e-01,1.496400000000e+01,2.000000000000e+00
137,7.060660171780e-01,1.747454415588e+01,2.000000000000e+00
138,4.939339828220e-01,1.247454415588e+01,2.000000000000e+00
139,-1.500000000000e-01,1.496400000000e+01,2.000000000000e+00
140,-7.060660171780e-01,1.747454415588e+01,2.000000000000e+00
141,-1.200000000000e+00,3.126148050297e+01,1.925974851452e-01
142,-1.200000000000e+00,3.252121320344e+01,3.939339828220e-01
143,-1.200000000000e+00,3.377771638598e+01,6.114180701233e-01
144,-1.200000000000e+00,3.503000000000e+01,8.500000000000e-01
145,-1.200000000000e+00,3.627771638598e+01,1.111418070123e+00
146,-1.200000000000e+00,3.752121320344e+01,1.393933982822e+00
147,-1.200000000000e+00,3.876148050297e+01,1.692597485145e+00
148,-1.200000000000e+00,3.126148050297e+01,1.807402514855e+00
149,-1.200000000000e+00,3.252121320344e+01,1.606066017178e+00
150,-1.200000000000e+00,3.377771638598e+01,1.388581929877e+00
151,-1.200000000000e+00,3.503000000000e+01,1.150000000000e+00
152,-1.200000000000e+00,3.627771638598e+01,8.885819298767e-01
153,-1.200000000000e+00,3.752121320344e+01,6.060660171780e-01
154,-1.200000000000e+00,3.876148050297e+01,3.074025148548e-01
155,1.200000000000e+00,3.126148050297e+01,1.925974851452e-01
156,1.200000000000e+00,3.252121320344e+01,3.939339828220e-01
157,1.200000000000e+00,3.377771638598e+01,6.114180701233e-01
158,1.200000000000e+00,3.503000000000e+01,8.500000000000e-01
159,1.200000000000e+00,3.627771638598e+01,1.111418070123e+00
160,1.200000000000e+00,3.752121320344e+01,1.393933982822e+00
161,1.200000000000e+00,3.876148050297e+01,1.692597485145e+00
162,1.200000000000e+00,3.126148050297e+01,1.807402514855e+00
163,1.200000000000e+00,3.252121320344e+01,1.606066017178e+00
164,1.200000000000e+00,3.377771638598e+01,1.388581929877e+00
165,1.200000000000e+00,3.503000000000e+01,1.150000000000e+00
166,1.200000000000e+00,3.627771638598e+01,8.885819298767e-01
167,1.200000000000e+00,3.752121320344e+01,6.060660171780e-01
168,1.200000000000e+00,3.876148050297e+01,3.074025148548e-01
169,-8.425974851452e-01,3.123622339643e+01,0.000000000000e+00
170,-4.939339828220e-01,3.247454415588e+01,0.000000000000e+00
171,-1.614180701233e-01,3.371674033683e+01,0.000000000000e+00
172,1.500000000000e-01,3.496400000000e+01,0.000000000000e+00
173,4.385819298767e-01,3.621674033683e+01,0.000000000000e+00
174,7.060660171780e-01,3.747454415588e+01,0.000000000000e+00
175,9.574025148548e-01,3.873622339643e+01,0.000000000000e+00
176,8.425974851452e-01,3.123622339643e+01,0.000000000000e+00
177,4.939339828220e-01,3.247454415588e+01,0.000000000000e+00
178,1.614180701233e-01,3.371674033683e+01,0.000000000000e+00
179,-1.500000000000e-01,3.496400000000e+01,0.000000000000e+00
180,-4.385819298767e-01,3.621674033683e+01,0.000000000000e+00
181,-7.060660171780e-01,3.747454415588e+01,0.000000000000e+00
182,-9.574025148548e-01,3.873622339643e+01,0.000000000000e+00
183,-8.425974851452e-01,3.123622339643e+01,2.000000000000e+00
184,-4.939339828220e-01,3.247454415588e+01,2.000000000000e+00
185,-1.614180701233e-01,3.371674033683e+01,2.000000000000e+00
186,1.500000000000e-01,3.496400000000e+01,2.000000000000e+00
187,4.385819298767e-01,3.621674033683e+01,2.000000000000e+00
188,7.060660171780e-01,3.747454415588e+01,2.000000000000e+00
189,9.574025148548e-01,3.873622339643e+01,2.000000000000e+00
190,8.425974851452e-01,3.123622339643e+01,2.000000000000e+00
191,4.939339828220e-01,3.247454415588e+01,2.000000000000e+00
192,1.614180701233e-01,3.371674033683e+01,2.000000000000e+00
193,-1.500000000000e-01,3.496400000000e+01,2.000000000000e+00
194,-4.385819298767e-01,3.621674033683e+01,2.000000000000e+00
195,-7.060660171780e-01,3.747454415588e+01,2.000000000000e+00
196,-9.574025148548e-01,3.873622339643e+01,2.000000000000e+00
197,-1.200000000000e+00,4.126148050297e+01,1.925974851452e-01
198,-1.200000000000e+00,4.252121320344e+01,3.939339828220e-01
199,-1.200000000000e+00,4.377771638598e+01,6.114180701233e-01
200,-1.200000000000e+00,4.503000000000e+01,8.500000000000e-01
201,-1.200000000000e+00,4.627771638598e+01,1.111418070123e+00
202,-1.200000000000e+00,4.752121320344e+01,1.393933982822e+00
203,-1.200000000000e+00,4.876148050297e+01,1.692597485145e+00
204,-1.200000000000e+00,4.126148050297e+01,1.807402514855e+00
205,-1.200000000000e+00,4.252121320344e+01,1.606066017178e+00
206,-1.200000000000e+00,4.377771638598e+01,1.388581929877e+00
207,-1.200000000000e+00,4.503000000000e+01,1.150000000000e+00
208,-1.200000000000e+00,4.627771638598e+01,8.885819298767e-01
209,-1.200000000000e+00,4.752121320344e+01,6.060660171780e-01
210,-1.200000000000e+00,4.876148050297e+01,3.074025148548e-01
211,1.200000000000e+00,4.126148050297e+01,1.925974851452e-01
212,1.200000000000e+00,4.252121320344e+01,3.939339828220e-01
213,1.200000000000e+00,4.377771638598e+01,6.114180701233e-01
214,1.200000000000e+00,4.503000000000e+01,8.500000000000e-01
215,1.200000000000e+00,4.627771638598e+01,1.111418070123e+00
216,1.200000000000e+00,4.752121320344e+01,1.393933982822e+00
217,1.200000000000e+00,4.876148050297e+01,1.692597485145e+00
218,1.200000000000e+00,4.126148050297e+01,1.807402514855e+00
219,1.200000000000e+00,4.252121320344e+01,1.606066017178e+00
220,1.200000000000e+00,4.377771638598e+01,1.388581929877e+00
221,1.200000000000e+00,4.503000000000e+01,1.150000000000e+00
222,1.200000000000e+00,4.627771638598e+01,8.885819298767e-01
223,1.200000000000e+00,4.752121320344e+01,6.060660171780e-01
224,1.200000000000e+00,4.876148050297e+01,3.074025148548e-01
225,-8.425974851452e-01,4.123622339643e+01,0.000000000000e+00
226,-4.939339828220e-01,4.247454415588e+01,0.000000000000e+00
227,-1.614180701233e-01,4.371674033683e+01,0.000000000000e+00
228,1.500000000000e-01,4.496400000000e+01,0.000000000000e+00
229,4.385819298767e-01,4.621674033683e+01,0.000000000000e+00
230,7.060660171780e-01,4.747454415588e+01,0.000000000000e+00
231,9.574025148548e-01,4.873622339643e+01,0.000000000000e+00
232,8.425974851452e-01,4.123622339643e+01,0.000000000000e+00
233,4.939339828220e-01,4.247454415588e+01,0.000000000000e+00
234,1.614180701233e-01,4.371674033683e+01,0.000000000000e+00
235,-1.500000000000e-01,4.496400000000e+01,0.000000000000e+00
236,-4.385819298767e-01,4.621674033683e+01,0.000000000000e+00
237,-7.060660171780e-01,4.747454415588e+01,0.000000000000e+00
238,-9.574025148548e-01,4.873622339643e+01,0.000000000000e+00
239,-8.425974851452e-01,4.123622339643e+01,2.000000000000e+00
240,-4.939339828220e-01,4.247454415588e+01,2.000000000000e+00
241,-1.614180701233e-01,4.371674033683e+01,2.000000000000e+00
242,1.500000000000e-01,4.496400000000e+01,2.000000000000e+00
243,4.385819298767e-01,4.621674033683e+01,2.000000000000e+00
244,7.060660171780e-01,4.747454415588e+01,2.000000000000e+00
245,9.574025148548e-01,4.873622339643e+01,2.000000000000e+00
246,8.425974851452e-01,4.123622339643e+01,2.000000000000e+00
247,4.939339828220e-01,4.247454415588e+01,2.000000000000e+00
248,1.614180701233e-01,4.371674033683e+01,2.000000000000e+00
249,-1.500000000000e-01,4.496400000000e+01,2.000000000000e+00
250,-4.385819298767e-01,4.621674033683e+01,2.000000000000e+00
251,-7.060660171780e-01,4.747454415588e+01,2.000000000000e+00
252,-9.574025148548e-01,4.873622339643e+01,2.000000000000e+00
*ELEMENT,TYPE=B31,ELSET=ALL
1,1,5
2,2,6
3,3,7
4,4,8
5,5,9
6,6,10
7,7,11
8,8,12
9,9,13
10,10,14
11,11,15
12,12,16
13,13,17
14,14,18
15,15,19
16,16,20
17,17,21
18,18,22
19,19,23
20,20,24
21,1,25
22,25,26
23,26,27
24,27,2
25,3,28
26,28,29
27,29,30
28,30,4
29,1,31
30,31,32
31,32,33
32,33,3
33,2,34
34,34,35
35,35,36
36,36,4
37,5,6
38,7,8
39,5,7
40,6,8
41,9,10
42,11,12
43,9,11
44,10,12
45,13,14
46,15,16
47,13,15
48,14,16
49,17,37
50,37,38
51,38,39
52,39,18
53,19,40
54,40,41
55,41,42
56,42,20
57,17,43
58,43,44
59,44,45
60,45,19
61,18,46
62,46,47
63,47,48
64,48,20
65,21,49
66,49,50
67,50,51
68,51,22
69,23,52
70,52,53
71,53,54
72,54,24
73,21,55
74,55,56
75,56,57
76,57,23
77,22,58
78,58,59
79,59,60
80,60,24
81,1,61
82,61,62
83,62,63
84,63,64
85,64,65
86,65,66
87,66,67
88,67,7
89,3,68
90,68,69
91,69,70
92,70,71
93,71,72
94,72,73
95,73,74
96,74,5
97,2,75
98,75,76
99,76,77
100,77,78
101,78,79
102,79,80
103,80,81
104,81,8
105,4,82
106,82,83
107,83,84
108,84,85
109,85,86
110,86,87
111,87,88
112,88,6
113,1,89
114,89,90
115,90,91
116,91,92
117,92,93
118,93,94
119,94,95
120,95,6
121,2,96
122,96,97
123,97,98
124,98,99
125,99,100
126,100,101
127,101,102
128,102,5
129,3,103
130,103,104
131,104,105
132,105,106
133,106,107
134,107,108
135,108,109
136,109,8
137,4,110
138,110,111
139,111,112
140,112,113
141,113,114
142,114,115
143,115,116
144,116,7
145,5,117
146,117,118
147,118,119
148,119,11
149,7,120
150,120,121
151,121,122
152,122,9
153,6,123
154,123,124
155,124,125
156,125,12
157,8,126
158,126,127
159,127,128
160,128,10
161,5,129
162,129,130
163,130,131
164,131,10
165,6,132
166,132,133
167,133,134
168,134,9
169,7,135
170,135,136
171,136,137
172,137,12
173,8,138
174,138,139
175,139,140
176,140,11
177,9,15
178,11,13
179,10,16
180,12,14
181,9,14
182,10,13
183,11,16
184,12,15
185,13,141
186,141,142
187,142,143
188,143,144
189,144,145
190,145,146
191,146,147
192,147,19
193,15,148
194,148,149
195,149,150
196,150,151
197,151,152
198,152,153
199,153,154
200,154,17
201,14,155
202,155,156
203,156,157
204,157,158
205,158,159
206,159,160
207,160,161
208,161,20
209,16,162
210,162,163
211,163,164
212,164,165
213,165,166
214,166,167
215,167,168
216,168,18
217,13,169
218,169,170
219,170,171
220,171,172
221,172,173
222,173,174
223,174,175
224,175,18
225,14,176
226,176,177
227,177,178
228,178,179
229,179,180
230,180,181
231,181,182
232,182,17
233,15,183
234,183,184
235,184,185
236,185,186
237,186,187
238,187,188
239,188,189
240,189,20
241,16,190
242,190,191
243,191,192
244,192,193
245,193,194
246,194,195
247,195,196
248,196,19
249,17,197
250,197,198
251,198,199
252,199,200
253,200,201
254,201,202
255,202,203
256,203,23
257,19,204
258,204,205
259,205,206
260,206,207
261,207,208
262,208,209
263,209,210
264,210,21
265,18,211
266,211,212
267,212,213
268,213,214
269,214,215
270,215,216
271,216,217
272,217,24
273,20,218
274,218,219
275,219,220
276,220,221
277,221,222
278,222,223
279,223,224
280,224,22
281,17,225
282,225,226
283,226,227
284,227,228
285,228,229
286,229,230
287,230,231
288,231,22
289,18,232
290,232,233
291,233,234
292,234,235
293,235,236
294,236,237
295,237,238
296,238,21
297,19,239
298,239,240
299,240,241
300,241,242
301,242,243
302,243,244
303,244,245
304,245,24
305,20,246
306,246,247
307,247,248
308,248,249
309,249,250
310,250,251
311,251,252
312,252,23
*NSET,NSET=NALL,GENERATE
1,252,1
*NSET,NSET=LEFT
1,2,3,4
*NSET,NSET=RIGHT
21,22,23,24
*MATERIAL,NAME=STEEL
*ELASTIC
2.100000000000e+11,0.300000000000
*BEAM SECTION,ELSET=ALL,MATERIAL=STEEL,SECTION=RECT
6.000000000000e-02,4.000000000000e-02
0.371390676354,0.557086014531,0.742781352708
*BOUNDARY
LEFT,1,6,0.0
*STEP
*STATIC
*BOUNDARY
21,1,1,5.000000000000e-03
21,2,2,0.0
21,3,3,-6.000000000000e-03
*BOUNDARY
22,1,1,5.000000000000e-03
22,2,2,0.0
22,3,3,6.000000000000e-03
*BOUNDARY
23,1,1,-5.000000000000e-03
23,2,2,0.0
23,3,3,-6.000000000000e-03
*BOUNDARY
24,1,1,-5.000000000000e-03
24,2,2,0.0
24,3,3,6.000000000000e-03
*NODE FILE,NSET=NALL
U
*NODE PRINT,NSET=NALL
U
*NODE PRINT,NSET=RIGHT
RF
*EL PRINT,ELSET=ALL,TOTALS=YES
ELSE
*END STEP
