*HEADING
Normalized cross-passage space-truss torsion benchmark
*NODE
1,-1.200000000000e+00,0.000000000000e+00,0.000000000000e+00
2,1.200000000000e+00,0.000000000000e+00,0.000000000000e+00
3,-1.200000000000e+00,0.000000000000e+00,2.000000000000e+00
4,1.200000000000e+00,0.000000000000e+00,2.000000000000e+00
5,-1.200000000000e+00,1.000000000000e+01,0.000000000000e+00
6,1.200000000000e+00,1.000000000000e+01,0.000000000000e+00
7,-1.200000000000e+00,1.000000000000e+01,2.000000000000e+00
8,1.200000000000e+00,1.000000000000e+01,2.000000000000e+00
9,-1.200000000000e+00,2.000000000000e+01,0.000000000000e+00
10,1.200000000000e+00,2.000000000000e+01,0.000000000000e+00
11,-1.200000000000e+00,2.000000000000e+01,2.000000000000e+00
12,1.200000000000e+00,2.000000000000e+01,2.000000000000e+00
13,-1.200000000000e+00,3.000000000000e+01,0.000000000000e+00
14,1.200000000000e+00,3.000000000000e+01,0.000000000000e+00
15,-1.200000000000e+00,3.000000000000e+01,2.000000000000e+00
16,1.200000000000e+00,3.000000000000e+01,2.000000000000e+00
17,-1.200000000000e+00,4.000000000000e+01,0.000000000000e+00
18,1.200000000000e+00,4.000000000000e+01,0.000000000000e+00
19,-1.200000000000e+00,4.000000000000e+01,2.000000000000e+00
20,1.200000000000e+00,4.000000000000e+01,2.000000000000e+00
21,-1.200000000000e+00,5.000000000000e+01,0.000000000000e+00
22,1.200000000000e+00,5.000000000000e+01,0.000000000000e+00
23,-1.200000000000e+00,5.000000000000e+01,2.000000000000e+00
24,1.200000000000e+00,5.000000000000e+01,2.000000000000e+00
25,-1.200000000000e+00,5.000000000000e+00,-1.500000000000e-01
26,1.200000000000e+00,5.000000000000e+00,1.500000000000e-01
27,-1.200000000000e+00,5.000000000000e+00,1.850000000000e+00
28,1.200000000000e+00,5.000000000000e+00,2.150000000000e+00
29,-1.200000000000e+00,1.500000000000e+01,-1.500000000000e-01
30,1.200000000000e+00,1.500000000000e+01,1.500000000000e-01
31,-1.200000000000e+00,1.500000000000e+01,1.850000000000e+00
32,1.200000000000e+00,1.500000000000e+01,2.150000000000e+00
33,-1.200000000000e+00,2.500000000000e+01,-1.500000000000e-01
34,1.200000000000e+00,2.500000000000e+01,1.500000000000e-01
35,-1.200000000000e+00,2.500000000000e+01,1.850000000000e+00
36,1.200000000000e+00,2.500000000000e+01,2.150000000000e+00
37,-1.200000000000e+00,3.500000000000e+01,-1.500000000000e-01
38,1.200000000000e+00,3.500000000000e+01,1.500000000000e-01
39,-1.200000000000e+00,3.500000000000e+01,1.850000000000e+00
40,1.200000000000e+00,3.500000000000e+01,2.150000000000e+00
41,-1.200000000000e+00,4.500000000000e+01,-1.500000000000e-01
42,1.200000000000e+00,4.500000000000e+01,1.500000000000e-01
43,-1.200000000000e+00,4.500000000000e+01,1.850000000000e+00
44,1.200000000000e+00,4.500000000000e+01,2.150000000000e+00
45,0.000000000000e+00,-3.600000000000e-02,0.000000000000e+00
46,0.000000000000e+00,3.600000000000e-02,2.000000000000e+00
47,-1.200000000000e+00,3.000000000000e-02,1.000000000000e+00
48,1.200000000000e+00,-3.000000000000e-02,1.000000000000e+00
49,0.000000000000e+00,9.964000000000e+00,0.000000000000e+00
50,0.000000000000e+00,1.003600000000e+01,2.000000000000e+00
51,-1.200000000000e+00,1.003000000000e+01,1.000000000000e+00
52,1.200000000000e+00,9.970000000000e+00,1.000000000000e+00
53,-9.000000000000e-01,1.998622339643e+01,0.000000000000e+00
54,-6.000000000000e-01,1.997454415588e+01,0.000000000000e+00
55,-3.000000000000e-01,1.996674033683e+01,0.000000000000e+00
56,0.000000000000e+00,1.996400000000e+01,0.000000000000e+00
57,3.000000000000e-01,1.996674033683e+01,0.000000000000e+00
58,6.000000000000e-01,1.997454415588e+01,0.000000000000e+00
59,9.000000000000e-01,1.998622339643e+01,0.000000000000e+00
60,-9.000000000000e-01,2.001377660357e+01,2.000000000000e+00
61,-6.000000000000e-01,2.002545584412e+01,2.000000000000e+00
62,-3.000000000000e-01,2.003325966317e+01,2.000000000000e+00
63,0.000000000000e+00,2.003600000000e+01,2.000000000000e+00
64,3.000000000000e-01,2.003325966317e+01,2.000000000000e+00
65,6.000000000000e-01,2.002545584412e+01,2.000000000000e+00
66,9.000000000000e-01,2.001377660357e+01,2.000000000000e+00
67,-1.200000000000e+00,2.001148050297e+01,2.500000000000e-01
68,-1.200000000000e+00,2.002121320344e+01,5.000000000000e-01
69,-1.200000000000e+00,2.002771638598e+01,7.500000000000e-01
70,-1.200000000000e+00,2.003000000000e+01,1.000000000000e+00
71,-1.200000000000e+00,2.002771638598e+01,1.250000000000e+00
72,-1.200000000000e+00,2.002121320344e+01,1.500000000000e+00
73,-1.200000000000e+00,2.001148050297e+01,1.750000000000e+00
74,1.200000000000e+00,1.998851949703e+01,2.500000000000e-01
75,1.200000000000e+00,1.997878679656e+01,5.000000000000e-01
76,1.200000000000e+00,1.997228361402e+01,7.500000000000e-01
77,1.200000000000e+00,1.997000000000e+01,1.000000000000e+00
78,1.200000000000e+00,1.997228361402e+01,1.250000000000e+00
79,1.200000000000e+00,1.997878679656e+01,1.500000000000e+00
80,1.200000000000e+00,1.998851949703e+01,1.750000000000e+00
81,0.000000000000e+00,2.996400000000e+01,0.000000000000e+00
82,0.000000000000e+00,3.003600000000e+01,2.000000000000e+00
83,-1.200000000000e+00,3.003000000000e+01,1.000000000000e+00
84,1.200000000000e+00,2.997000000000e+01,1.000000000000e+00
85,-6.000000000000e-01,3.997454415588e+01,0.000000000000e+00
86,0.000000000000e+00,3.996400000000e+01,0.000000000000e+00
87,6.000000000000e-01,3.997454415588e+01,0.000000000000e+00
88,-6.000000000000e-01,4.002545584412e+01,2.000000000000e+00
89,0.000000000000e+00,4.003600000000e+01,2.000000000000e+00
90,6.000000000000e-01,4.002545584412e+01,2.000000000000e+00
91,-1.200000000000e+00,4.002121320344e+01,5.000000000000e-01
92,-1.200000000000e+00,4.003000000000e+01,1.000000000000e+00
93,-1.200000000000e+00,4.002121320344e+01,1.500000000000e+00
94,1.200000000000e+00,3.997878679656e+01,5.000000000000e-01
95,1.200000000000e+00,3.997000000000e+01,1.000000000000e+00
96,1.200000000000e+00,3.997878679656e+01,1.500000000000e+00
97,0.000000000000e+00,4.996400000000e+01,0.000000000000e+00
98,0.000000000000e+00,5.003600000000e+01,2.000000000000e+00
99,-1.200000000000e+00,5.003000000000e+01,1.000000000000e+00
100,1.200000000000e+00,4.997000000000e+01,1.000000000000e+00
101,-1.200000000000e+00,5.030000000000e+00,8.500000000000e-01
102,-1.200000000000e+00,5.030000000000e+00,1.150000000000e+00
103,1.200000000000e+00,5.030000000000e+00,8.500000000000e-01
104,1.200000000000e+00,5.030000000000e+00,1.150000000000e+00
105,1.500000000000e-01,4.964000000000e+00,0.000000000000e+00
106,-1.500000000000e-01,4.964000000000e+00,0.000000000000e+00
107,1.500000000000e-01,4.964000000000e+00,2.000000000000e+00
108,-1.500000000000e-01,4.964000000000e+00,2.000000000000e+00
109,-1.200000000000e+00,1.503000000000e+01,8.500000000000e-01
110,-1.200000000000e+00,1.503000000000e+01,1.150000000000e+00
111,1.200000000000e+00,1.503000000000e+01,8.500000000000e-01
112,1.200000000000e+00,1.503000000000e+01,1.150000000000e+00
113,1.500000000000e-01,1.496400000000e+01,0.000000000000e+00
114,-1.500000000000e-01,1.496400000000e+01,0.000000000000e+00
115,1.500000000000e-01,1.496400000000e+01,2.000000000000e+00
116,-1.500000000000e-01,1.496400000000e+01,2.000000000000e+00
117,-1.200000000000e+00,2.126148050297e+01,1.925974851452e-01
118,-1.200000000000e+00,2.252121320344e+01,3.939339828220e-01
119,-1.200000000000e+00,2.377771638598e+01,6.114180701233e-01
120,-1.200000000000e+00,2.503000000000e+01,8.500000000000e-01
121,-1.200000000000e+00,2.627771638598e+01,1.111418070123e+00
122,-1.200000000000e+00,2.752121320344e+01,1.393933982822e+00
123,-1.200000000000e+00,2.876148050297e+01,1.692597485145e+00
124,-1.200000000000e+00,2.126148050297e+01,1.807402514855e+00
125,-1.200000000000e+00,2.252121320344e+01,1.606066017178e+00
126,-1.200000000000e+00,2.377771638598e+01,1.388581929877e+00
127,-1.200000000000e+00,2.503000000000e+01,1.150000000000e+00
128,-1.200000000000e+00,2.627771638598e+01,8.885819298767e-01
129,-1.200000000000e+00,2.752121320344e+01,6.060660171780e-01
130,-1.200000000000e+00,2.876148050297e+01,3.074025148548e-01
131,1.200000000000e+00,2.126148050297e+01,1.925974851452e-01
132,1.200000000000e+00,2.252121320344e+01,3.939339828220e-01
133,1.200000000000e+00,2.377771638598e+01,6.114180701233e-01
134,1.200000000000e+00,2.503000000000e+01,8.500000000000e-01
135,1.200000000000e+00,2.627771638598e+01,1.111418070123e+00
136,1.200000000000e+00,2.752121320344e+01,1.393933982822e+00
137,1.200000000000e+00,2.876148050297e+01,1.692597485145e+00
138,1.200000000000e+00,2.126148050297e+01,1.807402514855e+00
139,1.200000000000e+00,2.252121320344e+01,1.606066017178e+00
140,1.200000000000e+00,2.377771638598e+01,1.388581929877e+00
141,1.200000000000e+00,2.503000000000e+01,1.150000000000e+00
142,1.200000000000e+00,2.627771638598e+01,8.885819298767e-01
143,1.200000000000e+00,2.752121320344e+01,6.060660171780e-01
144,1.200000000000e+00,2.876148050297e+01,3.074025148548e-01
145,-8.425974851452e-01,2.123622339643e+01,0.000000000000e+00
146,-4.939339828220e-01,2.247454415588e+01,0.000000000000e+00
147,-1.614180701233e-01,2.371674033683e+01,0.000000000000e+00
148,1.500000000000e-01,2.496400000000e+01,0.000000000000e+00
149,4.385819298767e-01,2.621674033683e+01,0.000000000000e+00
150,7.060660171780e-01,2.747454415588e+01,0.000000000000e+00
151,9.574025148548e-01,2.873622339643e+01,0.000000000000e+00
152,8.425974851452e-01,2.123622339643e+01,0.000000000000e+00
153,4.939339828220e-01,2.247454415588e+01,0.000000000000e+00
154,1.614180701233e-01,2.371674033683e+01,0.000000000000e+00
155,-1.500000000000e-01,2.496400000000e+01,0.000000000000e+00
156,-4.385819298767e-01,2.621674033683e+01,0.000000000000e+00
157,-7.060660171780e-01,2.747454415588e+01,0.000000000000e+00
158,-9.574025148548e-01,2.873622339643e+01,0.000000000000e+00
159,-8.425974851452e-01,2.123622339643e+01,2.000000000000e+00
160,-4.939339828220e-01,2.247454415588e+01,2.000000000000e+00
161,-1.614180701233e-01,2.371674033683e+01,2.000000000000e+00
162,1.500000000000e-01,2.496400000000e+01,2.000000000000e+00
163,4.385819298767e-01,2.621674033683e+01,2.000000000000e+00
164,7.060660171780e-01,2.747454415588e+01,2.000000000000e+00
165,9.574025148548e-01,2.873622339643e+01,2.000000000000e+00
166,8.425974851452e-01,2.123622339643e+01,2.000000000000e+00
167,4.939339828220e-01,2.247454415588e+01,2.000000000000e+00
168,1.614180701233e-01,2.371674033683e+01,2.000000000000e+00
169,-1.500000000000e-01,2.496400000000e+01,2.000000000000e+00
170,-4.385819298767e-01,2.621674033683e+01,2.000000000000e+00
171,-7.060660171780e-01,2.747454415588e+01,2.000000000000e+00
172,-9.574025148548e-01,2.873622339643e+01,2.000000000000e+00
173,-1.200000000000e+00,4.252121320344e+01,3.939339828220e-01
174,-1.200000000000e+00,4.503000000000e+01,8.500000000000e-01
175,-1.200000000000e+00,4.752121320344e+01,1.393933982822e+00
176,-1.200000000000e+00,4.252121320344e+01,1.606066017178e+00
177,-1.200000000000e+00,4.503000000000e+01,1.150000000000e+00
178,-1.200000000000e+00,4.752121320344e+01,6.060660171780e-01
179,1.200000000000e+00,4.252121320344e+01,3.939339828220e-01
180,1.200000000000e+00,4.503000000000e+01,8.500000000000e-01
181,1.200000000000e+00,4.752121320344e+01,1.393933982822e+00
182,1.200000000000e+00,4.252121320344e+01,1.606066017178e+00
183,1.200000000000e+00,4.503000000000e+01,1.150000000000e+00
184,1.200000000000e+00,4.752121320344e+01,6.060660171780e-01
185,-4.939339828220e-01,4.247454415588e+01,0.000000000000e+00
186,1.500000000000e-01,4.496400000000e+01,0.000000000000e+00
187,7.060660171780e-01,4.747454415588e+01,0.000000000000e+00
188,4.939339828220e-01,4.247454415588e+01,0.000000000000e+00
189,-1.500000000000e-01,4.496400000000e+01,0.000000000000e+00
190,-7.060660171780e-01,4.747454415588e+01,0.000000000000e+00
191,-4.939339828220e-01,4.247454415588e+01,2.000000000000e+00
192,1.500000000000e-01,4.496400000000e+01,2.000000000000e+00
193,7.060660171780e-01,4.747454415588e+01,2.000000000000e+00
194,4.939339828220e-01,4.247454415588e+01,2.000000000000e+00
195,-1.500000000000e-01,4.496400000000e+01,2.000000000000e+00
196,-7.060660171780e-01,4.747454415588e+01,2.000000000000e+00
*ELEMENT,TYPE=B31,ELSET=ALL
1,1,25
2,25,5
3,2,26
4,26,6
5,3,27
6,27,7
7,4,28
8,28,8
9,5,29
10,29,9
11,6,30
12,30,10
13,7,31
14,31,11
15,8,32
16,32,12
17,9,33
18,33,13
19,10,34
20,34,14
21,11,35
22,35,15
23,12,36
24,36,16
25,13,37
26,37,17
27,14,38
28,38,18
29,15,39
30,39,19
31,16,40
32,40,20
33,17,41
34,41,21
35,18,42
36,42,22
37,19,43
38,43,23
39,20,44
40,44,24
41,1,45
42,45,2
43,3,46
44,46,4
45,1,47
46,47,3
47,2,48
48,48,4
49,5,49
50,49,6
51,7,50
52,50,8
53,5,51
54,51,7
55,6,52
56,52,8
57,9,53
58,53,54
59,54,55
60,55,56
61,56,57
62,57,58
63,58,59
64,59,10
65,11,60
66,60,61
67,61,62
68,62,63
69,63,64
70,64,65
71,65,66
72,66,12
73,9,67
74,67,68
75,68,69
76,69,70
77,70,71
78,71,72
79,72,73
80,73,11
81,10,74
82,74,75
83,75,76
84,76,77
85,77,78
86,78,79
87,79,80
88,80,12
89,13,81
90,81,14
91,15,82
92,82,16
93,13,83
94,83,15
95,14,84
96,84,16
97,17,85
98,85,86
99,86,87
100,87,18
101,19,88
102,88,89
103,89,90
104,90,20
105,17,91
106,91,92
107,92,93
108,93,19
109,18,94
110,94,95
111,95,96
112,96,20
113,21,97
114,97,22
115,23,98
116,98,24
117,21,99
118,99,23
119,22,100
120,100,24
121,1,101
122,101,7
123,3,102
124,102,5
125,2,103
126,103,8
127,4,104
128,104,6
129,1,105
130,105,6
131,2,106
132,106,5
133,3,107
134,107,8
135,4,108
136,108,7
137,5,109
138,109,11
139,7,110
140,110,9
141,6,111
142,111,12
143,8,112
144,112,10
145,5,113
146,113,10
147,6,114
148,114,9
149,7,115
150,115,12
151,8,116
152,116,11
153,9,117
154,117,118
155,118,119
156,119,120
157,120,121
158,121,122
159,122,123
160,123,15
161,11,124
162,124,125
163,125,126
164,126,127
165,127,128
166,128,129
167,129,130
168,130,13
169,10,131
170,131,132
171,132,133
172,133,134
173,134,135
174,135,136
175,136,137
176,137,16
177,12,138
178,138,139
179,139,140
180,140,141
181,141,142
182,142,143
183,143,144
184,144,14
185,9,145
186,145,146
187,146,147
188,147,148
189,148,149
190,149,150
191,150,151
192,151,14
193,10,152
194,152,153
195,153,154
196,154,155
197,155,156
198,156,157
199,157,158
200,158,13
201,11,159
202,159,160
203,160,161
204,161,162
205,162,163
206,163,164
207,164,165
208,165,16
209,12,166
210,166,167
211,167,168
212,168,169
213,169,170
214,170,171
215,171,172
216,172,15
217,13,19
218,15,17
219,14,20
220,16,18
221,13,18
222,14,17
223,15,20
224,16,19
225,17,173
226,173,174
227,174,175
228,175,23
229,19,176
230,176,177
231,177,178
232,178,21
233,18,179
234,179,180
235,180,181
236,181,24
237,20,182
238,182,183
239,183,184
240,184,22
241,17,185
242,185,186
243,186,187
244,187,22
245,18,188
246,188,189
247,189,190
248,190,21
249,19,191
250,191,192
251,192,193
252,193,24
253,20,194
254,194,195
255,195,196
256,196,23
*NSET,NSET=NALL,GENERATE
1,196,1
*NSET,NSET=LEFT
1,2,3,4
*NSET,NSET=RIGHT
21,22,23,24
*MATERIAL,NAME=STEEL
*ELASTIC
2.100000000000e+11,0.300000000000
*BEAM SECTION,ELSET=ALL,MATERIAL=STEEL,SECTION=RECT
6.000000000000e-02,4.000000000000e-02
0.371390676354,0.557086014531,0.742781352708
*BOUNDARY
LEFT,1,6,0.0
*STEP
*STATIC
*BOUNDARY
21,1,1,5.000000000000e-03
21,2,2,0.0
21,3,3,-6.000000000000e-03
*BOUNDARY
22,1,1,5.000000000000e-03
22,2,2,0.0
22,3,3,6.000000000000e-03
*BOUNDARY
23,1,1,-5.000000000000e-03
23,2,2,0.0
23,3,3,-6.000000000000e-03
*BOUNDARY
24,1,1,-5.000000000000e-03
24,2,2,0.0
24,3,3,6.000000000000e-03
*NODE FILE,NSET=NALL
U
*NODE PRINT,NSET=NALL
U
*NODE PRINT,NSET=RIGHT
RF
*EL PRINT,ELSET=ALL,TOTALS=YES
ELSE
*END STEP
