*HEADING
Normalized cross-passage space-truss torsion benchmark
*NODE
1,-1.200000000000e+00,0.000000000000e+00,0.000000000000e+00
2,1.200000000000e+00,0.000000000000e+00,0.000000000000e+00
3,-1.200000000000e+00,0.000000000000e+00,2.000000000000e+00
4,1.200000000000e+00,0.000000000000e+00,2.000000000000e+00
5,-1.200000000000e+00,1.000000000000e+01,0.000000000000e+00
6,1.200000000000e+00,1.000000000000e+01,0.000000000000e+00
7,-1.200000000000e+00,1.000000000000e+01,2.000000000000e+00
8,1.200000000000e+00,1.000000000000e+01,2.000000000000e+00
9,-1.200000000000e+00,2.000000000000e+01,0.000000000000e+00
10,1.200000000000e+00,2.000000000000e+01,0.000000000000e+00
11,-1.200000000000e+00,2.000000000000e+01,2.000000000000e+00
12,1.200000000000e+00,2.000000000000e+01,2.000000000000e+00
13,-1.200000000000e+00,3.000000000000e+01,0.000000000000e+00
14,1.200000000000e+00,3.000000000000e+01,0.000000000000e+00
15,-1.200000000000e+00,3.000000000000e+01,2.000000000000e+00
16,1.200000000000e+00,3.000000000000e+01,2.000000000000e+00
17,-1.200000000000e+00,4.000000000000e+01,0.000000000000e+00
18,1.200000000000e+00,4.000000000000e+01,0.000000000000e+00
19,-1.200000000000e+00,4.000000000000e+01,2.000000000000e+00
20,1.200000000000e+00,4.000000000000e+01,2.000000000000e+00
21,-1.200000000000e+00,5.000000000000e+01,0.000000000000e+00
22,1.200000000000e+00,5.000000000000e+01,0.000000000000e+00
23,-1.200000000000e+00,5.000000000000e+01,2.000000000000e+00
24,1.200000000000e+00,5.000000000000e+01,2.000000000000e+00
25,-1.200000000000e+00,5.000000000000e+00,-1.500000000000e-01
26,1.200000000000e+00,5.000000000000e+00,1.500000000000e-01
27,-1.200000000000e+00,5.000000000000e+00,1.850000000000e+00
28,1.200000000000e+00,5.000000000000e+00,2.150000000000e+00
29,-1.200000000000e+00,1.500000000000e+01,-1.500000000000e-01
30,1.200000000000e+00,1.500000000000e+01,1.500000000000e-01
31,-1.200000000000e+00,1.500000000000e+01,1.850000000000e+00
32,1.200000000000e+00,1.500000000000e+01,2.150000000000e+00
33,-1.200000000000e+00,2.500000000000e+01,-1.500000000000e-01
34,1.200000000000e+00,2.500000000000e+01,1.500000000000e-01
35,-1.200000000000e+00,2.500000000000e+01,1.850000000000e+00
36,1.200000000000e+00,2.500000000000e+01,2.150000000000e+00
37,-1.200000000000e+00,3.500000000000e+01,-1.500000000000e-01
38,1.200000000000e+00,3.500000000000e+01,1.500000000000e-01
39,-1.200000000000e+00,3.500000000000e+01,1.850000000000e+00
40,1.200000000000e+00,3.500000000000e+01,2.150000000000e+00
41,-1.200000000000e+00,4.500000000000e+01,-1.500000000000e-01
42,1.200000000000e+00,4.500000000000e+01,1.500000000000e-01
43,-1.200000000000e+00,4.500000000000e+01,1.850000000000e+00
44,1.200000000000e+00,4.500000000000e+01,2.150000000000e+00
45,0.000000000000e+00,-3.600000000000e-02,0.000000000000e+00
46,0.000000000000e+00,3.600000000000e-02,2.000000000000e+00
47,-1.200000000000e+00,3.000000000000e-02,1.000000000000e+00
48,1.200000000000e+00,-3.000000000000e-02,1.000000000000e+00
49,0.000000000000e+00,9.964000000000e+00,0.000000000000e+00
50,0.000000000000e+00,1.003600000000e+01,2.000000000000e+00
51,-1.200000000000e+00,1.003000000000e+01,1.000000000000e+00
52,1.200000000000e+00,9.970000000000e+00,1.000000000000e+00
53,-6.000000000000e-01,1.997454415588e+01,0.000000000000e+00
54,0.000000000000e+00,1.996400000000e+01,0.000000000000e+00
55,6.000000000000e-01,1.997454415588e+01,0.000000000000e+00
56,-6.000000000000e-01,2.002545584412e+01,2.000000000000e+00
57,0.000000000000e+00,2.003600000000e+01,2.000000000000e+00
58,6.000000000000e-01,2.002545584412e+01,2.000000000000e+00
59,-1.200000000000e+00,2.002121320344e+01,5.000000000000e-01
60,-1.200000000000e+00,2.003000000000e+01,1.000000000000e+00
61,-1.200000000000e+00,2.002121320344e+01,1.500000000000e+00
62,1.200000000000e+00,1.997878679656e+01,5.000000000000e-01
63,1.200000000000e+00,1.997000000000e+01,1.000000000000e+00
64,1.200000000000e+00,1.997878679656e+01,1.500000000000e+00
65,-9.000000000000e-01,2.998622339643e+01,0.000000000000e+00
66,-6.000000000000e-01,2.997454415588e+01,0.000000000000e+00
67,-3.000000000000e-01,2.996674033683e+01,0.000000000000e+00
68,0.000000000000e+00,2.996400000000e+01,0.000000000000e+00
69,3.000000000000e-01,2.996674033683e+01,0.000000000000e+00
70,6.000000000000e-01,2.997454415588e+01,0.000000000000e+00
71,9.000000000000e-01,2.998622339643e+01,0.000000000000e+00
72,-9.000000000000e-01,3.001377660357e+01,2.000000000000e+00
73,-6.000000000000e-01,3.002545584412e+01,2.000000000000e+00
74,-3.000000000000e-01,3.003325966317e+01,2.000000000000e+00
75,0.000000000000e+00,3.003600000000e+01,2.000000000000e+00
76,3.000000000000e-01,3.003325966317e+01,2.000000000000e+00
77,6.000000000000e-01,3.002545584412e+01,2.000000000000e+00
78,9.000000000000e-01,3.001377660357e+01,2.000000000000e+00
79,-1.200000000000e+00,3.001148050297e+01,2.500000000000e-01
80,-1.200000000000e+00,3.002121320344e+01,5.000000000000e-01
81,-1.200000000000e+00,3.002771638598e+01,7.500000000000e-01
82,-1.200000000000e+00,3.003000000000e+01,1.000000000000e+00
83,-1.200000000000e+00,3.002771638598e+01,1.250000000000e+00
84,-1.200000000000e+00,3.002121320344e+01,1.500000000000e+00
85,-1.200000000000e+00,3.001148050297e+01,1.750000000000e+00
86,1.200000000000e+00,2.998851949703e+01,2.500000000000e-01
87,1.200000000000e+00,2.997878679656e+01,5.000000000000e-01
88,1.200000000000e+00,2.997228361402e+01,7.500000000000e-01
89,1.200000000000e+00,2.997000000000e+01,1.000000000000e+00
90,1.200000000000e+00,2.997228361402e+01,1.250000000000e+00
91,1.200000000000e+00,2.997878679656e+01,1.500000000000e+00
92,1.200000000000e+00,2.998851949703e+01,1.750000000000e+00
93,0.000000000000e+00,3.996400000000e+01,0.000000000000e+00
94,0.000000000000e+00,4.003600000000e+01,2.000000000000e+00
95,-1.200000000000e+00,4.003000000000e+01,1.000000000000e+00
96,1.200000000000e+00,3.997000000000e+01,1.000000000000e+00
97,0.000000000000e+00,4.996400000000e+01,0.000000000000e+00
98,0.000000000000e+00,5.003600000000e+01,2.000000000000e+00
99,-1.200000000000e+00,5.003000000000e+01,1.000000000000e+00
100,1.200000000000e+00,4.997000000000e+01,1.000000000000e+00
101,-1.200000000000e+00,5.030000000000e+00,8.500000000000e-01
102,-1.200000000000e+00,5.030000000000e+00,1.150000000000e+00
103,1.200000000000e+00,5.030000000000e+00,8.500000000000e-01
104,1.200000000000e+00,5.030000000000e+00,1.150000000000e+00
105,1.500000000000e-01,4.964000000000e+00,0.000000000000e+00
106,-1.500000000000e-01,4.964000000000e+00,0.000000000000e+00
107,1.500000000000e-01,4.964000000000e+00,2.000000000000e+00
108,-1.500000000000e-01,4.964000000000e+00,2.000000000000e+00
109,-1.200000000000e+00,1.503000000000e+01,8.500000000000e-01
110,-1.200000000000e+00,1.503000000000e+01,1.150000000000e+00
111,1.200000000000e+00,1.503000000000e+01,8.500000000000e-01
112,1.200000000000e+00,1.503000000000e+01,1.150000000000e+00
113,1.500000000000e-01,1.496400000000e+01,0.000000000000e+00
114,-1.500000000000e-01,1.496400000000e+01,0.000000000000e+00
115,1.500000000000e-01,1.496400000000e+01,2.000000000000e+00
116,-1.500000000000e-01,1.496400000000e+01,2.000000000000e+00
117,-1.200000000000e+00,2.126148050297e+01,1.925974851452e-01
118,-1.200000000000e+00,2.252121320344e+01,3.939339828220e-01
119,-1.200000000000e+00,2.377771638598e+01,6.114180701233e-01
120,-1.200000000000e+00,2.503000000000e+01,8.500000000000e-01
121,-1.200000000000e+00,2.627771638598e+01,1.111418070123e+00
122,-1.200000000000e+00,2.752121320344e+01,1.393933982822e+00
123,-1.200000000000e+00,2.876148050297e+01,1.692597485145e+00
124,-1.200000000000e+00,2.126148050297e+01,1.807402514855e+00
125,-1.200000000000e+00,2.252121320344e+01,1.606066017178e+00
126,-1.200000000000e+00,2.377771638598e+01,1.388581929877e+00
127,-1.200000000000e+00,2.503000000000e+01,1.150000000000e+00
128,-1.200000000000e+00,2.627771638598e+01,8.885819298767e-01
129,-1.200000000000e+00,2.752121320344e+01,6.060660171780e-01
130,-1.200000000000e+00,2.876148050297e+01,3.074025148548e-01
131,1.200000000000e+00,2.126148050297e+01,1.925974851452e-01
132,1.200000000000e+00,2.252121320344e+01,3.939339828220e-01
133,1.200000000000e+00,2.377771638598e+01,6.114180701233e-01
134,1.200000000000e+00,2.503000000000e+01,8.500000000000e-01
135,1.200000000000e+00,2.627771638598e+01,1.111418070123e+00
136,1.200000000000e+00,2.752121320344e+01,1.393933982822e+00
137,1.200000000000e+00,2.876148050297e+01,1.692597485145e+00
138,1.200000000000e+00,2.126148050297e+01,1.807402514855e+00
139,1.200000000000e+00,2.252121320344e+01,1.606066017178e+00
140,1.200000000000e+00,2.377771638598e+01,1.388581929877e+00
141,1.200000000000e+00,2.503000000000e+01,1.150000000000e+00
142,1.200000000000e+00,2.627771638598e+01,8.885819298767e-01
143,1.200000000000e+00,2.752121320344e+01,6.060660171780e-01
144,1.200000000000e+00,2.876148050297e+01,3.074025148548e-01
145,-8.425974851452e-01,2.123622339643e+01,0.000000000000e+00
146,-4.939339828220e-01,2.247454415588e+01,0.000000000000e+00
147,-1.614180701233e-01,2.371674033683e+01,0.000000000000e+00
148,1.500000000000e-01,2.496400000000e+01,0.000000000000e+00
149,4.385819298767e-01,2.621674033683e+01,0.000000000000e+00
150,7.060660171780e-01,2.747454415588e+01,0.000000000000e+00
151,9.574025148548e-01,2.873622339643e+01,0.000000000000e+00
152,8.425974851452e-01,2.123622339643e+01,0.000000000000e+00
153,4.939339828220e-01,2.247454415588e+01,0.000000000000e+00
154,1.614180701233e-01,2.371674033683e+01,0.000000000000e+00
155,-1.500000000000e-01,2.496400000000e+01,0.000000000000e+00
156,-4.385819298767e-01,2.621674033683e+01,0.000000000000e+00
157,-7.060660171780e-01,2.747454415588e+01,0.000000000000e+00
158,-9.574025148548e-01,2.873622339643e+01,0.000000000000e+00
159,-8.425974851452e-01,2.123622339643e+01,2.000000000000e+00
160,-4.939339828220e-01,2.247454415588e+01,2.000000000000e+00
161,-1.614180701233e-01,2.371674033683e+01,2.000000000000e+00
162,1.500000000000e-01,2.496400000000e+01,2.000000000000e+00
163,4.385819298767e-01,2.621674033683e+01,2.000000000000e+00
164,7.060660171780e-01,2.747454415588e+01,2.000000000000e+00
165,9.574025148548e-01,2.873622339643e+01,2.000000000000e+00
166,8.425974851452e-01,2.123622339643e+01,2.000000000000e+00
167,4.939339828220e-01,2.247454415588e+01,2.000000000000e+00
168,1.614180701233e-01,2.371674033683e+01,2.000000000000e+00
169,-1.500000000000e-01,2.496400000000e+01,2.000000000000e+00
170,-4.385819298767e-01,2.621674033683e+01,2.000000000000e+00
171,-7.060660171780e-01,2.747454415588e+01,2.000000000000e+00
172,-9.574025148548e-01,2.873622339643e+01,2.000000000000e+00
173,-1.200000000000e+00,3.252121320344e+01,3.939339828220e-01
174,-1.200000000000e+00,3.503000000000e+01,8.500000000000e-01
175,-1.200000000000e+00,3.752121320344e+01,1.393933982822e+00
176,-1.200000000000e+00,3.252121320344e+01,1.606066017178e+00
177,-1.200000000000e+00,3.503000000000e+01,1.150000000000e+00
178,-1.200000000000e+00,3.752121320344e+01,6.060660171780e-01
179,1.200000000000e+00,3.252121320344e+01,3.939339828220e-01
180,1.200000000000e+00,3.503000000000e+01,8.500000000000e-01
181,1.200000000000e+00,3.752121320344e+01,1.393933982822e+00
182,1.200000000000e+00,3.252121320344e+01,1.606066017178e+00
183,1.200000000000e+00,3.503000000000e+01,1.150000000000e+00
184,1.200000000000e+00,3.752121320344e+01,6.060660171780e-01
185,-4.939339828220e-01,3.247454415588e+01,0.000000000000e+00
186,1.500000000000e-01,3.496400000000e+01,0.000000000000e+00
187,7.060660171780e-01,3.747454415588e+01,0.000000000000e+00
188,4.939339828220e-01,3.247454415588e+01,0.000000000000e+00
189,-1.500000000000e-01,3.496400000000e+01,0.000000000000e+00
190,-7.060660171780e-01,3.747454415588e+01,0.000000000000e+00
191,-4.939339828220e-01,3.247454415588e+01,2.000000000000e+00
192,1.500000000000e-01,3.496400000000e+01,2.000000000000e+00
193,7.060660171780e-01,3.747454415588e+01,2.000000000000e+00
194,4.939339828220e-01,3.247454415588e+01,2.000000000000e+00
195,-1.500000000000e-01,3.496400000000e+01,2.000000000000e+00
196,-7.060660171780e-01,3.747454415588e+01,2.000000000000e+00
197,-1.200000000000e+00,4.126148050297e+01,1.925974851452e-01
198,-1.200000000000e+00,4.252121320344e+01,3.939339828220e-01
199,-1.200000000000e+00,4.377771638598e+01,6.114180701233e-01
200,-1.200000000000e+00,4.503000000000e+01,8.500000000000e-01
201,-1.200000000000e+00,4.627771638598e+01,1.111418070123e+00
202,-1.200000000000e+00,4.752121320344e+01,1.393933982822e+00
203,-1.200000000000e+00,4.876148050297e+01,1.692597485145e+00
204,-1.200000000000e+00,4.126148050297e+01,1.807402514855e+00
205,-1.200000000000e+00,4.252121320344e+01,1.606066017178e+00
206,-1.200000000000e+00,4.377771638598e+01,1.388581929877e+00
207,-1.200000000000e+00,4.503000000000e+01,1.150000000000e+00
208,-1.200000000000e+00,4.627771638598e+01,8.885819298767e-01
209,-1.200000000000e+00,4.752121320344e+01,6.060660171780e-01
210,-1.200000000000e+00,4.876148050297e+01,3.074025148548e-01
211,1.200000000000e+00,4.126148050297e+01,1.925974851452e-01
212,1.200000000000e+00,4.252121320344e+01,3.939339828220e-01
213,1.200000000000e+00,4.377771638598e+01,6.114180701233e-01
214,1.200000000000e+00,4.503000000000e+01,8.500000000000e-01
215,1.200000000000e+00,4.627771638598e+01,1.111418070123e+00
216,1.200000000000e+00,4.752121320344e+01,1.393933982822e+00
217,1.200000000000e+00,4.876148050297e+01,1.692597485145e+00
218,1.200000000000e+00,4.126148050297e+01,1.807402514855e+00
219,1.200000000000e+00,4.252121320344e+01,1.606066017178e+00
220,1.200000000000e+00,4.377771638598e+01,1.388581929877e+00
221,1.200000000000e+00,4.503000000000e+01,1.150000000000e+00
222,1.200000000000e+00,4.627771638598e+01,8.885819298767e-01
223,1.200000000000e+00,4.752121320344e+01,6.060660171780e-01
224,1.200000000000e+00,4.876148050297e+01,3.074025148548e-01
225,-8.425974851452e-01,4.123622339643e+01,0.000000000000e+00
226,-4.939339828220e-01,4.247454415588e+01,0.000000000000e+00
227,-1.614180701233e-01,4.371674033683e+01,0.000000000000e+00
228,1.500000000000e-01,4.496400000000e+01,0.000000000000e+00
229,4.385819298767e-01,4.621674033683e+01,0.000000000000e+00
230,7.060660171780e-01,4.747454415588e+01,0.000000000000e+00
231,9.574025148548e-01,4.873622339643e+01,0.000000000000e+00
232,8.425974851452e-01,4.123622339643e+01,0.000000000000e+00
233,4.939339828220e-01,4.247454415588e+01,0.000000000000e+00
234,1.614180701233e-01,4.371674033683e+01,0.000000000000e+00
235,-1.500000000000e-01,4.496400000000e+01,0.000000000000e+00
236,-4.385819298767e-01,4.621674033683e+01,0.000000000000e+00
237,-7.060660171780e-01,4.747454415588e+01,0.000000000000e+00
238,-9.574025148548e-01,4.873622339643e+01,0.000000000000e+00
239,-8.425974851452e-01,4.123622339643e+01,2.000000000000e+00
240,-4.939339828220e-01,4.247454415588e+01,2.000000000000e+00
241,-1.614180701233e-01,4.371674033683e+01,2.000000000000e+00
242,1.500000000000e-01,4.496400000000e+01,2.000000000000e+00
243,4.385819298767e-01,4.621674033683e+01,2.000000000000e+00
244,7.060660171780e-01,4.747454415588e+01,2.000000000000e+00
245,9.574025148548e-01,4.873622339643e+01,2.000000000000e+00
246,8.425974851452e-01,4.123622339643e+01,2.000000000000e+00
247,4.939339828220e-01,4.247454415588e+01,2.000000000000e+00
248,1.614180701233e-01,4.371674033683e+01,2.000000000000e+00
249,-1.500000000000e-01,4.496400000000e+01,2.000000000000e+00
250,-4.385819298767e-01,4.621674033683e+01,2.000000000000e+00
251,-7.060660171780e-01,4.747454415588e+01,2.000000000000e+00
252,-9.574025148548e-01,4.873622339643e+01,2.000000000000e+00
*ELEMENT,TYPE=B31,ELSET=ALL
1,1,25
2,25,5
3,2,26
4,26,6
5,3,27
6,27,7
7,4,28
8,28,8
9,5,29
10,29,9
11,6,30
12,30,10
13,7,31
14,31,11
15,8,32
16,32,12
17,9,33
18,33,13
19,10,34
20,34,14
21,11,35
22,35,15
23,12,36
24,36,16
25,13,37
26,37,17
27,14,38
28,38,18
29,15,39
30,39,19
31,16,40
32,40,20
33,17,41
34,41,21
35,18,42
36,42,22
37,19,43
38,43,23
39,20,44
40,44,24
41,1,45
42,45,2
43,3,46
44,46,4
45,1,47
46,47,3
47,2,48
48,48,4
49,5,49
50,49,6
51,7,50
52,50,8
53,5,51
54,51,7
55,6,52
56,52,8
57,9,53
58,53,54
59,54,55
60,55,10
61,11,56
62,56,57
63,57,58
64,58,12
65,9,59
66,59,60
67,60,61
68,61,11
69,10,62
70,62,63
71,63,64
72,64,12
73,13,65
74,65,66
75,66,67
76,67,68
77,68,69
78,69,70
79,70,71
80,71,14
81,15,72
82,72,73
83,73,74
84,74,75
85,75,76
86,76,77
87,77,78
88,78,16
89,13,79
90,79,80
91,80,81
92,81,82
93,82,83
94,83,84
95,84,85
96,85,15
97,14,86
98,86,87
99,87,88
100,88,89
101,89,90
102,90,91
103,91,92
104,92,16
105,17,93
106,93,18
107,19,94
108,94,20
109,17,95
110,95,19
111,18,96
112,96,20
113,21,97
114,97,22
115,23,98
116,98,24
117,21,99
118,99,23
119,22,100
120,100,24
121,1,101
122,101,7
123,3,102
124,102,5
125,2,103
126,103,8
127,4,104
128,104,6
129,1,105
130,105,6
131,2,106
132,106,5
133,3,107
134,107,8
135,4,108
136,108,7
137,5,109
138,109,11
139,7,110
140,110,9
141,6,111
142,111,12
143,8,112
144,112,10
145,5,113
146,113,10
147,6,114
148,114,9
149,7,115
150,115,12
151,8,116
152,116,11
153,9,117
154,117,118
155,118,119
156,119,120
157,120,121
158,121,122
159,122,123
160,123,15
161,11,124
162,124,125
163,125,126
164,126,127
165,127,128
166,128,129
167,129,130
168,130,13
169,10,131
170,131,132
171,132,133
172,133,134
173,134,135
174,135,136
175,136,137
176,137,16
177,12,138
178,138,139
179,139,140
180,140,141
181,141,142
182,142,143
183,143,144
184,144,14
185,9,145
186,145,146
187,146,147
188,147,148
189,148,149
190,149,150
191,150,151
192,151,14
193,10,152
194,152,153
195,153,154
196,154,155
197,155,156
198,156,157
199,157,158
200,158,13
201,11,159
202,159,160
203,160,161
204,161,162
205,162,163
206,163,164
207,164,165
208,165,16
209,12,166
210,166,167
211,167,168
212,168,169
213,169,170
214,170,171
215,171,172
216,172,15
217,13,173
218,173,174
219,174,175
220,175,19
221,15,176
222,176,177
223,177,178
224,178,17
225,14,179
226,179,180
227,180,181
228,181,20
229,16,182
230,182,183
231,183,184
232,184,18
233,13,185
234,185,186
235,186,187
236,187,18
237,14,188
238,188,189
239,189,190
240,190,17
241,15,191
242,191,192
243,192,193
244,193,20
245,16,194
246,194,195
247,195,196
248,196,19
249,17,197
250,197,198
251,198,199
252,199,200
253,200,201
254,201,202
255,202,203
256,203,23
257,19,204
258,204,205
259,205,206
260,206,207
261,207,208
262,208,209
263,209,210
264,210,21
265,18,211
266,211,212
267,212,213
268,213,214
269,214,215
270,215,216
271,216,217
272,217,24
273,20,218
274,218,219
275,219,220
276,220,221
277,221,222
278,222,223
279,223,224
280,224,22
281,17,225
282,225,226
283,226,227
284,227,228
285,228,229
286,229,230
287,230,231
288,231,22
289,18,232
290,232,233
291,233,234
292,234,235
293,235,236
294,236,237
295,237,238
296,238,21
297,19,239
298,239,240
299,240,241
300,241,242
301,242,243
302,243,244
303,244,245
304,245,24
305,20,246
306,246,247
307,247,248
308,248,249
309,249,250
310,250,251
311,251,252
312,252,23
*NSET,NSET=NALL,GENERATE
1,252,1
*NSET,NSET=LEFT
1,2,3,4
*NSET,NSET=RIGHT
21,22,23,24
*MATERIAL,NAME=STEEL
*ELASTIC
2.100000000000e+11,0.300000000000
*BEAM SECTION,ELSET=ALL,MATERIAL=STEEL,SECTION=RECT
6.000000000000e-02,4.000000000000e-02
0.371390676354,0.557086014531,0.742781352708
*BOUNDARY
LEFT,1,6,0.0
*STEP
*STATIC
*BOUNDARY
21,1,1,5.000000000000e-03
21,2,2,0.0
21,3,3,-6.000000000000e-03
*BOUNDARY
22,1,1,5.000000000000e-03
22,2,2,0.0
22,3,3,6.000000000000e-03
*BOUNDARY
23,1,1,-5.000000000000e-03
23,2,2,0.0
23,3,3,-6.000000000000e-03
*BOUNDARY
24,1,1,-5.000000000000e-03
24,2,2,0.0
24,3,3,6.000000000000e-03
*NODE FILE,NSET=NALL
U
*NODE PRINT,NSET=NALL
U
*NODE PRINT,NSET=RIGHT
RF
*EL PRINT,ELSET=ALL,TOTALS=YES
ELSE
*END STEP
