*HEADING
Normalized cross-passage space-truss torsion benchmark
*NODE
1,-1.200000000000e+00,0.000000000000e+00,0.000000000000e+00
2,1.200000000000e+00,0.000000000000e+00,0.000000000000e+00
3,-1.200000000000e+00,0.000000000000e+00,2.000000000000e+00
4,1.200000000000e+00,0.000000000000e+00,2.000000000000e+00
5,-1.200000000000e+00,1.000000000000e+01,0.000000000000e+00
6,1.200000000000e+00,1.000000000000e+01,0.000000000000e+00
7,-1.200000000000e+00,1.000000000000e+01,2.000000000000e+00
8,1.200000000000e+00,1.000000000000e+01,2.000000000000e+00
9,-1.200000000000e+00,2.000000000000e+01,0.000000000000e+00
10,1.200000000000e+00,2.000000000000e+01,0.000000000000e+00
11,-1.200000000000e+00,2.000000000000e+01,2.000000000000e+00
12,1.200000000000e+00,2.000000000000e+01,2.000000000000e+00
13,-1.200000000000e+00,3.000000000000e+01,0.000000000000e+00
14,1.200000000000e+00,3.000000000000e+01,0.000000000000e+00
15,-1.200000000000e+00,3.000000000000e+01,2.000000000000e+00
16,1.200000000000e+00,3.000000000000e+01,2.000000000000e+00
17,-1.200000000000e+00,4.000000000000e+01,0.000000000000e+00
18,1.200000000000e+00,4.000000000000e+01,0.000000000000e+00
19,-1.200000000000e+00,4.000000000000e+01,2.000000000000e+00
20,1.200000000000e+00,4.000000000000e+01,2.000000000000e+00
21,-1.200000000000e+00,5.000000000000e+01,0.000000000000e+00
22,1.200000000000e+00,5.000000000000e+01,0.000000000000e+00
23,-1.200000000000e+00,5.000000000000e+01,2.000000000000e+00
24,1.200000000000e+00,5.000000000000e+01,2.000000000000e+00
25,-1.200000000000e+00,1.250000000000e+01,-1.060660171780e-01
26,-1.200000000000e+00,1.500000000000e+01,-1.500000000000e-01
27,-1.200000000000e+00,1.750000000000e+01,-1.060660171780e-01
28,1.200000000000e+00,1.250000000000e+01,1.060660171780e-01
29,1.200000000000e+00,1.500000000000e+01,1.500000000000e-01
30,1.200000000000e+00,1.750000000000e+01,1.060660171780e-01
31,-1.200000000000e+00,1.250000000000e+01,1.893933982822e+00
32,-1.200000000000e+00,1.500000000000e+01,1.850000000000e+00
33,-1.200000000000e+00,1.750000000000e+01,1.893933982822e+00
34,1.200000000000e+00,1.250000000000e+01,2.106066017178e+00
35,1.200000000000e+00,1.500000000000e+01,2.150000000000e+00
36,1.200000000000e+00,1.750000000000e+01,2.106066017178e+00
37,-1.200000000000e+00,2.500000000000e+01,-1.500000000000e-01
38,1.200000000000e+00,2.500000000000e+01,1.500000000000e-01
39,-1.200000000000e+00,2.500000000000e+01,1.850000000000e+00
40,1.200000000000e+00,2.500000000000e+01,2.150000000000e+00
41,-1.200000000000e+00,3.250000000000e+01,-1.060660171780e-01
42,-1.200000000000e+00,3.500000000000e+01,-1.500000000000e-01
43,-1.200000000000e+00,3.750000000000e+01,-1.060660171780e-01
44,1.200000000000e+00,3.250000000000e+01,1.060660171780e-01
45,1.200000000000e+00,3.500000000000e+01,1.500000000000e-01
46,1.200000000000e+00,3.750000000000e+01,1.060660171780e-01
47,-1.200000000000e+00,3.250000000000e+01,1.893933982822e+00
48,-1.200000000000e+00,3.500000000000e+01,1.850000000000e+00
49,-1.200000000000e+00,3.750000000000e+01,1.893933982822e+00
50,1.200000000000e+00,3.250000000000e+01,2.106066017178e+00
51,1.200000000000e+00,3.500000000000e+01,2.150000000000e+00
52,1.200000000000e+00,3.750000000000e+01,2.106066017178e+00
53,0.000000000000e+00,-3.600000000000e-02,0.000000000000e+00
54,0.000000000000e+00,3.600000000000e-02,2.000000000000e+00
55,-1.200000000000e+00,3.000000000000e-02,1.000000000000e+00
56,1.200000000000e+00,-3.000000000000e-02,1.000000000000e+00
57,-6.000000000000e-01,1.997454415588e+01,0.000000000000e+00
58,0.000000000000e+00,1.996400000000e+01,0.000000000000e+00
59,6.000000000000e-01,1.997454415588e+01,0.000000000000e+00
60,-6.000000000000e-01,2.002545584412e+01,2.000000000000e+00
61,0.000000000000e+00,2.003600000000e+01,2.000000000000e+00
62,6.000000000000e-01,2.002545584412e+01,2.000000000000e+00
63,-1.200000000000e+00,2.002121320344e+01,5.000000000000e-01
64,-1.200000000000e+00,2.003000000000e+01,1.000000000000e+00
65,-1.200000000000e+00,2.002121320344e+01,1.500000000000e+00
66,1.200000000000e+00,1.997878679656e+01,5.000000000000e-01
67,1.200000000000e+00,1.997000000000e+01,1.000000000000e+00
68,1.200000000000e+00,1.997878679656e+01,1.500000000000e+00
69,0.000000000000e+00,4.996400000000e+01,0.000000000000e+00
70,0.000000000000e+00,5.003600000000e+01,2.000000000000e+00
71,-1.200000000000e+00,5.003000000000e+01,1.000000000000e+00
72,1.200000000000e+00,4.997000000000e+01,1.000000000000e+00
73,-1.200000000000e+00,1.126148050297e+01,1.925974851452e-01
74,-1.200000000000e+00,1.252121320344e+01,3.939339828220e-01
75,-1.200000000000e+00,1.377771638598e+01,6.114180701233e-01
76,-1.200000000000e+00,1.503000000000e+01,8.500000000000e-01
77,-1.200000000000e+00,1.627771638598e+01,1.111418070123e+00
78,-1.200000000000e+00,1.752121320344e+01,1.393933982822e+00
79,-1.200000000000e+00,1.876148050297e+01,1.692597485145e+00
80,-1.200000000000e+00,1.126148050297e+01,1.807402514855e+00
81,-1.200000000000e+00,1.252121320344e+01,1.606066017178e+00
82,-1.200000000000e+00,1.377771638598e+01,1.388581929877e+00
83,-1.200000000000e+00,1.503000000000e+01,1.150000000000e+00
84,-1.200000000000e+00,1.627771638598e+01,8.885819298767e-01
85,-1.200000000000e+00,1.752121320344e+01,6.060660171780e-01
86,-1.200000000000e+00,1.876148050297e+01,3.074025148548e-01
87,1.200000000000e+00,1.126148050297e+01,1.925974851452e-01
88,1.200000000000e+00,1.252121320344e+01,3.939339828220e-01
89,1.200000000000e+00,1.377771638598e+01,6.114180701233e-01
90,1.200000000000e+00,1.503000000000e+01,8.500000000000e-01
91,1.200000000000e+00,1.627771638598e+01,1.111418070123e+00
92,1.200000000000e+00,1.752121320344e+01,1.393933982822e+00
93,1.200000000000e+00,1.876148050297e+01,1.692597485145e+00
94,1.200000000000e+00,1.126148050297e+01,1.807402514855e+00
95,1.200000000000e+00,1.252121320344e+01,1.606066017178e+00
96,1.200000000000e+00,1.377771638598e+01,1.388581929877e+00
97,1.200000000000e+00,1.503000000000e+01,1.150000000000e+00
98,1.200000000000e+00,1.627771638598e+01,8.885819298767e-01
99,1.200000000000e+00,1.752121320344e+01,6.060660171780e-01
100,1.200000000000e+00,1.876148050297e+01,3.074025148548e-01
101,-8.425974851452e-01,1.123622339643e+01,0.000000000000e+00
102,-4.939339828220e-01,1.247454415588e+01,0.000000000000e+00
103,-1.614180701233e-01,1.371674033683e+01,0.000000000000e+00
104,1.500000000000e-01,1.496400000000e+01,0.000000000000e+00
105,4.385819298767e-01,1.621674033683e+01,0.000000000000e+00
106,7.060660171780e-01,1.747454415588e+01,0.000000000000e+00
107,9.574025148548e-01,1.873622339643e+01,0.000000000000e+00
108,8.425974851452e-01,1.123622339643e+01,0.000000000000e+00
109,4.939339828220e-01,1.247454415588e+01,0.000000000000e+00
110,1.614180701233e-01,1.371674033683e+01,0.000000000000e+00
111,-1.500000000000e-01,1.496400000000e+01,0.000000000000e+00
112,-4.385819298767e-01,1.621674033683e+01,0.000000000000e+00
113,-7.060660171780e-01,1.747454415588e+01,0.000000000000e+00
114,-9.574025148548e-01,1.873622339643e+01,0.000000000000e+00
115,-8.425974851452e-01,1.123622339643e+01,2.000000000000e+00
116,-4.939339828220e-01,1.247454415588e+01,2.000000000000e+00
117,-1.614180701233e-01,1.371674033683e+01,2.000000000000e+00
118,1.500000000000e-01,1.496400000000e+01,2.000000000000e+00
119,4.385819298767e-01,1.621674033683e+01,2.000000000000e+00
120,7.060660171780e-01,1.747454415588e+01,2.000000000000e+00
121,9.574025148548e-01,1.873622339643e+01,2.000000000000e+00
122,8.425974851452e-01,1.123622339643e+01,2.000000000000e+00
123,4.939339828220e-01,1.247454415588e+01,2.000000000000e+00
124,1.614180701233e-01,1.371674033683e+01,2.000000000000e+00
125,-1.500000000000e-01,1.496400000000e+01,2.000000000000e+00
126,-4.385819298767e-01,1.621674033683e+01,2.000000000000e+00
127,-7.060660171780e-01,1.747454415588e+01,2.000000000000e+00
128,-9.574025148548e-01,1.873622339643e+01,2.000000000000e+00
129,-1.200000000000e+00,3.503000000000e+01,8.500000000000e-01
130,-1.200000000000e+00,3.503000000000e+01,1.150000000000e+00
131,1.200000000000e+00,3.503000000000e+01,8.500000000000e-01
132,1.200000000000e+00,3.503000000000e+01,1.150000000000e+00
133,1.500000000000e-01,3.496400000000e+01,0.000000000000e+00
134,-1.500000000000e-01,3.496400000000e+01,0.000000000000e+00
135,1.500000000000e-01,3.496400000000e+01,2.000000000000e+00
136,-1.500000000000e-01,3.496400000000e+01,2.000000000000e+00
137,-1.200000000000e+00,4.503000000000e+01,8.500000000000e-01
138,-1.200000000000e+00,4.503000000000e+01,1.150000000000e+00
139,1.200000000000e+00,4.503000000000e+01,8.500000000000e-01
140,1.200000000000e+00,4.503000000000e+01,1.150000000000e+00
141,1.500000000000e-01,4.496400000000e+01,0.000000000000e+00
142,-1.500000000000e-01,4.496400000000e+01,0.000000000000e+00
143,1.500000000000e-01,4.496400000000e+01,2.000000000000e+00
144,-1.500000000000e-01,4.496400000000e+01,2.000000000000e+00
*ELEMENT,TYPE=B31,ELSET=ALL
1,1,5
2,2,6
3,3,7
4,4,8
5,5,25
6,25,26
7,26,27
8,27,9
9,6,28
10,28,29
11,29,30
12,30,10
13,7,31
14,31,32
15,32,33
16,33,11
17,8,34
18,34,35
19,35,36
20,36,12
21,9,37
22,37,13
23,10,38
24,38,14
25,11,39
26,39,15
27,12,40
28,40,16
29,13,41
30,41,42
31,42,43
32,43,17
33,14,44
34,44,45
35,45,46
36,46,18
37,15,47
38,47,48
39,48,49
40,49,19
41,16,50
42,50,51
43,51,52
44,52,20
45,17,21
46,18,22
47,19,23
48,20,24
49,1,53
50,53,2
51,3,54
52,54,4
53,1,55
54,55,3
55,2,56
56,56,4
57,5,6
58,7,8
59,5,7
60,6,8
61,9,57
62,57,58
63,58,59
64,59,10
65,11,60
66,60,61
67,61,62
68,62,12
69,9,63
70,63,64
71,64,65
72,65,11
73,10,66
74,66,67
75,67,68
76,68,12
77,13,14
78,15,16
79,13,15
80,14,16
81,17,18
82,19,20
83,17,19
84,18,20
85,21,69
86,69,22
87,23,70
88,70,24
89,21,71
90,71,23
91,22,72
92,72,24
93,1,7
94,3,5
95,2,8
96,4,6
97,1,6
98,2,5
99,3,8
100,4,7
101,5,73
102,73,74
103,74,75
104,75,76
105,76,77
106,77,78
107,78,79
108,79,11
109,7,80
110,80,81
111,81,82
112,82,83
113,83,84
114,84,85
115,85,86
116,86,9
117,6,87
118,87,88
119,88,89
120,89,90
121,90,91
122,91,92
123,92,93
124,93,12
125,8,94
126,94,95
127,95,96
128,96,97
129,97,98
130,98,99
131,99,100
132,100,10
133,5,101
134,101,102
135,102,103
136,103,104
137,104,105
138,105,106
139,106,107
140,107,10
141,6,108
142,108,109
143,109,110
144,110,111
145,111,112
146,112,113
147,113,114
148,114,9
149,7,115
150,115,116
151,116,117
152,117,118
153,118,119
154,119,120
155,120,121
156,121,12
157,8,122
158,122,123
159,123,124
160,124,125
161,125,126
162,126,127
163,127,128
164,128,11
165,9,15
166,11,13
167,10,16
168,12,14
169,9,14
170,10,13
171,11,16
172,12,15
173,13,129
174,129,19
175,15,130
176,130,17
177,14,131
178,131,20
179,16,132
180,132,18
181,13,133
182,133,18
183,14,134
184,134,17
185,15,135
186,135,20
187,16,136
188,136,19
189,17,137
190,137,23
191,19,138
192,138,21
193,18,139
194,139,24
195,20,140
196,140,22
197,17,141
198,141,22
199,18,142
200,142,21
201,19,143
202,143,24
203,20,144
204,144,23
*NSET,NSET=NALL,GENERATE
1,144,1
*NSET,NSET=LEFT
1,2,3,4
*NSET,NSET=RIGHT
21,22,23,24
*MATERIAL,NAME=STEEL
*ELASTIC
2.100000000000e+11,0.300000000000
*BEAM SECTION,ELSET=ALL,MATERIAL=STEEL,SECTION=RECT
6.000000000000e-02,4.000000000000e-02
0.371390676354,0.557086014531,0.742781352708
*BOUNDARY
LEFT,1,6,0.0
*STEP
*STATIC
*BOUNDARY
21,1,1,5.000000000000e-03
21,2,2,0.0
21,3,3,-6.000000000000e-03
*BOUNDARY
22,1,1,5.000000000000e-03
22,2,2,0.0
22,3,3,6.000000000000e-03
*BOUNDARY
23,1,1,-5.000000000000e-03
23,2,2,0.0
23,3,3,-6.000000000000e-03
*BOUNDARY
24,1,1,-5.000000000000e-03
24,2,2,0.0
24,3,3,6.000000000000e-03
*NODE FILE,NSET=NALL
U
*NODE PRINT,NSET=NALL
U
*NODE PRINT,NSET=RIGHT
RF
*EL PRINT,ELSET=ALL,TOTALS=YES
ELSE
*END STEP
