*HEADING
Normalized cross-passage space-truss torsion benchmark
*NODE
1,-1.200000000000e+00,0.000000000000e+00,0.000000000000e+00
2,1.200000000000e+00,0.000000000000e+00,0.000000000000e+00
3,-1.200000000000e+00,0.000000000000e+00,2.000000000000e+00
4,1.200000000000e+00,0.000000000000e+00,2.000000000000e+00
5,-1.200000000000e+00,1.000000000000e+01,0.000000000000e+00
6,1.200000000000e+00,1.000000000000e+01,0.000000000000e+00
7,-1.200000000000e+00,1.000000000000e+01,2.000000000000e+00
8,1.200000000000e+00,1.000000000000e+01,2.000000000000e+00
9,-1.200000000000e+00,2.000000000000e+01,0.000000000000e+00
10,1.200000000000e+00,2.000000000000e+01,0.000000000000e+00
11,-1.200000000000e+00,2.000000000000e+01,2.000000000000e+00
12,1.200000000000e+00,2.000000000000e+01,2.000000000000e+00
13,-1.200000000000e+00,3.000000000000e+01,0.000000000000e+00
14,1.200000000000e+00,3.000000000000e+01,0.000000000000e+00
15,-1.200000000000e+00,3.000000000000e+01,2.000000000000e+00
16,1.200000000000e+00,3.000000000000e+01,2.000000000000e+00
17,-1.200000000000e+00,4.000000000000e+01,0.000000000000e+00
18,1.200000000000e+00,4.000000000000e+01,0.000000000000e+00
19,-1.200000000000e+00,4.000000000000e+01,2.000000000000e+00
20,1.200000000000e+00,4.000000000000e+01,2.000000000000e+00
21,-1.200000000000e+00,5.000000000000e+01,0.000000000000e+00
22,1.200000000000e+00,5.000000000000e+01,0.000000000000e+00
23,-1.200000000000e+00,5.000000000000e+01,2.000000000000e+00
24,1.200000000000e+00,5.000000000000e+01,2.000000000000e+00
25,-1.200000000000e+00,1.250000000000e+00,-5.740251485476e-02
26,-1.200000000000e+00,2.500000000000e+00,-1.060660171780e-01
27,-1.200000000000e+00,3.750000000000e+00,-1.385819298767e-01
28,-1.200000000000e+00,5.000000000000e+00,-1.500000000000e-01
29,-1.200000000000e+00,6.250000000000e+00,-1.385819298767e-01
30,-1.200000000000e+00,7.500000000000e+00,-1.060660171780e-01
31,-1.200000000000e+00,8.750000000000e+00,-5.740251485476e-02
32,1.200000000000e+00,1.250000000000e+00,5.740251485476e-02
33,1.200000000000e+00,2.500000000000e+00,1.060660171780e-01
34,1.200000000000e+00,3.750000000000e+00,1.385819298767e-01
35,1.200000000000e+00,5.000000000000e+00,1.500000000000e-01
36,1.200000000000e+00,6.250000000000e+00,1.385819298767e-01
37,1.200000000000e+00,7.500000000000e+00,1.060660171780e-01
38,1.200000000000e+00,8.750000000000e+00,5.740251485476e-02
39,-1.200000000000e+00,1.250000000000e+00,1.942597485145e+00
40,-1.200000000000e+00,2.500000000000e+00,1.893933982822e+00
41,-1.200000000000e+00,3.750000000000e+00,1.861418070123e+00
42,-1.200000000000e+00,5.000000000000e+00,1.850000000000e+00
43,-1.200000000000e+00,6.250000000000e+00,1.861418070123e+00
44,-1.200000000000e+00,7.500000000000e+00,1.893933982822e+00
45,-1.200000000000e+00,8.750000000000e+00,1.942597485145e+00
46,1.200000000000e+00,1.250000000000e+00,2.057402514855e+00
47,1.200000000000e+00,2.500000000000e+00,2.106066017178e+00
48,1.200000000000e+00,3.750000000000e+00,2.138581929877e+00
49,1.200000000000e+00,5.000000000000e+00,2.150000000000e+00
50,1.200000000000e+00,6.250000000000e+00,2.138581929877e+00
51,1.200000000000e+00,7.500000000000e+00,2.106066017178e+00
52,1.200000000000e+00,8.750000000000e+00,2.057402514855e+00
53,-1.200000000000e+00,1.250000000000e+01,-1.060660171780e-01
54,-1.200000000000e+00,1.500000000000e+01,-1.500000000000e-01
55,-1.200000000000e+00,1.750000000000e+01,-1.060660171780e-01
56,1.200000000000e+00,1.250000000000e+01,1.060660171780e-01
57,1.200000000000e+00,1.500000000000e+01,1.500000000000e-01
58,1.200000000000e+00,1.750000000000e+01,1.060660171780e-01
59,-1.200000000000e+00,1.250000000000e+01,1.893933982822e+00
60,-1.200000000000e+00,1.500000000000e+01,1.850000000000e+00
61,-1.200000000000e+00,1.750000000000e+01,1.893933982822e+00
62,1.200000000000e+00,1.250000000000e+01,2.106066017178e+00
63,1.200000000000e+00,1.500000000000e+01,2.150000000000e+00
64,1.200000000000e+00,1.750000000000e+01,2.106066017178e+00
65,-1.200000000000e+00,3.250000000000e+01,-1.060660171780e-01
66,-1.200000000000e+00,3.500000000000e+01,-1.500000000000e-01
67,-1.200000000000e+00,3.750000000000e+01,-1.060660171780e-01
68,1.200000000000e+00,3.250000000000e+01,1.060660171780e-01
69,1.200000000000e+00,3.500000000000e+01,1.500000000000e-01
70,1.200000000000e+00,3.750000000000e+01,1.060660171780e-01
71,-1.200000000000e+00,3.250000000000e+01,1.893933982822e+00
72,-1.200000000000e+00,3.500000000000e+01,1.850000000000e+00
73,-1.200000000000e+00,3.750000000000e+01,1.893933982822e+00
74,1.200000000000e+00,3.250000000000e+01,2.106066017178e+00
75,1.200000000000e+00,3.500000000000e+01,2.150000000000e+00
76,1.200000000000e+00,3.750000000000e+01,2.106066017178e+00
77,-1.200000000000e+00,4.250000000000e+01,-1.060660171780e-01
78,-1.200000000000e+00,4.500000000000e+01,-1.500000000000e-01
79,-1.200000000000e+00,4.750000000000e+01,-1.060660171780e-01
80,1.200000000000e+00,4.250000000000e+01,1.060660171780e-01
81,1.200000000000e+00,4.500000000000e+01,1.500000000000e-01
82,1.200000000000e+00,4.750000000000e+01,1.060660171780e-01
83,-1.200000000000e+00,4.250000000000e+01,1.893933982822e+00
84,-1.200000000000e+00,4.500000000000e+01,1.850000000000e+00
85,-1.200000000000e+00,4.750000000000e+01,1.893933982822e+00
86,1.200000000000e+00,4.250000000000e+01,2.106066017178e+00
87,1.200000000000e+00,4.500000000000e+01,2.150000000000e+00
88,1.200000000000e+00,4.750000000000e+01,2.106066017178e+00
89,-6.000000000000e-01,-2.545584412272e-02,0.000000000000e+00
90,0.000000000000e+00,-3.600000000000e-02,0.000000000000e+00
91,6.000000000000e-01,-2.545584412272e-02,0.000000000000e+00
92,-6.000000000000e-01,2.545584412272e-02,2.000000000000e+00
93,0.000000000000e+00,3.600000000000e-02,2.000000000000e+00
94,6.000000000000e-01,2.545584412272e-02,2.000000000000e+00
95,-1.200000000000e+00,2.121320343560e-02,5.000000000000e-01
96,-1.200000000000e+00,3.000000000000e-02,1.000000000000e+00
97,-1.200000000000e+00,2.121320343560e-02,1.500000000000e+00
98,1.200000000000e+00,-2.121320343560e-02,5.000000000000e-01
99,1.200000000000e+00,-3.000000000000e-02,1.000000000000e+00
100,1.200000000000e+00,-2.121320343560e-02,1.500000000000e+00
101,-6.000000000000e-01,9.974544155877e+00,0.000000000000e+00
102,0.000000000000e+00,9.964000000000e+00,0.000000000000e+00
103,6.000000000000e-01,9.974544155877e+00,0.000000000000e+00
104,-6.000000000000e-01,1.002545584412e+01,2.000000000000e+00
105,0.000000000000e+00,1.003600000000e+01,2.000000000000e+00
106,6.000000000000e-01,1.002545584412e+01,2.000000000000e+00
107,-1.200000000000e+00,1.002121320344e+01,5.000000000000e-01
108,-1.200000000000e+00,1.003000000000e+01,1.000000000000e+00
109,-1.200000000000e+00,1.002121320344e+01,1.500000000000e+00
110,1.200000000000e+00,9.978786796564e+00,5.000000000000e-01
111,1.200000000000e+00,9.970000000000e+00,1.000000000000e+00
112,1.200000000000e+00,9.978786796564e+00,1.500000000000e+00
113,0.000000000000e+00,1.996400000000e+01,0.000000000000e+00
114,0.000000000000e+00,2.003600000000e+01,2.000000000000e+00
115,-1.200000000000e+00,2.003000000000e+01,1.000000000000e+00
116,1.200000000000e+00,1.997000000000e+01,1.000000000000e+00
117,-9.000000000000e-01,2.998622339643e+01,0.000000000000e+00
118,-6.000000000000e-01,2.997454415588e+01,0.000000000000e+00
119,-3.000000000000e-01,2.996674033683e+01,0.000000000000e+00
120,0.000000000000e+00,2.996400000000e+01,0.000000000000e+00
121,3.000000000000e-01,2.996674033683e+01,0.000000000000e+00
122,6.000000000000e-01,2.997454415588e+01,0.000000000000e+00
123,9.000000000000e-01,2.998622339643e+01,0.000000000000e+00
124,-9.000000000000e-01,3.001377660357e+01,2.000000000000e+00
125,-6.000000000000e-01,3.002545584412e+01,2.000000000000e+00
126,-3.000000000000e-01,3.003325966317e+01,2.000000000000e+00
127,0.000000000000e+00,3.003600000000e+01,2.000000000000e+00
128,3.000000000000e-01,3.003325966317e+01,2.000000000000e+00
129,6.000000000000e-01,3.002545584412e+01,2.000000000000e+00
130,9.000000000000e-01,3.001377660357e+01,2.000000000000e+00
131,-1.200000000000e+00,3.001148050297e+01,2.500000000000e-01
132,-1.200000000000e+00,3.002121320344e+01,5.000000000000e-01
133,-1.200000000000e+00,3.002771638598e+01,7.500000000000e-01
134,-1.200000000000e+00,3.003000000000e+01,1.000000000000e+00
135,-1.200000000000e+00,3.002771638598e+01,1.250000000000e+00
136,-1.200000000000e+00,3.002121320344e+01,1.500000000000e+00
137,-1.200000000000e+00,3.001148050297e+01,1.750000000000e+00
138,1.200000000000e+00,2.998851949703e+01,2.500000000000e-01
139,1.200000000000e+00,2.997878679656e+01,5.000000000000e-01
140,1.200000000000e+00,2.997228361402e+01,7.500000000000e-01
141,1.200000000000e+00,2.997000000000e+01,1.000000000000e+00
142,1.200000000000e+00,2.997228361402e+01,1.250000000000e+00
143,1.200000000000e+00,2.997878679656e+01,1.500000000000e+00
144,1.200000000000e+00,2.998851949703e+01,1.750000000000e+00
145,0.000000000000e+00,3.996400000000e+01,0.000000000000e+00
146,0.000000000000e+00,4.003600000000e+01,2.000000000000e+00
147,-1.200000000000e+00,4.003000000000e+01,1.000000000000e+00
148,1.200000000000e+00,3.997000000000e+01,1.000000000000e+00
149,-6.000000000000e-01,4.997454415588e+01,0.000000000000e+00
150,0.000000000000e+00,4.996400000000e+01,0.000000000000e+00
151,6.000000000000e-01,4.997454415588e+01,0.000000000000e+00
152,-6.000000000000e-01,5.002545584412e+01,2.000000000000e+00
153,0.000000000000e+00,5.003600000000e+01,2.000000000000e+00
154,6.000000000000e-01,5.002545584412e+01,2.000000000000e+00
155,-1.200000000000e+00,5.002121320344e+01,5.000000000000e-01
156,-1.200000000000e+00,5.003000000000e+01,1.000000000000e+00
157,-1.200000000000e+00,5.002121320344e+01,1.500000000000e+00
158,1.200000000000e+00,4.997878679656e+01,5.000000000000e-01
159,1.200000000000e+00,4.997000000000e+01,1.000000000000e+00
160,1.200000000000e+00,4.997878679656e+01,1.500000000000e+00
161,-1.200000000000e+00,1.261480502971e+00,1.925974851452e-01
162,-1.200000000000e+00,2.521213203436e+00,3.939339828220e-01
163,-1.200000000000e+00,3.777716385975e+00,6.114180701233e-01
164,-1.200000000000e+00,5.030000000000e+00,8.500000000000e-01
165,-1.200000000000e+00,6.277716385975e+00,1.111418070123e+00
166,-1.200000000000e+00,7.521213203436e+00,1.393933982822e+00
167,-1.200000000000e+00,8.761480502971e+00,1.692597485145e+00
168,-1.200000000000e+00,1.261480502971e+00,1.807402514855e+00
169,-1.200000000000e+00,2.521213203436e+00,1.606066017178e+00
170,-1.200000000000e+00,3.777716385975e+00,1.388581929877e+00
171,-1.200000000000e+00,5.030000000000e+00,1.150000000000e+00
172,-1.200000000000e+00,6.277716385975e+00,8.885819298767e-01
173,-1.200000000000e+00,7.521213203436e+00,6.060660171780e-01
174,-1.200000000000e+00,8.761480502971e+00,3.074025148548e-01
175,1.200000000000e+00,1.261480502971e+00,1.925974851452e-01
176,1.200000000000e+00,2.521213203436e+00,3.939339828220e-01
177,1.200000000000e+00,3.777716385975e+00,6.114180701233e-01
178,1.200000000000e+00,5.030000000000e+00,8.500000000000e-01
179,1.200000000000e+00,6.277716385975e+00,1.111418070123e+00
180,1.200000000000e+00,7.521213203436e+00,1.393933982822e+00
181,1.200000000000e+00,8.761480502971e+00,1.692597485145e+00
182,1.200000000000e+00,1.261480502971e+00,1.807402514855e+00
183,1.200000000000e+00,2.521213203436e+00,1.606066017178e+00
184,1.200000000000e+00,3.777716385975e+00,1.388581929877e+00
185,1.200000000000e+00,5.030000000000e+00,1.150000000000e+00
186,1.200000000000e+00,6.277716385975e+00,8.885819298767e-01
187,1.200000000000e+00,7.521213203436e+00,6.060660171780e-01
188,1.200000000000e+00,8.761480502971e+00,3.074025148548e-01
189,-8.425974851452e-01,1.236223396435e+00,0.000000000000e+00
190,-4.939339828220e-01,2.474544155877e+00,0.000000000000e+00
191,-1.614180701233e-01,3.716740336830e+00,0.000000000000e+00
192,1.500000000000e-01,4.964000000000e+00,0.000000000000e+00
193,4.385819298767e-01,6.216740336830e+00,0.000000000000e+00
194,7.060660171780e-01,7.474544155877e+00,0.000000000000e+00
195,9.574025148548e-01,8.736223396435e+00,0.000000000000e+00
196,8.425974851452e-01,1.236223396435e+00,0.000000000000e+00
197,4.939339828220e-01,2.474544155877e+00,0.000000000000e+00
198,1.614180701233e-01,3.716740336830e+00,0.000000000000e+00
199,-1.500000000000e-01,4.964000000000e+00,0.000000000000e+00
200,-4.385819298767e-01,6.216740336830e+00,0.000000000000e+00
201,-7.060660171780e-01,7.474544155877e+00,0.000000000000e+00
202,-9.574025148548e-01,8.736223396435e+00,0.000000000000e+00
203,-8.425974851452e-01,1.236223396435e+00,2.000000000000e+00
204,-4.939339828220e-01,2.474544155877e+00,2.000000000000e+00
205,-1.614180701233e-01,3.716740336830e+00,2.000000000000e+00
206,1.500000000000e-01,4.964000000000e+00,2.000000000000e+00
207,4.385819298767e-01,6.216740336830e+00,2.000000000000e+00
208,7.060660171780e-01,7.474544155877e+00,2.000000000000e+00
209,9.574025148548e-01,8.736223396435e+00,2.000000000000e+00
210,8.425974851452e-01,1.236223396435e+00,2.000000000000e+00
211,4.939339828220e-01,2.474544155877e+00,2.000000000000e+00
212,1.614180701233e-01,3.716740336830e+00,2.000000000000e+00
213,-1.500000000000e-01,4.964000000000e+00,2.000000000000e+00
214,-4.385819298767e-01,6.216740336830e+00,2.000000000000e+00
215,-7.060660171780e-01,7.474544155877e+00,2.000000000000e+00
216,-9.574025148548e-01,8.736223396435e+00,2.000000000000e+00
217,-1.200000000000e+00,1.503000000000e+01,8.500000000000e-01
218,-1.200000000000e+00,1.503000000000e+01,1.150000000000e+00
219,1.200000000000e+00,1.503000000000e+01,8.500000000000e-01
220,1.200000000000e+00,1.503000000000e+01,1.150000000000e+00
221,1.500000000000e-01,1.496400000000e+01,0.000000000000e+00
222,-1.500000000000e-01,1.496400000000e+01,0.000000000000e+00
223,1.500000000000e-01,1.496400000000e+01,2.000000000000e+00
224,-1.500000000000e-01,1.496400000000e+01,2.000000000000e+00
225,-1.200000000000e+00,2.503000000000e+01,8.500000000000e-01
226,-1.200000000000e+00,2.503000000000e+01,1.150000000000e+00
227,1.200000000000e+00,2.503000000000e+01,8.500000000000e-01
228,1.200000000000e+00,2.503000000000e+01,1.150000000000e+00
229,1.500000000000e-01,2.496400000000e+01,0.000000000000e+00
230,-1.500000000000e-01,2.496400000000e+01,0.000000000000e+00
231,1.500000000000e-01,2.496400000000e+01,2.000000000000e+00
232,-1.500000000000e-01,2.496400000000e+01,2.000000000000e+00
233,-1.200000000000e+00,3.252121320344e+01,3.939339828220e-01
234,-1.200000000000e+00,3.503000000000e+01,8.500000000000e-01
235,-1.200000000000e+00,3.752121320344e+01,1.393933982822e+00
236,-1.200000000000e+00,3.252121320344e+01,1.606066017178e+00
237,-1.200000000000e+00,3.503000000000e+01,1.150000000000e+00
238,-1.200000000000e+00,3.752121320344e+01,6.060660171780e-01
239,1.200000000000e+00,3.252121320344e+01,3.939339828220e-01
240,1.200000000000e+00,3.503000000000e+01,8.500000000000e-01
241,1.200000000000e+00,3.752121320344e+01,1.393933982822e+00
242,1.200000000000e+00,3.252121320344e+01,1.606066017178e+00
243,1.200000000000e+00,3.503000000000e+01,1.150000000000e+00
244,1.200000000000e+00,3.752121320344e+01,6.060660171780e-01
245,-4.939339828220e-01,3.247454415588e+01,0.000000000000e+00
246,1.500000000000e-01,3.496400000000e+01,0.000000000000e+00
247,7.060660171780e-01,3.747454415588e+01,0.000000000000e+00
248,4.939339828220e-01,3.247454415588e+01,0.000000000000e+00
249,-1.500000000000e-01,3.496400000000e+01,0.000000000000e+00
250,-7.060660171780e-01,3.747454415588e+01,0.000000000000e+00
251,-4.939339828220e-01,3.247454415588e+01,2.000000000000e+00
252,1.500000000000e-01,3.496400000000e+01,2.000000000000e+00
253,7.060660171780e-01,3.747454415588e+01,2.000000000000e+00
254,4.939339828220e-01,3.247454415588e+01,2.000000000000e+00
255,-1.500000000000e-01,3.496400000000e+01,2.000000000000e+00
256,-7.060660171780e-01,3.747454415588e+01,2.000000000000e+00
*ELEMENT,TYPE=B31,ELSET=ALL
1,1,25
2,25,26
3,26,27
4,27,28
5,28,29
6,29,30
7,30,31
8,31,5
9,2,32
10,32,33
11,33,34
12,34,35
13,35,36
14,36,37
15,37,38
16,38,6
17,3,39
18,39,40
19,40,41
20,41,42
21,42,43
22,43,44
23,44,45
24,45,7
25,4,46
26,46,47
27,47,48
28,48,49
29,49,50
30,50,51
31,51,52
32,52,8
33,5,53
34,53,54
35,54,55
36,55,9
37,6,56
38,56,57
39,57,58
40,58,10
41,7,59
42,59,60
43,60,61
44,61,11
45,8,62
46,62,63
47,63,64
48,64,12
49,9,13
50,10,14
51,11,15
52,12,16
53,13,65
54,65,66
55,66,67
56,67,17
57,14,68
58,68,69
59,69,70
60,70,18
61,15,71
62,71,72
63,72,73
64,73,19
65,16,74
66,74,75
67,75,76
68,76,20
69,17,77
70,77,78
71,78,79
72,79,21
73,18,80
74,80,81
75,81,82
76,82,22
77,19,83
78,83,84
79,84,85
80,85,23
81,20,86
82,86,87
83,87,88
84,88,24
85,1,89
86,89,90
87,90,91
88,91,2
89,3,92
90,92,93
91,93,94
92,94,4
93,1,95
94,95,96
95,96,97
96,97,3
97,2,98
98,98,99
99,99,100
100,100,4
101,5,101
102,101,102
103,102,103
104,103,6
105,7,104
106,104,105
107,105,106
108,106,8
109,5,107
110,107,108
111,108,109
112,109,7
113,6,110
114,110,111
115,111,112
116,112,8
117,9,113
118,113,10
119,11,114
120,114,12
121,9,115
122,115,11
123,10,116
124,116,12
125,13,117
126,117,118
127,118,119
128,119,120
129,120,121
130,121,122
131,122,123
132,123,14
133,15,124
134,124,125
135,125,126
136,126,127
137,127,128
138,128,129
139,129,130
140,130,16
141,13,131
142,131,132
143,132,133
144,133,134
145,134,135
146,135,136
147,136,137
148,137,15
149,14,138
150,138,139
151,139,140
152,140,141
153,141,142
154,142,143
155,143,144
156,144,16
157,17,145
158,145,18
159,19,146
160,146,20
161,17,147
162,147,19
163,18,148
164,148,20
165,21,149
166,149,150
167,150,151
168,151,22
169,23,152
170,152,153
171,153,154
172,154,24
173,21,155
174,155,156
175,156,157
176,157,23
177,22,158
178,158,159
179,159,160
180,160,24
181,1,161
182,161,162
183,162,163
184,163,164
185,164,165
186,165,166
187,166,167
188,167,7
189,3,168
190,168,169
191,169,170
192,170,171
193,171,172
194,172,173
195,173,174
196,174,5
197,2,175
198,175,176
199,176,177
200,177,178
201,178,179
202,179,180
203,180,181
204,181,8
205,4,182
206,182,183
207,183,184
208,184,185
209,185,186
210,186,187
211,187,188
212,188,6
213,1,189
214,189,190
215,190,191
216,191,192
217,192,193
218,193,194
219,194,195
220,195,6
221,2,196
222,196,197
223,197,198
224,198,199
225,199,200
226,200,201
227,201,202
228,202,5
229,3,203
230,203,204
231,204,205
232,205,206
233,206,207
234,207,208
235,208,209
236,209,8
237,4,210
238,210,211
239,211,212
240,212,213
241,213,214
242,214,215
243,215,216
244,216,7
245,5,217
246,217,11
247,7,218
248,218,9
249,6,219
250,219,12
251,8,220
252,220,10
253,5,221
254,221,10
255,6,222
256,222,9
257,7,223
258,223,12
259,8,224
260,224,11
261,9,225
262,225,15
263,11,226
264,226,13
265,10,227
266,227,16
267,12,228
268,228,14
269,9,229
270,229,14
271,10,230
272,230,13
273,11,231
274,231,16
275,12,232
276,232,15
277,13,233
278,233,234
279,234,235
280,235,19
281,15,236
282,236,237
283,237,238
284,238,17
285,14,239
286,239,240
287,240,241
288,241,20
289,16,242
290,242,243
291,243,244
292,244,18
293,13,245
294,245,246
295,246,247
296,247,18
297,14,248
298,248,249
299,249,250
300,250,17
301,15,251
302,251,252
303,252,253
304,253,20
305,16,254
306,254,255
307,255,256
308,256,19
309,17,23
310,19,21
311,18,24
312,20,22
313,17,22
314,18,21
315,19,24
316,20,23
*NSET,NSET=NALL,GENERATE
1,256,1
*NSET,NSET=LEFT
1,2,3,4
*NSET,NSET=RIGHT
21,22,23,24
*MATERIAL,NAME=STEEL
*ELASTIC
2.100000000000e+11,0.300000000000
*BEAM SECTION,ELSET=ALL,MATERIAL=STEEL,SECTION=RECT
6.000000000000e-02,4.000000000000e-02
0.371390676354,0.557086014531,0.742781352708
*BOUNDARY
LEFT,1,6,0.0
*STEP
*STATIC
*BOUNDARY
21,1,1,5.000000000000e-03
21,2,2,0.0
21,3,3,-6.000000000000e-03
*BOUNDARY
22,1,1,5.000000000000e-03
22,2,2,0.0
22,3,3,6.000000000000e-03
*BOUNDARY
23,1,1,-5.000000000000e-03
23,2,2,0.0
23,3,3,-6.000000000000e-03
*BOUNDARY
24,1,1,-5.000000000000e-03
24,2,2,0.0
24,3,3,6.000000000000e-03
*NODE FILE,NSET=NALL
U
*NODE PRINT,NSET=NALL
U
*NODE PRINT,NSET=RIGHT
RF
*EL PRINT,ELSET=ALL,TOTALS=YES
ELSE
*END STEP
