*HEADING
Normalized cross-passage space-truss torsion benchmark
*NODE
1,-1.200000000000e+00,0.000000000000e+00,0.000000000000e+00
2,1.200000000000e+00,0.000000000000e+00,0.000000000000e+00
3,-1.200000000000e+00,0.000000000000e+00,2.000000000000e+00
4,1.200000000000e+00,0.000000000000e+00,2.000000000000e+00
5,-1.200000000000e+00,1.000000000000e+01,0.000000000000e+00
6,1.200000000000e+00,1.000000000000e+01,0.000000000000e+00
7,-1.200000000000e+00,1.000000000000e+01,2.000000000000e+00
8,1.200000000000e+00,1.000000000000e+01,2.000000000000e+00
9,-1.200000000000e+00,2.000000000000e+01,0.000000000000e+00
10,1.200000000000e+00,2.000000000000e+01,0.000000000000e+00
11,-1.200000000000e+00,2.000000000000e+01,2.000000000000e+00
12,1.200000000000e+00,2.000000000000e+01,2.000000000000e+00
13,-1.200000000000e+00,3.000000000000e+01,0.000000000000e+00
14,1.200000000000e+00,3.000000000000e+01,0.000000000000e+00
15,-1.200000000000e+00,3.000000000000e+01,2.000000000000e+00
16,1.200000000000e+00,3.000000000000e+01,2.000000000000e+00
17,-1.200000000000e+00,4.000000000000e+01,0.000000000000e+00
18,1.200000000000e+00,4.000000000000e+01,0.000000000000e+00
19,-1.200000000000e+00,4.000000000000e+01,2.000000000000e+00
20,1.200000000000e+00,4.000000000000e+01,2.000000000000e+00
21,-1.200000000000e+00,5.000000000000e+01,0.000000000000e+00
22,1.200000000000e+00,5.000000000000e+01,0.000000000000e+00
23,-1.200000000000e+00,5.000000000000e+01,2.000000000000e+00
24,1.200000000000e+00,5.000000000000e+01,2.000000000000e+00
25,-1.200000000000e+00,5.000000000000e+00,-1.500000000000e-01
26,1.200000000000e+00,5.000000000000e+00,1.500000000000e-01
27,-1.200000000000e+00,5.000000000000e+00,1.850000000000e+00
28,1.200000000000e+00,5.000000000000e+00,2.150000000000e+00
29,-1.200000000000e+00,1.500000000000e+01,-1.500000000000e-01
30,1.200000000000e+00,1.500000000000e+01,1.500000000000e-01
31,-1.200000000000e+00,1.500000000000e+01,1.850000000000e+00
32,1.200000000000e+00,1.500000000000e+01,2.150000000000e+00
33,-1.200000000000e+00,2.500000000000e+01,-1.500000000000e-01
34,1.200000000000e+00,2.500000000000e+01,1.500000000000e-01
35,-1.200000000000e+00,2.500000000000e+01,1.850000000000e+00
36,1.200000000000e+00,2.500000000000e+01,2.150000000000e+00
37,-1.200000000000e+00,3.500000000000e+01,-1.500000000000e-01
38,1.200000000000e+00,3.500000000000e+01,1.500000000000e-01
39,-1.200000000000e+00,3.500000000000e+01,1.850000000000e+00
40,1.200000000000e+00,3.500000000000e+01,2.150000000000e+00
41,-1.200000000000e+00,4.500000000000e+01,-1.500000000000e-01
42,1.200000000000e+00,4.500000000000e+01,1.500000000000e-01
43,-1.200000000000e+00,4.500000000000e+01,1.850000000000e+00
44,1.200000000000e+00,4.500000000000e+01,2.150000000000e+00
45,0.000000000000e+00,-3.600000000000e-02,0.000000000000e+00
46,0.000000000000e+00,3.600000000000e-02,2.000000000000e+00
47,-1.200000000000e+00,3.000000000000e-02,1.000000000000e+00
48,1.200000000000e+00,-3.000000000000e-02,1.000000000000e+00
49,0.000000000000e+00,9.964000000000e+00,0.000000000000e+00
50,0.000000000000e+00,1.003600000000e+01,2.000000000000e+00
51,-1.200000000000e+00,1.003000000000e+01,1.000000000000e+00
52,1.200000000000e+00,9.970000000000e+00,1.000000000000e+00
53,0.000000000000e+00,1.996400000000e+01,0.000000000000e+00
54,0.000000000000e+00,2.003600000000e+01,2.000000000000e+00
55,-1.200000000000e+00,2.003000000000e+01,1.000000000000e+00
56,1.200000000000e+00,1.997000000000e+01,1.000000000000e+00
57,0.000000000000e+00,2.996400000000e+01,0.000000000000e+00
58,0.000000000000e+00,3.003600000000e+01,2.000000000000e+00
59,-1.200000000000e+00,3.003000000000e+01,1.000000000000e+00
60,1.200000000000e+00,2.997000000000e+01,1.000000000000e+00
61,0.000000000000e+00,3.996400000000e+01,0.000000000000e+00
62,0.000000000000e+00,4.003600000000e+01,2.000000000000e+00
63,-1.200000000000e+00,4.003000000000e+01,1.000000000000e+00
64,1.200000000000e+00,3.997000000000e+01,1.000000000000e+00
65,0.000000000000e+00,4.996400000000e+01,0.000000000000e+00
66,0.000000000000e+00,5.003600000000e+01,2.000000000000e+00
67,-1.200000000000e+00,5.003000000000e+01,1.000000000000e+00
68,1.200000000000e+00,4.997000000000e+01,1.000000000000e+00
69,-1.200000000000e+00,5.030000000000e+00,8.500000000000e-01
70,-1.200000000000e+00,5.030000000000e+00,1.150000000000e+00
71,1.200000000000e+00,5.030000000000e+00,8.500000000000e-01
72,1.200000000000e+00,5.030000000000e+00,1.150000000000e+00
73,1.500000000000e-01,4.964000000000e+00,0.000000000000e+00
74,-1.500000000000e-01,4.964000000000e+00,0.000000000000e+00
75,1.500000000000e-01,4.964000000000e+00,2.000000000000e+00
76,-1.500000000000e-01,4.964000000000e+00,2.000000000000e+00
77,-1.200000000000e+00,1.252121320344e+01,3.939339828220e-01
78,-1.200000000000e+00,1.503000000000e+01,8.500000000000e-01
79,-1.200000000000e+00,1.752121320344e+01,1.393933982822e+00
80,-1.200000000000e+00,1.252121320344e+01,1.606066017178e+00
81,-1.200000000000e+00,1.503000000000e+01,1.150000000000e+00
82,-1.200000000000e+00,1.752121320344e+01,6.060660171780e-01
83,1.200000000000e+00,1.252121320344e+01,3.939339828220e-01
84,1.200000000000e+00,1.503000000000e+01,8.500000000000e-01
85,1.200000000000e+00,1.752121320344e+01,1.393933982822e+00
86,1.200000000000e+00,1.252121320344e+01,1.606066017178e+00
87,1.200000000000e+00,1.503000000000e+01,1.150000000000e+00
88,1.200000000000e+00,1.752121320344e+01,6.060660171780e-01
89,-4.939339828220e-01,1.247454415588e+01,0.000000000000e+00
90,1.500000000000e-01,1.496400000000e+01,0.000000000000e+00
91,7.060660171780e-01,1.747454415588e+01,0.000000000000e+00
92,4.939339828220e-01,1.247454415588e+01,0.000000000000e+00
93,-1.500000000000e-01,1.496400000000e+01,0.000000000000e+00
94,-7.060660171780e-01,1.747454415588e+01,0.000000000000e+00
95,-4.939339828220e-01,1.247454415588e+01,2.000000000000e+00
96,1.500000000000e-01,1.496400000000e+01,2.000000000000e+00
97,7.060660171780e-01,1.747454415588e+01,2.000000000000e+00
98,4.939339828220e-01,1.247454415588e+01,2.000000000000e+00
99,-1.500000000000e-01,1.496400000000e+01,2.000000000000e+00
100,-7.060660171780e-01,1.747454415588e+01,2.000000000000e+00
101,-1.200000000000e+00,2.503000000000e+01,8.500000000000e-01
102,-1.200000000000e+00,2.503000000000e+01,1.150000000000e+00
103,1.200000000000e+00,2.503000000000e+01,8.500000000000e-01
104,1.200000000000e+00,2.503000000000e+01,1.150000000000e+00
105,1.500000000000e-01,2.496400000000e+01,0.000000000000e+00
106,-1.500000000000e-01,2.496400000000e+01,0.000000000000e+00
107,1.500000000000e-01,2.496400000000e+01,2.000000000000e+00
108,-1.500000000000e-01,2.496400000000e+01,2.000000000000e+00
109,-1.200000000000e+00,3.503000000000e+01,8.500000000000e-01
110,-1.200000000000e+00,3.503000000000e+01,1.150000000000e+00
111,1.200000000000e+00,3.503000000000e+01,8.500000000000e-01
112,1.200000000000e+00,3.503000000000e+01,1.150000000000e+00
113,1.500000000000e-01,3.496400000000e+01,0.000000000000e+00
114,-1.500000000000e-01,3.496400000000e+01,0.000000000000e+00
115,1.500000000000e-01,3.496400000000e+01,2.000000000000e+00
116,-1.500000000000e-01,3.496400000000e+01,2.000000000000e+00
117,-1.200000000000e+00,4.503000000000e+01,8.500000000000e-01
118,-1.200000000000e+00,4.503000000000e+01,1.150000000000e+00
119,1.200000000000e+00,4.503000000000e+01,8.500000000000e-01
120,1.200000000000e+00,4.503000000000e+01,1.150000000000e+00
121,1.500000000000e-01,4.496400000000e+01,0.000000000000e+00
122,-1.500000000000e-01,4.496400000000e+01,0.000000000000e+00
123,1.500000000000e-01,4.496400000000e+01,2.000000000000e+00
124,-1.500000000000e-01,4.496400000000e+01,2.000000000000e+00
*ELEMENT,TYPE=B31,ELSET=ALL
1,1,25
2,25,5
3,2,26
4,26,6
5,3,27
6,27,7
7,4,28
8,28,8
9,5,29
10,29,9
11,6,30
12,30,10
13,7,31
14,31,11
15,8,32
16,32,12
17,9,33
18,33,13
19,10,34
20,34,14
21,11,35
22,35,15
23,12,36
24,36,16
25,13,37
26,37,17
27,14,38
28,38,18
29,15,39
30,39,19
31,16,40
32,40,20
33,17,41
34,41,21
35,18,42
36,42,22
37,19,43
38,43,23
39,20,44
40,44,24
41,1,45
42,45,2
43,3,46
44,46,4
45,1,47
46,47,3
47,2,48
48,48,4
49,5,49
50,49,6
51,7,50
52,50,8
53,5,51
54,51,7
55,6,52
56,52,8
57,9,53
58,53,10
59,11,54
60,54,12
61,9,55
62,55,11
63,10,56
64,56,12
65,13,57
66,57,14
67,15,58
68,58,16
69,13,59
70,59,15
71,14,60
72,60,16
73,17,61
74,61,18
75,19,62
76,62,20
77,17,63
78,63,19
79,18,64
80,64,20
81,21,65
82,65,22
83,23,66
84,66,24
85,21,67
86,67,23
87,22,68
88,68,24
89,1,69
90,69,7
91,3,70
92,70,5
93,2,71
94,71,8
95,4,72
96,72,6
97,1,73
98,73,6
99,2,74
100,74,5
101,3,75
102,75,8
103,4,76
104,76,7
105,5,77
106,77,78
107,78,79
108,79,11
109,7,80
110,80,81
111,81,82
112,82,9
113,6,83
114,83,84
115,84,85
116,85,12
117,8,86
118,86,87
119,87,88
120,88,10
121,5,89
122,89,90
123,90,91
124,91,10
125,6,92
126,92,93
127,93,94
128,94,9
129,7,95
130,95,96
131,96,97
132,97,12
133,8,98
134,98,99
135,99,100
136,100,11
137,9,101
138,101,15
139,11,102
140,102,13
141,10,103
142,103,16
143,12,104
144,104,14
145,9,105
146,105,14
147,10,106
148,106,13
149,11,107
150,107,16
151,12,108
152,108,15
153,13,109
154,109,19
155,15,110
156,110,17
157,14,111
158,111,20
159,16,112
160,112,18
161,13,113
162,113,18
163,14,114
164,114,17
165,15,115
166,115,20
167,16,116
168,116,19
169,17,117
170,117,23
171,19,118
172,118,21
173,18,119
174,119,24
175,20,120
176,120,22
177,17,121
178,121,22
179,18,122
180,122,21
181,19,123
182,123,24
183,20,124
184,124,23
*NSET,NSET=NALL,GENERATE
1,124,1
*NSET,NSET=LEFT
1,2,3,4
*NSET,NSET=RIGHT
21,22,23,24
*MATERIAL,NAME=STEEL
*ELASTIC
2.100000000000e+11,0.300000000000
*BEAM SECTION,ELSET=ALL,MATERIAL=STEEL,SECTION=RECT
6.000000000000e-02,4.000000000000e-02
0.371390676354,0.557086014531,0.742781352708
*BOUNDARY
LEFT,1,6,0.0
*STEP
*STATIC
*BOUNDARY
21,1,1,5.000000000000e-03
21,2,2,0.0
21,3,3,-6.000000000000e-03
*BOUNDARY
22,1,1,5.000000000000e-03
22,2,2,0.0
22,3,3,6.000000000000e-03
*BOUNDARY
23,1,1,-5.000000000000e-03
23,2,2,0.0
23,3,3,-6.000000000000e-03
*BOUNDARY
24,1,1,-5.000000000000e-03
24,2,2,0.0
24,3,3,6.000000000000e-03
*NODE FILE,NSET=NALL
U
*NODE PRINT,NSET=NALL
U
*NODE PRINT,NSET=RIGHT
RF
*EL PRINT,ELSET=ALL,TOTALS=YES
ELSE
*END STEP
