*HEADING
Normalized cross-passage space-truss torsion benchmark
*NODE
1,-1.200000000000e+00,0.000000000000e+00,0.000000000000e+00
2,1.200000000000e+00,0.000000000000e+00,0.000000000000e+00
3,-1.200000000000e+00,0.000000000000e+00,2.000000000000e+00
4,1.200000000000e+00,0.000000000000e+00,2.000000000000e+00
5,-1.200000000000e+00,1.000000000000e+01,0.000000000000e+00
6,1.200000000000e+00,1.000000000000e+01,0.000000000000e+00
7,-1.200000000000e+00,1.000000000000e+01,2.000000000000e+00
8,1.200000000000e+00,1.000000000000e+01,2.000000000000e+00
9,-1.200000000000e+00,2.000000000000e+01,0.000000000000e+00
10,1.200000000000e+00,2.000000000000e+01,0.000000000000e+00
11,-1.200000000000e+00,2.000000000000e+01,2.000000000000e+00
12,1.200000000000e+00,2.000000000000e+01,2.000000000000e+00
13,-1.200000000000e+00,3.000000000000e+01,0.000000000000e+00
14,1.200000000000e+00,3.000000000000e+01,0.000000000000e+00
15,-1.200000000000e+00,3.000000000000e+01,2.000000000000e+00
16,1.200000000000e+00,3.000000000000e+01,2.000000000000e+00
17,-1.200000000000e+00,4.000000000000e+01,0.000000000000e+00
18,1.200000000000e+00,4.000000000000e+01,0.000000000000e+00
19,-1.200000000000e+00,4.000000000000e+01,2.000000000000e+00
20,1.200000000000e+00,4.000000000000e+01,2.000000000000e+00
21,-1.200000000000e+00,5.000000000000e+01,0.000000000000e+00
22,1.200000000000e+00,5.000000000000e+01,0.000000000000e+00
23,-1.200000000000e+00,5.000000000000e+01,2.000000000000e+00
24,1.200000000000e+00,5.000000000000e+01,2.000000000000e+00
25,-1.200000000000e+00,1.125000000000e+01,-5.740251485476e-02
26,-1.200000000000e+00,1.250000000000e+01,-1.060660171780e-01
27,-1.200000000000e+00,1.375000000000e+01,-1.385819298767e-01
28,-1.200000000000e+00,1.500000000000e+01,-1.500000000000e-01
29,-1.200000000000e+00,1.625000000000e+01,-1.385819298767e-01
30,-1.200000000000e+00,1.750000000000e+01,-1.060660171780e-01
31,-1.200000000000e+00,1.875000000000e+01,-5.740251485476e-02
32,1.200000000000e+00,1.125000000000e+01,5.740251485476e-02
33,1.200000000000e+00,1.250000000000e+01,1.060660171780e-01
34,1.200000000000e+00,1.375000000000e+01,1.385819298767e-01
35,1.200000000000e+00,1.500000000000e+01,1.500000000000e-01
36,1.200000000000e+00,1.625000000000e+01,1.385819298767e-01
37,1.200000000000e+00,1.750000000000e+01,1.060660171780e-01
38,1.200000000000e+00,1.875000000000e+01,5.740251485476e-02
39,-1.200000000000e+00,1.125000000000e+01,1.942597485145e+00
40,-1.200000000000e+00,1.250000000000e+01,1.893933982822e+00
41,-1.200000000000e+00,1.375000000000e+01,1.861418070123e+00
42,-1.200000000000e+00,1.500000000000e+01,1.850000000000e+00
43,-1.200000000000e+00,1.625000000000e+01,1.861418070123e+00
44,-1.200000000000e+00,1.750000000000e+01,1.893933982822e+00
45,-1.200000000000e+00,1.875000000000e+01,1.942597485145e+00
46,1.200000000000e+00,1.125000000000e+01,2.057402514855e+00
47,1.200000000000e+00,1.250000000000e+01,2.106066017178e+00
48,1.200000000000e+00,1.375000000000e+01,2.138581929877e+00
49,1.200000000000e+00,1.500000000000e+01,2.150000000000e+00
50,1.200000000000e+00,1.625000000000e+01,2.138581929877e+00
51,1.200000000000e+00,1.750000000000e+01,2.106066017178e+00
52,1.200000000000e+00,1.875000000000e+01,2.057402514855e+00
53,-1.200000000000e+00,2.125000000000e+01,-5.740251485476e-02
54,-1.200000000000e+00,2.250000000000e+01,-1.060660171780e-01
55,-1.200000000000e+00,2.375000000000e+01,-1.385819298767e-01
56,-1.200000000000e+00,2.500000000000e+01,-1.500000000000e-01
57,-1.200000000000e+00,2.625000000000e+01,-1.385819298767e-01
58,-1.200000000000e+00,2.750000000000e+01,-1.060660171780e-01
59,-1.200000000000e+00,2.875000000000e+01,-5.740251485476e-02
60,1.200000000000e+00,2.125000000000e+01,5.740251485476e-02
61,1.200000000000e+00,2.250000000000e+01,1.060660171780e-01
62,1.200000000000e+00,2.375000000000e+01,1.385819298767e-01
63,1.200000000000e+00,2.500000000000e+01,1.500000000000e-01
64,1.200000000000e+00,2.625000000000e+01,1.385819298767e-01
65,1.200000000000e+00,2.750000000000e+01,1.060660171780e-01
66,1.200000000000e+00,2.875000000000e+01,5.740251485476e-02
67,-1.200000000000e+00,2.125000000000e+01,1.942597485145e+00
68,-1.200000000000e+00,2.250000000000e+01,1.893933982822e+00
69,-1.200000000000e+00,2.375000000000e+01,1.861418070123e+00
70,-1.200000000000e+00,2.500000000000e+01,1.850000000000e+00
71,-1.200000000000e+00,2.625000000000e+01,1.861418070123e+00
72,-1.200000000000e+00,2.750000000000e+01,1.893933982822e+00
73,-1.200000000000e+00,2.875000000000e+01,1.942597485145e+00
74,1.200000000000e+00,2.125000000000e+01,2.057402514855e+00
75,1.200000000000e+00,2.250000000000e+01,2.106066017178e+00
76,1.200000000000e+00,2.375000000000e+01,2.138581929877e+00
77,1.200000000000e+00,2.500000000000e+01,2.150000000000e+00
78,1.200000000000e+00,2.625000000000e+01,2.138581929877e+00
79,1.200000000000e+00,2.750000000000e+01,2.106066017178e+00
80,1.200000000000e+00,2.875000000000e+01,2.057402514855e+00
81,-1.200000000000e+00,3.250000000000e+01,-1.060660171780e-01
82,-1.200000000000e+00,3.500000000000e+01,-1.500000000000e-01
83,-1.200000000000e+00,3.750000000000e+01,-1.060660171780e-01
84,1.200000000000e+00,3.250000000000e+01,1.060660171780e-01
85,1.200000000000e+00,3.500000000000e+01,1.500000000000e-01
86,1.200000000000e+00,3.750000000000e+01,1.060660171780e-01
87,-1.200000000000e+00,3.250000000000e+01,1.893933982822e+00
88,-1.200000000000e+00,3.500000000000e+01,1.850000000000e+00
89,-1.200000000000e+00,3.750000000000e+01,1.893933982822e+00
90,1.200000000000e+00,3.250000000000e+01,2.106066017178e+00
91,1.200000000000e+00,3.500000000000e+01,2.150000000000e+00
92,1.200000000000e+00,3.750000000000e+01,2.106066017178e+00
93,0.000000000000e+00,-3.600000000000e-02,0.000000000000e+00
94,0.000000000000e+00,3.600000000000e-02,2.000000000000e+00
95,-1.200000000000e+00,3.000000000000e-02,1.000000000000e+00
96,1.200000000000e+00,-3.000000000000e-02,1.000000000000e+00
97,-6.000000000000e-01,1.997454415588e+01,0.000000000000e+00
98,0.000000000000e+00,1.996400000000e+01,0.000000000000e+00
99,6.000000000000e-01,1.997454415588e+01,0.000000000000e+00
100,-6.000000000000e-01,2.002545584412e+01,2.000000000000e+00
101,0.000000000000e+00,2.003600000000e+01,2.000000000000e+00
102,6.000000000000e-01,2.002545584412e+01,2.000000000000e+00
103,-1.200000000000e+00,2.002121320344e+01,5.000000000000e-01
104,-1.200000000000e+00,2.003000000000e+01,1.000000000000e+00
105,-1.200000000000e+00,2.002121320344e+01,1.500000000000e+00
106,1.200000000000e+00,1.997878679656e+01,5.000000000000e-01
107,1.200000000000e+00,1.997000000000e+01,1.000000000000e+00
108,1.200000000000e+00,1.997878679656e+01,1.500000000000e+00
109,0.000000000000e+00,4.996400000000e+01,0.000000000000e+00
110,0.000000000000e+00,5.003600000000e+01,2.000000000000e+00
111,-1.200000000000e+00,5.003000000000e+01,1.000000000000e+00
112,1.200000000000e+00,4.997000000000e+01,1.000000000000e+00
113,-1.200000000000e+00,1.126148050297e+01,1.925974851452e-01
114,-1.200000000000e+00,1.252121320344e+01,3.939339828220e-01
115,-1.200000000000e+00,1.377771638598e+01,6.114180701233e-01
116,-1.200000000000e+00,1.503000000000e+01,8.500000000000e-01
117,-1.200000000000e+00,1.627771638598e+01,1.111418070123e+00
118,-1.200000000000e+00,1.752121320344e+01,1.393933982822e+00
119,-1.200000000000e+00,1.876148050297e+01,1.692597485145e+00
120,-1.200000000000e+00,1.126148050297e+01,1.807402514855e+00
121,-1.200000000000e+00,1.252121320344e+01,1.606066017178e+00
122,-1.200000000000e+00,1.377771638598e+01,1.388581929877e+00
123,-1.200000000000e+00,1.503000000000e+01,1.150000000000e+00
124,-1.200000000000e+00,1.627771638598e+01,8.885819298767e-01
125,-1.200000000000e+00,1.752121320344e+01,6.060660171780e-01
126,-1.200000000000e+00,1.876148050297e+01,3.074025148548e-01
127,1.200000000000e+00,1.126148050297e+01,1.925974851452e-01
128,1.200000000000e+00,1.252121320344e+01,3.939339828220e-01
129,1.200000000000e+00,1.377771638598e+01,6.114180701233e-01
130,1.200000000000e+00,1.503000000000e+01,8.500000000000e-01
131,1.200000000000e+00,1.627771638598e+01,1.111418070123e+00
132,1.200000000000e+00,1.752121320344e+01,1.393933982822e+00
133,1.200000000000e+00,1.876148050297e+01,1.692597485145e+00
134,1.200000000000e+00,1.126148050297e+01,1.807402514855e+00
135,1.200000000000e+00,1.252121320344e+01,1.606066017178e+00
136,1.200000000000e+00,1.377771638598e+01,1.388581929877e+00
137,1.200000000000e+00,1.503000000000e+01,1.150000000000e+00
138,1.200000000000e+00,1.627771638598e+01,8.885819298767e-01
139,1.200000000000e+00,1.752121320344e+01,6.060660171780e-01
140,1.200000000000e+00,1.876148050297e+01,3.074025148548e-01
141,-8.425974851452e-01,1.123622339643e+01,0.000000000000e+00
142,-4.939339828220e-01,1.247454415588e+01,0.000000000000e+00
143,-1.614180701233e-01,1.371674033683e+01,0.000000000000e+00
144,1.500000000000e-01,1.496400000000e+01,0.000000000000e+00
145,4.385819298767e-01,1.621674033683e+01,0.000000000000e+00
146,7.060660171780e-01,1.747454415588e+01,0.000000000000e+00
147,9.574025148548e-01,1.873622339643e+01,0.000000000000e+00
148,8.425974851452e-01,1.123622339643e+01,0.000000000000e+00
149,4.939339828220e-01,1.247454415588e+01,0.000000000000e+00
150,1.614180701233e-01,1.371674033683e+01,0.000000000000e+00
151,-1.500000000000e-01,1.496400000000e+01,0.000000000000e+00
152,-4.385819298767e-01,1.621674033683e+01,0.000000000000e+00
153,-7.060660171780e-01,1.747454415588e+01,0.000000000000e+00
154,-9.574025148548e-01,1.873622339643e+01,0.000000000000e+00
155,-8.425974851452e-01,1.123622339643e+01,2.000000000000e+00
156,-4.939339828220e-01,1.247454415588e+01,2.000000000000e+00
157,-1.614180701233e-01,1.371674033683e+01,2.000000000000e+00
158,1.500000000000e-01,1.496400000000e+01,2.000000000000e+00
159,4.385819298767e-01,1.621674033683e+01,2.000000000000e+00
160,7.060660171780e-01,1.747454415588e+01,2.000000000000e+00
161,9.574025148548e-01,1.873622339643e+01,2.000000000000e+00
162,8.425974851452e-01,1.123622339643e+01,2.000000000000e+00
163,4.939339828220e-01,1.247454415588e+01,2.000000000000e+00
164,1.614180701233e-01,1.371674033683e+01,2.000000000000e+00
165,-1.500000000000e-01,1.496400000000e+01,2.000000000000e+00
166,-4.385819298767e-01,1.621674033683e+01,2.000000000000e+00
167,-7.060660171780e-01,1.747454415588e+01,2.000000000000e+00
168,-9.574025148548e-01,1.873622339643e+01,2.000000000000e+00
169,-1.200000000000e+00,3.503000000000e+01,8.500000000000e-01
170,-1.200000000000e+00,3.503000000000e+01,1.150000000000e+00
171,1.200000000000e+00,3.503000000000e+01,8.500000000000e-01
172,1.200000000000e+00,3.503000000000e+01,1.150000000000e+00
173,1.500000000000e-01,3.496400000000e+01,0.000000000000e+00
174,-1.500000000000e-01,3.496400000000e+01,0.000000000000e+00
175,1.500000000000e-01,3.496400000000e+01,2.000000000000e+00
176,-1.500000000000e-01,3.496400000000e+01,2.000000000000e+00
177,-1.200000000000e+00,4.503000000000e+01,8.500000000000e-01
178,-1.200000000000e+00,4.503000000000e+01,1.150000000000e+00
179,1.200000000000e+00,4.503000000000e+01,8.500000000000e-01
180,1.200000000000e+00,4.503000000000e+01,1.150000000000e+00
181,1.500000000000e-01,4.496400000000e+01,0.000000000000e+00
182,-1.500000000000e-01,4.496400000000e+01,0.000000000000e+00
183,1.500000000000e-01,4.496400000000e+01,2.000000000000e+00
184,-1.500000000000e-01,4.496400000000e+01,2.000000000000e+00
*ELEMENT,TYPE=B31,ELSET=ALL
1,1,5
2,2,6
3,3,7
4,4,8
5,5,25
6,25,26
7,26,27
8,27,28
9,28,29
10,29,30
11,30,31
12,31,9
13,6,32
14,32,33
15,33,34
16,34,35
17,35,36
18,36,37
19,37,38
20,38,10
21,7,39
22,39,40
23,40,41
24,41,42
25,42,43
26,43,44
27,44,45
28,45,11
29,8,46
30,46,47
31,47,48
32,48,49
33,49,50
34,50,51
35,51,52
36,52,12
37,9,53
38,53,54
39,54,55
40,55,56
41,56,57
42,57,58
43,58,59
44,59,13
45,10,60
46,60,61
47,61,62
48,62,63
49,63,64
50,64,65
51,65,66
52,66,14
53,11,67
54,67,68
55,68,69
56,69,70
57,70,71
58,71,72
59,72,73
60,73,15
61,12,74
62,74,75
63,75,76
64,76,77
65,77,78
66,78,79
67,79,80
68,80,16
69,13,81
70,81,82
71,82,83
72,83,17
73,14,84
74,84,85
75,85,86
76,86,18
77,15,87
78,87,88
79,88,89
80,89,19
81,16,90
82,90,91
83,91,92
84,92,20
85,17,21
86,18,22
87,19,23
88,20,24
89,1,93
90,93,2
91,3,94
92,94,4
93,1,95
94,95,3
95,2,96
96,96,4
97,5,6
98,7,8
99,5,7
100,6,8
101,9,97
102,97,98
103,98,99
104,99,10
105,11,100
106,100,101
107,101,102
108,102,12
109,9,103
110,103,104
111,104,105
112,105,11
113,10,106
114,106,107
115,107,108
116,108,12
117,13,14
118,15,16
119,13,15
120,14,16
121,17,18
122,19,20
123,17,19
124,18,20
125,21,109
126,109,22
127,23,110
128,110,24
129,21,111
130,111,23
131,22,112
132,112,24
133,1,7
134,3,5
135,2,8
136,4,6
137,1,6
138,2,5
139,3,8
140,4,7
141,5,113
142,113,114
143,114,115
144,115,116
145,116,117
146,117,118
147,118,119
148,119,11
149,7,120
150,120,121
151,121,122
152,122,123
153,123,124
154,124,125
155,125,126
156,126,9
157,6,127
158,127,128
159,128,129
160,129,130
161,130,131
162,131,132
163,132,133
164,133,12
165,8,134
166,134,135
167,135,136
168,136,137
169,137,138
170,138,139
171,139,140
172,140,10
173,5,141
174,141,142
175,142,143
176,143,144
177,144,145
178,145,146
179,146,147
180,147,10
181,6,148
182,148,149
183,149,150
184,150,151
185,151,152
186,152,153
187,153,154
188,154,9
189,7,155
190,155,156
191,156,157
192,157,158
193,158,159
194,159,160
195,160,161
196,161,12
197,8,162
198,162,163
199,163,164
200,164,165
201,165,166
202,166,167
203,167,168
204,168,11
205,9,15
206,11,13
207,10,16
208,12,14
209,9,14
210,10,13
211,11,16
212,12,15
213,13,169
214,169,19
215,15,170
216,170,17
217,14,171
218,171,20
219,16,172
220,172,18
221,13,173
222,173,18
223,14,174
224,174,17
225,15,175
226,175,20
227,16,176
228,176,19
229,17,177
230,177,23
231,19,178
232,178,21
233,18,179
234,179,24
235,20,180
236,180,22
237,17,181
238,181,22
239,18,182
240,182,21
241,19,183
242,183,24
243,20,184
244,184,23
*NSET,NSET=NALL,GENERATE
1,184,1
*NSET,NSET=LEFT
1,2,3,4
*NSET,NSET=RIGHT
21,22,23,24
*MATERIAL,NAME=STEEL
*ELASTIC
2.100000000000e+11,0.300000000000
*BEAM SECTION,ELSET=ALL,MATERIAL=STEEL,SECTION=RECT
6.000000000000e-02,4.000000000000e-02
0.371390676354,0.557086014531,0.742781352708
*BOUNDARY
LEFT,1,6,0.0
*STEP
*STATIC
*BOUNDARY
21,1,1,5.000000000000e-03
21,2,2,0.0
21,3,3,-6.000000000000e-03
*BOUNDARY
22,1,1,5.000000000000e-03
22,2,2,0.0
22,3,3,6.000000000000e-03
*BOUNDARY
23,1,1,-5.000000000000e-03
23,2,2,0.0
23,3,3,-6.000000000000e-03
*BOUNDARY
24,1,1,-5.000000000000e-03
24,2,2,0.0
24,3,3,6.000000000000e-03
*NODE FILE,NSET=NALL
U
*NODE PRINT,NSET=NALL
U
*NODE PRINT,NSET=RIGHT
RF
*EL PRINT,ELSET=ALL,TOTALS=YES
ELSE
*END STEP
