*HEADING
Normalized cross-passage space-truss torsion benchmark
*NODE
1,-1.200000000000e+00,0.000000000000e+00,0.000000000000e+00
2,1.200000000000e+00,0.000000000000e+00,0.000000000000e+00
3,-1.200000000000e+00,0.000000000000e+00,2.000000000000e+00
4,1.200000000000e+00,0.000000000000e+00,2.000000000000e+00
5,-1.200000000000e+00,1.000000000000e+01,0.000000000000e+00
6,1.200000000000e+00,1.000000000000e+01,0.000000000000e+00
7,-1.200000000000e+00,1.000000000000e+01,2.000000000000e+00
8,1.200000000000e+00,1.000000000000e+01,2.000000000000e+00
9,-1.200000000000e+00,2.000000000000e+01,0.000000000000e+00
10,1.200000000000e+00,2.000000000000e+01,0.000000000000e+00
11,-1.200000000000e+00,2.000000000000e+01,2.000000000000e+00
12,1.200000000000e+00,2.000000000000e+01,2.000000000000e+00
13,-1.200000000000e+00,3.000000000000e+01,0.000000000000e+00
14,1.200000000000e+00,3.000000000000e+01,0.000000000000e+00
15,-1.200000000000e+00,3.000000000000e+01,2.000000000000e+00
16,1.200000000000e+00,3.000000000000e+01,2.000000000000e+00
17,-1.200000000000e+00,4.000000000000e+01,0.000000000000e+00
18,1.200000000000e+00,4.000000000000e+01,0.000000000000e+00
19,-1.200000000000e+00,4.000000000000e+01,2.000000000000e+00
20,1.200000000000e+00,4.000000000000e+01,2.000000000000e+00
21,-1.200000000000e+00,5.000000000000e+01,0.000000000000e+00
22,1.200000000000e+00,5.000000000000e+01,0.000000000000e+00
23,-1.200000000000e+00,5.000000000000e+01,2.000000000000e+00
24,1.200000000000e+00,5.000000000000e+01,2.000000000000e+00
25,-1.200000000000e+00,1.250000000000e+00,-5.740251485476e-02
26,-1.200000000000e+00,2.500000000000e+00,-1.060660171780e-01
27,-1.200000000000e+00,3.750000000000e+00,-1.385819298767e-01
28,-1.200000000000e+00,5.000000000000e+00,-1.500000000000e-01
29,-1.200000000000e+00,6.250000000000e+00,-1.385819298767e-01
30,-1.200000000000e+00,7.500000000000e+00,-1.060660171780e-01
31,-1.200000000000e+00,8.750000000000e+00,-5.740251485476e-02
32,1.200000000000e+00,1.250000000000e+00,5.740251485476e-02
33,1.200000000000e+00,2.500000000000e+00,1.060660171780e-01
34,1.200000000000e+00,3.750000000000e+00,1.385819298767e-01
35,1.200000000000e+00,5.000000000000e+00,1.500000000000e-01
36,1.200000000000e+00,6.250000000000e+00,1.385819298767e-01
37,1.200000000000e+00,7.500000000000e+00,1.060660171780e-01
38,1.200000000000e+00,8.750000000000e+00,5.740251485476e-02
39,-1.200000000000e+00,1.250000000000e+00,1.942597485145e+00
40,-1.200000000000e+00,2.500000000000e+00,1.893933982822e+00
41,-1.200000000000e+00,3.750000000000e+00,1.861418070123e+00
42,-1.200000000000e+00,5.000000000000e+00,1.850000000000e+00
43,-1.200000000000e+00,6.250000000000e+00,1.861418070123e+00
44,-1.200000000000e+00,7.500000000000e+00,1.893933982822e+00
45,-1.200000000000e+00,8.750000000000e+00,1.942597485145e+00
46,1.200000000000e+00,1.250000000000e+00,2.057402514855e+00
47,1.200000000000e+00,2.500000000000e+00,2.106066017178e+00
48,1.200000000000e+00,3.750000000000e+00,2.138581929877e+00
49,1.200000000000e+00,5.000000000000e+00,2.150000000000e+00
50,1.200000000000e+00,6.250000000000e+00,2.138581929877e+00
51,1.200000000000e+00,7.500000000000e+00,2.106066017178e+00
52,1.200000000000e+00,8.750000000000e+00,2.057402514855e+00
53,-1.200000000000e+00,1.125000000000e+01,-5.740251485476e-02
54,-1.200000000000e+00,1.250000000000e+01,-1.060660171780e-01
55,-1.200000000000e+00,1.375000000000e+01,-1.385819298767e-01
56,-1.200000000000e+00,1.500000000000e+01,-1.500000000000e-01
57,-1.200000000000e+00,1.625000000000e+01,-1.385819298767e-01
58,-1.200000000000e+00,1.750000000000e+01,-1.060660171780e-01
59,-1.200000000000e+00,1.875000000000e+01,-5.740251485476e-02
60,1.200000000000e+00,1.125000000000e+01,5.740251485476e-02
61,1.200000000000e+00,1.250000000000e+01,1.060660171780e-01
62,1.200000000000e+00,1.375000000000e+01,1.385819298767e-01
63,1.200000000000e+00,1.500000000000e+01,1.500000000000e-01
64,1.200000000000e+00,1.625000000000e+01,1.385819298767e-01
65,1.200000000000e+00,1.750000000000e+01,1.060660171780e-01
66,1.200000000000e+00,1.875000000000e+01,5.740251485476e-02
67,-1.200000000000e+00,1.125000000000e+01,1.942597485145e+00
68,-1.200000000000e+00,1.250000000000e+01,1.893933982822e+00
69,-1.200000000000e+00,1.375000000000e+01,1.861418070123e+00
70,-1.200000000000e+00,1.500000000000e+01,1.850000000000e+00
71,-1.200000000000e+00,1.625000000000e+01,1.861418070123e+00
72,-1.200000000000e+00,1.750000000000e+01,1.893933982822e+00
73,-1.200000000000e+00,1.875000000000e+01,1.942597485145e+00
74,1.200000000000e+00,1.125000000000e+01,2.057402514855e+00
75,1.200000000000e+00,1.250000000000e+01,2.106066017178e+00
76,1.200000000000e+00,1.375000000000e+01,2.138581929877e+00
77,1.200000000000e+00,1.500000000000e+01,2.150000000000e+00
78,1.200000000000e+00,1.625000000000e+01,2.138581929877e+00
79,1.200000000000e+00,1.750000000000e+01,2.106066017178e+00
80,1.200000000000e+00,1.875000000000e+01,2.057402514855e+00
81,-6.000000000000e-01,-2.545584412272e-02,0.000000000000e+00
82,0.000000000000e+00,-3.600000000000e-02,0.000000000000e+00
83,6.000000000000e-01,-2.545584412272e-02,0.000000000000e+00
84,-6.000000000000e-01,2.545584412272e-02,2.000000000000e+00
85,0.000000000000e+00,3.600000000000e-02,2.000000000000e+00
86,6.000000000000e-01,2.545584412272e-02,2.000000000000e+00
87,-1.200000000000e+00,2.121320343560e-02,5.000000000000e-01
88,-1.200000000000e+00,3.000000000000e-02,1.000000000000e+00
89,-1.200000000000e+00,2.121320343560e-02,1.500000000000e+00
90,1.200000000000e+00,-2.121320343560e-02,5.000000000000e-01
91,1.200000000000e+00,-3.000000000000e-02,1.000000000000e+00
92,1.200000000000e+00,-2.121320343560e-02,1.500000000000e+00
93,-6.000000000000e-01,9.974544155877e+00,0.000000000000e+00
94,0.000000000000e+00,9.964000000000e+00,0.000000000000e+00
95,6.000000000000e-01,9.974544155877e+00,0.000000000000e+00
96,-6.000000000000e-01,1.002545584412e+01,2.000000000000e+00
97,0.000000000000e+00,1.003600000000e+01,2.000000000000e+00
98,6.000000000000e-01,1.002545584412e+01,2.000000000000e+00
99,-1.200000000000e+00,1.002121320344e+01,5.000000000000e-01
100,-1.200000000000e+00,1.003000000000e+01,1.000000000000e+00
101,-1.200000000000e+00,1.002121320344e+01,1.500000000000e+00
102,1.200000000000e+00,9.978786796564e+00,5.000000000000e-01
103,1.200000000000e+00,9.970000000000e+00,1.000000000000e+00
104,1.200000000000e+00,9.978786796564e+00,1.500000000000e+00
105,-9.000000000000e-01,2.998622339643e+01,0.000000000000e+00
106,-6.000000000000e-01,2.997454415588e+01,0.000000000000e+00
107,-3.000000000000e-01,2.996674033683e+01,0.000000000000e+00
108,0.000000000000e+00,2.996400000000e+01,0.000000000000e+00
109,3.000000000000e-01,2.996674033683e+01,0.000000000000e+00
110,6.000000000000e-01,2.997454415588e+01,0.000000000000e+00
111,9.000000000000e-01,2.998622339643e+01,0.000000000000e+00
112,-9.000000000000e-01,3.001377660357e+01,2.000000000000e+00
113,-6.000000000000e-01,3.002545584412e+01,2.000000000000e+00
114,-3.000000000000e-01,3.003325966317e+01,2.000000000000e+00
115,0.000000000000e+00,3.003600000000e+01,2.000000000000e+00
116,3.000000000000e-01,3.003325966317e+01,2.000000000000e+00
117,6.000000000000e-01,3.002545584412e+01,2.000000000000e+00
118,9.000000000000e-01,3.001377660357e+01,2.000000000000e+00
119,-1.200000000000e+00,3.001148050297e+01,2.500000000000e-01
120,-1.200000000000e+00,3.002121320344e+01,5.000000000000e-01
121,-1.200000000000e+00,3.002771638598e+01,7.500000000000e-01
122,-1.200000000000e+00,3.003000000000e+01,1.000000000000e+00
123,-1.200000000000e+00,3.002771638598e+01,1.250000000000e+00
124,-1.200000000000e+00,3.002121320344e+01,1.500000000000e+00
125,-1.200000000000e+00,3.001148050297e+01,1.750000000000e+00
126,1.200000000000e+00,2.998851949703e+01,2.500000000000e-01
127,1.200000000000e+00,2.997878679656e+01,5.000000000000e-01
128,1.200000000000e+00,2.997228361402e+01,7.500000000000e-01
129,1.200000000000e+00,2.997000000000e+01,1.000000000000e+00
130,1.200000000000e+00,2.997228361402e+01,1.250000000000e+00
131,1.200000000000e+00,2.997878679656e+01,1.500000000000e+00
132,1.200000000000e+00,2.998851949703e+01,1.750000000000e+00
133,-6.000000000000e-01,3.997454415588e+01,0.000000000000e+00
134,0.000000000000e+00,3.996400000000e+01,0.000000000000e+00
135,6.000000000000e-01,3.997454415588e+01,0.000000000000e+00
136,-6.000000000000e-01,4.002545584412e+01,2.000000000000e+00
137,0.000000000000e+00,4.003600000000e+01,2.000000000000e+00
138,6.000000000000e-01,4.002545584412e+01,2.000000000000e+00
139,-1.200000000000e+00,4.002121320344e+01,5.000000000000e-01
140,-1.200000000000e+00,4.003000000000e+01,1.000000000000e+00
141,-1.200000000000e+00,4.002121320344e+01,1.500000000000e+00
142,1.200000000000e+00,3.997878679656e+01,5.000000000000e-01
143,1.200000000000e+00,3.997000000000e+01,1.000000000000e+00
144,1.200000000000e+00,3.997878679656e+01,1.500000000000e+00
145,-6.000000000000e-01,4.997454415588e+01,0.000000000000e+00
146,0.000000000000e+00,4.996400000000e+01,0.000000000000e+00
147,6.000000000000e-01,4.997454415588e+01,0.000000000000e+00
148,-6.000000000000e-01,5.002545584412e+01,2.000000000000e+00
149,0.000000000000e+00,5.003600000000e+01,2.000000000000e+00
150,6.000000000000e-01,5.002545584412e+01,2.000000000000e+00
151,-1.200000000000e+00,5.002121320344e+01,5.000000000000e-01
152,-1.200000000000e+00,5.003000000000e+01,1.000000000000e+00
153,-1.200000000000e+00,5.002121320344e+01,1.500000000000e+00
154,1.200000000000e+00,4.997878679656e+01,5.000000000000e-01
155,1.200000000000e+00,4.997000000000e+01,1.000000000000e+00
156,1.200000000000e+00,4.997878679656e+01,1.500000000000e+00
157,-1.200000000000e+00,1.261480502971e+00,1.925974851452e-01
158,-1.200000000000e+00,2.521213203436e+00,3.939339828220e-01
159,-1.200000000000e+00,3.777716385975e+00,6.114180701233e-01
160,-1.200000000000e+00,5.030000000000e+00,8.500000000000e-01
161,-1.200000000000e+00,6.277716385975e+00,1.111418070123e+00
162,-1.200000000000e+00,7.521213203436e+00,1.393933982822e+00
163,-1.200000000000e+00,8.761480502971e+00,1.692597485145e+00
164,-1.200000000000e+00,1.261480502971e+00,1.807402514855e+00
165,-1.200000000000e+00,2.521213203436e+00,1.606066017178e+00
166,-1.200000000000e+00,3.777716385975e+00,1.388581929877e+00
167,-1.200000000000e+00,5.030000000000e+00,1.150000000000e+00
168,-1.200000000000e+00,6.277716385975e+00,8.885819298767e-01
169,-1.200000000000e+00,7.521213203436e+00,6.060660171780e-01
170,-1.200000000000e+00,8.761480502971e+00,3.074025148548e-01
171,1.200000000000e+00,1.261480502971e+00,1.925974851452e-01
172,1.200000000000e+00,2.521213203436e+00,3.939339828220e-01
173,1.200000000000e+00,3.777716385975e+00,6.114180701233e-01
174,1.200000000000e+00,5.030000000000e+00,8.500000000000e-01
175,1.200000000000e+00,6.277716385975e+00,1.111418070123e+00
176,1.200000000000e+00,7.521213203436e+00,1.393933982822e+00
177,1.200000000000e+00,8.761480502971e+00,1.692597485145e+00
178,1.200000000000e+00,1.261480502971e+00,1.807402514855e+00
179,1.200000000000e+00,2.521213203436e+00,1.606066017178e+00
180,1.200000000000e+00,3.777716385975e+00,1.388581929877e+00
181,1.200000000000e+00,5.030000000000e+00,1.150000000000e+00
182,1.200000000000e+00,6.277716385975e+00,8.885819298767e-01
183,1.200000000000e+00,7.521213203436e+00,6.060660171780e-01
184,1.200000000000e+00,8.761480502971e+00,3.074025148548e-01
185,-8.425974851452e-01,1.236223396435e+00,0.000000000000e+00
186,-4.939339828220e-01,2.474544155877e+00,0.000000000000e+00
187,-1.614180701233e-01,3.716740336830e+00,0.000000000000e+00
188,1.500000000000e-01,4.964000000000e+00,0.000000000000e+00
189,4.385819298767e-01,6.216740336830e+00,0.000000000000e+00
190,7.060660171780e-01,7.474544155877e+00,0.000000000000e+00
191,9.574025148548e-01,8.736223396435e+00,0.000000000000e+00
192,8.425974851452e-01,1.236223396435e+00,0.000000000000e+00
193,4.939339828220e-01,2.474544155877e+00,0.000000000000e+00
194,1.614180701233e-01,3.716740336830e+00,0.000000000000e+00
195,-1.500000000000e-01,4.964000000000e+00,0.000000000000e+00
196,-4.385819298767e-01,6.216740336830e+00,0.000000000000e+00
197,-7.060660171780e-01,7.474544155877e+00,0.000000000000e+00
198,-9.574025148548e-01,8.736223396435e+00,0.000000000000e+00
199,-8.425974851452e-01,1.236223396435e+00,2.000000000000e+00
200,-4.939339828220e-01,2.474544155877e+00,2.000000000000e+00
201,-1.614180701233e-01,3.716740336830e+00,2.000000000000e+00
202,1.500000000000e-01,4.964000000000e+00,2.000000000000e+00
203,4.385819298767e-01,6.216740336830e+00,2.000000000000e+00
204,7.060660171780e-01,7.474544155877e+00,2.000000000000e+00
205,9.574025148548e-01,8.736223396435e+00,2.000000000000e+00
206,8.425974851452e-01,1.236223396435e+00,2.000000000000e+00
207,4.939339828220e-01,2.474544155877e+00,2.000000000000e+00
208,1.614180701233e-01,3.716740336830e+00,2.000000000000e+00
209,-1.500000000000e-01,4.964000000000e+00,2.000000000000e+00
210,-4.385819298767e-01,6.216740336830e+00,2.000000000000e+00
211,-7.060660171780e-01,7.474544155877e+00,2.000000000000e+00
212,-9.574025148548e-01,8.736223396435e+00,2.000000000000e+00
213,-1.200000000000e+00,1.252121320344e+01,3.939339828220e-01
214,-1.200000000000e+00,1.503000000000e+01,8.500000000000e-01
215,-1.200000000000e+00,1.752121320344e+01,1.393933982822e+00
216,-1.200000000000e+00,1.252121320344e+01,1.606066017178e+00
217,-1.200000000000e+00,1.503000000000e+01,1.150000000000e+00
218,-1.200000000000e+00,1.752121320344e+01,6.060660171780e-01
219,1.200000000000e+00,1.252121320344e+01,3.939339828220e-01
220,1.200000000000e+00,1.503000000000e+01,8.500000000000e-01
221,1.200000000000e+00,1.752121320344e+01,1.393933982822e+00
222,1.200000000000e+00,1.252121320344e+01,1.606066017178e+00
223,1.200000000000e+00,1.503000000000e+01,1.150000000000e+00
224,1.200000000000e+00,1.752121320344e+01,6.060660171780e-01
225,-4.939339828220e-01,1.247454415588e+01,0.000000000000e+00
226,1.500000000000e-01,1.496400000000e+01,0.000000000000e+00
227,7.060660171780e-01,1.747454415588e+01,0.000000000000e+00
228,4.939339828220e-01,1.247454415588e+01,0.000000000000e+00
229,-1.500000000000e-01,1.496400000000e+01,0.000000000000e+00
230,-7.060660171780e-01,1.747454415588e+01,0.000000000000e+00
231,-4.939339828220e-01,1.247454415588e+01,2.000000000000e+00
232,1.500000000000e-01,1.496400000000e+01,2.000000000000e+00
233,7.060660171780e-01,1.747454415588e+01,2.000000000000e+00
234,4.939339828220e-01,1.247454415588e+01,2.000000000000e+00
235,-1.500000000000e-01,1.496400000000e+01,2.000000000000e+00
236,-7.060660171780e-01,1.747454415588e+01,2.000000000000e+00
237,-1.200000000000e+00,2.503000000000e+01,8.500000000000e-01
238,-1.200000000000e+00,2.503000000000e+01,1.150000000000e+00
239,1.200000000000e+00,2.503000000000e+01,8.500000000000e-01
240,1.200000000000e+00,2.503000000000e+01,1.150000000000e+00
241,1.500000000000e-01,2.496400000000e+01,0.000000000000e+00
242,-1.500000000000e-01,2.496400000000e+01,0.000000000000e+00
243,1.500000000000e-01,2.496400000000e+01,2.000000000000e+00
244,-1.500000000000e-01,2.496400000000e+01,2.000000000000e+00
245,-1.200000000000e+00,3.252121320344e+01,3.939339828220e-01
246,-1.200000000000e+00,3.503000000000e+01,8.500000000000e-01
247,-1.200000000000e+00,3.752121320344e+01,1.393933982822e+00
248,-1.200000000000e+00,3.252121320344e+01,1.606066017178e+00
249,-1.200000000000e+00,3.503000000000e+01,1.150000000000e+00
250,-1.200000000000e+00,3.752121320344e+01,6.060660171780e-01
251,1.200000000000e+00,3.252121320344e+01,3.939339828220e-01
252,1.200000000000e+00,3.503000000000e+01,8.500000000000e-01
253,1.200000000000e+00,3.752121320344e+01,1.393933982822e+00
254,1.200000000000e+00,3.252121320344e+01,1.606066017178e+00
255,1.200000000000e+00,3.503000000000e+01,1.150000000000e+00
256,1.200000000000e+00,3.752121320344e+01,6.060660171780e-01
257,-4.939339828220e-01,3.247454415588e+01,0.000000000000e+00
258,1.500000000000e-01,3.496400000000e+01,0.000000000000e+00
259,7.060660171780e-01,3.747454415588e+01,0.000000000000e+00
260,4.939339828220e-01,3.247454415588e+01,0.000000000000e+00
261,-1.500000000000e-01,3.496400000000e+01,0.000000000000e+00
262,-7.060660171780e-01,3.747454415588e+01,0.000000000000e+00
263,-4.939339828220e-01,3.247454415588e+01,2.000000000000e+00
264,1.500000000000e-01,3.496400000000e+01,2.000000000000e+00
265,7.060660171780e-01,3.747454415588e+01,2.000000000000e+00
266,4.939339828220e-01,3.247454415588e+01,2.000000000000e+00
267,-1.500000000000e-01,3.496400000000e+01,2.000000000000e+00
268,-7.060660171780e-01,3.747454415588e+01,2.000000000000e+00
*ELEMENT,TYPE=B31,ELSET=ALL
1,1,25
2,25,26
3,26,27
4,27,28
5,28,29
6,29,30
7,30,31
8,31,5
9,2,32
10,32,33
11,33,34
12,34,35
13,35,36
14,36,37
15,37,38
16,38,6
17,3,39
18,39,40
19,40,41
20,41,42
21,42,43
22,43,44
23,44,45
24,45,7
25,4,46
26,46,47
27,47,48
28,48,49
29,49,50
30,50,51
31,51,52
32,52,8
33,5,53
34,53,54
35,54,55
36,55,56
37,56,57
38,57,58
39,58,59
40,59,9
41,6,60
42,60,61
43,61,62
44,62,63
45,63,64
46,64,65
47,65,66
48,66,10
49,7,67
50,67,68
51,68,69
52,69,70
53,70,71
54,71,72
55,72,73
56,73,11
57,8,74
58,74,75
59,75,76
60,76,77
61,77,78
62,78,79
63,79,80
64,80,12
65,9,13
66,10,14
67,11,15
68,12,16
69,13,17
70,14,18
71,15,19
72,16,20
73,17,21
74,18,22
75,19,23
76,20,24
77,1,81
78,81,82
79,82,83
80,83,2
81,3,84
82,84,85
83,85,86
84,86,4
85,1,87
86,87,88
87,88,89
88,89,3
89,2,90
90,90,91
91,91,92
92,92,4
93,5,93
94,93,94
95,94,95
96,95,6
97,7,96
98,96,97
99,97,98
100,98,8
101,5,99
102,99,100
103,100,101
104,101,7
105,6,102
106,102,103
107,103,104
108,104,8
109,9,10
110,11,12
111,9,11
112,10,12
113,13,105
114,105,106
115,106,107
116,107,108
117,108,109
118,109,110
119,110,111
120,111,14
121,15,112
122,112,113
123,113,114
124,114,115
125,115,116
126,116,117
127,117,118
128,118,16
129,13,119
130,119,120
131,120,121
132,121,122
133,122,123
134,123,124
135,124,125
136,125,15
137,14,126
138,126,127
139,127,128
140,128,129
141,129,130
142,130,131
143,131,132
144,132,16
145,17,133
146,133,134
147,134,135
148,135,18
149,19,136
150,136,137
151,137,138
152,138,20
153,17,139
154,139,140
155,140,141
156,141,19
157,18,142
158,142,143
159,143,144
160,144,20
161,21,145
162,145,146
163,146,147
164,147,22
165,23,148
166,148,149
167,149,150
168,150,24
169,21,151
170,151,152
171,152,153
172,153,23
173,22,154
174,154,155
175,155,156
176,156,24
177,1,157
178,157,158
179,158,159
180,159,160
181,160,161
182,161,162
183,162,163
184,163,7
185,3,164
186,164,165
187,165,166
188,166,167
189,167,168
190,168,169
191,169,170
192,170,5
193,2,171
194,171,172
195,172,173
196,173,174
197,174,175
198,175,176
199,176,177
200,177,8
201,4,178
202,178,179
203,179,180
204,180,181
205,181,182
206,182,183
207,183,184
208,184,6
209,1,185
210,185,186
211,186,187
212,187,188
213,188,189
214,189,190
215,190,191
216,191,6
217,2,192
218,192,193
219,193,194
220,194,195
221,195,196
222,196,197
223,197,198
224,198,5
225,3,199
226,199,200
227,200,201
228,201,202
229,202,203
230,203,204
231,204,205
232,205,8
233,4,206
234,206,207
235,207,208
236,208,209
237,209,210
238,210,211
239,211,212
240,212,7
241,5,213
242,213,214
243,214,215
244,215,11
245,7,216
246,216,217
247,217,218
248,218,9
249,6,219
250,219,220
251,220,221
252,221,12
253,8,222
254,222,223
255,223,224
256,224,10
257,5,225
258,225,226
259,226,227
260,227,10
261,6,228
262,228,229
263,229,230
264,230,9
265,7,231
266,231,232
267,232,233
268,233,12
269,8,234
270,234,235
271,235,236
272,236,11
273,9,237
274,237,15
275,11,238
276,238,13
277,10,239
278,239,16
279,12,240
280,240,14
281,9,241
282,241,14
283,10,242
284,242,13
285,11,243
286,243,16
287,12,244
288,244,15
289,13,245
290,245,246
291,246,247
292,247,19
293,15,248
294,248,249
295,249,250
296,250,17
297,14,251
298,251,252
299,252,253
300,253,20
301,16,254
302,254,255
303,255,256
304,256,18
305,13,257
306,257,258
307,258,259
308,259,18
309,14,260
310,260,261
311,261,262
312,262,17
313,15,263
314,263,264
315,264,265
316,265,20
317,16,266
318,266,267
319,267,268
320,268,19
321,17,23
322,19,21
323,18,24
324,20,22
325,17,22
326,18,21
327,19,24
328,20,23
*NSET,NSET=NALL,GENERATE
1,268,1
*NSET,NSET=LEFT
1,2,3,4
*NSET,NSET=RIGHT
21,22,23,24
*MATERIAL,NAME=STEEL
*ELASTIC
2.100000000000e+11,0.300000000000
*BEAM SECTION,ELSET=ALL,MATERIAL=STEEL,SECTION=RECT
6.000000000000e-02,4.000000000000e-02
0.371390676354,0.557086014531,0.742781352708
*BOUNDARY
LEFT,1,6,0.0
*STEP
*STATIC
*BOUNDARY
21,1,1,5.000000000000e-03
21,2,2,0.0
21,3,3,-6.000000000000e-03
*BOUNDARY
22,1,1,5.000000000000e-03
22,2,2,0.0
22,3,3,6.000000000000e-03
*BOUNDARY
23,1,1,-5.000000000000e-03
23,2,2,0.0
23,3,3,-6.000000000000e-03
*BOUNDARY
24,1,1,-5.000000000000e-03
24,2,2,0.0
24,3,3,6.000000000000e-03
*NODE FILE,NSET=NALL
U
*NODE PRINT,NSET=NALL
U
*NODE PRINT,NSET=RIGHT
RF
*EL PRINT,ELSET=ALL,TOTALS=YES
ELSE
*END STEP
