*HEADING
Normalized cross-passage space-truss torsion benchmark
*NODE
1,-1.200000000000e+00,0.000000000000e+00,0.000000000000e+00
2,1.200000000000e+00,0.000000000000e+00,0.000000000000e+00
3,-1.200000000000e+00,0.000000000000e+00,2.000000000000e+00
4,1.200000000000e+00,0.000000000000e+00,2.000000000000e+00
5,-1.200000000000e+00,1.000000000000e+01,0.000000000000e+00
6,1.200000000000e+00,1.000000000000e+01,0.000000000000e+00
7,-1.200000000000e+00,1.000000000000e+01,2.000000000000e+00
8,1.200000000000e+00,1.000000000000e+01,2.000000000000e+00
9,-1.200000000000e+00,2.000000000000e+01,0.000000000000e+00
10,1.200000000000e+00,2.000000000000e+01,0.000000000000e+00
11,-1.200000000000e+00,2.000000000000e+01,2.000000000000e+00
12,1.200000000000e+00,2.000000000000e+01,2.000000000000e+00
13,-1.200000000000e+00,3.000000000000e+01,0.000000000000e+00
14,1.200000000000e+00,3.000000000000e+01,0.000000000000e+00
15,-1.200000000000e+00,3.000000000000e+01,2.000000000000e+00
16,1.200000000000e+00,3.000000000000e+01,2.000000000000e+00
17,-1.200000000000e+00,4.000000000000e+01,0.000000000000e+00
18,1.200000000000e+00,4.000000000000e+01,0.000000000000e+00
19,-1.200000000000e+00,4.000000000000e+01,2.000000000000e+00
20,1.200000000000e+00,4.000000000000e+01,2.000000000000e+00
21,-1.200000000000e+00,5.000000000000e+01,0.000000000000e+00
22,1.200000000000e+00,5.000000000000e+01,0.000000000000e+00
23,-1.200000000000e+00,5.000000000000e+01,2.000000000000e+00
24,1.200000000000e+00,5.000000000000e+01,2.000000000000e+00
25,-1.200000000000e+00,2.500000000000e+01,-1.500000000000e-01
26,1.200000000000e+00,2.500000000000e+01,1.500000000000e-01
27,-1.200000000000e+00,2.500000000000e+01,1.850000000000e+00
28,1.200000000000e+00,2.500000000000e+01,2.150000000000e+00
29,-1.200000000000e+00,3.250000000000e+01,-1.060660171780e-01
30,-1.200000000000e+00,3.500000000000e+01,-1.500000000000e-01
31,-1.200000000000e+00,3.750000000000e+01,-1.060660171780e-01
32,1.200000000000e+00,3.250000000000e+01,1.060660171780e-01
33,1.200000000000e+00,3.500000000000e+01,1.500000000000e-01
34,1.200000000000e+00,3.750000000000e+01,1.060660171780e-01
35,-1.200000000000e+00,3.250000000000e+01,1.893933982822e+00
36,-1.200000000000e+00,3.500000000000e+01,1.850000000000e+00
37,-1.200000000000e+00,3.750000000000e+01,1.893933982822e+00
38,1.200000000000e+00,3.250000000000e+01,2.106066017178e+00
39,1.200000000000e+00,3.500000000000e+01,2.150000000000e+00
40,1.200000000000e+00,3.750000000000e+01,2.106066017178e+00
41,-1.200000000000e+00,4.125000000000e+01,-5.740251485476e-02
42,-1.200000000000e+00,4.250000000000e+01,-1.060660171780e-01
43,-1.200000000000e+00,4.375000000000e+01,-1.385819298767e-01
44,-1.200000000000e+00,4.500000000000e+01,-1.500000000000e-01
45,-1.200000000000e+00,4.625000000000e+01,-1.385819298767e-01
46,-1.200000000000e+00,4.750000000000e+01,-1.060660171780e-01
47,-1.200000000000e+00,4.875000000000e+01,-5.740251485476e-02
48,1.200000000000e+00,4.125000000000e+01,5.740251485476e-02
49,1.200000000000e+00,4.250000000000e+01,1.060660171780e-01
50,1.200000000000e+00,4.375000000000e+01,1.385819298767e-01
51,1.200000000000e+00,4.500000000000e+01,1.500000000000e-01
52,1.200000000000e+00,4.625000000000e+01,1.385819298767e-01
53,1.200000000000e+00,4.750000000000e+01,1.060660171780e-01
54,1.200000000000e+00,4.875000000000e+01,5.740251485476e-02
55,-1.200000000000e+00,4.125000000000e+01,1.942597485145e+00
56,-1.200000000000e+00,4.250000000000e+01,1.893933982822e+00
57,-1.200000000000e+00,4.375000000000e+01,1.861418070123e+00
58,-1.200000000000e+00,4.500000000000e+01,1.850000000000e+00
59,-1.200000000000e+00,4.625000000000e+01,1.861418070123e+00
60,-1.200000000000e+00,4.750000000000e+01,1.893933982822e+00
61,-1.200000000000e+00,4.875000000000e+01,1.942597485145e+00
62,1.200000000000e+00,4.125000000000e+01,2.057402514855e+00
63,1.200000000000e+00,4.250000000000e+01,2.106066017178e+00
64,1.200000000000e+00,4.375000000000e+01,2.138581929877e+00
65,1.200000000000e+00,4.500000000000e+01,2.150000000000e+00
66,1.200000000000e+00,4.625000000000e+01,2.138581929877e+00
67,1.200000000000e+00,4.750000000000e+01,2.106066017178e+00
68,1.200000000000e+00,4.875000000000e+01,2.057402514855e+00
69,-6.000000000000e-01,-2.545584412272e-02,0.000000000000e+00
70,0.000000000000e+00,-3.600000000000e-02,0.000000000000e+00
71,6.000000000000e-01,-2.545584412272e-02,0.000000000000e+00
72,-6.000000000000e-01,2.545584412272e-02,2.000000000000e+00
73,0.000000000000e+00,3.600000000000e-02,2.000000000000e+00
74,6.000000000000e-01,2.545584412272e-02,2.000000000000e+00
75,-1.200000000000e+00,2.121320343560e-02,5.000000000000e-01
76,-1.200000000000e+00,3.000000000000e-02,1.000000000000e+00
77,-1.200000000000e+00,2.121320343560e-02,1.500000000000e+00
78,1.200000000000e+00,-2.121320343560e-02,5.000000000000e-01
79,1.200000000000e+00,-3.000000000000e-02,1.000000000000e+00
80,1.200000000000e+00,-2.121320343560e-02,1.500000000000e+00
81,0.000000000000e+00,1.996400000000e+01,0.000000000000e+00
82,0.000000000000e+00,2.003600000000e+01,2.000000000000e+00
83,-1.200000000000e+00,2.003000000000e+01,1.000000000000e+00
84,1.200000000000e+00,1.997000000000e+01,1.000000000000e+00
85,-6.000000000000e-01,3.997454415588e+01,0.000000000000e+00
86,0.000000000000e+00,3.996400000000e+01,0.000000000000e+00
87,6.000000000000e-01,3.997454415588e+01,0.000000000000e+00
88,-6.000000000000e-01,4.002545584412e+01,2.000000000000e+00
89,0.000000000000e+00,4.003600000000e+01,2.000000000000e+00
90,6.000000000000e-01,4.002545584412e+01,2.000000000000e+00
91,-1.200000000000e+00,4.002121320344e+01,5.000000000000e-01
92,-1.200000000000e+00,4.003000000000e+01,1.000000000000e+00
93,-1.200000000000e+00,4.002121320344e+01,1.500000000000e+00
94,1.200000000000e+00,3.997878679656e+01,5.000000000000e-01
95,1.200000000000e+00,3.997000000000e+01,1.000000000000e+00
96,1.200000000000e+00,3.997878679656e+01,1.500000000000e+00
97,-6.000000000000e-01,4.997454415588e+01,0.000000000000e+00
98,0.000000000000e+00,4.996400000000e+01,0.000000000000e+00
99,6.000000000000e-01,4.997454415588e+01,0.000000000000e+00
100,-6.000000000000e-01,5.002545584412e+01,2.000000000000e+00
101,0.000000000000e+00,5.003600000000e+01,2.000000000000e+00
102,6.000000000000e-01,5.002545584412e+01,2.000000000000e+00
103,-1.200000000000e+00,5.002121320344e+01,5.000000000000e-01
104,-1.200000000000e+00,5.003000000000e+01,1.000000000000e+00
105,-1.200000000000e+00,5.002121320344e+01,1.500000000000e+00
106,1.200000000000e+00,4.997878679656e+01,5.000000000000e-01
107,1.200000000000e+00,4.997000000000e+01,1.000000000000e+00
108,1.200000000000e+00,4.997878679656e+01,1.500000000000e+00
109,-1.200000000000e+00,5.030000000000e+00,8.500000000000e-01
110,-1.200000000000e+00,5.030000000000e+00,1.150000000000e+00
111,1.200000000000e+00,5.030000000000e+00,8.500000000000e-01
112,1.200000000000e+00,5.030000000000e+00,1.150000000000e+00
113,1.500000000000e-01,4.964000000000e+00,0.000000000000e+00
114,-1.500000000000e-01,4.964000000000e+00,0.000000000000e+00
115,1.500000000000e-01,4.964000000000e+00,2.000000000000e+00
116,-1.500000000000e-01,4.964000000000e+00,2.000000000000e+00
117,-1.200000000000e+00,1.503000000000e+01,8.500000000000e-01
118,-1.200000000000e+00,1.503000000000e+01,1.150000000000e+00
119,1.200000000000e+00,1.503000000000e+01,8.500000000000e-01
120,1.200000000000e+00,1.503000000000e+01,1.150000000000e+00
121,1.500000000000e-01,1.496400000000e+01,0.000000000000e+00
122,-1.500000000000e-01,1.496400000000e+01,0.000000000000e+00
123,1.500000000000e-01,1.496400000000e+01,2.000000000000e+00
124,-1.500000000000e-01,1.496400000000e+01,2.000000000000e+00
125,-1.200000000000e+00,4.126148050297e+01,1.925974851452e-01
126,-1.200000000000e+00,4.252121320344e+01,3.939339828220e-01
127,-1.200000000000e+00,4.377771638598e+01,6.114180701233e-01
128,-1.200000000000e+00,4.503000000000e+01,8.500000000000e-01
129,-1.200000000000e+00,4.627771638598e+01,1.111418070123e+00
130,-1.200000000000e+00,4.752121320344e+01,1.393933982822e+00
131,-1.200000000000e+00,4.876148050297e+01,1.692597485145e+00
132,-1.200000000000e+00,4.126148050297e+01,1.807402514855e+00
133,-1.200000000000e+00,4.252121320344e+01,1.606066017178e+00
134,-1.200000000000e+00,4.377771638598e+01,1.388581929877e+00
135,-1.200000000000e+00,4.503000000000e+01,1.150000000000e+00
136,-1.200000000000e+00,4.627771638598e+01,8.885819298767e-01
137,-1.200000000000e+00,4.752121320344e+01,6.060660171780e-01
138,-1.200000000000e+00,4.876148050297e+01,3.074025148548e-01
139,1.200000000000e+00,4.126148050297e+01,1.925974851452e-01
140,1.200000000000e+00,4.252121320344e+01,3.939339828220e-01
141,1.200000000000e+00,4.377771638598e+01,6.114180701233e-01
142,1.200000000000e+00,4.503000000000e+01,8.500000000000e-01
143,1.200000000000e+00,4.627771638598e+01,1.111418070123e+00
144,1.200000000000e+00,4.752121320344e+01,1.393933982822e+00
145,1.200000000000e+00,4.876148050297e+01,1.692597485145e+00
146,1.200000000000e+00,4.126148050297e+01,1.807402514855e+00
147,1.200000000000e+00,4.252121320344e+01,1.606066017178e+00
148,1.200000000000e+00,4.377771638598e+01,1.388581929877e+00
149,1.200000000000e+00,4.503000000000e+01,1.150000000000e+00
150,1.200000000000e+00,4.627771638598e+01,8.885819298767e-01
151,1.200000000000e+00,4.752121320344e+01,6.060660171780e-01
152,1.200000000000e+00,4.876148050297e+01,3.074025148548e-01
153,-8.425974851452e-01,4.123622339643e+01,0.000000000000e+00
154,-4.939339828220e-01,4.247454415588e+01,0.000000000000e+00
155,-1.614180701233e-01,4.371674033683e+01,0.000000000000e+00
156,1.500000000000e-01,4.496400000000e+01,0.000000000000e+00
157,4.385819298767e-01,4.621674033683e+01,0.000000000000e+00
158,7.060660171780e-01,4.747454415588e+01,0.000000000000e+00
159,9.574025148548e-01,4.873622339643e+01,0.000000000000e+00
160,8.425974851452e-01,4.123622339643e+01,0.000000000000e+00
161,4.939339828220e-01,4.247454415588e+01,0.000000000000e+00
162,1.614180701233e-01,4.371674033683e+01,0.000000000000e+00
163,-1.500000000000e-01,4.496400000000e+01,0.000000000000e+00
164,-4.385819298767e-01,4.621674033683e+01,0.000000000000e+00
165,-7.060660171780e-01,4.747454415588e+01,0.000000000000e+00
166,-9.574025148548e-01,4.873622339643e+01,0.000000000000e+00
167,-8.425974851452e-01,4.123622339643e+01,2.000000000000e+00
168,-4.939339828220e-01,4.247454415588e+01,2.000000000000e+00
169,-1.614180701233e-01,4.371674033683e+01,2.000000000000e+00
170,1.500000000000e-01,4.496400000000e+01,2.000000000000e+00
171,4.385819298767e-01,4.621674033683e+01,2.000000000000e+00
172,7.060660171780e-01,4.747454415588e+01,2.000000000000e+00
173,9.574025148548e-01,4.873622339643e+01,2.000000000000e+00
174,8.425974851452e-01,4.123622339643e+01,2.000000000000e+00
175,4.939339828220e-01,4.247454415588e+01,2.000000000000e+00
176,1.614180701233e-01,4.371674033683e+01,2.000000000000e+00
177,-1.500000000000e-01,4.496400000000e+01,2.000000000000e+00
178,-4.385819298767e-01,4.621674033683e+01,2.000000000000e+00
179,-7.060660171780e-01,4.747454415588e+01,2.000000000000e+00
180,-9.574025148548e-01,4.873622339643e+01,2.000000000000e+00
*ELEMENT,TYPE=B31,ELSET=ALL
1,1,5
2,2,6
3,3,7
4,4,8
5,5,9
6,6,10
7,7,11
8,8,12
9,9,25
10,25,13
11,10,26
12,26,14
13,11,27
14,27,15
15,12,28
16,28,16
17,13,29
18,29,30
19,30,31
20,31,17
21,14,32
22,32,33
23,33,34
24,34,18
25,15,35
26,35,36
27,36,37
28,37,19
29,16,38
30,38,39
31,39,40
32,40,20
33,17,41
34,41,42
35,42,43
36,43,44
37,44,45
38,45,46
39,46,47
40,47,21
41,18,48
42,48,49
43,49,50
44,50,51
45,51,52
46,52,53
47,53,54
48,54,22
49,19,55
50,55,56
51,56,57
52,57,58
53,58,59
54,59,60
55,60,61
56,61,23
57,20,62
58,62,63
59,63,64
60,64,65
61,65,66
62,66,67
63,67,68
64,68,24
65,1,69
66,69,70
67,70,71
68,71,2
69,3,72
70,72,73
71,73,74
72,74,4
73,1,75
74,75,76
75,76,77
76,77,3
77,2,78
78,78,79
79,79,80
80,80,4
81,5,6
82,7,8
83,5,7
84,6,8
85,9,81
86,81,10
87,11,82
88,82,12
89,9,83
90,83,11
91,10,84
92,84,12
93,13,14
94,15,16
95,13,15
96,14,16
97,17,85
98,85,86
99,86,87
100,87,18
101,19,88
102,88,89
103,89,90
104,90,20
105,17,91
106,91,92
107,92,93
108,93,19
109,18,94
110,94,95
111,95,96
112,96,20
113,21,97
114,97,98
115,98,99
116,99,22
117,23,100
118,100,101
119,101,102
120,102,24
121,21,103
122,103,104
123,104,105
124,105,23
125,22,106
126,106,107
127,107,108
128,108,24
129,1,109
130,109,7
131,3,110
132,110,5
133,2,111
134,111,8
135,4,112
136,112,6
137,1,113
138,113,6
139,2,114
140,114,5
141,3,115
142,115,8
143,4,116
144,116,7
145,5,117
146,117,11
147,7,118
148,118,9
149,6,119
150,119,12
151,8,120
152,120,10
153,5,121
154,121,10
155,6,122
156,122,9
157,7,123
158,123,12
159,8,124
160,124,11
161,9,15
162,11,13
163,10,16
164,12,14
165,9,14
166,10,13
167,11,16
168,12,15
169,13,19
170,15,17
171,14,20
172,16,18
173,13,18
174,14,17
175,15,20
176,16,19
177,17,125
178,125,126
179,126,127
180,127,128
181,128,129
182,129,130
183,130,131
184,131,23
185,19,132
186,132,133
187,133,134
188,134,135
189,135,136
190,136,137
191,137,138
192,138,21
193,18,139
194,139,140
195,140,141
196,141,142
197,142,143
198,143,144
199,144,145
200,145,24
201,20,146
202,146,147
203,147,148
204,148,149
205,149,150
206,150,151
207,151,152
208,152,22
209,17,153
210,153,154
211,154,155
212,155,156
213,156,157
214,157,158
215,158,159
216,159,22
217,18,160
218,160,161
219,161,162
220,162,163
221,163,164
222,164,165
223,165,166
224,166,21
225,19,167
226,167,168
227,168,169
228,169,170
229,170,171
230,171,172
231,172,173
232,173,24
233,20,174
234,174,175
235,175,176
236,176,177
237,177,178
238,178,179
239,179,180
240,180,23
*NSET,NSET=NALL,GENERATE
1,180,1
*NSET,NSET=LEFT
1,2,3,4
*NSET,NSET=RIGHT
21,22,23,24
*MATERIAL,NAME=STEEL
*ELASTIC
2.100000000000e+11,0.300000000000
*BEAM SECTION,ELSET=ALL,MATERIAL=STEEL,SECTION=RECT
6.000000000000e-02,4.000000000000e-02
0.371390676354,0.557086014531,0.742781352708
*BOUNDARY
LEFT,1,6,0.0
*STEP
*STATIC
*BOUNDARY
21,1,1,5.000000000000e-03
21,2,2,0.0
21,3,3,-6.000000000000e-03
*BOUNDARY
22,1,1,5.000000000000e-03
22,2,2,0.0
22,3,3,6.000000000000e-03
*BOUNDARY
23,1,1,-5.000000000000e-03
23,2,2,0.0
23,3,3,-6.000000000000e-03
*BOUNDARY
24,1,1,-5.000000000000e-03
24,2,2,0.0
24,3,3,6.000000000000e-03
*NODE FILE,NSET=NALL
U
*NODE PRINT,NSET=NALL
U
*NODE PRINT,NSET=RIGHT
RF
*EL PRINT,ELSET=ALL,TOTALS=YES
ELSE
*END STEP
