*HEADING
Normalized cross-passage space-truss torsion benchmark
*NODE
1,-1.200000000000e+00,0.000000000000e+00,0.000000000000e+00
2,1.200000000000e+00,0.000000000000e+00,0.000000000000e+00
3,-1.200000000000e+00,0.000000000000e+00,2.000000000000e+00
4,1.200000000000e+00,0.000000000000e+00,2.000000000000e+00
5,-1.200000000000e+00,1.000000000000e+01,0.000000000000e+00
6,1.200000000000e+00,1.000000000000e+01,0.000000000000e+00
7,-1.200000000000e+00,1.000000000000e+01,2.000000000000e+00
8,1.200000000000e+00,1.000000000000e+01,2.000000000000e+00
9,-1.200000000000e+00,2.000000000000e+01,0.000000000000e+00
10,1.200000000000e+00,2.000000000000e+01,0.000000000000e+00
11,-1.200000000000e+00,2.000000000000e+01,2.000000000000e+00
12,1.200000000000e+00,2.000000000000e+01,2.000000000000e+00
13,-1.200000000000e+00,3.000000000000e+01,0.000000000000e+00
14,1.200000000000e+00,3.000000000000e+01,0.000000000000e+00
15,-1.200000000000e+00,3.000000000000e+01,2.000000000000e+00
16,1.200000000000e+00,3.000000000000e+01,2.000000000000e+00
17,-1.200000000000e+00,4.000000000000e+01,0.000000000000e+00
18,1.200000000000e+00,4.000000000000e+01,0.000000000000e+00
19,-1.200000000000e+00,4.000000000000e+01,2.000000000000e+00
20,1.200000000000e+00,4.000000000000e+01,2.000000000000e+00
21,-1.200000000000e+00,5.000000000000e+01,0.000000000000e+00
22,1.200000000000e+00,5.000000000000e+01,0.000000000000e+00
23,-1.200000000000e+00,5.000000000000e+01,2.000000000000e+00
24,1.200000000000e+00,5.000000000000e+01,2.000000000000e+00
25,-1.200000000000e+00,5.000000000000e+00,-1.500000000000e-01
26,1.200000000000e+00,5.000000000000e+00,1.500000000000e-01
27,-1.200000000000e+00,5.000000000000e+00,1.850000000000e+00
28,1.200000000000e+00,5.000000000000e+00,2.150000000000e+00
29,-1.200000000000e+00,1.250000000000e+01,-1.060660171780e-01
30,-1.200000000000e+00,1.500000000000e+01,-1.500000000000e-01
31,-1.200000000000e+00,1.750000000000e+01,-1.060660171780e-01
32,1.200000000000e+00,1.250000000000e+01,1.060660171780e-01
33,1.200000000000e+00,1.500000000000e+01,1.500000000000e-01
34,1.200000000000e+00,1.750000000000e+01,1.060660171780e-01
35,-1.200000000000e+00,1.250000000000e+01,1.893933982822e+00
36,-1.200000000000e+00,1.500000000000e+01,1.850000000000e+00
37,-1.200000000000e+00,1.750000000000e+01,1.893933982822e+00
38,1.200000000000e+00,1.250000000000e+01,2.106066017178e+00
39,1.200000000000e+00,1.500000000000e+01,2.150000000000e+00
40,1.200000000000e+00,1.750000000000e+01,2.106066017178e+00
41,-1.200000000000e+00,3.500000000000e+01,-1.500000000000e-01
42,1.200000000000e+00,3.500000000000e+01,1.500000000000e-01
43,-1.200000000000e+00,3.500000000000e+01,1.850000000000e+00
44,1.200000000000e+00,3.500000000000e+01,2.150000000000e+00
45,-1.200000000000e+00,4.500000000000e+01,-1.500000000000e-01
46,1.200000000000e+00,4.500000000000e+01,1.500000000000e-01
47,-1.200000000000e+00,4.500000000000e+01,1.850000000000e+00
48,1.200000000000e+00,4.500000000000e+01,2.150000000000e+00
49,-6.000000000000e-01,-2.545584412272e-02,0.000000000000e+00
50,0.000000000000e+00,-3.600000000000e-02,0.000000000000e+00
51,6.000000000000e-01,-2.545584412272e-02,0.000000000000e+00
52,-6.000000000000e-01,2.545584412272e-02,2.000000000000e+00
53,0.000000000000e+00,3.600000000000e-02,2.000000000000e+00
54,6.000000000000e-01,2.545584412272e-02,2.000000000000e+00
55,-1.200000000000e+00,2.121320343560e-02,5.000000000000e-01
56,-1.200000000000e+00,3.000000000000e-02,1.000000000000e+00
57,-1.200000000000e+00,2.121320343560e-02,1.500000000000e+00
58,1.200000000000e+00,-2.121320343560e-02,5.000000000000e-01
59,1.200000000000e+00,-3.000000000000e-02,1.000000000000e+00
60,1.200000000000e+00,-2.121320343560e-02,1.500000000000e+00
61,-6.000000000000e-01,9.974544155877e+00,0.000000000000e+00
62,0.000000000000e+00,9.964000000000e+00,0.000000000000e+00
63,6.000000000000e-01,9.974544155877e+00,0.000000000000e+00
64,-6.000000000000e-01,1.002545584412e+01,2.000000000000e+00
65,0.000000000000e+00,1.003600000000e+01,2.000000000000e+00
66,6.000000000000e-01,1.002545584412e+01,2.000000000000e+00
67,-1.200000000000e+00,1.002121320344e+01,5.000000000000e-01
68,-1.200000000000e+00,1.003000000000e+01,1.000000000000e+00
69,-1.200000000000e+00,1.002121320344e+01,1.500000000000e+00
70,1.200000000000e+00,9.978786796564e+00,5.000000000000e-01
71,1.200000000000e+00,9.970000000000e+00,1.000000000000e+00
72,1.200000000000e+00,9.978786796564e+00,1.500000000000e+00
73,-6.000000000000e-01,4.997454415588e+01,0.000000000000e+00
74,0.000000000000e+00,4.996400000000e+01,0.000000000000e+00
75,6.000000000000e-01,4.997454415588e+01,0.000000000000e+00
76,-6.000000000000e-01,5.002545584412e+01,2.000000000000e+00
77,0.000000000000e+00,5.003600000000e+01,2.000000000000e+00
78,6.000000000000e-01,5.002545584412e+01,2.000000000000e+00
79,-1.200000000000e+00,5.002121320344e+01,5.000000000000e-01
80,-1.200000000000e+00,5.003000000000e+01,1.000000000000e+00
81,-1.200000000000e+00,5.002121320344e+01,1.500000000000e+00
82,1.200000000000e+00,4.997878679656e+01,5.000000000000e-01
83,1.200000000000e+00,4.997000000000e+01,1.000000000000e+00
84,1.200000000000e+00,4.997878679656e+01,1.500000000000e+00
85,-1.200000000000e+00,2.521213203436e+00,3.939339828220e-01
86,-1.200000000000e+00,5.030000000000e+00,8.500000000000e-01
87,-1.200000000000e+00,7.521213203436e+00,1.393933982822e+00
88,-1.200000000000e+00,2.521213203436e+00,1.606066017178e+00
89,-1.200000000000e+00,5.030000000000e+00,1.150000000000e+00
90,-1.200000000000e+00,7.521213203436e+00,6.060660171780e-01
91,1.200000000000e+00,2.521213203436e+00,3.939339828220e-01
92,1.200000000000e+00,5.030000000000e+00,8.500000000000e-01
93,1.200000000000e+00,7.521213203436e+00,1.393933982822e+00
94,1.200000000000e+00,2.521213203436e+00,1.606066017178e+00
95,1.200000000000e+00,5.030000000000e+00,1.150000000000e+00
96,1.200000000000e+00,7.521213203436e+00,6.060660171780e-01
97,-4.939339828220e-01,2.474544155877e+00,0.000000000000e+00
98,1.500000000000e-01,4.964000000000e+00,0.000000000000e+00
99,7.060660171780e-01,7.474544155877e+00,0.000000000000e+00
100,4.939339828220e-01,2.474544155877e+00,0.000000000000e+00
101,-1.500000000000e-01,4.964000000000e+00,0.000000000000e+00
102,-7.060660171780e-01,7.474544155877e+00,0.000000000000e+00
103,-4.939339828220e-01,2.474544155877e+00,2.000000000000e+00
104,1.500000000000e-01,4.964000000000e+00,2.000000000000e+00
105,7.060660171780e-01,7.474544155877e+00,2.000000000000e+00
106,4.939339828220e-01,2.474544155877e+00,2.000000000000e+00
107,-1.500000000000e-01,4.964000000000e+00,2.000000000000e+00
108,-7.060660171780e-01,7.474544155877e+00,2.000000000000e+00
109,-1.200000000000e+00,1.503000000000e+01,8.500000000000e-01
110,-1.200000000000e+00,1.503000000000e+01,1.150000000000e+00
111,1.200000000000e+00,1.503000000000e+01,8.500000000000e-01
112,1.200000000000e+00,1.503000000000e+01,1.150000000000e+00
113,1.500000000000e-01,1.496400000000e+01,0.000000000000e+00
114,-1.500000000000e-01,1.496400000000e+01,0.000000000000e+00
115,1.500000000000e-01,1.496400000000e+01,2.000000000000e+00
116,-1.500000000000e-01,1.496400000000e+01,2.000000000000e+00
117,-1.200000000000e+00,2.503000000000e+01,8.500000000000e-01
118,-1.200000000000e+00,2.503000000000e+01,1.150000000000e+00
119,1.200000000000e+00,2.503000000000e+01,8.500000000000e-01
120,1.200000000000e+00,2.503000000000e+01,1.150000000000e+00
121,1.500000000000e-01,2.496400000000e+01,0.000000000000e+00
122,-1.500000000000e-01,2.496400000000e+01,0.000000000000e+00
123,1.500000000000e-01,2.496400000000e+01,2.000000000000e+00
124,-1.500000000000e-01,2.496400000000e+01,2.000000000000e+00
125,-1.200000000000e+00,3.503000000000e+01,8.500000000000e-01
126,-1.200000000000e+00,3.503000000000e+01,1.150000000000e+00
127,1.200000000000e+00,3.503000000000e+01,8.500000000000e-01
128,1.200000000000e+00,3.503000000000e+01,1.150000000000e+00
129,1.500000000000e-01,3.496400000000e+01,0.000000000000e+00
130,-1.500000000000e-01,3.496400000000e+01,0.000000000000e+00
131,1.500000000000e-01,3.496400000000e+01,2.000000000000e+00
132,-1.500000000000e-01,3.496400000000e+01,2.000000000000e+00
133,-1.200000000000e+00,4.252121320344e+01,3.939339828220e-01
134,-1.200000000000e+00,4.503000000000e+01,8.500000000000e-01
135,-1.200000000000e+00,4.752121320344e+01,1.393933982822e+00
136,-1.200000000000e+00,4.252121320344e+01,1.606066017178e+00
137,-1.200000000000e+00,4.503000000000e+01,1.150000000000e+00
138,-1.200000000000e+00,4.752121320344e+01,6.060660171780e-01
139,1.200000000000e+00,4.252121320344e+01,3.939339828220e-01
140,1.200000000000e+00,4.503000000000e+01,8.500000000000e-01
141,1.200000000000e+00,4.752121320344e+01,1.393933982822e+00
142,1.200000000000e+00,4.252121320344e+01,1.606066017178e+00
143,1.200000000000e+00,4.503000000000e+01,1.150000000000e+00
144,1.200000000000e+00,4.752121320344e+01,6.060660171780e-01
145,-4.939339828220e-01,4.247454415588e+01,0.000000000000e+00
146,1.500000000000e-01,4.496400000000e+01,0.000000000000e+00
147,7.060660171780e-01,4.747454415588e+01,0.000000000000e+00
148,4.939339828220e-01,4.247454415588e+01,0.000000000000e+00
149,-1.500000000000e-01,4.496400000000e+01,0.000000000000e+00
150,-7.060660171780e-01,4.747454415588e+01,0.000000000000e+00
151,-4.939339828220e-01,4.247454415588e+01,2.000000000000e+00
152,1.500000000000e-01,4.496400000000e+01,2.000000000000e+00
153,7.060660171780e-01,4.747454415588e+01,2.000000000000e+00
154,4.939339828220e-01,4.247454415588e+01,2.000000000000e+00
155,-1.500000000000e-01,4.496400000000e+01,2.000000000000e+00
156,-7.060660171780e-01,4.747454415588e+01,2.000000000000e+00
*ELEMENT,TYPE=B31,ELSET=ALL
1,1,25
2,25,5
3,2,26
4,26,6
5,3,27
6,27,7
7,4,28
8,28,8
9,5,29
10,29,30
11,30,31
12,31,9
13,6,32
14,32,33
15,33,34
16,34,10
17,7,35
18,35,36
19,36,37
20,37,11
21,8,38
22,38,39
23,39,40
24,40,12
25,9,13
26,10,14
27,11,15
28,12,16
29,13,41
30,41,17
31,14,42
32,42,18
33,15,43
34,43,19
35,16,44
36,44,20
37,17,45
38,45,21
39,18,46
40,46,22
41,19,47
42,47,23
43,20,48
44,48,24
45,1,49
46,49,50
47,50,51
48,51,2
49,3,52
50,52,53
51,53,54
52,54,4
53,1,55
54,55,56
55,56,57
56,57,3
57,2,58
58,58,59
59,59,60
60,60,4
61,5,61
62,61,62
63,62,63
64,63,6
65,7,64
66,64,65
67,65,66
68,66,8
69,5,67
70,67,68
71,68,69
72,69,7
73,6,70
74,70,71
75,71,72
76,72,8
77,9,10
78,11,12
79,9,11
80,10,12
81,13,14
82,15,16
83,13,15
84,14,16
85,17,18
86,19,20
87,17,19
88,18,20
89,21,73
90,73,74
91,74,75
92,75,22
93,23,76
94,76,77
95,77,78
96,78,24
97,21,79
98,79,80
99,80,81
100,81,23
101,22,82
102,82,83
103,83,84
104,84,24
105,1,85
106,85,86
107,86,87
108,87,7
109,3,88
110,88,89
111,89,90
112,90,5
113,2,91
114,91,92
115,92,93
116,93,8
117,4,94
118,94,95
119,95,96
120,96,6
121,1,97
122,97,98
123,98,99
124,99,6
125,2,100
126,100,101
127,101,102
128,102,5
129,3,103
130,103,104
131,104,105
132,105,8
133,4,106
134,106,107
135,107,108
136,108,7
137,5,109
138,109,11
139,7,110
140,110,9
141,6,111
142,111,12
143,8,112
144,112,10
145,5,113
146,113,10
147,6,114
148,114,9
149,7,115
150,115,12
151,8,116
152,116,11
153,9,117
154,117,15
155,11,118
156,118,13
157,10,119
158,119,16
159,12,120
160,120,14
161,9,121
162,121,14
163,10,122
164,122,13
165,11,123
166,123,16
167,12,124
168,124,15
169,13,125
170,125,19
171,15,126
172,126,17
173,14,127
174,127,20
175,16,128
176,128,18
177,13,129
178,129,18
179,14,130
180,130,17
181,15,131
182,131,20
183,16,132
184,132,19
185,17,133
186,133,134
187,134,135
188,135,23
189,19,136
190,136,137
191,137,138
192,138,21
193,18,139
194,139,140
195,140,141
196,141,24
197,20,142
198,142,143
199,143,144
200,144,22
201,17,145
202,145,146
203,146,147
204,147,22
205,18,148
206,148,149
207,149,150
208,150,21
209,19,151
210,151,152
211,152,153
212,153,24
213,20,154
214,154,155
215,155,156
216,156,23
*NSET,NSET=NALL,GENERATE
1,156,1
*NSET,NSET=LEFT
1,2,3,4
*NSET,NSET=RIGHT
21,22,23,24
*MATERIAL,NAME=STEEL
*ELASTIC
2.100000000000e+11,0.300000000000
*BEAM SECTION,ELSET=ALL,MATERIAL=STEEL,SECTION=RECT
6.000000000000e-02,4.000000000000e-02
0.371390676354,0.557086014531,0.742781352708
*BOUNDARY
LEFT,1,6,0.0
*STEP
*STATIC
*BOUNDARY
21,1,1,5.000000000000e-03
21,2,2,0.0
21,3,3,-6.000000000000e-03
*BOUNDARY
22,1,1,5.000000000000e-03
22,2,2,0.0
22,3,3,6.000000000000e-03
*BOUNDARY
23,1,1,-5.000000000000e-03
23,2,2,0.0
23,3,3,-6.000000000000e-03
*BOUNDARY
24,1,1,-5.000000000000e-03
24,2,2,0.0
24,3,3,6.000000000000e-03
*NODE FILE,NSET=NALL
U
*NODE PRINT,NSET=NALL
U
*NODE PRINT,NSET=RIGHT
RF
*EL PRINT,ELSET=ALL,TOTALS=YES
ELSE
*END STEP
