*HEADING
Normalized cross-passage space-truss torsion benchmark
*NODE
1,-1.200000000000e+00,0.000000000000e+00,0.000000000000e+00
2,1.200000000000e+00,0.000000000000e+00,0.000000000000e+00
3,-1.200000000000e+00,0.000000000000e+00,2.000000000000e+00
4,1.200000000000e+00,0.000000000000e+00,2.000000000000e+00
5,-1.200000000000e+00,1.000000000000e+01,0.000000000000e+00
6,1.200000000000e+00,1.000000000000e+01,0.000000000000e+00
7,-1.200000000000e+00,1.000000000000e+01,2.000000000000e+00
8,1.200000000000e+00,1.000000000000e+01,2.000000000000e+00
9,-1.200000000000e+00,2.000000000000e+01,0.000000000000e+00
10,1.200000000000e+00,2.000000000000e+01,0.000000000000e+00
11,-1.200000000000e+00,2.000000000000e+01,2.000000000000e+00
12,1.200000000000e+00,2.000000000000e+01,2.000000000000e+00
13,-1.200000000000e+00,3.000000000000e+01,0.000000000000e+00
14,1.200000000000e+00,3.000000000000e+01,0.000000000000e+00
15,-1.200000000000e+00,3.000000000000e+01,2.000000000000e+00
16,1.200000000000e+00,3.000000000000e+01,2.000000000000e+00
17,-1.200000000000e+00,4.000000000000e+01,0.000000000000e+00
18,1.200000000000e+00,4.000000000000e+01,0.000000000000e+00
19,-1.200000000000e+00,4.000000000000e+01,2.000000000000e+00
20,1.200000000000e+00,4.000000000000e+01,2.000000000000e+00
21,-1.200000000000e+00,5.000000000000e+01,0.000000000000e+00
22,1.200000000000e+00,5.000000000000e+01,0.000000000000e+00
23,-1.200000000000e+00,5.000000000000e+01,2.000000000000e+00
24,1.200000000000e+00,5.000000000000e+01,2.000000000000e+00
25,-1.200000000000e+00,5.000000000000e+00,-1.500000000000e-01
26,1.200000000000e+00,5.000000000000e+00,1.500000000000e-01
27,-1.200000000000e+00,5.000000000000e+00,1.850000000000e+00
28,1.200000000000e+00,5.000000000000e+00,2.150000000000e+00
29,-1.200000000000e+00,2.250000000000e+01,-1.060660171780e-01
30,-1.200000000000e+00,2.500000000000e+01,-1.500000000000e-01
31,-1.200000000000e+00,2.750000000000e+01,-1.060660171780e-01
32,1.200000000000e+00,2.250000000000e+01,1.060660171780e-01
33,1.200000000000e+00,2.500000000000e+01,1.500000000000e-01
34,1.200000000000e+00,2.750000000000e+01,1.060660171780e-01
35,-1.200000000000e+00,2.250000000000e+01,1.893933982822e+00
36,-1.200000000000e+00,2.500000000000e+01,1.850000000000e+00
37,-1.200000000000e+00,2.750000000000e+01,1.893933982822e+00
38,1.200000000000e+00,2.250000000000e+01,2.106066017178e+00
39,1.200000000000e+00,2.500000000000e+01,2.150000000000e+00
40,1.200000000000e+00,2.750000000000e+01,2.106066017178e+00
41,-1.200000000000e+00,3.250000000000e+01,-1.060660171780e-01
42,-1.200000000000e+00,3.500000000000e+01,-1.500000000000e-01
43,-1.200000000000e+00,3.750000000000e+01,-1.060660171780e-01
44,1.200000000000e+00,3.250000000000e+01,1.060660171780e-01
45,1.200000000000e+00,3.500000000000e+01,1.500000000000e-01
46,1.200000000000e+00,3.750000000000e+01,1.060660171780e-01
47,-1.200000000000e+00,3.250000000000e+01,1.893933982822e+00
48,-1.200000000000e+00,3.500000000000e+01,1.850000000000e+00
49,-1.200000000000e+00,3.750000000000e+01,1.893933982822e+00
50,1.200000000000e+00,3.250000000000e+01,2.106066017178e+00
51,1.200000000000e+00,3.500000000000e+01,2.150000000000e+00
52,1.200000000000e+00,3.750000000000e+01,2.106066017178e+00
53,-1.200000000000e+00,4.125000000000e+01,-5.740251485476e-02
54,-1.200000000000e+00,4.250000000000e+01,-1.060660171780e-01
55,-1.200000000000e+00,4.375000000000e+01,-1.385819298767e-01
56,-1.200000000000e+00,4.500000000000e+01,-1.500000000000e-01
57,-1.200000000000e+00,4.625000000000e+01,-1.385819298767e-01
58,-1.200000000000e+00,4.750000000000e+01,-1.060660171780e-01
59,-1.200000000000e+00,4.875000000000e+01,-5.740251485476e-02
60,1.200000000000e+00,4.125000000000e+01,5.740251485476e-02
61,1.200000000000e+00,4.250000000000e+01,1.060660171780e-01
62,1.200000000000e+00,4.375000000000e+01,1.385819298767e-01
63,1.200000000000e+00,4.500000000000e+01,1.500000000000e-01
64,1.200000000000e+00,4.625000000000e+01,1.385819298767e-01
65,1.200000000000e+00,4.750000000000e+01,1.060660171780e-01
66,1.200000000000e+00,4.875000000000e+01,5.740251485476e-02
67,-1.200000000000e+00,4.125000000000e+01,1.942597485145e+00
68,-1.200000000000e+00,4.250000000000e+01,1.893933982822e+00
69,-1.200000000000e+00,4.375000000000e+01,1.861418070123e+00
70,-1.200000000000e+00,4.500000000000e+01,1.850000000000e+00
71,-1.200000000000e+00,4.625000000000e+01,1.861418070123e+00
72,-1.200000000000e+00,4.750000000000e+01,1.893933982822e+00
73,-1.200000000000e+00,4.875000000000e+01,1.942597485145e+00
74,1.200000000000e+00,4.125000000000e+01,2.057402514855e+00
75,1.200000000000e+00,4.250000000000e+01,2.106066017178e+00
76,1.200000000000e+00,4.375000000000e+01,2.138581929877e+00
77,1.200000000000e+00,4.500000000000e+01,2.150000000000e+00
78,1.200000000000e+00,4.625000000000e+01,2.138581929877e+00
79,1.200000000000e+00,4.750000000000e+01,2.106066017178e+00
80,1.200000000000e+00,4.875000000000e+01,2.057402514855e+00
81,0.000000000000e+00,-3.600000000000e-02,0.000000000000e+00
82,0.000000000000e+00,3.600000000000e-02,2.000000000000e+00
83,-1.200000000000e+00,3.000000000000e-02,1.000000000000e+00
84,1.200000000000e+00,-3.000000000000e-02,1.000000000000e+00
85,0.000000000000e+00,9.964000000000e+00,0.000000000000e+00
86,0.000000000000e+00,1.003600000000e+01,2.000000000000e+00
87,-1.200000000000e+00,1.003000000000e+01,1.000000000000e+00
88,1.200000000000e+00,9.970000000000e+00,1.000000000000e+00
89,0.000000000000e+00,1.996400000000e+01,0.000000000000e+00
90,0.000000000000e+00,2.003600000000e+01,2.000000000000e+00
91,-1.200000000000e+00,2.003000000000e+01,1.000000000000e+00
92,1.200000000000e+00,1.997000000000e+01,1.000000000000e+00
93,0.000000000000e+00,2.996400000000e+01,0.000000000000e+00
94,0.000000000000e+00,3.003600000000e+01,2.000000000000e+00
95,-1.200000000000e+00,3.003000000000e+01,1.000000000000e+00
96,1.200000000000e+00,2.997000000000e+01,1.000000000000e+00
97,-9.000000000000e-01,3.998622339643e+01,0.000000000000e+00
98,-6.000000000000e-01,3.997454415588e+01,0.000000000000e+00
99,-3.000000000000e-01,3.996674033683e+01,0.000000000000e+00
100,0.000000000000e+00,3.996400000000e+01,0.000000000000e+00
101,3.000000000000e-01,3.996674033683e+01,0.000000000000e+00
102,6.000000000000e-01,3.997454415588e+01,0.000000000000e+00
103,9.000000000000e-01,3.998622339643e+01,0.000000000000e+00
104,-9.000000000000e-01,4.001377660357e+01,2.000000000000e+00
105,-6.000000000000e-01,4.002545584412e+01,2.000000000000e+00
106,-3.000000000000e-01,4.003325966317e+01,2.000000000000e+00
107,0.000000000000e+00,4.003600000000e+01,2.000000000000e+00
108,3.000000000000e-01,4.003325966317e+01,2.000000000000e+00
109,6.000000000000e-01,4.002545584412e+01,2.000000000000e+00
110,9.000000000000e-01,4.001377660357e+01,2.000000000000e+00
111,-1.200000000000e+00,4.001148050297e+01,2.500000000000e-01
112,-1.200000000000e+00,4.002121320344e+01,5.000000000000e-01
113,-1.200000000000e+00,4.002771638598e+01,7.500000000000e-01
114,-1.200000000000e+00,4.003000000000e+01,1.000000000000e+00
115,-1.200000000000e+00,4.002771638598e+01,1.250000000000e+00
116,-1.200000000000e+00,4.002121320344e+01,1.500000000000e+00
117,-1.200000000000e+00,4.001148050297e+01,1.750000000000e+00
118,1.200000000000e+00,3.998851949703e+01,2.500000000000e-01
119,1.200000000000e+00,3.997878679656e+01,5.000000000000e-01
120,1.200000000000e+00,3.997228361402e+01,7.500000000000e-01
121,1.200000000000e+00,3.997000000000e+01,1.000000000000e+00
122,1.200000000000e+00,3.997228361402e+01,1.250000000000e+00
123,1.200000000000e+00,3.997878679656e+01,1.500000000000e+00
124,1.200000000000e+00,3.998851949703e+01,1.750000000000e+00
125,-9.000000000000e-01,4.998622339643e+01,0.000000000000e+00
126,-6.000000000000e-01,4.997454415588e+01,0.000000000000e+00
127,-3.000000000000e-01,4.996674033683e+01,0.000000000000e+00
128,0.000000000000e+00,4.996400000000e+01,0.000000000000e+00
129,3.000000000000e-01,4.996674033683e+01,0.000000000000e+00
130,6.000000000000e-01,4.997454415588e+01,0.000000000000e+00
131,9.000000000000e-01,4.998622339643e+01,0.000000000000e+00
132,-9.000000000000e-01,5.001377660357e+01,2.000000000000e+00
133,-6.000000000000e-01,5.002545584412e+01,2.000000000000e+00
134,-3.000000000000e-01,5.003325966317e+01,2.000000000000e+00
135,0.000000000000e+00,5.003600000000e+01,2.000000000000e+00
136,3.000000000000e-01,5.003325966317e+01,2.000000000000e+00
137,6.000000000000e-01,5.002545584412e+01,2.000000000000e+00
138,9.000000000000e-01,5.001377660357e+01,2.000000000000e+00
139,-1.200000000000e+00,5.001148050297e+01,2.500000000000e-01
140,-1.200000000000e+00,5.002121320344e+01,5.000000000000e-01
141,-1.200000000000e+00,5.002771638598e+01,7.500000000000e-01
142,-1.200000000000e+00,5.003000000000e+01,1.000000000000e+00
143,-1.200000000000e+00,5.002771638598e+01,1.250000000000e+00
144,-1.200000000000e+00,5.002121320344e+01,1.500000000000e+00
145,-1.200000000000e+00,5.001148050297e+01,1.750000000000e+00
146,1.200000000000e+00,4.998851949703e+01,2.500000000000e-01
147,1.200000000000e+00,4.997878679656e+01,5.000000000000e-01
148,1.200000000000e+00,4.997228361402e+01,7.500000000000e-01
149,1.200000000000e+00,4.997000000000e+01,1.000000000000e+00
150,1.200000000000e+00,4.997228361402e+01,1.250000000000e+00
151,1.200000000000e+00,4.997878679656e+01,1.500000000000e+00
152,1.200000000000e+00,4.998851949703e+01,1.750000000000e+00
153,-1.200000000000e+00,5.030000000000e+00,8.500000000000e-01
154,-1.200000000000e+00,5.030000000000e+00,1.150000000000e+00
155,1.200000000000e+00,5.030000000000e+00,8.500000000000e-01
156,1.200000000000e+00,5.030000000000e+00,1.150000000000e+00
157,1.500000000000e-01,4.964000000000e+00,0.000000000000e+00
158,-1.500000000000e-01,4.964000000000e+00,0.000000000000e+00
159,1.500000000000e-01,4.964000000000e+00,2.000000000000e+00
160,-1.500000000000e-01,4.964000000000e+00,2.000000000000e+00
161,-1.200000000000e+00,1.503000000000e+01,8.500000000000e-01
162,-1.200000000000e+00,1.503000000000e+01,1.150000000000e+00
163,1.200000000000e+00,1.503000000000e+01,8.500000000000e-01
164,1.200000000000e+00,1.503000000000e+01,1.150000000000e+00
165,1.500000000000e-01,1.496400000000e+01,0.000000000000e+00
166,-1.500000000000e-01,1.496400000000e+01,0.000000000000e+00
167,1.500000000000e-01,1.496400000000e+01,2.000000000000e+00
168,-1.500000000000e-01,1.496400000000e+01,2.000000000000e+00
169,-1.200000000000e+00,2.503000000000e+01,8.500000000000e-01
170,-1.200000000000e+00,2.503000000000e+01,1.150000000000e+00
171,1.200000000000e+00,2.503000000000e+01,8.500000000000e-01
172,1.200000000000e+00,2.503000000000e+01,1.150000000000e+00
173,1.500000000000e-01,2.496400000000e+01,0.000000000000e+00
174,-1.500000000000e-01,2.496400000000e+01,0.000000000000e+00
175,1.500000000000e-01,2.496400000000e+01,2.000000000000e+00
176,-1.500000000000e-01,2.496400000000e+01,2.000000000000e+00
177,-1.200000000000e+00,3.503000000000e+01,8.500000000000e-01
178,-1.200000000000e+00,3.503000000000e+01,1.150000000000e+00
179,1.200000000000e+00,3.503000000000e+01,8.500000000000e-01
180,1.200000000000e+00,3.503000000000e+01,1.150000000000e+00
181,1.500000000000e-01,3.496400000000e+01,0.000000000000e+00
182,-1.500000000000e-01,3.496400000000e+01,0.000000000000e+00
183,1.500000000000e-01,3.496400000000e+01,2.000000000000e+00
184,-1.500000000000e-01,3.496400000000e+01,2.000000000000e+00
185,-1.200000000000e+00,4.126148050297e+01,1.925974851452e-01
186,-1.200000000000e+00,4.252121320344e+01,3.939339828220e-01
187,-1.200000000000e+00,4.377771638598e+01,6.114180701233e-01
188,-1.200000000000e+00,4.503000000000e+01,8.500000000000e-01
189,-1.200000000000e+00,4.627771638598e+01,1.111418070123e+00
190,-1.200000000000e+00,4.752121320344e+01,1.393933982822e+00
191,-1.200000000000e+00,4.876148050297e+01,1.692597485145e+00
192,-1.200000000000e+00,4.126148050297e+01,1.807402514855e+00
193,-1.200000000000e+00,4.252121320344e+01,1.606066017178e+00
194,-1.200000000000e+00,4.377771638598e+01,1.388581929877e+00
195,-1.200000000000e+00,4.503000000000e+01,1.150000000000e+00
196,-1.200000000000e+00,4.627771638598e+01,8.885819298767e-01
197,-1.200000000000e+00,4.752121320344e+01,6.060660171780e-01
198,-1.200000000000e+00,4.876148050297e+01,3.074025148548e-01
199,1.200000000000e+00,4.126148050297e+01,1.925974851452e-01
200,1.200000000000e+00,4.252121320344e+01,3.939339828220e-01
201,1.200000000000e+00,4.377771638598e+01,6.114180701233e-01
202,1.200000000000e+00,4.503000000000e+01,8.500000000000e-01
203,1.200000000000e+00,4.627771638598e+01,1.111418070123e+00
204,1.200000000000e+00,4.752121320344e+01,1.393933982822e+00
205,1.200000000000e+00,4.876148050297e+01,1.692597485145e+00
206,1.200000000000e+00,4.126148050297e+01,1.807402514855e+00
207,1.200000000000e+00,4.252121320344e+01,1.606066017178e+00
208,1.200000000000e+00,4.377771638598e+01,1.388581929877e+00
209,1.200000000000e+00,4.503000000000e+01,1.150000000000e+00
210,1.200000000000e+00,4.627771638598e+01,8.885819298767e-01
211,1.200000000000e+00,4.752121320344e+01,6.060660171780e-01
212,1.200000000000e+00,4.876148050297e+01,3.074025148548e-01
213,-8.425974851452e-01,4.123622339643e+01,0.000000000000e+00
214,-4.939339828220e-01,4.247454415588e+01,0.000000000000e+00
215,-1.614180701233e-01,4.371674033683e+01,0.000000000000e+00
216,1.500000000000e-01,4.496400000000e+01,0.000000000000e+00
217,4.385819298767e-01,4.621674033683e+01,0.000000000000e+00
218,7.060660171780e-01,4.747454415588e+01,0.000000000000e+00
219,9.574025148548e-01,4.873622339643e+01,0.000000000000e+00
220,8.425974851452e-01,4.123622339643e+01,0.000000000000e+00
221,4.939339828220e-01,4.247454415588e+01,0.000000000000e+00
222,1.614180701233e-01,4.371674033683e+01,0.000000000000e+00
223,-1.500000000000e-01,4.496400000000e+01,0.000000000000e+00
224,-4.385819298767e-01,4.621674033683e+01,0.000000000000e+00
225,-7.060660171780e-01,4.747454415588e+01,0.000000000000e+00
226,-9.574025148548e-01,4.873622339643e+01,0.000000000000e+00
227,-8.425974851452e-01,4.123622339643e+01,2.000000000000e+00
228,-4.939339828220e-01,4.247454415588e+01,2.000000000000e+00
229,-1.614180701233e-01,4.371674033683e+01,2.000000000000e+00
230,1.500000000000e-01,4.496400000000e+01,2.000000000000e+00
231,4.385819298767e-01,4.621674033683e+01,2.000000000000e+00
232,7.060660171780e-01,4.747454415588e+01,2.000000000000e+00
233,9.574025148548e-01,4.873622339643e+01,2.000000000000e+00
234,8.425974851452e-01,4.123622339643e+01,2.000000000000e+00
235,4.939339828220e-01,4.247454415588e+01,2.000000000000e+00
236,1.614180701233e-01,4.371674033683e+01,2.000000000000e+00
237,-1.500000000000e-01,4.496400000000e+01,2.000000000000e+00
238,-4.385819298767e-01,4.621674033683e+01,2.000000000000e+00
239,-7.060660171780e-01,4.747454415588e+01,2.000000000000e+00
240,-9.574025148548e-01,4.873622339643e+01,2.000000000000e+00
*ELEMENT,TYPE=B31,ELSET=ALL
1,1,25
2,25,5
3,2,26
4,26,6
5,3,27
6,27,7
7,4,28
8,28,8
9,5,9
10,6,10
11,7,11
12,8,12
13,9,29
14,29,30
15,30,31
16,31,13
17,10,32
18,32,33
19,33,34
20,34,14
21,11,35
22,35,36
23,36,37
24,37,15
25,12,38
26,38,39
27,39,40
28,40,16
29,13,41
30,41,42
31,42,43
32,43,17
33,14,44
34,44,45
35,45,46
36,46,18
37,15,47
38,47,48
39,48,49
40,49,19
41,16,50
42,50,51
43,51,52
44,52,20
45,17,53
46,53,54
47,54,55
48,55,56
49,56,57
50,57,58
51,58,59
52,59,21
53,18,60
54,60,61
55,61,62
56,62,63
57,63,64
58,64,65
59,65,66
60,66,22
61,19,67
62,67,68
63,68,69
64,69,70
65,70,71
66,71,72
67,72,73
68,73,23
69,20,74
70,74,75
71,75,76
72,76,77
73,77,78
74,78,79
75,79,80
76,80,24
77,1,81
78,81,2
79,3,82
80,82,4
81,1,83
82,83,3
83,2,84
84,84,4
85,5,85
86,85,6
87,7,86
88,86,8
89,5,87
90,87,7
91,6,88
92,88,8
93,9,89
94,89,10
95,11,90
96,90,12
97,9,91
98,91,11
99,10,92
100,92,12
101,13,93
102,93,14
103,15,94
104,94,16
105,13,95
106,95,15
107,14,96
108,96,16
109,17,97
110,97,98
111,98,99
112,99,100
113,100,101
114,101,102
115,102,103
116,103,18
117,19,104
118,104,105
119,105,106
120,106,107
121,107,108
122,108,109
123,109,110
124,110,20
125,17,111
126,111,112
127,112,113
128,113,114
129,114,115
130,115,116
131,116,117
132,117,19
133,18,118
134,118,119
135,119,120
136,120,121
137,121,122
138,122,123
139,123,124
140,124,20
141,21,125
142,125,126
143,126,127
144,127,128
145,128,129
146,129,130
147,130,131
148,131,22
149,23,132
150,132,133
151,133,134
152,134,135
153,135,136
154,136,137
155,137,138
156,138,24
157,21,139
158,139,140
159,140,141
160,141,142
161,142,143
162,143,144
163,144,145
164,145,23
165,22,146
166,146,147
167,147,148
168,148,149
169,149,150
170,150,151
171,151,152
172,152,24
173,1,153
174,153,7
175,3,154
176,154,5
177,2,155
178,155,8
179,4,156
180,156,6
181,1,157
182,157,6
183,2,158
184,158,5
185,3,159
186,159,8
187,4,160
188,160,7
189,5,161
190,161,11
191,7,162
192,162,9
193,6,163
194,163,12
195,8,164
196,164,10
197,5,165
198,165,10
199,6,166
200,166,9
201,7,167
202,167,12
203,8,168
204,168,11
205,9,169
206,169,15
207,11,170
208,170,13
209,10,171
210,171,16
211,12,172
212,172,14
213,9,173
214,173,14
215,10,174
216,174,13
217,11,175
218,175,16
219,12,176
220,176,15
221,13,177
222,177,19
223,15,178
224,178,17
225,14,179
226,179,20
227,16,180
228,180,18
229,13,181
230,181,18
231,14,182
232,182,17
233,15,183
234,183,20
235,16,184
236,184,19
237,17,185
238,185,186
239,186,187
240,187,188
241,188,189
242,189,190
243,190,191
244,191,23
245,19,192
246,192,193
247,193,194
248,194,195
249,195,196
250,196,197
251,197,198
252,198,21
253,18,199
254,199,200
255,200,201
256,201,202
257,202,203
258,203,204
259,204,205
260,205,24
261,20,206
262,206,207
263,207,208
264,208,209
265,209,210
266,210,211
267,211,212
268,212,22
269,17,213
270,213,214
271,214,215
272,215,216
273,216,217
274,217,218
275,218,219
276,219,22
277,18,220
278,220,221
279,221,222
280,222,223
281,223,224
282,224,225
283,225,226
284,226,21
285,19,227
286,227,228
287,228,229
288,229,230
289,230,231
290,231,232
291,232,233
292,233,24
293,20,234
294,234,235
295,235,236
296,236,237
297,237,238
298,238,239
299,239,240
300,240,23
*NSET,NSET=NALL,GENERATE
1,240,1
*NSET,NSET=LEFT
1,2,3,4
*NSET,NSET=RIGHT
21,22,23,24
*MATERIAL,NAME=STEEL
*ELASTIC
2.100000000000e+11,0.300000000000
*BEAM SECTION,ELSET=ALL,MATERIAL=STEEL,SECTION=RECT
6.000000000000e-02,4.000000000000e-02
0.371390676354,0.557086014531,0.742781352708
*BOUNDARY
LEFT,1,6,0.0
*STEP
*STATIC
*BOUNDARY
21,1,1,5.000000000000e-03
21,2,2,0.0
21,3,3,-6.000000000000e-03
*BOUNDARY
22,1,1,5.000000000000e-03
22,2,2,0.0
22,3,3,6.000000000000e-03
*BOUNDARY
23,1,1,-5.000000000000e-03
23,2,2,0.0
23,3,3,-6.000000000000e-03
*BOUNDARY
24,1,1,-5.000000000000e-03
24,2,2,0.0
24,3,3,6.000000000000e-03
*NODE FILE,NSET=NALL
U
*NODE PRINT,NSET=NALL
U
*NODE PRINT,NSET=RIGHT
RF
*EL PRINT,ELSET=ALL,TOTALS=YES
ELSE
*END STEP
