*HEADING
Normalized cross-passage space-truss torsion benchmark
*NODE
1,-1.200000000000e+00,0.000000000000e+00,0.000000000000e+00
2,1.200000000000e+00,0.000000000000e+00,0.000000000000e+00
3,-1.200000000000e+00,0.000000000000e+00,2.000000000000e+00
4,1.200000000000e+00,0.000000000000e+00,2.000000000000e+00
5,-1.200000000000e+00,1.000000000000e+01,0.000000000000e+00
6,1.200000000000e+00,1.000000000000e+01,0.000000000000e+00
7,-1.200000000000e+00,1.000000000000e+01,2.000000000000e+00
8,1.200000000000e+00,1.000000000000e+01,2.000000000000e+00
9,-1.200000000000e+00,2.000000000000e+01,0.000000000000e+00
10,1.200000000000e+00,2.000000000000e+01,0.000000000000e+00
11,-1.200000000000e+00,2.000000000000e+01,2.000000000000e+00
12,1.200000000000e+00,2.000000000000e+01,2.000000000000e+00
13,-1.200000000000e+00,3.000000000000e+01,0.000000000000e+00
14,1.200000000000e+00,3.000000000000e+01,0.000000000000e+00
15,-1.200000000000e+00,3.000000000000e+01,2.000000000000e+00
16,1.200000000000e+00,3.000000000000e+01,2.000000000000e+00
17,-1.200000000000e+00,4.000000000000e+01,0.000000000000e+00
18,1.200000000000e+00,4.000000000000e+01,0.000000000000e+00
19,-1.200000000000e+00,4.000000000000e+01,2.000000000000e+00
20,1.200000000000e+00,4.000000000000e+01,2.000000000000e+00
21,-1.200000000000e+00,5.000000000000e+01,0.000000000000e+00
22,1.200000000000e+00,5.000000000000e+01,0.000000000000e+00
23,-1.200000000000e+00,5.000000000000e+01,2.000000000000e+00
24,1.200000000000e+00,5.000000000000e+01,2.000000000000e+00
25,-1.200000000000e+00,5.000000000000e+00,-1.500000000000e-01
26,1.200000000000e+00,5.000000000000e+00,1.500000000000e-01
27,-1.200000000000e+00,5.000000000000e+00,1.850000000000e+00
28,1.200000000000e+00,5.000000000000e+00,2.150000000000e+00
29,-1.200000000000e+00,1.500000000000e+01,-1.500000000000e-01
30,1.200000000000e+00,1.500000000000e+01,1.500000000000e-01
31,-1.200000000000e+00,1.500000000000e+01,1.850000000000e+00
32,1.200000000000e+00,1.500000000000e+01,2.150000000000e+00
33,-1.200000000000e+00,2.500000000000e+01,-1.500000000000e-01
34,1.200000000000e+00,2.500000000000e+01,1.500000000000e-01
35,-1.200000000000e+00,2.500000000000e+01,1.850000000000e+00
36,1.200000000000e+00,2.500000000000e+01,2.150000000000e+00
37,-1.200000000000e+00,3.500000000000e+01,-1.500000000000e-01
38,1.200000000000e+00,3.500000000000e+01,1.500000000000e-01
39,-1.200000000000e+00,3.500000000000e+01,1.850000000000e+00
40,1.200000000000e+00,3.500000000000e+01,2.150000000000e+00
41,-1.200000000000e+00,4.500000000000e+01,-1.500000000000e-01
42,1.200000000000e+00,4.500000000000e+01,1.500000000000e-01
43,-1.200000000000e+00,4.500000000000e+01,1.850000000000e+00
44,1.200000000000e+00,4.500000000000e+01,2.150000000000e+00
45,0.000000000000e+00,9.964000000000e+00,0.000000000000e+00
46,0.000000000000e+00,1.003600000000e+01,2.000000000000e+00
47,-1.200000000000e+00,1.003000000000e+01,1.000000000000e+00
48,1.200000000000e+00,9.970000000000e+00,1.000000000000e+00
49,0.000000000000e+00,1.996400000000e+01,0.000000000000e+00
50,0.000000000000e+00,2.003600000000e+01,2.000000000000e+00
51,-1.200000000000e+00,2.003000000000e+01,1.000000000000e+00
52,1.200000000000e+00,1.997000000000e+01,1.000000000000e+00
53,0.000000000000e+00,2.996400000000e+01,0.000000000000e+00
54,0.000000000000e+00,3.003600000000e+01,2.000000000000e+00
55,-1.200000000000e+00,3.003000000000e+01,1.000000000000e+00
56,1.200000000000e+00,2.997000000000e+01,1.000000000000e+00
57,0.000000000000e+00,3.996400000000e+01,0.000000000000e+00
58,0.000000000000e+00,4.003600000000e+01,2.000000000000e+00
59,-1.200000000000e+00,4.003000000000e+01,1.000000000000e+00
60,1.200000000000e+00,3.997000000000e+01,1.000000000000e+00
61,0.000000000000e+00,4.996400000000e+01,0.000000000000e+00
62,0.000000000000e+00,5.003600000000e+01,2.000000000000e+00
63,-1.200000000000e+00,5.003000000000e+01,1.000000000000e+00
64,1.200000000000e+00,4.997000000000e+01,1.000000000000e+00
65,-1.200000000000e+00,5.030000000000e+00,8.500000000000e-01
66,-1.200000000000e+00,5.030000000000e+00,1.150000000000e+00
67,1.200000000000e+00,5.030000000000e+00,8.500000000000e-01
68,1.200000000000e+00,5.030000000000e+00,1.150000000000e+00
69,1.500000000000e-01,4.964000000000e+00,0.000000000000e+00
70,-1.500000000000e-01,4.964000000000e+00,0.000000000000e+00
71,1.500000000000e-01,4.964000000000e+00,2.000000000000e+00
72,-1.500000000000e-01,4.964000000000e+00,2.000000000000e+00
73,-1.200000000000e+00,1.503000000000e+01,8.500000000000e-01
74,-1.200000000000e+00,1.503000000000e+01,1.150000000000e+00
75,1.200000000000e+00,1.503000000000e+01,8.500000000000e-01
76,1.200000000000e+00,1.503000000000e+01,1.150000000000e+00
77,1.500000000000e-01,1.496400000000e+01,0.000000000000e+00
78,-1.500000000000e-01,1.496400000000e+01,0.000000000000e+00
79,1.500000000000e-01,1.496400000000e+01,2.000000000000e+00
80,-1.500000000000e-01,1.496400000000e+01,2.000000000000e+00
81,-1.200000000000e+00,2.503000000000e+01,8.500000000000e-01
82,-1.200000000000e+00,2.503000000000e+01,1.150000000000e+00
83,1.200000000000e+00,2.503000000000e+01,8.500000000000e-01
84,1.200000000000e+00,2.503000000000e+01,1.150000000000e+00
85,1.500000000000e-01,2.496400000000e+01,0.000000000000e+00
86,-1.500000000000e-01,2.496400000000e+01,0.000000000000e+00
87,1.500000000000e-01,2.496400000000e+01,2.000000000000e+00
88,-1.500000000000e-01,2.496400000000e+01,2.000000000000e+00
89,-1.200000000000e+00,3.503000000000e+01,8.500000000000e-01
90,-1.200000000000e+00,3.503000000000e+01,1.150000000000e+00
91,1.200000000000e+00,3.503000000000e+01,8.500000000000e-01
92,1.200000000000e+00,3.503000000000e+01,1.150000000000e+00
93,1.500000000000e-01,3.496400000000e+01,0.000000000000e+00
94,-1.500000000000e-01,3.496400000000e+01,0.000000000000e+00
95,1.500000000000e-01,3.496400000000e+01,2.000000000000e+00
96,-1.500000000000e-01,3.496400000000e+01,2.000000000000e+00
97,-1.200000000000e+00,4.503000000000e+01,8.500000000000e-01
98,-1.200000000000e+00,4.503000000000e+01,1.150000000000e+00
99,1.200000000000e+00,4.503000000000e+01,8.500000000000e-01
100,1.200000000000e+00,4.503000000000e+01,1.150000000000e+00
101,1.500000000000e-01,4.496400000000e+01,0.000000000000e+00
102,-1.500000000000e-01,4.496400000000e+01,0.000000000000e+00
103,1.500000000000e-01,4.496400000000e+01,2.000000000000e+00
104,-1.500000000000e-01,4.496400000000e+01,2.000000000000e+00
*ELEMENT,TYPE=B31,ELSET=ALL
1,1,25
2,25,5
3,2,26
4,26,6
5,3,27
6,27,7
7,4,28
8,28,8
9,5,29
10,29,9
11,6,30
12,30,10
13,7,31
14,31,11
15,8,32
16,32,12
17,9,33
18,33,13
19,10,34
20,34,14
21,11,35
22,35,15
23,12,36
24,36,16
25,13,37
26,37,17
27,14,38
28,38,18
29,15,39
30,39,19
31,16,40
32,40,20
33,17,41
34,41,21
35,18,42
36,42,22
37,19,43
38,43,23
39,20,44
40,44,24
41,1,2
42,3,4
43,1,3
44,2,4
45,5,45
46,45,6
47,7,46
48,46,8
49,5,47
50,47,7
51,6,48
52,48,8
53,9,49
54,49,10
55,11,50
56,50,12
57,9,51
58,51,11
59,10,52
60,52,12
61,13,53
62,53,14
63,15,54
64,54,16
65,13,55
66,55,15
67,14,56
68,56,16
69,17,57
70,57,18
71,19,58
72,58,20
73,17,59
74,59,19
75,18,60
76,60,20
77,21,61
78,61,22
79,23,62
80,62,24
81,21,63
82,63,23
83,22,64
84,64,24
85,1,65
86,65,7
87,3,66
88,66,5
89,2,67
90,67,8
91,4,68
92,68,6
93,1,69
94,69,6
95,2,70
96,70,5
97,3,71
98,71,8
99,4,72
100,72,7
101,5,73
102,73,11
103,7,74
104,74,9
105,6,75
106,75,12
107,8,76
108,76,10
109,5,77
110,77,10
111,6,78
112,78,9
113,7,79
114,79,12
115,8,80
116,80,11
117,9,81
118,81,15
119,11,82
120,82,13
121,10,83
122,83,16
123,12,84
124,84,14
125,9,85
126,85,14
127,10,86
128,86,13
129,11,87
130,87,16
131,12,88
132,88,15
133,13,89
134,89,19
135,15,90
136,90,17
137,14,91
138,91,20
139,16,92
140,92,18
141,13,93
142,93,18
143,14,94
144,94,17
145,15,95
146,95,20
147,16,96
148,96,19
149,17,97
150,97,23
151,19,98
152,98,21
153,18,99
154,99,24
155,20,100
156,100,22
157,17,101
158,101,22
159,18,102
160,102,21
161,19,103
162,103,24
163,20,104
164,104,23
*NSET,NSET=NALL,GENERATE
1,104,1
*NSET,NSET=LEFT
1,2,3,4
*NSET,NSET=RIGHT
21,22,23,24
*MATERIAL,NAME=STEEL
*ELASTIC
2.100000000000e+11,0.300000000000
*BEAM SECTION,ELSET=ALL,MATERIAL=STEEL,SECTION=RECT
6.000000000000e-02,4.000000000000e-02
0.371390676354,0.557086014531,0.742781352708
*BOUNDARY
LEFT,1,6,0.0
*STEP
*STATIC
*BOUNDARY
21,1,1,5.000000000000e-03
21,2,2,0.0
21,3,3,-6.000000000000e-03
*BOUNDARY
22,1,1,5.000000000000e-03
22,2,2,0.0
22,3,3,6.000000000000e-03
*BOUNDARY
23,1,1,-5.000000000000e-03
23,2,2,0.0
23,3,3,-6.000000000000e-03
*BOUNDARY
24,1,1,-5.000000000000e-03
24,2,2,0.0
24,3,3,6.000000000000e-03
*NODE FILE,NSET=NALL
U
*NODE PRINT,NSET=NALL
U
*NODE PRINT,NSET=RIGHT
RF
*EL PRINT,ELSET=ALL,TOTALS=YES
ELSE
*END STEP
