*HEADING
Normalized cross-passage space-truss torsion benchmark
*NODE
1,-1.200000000000e+00,0.000000000000e+00,0.000000000000e+00
2,1.200000000000e+00,0.000000000000e+00,0.000000000000e+00
3,-1.200000000000e+00,0.000000000000e+00,2.000000000000e+00
4,1.200000000000e+00,0.000000000000e+00,2.000000000000e+00
5,-1.200000000000e+00,1.000000000000e+01,0.000000000000e+00
6,1.200000000000e+00,1.000000000000e+01,0.000000000000e+00
7,-1.200000000000e+00,1.000000000000e+01,2.000000000000e+00
8,1.200000000000e+00,1.000000000000e+01,2.000000000000e+00
9,-1.200000000000e+00,2.000000000000e+01,0.000000000000e+00
10,1.200000000000e+00,2.000000000000e+01,0.000000000000e+00
11,-1.200000000000e+00,2.000000000000e+01,2.000000000000e+00
12,1.200000000000e+00,2.000000000000e+01,2.000000000000e+00
13,-1.200000000000e+00,3.000000000000e+01,0.000000000000e+00
14,1.200000000000e+00,3.000000000000e+01,0.000000000000e+00
15,-1.200000000000e+00,3.000000000000e+01,2.000000000000e+00
16,1.200000000000e+00,3.000000000000e+01,2.000000000000e+00
17,-1.200000000000e+00,4.000000000000e+01,0.000000000000e+00
18,1.200000000000e+00,4.000000000000e+01,0.000000000000e+00
19,-1.200000000000e+00,4.000000000000e+01,2.000000000000e+00
20,1.200000000000e+00,4.000000000000e+01,2.000000000000e+00
21,-1.200000000000e+00,5.000000000000e+01,0.000000000000e+00
22,1.200000000000e+00,5.000000000000e+01,0.000000000000e+00
23,-1.200000000000e+00,5.000000000000e+01,2.000000000000e+00
24,1.200000000000e+00,5.000000000000e+01,2.000000000000e+00
25,-1.200000000000e+00,5.000000000000e+00,-1.500000000000e-01
26,1.200000000000e+00,5.000000000000e+00,1.500000000000e-01
27,-1.200000000000e+00,5.000000000000e+00,1.850000000000e+00
28,1.200000000000e+00,5.000000000000e+00,2.150000000000e+00
29,-1.200000000000e+00,1.250000000000e+01,-1.060660171780e-01
30,-1.200000000000e+00,1.500000000000e+01,-1.500000000000e-01
31,-1.200000000000e+00,1.750000000000e+01,-1.060660171780e-01
32,1.200000000000e+00,1.250000000000e+01,1.060660171780e-01
33,1.200000000000e+00,1.500000000000e+01,1.500000000000e-01
34,1.200000000000e+00,1.750000000000e+01,1.060660171780e-01
35,-1.200000000000e+00,1.250000000000e+01,1.893933982822e+00
36,-1.200000000000e+00,1.500000000000e+01,1.850000000000e+00
37,-1.200000000000e+00,1.750000000000e+01,1.893933982822e+00
38,1.200000000000e+00,1.250000000000e+01,2.106066017178e+00
39,1.200000000000e+00,1.500000000000e+01,2.150000000000e+00
40,1.200000000000e+00,1.750000000000e+01,2.106066017178e+00
41,-1.200000000000e+00,2.250000000000e+01,-1.060660171780e-01
42,-1.200000000000e+00,2.500000000000e+01,-1.500000000000e-01
43,-1.200000000000e+00,2.750000000000e+01,-1.060660171780e-01
44,1.200000000000e+00,2.250000000000e+01,1.060660171780e-01
45,1.200000000000e+00,2.500000000000e+01,1.500000000000e-01
46,1.200000000000e+00,2.750000000000e+01,1.060660171780e-01
47,-1.200000000000e+00,2.250000000000e+01,1.893933982822e+00
48,-1.200000000000e+00,2.500000000000e+01,1.850000000000e+00
49,-1.200000000000e+00,2.750000000000e+01,1.893933982822e+00
50,1.200000000000e+00,2.250000000000e+01,2.106066017178e+00
51,1.200000000000e+00,2.500000000000e+01,2.150000000000e+00
52,1.200000000000e+00,2.750000000000e+01,2.106066017178e+00
53,-1.200000000000e+00,4.500000000000e+01,-1.500000000000e-01
54,1.200000000000e+00,4.500000000000e+01,1.500000000000e-01
55,-1.200000000000e+00,4.500000000000e+01,1.850000000000e+00
56,1.200000000000e+00,4.500000000000e+01,2.150000000000e+00
57,0.000000000000e+00,-3.600000000000e-02,0.000000000000e+00
58,0.000000000000e+00,3.600000000000e-02,2.000000000000e+00
59,-1.200000000000e+00,3.000000000000e-02,1.000000000000e+00
60,1.200000000000e+00,-3.000000000000e-02,1.000000000000e+00
61,-6.000000000000e-01,9.974544155877e+00,0.000000000000e+00
62,0.000000000000e+00,9.964000000000e+00,0.000000000000e+00
63,6.000000000000e-01,9.974544155877e+00,0.000000000000e+00
64,-6.000000000000e-01,1.002545584412e+01,2.000000000000e+00
65,0.000000000000e+00,1.003600000000e+01,2.000000000000e+00
66,6.000000000000e-01,1.002545584412e+01,2.000000000000e+00
67,-1.200000000000e+00,1.002121320344e+01,5.000000000000e-01
68,-1.200000000000e+00,1.003000000000e+01,1.000000000000e+00
69,-1.200000000000e+00,1.002121320344e+01,1.500000000000e+00
70,1.200000000000e+00,9.978786796564e+00,5.000000000000e-01
71,1.200000000000e+00,9.970000000000e+00,1.000000000000e+00
72,1.200000000000e+00,9.978786796564e+00,1.500000000000e+00
73,0.000000000000e+00,1.996400000000e+01,0.000000000000e+00
74,0.000000000000e+00,2.003600000000e+01,2.000000000000e+00
75,-1.200000000000e+00,2.003000000000e+01,1.000000000000e+00
76,1.200000000000e+00,1.997000000000e+01,1.000000000000e+00
77,-9.000000000000e-01,3.998622339643e+01,0.000000000000e+00
78,-6.000000000000e-01,3.997454415588e+01,0.000000000000e+00
79,-3.000000000000e-01,3.996674033683e+01,0.000000000000e+00
80,0.000000000000e+00,3.996400000000e+01,0.000000000000e+00
81,3.000000000000e-01,3.996674033683e+01,0.000000000000e+00
82,6.000000000000e-01,3.997454415588e+01,0.000000000000e+00
83,9.000000000000e-01,3.998622339643e+01,0.000000000000e+00
84,-9.000000000000e-01,4.001377660357e+01,2.000000000000e+00
85,-6.000000000000e-01,4.002545584412e+01,2.000000000000e+00
86,-3.000000000000e-01,4.003325966317e+01,2.000000000000e+00
87,0.000000000000e+00,4.003600000000e+01,2.000000000000e+00
88,3.000000000000e-01,4.003325966317e+01,2.000000000000e+00
89,6.000000000000e-01,4.002545584412e+01,2.000000000000e+00
90,9.000000000000e-01,4.001377660357e+01,2.000000000000e+00
91,-1.200000000000e+00,4.001148050297e+01,2.500000000000e-01
92,-1.200000000000e+00,4.002121320344e+01,5.000000000000e-01
93,-1.200000000000e+00,4.002771638598e+01,7.500000000000e-01
94,-1.200000000000e+00,4.003000000000e+01,1.000000000000e+00
95,-1.200000000000e+00,4.002771638598e+01,1.250000000000e+00
96,-1.200000000000e+00,4.002121320344e+01,1.500000000000e+00
97,-1.200000000000e+00,4.001148050297e+01,1.750000000000e+00
98,1.200000000000e+00,3.998851949703e+01,2.500000000000e-01
99,1.200000000000e+00,3.997878679656e+01,5.000000000000e-01
100,1.200000000000e+00,3.997228361402e+01,7.500000000000e-01
101,1.200000000000e+00,3.997000000000e+01,1.000000000000e+00
102,1.200000000000e+00,3.997228361402e+01,1.250000000000e+00
103,1.200000000000e+00,3.997878679656e+01,1.500000000000e+00
104,1.200000000000e+00,3.998851949703e+01,1.750000000000e+00
105,0.000000000000e+00,4.996400000000e+01,0.000000000000e+00
106,0.000000000000e+00,5.003600000000e+01,2.000000000000e+00
107,-1.200000000000e+00,5.003000000000e+01,1.000000000000e+00
108,1.200000000000e+00,4.997000000000e+01,1.000000000000e+00
109,-1.200000000000e+00,2.521213203436e+00,3.939339828220e-01
110,-1.200000000000e+00,5.030000000000e+00,8.500000000000e-01
111,-1.200000000000e+00,7.521213203436e+00,1.393933982822e+00
112,-1.200000000000e+00,2.521213203436e+00,1.606066017178e+00
113,-1.200000000000e+00,5.030000000000e+00,1.150000000000e+00
114,-1.200000000000e+00,7.521213203436e+00,6.060660171780e-01
115,1.200000000000e+00,2.521213203436e+00,3.939339828220e-01
116,1.200000000000e+00,5.030000000000e+00,8.500000000000e-01
117,1.200000000000e+00,7.521213203436e+00,1.393933982822e+00
118,1.200000000000e+00,2.521213203436e+00,1.606066017178e+00
119,1.200000000000e+00,5.030000000000e+00,1.150000000000e+00
120,1.200000000000e+00,7.521213203436e+00,6.060660171780e-01
121,-4.939339828220e-01,2.474544155877e+00,0.000000000000e+00
122,1.500000000000e-01,4.964000000000e+00,0.000000000000e+00
123,7.060660171780e-01,7.474544155877e+00,0.000000000000e+00
124,4.939339828220e-01,2.474544155877e+00,0.000000000000e+00
125,-1.500000000000e-01,4.964000000000e+00,0.000000000000e+00
126,-7.060660171780e-01,7.474544155877e+00,0.000000000000e+00
127,-4.939339828220e-01,2.474544155877e+00,2.000000000000e+00
128,1.500000000000e-01,4.964000000000e+00,2.000000000000e+00
129,7.060660171780e-01,7.474544155877e+00,2.000000000000e+00
130,4.939339828220e-01,2.474544155877e+00,2.000000000000e+00
131,-1.500000000000e-01,4.964000000000e+00,2.000000000000e+00
132,-7.060660171780e-01,7.474544155877e+00,2.000000000000e+00
133,-1.200000000000e+00,1.252121320344e+01,3.939339828220e-01
134,-1.200000000000e+00,1.503000000000e+01,8.500000000000e-01
135,-1.200000000000e+00,1.752121320344e+01,1.393933982822e+00
136,-1.200000000000e+00,1.252121320344e+01,1.606066017178e+00
137,-1.200000000000e+00,1.503000000000e+01,1.150000000000e+00
138,-1.200000000000e+00,1.752121320344e+01,6.060660171780e-01
139,1.200000000000e+00,1.252121320344e+01,3.939339828220e-01
140,1.200000000000e+00,1.503000000000e+01,8.500000000000e-01
141,1.200000000000e+00,1.752121320344e+01,1.393933982822e+00
142,1.200000000000e+00,1.252121320344e+01,1.606066017178e+00
143,1.200000000000e+00,1.503000000000e+01,1.150000000000e+00
144,1.200000000000e+00,1.752121320344e+01,6.060660171780e-01
145,-4.939339828220e-01,1.247454415588e+01,0.000000000000e+00
146,1.500000000000e-01,1.496400000000e+01,0.000000000000e+00
147,7.060660171780e-01,1.747454415588e+01,0.000000000000e+00
148,4.939339828220e-01,1.247454415588e+01,0.000000000000e+00
149,-1.500000000000e-01,1.496400000000e+01,0.000000000000e+00
150,-7.060660171780e-01,1.747454415588e+01,0.000000000000e+00
151,-4.939339828220e-01,1.247454415588e+01,2.000000000000e+00
152,1.500000000000e-01,1.496400000000e+01,2.000000000000e+00
153,7.060660171780e-01,1.747454415588e+01,2.000000000000e+00
154,4.939339828220e-01,1.247454415588e+01,2.000000000000e+00
155,-1.500000000000e-01,1.496400000000e+01,2.000000000000e+00
156,-7.060660171780e-01,1.747454415588e+01,2.000000000000e+00
157,-1.200000000000e+00,2.252121320344e+01,3.939339828220e-01
158,-1.200000000000e+00,2.503000000000e+01,8.500000000000e-01
159,-1.200000000000e+00,2.752121320344e+01,1.393933982822e+00
160,-1.200000000000e+00,2.252121320344e+01,1.606066017178e+00
161,-1.200000000000e+00,2.503000000000e+01,1.150000000000e+00
162,-1.200000000000e+00,2.752121320344e+01,6.060660171780e-01
163,1.200000000000e+00,2.252121320344e+01,3.939339828220e-01
164,1.200000000000e+00,2.503000000000e+01,8.500000000000e-01
165,1.200000000000e+00,2.752121320344e+01,1.393933982822e+00
166,1.200000000000e+00,2.252121320344e+01,1.606066017178e+00
167,1.200000000000e+00,2.503000000000e+01,1.150000000000e+00
168,1.200000000000e+00,2.752121320344e+01,6.060660171780e-01
169,-4.939339828220e-01,2.247454415588e+01,0.000000000000e+00
170,1.500000000000e-01,2.496400000000e+01,0.000000000000e+00
171,7.060660171780e-01,2.747454415588e+01,0.000000000000e+00
172,4.939339828220e-01,2.247454415588e+01,0.000000000000e+00
173,-1.500000000000e-01,2.496400000000e+01,0.000000000000e+00
174,-7.060660171780e-01,2.747454415588e+01,0.000000000000e+00
175,-4.939339828220e-01,2.247454415588e+01,2.000000000000e+00
176,1.500000000000e-01,2.496400000000e+01,2.000000000000e+00
177,7.060660171780e-01,2.747454415588e+01,2.000000000000e+00
178,4.939339828220e-01,2.247454415588e+01,2.000000000000e+00
179,-1.500000000000e-01,2.496400000000e+01,2.000000000000e+00
180,-7.060660171780e-01,2.747454415588e+01,2.000000000000e+00
181,-1.200000000000e+00,3.503000000000e+01,8.500000000000e-01
182,-1.200000000000e+00,3.503000000000e+01,1.150000000000e+00
183,1.200000000000e+00,3.503000000000e+01,8.500000000000e-01
184,1.200000000000e+00,3.503000000000e+01,1.150000000000e+00
185,1.500000000000e-01,3.496400000000e+01,0.000000000000e+00
186,-1.500000000000e-01,3.496400000000e+01,0.000000000000e+00
187,1.500000000000e-01,3.496400000000e+01,2.000000000000e+00
188,-1.500000000000e-01,3.496400000000e+01,2.000000000000e+00
189,-1.200000000000e+00,4.503000000000e+01,8.500000000000e-01
190,-1.200000000000e+00,4.503000000000e+01,1.150000000000e+00
191,1.200000000000e+00,4.503000000000e+01,8.500000000000e-01
192,1.200000000000e+00,4.503000000000e+01,1.150000000000e+00
193,1.500000000000e-01,4.496400000000e+01,0.000000000000e+00
194,-1.500000000000e-01,4.496400000000e+01,0.000000000000e+00
195,1.500000000000e-01,4.496400000000e+01,2.000000000000e+00
196,-1.500000000000e-01,4.496400000000e+01,2.000000000000e+00
*ELEMENT,TYPE=B31,ELSET=ALL
1,1,25
2,25,5
3,2,26
4,26,6
5,3,27
6,27,7
7,4,28
8,28,8
9,5,29
10,29,30
11,30,31
12,31,9
13,6,32
14,32,33
15,33,34
16,34,10
17,7,35
18,35,36
19,36,37
20,37,11
21,8,38
22,38,39
23,39,40
24,40,12
25,9,41
26,41,42
27,42,43
28,43,13
29,10,44
30,44,45
31,45,46
32,46,14
33,11,47
34,47,48
35,48,49
36,49,15
37,12,50
38,50,51
39,51,52
40,52,16
41,13,17
42,14,18
43,15,19
44,16,20
45,17,53
46,53,21
47,18,54
48,54,22
49,19,55
50,55,23
51,20,56
52,56,24
53,1,57
54,57,2
55,3,58
56,58,4
57,1,59
58,59,3
59,2,60
60,60,4
61,5,61
62,61,62
63,62,63
64,63,6
65,7,64
66,64,65
67,65,66
68,66,8
69,5,67
70,67,68
71,68,69
72,69,7
73,6,70
74,70,71
75,71,72
76,72,8
77,9,73
78,73,10
79,11,74
80,74,12
81,9,75
82,75,11
83,10,76
84,76,12
85,13,14
86,15,16
87,13,15
88,14,16
89,17,77
90,77,78
91,78,79
92,79,80
93,80,81
94,81,82
95,82,83
96,83,18
97,19,84
98,84,85
99,85,86
100,86,87
101,87,88
102,88,89
103,89,90
104,90,20
105,17,91
106,91,92
107,92,93
108,93,94
109,94,95
110,95,96
111,96,97
112,97,19
113,18,98
114,98,99
115,99,100
116,100,101
117,101,102
118,102,103
119,103,104
120,104,20
121,21,105
122,105,22
123,23,106
124,106,24
125,21,107
126,107,23
127,22,108
128,108,24
129,1,109
130,109,110
131,110,111
132,111,7
133,3,112
134,112,113
135,113,114
136,114,5
137,2,115
138,115,116
139,116,117
140,117,8
141,4,118
142,118,119
143,119,120
144,120,6
145,1,121
146,121,122
147,122,123
148,123,6
149,2,124
150,124,125
151,125,126
152,126,5
153,3,127
154,127,128
155,128,129
156,129,8
157,4,130
158,130,131
159,131,132
160,132,7
161,5,133
162,133,134
163,134,135
164,135,11
165,7,136
166,136,137
167,137,138
168,138,9
169,6,139
170,139,140
171,140,141
172,141,12
173,8,142
174,142,143
175,143,144
176,144,10
177,5,145
178,145,146
179,146,147
180,147,10
181,6,148
182,148,149
183,149,150
184,150,9
185,7,151
186,151,152
187,152,153
188,153,12
189,8,154
190,154,155
191,155,156
192,156,11
193,9,157
194,157,158
195,158,159
196,159,15
197,11,160
198,160,161
199,161,162
200,162,13
201,10,163
202,163,164
203,164,165
204,165,16
205,12,166
206,166,167
207,167,168
208,168,14
209,9,169
210,169,170
211,170,171
212,171,14
213,10,172
214,172,173
215,173,174
216,174,13
217,11,175
218,175,176
219,176,177
220,177,16
221,12,178
222,178,179
223,179,180
224,180,15
225,13,181
226,181,19
227,15,182
228,182,17
229,14,183
230,183,20
231,16,184
232,184,18
233,13,185
234,185,18
235,14,186
236,186,17
237,15,187
238,187,20
239,16,188
240,188,19
241,17,189
242,189,23
243,19,190
244,190,21
245,18,191
246,191,24
247,20,192
248,192,22
249,17,193
250,193,22
251,18,194
252,194,21
253,19,195
254,195,24
255,20,196
256,196,23
*NSET,NSET=NALL,GENERATE
1,196,1
*NSET,NSET=LEFT
1,2,3,4
*NSET,NSET=RIGHT
21,22,23,24
*MATERIAL,NAME=STEEL
*ELASTIC
2.100000000000e+11,0.300000000000
*BEAM SECTION,ELSET=ALL,MATERIAL=STEEL,SECTION=RECT
6.000000000000e-02,4.000000000000e-02
0.371390676354,0.557086014531,0.742781352708
*BOUNDARY
LEFT,1,6,0.0
*STEP
*STATIC
*BOUNDARY
21,1,1,5.000000000000e-03
21,2,2,0.0
21,3,3,-6.000000000000e-03
*BOUNDARY
22,1,1,5.000000000000e-03
22,2,2,0.0
22,3,3,6.000000000000e-03
*BOUNDARY
23,1,1,-5.000000000000e-03
23,2,2,0.0
23,3,3,-6.000000000000e-03
*BOUNDARY
24,1,1,-5.000000000000e-03
24,2,2,0.0
24,3,3,6.000000000000e-03
*NODE FILE,NSET=NALL
U
*NODE PRINT,NSET=NALL
U
*NODE PRINT,NSET=RIGHT
RF
*EL PRINT,ELSET=ALL,TOTALS=YES
ELSE
*END STEP
