*HEADING
Normalized cross-passage space-truss torsion benchmark
*NODE
1,-1.200000000000e+00,0.000000000000e+00,0.000000000000e+00
2,1.200000000000e+00,0.000000000000e+00,0.000000000000e+00
3,-1.200000000000e+00,0.000000000000e+00,2.000000000000e+00
4,1.200000000000e+00,0.000000000000e+00,2.000000000000e+00
5,-1.200000000000e+00,1.000000000000e+01,0.000000000000e+00
6,1.200000000000e+00,1.000000000000e+01,0.000000000000e+00
7,-1.200000000000e+00,1.000000000000e+01,2.000000000000e+00
8,1.200000000000e+00,1.000000000000e+01,2.000000000000e+00
9,-1.200000000000e+00,2.000000000000e+01,0.000000000000e+00
10,1.200000000000e+00,2.000000000000e+01,0.000000000000e+00
11,-1.200000000000e+00,2.000000000000e+01,2.000000000000e+00
12,1.200000000000e+00,2.000000000000e+01,2.000000000000e+00
13,-1.200000000000e+00,3.000000000000e+01,0.000000000000e+00
14,1.200000000000e+00,3.000000000000e+01,0.000000000000e+00
15,-1.200000000000e+00,3.000000000000e+01,2.000000000000e+00
16,1.200000000000e+00,3.000000000000e+01,2.000000000000e+00
17,-1.200000000000e+00,4.000000000000e+01,0.000000000000e+00
18,1.200000000000e+00,4.000000000000e+01,0.000000000000e+00
19,-1.200000000000e+00,4.000000000000e+01,2.000000000000e+00
20,1.200000000000e+00,4.000000000000e+01,2.000000000000e+00
21,-1.200000000000e+00,5.000000000000e+01,0.000000000000e+00
22,1.200000000000e+00,5.000000000000e+01,0.000000000000e+00
23,-1.200000000000e+00,5.000000000000e+01,2.000000000000e+00
24,1.200000000000e+00,5.000000000000e+01,2.000000000000e+00
25,-1.200000000000e+00,5.000000000000e+00,-1.500000000000e-01
26,1.200000000000e+00,5.000000000000e+00,1.500000000000e-01
27,-1.200000000000e+00,5.000000000000e+00,1.850000000000e+00
28,1.200000000000e+00,5.000000000000e+00,2.150000000000e+00
29,-1.200000000000e+00,1.250000000000e+01,-1.060660171780e-01
30,-1.200000000000e+00,1.500000000000e+01,-1.500000000000e-01
31,-1.200000000000e+00,1.750000000000e+01,-1.060660171780e-01
32,1.200000000000e+00,1.250000000000e+01,1.060660171780e-01
33,1.200000000000e+00,1.500000000000e+01,1.500000000000e-01
34,1.200000000000e+00,1.750000000000e+01,1.060660171780e-01
35,-1.200000000000e+00,1.250000000000e+01,1.893933982822e+00
36,-1.200000000000e+00,1.500000000000e+01,1.850000000000e+00
37,-1.200000000000e+00,1.750000000000e+01,1.893933982822e+00
38,1.200000000000e+00,1.250000000000e+01,2.106066017178e+00
39,1.200000000000e+00,1.500000000000e+01,2.150000000000e+00
40,1.200000000000e+00,1.750000000000e+01,2.106066017178e+00
41,-1.200000000000e+00,2.250000000000e+01,-1.060660171780e-01
42,-1.200000000000e+00,2.500000000000e+01,-1.500000000000e-01
43,-1.200000000000e+00,2.750000000000e+01,-1.060660171780e-01
44,1.200000000000e+00,2.250000000000e+01,1.060660171780e-01
45,1.200000000000e+00,2.500000000000e+01,1.500000000000e-01
46,1.200000000000e+00,2.750000000000e+01,1.060660171780e-01
47,-1.200000000000e+00,2.250000000000e+01,1.893933982822e+00
48,-1.200000000000e+00,2.500000000000e+01,1.850000000000e+00
49,-1.200000000000e+00,2.750000000000e+01,1.893933982822e+00
50,1.200000000000e+00,2.250000000000e+01,2.106066017178e+00
51,1.200000000000e+00,2.500000000000e+01,2.150000000000e+00
52,1.200000000000e+00,2.750000000000e+01,2.106066017178e+00
53,-1.200000000000e+00,3.125000000000e+01,-5.740251485476e-02
54,-1.200000000000e+00,3.250000000000e+01,-1.060660171780e-01
55,-1.200000000000e+00,3.375000000000e+01,-1.385819298767e-01
56,-1.200000000000e+00,3.500000000000e+01,-1.500000000000e-01
57,-1.200000000000e+00,3.625000000000e+01,-1.385819298767e-01
58,-1.200000000000e+00,3.750000000000e+01,-1.060660171780e-01
59,-1.200000000000e+00,3.875000000000e+01,-5.740251485476e-02
60,1.200000000000e+00,3.125000000000e+01,5.740251485476e-02
61,1.200000000000e+00,3.250000000000e+01,1.060660171780e-01
62,1.200000000000e+00,3.375000000000e+01,1.385819298767e-01
63,1.200000000000e+00,3.500000000000e+01,1.500000000000e-01
64,1.200000000000e+00,3.625000000000e+01,1.385819298767e-01
65,1.200000000000e+00,3.750000000000e+01,1.060660171780e-01
66,1.200000000000e+00,3.875000000000e+01,5.740251485476e-02
67,-1.200000000000e+00,3.125000000000e+01,1.942597485145e+00
68,-1.200000000000e+00,3.250000000000e+01,1.893933982822e+00
69,-1.200000000000e+00,3.375000000000e+01,1.861418070123e+00
70,-1.200000000000e+00,3.500000000000e+01,1.850000000000e+00
71,-1.200000000000e+00,3.625000000000e+01,1.861418070123e+00
72,-1.200000000000e+00,3.750000000000e+01,1.893933982822e+00
73,-1.200000000000e+00,3.875000000000e+01,1.942597485145e+00
74,1.200000000000e+00,3.125000000000e+01,2.057402514855e+00
75,1.200000000000e+00,3.250000000000e+01,2.106066017178e+00
76,1.200000000000e+00,3.375000000000e+01,2.138581929877e+00
77,1.200000000000e+00,3.500000000000e+01,2.150000000000e+00
78,1.200000000000e+00,3.625000000000e+01,2.138581929877e+00
79,1.200000000000e+00,3.750000000000e+01,2.106066017178e+00
80,1.200000000000e+00,3.875000000000e+01,2.057402514855e+00
81,-1.200000000000e+00,4.125000000000e+01,-5.740251485476e-02
82,-1.200000000000e+00,4.250000000000e+01,-1.060660171780e-01
83,-1.200000000000e+00,4.375000000000e+01,-1.385819298767e-01
84,-1.200000000000e+00,4.500000000000e+01,-1.500000000000e-01
85,-1.200000000000e+00,4.625000000000e+01,-1.385819298767e-01
86,-1.200000000000e+00,4.750000000000e+01,-1.060660171780e-01
87,-1.200000000000e+00,4.875000000000e+01,-5.740251485476e-02
88,1.200000000000e+00,4.125000000000e+01,5.740251485476e-02
89,1.200000000000e+00,4.250000000000e+01,1.060660171780e-01
90,1.200000000000e+00,4.375000000000e+01,1.385819298767e-01
91,1.200000000000e+00,4.500000000000e+01,1.500000000000e-01
92,1.200000000000e+00,4.625000000000e+01,1.385819298767e-01
93,1.200000000000e+00,4.750000000000e+01,1.060660171780e-01
94,1.200000000000e+00,4.875000000000e+01,5.740251485476e-02
95,-1.200000000000e+00,4.125000000000e+01,1.942597485145e+00
96,-1.200000000000e+00,4.250000000000e+01,1.893933982822e+00
97,-1.200000000000e+00,4.375000000000e+01,1.861418070123e+00
98,-1.200000000000e+00,4.500000000000e+01,1.850000000000e+00
99,-1.200000000000e+00,4.625000000000e+01,1.861418070123e+00
100,-1.200000000000e+00,4.750000000000e+01,1.893933982822e+00
101,-1.200000000000e+00,4.875000000000e+01,1.942597485145e+00
102,1.200000000000e+00,4.125000000000e+01,2.057402514855e+00
103,1.200000000000e+00,4.250000000000e+01,2.106066017178e+00
104,1.200000000000e+00,4.375000000000e+01,2.138581929877e+00
105,1.200000000000e+00,4.500000000000e+01,2.150000000000e+00
106,1.200000000000e+00,4.625000000000e+01,2.138581929877e+00
107,1.200000000000e+00,4.750000000000e+01,2.106066017178e+00
108,1.200000000000e+00,4.875000000000e+01,2.057402514855e+00
109,-6.000000000000e-01,-2.545584412272e-02,0.000000000000e+00
110,0.000000000000e+00,-3.600000000000e-02,0.000000000000e+00
111,6.000000000000e-01,-2.545584412272e-02,0.000000000000e+00
112,-6.000000000000e-01,2.545584412272e-02,2.000000000000e+00
113,0.000000000000e+00,3.600000000000e-02,2.000000000000e+00
114,6.000000000000e-01,2.545584412272e-02,2.000000000000e+00
115,-1.200000000000e+00,2.121320343560e-02,5.000000000000e-01
116,-1.200000000000e+00,3.000000000000e-02,1.000000000000e+00
117,-1.200000000000e+00,2.121320343560e-02,1.500000000000e+00
118,1.200000000000e+00,-2.121320343560e-02,5.000000000000e-01
119,1.200000000000e+00,-3.000000000000e-02,1.000000000000e+00
120,1.200000000000e+00,-2.121320343560e-02,1.500000000000e+00
121,-9.000000000000e-01,9.986223396435e+00,0.000000000000e+00
122,-6.000000000000e-01,9.974544155877e+00,0.000000000000e+00
123,-3.000000000000e-01,9.966740336830e+00,0.000000000000e+00
124,0.000000000000e+00,9.964000000000e+00,0.000000000000e+00
125,3.000000000000e-01,9.966740336830e+00,0.000000000000e+00
126,6.000000000000e-01,9.974544155877e+00,0.000000000000e+00
127,9.000000000000e-01,9.986223396435e+00,0.000000000000e+00
128,-9.000000000000e-01,1.001377660357e+01,2.000000000000e+00
129,-6.000000000000e-01,1.002545584412e+01,2.000000000000e+00
130,-3.000000000000e-01,1.003325966317e+01,2.000000000000e+00
131,0.000000000000e+00,1.003600000000e+01,2.000000000000e+00
132,3.000000000000e-01,1.003325966317e+01,2.000000000000e+00
133,6.000000000000e-01,1.002545584412e+01,2.000000000000e+00
134,9.000000000000e-01,1.001377660357e+01,2.000000000000e+00
135,-1.200000000000e+00,1.001148050297e+01,2.500000000000e-01
136,-1.200000000000e+00,1.002121320344e+01,5.000000000000e-01
137,-1.200000000000e+00,1.002771638598e+01,7.500000000000e-01
138,-1.200000000000e+00,1.003000000000e+01,1.000000000000e+00
139,-1.200000000000e+00,1.002771638598e+01,1.250000000000e+00
140,-1.200000000000e+00,1.002121320344e+01,1.500000000000e+00
141,-1.200000000000e+00,1.001148050297e+01,1.750000000000e+00
142,1.200000000000e+00,9.988519497029e+00,2.500000000000e-01
143,1.200000000000e+00,9.978786796564e+00,5.000000000000e-01
144,1.200000000000e+00,9.972283614025e+00,7.500000000000e-01
145,1.200000000000e+00,9.970000000000e+00,1.000000000000e+00
146,1.200000000000e+00,9.972283614025e+00,1.250000000000e+00
147,1.200000000000e+00,9.978786796564e+00,1.500000000000e+00
148,1.200000000000e+00,9.988519497029e+00,1.750000000000e+00
149,0.000000000000e+00,1.996400000000e+01,0.000000000000e+00
150,0.000000000000e+00,2.003600000000e+01,2.000000000000e+00
151,-1.200000000000e+00,2.003000000000e+01,1.000000000000e+00
152,1.200000000000e+00,1.997000000000e+01,1.000000000000e+00
153,0.000000000000e+00,2.996400000000e+01,0.000000000000e+00
154,0.000000000000e+00,3.003600000000e+01,2.000000000000e+00
155,-1.200000000000e+00,3.003000000000e+01,1.000000000000e+00
156,1.200000000000e+00,2.997000000000e+01,1.000000000000e+00
157,0.000000000000e+00,3.996400000000e+01,0.000000000000e+00
158,0.000000000000e+00,4.003600000000e+01,2.000000000000e+00
159,-1.200000000000e+00,4.003000000000e+01,1.000000000000e+00
160,1.200000000000e+00,3.997000000000e+01,1.000000000000e+00
161,-6.000000000000e-01,4.997454415588e+01,0.000000000000e+00
162,0.000000000000e+00,4.996400000000e+01,0.000000000000e+00
163,6.000000000000e-01,4.997454415588e+01,0.000000000000e+00
164,-6.000000000000e-01,5.002545584412e+01,2.000000000000e+00
165,0.000000000000e+00,5.003600000000e+01,2.000000000000e+00
166,6.000000000000e-01,5.002545584412e+01,2.000000000000e+00
167,-1.200000000000e+00,5.002121320344e+01,5.000000000000e-01
168,-1.200000000000e+00,5.003000000000e+01,1.000000000000e+00
169,-1.200000000000e+00,5.002121320344e+01,1.500000000000e+00
170,1.200000000000e+00,4.997878679656e+01,5.000000000000e-01
171,1.200000000000e+00,4.997000000000e+01,1.000000000000e+00
172,1.200000000000e+00,4.997878679656e+01,1.500000000000e+00
173,-1.200000000000e+00,2.521213203436e+00,3.939339828220e-01
174,-1.200000000000e+00,5.030000000000e+00,8.500000000000e-01
175,-1.200000000000e+00,7.521213203436e+00,1.393933982822e+00
176,-1.200000000000e+00,2.521213203436e+00,1.606066017178e+00
177,-1.200000000000e+00,5.030000000000e+00,1.150000000000e+00
178,-1.200000000000e+00,7.521213203436e+00,6.060660171780e-01
179,1.200000000000e+00,2.521213203436e+00,3.939339828220e-01
180,1.200000000000e+00,5.030000000000e+00,8.500000000000e-01
181,1.200000000000e+00,7.521213203436e+00,1.393933982822e+00
182,1.200000000000e+00,2.521213203436e+00,1.606066017178e+00
183,1.200000000000e+00,5.030000000000e+00,1.150000000000e+00
184,1.200000000000e+00,7.521213203436e+00,6.060660171780e-01
185,-4.939339828220e-01,2.474544155877e+00,0.000000000000e+00
186,1.500000000000e-01,4.964000000000e+00,0.000000000000e+00
187,7.060660171780e-01,7.474544155877e+00,0.000000000000e+00
188,4.939339828220e-01,2.474544155877e+00,0.000000000000e+00
189,-1.500000000000e-01,4.964000000000e+00,0.000000000000e+00
190,-7.060660171780e-01,7.474544155877e+00,0.000000000000e+00
191,-4.939339828220e-01,2.474544155877e+00,2.000000000000e+00
192,1.500000000000e-01,4.964000000000e+00,2.000000000000e+00
193,7.060660171780e-01,7.474544155877e+00,2.000000000000e+00
194,4.939339828220e-01,2.474544155877e+00,2.000000000000e+00
195,-1.500000000000e-01,4.964000000000e+00,2.000000000000e+00
196,-7.060660171780e-01,7.474544155877e+00,2.000000000000e+00
197,-1.200000000000e+00,1.503000000000e+01,8.500000000000e-01
198,-1.200000000000e+00,1.503000000000e+01,1.150000000000e+00
199,1.200000000000e+00,1.503000000000e+01,8.500000000000e-01
200,1.200000000000e+00,1.503000000000e+01,1.150000000000e+00
201,1.500000000000e-01,1.496400000000e+01,0.000000000000e+00
202,-1.500000000000e-01,1.496400000000e+01,0.000000000000e+00
203,1.500000000000e-01,1.496400000000e+01,2.000000000000e+00
204,-1.500000000000e-01,1.496400000000e+01,2.000000000000e+00
205,-1.200000000000e+00,2.503000000000e+01,8.500000000000e-01
206,-1.200000000000e+00,2.503000000000e+01,1.150000000000e+00
207,1.200000000000e+00,2.503000000000e+01,8.500000000000e-01
208,1.200000000000e+00,2.503000000000e+01,1.150000000000e+00
209,1.500000000000e-01,2.496400000000e+01,0.000000000000e+00
210,-1.500000000000e-01,2.496400000000e+01,0.000000000000e+00
211,1.500000000000e-01,2.496400000000e+01,2.000000000000e+00
212,-1.500000000000e-01,2.496400000000e+01,2.000000000000e+00
213,-1.200000000000e+00,3.126148050297e+01,1.925974851452e-01
214,-1.200000000000e+00,3.252121320344e+01,3.939339828220e-01
215,-1.200000000000e+00,3.377771638598e+01,6.114180701233e-01
216,-1.200000000000e+00,3.503000000000e+01,8.500000000000e-01
217,-1.200000000000e+00,3.627771638598e+01,1.111418070123e+00
218,-1.200000000000e+00,3.752121320344e+01,1.393933982822e+00
219,-1.200000000000e+00,3.876148050297e+01,1.692597485145e+00
220,-1.200000000000e+00,3.126148050297e+01,1.807402514855e+00
221,-1.200000000000e+00,3.252121320344e+01,1.606066017178e+00
222,-1.200000000000e+00,3.377771638598e+01,1.388581929877e+00
223,-1.200000000000e+00,3.503000000000e+01,1.150000000000e+00
224,-1.200000000000e+00,3.627771638598e+01,8.885819298767e-01
225,-1.200000000000e+00,3.752121320344e+01,6.060660171780e-01
226,-1.200000000000e+00,3.876148050297e+01,3.074025148548e-01
227,1.200000000000e+00,3.126148050297e+01,1.925974851452e-01
228,1.200000000000e+00,3.252121320344e+01,3.939339828220e-01
229,1.200000000000e+00,3.377771638598e+01,6.114180701233e-01
230,1.200000000000e+00,3.503000000000e+01,8.500000000000e-01
231,1.200000000000e+00,3.627771638598e+01,1.111418070123e+00
232,1.200000000000e+00,3.752121320344e+01,1.393933982822e+00
233,1.200000000000e+00,3.876148050297e+01,1.692597485145e+00
234,1.200000000000e+00,3.126148050297e+01,1.807402514855e+00
235,1.200000000000e+00,3.252121320344e+01,1.606066017178e+00
236,1.200000000000e+00,3.377771638598e+01,1.388581929877e+00
237,1.200000000000e+00,3.503000000000e+01,1.150000000000e+00
238,1.200000000000e+00,3.627771638598e+01,8.885819298767e-01
239,1.200000000000e+00,3.752121320344e+01,6.060660171780e-01
240,1.200000000000e+00,3.876148050297e+01,3.074025148548e-01
241,-8.425974851452e-01,3.123622339643e+01,0.000000000000e+00
242,-4.939339828220e-01,3.247454415588e+01,0.000000000000e+00
243,-1.614180701233e-01,3.371674033683e+01,0.000000000000e+00
244,1.500000000000e-01,3.496400000000e+01,0.000000000000e+00
245,4.385819298767e-01,3.621674033683e+01,0.000000000000e+00
246,7.060660171780e-01,3.747454415588e+01,0.000000000000e+00
247,9.574025148548e-01,3.873622339643e+01,0.000000000000e+00
248,8.425974851452e-01,3.123622339643e+01,0.000000000000e+00
249,4.939339828220e-01,3.247454415588e+01,0.000000000000e+00
250,1.614180701233e-01,3.371674033683e+01,0.000000000000e+00
251,-1.500000000000e-01,3.496400000000e+01,0.000000000000e+00
252,-4.385819298767e-01,3.621674033683e+01,0.000000000000e+00
253,-7.060660171780e-01,3.747454415588e+01,0.000000000000e+00
254,-9.574025148548e-01,3.873622339643e+01,0.000000000000e+00
255,-8.425974851452e-01,3.123622339643e+01,2.000000000000e+00
256,-4.939339828220e-01,3.247454415588e+01,2.000000000000e+00
257,-1.614180701233e-01,3.371674033683e+01,2.000000000000e+00
258,1.500000000000e-01,3.496400000000e+01,2.000000000000e+00
259,4.385819298767e-01,3.621674033683e+01,2.000000000000e+00
260,7.060660171780e-01,3.747454415588e+01,2.000000000000e+00
261,9.574025148548e-01,3.873622339643e+01,2.000000000000e+00
262,8.425974851452e-01,3.123622339643e+01,2.000000000000e+00
263,4.939339828220e-01,3.247454415588e+01,2.000000000000e+00
264,1.614180701233e-01,3.371674033683e+01,2.000000000000e+00
265,-1.500000000000e-01,3.496400000000e+01,2.000000000000e+00
266,-4.385819298767e-01,3.621674033683e+01,2.000000000000e+00
267,-7.060660171780e-01,3.747454415588e+01,2.000000000000e+00
268,-9.574025148548e-01,3.873622339643e+01,2.000000000000e+00
269,-1.200000000000e+00,4.503000000000e+01,8.500000000000e-01
270,-1.200000000000e+00,4.503000000000e+01,1.150000000000e+00
271,1.200000000000e+00,4.503000000000e+01,8.500000000000e-01
272,1.200000000000e+00,4.503000000000e+01,1.150000000000e+00
273,1.500000000000e-01,4.496400000000e+01,0.000000000000e+00
274,-1.500000000000e-01,4.496400000000e+01,0.000000000000e+00
275,1.500000000000e-01,4.496400000000e+01,2.000000000000e+00
276,-1.500000000000e-01,4.496400000000e+01,2.000000000000e+00
*ELEMENT,TYPE=B31,ELSET=ALL
1,1,25
2,25,5
3,2,26
4,26,6
5,3,27
6,27,7
7,4,28
8,28,8
9,5,29
10,29,30
11,30,31
12,31,9
13,6,32
14,32,33
15,33,34
16,34,10
17,7,35
18,35,36
19,36,37
20,37,11
21,8,38
22,38,39
23,39,40
24,40,12
25,9,41
26,41,42
27,42,43
28,43,13
29,10,44
30,44,45
31,45,46
32,46,14
33,11,47
34,47,48
35,48,49
36,49,15
37,12,50
38,50,51
39,51,52
40,52,16
41,13,53
42,53,54
43,54,55
44,55,56
45,56,57
46,57,58
47,58,59
48,59,17
49,14,60
50,60,61
51,61,62
52,62,63
53,63,64
54,64,65
55,65,66
56,66,18
57,15,67
58,67,68
59,68,69
60,69,70
61,70,71
62,71,72
63,72,73
64,73,19
65,16,74
66,74,75
67,75,76
68,76,77
69,77,78
70,78,79
71,79,80
72,80,20
73,17,81
74,81,82
75,82,83
76,83,84
77,84,85
78,85,86
79,86,87
80,87,21
81,18,88
82,88,89
83,89,90
84,90,91
85,91,92
86,92,93
87,93,94
88,94,22
89,19,95
90,95,96
91,96,97
92,97,98
93,98,99
94,99,100
95,100,101
96,101,23
97,20,102
98,102,103
99,103,104
100,104,105
101,105,106
102,106,107
103,107,108
104,108,24
105,1,109
106,109,110
107,110,111
108,111,2
109,3,112
110,112,113
111,113,114
112,114,4
113,1,115
114,115,116
115,116,117
116,117,3
117,2,118
118,118,119
119,119,120
120,120,4
121,5,121
122,121,122
123,122,123
124,123,124
125,124,125
126,125,126
127,126,127
128,127,6
129,7,128
130,128,129
131,129,130
132,130,131
133,131,132
134,132,133
135,133,134
136,134,8
137,5,135
138,135,136
139,136,137
140,137,138
141,138,139
142,139,140
143,140,141
144,141,7
145,6,142
146,142,143
147,143,144
148,144,145
149,145,146
150,146,147
151,147,148
152,148,8
153,9,149
154,149,10
155,11,150
156,150,12
157,9,151
158,151,11
159,10,152
160,152,12
161,13,153
162,153,14
163,15,154
164,154,16
165,13,155
166,155,15
167,14,156
168,156,16
169,17,157
170,157,18
171,19,158
172,158,20
173,17,159
174,159,19
175,18,160
176,160,20
177,21,161
178,161,162
179,162,163
180,163,22
181,23,164
182,164,165
183,165,166
184,166,24
185,21,167
186,167,168
187,168,169
188,169,23
189,22,170
190,170,171
191,171,172
192,172,24
193,1,173
194,173,174
195,174,175
196,175,7
197,3,176
198,176,177
199,177,178
200,178,5
201,2,179
202,179,180
203,180,181
204,181,8
205,4,182
206,182,183
207,183,184
208,184,6
209,1,185
210,185,186
211,186,187
212,187,6
213,2,188
214,188,189
215,189,190
216,190,5
217,3,191
218,191,192
219,192,193
220,193,8
221,4,194
222,194,195
223,195,196
224,196,7
225,5,197
226,197,11
227,7,198
228,198,9
229,6,199
230,199,12
231,8,200
232,200,10
233,5,201
234,201,10
235,6,202
236,202,9
237,7,203
238,203,12
239,8,204
240,204,11
241,9,205
242,205,15
243,11,206
244,206,13
245,10,207
246,207,16
247,12,208
248,208,14
249,9,209
250,209,14
251,10,210
252,210,13
253,11,211
254,211,16
255,12,212
256,212,15
257,13,213
258,213,214
259,214,215
260,215,216
261,216,217
262,217,218
263,218,219
264,219,19
265,15,220
266,220,221
267,221,222
268,222,223
269,223,224
270,224,225
271,225,226
272,226,17
273,14,227
274,227,228
275,228,229
276,229,230
277,230,231
278,231,232
279,232,233
280,233,20
281,16,234
282,234,235
283,235,236
284,236,237
285,237,238
286,238,239
287,239,240
288,240,18
289,13,241
290,241,242
291,242,243
292,243,244
293,244,245
294,245,246
295,246,247
296,247,18
297,14,248
298,248,249
299,249,250
300,250,251
301,251,252
302,252,253
303,253,254
304,254,17
305,15,255
306,255,256
307,256,257
308,257,258
309,258,259
310,259,260
311,260,261
312,261,20
313,16,262
314,262,263
315,263,264
316,264,265
317,265,266
318,266,267
319,267,268
320,268,19
321,17,269
322,269,23
323,19,270
324,270,21
325,18,271
326,271,24
327,20,272
328,272,22
329,17,273
330,273,22
331,18,274
332,274,21
333,19,275
334,275,24
335,20,276
336,276,23
*NSET,NSET=NALL,GENERATE
1,276,1
*NSET,NSET=LEFT
1,2,3,4
*NSET,NSET=RIGHT
21,22,23,24
*MATERIAL,NAME=STEEL
*ELASTIC
2.100000000000e+11,0.300000000000
*BEAM SECTION,ELSET=ALL,MATERIAL=STEEL,SECTION=RECT
6.000000000000e-02,4.000000000000e-02
0.371390676354,0.557086014531,0.742781352708
*BOUNDARY
LEFT,1,6,0.0
*STEP
*STATIC
*BOUNDARY
21,1,1,5.000000000000e-03
21,2,2,0.0
21,3,3,-6.000000000000e-03
*BOUNDARY
22,1,1,5.000000000000e-03
22,2,2,0.0
22,3,3,6.000000000000e-03
*BOUNDARY
23,1,1,-5.000000000000e-03
23,2,2,0.0
23,3,3,-6.000000000000e-03
*BOUNDARY
24,1,1,-5.000000000000e-03
24,2,2,0.0
24,3,3,6.000000000000e-03
*NODE FILE,NSET=NALL
U
*NODE PRINT,NSET=NALL
U
*NODE PRINT,NSET=RIGHT
RF
*EL PRINT,ELSET=ALL,TOTALS=YES
ELSE
*END STEP
