*HEADING
Normalized cross-passage space-truss torsion benchmark
*NODE
1,-1.200000000000e+00,0.000000000000e+00,0.000000000000e+00
2,1.200000000000e+00,0.000000000000e+00,0.000000000000e+00
3,-1.200000000000e+00,0.000000000000e+00,2.000000000000e+00
4,1.200000000000e+00,0.000000000000e+00,2.000000000000e+00
5,-1.200000000000e+00,1.000000000000e+01,0.000000000000e+00
6,1.200000000000e+00,1.000000000000e+01,0.000000000000e+00
7,-1.200000000000e+00,1.000000000000e+01,2.000000000000e+00
8,1.200000000000e+00,1.000000000000e+01,2.000000000000e+00
9,-1.200000000000e+00,2.000000000000e+01,0.000000000000e+00
10,1.200000000000e+00,2.000000000000e+01,0.000000000000e+00
11,-1.200000000000e+00,2.000000000000e+01,2.000000000000e+00
12,1.200000000000e+00,2.000000000000e+01,2.000000000000e+00
13,-1.200000000000e+00,3.000000000000e+01,0.000000000000e+00
14,1.200000000000e+00,3.000000000000e+01,0.000000000000e+00
15,-1.200000000000e+00,3.000000000000e+01,2.000000000000e+00
16,1.200000000000e+00,3.000000000000e+01,2.000000000000e+00
17,-1.200000000000e+00,4.000000000000e+01,0.000000000000e+00
18,1.200000000000e+00,4.000000000000e+01,0.000000000000e+00
19,-1.200000000000e+00,4.000000000000e+01,2.000000000000e+00
20,1.200000000000e+00,4.000000000000e+01,2.000000000000e+00
21,-1.200000000000e+00,5.000000000000e+01,0.000000000000e+00
22,1.200000000000e+00,5.000000000000e+01,0.000000000000e+00
23,-1.200000000000e+00,5.000000000000e+01,2.000000000000e+00
24,1.200000000000e+00,5.000000000000e+01,2.000000000000e+00
25,-1.200000000000e+00,1.500000000000e+01,-1.500000000000e-01
26,1.200000000000e+00,1.500000000000e+01,1.500000000000e-01
27,-1.200000000000e+00,1.500000000000e+01,1.850000000000e+00
28,1.200000000000e+00,1.500000000000e+01,2.150000000000e+00
29,-1.200000000000e+00,2.500000000000e+01,-1.500000000000e-01
30,1.200000000000e+00,2.500000000000e+01,1.500000000000e-01
31,-1.200000000000e+00,2.500000000000e+01,1.850000000000e+00
32,1.200000000000e+00,2.500000000000e+01,2.150000000000e+00
33,-1.200000000000e+00,3.250000000000e+01,-1.060660171780e-01
34,-1.200000000000e+00,3.500000000000e+01,-1.500000000000e-01
35,-1.200000000000e+00,3.750000000000e+01,-1.060660171780e-01
36,1.200000000000e+00,3.250000000000e+01,1.060660171780e-01
37,1.200000000000e+00,3.500000000000e+01,1.500000000000e-01
38,1.200000000000e+00,3.750000000000e+01,1.060660171780e-01
39,-1.200000000000e+00,3.250000000000e+01,1.893933982822e+00
40,-1.200000000000e+00,3.500000000000e+01,1.850000000000e+00
41,-1.200000000000e+00,3.750000000000e+01,1.893933982822e+00
42,1.200000000000e+00,3.250000000000e+01,2.106066017178e+00
43,1.200000000000e+00,3.500000000000e+01,2.150000000000e+00
44,1.200000000000e+00,3.750000000000e+01,2.106066017178e+00
45,0.000000000000e+00,-3.600000000000e-02,0.000000000000e+00
46,0.000000000000e+00,3.600000000000e-02,2.000000000000e+00
47,-1.200000000000e+00,3.000000000000e-02,1.000000000000e+00
48,1.200000000000e+00,-3.000000000000e-02,1.000000000000e+00
49,-6.000000000000e-01,1.997454415588e+01,0.000000000000e+00
50,0.000000000000e+00,1.996400000000e+01,0.000000000000e+00
51,6.000000000000e-01,1.997454415588e+01,0.000000000000e+00
52,-6.000000000000e-01,2.002545584412e+01,2.000000000000e+00
53,0.000000000000e+00,2.003600000000e+01,2.000000000000e+00
54,6.000000000000e-01,2.002545584412e+01,2.000000000000e+00
55,-1.200000000000e+00,2.002121320344e+01,5.000000000000e-01
56,-1.200000000000e+00,2.003000000000e+01,1.000000000000e+00
57,-1.200000000000e+00,2.002121320344e+01,1.500000000000e+00
58,1.200000000000e+00,1.997878679656e+01,5.000000000000e-01
59,1.200000000000e+00,1.997000000000e+01,1.000000000000e+00
60,1.200000000000e+00,1.997878679656e+01,1.500000000000e+00
61,0.000000000000e+00,4.996400000000e+01,0.000000000000e+00
62,0.000000000000e+00,5.003600000000e+01,2.000000000000e+00
63,-1.200000000000e+00,5.003000000000e+01,1.000000000000e+00
64,1.200000000000e+00,4.997000000000e+01,1.000000000000e+00
65,-1.200000000000e+00,1.126148050297e+01,1.925974851452e-01
66,-1.200000000000e+00,1.252121320344e+01,3.939339828220e-01
67,-1.200000000000e+00,1.377771638598e+01,6.114180701233e-01
68,-1.200000000000e+00,1.503000000000e+01,8.500000000000e-01
69,-1.200000000000e+00,1.627771638598e+01,1.111418070123e+00
70,-1.200000000000e+00,1.752121320344e+01,1.393933982822e+00
71,-1.200000000000e+00,1.876148050297e+01,1.692597485145e+00
72,-1.200000000000e+00,1.126148050297e+01,1.807402514855e+00
73,-1.200000000000e+00,1.252121320344e+01,1.606066017178e+00
74,-1.200000000000e+00,1.377771638598e+01,1.388581929877e+00
75,-1.200000000000e+00,1.503000000000e+01,1.150000000000e+00
76,-1.200000000000e+00,1.627771638598e+01,8.885819298767e-01
77,-1.200000000000e+00,1.752121320344e+01,6.060660171780e-01
78,-1.200000000000e+00,1.876148050297e+01,3.074025148548e-01
79,1.200000000000e+00,1.126148050297e+01,1.925974851452e-01
80,1.200000000000e+00,1.252121320344e+01,3.939339828220e-01
81,1.200000000000e+00,1.377771638598e+01,6.114180701233e-01
82,1.200000000000e+00,1.503000000000e+01,8.500000000000e-01
83,1.200000000000e+00,1.627771638598e+01,1.111418070123e+00
84,1.200000000000e+00,1.752121320344e+01,1.393933982822e+00
85,1.200000000000e+00,1.876148050297e+01,1.692597485145e+00
86,1.200000000000e+00,1.126148050297e+01,1.807402514855e+00
87,1.200000000000e+00,1.252121320344e+01,1.606066017178e+00
88,1.200000000000e+00,1.377771638598e+01,1.388581929877e+00
89,1.200000000000e+00,1.503000000000e+01,1.150000000000e+00
90,1.200000000000e+00,1.627771638598e+01,8.885819298767e-01
91,1.200000000000e+00,1.752121320344e+01,6.060660171780e-01
92,1.200000000000e+00,1.876148050297e+01,3.074025148548e-01
93,-8.425974851452e-01,1.123622339643e+01,0.000000000000e+00
94,-4.939339828220e-01,1.247454415588e+01,0.000000000000e+00
95,-1.614180701233e-01,1.371674033683e+01,0.000000000000e+00
96,1.500000000000e-01,1.496400000000e+01,0.000000000000e+00
97,4.385819298767e-01,1.621674033683e+01,0.000000000000e+00
98,7.060660171780e-01,1.747454415588e+01,0.000000000000e+00
99,9.574025148548e-01,1.873622339643e+01,0.000000000000e+00
100,8.425974851452e-01,1.123622339643e+01,0.000000000000e+00
101,4.939339828220e-01,1.247454415588e+01,0.000000000000e+00
102,1.614180701233e-01,1.371674033683e+01,0.000000000000e+00
103,-1.500000000000e-01,1.496400000000e+01,0.000000000000e+00
104,-4.385819298767e-01,1.621674033683e+01,0.000000000000e+00
105,-7.060660171780e-01,1.747454415588e+01,0.000000000000e+00
106,-9.574025148548e-01,1.873622339643e+01,0.000000000000e+00
107,-8.425974851452e-01,1.123622339643e+01,2.000000000000e+00
108,-4.939339828220e-01,1.247454415588e+01,2.000000000000e+00
109,-1.614180701233e-01,1.371674033683e+01,2.000000000000e+00
110,1.500000000000e-01,1.496400000000e+01,2.000000000000e+00
111,4.385819298767e-01,1.621674033683e+01,2.000000000000e+00
112,7.060660171780e-01,1.747454415588e+01,2.000000000000e+00
113,9.574025148548e-01,1.873622339643e+01,2.000000000000e+00
114,8.425974851452e-01,1.123622339643e+01,2.000000000000e+00
115,4.939339828220e-01,1.247454415588e+01,2.000000000000e+00
116,1.614180701233e-01,1.371674033683e+01,2.000000000000e+00
117,-1.500000000000e-01,1.496400000000e+01,2.000000000000e+00
118,-4.385819298767e-01,1.621674033683e+01,2.000000000000e+00
119,-7.060660171780e-01,1.747454415588e+01,2.000000000000e+00
120,-9.574025148548e-01,1.873622339643e+01,2.000000000000e+00
121,-1.200000000000e+00,3.503000000000e+01,8.500000000000e-01
122,-1.200000000000e+00,3.503000000000e+01,1.150000000000e+00
123,1.200000000000e+00,3.503000000000e+01,8.500000000000e-01
124,1.200000000000e+00,3.503000000000e+01,1.150000000000e+00
125,1.500000000000e-01,3.496400000000e+01,0.000000000000e+00
126,-1.500000000000e-01,3.496400000000e+01,0.000000000000e+00
127,1.500000000000e-01,3.496400000000e+01,2.000000000000e+00
128,-1.500000000000e-01,3.496400000000e+01,2.000000000000e+00
129,-1.200000000000e+00,4.503000000000e+01,8.500000000000e-01
130,-1.200000000000e+00,4.503000000000e+01,1.150000000000e+00
131,1.200000000000e+00,4.503000000000e+01,8.500000000000e-01
132,1.200000000000e+00,4.503000000000e+01,1.150000000000e+00
133,1.500000000000e-01,4.496400000000e+01,0.000000000000e+00
134,-1.500000000000e-01,4.496400000000e+01,0.000000000000e+00
135,1.500000000000e-01,4.496400000000e+01,2.000000000000e+00
136,-1.500000000000e-01,4.496400000000e+01,2.000000000000e+00
*ELEMENT,TYPE=B31,ELSET=ALL
1,1,5
2,2,6
3,3,7
4,4,8
5,5,25
6,25,9
7,6,26
8,26,10
9,7,27
10,27,11
11,8,28
12,28,12
13,9,29
14,29,13
15,10,30
16,30,14
17,11,31
18,31,15
19,12,32
20,32,16
21,13,33
22,33,34
23,34,35
24,35,17
25,14,36
26,36,37
27,37,38
28,38,18
29,15,39
30,39,40
31,40,41
32,41,19
33,16,42
34,42,43
35,43,44
36,44,20
37,17,21
38,18,22
39,19,23
40,20,24
41,1,45
42,45,2
43,3,46
44,46,4
45,1,47
46,47,3
47,2,48
48,48,4
49,5,6
50,7,8
51,5,7
52,6,8
53,9,49
54,49,50
55,50,51
56,51,10
57,11,52
58,52,53
59,53,54
60,54,12
61,9,55
62,55,56
63,56,57
64,57,11
65,10,58
66,58,59
67,59,60
68,60,12
69,13,14
70,15,16
71,13,15
72,14,16
73,17,18
74,19,20
75,17,19
76,18,20
77,21,61
78,61,22
79,23,62
80,62,24
81,21,63
82,63,23
83,22,64
84,64,24
85,1,7
86,3,5
87,2,8
88,4,6
89,1,6
90,2,5
91,3,8
92,4,7
93,5,65
94,65,66
95,66,67
96,67,68
97,68,69
98,69,70
99,70,71
100,71,11
101,7,72
102,72,73
103,73,74
104,74,75
105,75,76
106,76,77
107,77,78
108,78,9
109,6,79
110,79,80
111,80,81
112,81,82
113,82,83
114,83,84
115,84,85
116,85,12
117,8,86
118,86,87
119,87,88
120,88,89
121,89,90
122,90,91
123,91,92
124,92,10
125,5,93
126,93,94
127,94,95
128,95,96
129,96,97
130,97,98
131,98,99
132,99,10
133,6,100
134,100,101
135,101,102
136,102,103
137,103,104
138,104,105
139,105,106
140,106,9
141,7,107
142,107,108
143,108,109
144,109,110
145,110,111
146,111,112
147,112,113
148,113,12
149,8,114
150,114,115
151,115,116
152,116,117
153,117,118
154,118,119
155,119,120
156,120,11
157,9,15
158,11,13
159,10,16
160,12,14
161,9,14
162,10,13
163,11,16
164,12,15
165,13,121
166,121,19
167,15,122
168,122,17
169,14,123
170,123,20
171,16,124
172,124,18
173,13,125
174,125,18
175,14,126
176,126,17
177,15,127
178,127,20
179,16,128
180,128,19
181,17,129
182,129,23
183,19,130
184,130,21
185,18,131
186,131,24
187,20,132
188,132,22
189,17,133
190,133,22
191,18,134
192,134,21
193,19,135
194,135,24
195,20,136
196,136,23
*NSET,NSET=NALL,GENERATE
1,136,1
*NSET,NSET=LEFT
1,2,3,4
*NSET,NSET=RIGHT
21,22,23,24
*MATERIAL,NAME=STEEL
*ELASTIC
2.100000000000e+11,0.300000000000
*BEAM SECTION,ELSET=ALL,MATERIAL=STEEL,SECTION=RECT
6.000000000000e-02,4.000000000000e-02
0.371390676354,0.557086014531,0.742781352708
*BOUNDARY
LEFT,1,6,0.0
*STEP
*STATIC
*BOUNDARY
21,1,1,5.000000000000e-03
21,2,2,0.0
21,3,3,-6.000000000000e-03
*BOUNDARY
22,1,1,5.000000000000e-03
22,2,2,0.0
22,3,3,6.000000000000e-03
*BOUNDARY
23,1,1,-5.000000000000e-03
23,2,2,0.0
23,3,3,-6.000000000000e-03
*BOUNDARY
24,1,1,-5.000000000000e-03
24,2,2,0.0
24,3,3,6.000000000000e-03
*NODE FILE,NSET=NALL
U
*NODE PRINT,NSET=NALL
U
*NODE PRINT,NSET=RIGHT
RF
*EL PRINT,ELSET=ALL,TOTALS=YES
ELSE
*END STEP
