*HEADING
R8 midspan h-branch ccx vs in-process
local Dirichlet problem; displacements on the cut from the global FE solution
*NODE, NSET=NALL
1, 777.777777778, -10, 56
2, 777.777777778, -10, 70
3, 777.777777778, -10, 84
4, 777.777777778, -5, 56
5, 777.777777778, -5, 70
6, 777.777777778, -5, 84
7, 777.777777778, 0, 56
8, 777.777777778, 0, 70
9, 777.777777778, 0, 84
10, 833.333333333, -10, 56
11, 833.333333333, -10, 70
12, 833.333333333, -10, 84
13, 833.333333333, -5, 56
14, 833.333333333, -5, 70
15, 833.333333333, -5, 84
16, 833.333333333, 0, 56
17, 833.333333333, 0, 70
18, 833.333333333, 0, 84
19, 888.888888889, -10, 56
20, 888.888888889, -10, 70
21, 888.888888889, -10, 84
22, 888.888888889, -5, 56
23, 888.888888889, -5, 70
24, 888.888888889, -5, 84
25, 888.888888889, 0, 56
26, 888.888888889, 0, 70
27, 888.888888889, 0, 84
28, 888.888888889, -10, 28
29, 888.888888889, -10, 42
30, 888.888888889, -5, 28
31, 888.888888889, -5, 42
32, 888.888888889, 0, 28
33, 888.888888889, 0, 42
34, 944.444444444, -10, 28
35, 944.444444444, -10, 42
36, 944.444444444, -10, 56
37, 944.444444444, -5, 28
38, 944.444444444, -5, 42
39, 944.444444444, -5, 56
40, 944.444444444, 0, 28
41, 944.444444444, 0, 42
42, 944.444444444, 0, 56
43, 1000, -10, 28
44, 1000, -10, 42
45, 1000, -10, 56
46, 1000, -5, 28
47, 1000, -5, 42
48, 1000, -5, 56
49, 1000, 0, 28
50, 1000, 0, 42
51, 1000, 0, 56
52, 944.444444444, -10, 70
53, 944.444444444, -10, 84
54, 944.444444444, -5, 70
55, 944.444444444, -5, 84
56, 944.444444444, 0, 70
57, 944.444444444, 0, 84
58, 1000, -10, 70
59, 1000, -10, 84
60, 1000, -5, 70
61, 1000, -5, 84
62, 1000, 0, 70
63, 1000, 0, 84
64, 888.888888889, -10, 98
65, 888.888888889, -10, 112
66, 888.888888889, -5, 98
67, 888.888888889, -5, 112
68, 888.888888889, 0, 98
69, 888.888888889, 0, 112
70, 944.444444444, -10, 98
71, 944.444444444, -10, 112
72, 944.444444444, -5, 98
73, 944.444444444, -5, 112
74, 944.444444444, 0, 98
75, 944.444444444, 0, 112
76, 1000, -10, 98
77, 1000, -10, 112
78, 1000, -5, 98
79, 1000, -5, 112
80, 1000, 0, 98
81, 1000, 0, 112
82, 888.888888889, 5, 56
83, 888.888888889, 5, 70
84, 888.888888889, 5, 84
85, 888.888888889, 10, 56
86, 888.888888889, 10, 70
87, 888.888888889, 10, 84
88, 944.444444444, 5, 56
89, 944.444444444, 5, 70
90, 944.444444444, 5, 84
91, 944.444444444, 10, 56
92, 944.444444444, 10, 70
93, 944.444444444, 10, 84
94, 1000, 5, 56
95, 1000, 5, 70
96, 1000, 5, 84
97, 1000, 10, 56
98, 1000, 10, 70
99, 1000, 10, 84
100, 1055.55555556, -10, 56
101, 1055.55555556, -10, 70
102, 1055.55555556, -10, 84
103, 1055.55555556, -5, 56
104, 1055.55555556, -5, 70
105, 1055.55555556, -5, 84
106, 1055.55555556, 0, 56
107, 1055.55555556, 0, 70
108, 1055.55555556, 0, 84
109, 1111.11111111, -10, 56
110, 1111.11111111, -10, 70
111, 1111.11111111, -10, 84
112, 1111.11111111, -5, 56
113, 1111.11111111, -5, 70
114, 1111.11111111, -5, 84
115, 1111.11111111, 0, 56
116, 1111.11111111, 0, 70
117, 1111.11111111, 0, 84
*ELEMENT, TYPE=C3D8, ELSET=EALL
1, 1, 10, 13, 4, 2, 11, 14, 5
2, 2, 11, 14, 5, 3, 12, 15, 6
3, 4, 13, 16, 7, 5, 14, 17, 8
4, 5, 14, 17, 8, 6, 15, 18, 9
5, 10, 19, 22, 13, 11, 20, 23, 14
6, 11, 20, 23, 14, 12, 21, 24, 15
7, 13, 22, 25, 16, 14, 23, 26, 17
8, 14, 23, 26, 17, 15, 24, 27, 18
9, 28, 34, 37, 30, 29, 35, 38, 31
10, 29, 35, 38, 31, 19, 36, 39, 22
11, 30, 37, 40, 32, 31, 38, 41, 33
12, 31, 38, 41, 33, 22, 39, 42, 25
13, 34, 43, 46, 37, 35, 44, 47, 38
14, 35, 44, 47, 38, 36, 45, 48, 39
15, 37, 46, 49, 40, 38, 47, 50, 41
16, 38, 47, 50, 41, 39, 48, 51, 42
17, 19, 36, 39, 22, 20, 52, 54, 23
18, 20, 52, 54, 23, 21, 53, 55, 24
19, 22, 39, 42, 25, 23, 54, 56, 26
20, 23, 54, 56, 26, 24, 55, 57, 27
21, 36, 45, 48, 39, 52, 58, 60, 54
22, 52, 58, 60, 54, 53, 59, 61, 55
23, 39, 48, 51, 42, 54, 60, 62, 56
24, 54, 60, 62, 56, 55, 61, 63, 57
25, 21, 53, 55, 24, 64, 70, 72, 66
26, 64, 70, 72, 66, 65, 71, 73, 67
27, 24, 55, 57, 27, 66, 72, 74, 68
28, 66, 72, 74, 68, 67, 73, 75, 69
29, 53, 59, 61, 55, 70, 76, 78, 72
30, 70, 76, 78, 72, 71, 77, 79, 73
31, 55, 61, 63, 57, 72, 78, 80, 74
32, 72, 78, 80, 74, 73, 79, 81, 75
33, 25, 42, 88, 82, 26, 56, 89, 83
34, 26, 56, 89, 83, 27, 57, 90, 84
35, 82, 88, 91, 85, 83, 89, 92, 86
36, 83, 89, 92, 86, 84, 90, 93, 87
37, 42, 51, 94, 88, 56, 62, 95, 89
38, 56, 62, 95, 89, 57, 63, 96, 90
39, 88, 94, 97, 91, 89, 95, 98, 92
40, 89, 95, 98, 92, 90, 96, 99, 93
41, 45, 100, 103, 48, 58, 101, 104, 60
42, 58, 101, 104, 60, 59, 102, 105, 61
43, 48, 103, 106, 51, 60, 104, 107, 62
44, 60, 104, 107, 62, 61, 105, 108, 63
45, 100, 109, 112, 103, 101, 110, 113, 104
46, 101, 110, 113, 104, 102, 111, 114, 105
47, 103, 112, 115, 106, 104, 113, 116, 107
48, 104, 113, 116, 107, 105, 114, 117, 108
*NSET, NSET=BDRY
1, 2, 3, 4, 5, 6, 7, 8, 9, 10, 11, 12, 13, 15, 16, 17
18, 19, 20, 21, 22, 24, 25, 26, 27, 28, 29, 30, 31, 32, 33, 34
35, 36, 37, 40, 41, 42, 43, 44, 45, 46, 47, 48, 49, 50, 51, 52
53, 57, 58, 59, 61, 62, 63, 64, 65, 66, 67, 68, 69, 70, 71, 73
74, 75, 76, 77, 78, 79, 80, 81, 82, 83, 84, 85, 86, 87, 88, 90
91, 92, 93, 94, 95, 96, 97, 98, 99, 100, 101, 102, 103, 105, 106, 107
108, 109, 110, 111, 112, 113, 114, 115, 116, 117
*NSET, NSET=FREE
14, 23, 38, 39, 54, 55, 56, 60, 72, 89, 104
*MATERIAL, NAME=STEEL
*ELASTIC
210000, 0.3
*SOLID SECTION, ELSET=EALL, MATERIAL=STEEL
*BOUNDARY
1, 1, 1, -0.0991118
1, 2, 2, -0.000295639
1, 3, 3, -0.655665
2, 1, 1, -0.0775404
2, 2, 2, -0.000231157
2, 3, 3, -0.655342
3, 1, 1, -0.055969
3, 2, 2, -0.000166675
3, 3, 3, -0.655019
4, 1, 1, -0.0991127
4, 2, 2, -0.000147819508747
4, 3, 3, -0.6556765
5, 1, 1, -0.0775403
5, 2, 2, -0.000115578507185
5, 3, 3, -0.65535325
6, 1, 1, -0.0559679
6, 2, 2, -8.33375056239e-05
6, 3, 3, -0.65503
7, 1, 1, -0.0991136
7, 2, 2, -1.74933e-11
7, 3, 3, -0.655688
8, 1, 1, -0.0775402
8, 2, 2, -1.437055e-11
8, 3, 3, -0.6553645
9, 1, 1, -0.0559668
9, 2, 2, -1.12478e-11
9, 3, 3, -0.655041
10, 1, 1, -0.1043274
10, 2, 2, -0.0002821855
10, 3, 3, -0.746892
11, 1, 1, -0.08162435
11, 2, 2, -0.000220641
11, 3, 3, -0.7465835
12, 1, 1, -0.0589213
12, 2, 2, -0.0001590965
12, 3, 3, -0.746275
13, 1, 1, -0.1043281
13, 2, 2, -0.000141092759492
13, 3, 3, -0.74690275
15, 1, 1, -0.0589202
15, 2, 2, -7.9548256087e-05
15, 3, 3, -0.7462855
16, 1, 1, -0.1043288
16, 2, 2, -1.89846e-11
16, 3, 3, -0.7469135
17, 1, 1, -0.08162395
17, 2, 2, -1.5579325e-11
17, 3, 3, -0.74660475
18, 1, 1, -0.0589191
18, 2, 2, -1.217405e-11
18, 3, 3, -0.746296
19, 1, 1, -0.109543
19, 2, 2, -0.000268732
19, 3, 3, -0.838119
20, 1, 1, -0.0857083
20, 2, 2, -0.000210125
20, 3, 3, -0.837825
21, 1, 1, -0.0618736
21, 2, 2, -0.000151518
21, 3, 3, -0.837531
22, 1, 1, -0.1095435
22, 2, 2, -0.000134366010238
22, 3, 3, -0.838129
24, 1, 1, -0.0618725
24, 2, 2, -7.57590065502e-05
24, 3, 3, -0.837541
25, 1, 1, -0.109544
25, 2, 2, -2.04759e-11
25, 3, 3, -0.838139
26, 1, 1, -0.0857077
26, 2, 2, -1.67881e-11
26, 3, 3, -0.837845
27, 1, 1, -0.0618714
27, 2, 2, -1.31003e-11
27, 3, 3, -0.837551
28, 1, 1, -0.157359
28, 2, 2, -0.000381777
28, 3, 3, -0.839033
29, 1, 1, -0.133451
29, 2, 2, -0.0003252545
29, 3, 3, -0.838576
30, 1, 1, -0.1573595
30, 2, 2, -0.000190888513921
30, 3, 3, -0.839044
31, 1, 1, -0.1334515
31, 2, 2, -0.00016262726208
31, 3, 3, -0.8385865
32, 1, 1, -0.15736
32, 2, 2, -2.78428e-11
32, 3, 3, -0.839055
33, 1, 1, -0.133452
33, 2, 2, -2.415935e-11
33, 3, 3, -0.838597
34, 1, 1, -0.164125
34, 2, 2, -0.0003626845
34, 3, 3, -0.9387665
35, 1, 1, -0.13919325
35, 2, 2, -0.0003089915
35, 3, 3, -0.938333
36, 1, 1, -0.1142615
36, 2, 2, -0.0002552985
36, 3, 3, -0.9378995
37, 1, 1, -0.16412575
37, 2, 2, -0.000181342264906
37, 3, 3, -0.938777
40, 1, 1, -0.1641265
40, 2, 2, -2.98111e-11
40, 3, 3, -0.9387875
41, 1, 1, -0.13919475
41, 2, 2, -2.585035e-11
41, 3, 3, -0.9383535
42, 1, 1, -0.114263
42, 2, 2, -2.18896e-11
42, 3, 3, -0.9379195
43, 1, 1, -0.170891
43, 2, 2, -0.000343592
43, 3, 3, -1.0385
44, 1, 1, -0.1449355
44, 2, 2, -0.0002927285
44, 3, 3, -1.03809
45, 1, 1, -0.11898
45, 2, 2, -0.000241865
45, 3, 3, -1.03768
46, 1, 1, -0.170892
46, 2, 2, -0.00017179601589
46, 3, 3, -1.03851
47, 1, 1, -0.1449365
47, 2, 2, -0.000146364263771
47, 3, 3, -1.0381
48, 1, 1, -0.118981
48, 2, 2, -0.000120932511652
48, 3, 3, -1.03769
49, 1, 1, -0.170893
49, 2, 2, -3.17794e-11
49, 3, 3, -1.03852
50, 1, 1, -0.1449375
50, 2, 2, -2.754135e-11
50, 3, 3, -1.03811
51, 1, 1, -0.118982
51, 2, 2, -2.33033e-11
51, 3, 3, -1.0377
52, 1, 1, -0.0894031
52, 2, 2, -0.000199621
52, 3, 3, -0.93762
53, 1, 1, -0.0645447
53, 2, 2, -0.0001439435
53, 3, 3, -0.9373405
57, 1, 1, -0.0645425
57, 2, 2, -1.39589e-11
57, 3, 3, -0.9373605
58, 1, 1, -0.0930979
58, 2, 2, -0.000189117
58, 3, 3, -1.037415
59, 1, 1, -0.0672158
59, 2, 2, -0.000136369
59, 3, 3, -1.03715
61, 1, 1, -0.0672147
61, 2, 2, -6.81845074088e-05
61, 3, 3, -1.03716
62, 1, 1, -0.0930978
62, 2, 2, -1.90604e-11
62, 3, 3, -1.037435
63, 1, 1, -0.0672136
63, 2, 2, -1.48175e-11
63, 3, 3, -1.03717
64, 1, 1, -0.0380756
64, 2, 2, -9.428025e-05
64, 3, 3, -0.8374
65, 1, 1, -0.0142776
65, 2, 2, -3.70425e-05
65, 3, 3, -0.837269
66, 1, 1, -0.03807805
66, 2, 2, -4.71401297013e-05
66, 3, 3, -0.83741025
67, 1, 1, -0.0142836
67, 2, 2, -1.85212528525e-05
67, 3, 3, -0.8372795
68, 1, 1, -0.0380805
68, 2, 2, -9.40266e-12
68, 3, 3, -0.8374205
69, 1, 1, -0.0142896
69, 2, 2, -5.70502e-12
69, 3, 3, -0.83729
70, 1, 1, -0.039722925
70, 2, 2, -8.9572725e-05
70, 3, 3, -0.937215
71, 1, 1, -0.01490115
71, 2, 2, -3.520195e-05
71, 3, 3, -0.9370895
73, 1, 1, -0.01490715
73, 2, 2, -1.76009780048e-05
73, 3, 3, -0.93709975
74, 1, 1, -0.039727825
74, 2, 2, -9.98422e-12
74, 3, 3, -0.93723525
75, 1, 1, -0.01491315
75, 2, 2, -6.00954e-12
75, 3, 3, -0.93711
76, 1, 1, -0.04137025
76, 2, 2, -8.48652e-05
76, 3, 3, -1.03703
77, 1, 1, -0.0155247
77, 2, 2, -3.33614e-05
77, 3, 3, -1.03691
78, 1, 1, -0.0413727
78, 2, 2, -4.24326052829e-05
78, 3, 3, -1.03704
79, 1, 1, -0.0155307
79, 2, 2, -1.6680703157e-05
79, 3, 3, -1.03692
80, 1, 1, -0.04137515
80, 2, 2, -1.056578e-11
80, 3, 3, -1.03705
81, 1, 1, -0.0155367
81, 2, 2, -6.31406e-12
81, 3, 3, -1.03693
82, 1, 1, -0.1095435
82, 2, 2, 0.000134365989762
82, 3, 3, -0.838129
83, 1, 1, -0.085708
83, 2, 2, 0.000105062491606
83, 3, 3, -0.837835
84, 1, 1, -0.0618725
84, 2, 2, 7.57589934499e-05
84, 3, 3, -0.837541
85, 1, 1, -0.109543
85, 2, 2, 0.000268732
85, 3, 3, -0.838119
86, 1, 1, -0.0857083
86, 2, 2, 0.000210125
86, 3, 3, -0.837825
87, 1, 1, -0.0618736
87, 2, 2, 0.000151518
87, 3, 3, -0.837531
88, 1, 1, -0.11426225
88, 2, 2, 0.000127649239055
88, 3, 3, -0.9379095
90, 1, 1, -0.0645436
90, 2, 2, 7.19717430206e-05
90, 3, 3, -0.9373505
91, 1, 1, -0.1142615
91, 2, 2, 0.0002552985
91, 3, 3, -0.9378995
92, 1, 1, -0.0894031
92, 2, 2, 0.000199621
92, 3, 3, -0.93762
93, 1, 1, -0.0645447
93, 2, 2, 0.0001439435
93, 3, 3, -0.9373405
94, 1, 1, -0.118981
94, 2, 2, 0.000120932488348
94, 3, 3, -1.03769
95, 1, 1, -0.09309785
95, 2, 2, 9.45584904698e-05
95, 3, 3, -1.037425
96, 1, 1, -0.0672147
96, 2, 2, 6.81844925912e-05
96, 3, 3, -1.03716
97, 1, 1, -0.11898
97, 2, 2, 0.000241865
97, 3, 3, -1.03768
98, 1, 1, -0.0930979
98, 2, 2, 0.000189117
98, 3, 3, -1.037415
99, 1, 1, -0.0672158
99, 2, 2, 0.000136369
99, 3, 3, -1.03715
100, 1, 1, -0.123202
100, 2, 2, -0.000228437
100, 3, 3, -1.145155
101, 1, 1, -0.0964039
101, 2, 2, -0.000178619
101, 3, 3, -1.144905
102, 1, 1, -0.0696058
102, 2, 2, -0.000128801
102, 3, 3, -1.144655
103, 1, 1, -0.123203
103, 2, 2, -0.000114218512325
103, 3, 3, -1.145165
105, 1, 1, -0.069604725
105, 2, 2, -6.44005078088e-05
105, 3, 3, -1.144665
106, 1, 1, -0.123204
106, 2, 2, -2.46509e-11
106, 3, 3, -1.145175
107, 1, 1, -0.096403825
107, 2, 2, -2.0134225e-11
107, 3, 3, -1.144925
108, 1, 1, -0.06960365
108, 2, 2, -1.561755e-11
108, 3, 3, -1.144675
109, 1, 1, -0.127424
109, 2, 2, -0.000215009
109, 3, 3, -1.25263
110, 1, 1, -0.0997099
110, 2, 2, -0.000168121
110, 3, 3, -1.252395
111, 1, 1, -0.0719958
111, 2, 2, -0.000121233
111, 3, 3, -1.25216
112, 1, 1, -0.127425
112, 2, 2, -0.000107504512999
112, 3, 3, -1.25264
113, 1, 1, -0.099709875
113, 2, 2, -8.4060510604e-05
113, 3, 3, -1.252405
114, 1, 1, -0.07199475
114, 2, 2, -6.06165082088e-05
114, 3, 3, -1.25217
115, 1, 1, -0.127426
115, 2, 2, -2.59985e-11
115, 3, 3, -1.25265
116, 1, 1, -0.09970985
116, 2, 2, -2.120805e-11
116, 3, 3, -1.252415
117, 1, 1, -0.0719937
117, 2, 2, -1.64176e-11
117, 3, 3, -1.25218
*STEP
*STATIC
*NODE FILE
U
*EL FILE
S, ENER
*EL PRINT, ELSET=EALL
ELSE
*ENERGY PRINT
*END STEP
