*HEADING
T02 S-LIN t02_slin_nx32 conforming C3D8 frozen T
units: mm, N, s, MPa, t. Illustrative steel, not a coupon card.
beam=T02 case=S-LIN job=t02_slin_nx32 type=C3D8
E=210000.0 nu=0.3 fy=235.0 load=-5000.0 N on TIP_TOP
*NODE, NSET=NALL
1, 0, -10, 0
2, 62.5, -10, 9.84375
3, 62.5, 0, 9.84375
4, 0, 0, 0
5, 0, -10, 48
6, 62.5, -10, 55.875
7, 62.5, 0, 55.875
8, 0, 0, 48
9, 0, -10, 96
10, 62.5, -10, 101.90625
11, 62.5, 0, 101.90625
12, 0, 0, 96
13, 0, -10, 144
14, 62.5, -10, 147.9375
15, 62.5, 0, 147.9375
16, 0, 0, 144
17, 0, -10, 192
18, 62.5, -10, 193.96875
19, 62.5, 0, 193.96875
20, 0, 0, 192
21, 0, -10, 240
22, 62.5, -10, 240
23, 62.5, 0, 240
24, 0, 0, 240
25, 62.5, 10, 9.84375
26, 0, 10, 0
27, 62.5, 10, 55.875
28, 0, 10, 48
29, 62.5, 10, 101.90625
30, 0, 10, 96
31, 62.5, 10, 147.9375
32, 0, 10, 144
33, 62.5, 10, 193.96875
34, 0, 10, 192
35, 62.5, 10, 240
36, 0, 10, 240
37, 0, -120, 240
38, 62.5, -120, 240
39, 62.5, -92.5, 240
40, 0, -92.5, 240
41, 0, -120, 250
42, 62.5, -120, 250
43, 62.5, -92.5, 250
44, 0, -92.5, 250
45, 0, -120, 260
46, 62.5, -120, 260
47, 62.5, -92.5, 260
48, 0, -92.5, 260
49, 62.5, -65, 240
50, 0, -65, 240
51, 62.5, -65, 250
52, 0, -65, 250
53, 62.5, -65, 260
54, 0, -65, 260
55, 62.5, -37.5, 240
56, 0, -37.5, 240
57, 62.5, -37.5, 250
58, 0, -37.5, 250
59, 62.5, -37.5, 260
60, 0, -37.5, 260
61, 62.5, -10, 250
62, 0, -10, 250
63, 62.5, -10, 260
64, 0, -10, 260
65, 62.5, 0, 250
66, 0, 0, 250
67, 62.5, 0, 260
68, 0, 0, 260
69, 62.5, 10, 250
70, 0, 10, 250
71, 62.5, 10, 260
72, 0, 10, 260
73, 62.5, 37.5, 240
74, 0, 37.5, 240
75, 62.5, 37.5, 250
76, 0, 37.5, 250
77, 62.5, 37.5, 260
78, 0, 37.5, 260
79, 62.5, 65, 240
80, 0, 65, 240
81, 62.5, 65, 250
82, 0, 65, 250
83, 62.5, 65, 260
84, 0, 65, 260
85, 62.5, 92.5, 240
86, 0, 92.5, 240
87, 62.5, 92.5, 250
88, 0, 92.5, 250
89, 62.5, 92.5, 260
90, 0, 92.5, 260
91, 62.5, 120, 240
92, 0, 120, 240
93, 62.5, 120, 250
94, 0, 120, 250
95, 62.5, 120, 260
96, 0, 120, 260
97, 125, -10, 19.375
98, 125, 0, 19.375
99, 125, -10, 63.5
100, 125, 0, 63.5
101, 125, -10, 107.625
102, 125, 0, 107.625
103, 125, -10, 151.75
104, 125, 0, 151.75
105, 125, -10, 195.875
106, 125, 0, 195.875
107, 125, -10, 240
108, 125, 0, 240
109, 125, 10, 19.375
110, 125, 10, 63.5
111, 125, 10, 107.625
112, 125, 10, 151.75
113, 125, 10, 195.875
114, 125, 10, 240
115, 125, -120, 240
116, 125, -92.5, 240
117, 125, -120, 250
118, 125, -92.5, 250
119, 125, -120, 260
120, 125, -92.5, 260
121, 125, -65, 240
122, 125, -65, 250
123, 125, -65, 260
124, 125, -37.5, 240
125, 125, -37.5, 250
126, 125, -37.5, 260
127, 125, -10, 250
128, 125, -10, 260
129, 125, 0, 250
130, 125, 0, 260
131, 125, 10, 250
132, 125, 10, 260
133, 125, 37.5, 240
134, 125, 37.5, 250
135, 125, 37.5, 260
136, 125, 65, 240
137, 125, 65, 250
138, 125, 65, 260
139, 125, 92.5, 240
140, 125, 92.5, 250
141, 125, 92.5, 260
142, 125, 120, 240
143, 125, 120, 250
144, 125, 120, 260
145, 187.5, -10, 28.59375
146, 187.5, 0, 28.59375
147, 187.5, -10, 70.875
148, 187.5, 0, 70.875
149, 187.5, -10, 113.15625
150, 187.5, 0, 113.15625
151, 187.5, -10, 155.4375
152, 187.5, 0, 155.4375
153, 187.5, -10, 197.71875
154, 187.5, 0, 197.71875
155, 187.5, -10, 240
156, 187.5, 0, 240
157, 187.5, 10, 28.59375
158, 187.5, 10, 70.875
159, 187.5, 10, 113.15625
160, 187.5, 10, 155.4375
161, 187.5, 10, 197.71875
162, 187.5, 10, 240
163, 187.5, -120, 240
164, 187.5, -92.5, 240
165, 187.5, -120, 250
166, 187.5, -92.5, 250
167, 187.5, -120, 260
168, 187.5, -92.5, 260
169, 187.5, -65, 240
170, 187.5, -65, 250
171, 187.5, -65, 260
172, 187.5, -37.5, 240
173, 187.5, -37.5, 250
174, 187.5, -37.5, 260
175, 187.5, -10, 250
176, 187.5, -10, 260
177, 187.5, 0, 250
178, 187.5, 0, 260
179, 187.5, 10, 250
180, 187.5, 10, 260
181, 187.5, 37.5, 240
182, 187.5, 37.5, 250
183, 187.5, 37.5, 260
184, 187.5, 65, 240
185, 187.5, 65, 250
186, 187.5, 65, 260
187, 187.5, 92.5, 240
188, 187.5, 92.5, 250
189, 187.5, 92.5, 260
190, 187.5, 120, 240
191, 187.5, 120, 250
192, 187.5, 120, 260
193, 250, -10, 37.5
194, 250, 0, 37.5
195, 250, -10, 78
196, 250, 0, 78
197, 250, -10, 118.5
198, 250, 0, 118.5
199, 250, -10, 159
200, 250, 0, 159
201, 250, -10, 199.5
202, 250, 0, 199.5
203, 250, -10, 240
204, 250, 0, 240
205, 250, 10, 37.5
206, 250, 10, 78
207, 250, 10, 118.5
208, 250, 10, 159
209, 250, 10, 199.5
210, 250, 10, 240
211, 250, -120, 240
212, 250, -92.5, 240
213, 250, -120, 250
214, 250, -92.5, 250
215, 250, -120, 260
216, 250, -92.5, 260
217, 250, -65, 240
218, 250, -65, 250
219, 250, -65, 260
220, 250, -37.5, 240
221, 250, -37.5, 250
222, 250, -37.5, 260
223, 250, -10, 250
224, 250, -10, 260
225, 250, 0, 250
226, 250, 0, 260
227, 250, 10, 250
228, 250, 10, 260
229, 250, 37.5, 240
230, 250, 37.5, 250
231, 250, 37.5, 260
232, 250, 65, 240
233, 250, 65, 250
234, 250, 65, 260
235, 250, 92.5, 240
236, 250, 92.5, 250
237, 250, 92.5, 260
238, 250, 120, 240
239, 250, 120, 250
240, 250, 120, 260
241, 312.5, -10, 46.09375
242, 312.5, 0, 46.09375
243, 312.5, -10, 84.875
244, 312.5, 0, 84.875
245, 312.5, -10, 123.65625
246, 312.5, 0, 123.65625
247, 312.5, -10, 162.4375
248, 312.5, 0, 162.4375
249, 312.5, -10, 201.21875
250, 312.5, 0, 201.21875
251, 312.5, -10, 240
252, 312.5, 0, 240
253, 312.5, 10, 46.09375
254, 312.5, 10, 84.875
255, 312.5, 10, 123.65625
256, 312.5, 10, 162.4375
257, 312.5, 10, 201.21875
258, 312.5, 10, 240
259, 312.5, -120, 240
260, 312.5, -92.5, 240
261, 312.5, -120, 250
262, 312.5, -92.5, 250
263, 312.5, -120, 260
264, 312.5, -92.5, 260
265, 312.5, -65, 240
266, 312.5, -65, 250
267, 312.5, -65, 260
268, 312.5, -37.5, 240
269, 312.5, -37.5, 250
270, 312.5, -37.5, 260
271, 312.5, -10, 250
272, 312.5, -10, 260
273, 312.5, 0, 250
274, 312.5, 0, 260
275, 312.5, 10, 250
276, 312.5, 10, 260
277, 312.5, 37.5, 240
278, 312.5, 37.5, 250
279, 312.5, 37.5, 260
280, 312.5, 65, 240
281, 312.5, 65, 250
282, 312.5, 65, 260
283, 312.5, 92.5, 240
284, 312.5, 92.5, 250
285, 312.5, 92.5, 260
286, 312.5, 120, 240
287, 312.5, 120, 250
288, 312.5, 120, 260
289, 375, -10, 54.375
290, 375, 0, 54.375
291, 375, -10, 91.5
292, 375, 0, 91.5
293, 375, -10, 128.625
294, 375, 0, 128.625
295, 375, -10, 165.75
296, 375, 0, 165.75
297, 375, -10, 202.875
298, 375, 0, 202.875
299, 375, -10, 240
300, 375, 0, 240
301, 375, 10, 54.375
302, 375, 10, 91.5
303, 375, 10, 128.625
304, 375, 10, 165.75
305, 375, 10, 202.875
306, 375, 10, 240
307, 375, -120, 240
308, 375, -92.5, 240
309, 375, -120, 250
310, 375, -92.5, 250
311, 375, -120, 260
312, 375, -92.5, 260
313, 375, -65, 240
314, 375, -65, 250
315, 375, -65, 260
316, 375, -37.5, 240
317, 375, -37.5, 250
318, 375, -37.5, 260
319, 375, -10, 250
320, 375, -10, 260
321, 375, 0, 250
322, 375, 0, 260
323, 375, 10, 250
324, 375, 10, 260
325, 375, 37.5, 240
326, 375, 37.5, 250
327, 375, 37.5, 260
328, 375, 65, 240
329, 375, 65, 250
330, 375, 65, 260
331, 375, 92.5, 240
332, 375, 92.5, 250
333, 375, 92.5, 260
334, 375, 120, 240
335, 375, 120, 250
336, 375, 120, 260
337, 437.5, -10, 62.34375
338, 437.5, 0, 62.34375
339, 437.5, -10, 97.875
340, 437.5, 0, 97.875
341, 437.5, -10, 133.40625
342, 437.5, 0, 133.40625
343, 437.5, -10, 168.9375
344, 437.5, 0, 168.9375
345, 437.5, -10, 204.46875
346, 437.5, 0, 204.46875
347, 437.5, -10, 240
348, 437.5, 0, 240
349, 437.5, 10, 62.34375
350, 437.5, 10, 97.875
351, 437.5, 10, 133.40625
352, 437.5, 10, 168.9375
353, 437.5, 10, 204.46875
354, 437.5, 10, 240
355, 437.5, -120, 240
356, 437.5, -92.5, 240
357, 437.5, -120, 250
358, 437.5, -92.5, 250
359, 437.5, -120, 260
360, 437.5, -92.5, 260
361, 437.5, -65, 240
362, 437.5, -65, 250
363, 437.5, -65, 260
364, 437.5, -37.5, 240
365, 437.5, -37.5, 250
366, 437.5, -37.5, 260
367, 437.5, -10, 250
368, 437.5, -10, 260
369, 437.5, 0, 250
370, 437.5, 0, 260
371, 437.5, 10, 250
372, 437.5, 10, 260
373, 437.5, 37.5, 240
374, 437.5, 37.5, 250
375, 437.5, 37.5, 260
376, 437.5, 65, 240
377, 437.5, 65, 250
378, 437.5, 65, 260
379, 437.5, 92.5, 240
380, 437.5, 92.5, 250
381, 437.5, 92.5, 260
382, 437.5, 120, 240
383, 437.5, 120, 250
384, 437.5, 120, 260
385, 500, -10, 70
386, 500, 0, 70
387, 500, -10, 104
388, 500, 0, 104
389, 500, -10, 138
390, 500, 0, 138
391, 500, -10, 172
392, 500, 0, 172
393, 500, -10, 206
394, 500, 0, 206
395, 500, -10, 240
396, 500, 0, 240
397, 500, 10, 70
398, 500, 10, 104
399, 500, 10, 138
400, 500, 10, 172
401, 500, 10, 206
402, 500, 10, 240
403, 500, -120, 240
404, 500, -92.5, 240
405, 500, -120, 250
406, 500, -92.5, 250
407, 500, -120, 260
408, 500, -92.5, 260
409, 500, -65, 240
410, 500, -65, 250
411, 500, -65, 260
412, 500, -37.5, 240
413, 500, -37.5, 250
414, 500, -37.5, 260
415, 500, -10, 250
416, 500, -10, 260
417, 500, 0, 250
418, 500, 0, 260
419, 500, 10, 250
420, 500, 10, 260
421, 500, 37.5, 240
422, 500, 37.5, 250
423, 500, 37.5, 260
424, 500, 65, 240
425, 500, 65, 250
426, 500, 65, 260
427, 500, 92.5, 240
428, 500, 92.5, 250
429, 500, 92.5, 260
430, 500, 120, 240
431, 500, 120, 250
432, 500, 120, 260
433, 562.5, -10, 77.34375
434, 562.5, 0, 77.34375
435, 562.5, -10, 109.875
436, 562.5, 0, 109.875
437, 562.5, -10, 142.40625
438, 562.5, 0, 142.40625
439, 562.5, -10, 174.9375
440, 562.5, 0, 174.9375
441, 562.5, -10, 207.46875
442, 562.5, 0, 207.46875
443, 562.5, -10, 240
444, 562.5, 0, 240
445, 562.5, 10, 77.34375
446, 562.5, 10, 109.875
447, 562.5, 10, 142.40625
448, 562.5, 10, 174.9375
449, 562.5, 10, 207.46875
450, 562.5, 10, 240
451, 562.5, -120, 240
452, 562.5, -92.5, 240
453, 562.5, -120, 250
454, 562.5, -92.5, 250
455, 562.5, -120, 260
456, 562.5, -92.5, 260
457, 562.5, -65, 240
458, 562.5, -65, 250
459, 562.5, -65, 260
460, 562.5, -37.5, 240
461, 562.5, -37.5, 250
462, 562.5, -37.5, 260
463, 562.5, -10, 250
464, 562.5, -10, 260
465, 562.5, 0, 250
466, 562.5, 0, 260
467, 562.5, 10, 250
468, 562.5, 10, 260
469, 562.5, 37.5, 240
470, 562.5, 37.5, 250
471, 562.5, 37.5, 260
472, 562.5, 65, 240
473, 562.5, 65, 250
474, 562.5, 65, 260
475, 562.5, 92.5, 240
476, 562.5, 92.5, 250
477, 562.5, 92.5, 260
478, 562.5, 120, 240
479, 562.5, 120, 250
480, 562.5, 120, 260
481, 625, -10, 84.375
482, 625, 0, 84.375
483, 625, -10, 115.5
484, 625, 0, 115.5
485, 625, -10, 146.625
486, 625, 0, 146.625
487, 625, -10, 177.75
488, 625, 0, 177.75
489, 625, -10, 208.875
490, 625, 0, 208.875
491, 625, -10, 240
492, 625, 0, 240
493, 625, 10, 84.375
494, 625, 10, 115.5
495, 625, 10, 146.625
496, 625, 10, 177.75
497, 625, 10, 208.875
498, 625, 10, 240
499, 625, -120, 240
500, 625, -92.5, 240
501, 625, -120, 250
502, 625, -92.5, 250
503, 625, -120, 260
504, 625, -92.5, 260
505, 625, -65, 240
506, 625, -65, 250
507, 625, -65, 260
508, 625, -37.5, 240
509, 625, -37.5, 250
510, 625, -37.5, 260
511, 625, -10, 250
512, 625, -10, 260
513, 625, 0, 250
514, 625, 0, 260
515, 625, 10, 250
516, 625, 10, 260
517, 625, 37.5, 240
518, 625, 37.5, 250
519, 625, 37.5, 260
520, 625, 65, 240
521, 625, 65, 250
522, 625, 65, 260
523, 625, 92.5, 240
524, 625, 92.5, 250
525, 625, 92.5, 260
526, 625, 120, 240
527, 625, 120, 250
528, 625, 120, 260
529, 687.5, -10, 91.09375
530, 687.5, 0, 91.09375
531, 687.5, -10, 120.875
532, 687.5, 0, 120.875
533, 687.5, -10, 150.65625
534, 687.5, 0, 150.65625
535, 687.5, -10, 180.4375
536, 687.5, 0, 180.4375
537, 687.5, -10, 210.21875
538, 687.5, 0, 210.21875
539, 687.5, -10, 240
540, 687.5, 0, 240
541, 687.5, 10, 91.09375
542, 687.5, 10, 120.875
543, 687.5, 10, 150.65625
544, 687.5, 10, 180.4375
545, 687.5, 10, 210.21875
546, 687.5, 10, 240
547, 687.5, -120, 240
548, 687.5, -92.5, 240
549, 687.5, -120, 250
550, 687.5, -92.5, 250
551, 687.5, -120, 260
552, 687.5, -92.5, 260
553, 687.5, -65, 240
554, 687.5, -65, 250
555, 687.5, -65, 260
556, 687.5, -37.5, 240
557, 687.5, -37.5, 250
558, 687.5, -37.5, 260
559, 687.5, -10, 250
560, 687.5, -10, 260
561, 687.5, 0, 250
562, 687.5, 0, 260
563, 687.5, 10, 250
564, 687.5, 10, 260
565, 687.5, 37.5, 240
566, 687.5, 37.5, 250
567, 687.5, 37.5, 260
568, 687.5, 65, 240
569, 687.5, 65, 250
570, 687.5, 65, 260
571, 687.5, 92.5, 240
572, 687.5, 92.5, 250
573, 687.5, 92.5, 260
574, 687.5, 120, 240
575, 687.5, 120, 250
576, 687.5, 120, 260
577, 750, -10, 97.5
578, 750, 0, 97.5
579, 750, -10, 126
580, 750, 0, 126
581, 750, -10, 154.5
582, 750, 0, 154.5
583, 750, -10, 183
584, 750, 0, 183
585, 750, -10, 211.5
586, 750, 0, 211.5
587, 750, -10, 240
588, 750, 0, 240
589, 750, 10, 97.5
590, 750, 10, 126
591, 750, 10, 154.5
592, 750, 10, 183
593, 750, 10, 211.5
594, 750, 10, 240
595, 750, -120, 240
596, 750, -92.5, 240
597, 750, -120, 250
598, 750, -92.5, 250
599, 750, -120, 260
600, 750, -92.5, 260
601, 750, -65, 240
602, 750, -65, 250
603, 750, -65, 260
604, 750, -37.5, 240
605, 750, -37.5, 250
606, 750, -37.5, 260
607, 750, -10, 250
608, 750, -10, 260
609, 750, 0, 250
610, 750, 0, 260
611, 750, 10, 250
612, 750, 10, 260
613, 750, 37.5, 240
614, 750, 37.5, 250
615, 750, 37.5, 260
616, 750, 65, 240
617, 750, 65, 250
618, 750, 65, 260
619, 750, 92.5, 240
620, 750, 92.5, 250
621, 750, 92.5, 260
622, 750, 120, 240
623, 750, 120, 250
624, 750, 120, 260
625, 812.5, -10, 103.59375
626, 812.5, 0, 103.59375
627, 812.5, -10, 130.875
628, 812.5, 0, 130.875
629, 812.5, -10, 158.15625
630, 812.5, 0, 158.15625
631, 812.5, -10, 185.4375
632, 812.5, 0, 185.4375
633, 812.5, -10, 212.71875
634, 812.5, 0, 212.71875
635, 812.5, -10, 240
636, 812.5, 0, 240
637, 812.5, 10, 103.59375
638, 812.5, 10, 130.875
639, 812.5, 10, 158.15625
640, 812.5, 10, 185.4375
641, 812.5, 10, 212.71875
642, 812.5, 10, 240
643, 812.5, -120, 240
644, 812.5, -92.5, 240
645, 812.5, -120, 250
646, 812.5, -92.5, 250
647, 812.5, -120, 260
648, 812.5, -92.5, 260
649, 812.5, -65, 240
650, 812.5, -65, 250
651, 812.5, -65, 260
652, 812.5, -37.5, 240
653, 812.5, -37.5, 250
654, 812.5, -37.5, 260
655, 812.5, -10, 250
656, 812.5, -10, 260
657, 812.5, 0, 250
658, 812.5, 0, 260
659, 812.5, 10, 250
660, 812.5, 10, 260
661, 812.5, 37.5, 240
662, 812.5, 37.5, 250
663, 812.5, 37.5, 260
664, 812.5, 65, 240
665, 812.5, 65, 250
666, 812.5, 65, 260
667, 812.5, 92.5, 240
668, 812.5, 92.5, 250
669, 812.5, 92.5, 260
670, 812.5, 120, 240
671, 812.5, 120, 250
672, 812.5, 120, 260
673, 875, -10, 109.375
674, 875, 0, 109.375
675, 875, -10, 135.5
676, 875, 0, 135.5
677, 875, -10, 161.625
678, 875, 0, 161.625
679, 875, -10, 187.75
680, 875, 0, 187.75
681, 875, -10, 213.875
682, 875, 0, 213.875
683, 875, -10, 240
684, 875, 0, 240
685, 875, 10, 109.375
686, 875, 10, 135.5
687, 875, 10, 161.625
688, 875, 10, 187.75
689, 875, 10, 213.875
690, 875, 10, 240
691, 875, -120, 240
692, 875, -92.5, 240
693, 875, -120, 250
694, 875, -92.5, 250
695, 875, -120, 260
696, 875, -92.5, 260
697, 875, -65, 240
698, 875, -65, 250
699, 875, -65, 260
700, 875, -37.5, 240
701, 875, -37.5, 250
702, 875, -37.5, 260
703, 875, -10, 250
704, 875, -10, 260
705, 875, 0, 250
706, 875, 0, 260
707, 875, 10, 250
708, 875, 10, 260
709, 875, 37.5, 240
710, 875, 37.5, 250
711, 875, 37.5, 260
712, 875, 65, 240
713, 875, 65, 250
714, 875, 65, 260
715, 875, 92.5, 240
716, 875, 92.5, 250
717, 875, 92.5, 260
718, 875, 120, 240
719, 875, 120, 250
720, 875, 120, 260
721, 937.5, -10, 114.84375
722, 937.5, 0, 114.84375
723, 937.5, -10, 139.875
724, 937.5, 0, 139.875
725, 937.5, -10, 164.90625
726, 937.5, 0, 164.90625
727, 937.5, -10, 189.9375
728, 937.5, 0, 189.9375
729, 937.5, -10, 214.96875
730, 937.5, 0, 214.96875
731, 937.5, -10, 240
732, 937.5, 0, 240
733, 937.5, 10, 114.84375
734, 937.5, 10, 139.875
735, 937.5, 10, 164.90625
736, 937.5, 10, 189.9375
737, 937.5, 10, 214.96875
738, 937.5, 10, 240
739, 937.5, -120, 240
740, 937.5, -92.5, 240
741, 937.5, -120, 250
742, 937.5, -92.5, 250
743, 937.5, -120, 260
744, 937.5, -92.5, 260
745, 937.5, -65, 240
746, 937.5, -65, 250
747, 937.5, -65, 260
748, 937.5, -37.5, 240
749, 937.5, -37.5, 250
750, 937.5, -37.5, 260
751, 937.5, -10, 250
752, 937.5, -10, 260
753, 937.5, 0, 250
754, 937.5, 0, 260
755, 937.5, 10, 250
756, 937.5, 10, 260
757, 937.5, 37.5, 240
758, 937.5, 37.5, 250
759, 937.5, 37.5, 260
760, 937.5, 65, 240
761, 937.5, 65, 250
762, 937.5, 65, 260
763, 937.5, 92.5, 240
764, 937.5, 92.5, 250
765, 937.5, 92.5, 260
766, 937.5, 120, 240
767, 937.5, 120, 250
768, 937.5, 120, 260
769, 1000, -10, 120
770, 1000, 0, 120
771, 1000, -10, 144
772, 1000, 0, 144
773, 1000, -10, 168
774, 1000, 0, 168
775, 1000, -10, 192
776, 1000, 0, 192
777, 1000, -10, 216
778, 1000, 0, 216
779, 1000, -10, 240
780, 1000, 0, 240
781, 1000, 10, 120
782, 1000, 10, 144
783, 1000, 10, 168
784, 1000, 10, 192
785, 1000, 10, 216
786, 1000, 10, 240
787, 1000, -120, 240
788, 1000, -92.5, 240
789, 1000, -120, 250
790, 1000, -92.5, 250
791, 1000, -120, 260
792, 1000, -92.5, 260
793, 1000, -65, 240
794, 1000, -65, 250
795, 1000, -65, 260
796, 1000, -37.5, 240
797, 1000, -37.5, 250
798, 1000, -37.5, 260
799, 1000, -10, 250
800, 1000, -10, 260
801, 1000, 0, 250
802, 1000, 0, 260
803, 1000, 10, 250
804, 1000, 10, 260
805, 1000, 37.5, 240
806, 1000, 37.5, 250
807, 1000, 37.5, 260
808, 1000, 65, 240
809, 1000, 65, 250
810, 1000, 65, 260
811, 1000, 92.5, 240
812, 1000, 92.5, 250
813, 1000, 92.5, 260
814, 1000, 120, 240
815, 1000, 120, 250
816, 1000, 120, 260
817, 1062.5, -10, 124.84375
818, 1062.5, 0, 124.84375
819, 1062.5, -10, 147.875
820, 1062.5, 0, 147.875
821, 1062.5, -10, 170.90625
822, 1062.5, 0, 170.90625
823, 1062.5, -10, 193.9375
824, 1062.5, 0, 193.9375
825, 1062.5, -10, 216.96875
826, 1062.5, 0, 216.96875
827, 1062.5, -10, 240
828, 1062.5, 0, 240
829, 1062.5, 10, 124.84375
830, 1062.5, 10, 147.875
831, 1062.5, 10, 170.90625
832, 1062.5, 10, 193.9375
833, 1062.5, 10, 216.96875
834, 1062.5, 10, 240
835, 1062.5, -120, 240
836, 1062.5, -92.5, 240
837, 1062.5, -120, 250
838, 1062.5, -92.5, 250
839, 1062.5, -120, 260
840, 1062.5, -92.5, 260
841, 1062.5, -65, 240
842, 1062.5, -65, 250
843, 1062.5, -65, 260
844, 1062.5, -37.5, 240
845, 1062.5, -37.5, 250
846, 1062.5, -37.5, 260
847, 1062.5, -10, 250
848, 1062.5, -10, 260
849, 1062.5, 0, 250
850, 1062.5, 0, 260
851, 1062.5, 10, 250
852, 1062.5, 10, 260
853, 1062.5, 37.5, 240
854, 1062.5, 37.5, 250
855, 1062.5, 37.5, 260
856, 1062.5, 65, 240
857, 1062.5, 65, 250
858, 1062.5, 65, 260
859, 1062.5, 92.5, 240
860, 1062.5, 92.5, 250
861, 1062.5, 92.5, 260
862, 1062.5, 120, 240
863, 1062.5, 120, 250
864, 1062.5, 120, 260
865, 1125, -10, 129.375
866, 1125, 0, 129.375
867, 1125, -10, 151.5
868, 1125, 0, 151.5
869, 1125, -10, 173.625
870, 1125, 0, 173.625
871, 1125, -10, 195.75
872, 1125, 0, 195.75
873, 1125, -10, 217.875
874, 1125, 0, 217.875
875, 1125, -10, 240
876, 1125, 0, 240
877, 1125, 10, 129.375
878, 1125, 10, 151.5
879, 1125, 10, 173.625
880, 1125, 10, 195.75
881, 1125, 10, 217.875
882, 1125, 10, 240
883, 1125, -120, 240
884, 1125, -92.5, 240
885, 1125, -120, 250
886, 1125, -92.5, 250
887, 1125, -120, 260
888, 1125, -92.5, 260
889, 1125, -65, 240
890, 1125, -65, 250
891, 1125, -65, 260
892, 1125, -37.5, 240
893, 1125, -37.5, 250
894, 1125, -37.5, 260
895, 1125, -10, 250
896, 1125, -10, 260
897, 1125, 0, 250
898, 1125, 0, 260
899, 1125, 10, 250
900, 1125, 10, 260
901, 1125, 37.5, 240
902, 1125, 37.5, 250
903, 1125, 37.5, 260
904, 1125, 65, 240
905, 1125, 65, 250
906, 1125, 65, 260
907, 1125, 92.5, 240
908, 1125, 92.5, 250
909, 1125, 92.5, 260
910, 1125, 120, 240
911, 1125, 120, 250
912, 1125, 120, 260
913, 1187.5, -10, 133.59375
914, 1187.5, 0, 133.59375
915, 1187.5, -10, 154.875
916, 1187.5, 0, 154.875
917, 1187.5, -10, 176.15625
918, 1187.5, 0, 176.15625
919, 1187.5, -10, 197.4375
920, 1187.5, 0, 197.4375
921, 1187.5, -10, 218.71875
922, 1187.5, 0, 218.71875
923, 1187.5, -10, 240
924, 1187.5, 0, 240
925, 1187.5, 10, 133.59375
926, 1187.5, 10, 154.875
927, 1187.5, 10, 176.15625
928, 1187.5, 10, 197.4375
929, 1187.5, 10, 218.71875
930, 1187.5, 10, 240
931, 1187.5, -120, 240
932, 1187.5, -92.5, 240
933, 1187.5, -120, 250
934, 1187.5, -92.5, 250
935, 1187.5, -120, 260
936, 1187.5, -92.5, 260
937, 1187.5, -65, 240
938, 1187.5, -65, 250
939, 1187.5, -65, 260
940, 1187.5, -37.5, 240
941, 1187.5, -37.5, 250
942, 1187.5, -37.5, 260
943, 1187.5, -10, 250
944, 1187.5, -10, 260
945, 1187.5, 0, 250
946, 1187.5, 0, 260
947, 1187.5, 10, 250
948, 1187.5, 10, 260
949, 1187.5, 37.5, 240
950, 1187.5, 37.5, 250
951, 1187.5, 37.5, 260
952, 1187.5, 65, 240
953, 1187.5, 65, 250
954, 1187.5, 65, 260
955, 1187.5, 92.5, 240
956, 1187.5, 92.5, 250
957, 1187.5, 92.5, 260
958, 1187.5, 120, 240
959, 1187.5, 120, 250
960, 1187.5, 120, 260
961, 1250, -10, 137.5
962, 1250, 0, 137.5
963, 1250, -10, 158
964, 1250, 0, 158
965, 1250, -10, 178.5
966, 1250, 0, 178.5
967, 1250, -10, 199
968, 1250, 0, 199
969, 1250, -10, 219.5
970, 1250, 0, 219.5
971, 1250, -10, 240
972, 1250, 0, 240
973, 1250, 10, 137.5
974, 1250, 10, 158
975, 1250, 10, 178.5
976, 1250, 10, 199
977, 1250, 10, 219.5
978, 1250, 10, 240
979, 1250, -120, 240
980, 1250, -92.5, 240
981, 1250, -120, 250
982, 1250, -92.5, 250
983, 1250, -120, 260
984, 1250, -92.5, 260
985, 1250, -65, 240
986, 1250, -65, 250
987, 1250, -65, 260
988, 1250, -37.5, 240
989, 1250, -37.5, 250
990, 1250, -37.5, 260
991, 1250, -10, 250
992, 1250, -10, 260
993, 1250, 0, 250
994, 1250, 0, 260
995, 1250, 10, 250
996, 1250, 10, 260
997, 1250, 37.5, 240
998, 1250, 37.5, 250
999, 1250, 37.5, 260
1000, 1250, 65, 240
1001, 1250, 65, 250
1002, 1250, 65, 260
1003, 1250, 92.5, 240
1004, 1250, 92.5, 250
1005, 1250, 92.5, 260
1006, 1250, 120, 240
1007, 1250, 120, 250
1008, 1250, 120, 260
1009, 1312.5, -10, 141.09375
1010, 1312.5, 0, 141.09375
1011, 1312.5, -10, 160.875
1012, 1312.5, 0, 160.875
1013, 1312.5, -10, 180.65625
1014, 1312.5, 0, 180.65625
1015, 1312.5, -10, 200.4375
1016, 1312.5, 0, 200.4375
1017, 1312.5, -10, 220.21875
1018, 1312.5, 0, 220.21875
1019, 1312.5, -10, 240
1020, 1312.5, 0, 240
1021, 1312.5, 10, 141.09375
1022, 1312.5, 10, 160.875
1023, 1312.5, 10, 180.65625
1024, 1312.5, 10, 200.4375
1025, 1312.5, 10, 220.21875
1026, 1312.5, 10, 240
1027, 1312.5, -120, 240
1028, 1312.5, -92.5, 240
1029, 1312.5, -120, 250
1030, 1312.5, -92.5, 250
1031, 1312.5, -120, 260
1032, 1312.5, -92.5, 260
1033, 1312.5, -65, 240
1034, 1312.5, -65, 250
1035, 1312.5, -65, 260
1036, 1312.5, -37.5, 240
1037, 1312.5, -37.5, 250
1038, 1312.5, -37.5, 260
1039, 1312.5, -10, 250
1040, 1312.5, -10, 260
1041, 1312.5, 0, 250
1042, 1312.5, 0, 260
1043, 1312.5, 10, 250
1044, 1312.5, 10, 260
1045, 1312.5, 37.5, 240
1046, 1312.5, 37.5, 250
1047, 1312.5, 37.5, 260
1048, 1312.5, 65, 240
1049, 1312.5, 65, 250
1050, 1312.5, 65, 260
1051, 1312.5, 92.5, 240
1052, 1312.5, 92.5, 250
1053, 1312.5, 92.5, 260
1054, 1312.5, 120, 240
1055, 1312.5, 120, 250
1056, 1312.5, 120, 260
1057, 1375, -10, 144.375
1058, 1375, 0, 144.375
1059, 1375, -10, 163.5
1060, 1375, 0, 163.5
1061, 1375, -10, 182.625
1062, 1375, 0, 182.625
1063, 1375, -10, 201.75
1064, 1375, 0, 201.75
1065, 1375, -10, 220.875
1066, 1375, 0, 220.875
1067, 1375, -10, 240
1068, 1375, 0, 240
1069, 1375, 10, 144.375
1070, 1375, 10, 163.5
1071, 1375, 10, 182.625
1072, 1375, 10, 201.75
1073, 1375, 10, 220.875
1074, 1375, 10, 240
1075, 1375, -120, 240
1076, 1375, -92.5, 240
1077, 1375, -120, 250
1078, 1375, -92.5, 250
1079, 1375, -120, 260
1080, 1375, -92.5, 260
1081, 1375, -65, 240
1082, 1375, -65, 250
1083, 1375, -65, 260
1084, 1375, -37.5, 240
1085, 1375, -37.5, 250
1086, 1375, -37.5, 260
1087, 1375, -10, 250
1088, 1375, -10, 260
1089, 1375, 0, 250
1090, 1375, 0, 260
1091, 1375, 10, 250
1092, 1375, 10, 260
1093, 1375, 37.5, 240
1094, 1375, 37.5, 250
1095, 1375, 37.5, 260
1096, 1375, 65, 240
1097, 1375, 65, 250
1098, 1375, 65, 260
1099, 1375, 92.5, 240
1100, 1375, 92.5, 250
1101, 1375, 92.5, 260
1102, 1375, 120, 240
1103, 1375, 120, 250
1104, 1375, 120, 260
1105, 1437.5, -10, 147.34375
1106, 1437.5, 0, 147.34375
1107, 1437.5, -10, 165.875
1108, 1437.5, 0, 165.875
1109, 1437.5, -10, 184.40625
1110, 1437.5, 0, 184.40625
1111, 1437.5, -10, 202.9375
1112, 1437.5, 0, 202.9375
1113, 1437.5, -10, 221.46875
1114, 1437.5, 0, 221.46875
1115, 1437.5, -10, 240
1116, 1437.5, 0, 240
1117, 1437.5, 10, 147.34375
1118, 1437.5, 10, 165.875
1119, 1437.5, 10, 184.40625
1120, 1437.5, 10, 202.9375
1121, 1437.5, 10, 221.46875
1122, 1437.5, 10, 240
1123, 1437.5, -120, 240
1124, 1437.5, -92.5, 240
1125, 1437.5, -120, 250
1126, 1437.5, -92.5, 250
1127, 1437.5, -120, 260
1128, 1437.5, -92.5, 260
1129, 1437.5, -65, 240
1130, 1437.5, -65, 250
1131, 1437.5, -65, 260
1132, 1437.5, -37.5, 240
1133, 1437.5, -37.5, 250
1134, 1437.5, -37.5, 260
1135, 1437.5, -10, 250
1136, 1437.5, -10, 260
1137, 1437.5, 0, 250
1138, 1437.5, 0, 260
1139, 1437.5, 10, 250
1140, 1437.5, 10, 260
1141, 1437.5, 37.5, 240
1142, 1437.5, 37.5, 250
1143, 1437.5, 37.5, 260
1144, 1437.5, 65, 240
1145, 1437.5, 65, 250
1146, 1437.5, 65, 260
1147, 1437.5, 92.5, 240
1148, 1437.5, 92.5, 250
1149, 1437.5, 92.5, 260
1150, 1437.5, 120, 240
1151, 1437.5, 120, 250
1152, 1437.5, 120, 260
1153, 1500, -10, 150
1154, 1500, 0, 150
1155, 1500, -10, 168
1156, 1500, 0, 168
1157, 1500, -10, 186
1158, 1500, 0, 186
1159, 1500, -10, 204
1160, 1500, 0, 204
1161, 1500, -10, 222
1162, 1500, 0, 222
1163, 1500, -10, 240
1164, 1500, 0, 240
1165, 1500, 10, 150
1166, 1500, 10, 168
1167, 1500, 10, 186
1168, 1500, 10, 204
1169, 1500, 10, 222
1170, 1500, 10, 240
1171, 1500, -120, 240
1172, 1500, -92.5, 240
1173, 1500, -120, 250
1174, 1500, -92.5, 250
1175, 1500, -120, 260
1176, 1500, -92.5, 260
1177, 1500, -65, 240
1178, 1500, -65, 250
1179, 1500, -65, 260
1180, 1500, -37.5, 240
1181, 1500, -37.5, 250
1182, 1500, -37.5, 260
1183, 1500, -10, 250
1184, 1500, -10, 260
1185, 1500, 0, 250
1186, 1500, 0, 260
1187, 1500, 10, 250
1188, 1500, 10, 260
1189, 1500, 37.5, 240
1190, 1500, 37.5, 250
1191, 1500, 37.5, 260
1192, 1500, 65, 240
1193, 1500, 65, 250
1194, 1500, 65, 260
1195, 1500, 92.5, 240
1196, 1500, 92.5, 250
1197, 1500, 92.5, 260
1198, 1500, 120, 240
1199, 1500, 120, 250
1200, 1500, 120, 260
1201, 1562.5, -10, 152.34375
1202, 1562.5, 0, 152.34375
1203, 1562.5, -10, 169.875
1204, 1562.5, 0, 169.875
1205, 1562.5, -10, 187.40625
1206, 1562.5, 0, 187.40625
1207, 1562.5, -10, 204.9375
1208, 1562.5, 0, 204.9375
1209, 1562.5, -10, 222.46875
1210, 1562.5, 0, 222.46875
1211, 1562.5, -10, 240
1212, 1562.5, 0, 240
1213, 1562.5, 10, 152.34375
1214, 1562.5, 10, 169.875
1215, 1562.5, 10, 187.40625
1216, 1562.5, 10, 204.9375
1217, 1562.5, 10, 222.46875
1218, 1562.5, 10, 240
1219, 1562.5, -120, 240
1220, 1562.5, -92.5, 240
1221, 1562.5, -120, 250
1222, 1562.5, -92.5, 250
1223, 1562.5, -120, 260
1224, 1562.5, -92.5, 260
1225, 1562.5, -65, 240
1226, 1562.5, -65, 250
1227, 1562.5, -65, 260
1228, 1562.5, -37.5, 240
1229, 1562.5, -37.5, 250
1230, 1562.5, -37.5, 260
1231, 1562.5, -10, 250
1232, 1562.5, -10, 260
1233, 1562.5, 0, 250
1234, 1562.5, 0, 260
1235, 1562.5, 10, 250
1236, 1562.5, 10, 260
1237, 1562.5, 37.5, 240
1238, 1562.5, 37.5, 250
1239, 1562.5, 37.5, 260
1240, 1562.5, 65, 240
1241, 1562.5, 65, 250
1242, 1562.5, 65, 260
1243, 1562.5, 92.5, 240
1244, 1562.5, 92.5, 250
1245, 1562.5, 92.5, 260
1246, 1562.5, 120, 240
1247, 1562.5, 120, 250
1248, 1562.5, 120, 260
1249, 1625, -10, 154.375
1250, 1625, 0, 154.375
1251, 1625, -10, 171.5
1252, 1625, 0, 171.5
1253, 1625, -10, 188.625
1254, 1625, 0, 188.625
1255, 1625, -10, 205.75
1256, 1625, 0, 205.75
1257, 1625, -10, 222.875
1258, 1625, 0, 222.875
1259, 1625, -10, 240
1260, 1625, 0, 240
1261, 1625, 10, 154.375
1262, 1625, 10, 171.5
1263, 1625, 10, 188.625
1264, 1625, 10, 205.75
1265, 1625, 10, 222.875
1266, 1625, 10, 240
1267, 1625, -120, 240
1268, 1625, -92.5, 240
1269, 1625, -120, 250
1270, 1625, -92.5, 250
1271, 1625, -120, 260
1272, 1625, -92.5, 260
1273, 1625, -65, 240
1274, 1625, -65, 250
1275, 1625, -65, 260
1276, 1625, -37.5, 240
1277, 1625, -37.5, 250
1278, 1625, -37.5, 260
1279, 1625, -10, 250
1280, 1625, -10, 260
1281, 1625, 0, 250
1282, 1625, 0, 260
1283, 1625, 10, 250
1284, 1625, 10, 260
1285, 1625, 37.5, 240
1286, 1625, 37.5, 250
1287, 1625, 37.5, 260
1288, 1625, 65, 240
1289, 1625, 65, 250
1290, 1625, 65, 260
1291, 1625, 92.5, 240
1292, 1625, 92.5, 250
1293, 1625, 92.5, 260
1294, 1625, 120, 240
1295, 1625, 120, 250
1296, 1625, 120, 260
1297, 1687.5, -10, 156.09375
1298, 1687.5, 0, 156.09375
1299, 1687.5, -10, 172.875
1300, 1687.5, 0, 172.875
1301, 1687.5, -10, 189.65625
1302, 1687.5, 0, 189.65625
1303, 1687.5, -10, 206.4375
1304, 1687.5, 0, 206.4375
1305, 1687.5, -10, 223.21875
1306, 1687.5, 0, 223.21875
1307, 1687.5, -10, 240
1308, 1687.5, 0, 240
1309, 1687.5, 10, 156.09375
1310, 1687.5, 10, 172.875
1311, 1687.5, 10, 189.65625
1312, 1687.5, 10, 206.4375
1313, 1687.5, 10, 223.21875
1314, 1687.5, 10, 240
1315, 1687.5, -120, 240
1316, 1687.5, -92.5, 240
1317, 1687.5, -120, 250
1318, 1687.5, -92.5, 250
1319, 1687.5, -120, 260
1320, 1687.5, -92.5, 260
1321, 1687.5, -65, 240
1322, 1687.5, -65, 250
1323, 1687.5, -65, 260
1324, 1687.5, -37.5, 240
1325, 1687.5, -37.5, 250
1326, 1687.5, -37.5, 260
1327, 1687.5, -10, 250
1328, 1687.5, -10, 260
1329, 1687.5, 0, 250
1330, 1687.5, 0, 260
1331, 1687.5, 10, 250
1332, 1687.5, 10, 260
1333, 1687.5, 37.5, 240
1334, 1687.5, 37.5, 250
1335, 1687.5, 37.5, 260
1336, 1687.5, 65, 240
1337, 1687.5, 65, 250
1338, 1687.5, 65, 260
1339, 1687.5, 92.5, 240
1340, 1687.5, 92.5, 250
1341, 1687.5, 92.5, 260
1342, 1687.5, 120, 240
1343, 1687.5, 120, 250
1344, 1687.5, 120, 260
1345, 1750, -10, 157.5
1346, 1750, 0, 157.5
1347, 1750, -10, 174
1348, 1750, 0, 174
1349, 1750, -10, 190.5
1350, 1750, 0, 190.5
1351, 1750, -10, 207
1352, 1750, 0, 207
1353, 1750, -10, 223.5
1354, 1750, 0, 223.5
1355, 1750, -10, 240
1356, 1750, 0, 240
1357, 1750, 10, 157.5
1358, 1750, 10, 174
1359, 1750, 10, 190.5
1360, 1750, 10, 207
1361, 1750, 10, 223.5
1362, 1750, 10, 240
1363, 1750, -120, 240
1364, 1750, -92.5, 240
1365, 1750, -120, 250
1366, 1750, -92.5, 250
1367, 1750, -120, 260
1368, 1750, -92.5, 260
1369, 1750, -65, 240
1370, 1750, -65, 250
1371, 1750, -65, 260
1372, 1750, -37.5, 240
1373, 1750, -37.5, 250
1374, 1750, -37.5, 260
1375, 1750, -10, 250
1376, 1750, -10, 260
1377, 1750, 0, 250
1378, 1750, 0, 260
1379, 1750, 10, 250
1380, 1750, 10, 260
1381, 1750, 37.5, 240
1382, 1750, 37.5, 250
1383, 1750, 37.5, 260
1384, 1750, 65, 240
1385, 1750, 65, 250
1386, 1750, 65, 260
1387, 1750, 92.5, 240
1388, 1750, 92.5, 250
1389, 1750, 92.5, 260
1390, 1750, 120, 240
1391, 1750, 120, 250
1392, 1750, 120, 260
1393, 1812.5, -10, 158.59375
1394, 1812.5, 0, 158.59375
1395, 1812.5, -10, 174.875
1396, 1812.5, 0, 174.875
1397, 1812.5, -10, 191.15625
1398, 1812.5, 0, 191.15625
1399, 1812.5, -10, 207.4375
1400, 1812.5, 0, 207.4375
1401, 1812.5, -10, 223.71875
1402, 1812.5, 0, 223.71875
1403, 1812.5, -10, 240
1404, 1812.5, 0, 240
1405, 1812.5, 10, 158.59375
1406, 1812.5, 10, 174.875
1407, 1812.5, 10, 191.15625
1408, 1812.5, 10, 207.4375
1409, 1812.5, 10, 223.71875
1410, 1812.5, 10, 240
1411, 1812.5, -120, 240
1412, 1812.5, -92.5, 240
1413, 1812.5, -120, 250
1414, 1812.5, -92.5, 250
1415, 1812.5, -120, 260
1416, 1812.5, -92.5, 260
1417, 1812.5, -65, 240
1418, 1812.5, -65, 250
1419, 1812.5, -65, 260
1420, 1812.5, -37.5, 240
1421, 1812.5, -37.5, 250
1422, 1812.5, -37.5, 260
1423, 1812.5, -10, 250
1424, 1812.5, -10, 260
1425, 1812.5, 0, 250
1426, 1812.5, 0, 260
1427, 1812.5, 10, 250
1428, 1812.5, 10, 260
1429, 1812.5, 37.5, 240
1430, 1812.5, 37.5, 250
1431, 1812.5, 37.5, 260
1432, 1812.5, 65, 240
1433, 1812.5, 65, 250
1434, 1812.5, 65, 260
1435, 1812.5, 92.5, 240
1436, 1812.5, 92.5, 250
1437, 1812.5, 92.5, 260
1438, 1812.5, 120, 240
1439, 1812.5, 120, 250
1440, 1812.5, 120, 260
1441, 1875, -10, 159.375
1442, 1875, 0, 159.375
1443, 1875, -10, 175.5
1444, 1875, 0, 175.5
1445, 1875, -10, 191.625
1446, 1875, 0, 191.625
1447, 1875, -10, 207.75
1448, 1875, 0, 207.75
1449, 1875, -10, 223.875
1450, 1875, 0, 223.875
1451, 1875, -10, 240
1452, 1875, 0, 240
1453, 1875, 10, 159.375
1454, 1875, 10, 175.5
1455, 1875, 10, 191.625
1456, 1875, 10, 207.75
1457, 1875, 10, 223.875
1458, 1875, 10, 240
1459, 1875, -120, 240
1460, 1875, -92.5, 240
1461, 1875, -120, 250
1462, 1875, -92.5, 250
1463, 1875, -120, 260
1464, 1875, -92.5, 260
1465, 1875, -65, 240
1466, 1875, -65, 250
1467, 1875, -65, 260
1468, 1875, -37.5, 240
1469, 1875, -37.5, 250
1470, 1875, -37.5, 260
1471, 1875, -10, 250
1472, 1875, -10, 260
1473, 1875, 0, 250
1474, 1875, 0, 260
1475, 1875, 10, 250
1476, 1875, 10, 260
1477, 1875, 37.5, 240
1478, 1875, 37.5, 250
1479, 1875, 37.5, 260
1480, 1875, 65, 240
1481, 1875, 65, 250
1482, 1875, 65, 260
1483, 1875, 92.5, 240
1484, 1875, 92.5, 250
1485, 1875, 92.5, 260
1486, 1875, 120, 240
1487, 1875, 120, 250
1488, 1875, 120, 260
1489, 1937.5, -10, 159.84375
1490, 1937.5, 0, 159.84375
1491, 1937.5, -10, 175.875
1492, 1937.5, 0, 175.875
1493, 1937.5, -10, 191.90625
1494, 1937.5, 0, 191.90625
1495, 1937.5, -10, 207.9375
1496, 1937.5, 0, 207.9375
1497, 1937.5, -10, 223.96875
1498, 1937.5, 0, 223.96875
1499, 1937.5, -10, 240
1500, 1937.5, 0, 240
1501, 1937.5, 10, 159.84375
1502, 1937.5, 10, 175.875
1503, 1937.5, 10, 191.90625
1504, 1937.5, 10, 207.9375
1505, 1937.5, 10, 223.96875
1506, 1937.5, 10, 240
1507, 1937.5, -120, 240
1508, 1937.5, -92.5, 240
1509, 1937.5, -120, 250
1510, 1937.5, -92.5, 250
1511, 1937.5, -120, 260
1512, 1937.5, -92.5, 260
1513, 1937.5, -65, 240
1514, 1937.5, -65, 250
1515, 1937.5, -65, 260
1516, 1937.5, -37.5, 240
1517, 1937.5, -37.5, 250
1518, 1937.5, -37.5, 260
1519, 1937.5, -10, 250
1520, 1937.5, -10, 260
1521, 1937.5, 0, 250
1522, 1937.5, 0, 260
1523, 1937.5, 10, 250
1524, 1937.5, 10, 260
1525, 1937.5, 37.5, 240
1526, 1937.5, 37.5, 250
1527, 1937.5, 37.5, 260
1528, 1937.5, 65, 240
1529, 1937.5, 65, 250
1530, 1937.5, 65, 260
1531, 1937.5, 92.5, 240
1532, 1937.5, 92.5, 250
1533, 1937.5, 92.5, 260
1534, 1937.5, 120, 240
1535, 1937.5, 120, 250
1536, 1937.5, 120, 260
1537, 2000, -10, 160
1538, 2000, 0, 160
1539, 2000, -10, 176
1540, 2000, 0, 176
1541, 2000, -10, 192
1542, 2000, 0, 192
1543, 2000, -10, 208
1544, 2000, 0, 208
1545, 2000, -10, 224
1546, 2000, 0, 224
1547, 2000, -10, 240
1548, 2000, 0, 240
1549, 2000, 10, 160
1550, 2000, 10, 176
1551, 2000, 10, 192
1552, 2000, 10, 208
1553, 2000, 10, 224
1554, 2000, 10, 240
1555, 2000, -120, 240
1556, 2000, -92.5, 240
1557, 2000, -120, 250
1558, 2000, -92.5, 250
1559, 2000, -120, 260
1560, 2000, -92.5, 260
1561, 2000, -65, 240
1562, 2000, -65, 250
1563, 2000, -65, 260
1564, 2000, -37.5, 240
1565, 2000, -37.5, 250
1566, 2000, -37.5, 260
1567, 2000, -10, 250
1568, 2000, -10, 260
1569, 2000, 0, 250
1570, 2000, 0, 260
1571, 2000, 10, 250
1572, 2000, 10, 260
1573, 2000, 37.5, 240
1574, 2000, 37.5, 250
1575, 2000, 37.5, 260
1576, 2000, 65, 240
1577, 2000, 65, 250
1578, 2000, 65, 260
1579, 2000, 92.5, 240
1580, 2000, 92.5, 250
1581, 2000, 92.5, 260
1582, 2000, 120, 240
1583, 2000, 120, 250
1584, 2000, 120, 260
*ELEMENT, TYPE=C3D8, ELSET=EALL
1, 1, 2, 3, 4, 5, 6, 7, 8
2, 5, 6, 7, 8, 9, 10, 11, 12
3, 9, 10, 11, 12, 13, 14, 15, 16
4, 13, 14, 15, 16, 17, 18, 19, 20
5, 17, 18, 19, 20, 21, 22, 23, 24
6, 4, 3, 25, 26, 8, 7, 27, 28
7, 8, 7, 27, 28, 12, 11, 29, 30
8, 12, 11, 29, 30, 16, 15, 31, 32
9, 16, 15, 31, 32, 20, 19, 33, 34
10, 20, 19, 33, 34, 24, 23, 35, 36
11, 37, 38, 39, 40, 41, 42, 43, 44
12, 41, 42, 43, 44, 45, 46, 47, 48
13, 40, 39, 49, 50, 44, 43, 51, 52
14, 44, 43, 51, 52, 48, 47, 53, 54
15, 50, 49, 55, 56, 52, 51, 57, 58
16, 52, 51, 57, 58, 54, 53, 59, 60
17, 56, 55, 22, 21, 58, 57, 61, 62
18, 58, 57, 61, 62, 60, 59, 63, 64
19, 21, 22, 23, 24, 62, 61, 65, 66
20, 62, 61, 65, 66, 64, 63, 67, 68
21, 24, 23, 35, 36, 66, 65, 69, 70
22, 66, 65, 69, 70, 68, 67, 71, 72
23, 36, 35, 73, 74, 70, 69, 75, 76
24, 70, 69, 75, 76, 72, 71, 77, 78
25, 74, 73, 79, 80, 76, 75, 81, 82
26, 76, 75, 81, 82, 78, 77, 83, 84
27, 80, 79, 85, 86, 82, 81, 87, 88
28, 82, 81, 87, 88, 84, 83, 89, 90
29, 86, 85, 91, 92, 88, 87, 93, 94
30, 88, 87, 93, 94, 90, 89, 95, 96
31, 2, 97, 98, 3, 6, 99, 100, 7
32, 6, 99, 100, 7, 10, 101, 102, 11
33, 10, 101, 102, 11, 14, 103, 104, 15
34, 14, 103, 104, 15, 18, 105, 106, 19
35, 18, 105, 106, 19, 22, 107, 108, 23
36, 3, 98, 109, 25, 7, 100, 110, 27
37, 7, 100, 110, 27, 11, 102, 111, 29
38, 11, 102, 111, 29, 15, 104, 112, 31
39, 15, 104, 112, 31, 19, 106, 113, 33
40, 19, 106, 113, 33, 23, 108, 114, 35
41, 38, 115, 116, 39, 42, 117, 118, 43
42, 42, 117, 118, 43, 46, 119, 120, 47
43, 39, 116, 121, 49, 43, 118, 122, 51
44, 43, 118, 122, 51, 47, 120, 123, 53
45, 49, 121, 124, 55, 51, 122, 125, 57
46, 51, 122, 125, 57, 53, 123, 126, 59
47, 55, 124, 107, 22, 57, 125, 127, 61
48, 57, 125, 127, 61, 59, 126, 128, 63
49, 22, 107, 108, 23, 61, 127, 129, 65
50, 61, 127, 129, 65, 63, 128, 130, 67
51, 23, 108, 114, 35, 65, 129, 131, 69
52, 65, 129, 131, 69, 67, 130, 132, 71
53, 35, 114, 133, 73, 69, 131, 134, 75
54, 69, 131, 134, 75, 71, 132, 135, 77
55, 73, 133, 136, 79, 75, 134, 137, 81
56, 75, 134, 137, 81, 77, 135, 138, 83
57, 79, 136, 139, 85, 81, 137, 140, 87
58, 81, 137, 140, 87, 83, 138, 141, 89
59, 85, 139, 142, 91, 87, 140, 143, 93
60, 87, 140, 143, 93, 89, 141, 144, 95
61, 97, 145, 146, 98, 99, 147, 148, 100
62, 99, 147, 148, 100, 101, 149, 150, 102
63, 101, 149, 150, 102, 103, 151, 152, 104
64, 103, 151, 152, 104, 105, 153, 154, 106
65, 105, 153, 154, 106, 107, 155, 156, 108
66, 98, 146, 157, 109, 100, 148, 158, 110
67, 100, 148, 158, 110, 102, 150, 159, 111
68, 102, 150, 159, 111, 104, 152, 160, 112
69, 104, 152, 160, 112, 106, 154, 161, 113
70, 106, 154, 161, 113, 108, 156, 162, 114
71, 115, 163, 164, 116, 117, 165, 166, 118
72, 117, 165, 166, 118, 119, 167, 168, 120
73, 116, 164, 169, 121, 118, 166, 170, 122
74, 118, 166, 170, 122, 120, 168, 171, 123
75, 121, 169, 172, 124, 122, 170, 173, 125
76, 122, 170, 173, 125, 123, 171, 174, 126
77, 124, 172, 155, 107, 125, 173, 175, 127
78, 125, 173, 175, 127, 126, 174, 176, 128
79, 107, 155, 156, 108, 127, 175, 177, 129
80, 127, 175, 177, 129, 128, 176, 178, 130
81, 108, 156, 162, 114, 129, 177, 179, 131
82, 129, 177, 179, 131, 130, 178, 180, 132
83, 114, 162, 181, 133, 131, 179, 182, 134
84, 131, 179, 182, 134, 132, 180, 183, 135
85, 133, 181, 184, 136, 134, 182, 185, 137
86, 134, 182, 185, 137, 135, 183, 186, 138
87, 136, 184, 187, 139, 137, 185, 188, 140
88, 137, 185, 188, 140, 138, 186, 189, 141
89, 139, 187, 190, 142, 140, 188, 191, 143
90, 140, 188, 191, 143, 141, 189, 192, 144
91, 145, 193, 194, 146, 147, 195, 196, 148
92, 147, 195, 196, 148, 149, 197, 198, 150
93, 149, 197, 198, 150, 151, 199, 200, 152
94, 151, 199, 200, 152, 153, 201, 202, 154
95, 153, 201, 202, 154, 155, 203, 204, 156
96, 146, 194, 205, 157, 148, 196, 206, 158
97, 148, 196, 206, 158, 150, 198, 207, 159
98, 150, 198, 207, 159, 152, 200, 208, 160
99, 152, 200, 208, 160, 154, 202, 209, 161
100, 154, 202, 209, 161, 156, 204, 210, 162
101, 163, 211, 212, 164, 165, 213, 214, 166
102, 165, 213, 214, 166, 167, 215, 216, 168
103, 164, 212, 217, 169, 166, 214, 218, 170
104, 166, 214, 218, 170, 168, 216, 219, 171
105, 169, 217, 220, 172, 170, 218, 221, 173
106, 170, 218, 221, 173, 171, 219, 222, 174
107, 172, 220, 203, 155, 173, 221, 223, 175
108, 173, 221, 223, 175, 174, 222, 224, 176
109, 155, 203, 204, 156, 175, 223, 225, 177
110, 175, 223, 225, 177, 176, 224, 226, 178
111, 156, 204, 210, 162, 177, 225, 227, 179
112, 177, 225, 227, 179, 178, 226, 228, 180
113, 162, 210, 229, 181, 179, 227, 230, 182
114, 179, 227, 230, 182, 180, 228, 231, 183
115, 181, 229, 232, 184, 182, 230, 233, 185
116, 182, 230, 233, 185, 183, 231, 234, 186
117, 184, 232, 235, 187, 185, 233, 236, 188
118, 185, 233, 236, 188, 186, 234, 237, 189
119, 187, 235, 238, 190, 188, 236, 239, 191
120, 188, 236, 239, 191, 189, 237, 240, 192
121, 193, 241, 242, 194, 195, 243, 244, 196
122, 195, 243, 244, 196, 197, 245, 246, 198
123, 197, 245, 246, 198, 199, 247, 248, 200
124, 199, 247, 248, 200, 201, 249, 250, 202
125, 201, 249, 250, 202, 203, 251, 252, 204
126, 194, 242, 253, 205, 196, 244, 254, 206
127, 196, 244, 254, 206, 198, 246, 255, 207
128, 198, 246, 255, 207, 200, 248, 256, 208
129, 200, 248, 256, 208, 202, 250, 257, 209
130, 202, 250, 257, 209, 204, 252, 258, 210
131, 211, 259, 260, 212, 213, 261, 262, 214
132, 213, 261, 262, 214, 215, 263, 264, 216
133, 212, 260, 265, 217, 214, 262, 266, 218
134, 214, 262, 266, 218, 216, 264, 267, 219
135, 217, 265, 268, 220, 218, 266, 269, 221
136, 218, 266, 269, 221, 219, 267, 270, 222
137, 220, 268, 251, 203, 221, 269, 271, 223
138, 221, 269, 271, 223, 222, 270, 272, 224
139, 203, 251, 252, 204, 223, 271, 273, 225
140, 223, 271, 273, 225, 224, 272, 274, 226
141, 204, 252, 258, 210, 225, 273, 275, 227
142, 225, 273, 275, 227, 226, 274, 276, 228
143, 210, 258, 277, 229, 227, 275, 278, 230
144, 227, 275, 278, 230, 228, 276, 279, 231
145, 229, 277, 280, 232, 230, 278, 281, 233
146, 230, 278, 281, 233, 231, 279, 282, 234
147, 232, 280, 283, 235, 233, 281, 284, 236
148, 233, 281, 284, 236, 234, 282, 285, 237
149, 235, 283, 286, 238, 236, 284, 287, 239
150, 236, 284, 287, 239, 237, 285, 288, 240
151, 241, 289, 290, 242, 243, 291, 292, 244
152, 243, 291, 292, 244, 245, 293, 294, 246
153, 245, 293, 294, 246, 247, 295, 296, 248
154, 247, 295, 296, 248, 249, 297, 298, 250
155, 249, 297, 298, 250, 251, 299, 300, 252
156, 242, 290, 301, 253, 244, 292, 302, 254
157, 244, 292, 302, 254, 246, 294, 303, 255
158, 246, 294, 303, 255, 248, 296, 304, 256
159, 248, 296, 304, 256, 250, 298, 305, 257
160, 250, 298, 305, 257, 252, 300, 306, 258
161, 259, 307, 308, 260, 261, 309, 310, 262
162, 261, 309, 310, 262, 263, 311, 312, 264
163, 260, 308, 313, 265, 262, 310, 314, 266
164, 262, 310, 314, 266, 264, 312, 315, 267
165, 265, 313, 316, 268, 266, 314, 317, 269
166, 266, 314, 317, 269, 267, 315, 318, 270
167, 268, 316, 299, 251, 269, 317, 319, 271
168, 269, 317, 319, 271, 270, 318, 320, 272
169, 251, 299, 300, 252, 271, 319, 321, 273
170, 271, 319, 321, 273, 272, 320, 322, 274
171, 252, 300, 306, 258, 273, 321, 323, 275
172, 273, 321, 323, 275, 274, 322, 324, 276
173, 258, 306, 325, 277, 275, 323, 326, 278
174, 275, 323, 326, 278, 276, 324, 327, 279
175, 277, 325, 328, 280, 278, 326, 329, 281
176, 278, 326, 329, 281, 279, 327, 330, 282
177, 280, 328, 331, 283, 281, 329, 332, 284
178, 281, 329, 332, 284, 282, 330, 333, 285
179, 283, 331, 334, 286, 284, 332, 335, 287
180, 284, 332, 335, 287, 285, 333, 336, 288
181, 289, 337, 338, 290, 291, 339, 340, 292
182, 291, 339, 340, 292, 293, 341, 342, 294
183, 293, 341, 342, 294, 295, 343, 344, 296
184, 295, 343, 344, 296, 297, 345, 346, 298
185, 297, 345, 346, 298, 299, 347, 348, 300
186, 290, 338, 349, 301, 292, 340, 350, 302
187, 292, 340, 350, 302, 294, 342, 351, 303
188, 294, 342, 351, 303, 296, 344, 352, 304
189, 296, 344, 352, 304, 298, 346, 353, 305
190, 298, 346, 353, 305, 300, 348, 354, 306
191, 307, 355, 356, 308, 309, 357, 358, 310
192, 309, 357, 358, 310, 311, 359, 360, 312
193, 308, 356, 361, 313, 310, 358, 362, 314
194, 310, 358, 362, 314, 312, 360, 363, 315
195, 313, 361, 364, 316, 314, 362, 365, 317
196, 314, 362, 365, 317, 315, 363, 366, 318
197, 316, 364, 347, 299, 317, 365, 367, 319
198, 317, 365, 367, 319, 318, 366, 368, 320
199, 299, 347, 348, 300, 319, 367, 369, 321
200, 319, 367, 369, 321, 320, 368, 370, 322
201, 300, 348, 354, 306, 321, 369, 371, 323
202, 321, 369, 371, 323, 322, 370, 372, 324
203, 306, 354, 373, 325, 323, 371, 374, 326
204, 323, 371, 374, 326, 324, 372, 375, 327
205, 325, 373, 376, 328, 326, 374, 377, 329
206, 326, 374, 377, 329, 327, 375, 378, 330
207, 328, 376, 379, 331, 329, 377, 380, 332
208, 329, 377, 380, 332, 330, 378, 381, 333
209, 331, 379, 382, 334, 332, 380, 383, 335
210, 332, 380, 383, 335, 333, 381, 384, 336
211, 337, 385, 386, 338, 339, 387, 388, 340
212, 339, 387, 388, 340, 341, 389, 390, 342
213, 341, 389, 390, 342, 343, 391, 392, 344
214, 343, 391, 392, 344, 345, 393, 394, 346
215, 345, 393, 394, 346, 347, 395, 396, 348
216, 338, 386, 397, 349, 340, 388, 398, 350
217, 340, 388, 398, 350, 342, 390, 399, 351
218, 342, 390, 399, 351, 344, 392, 400, 352
219, 344, 392, 400, 352, 346, 394, 401, 353
220, 346, 394, 401, 353, 348, 396, 402, 354
221, 355, 403, 404, 356, 357, 405, 406, 358
222, 357, 405, 406, 358, 359, 407, 408, 360
223, 356, 404, 409, 361, 358, 406, 410, 362
224, 358, 406, 410, 362, 360, 408, 411, 363
225, 361, 409, 412, 364, 362, 410, 413, 365
226, 362, 410, 413, 365, 363, 411, 414, 366
227, 364, 412, 395, 347, 365, 413, 415, 367
228, 365, 413, 415, 367, 366, 414, 416, 368
229, 347, 395, 396, 348, 367, 415, 417, 369
230, 367, 415, 417, 369, 368, 416, 418, 370
231, 348, 396, 402, 354, 369, 417, 419, 371
232, 369, 417, 419, 371, 370, 418, 420, 372
233, 354, 402, 421, 373, 371, 419, 422, 374
234, 371, 419, 422, 374, 372, 420, 423, 375
235, 373, 421, 424, 376, 374, 422, 425, 377
236, 374, 422, 425, 377, 375, 423, 426, 378
237, 376, 424, 427, 379, 377, 425, 428, 380
238, 377, 425, 428, 380, 378, 426, 429, 381
239, 379, 427, 430, 382, 380, 428, 431, 383
240, 380, 428, 431, 383, 381, 429, 432, 384
241, 385, 433, 434, 386, 387, 435, 436, 388
242, 387, 435, 436, 388, 389, 437, 438, 390
243, 389, 437, 438, 390, 391, 439, 440, 392
244, 391, 439, 440, 392, 393, 441, 442, 394
245, 393, 441, 442, 394, 395, 443, 444, 396
246, 386, 434, 445, 397, 388, 436, 446, 398
247, 388, 436, 446, 398, 390, 438, 447, 399
248, 390, 438, 447, 399, 392, 440, 448, 400
249, 392, 440, 448, 400, 394, 442, 449, 401
250, 394, 442, 449, 401, 396, 444, 450, 402
251, 403, 451, 452, 404, 405, 453, 454, 406
252, 405, 453, 454, 406, 407, 455, 456, 408
253, 404, 452, 457, 409, 406, 454, 458, 410
254, 406, 454, 458, 410, 408, 456, 459, 411
255, 409, 457, 460, 412, 410, 458, 461, 413
256, 410, 458, 461, 413, 411, 459, 462, 414
257, 412, 460, 443, 395, 413, 461, 463, 415
258, 413, 461, 463, 415, 414, 462, 464, 416
259, 395, 443, 444, 396, 415, 463, 465, 417
260, 415, 463, 465, 417, 416, 464, 466, 418
261, 396, 444, 450, 402, 417, 465, 467, 419
262, 417, 465, 467, 419, 418, 466, 468, 420
263, 402, 450, 469, 421, 419, 467, 470, 422
264, 419, 467, 470, 422, 420, 468, 471, 423
265, 421, 469, 472, 424, 422, 470, 473, 425
266, 422, 470, 473, 425, 423, 471, 474, 426
267, 424, 472, 475, 427, 425, 473, 476, 428
268, 425, 473, 476, 428, 426, 474, 477, 429
269, 427, 475, 478, 430, 428, 476, 479, 431
270, 428, 476, 479, 431, 429, 477, 480, 432
271, 433, 481, 482, 434, 435, 483, 484, 436
272, 435, 483, 484, 436, 437, 485, 486, 438
273, 437, 485, 486, 438, 439, 487, 488, 440
274, 439, 487, 488, 440, 441, 489, 490, 442
275, 441, 489, 490, 442, 443, 491, 492, 444
276, 434, 482, 493, 445, 436, 484, 494, 446
277, 436, 484, 494, 446, 438, 486, 495, 447
278, 438, 486, 495, 447, 440, 488, 496, 448
279, 440, 488, 496, 448, 442, 490, 497, 449
280, 442, 490, 497, 449, 444, 492, 498, 450
281, 451, 499, 500, 452, 453, 501, 502, 454
282, 453, 501, 502, 454, 455, 503, 504, 456
283, 452, 500, 505, 457, 454, 502, 506, 458
284, 454, 502, 506, 458, 456, 504, 507, 459
285, 457, 505, 508, 460, 458, 506, 509, 461
286, 458, 506, 509, 461, 459, 507, 510, 462
287, 460, 508, 491, 443, 461, 509, 511, 463
288, 461, 509, 511, 463, 462, 510, 512, 464
289, 443, 491, 492, 444, 463, 511, 513, 465
290, 463, 511, 513, 465, 464, 512, 514, 466
291, 444, 492, 498, 450, 465, 513, 515, 467
292, 465, 513, 515, 467, 466, 514, 516, 468
293, 450, 498, 517, 469, 467, 515, 518, 470
294, 467, 515, 518, 470, 468, 516, 519, 471
295, 469, 517, 520, 472, 470, 518, 521, 473
296, 470, 518, 521, 473, 471, 519, 522, 474
297, 472, 520, 523, 475, 473, 521, 524, 476
298, 473, 521, 524, 476, 474, 522, 525, 477
299, 475, 523, 526, 478, 476, 524, 527, 479
300, 476, 524, 527, 479, 477, 525, 528, 480
301, 481, 529, 530, 482, 483, 531, 532, 484
302, 483, 531, 532, 484, 485, 533, 534, 486
303, 485, 533, 534, 486, 487, 535, 536, 488
304, 487, 535, 536, 488, 489, 537, 538, 490
305, 489, 537, 538, 490, 491, 539, 540, 492
306, 482, 530, 541, 493, 484, 532, 542, 494
307, 484, 532, 542, 494, 486, 534, 543, 495
308, 486, 534, 543, 495, 488, 536, 544, 496
309, 488, 536, 544, 496, 490, 538, 545, 497
310, 490, 538, 545, 497, 492, 540, 546, 498
311, 499, 547, 548, 500, 501, 549, 550, 502
312, 501, 549, 550, 502, 503, 551, 552, 504
313, 500, 548, 553, 505, 502, 550, 554, 506
314, 502, 550, 554, 506, 504, 552, 555, 507
315, 505, 553, 556, 508, 506, 554, 557, 509
316, 506, 554, 557, 509, 507, 555, 558, 510
317, 508, 556, 539, 491, 509, 557, 559, 511
318, 509, 557, 559, 511, 510, 558, 560, 512
319, 491, 539, 540, 492, 511, 559, 561, 513
320, 511, 559, 561, 513, 512, 560, 562, 514
321, 492, 540, 546, 498, 513, 561, 563, 515
322, 513, 561, 563, 515, 514, 562, 564, 516
323, 498, 546, 565, 517, 515, 563, 566, 518
324, 515, 563, 566, 518, 516, 564, 567, 519
325, 517, 565, 568, 520, 518, 566, 569, 521
326, 518, 566, 569, 521, 519, 567, 570, 522
327, 520, 568, 571, 523, 521, 569, 572, 524
328, 521, 569, 572, 524, 522, 570, 573, 525
329, 523, 571, 574, 526, 524, 572, 575, 527
330, 524, 572, 575, 527, 525, 573, 576, 528
331, 529, 577, 578, 530, 531, 579, 580, 532
332, 531, 579, 580, 532, 533, 581, 582, 534
333, 533, 581, 582, 534, 535, 583, 584, 536
334, 535, 583, 584, 536, 537, 585, 586, 538
335, 537, 585, 586, 538, 539, 587, 588, 540
336, 530, 578, 589, 541, 532, 580, 590, 542
337, 532, 580, 590, 542, 534, 582, 591, 543
338, 534, 582, 591, 543, 536, 584, 592, 544
339, 536, 584, 592, 544, 538, 586, 593, 545
340, 538, 586, 593, 545, 540, 588, 594, 546
341, 547, 595, 596, 548, 549, 597, 598, 550
342, 549, 597, 598, 550, 551, 599, 600, 552
343, 548, 596, 601, 553, 550, 598, 602, 554
344, 550, 598, 602, 554, 552, 600, 603, 555
345, 553, 601, 604, 556, 554, 602, 605, 557
346, 554, 602, 605, 557, 555, 603, 606, 558
347, 556, 604, 587, 539, 557, 605, 607, 559
348, 557, 605, 607, 559, 558, 606, 608, 560
349, 539, 587, 588, 540, 559, 607, 609, 561
350, 559, 607, 609, 561, 560, 608, 610, 562
351, 540, 588, 594, 546, 561, 609, 611, 563
352, 561, 609, 611, 563, 562, 610, 612, 564
353, 546, 594, 613, 565, 563, 611, 614, 566
354, 563, 611, 614, 566, 564, 612, 615, 567
355, 565, 613, 616, 568, 566, 614, 617, 569
356, 566, 614, 617, 569, 567, 615, 618, 570
357, 568, 616, 619, 571, 569, 617, 620, 572
358, 569, 617, 620, 572, 570, 618, 621, 573
359, 571, 619, 622, 574, 572, 620, 623, 575
360, 572, 620, 623, 575, 573, 621, 624, 576
361, 577, 625, 626, 578, 579, 627, 628, 580
362, 579, 627, 628, 580, 581, 629, 630, 582
363, 581, 629, 630, 582, 583, 631, 632, 584
364, 583, 631, 632, 584, 585, 633, 634, 586
365, 585, 633, 634, 586, 587, 635, 636, 588
366, 578, 626, 637, 589, 580, 628, 638, 590
367, 580, 628, 638, 590, 582, 630, 639, 591
368, 582, 630, 639, 591, 584, 632, 640, 592
369, 584, 632, 640, 592, 586, 634, 641, 593
370, 586, 634, 641, 593, 588, 636, 642, 594
371, 595, 643, 644, 596, 597, 645, 646, 598
372, 597, 645, 646, 598, 599, 647, 648, 600
373, 596, 644, 649, 601, 598, 646, 650, 602
374, 598, 646, 650, 602, 600, 648, 651, 603
375, 601, 649, 652, 604, 602, 650, 653, 605
376, 602, 650, 653, 605, 603, 651, 654, 606
377, 604, 652, 635, 587, 605, 653, 655, 607
378, 605, 653, 655, 607, 606, 654, 656, 608
379, 587, 635, 636, 588, 607, 655, 657, 609
380, 607, 655, 657, 609, 608, 656, 658, 610
381, 588, 636, 642, 594, 609, 657, 659, 611
382, 609, 657, 659, 611, 610, 658, 660, 612
383, 594, 642, 661, 613, 611, 659, 662, 614
384, 611, 659, 662, 614, 612, 660, 663, 615
385, 613, 661, 664, 616, 614, 662, 665, 617
386, 614, 662, 665, 617, 615, 663, 666, 618
387, 616, 664, 667, 619, 617, 665, 668, 620
388, 617, 665, 668, 620, 618, 666, 669, 621
389, 619, 667, 670, 622, 620, 668, 671, 623
390, 620, 668, 671, 623, 621, 669, 672, 624
391, 625, 673, 674, 626, 627, 675, 676, 628
392, 627, 675, 676, 628, 629, 677, 678, 630
393, 629, 677, 678, 630, 631, 679, 680, 632
394, 631, 679, 680, 632, 633, 681, 682, 634
395, 633, 681, 682, 634, 635, 683, 684, 636
396, 626, 674, 685, 637, 628, 676, 686, 638
397, 628, 676, 686, 638, 630, 678, 687, 639
398, 630, 678, 687, 639, 632, 680, 688, 640
399, 632, 680, 688, 640, 634, 682, 689, 641
400, 634, 682, 689, 641, 636, 684, 690, 642
401, 643, 691, 692, 644, 645, 693, 694, 646
402, 645, 693, 694, 646, 647, 695, 696, 648
403, 644, 692, 697, 649, 646, 694, 698, 650
404, 646, 694, 698, 650, 648, 696, 699, 651
405, 649, 697, 700, 652, 650, 698, 701, 653
406, 650, 698, 701, 653, 651, 699, 702, 654
407, 652, 700, 683, 635, 653, 701, 703, 655
408, 653, 701, 703, 655, 654, 702, 704, 656
409, 635, 683, 684, 636, 655, 703, 705, 657
410, 655, 703, 705, 657, 656, 704, 706, 658
411, 636, 684, 690, 642, 657, 705, 707, 659
412, 657, 705, 707, 659, 658, 706, 708, 660
413, 642, 690, 709, 661, 659, 707, 710, 662
414, 659, 707, 710, 662, 660, 708, 711, 663
415, 661, 709, 712, 664, 662, 710, 713, 665
416, 662, 710, 713, 665, 663, 711, 714, 666
417, 664, 712, 715, 667, 665, 713, 716, 668
418, 665, 713, 716, 668, 666, 714, 717, 669
419, 667, 715, 718, 670, 668, 716, 719, 671
420, 668, 716, 719, 671, 669, 717, 720, 672
421, 673, 721, 722, 674, 675, 723, 724, 676
422, 675, 723, 724, 676, 677, 725, 726, 678
423, 677, 725, 726, 678, 679, 727, 728, 680
424, 679, 727, 728, 680, 681, 729, 730, 682
425, 681, 729, 730, 682, 683, 731, 732, 684
426, 674, 722, 733, 685, 676, 724, 734, 686
427, 676, 724, 734, 686, 678, 726, 735, 687
428, 678, 726, 735, 687, 680, 728, 736, 688
429, 680, 728, 736, 688, 682, 730, 737, 689
430, 682, 730, 737, 689, 684, 732, 738, 690
431, 691, 739, 740, 692, 693, 741, 742, 694
432, 693, 741, 742, 694, 695, 743, 744, 696
433, 692, 740, 745, 697, 694, 742, 746, 698
434, 694, 742, 746, 698, 696, 744, 747, 699
435, 697, 745, 748, 700, 698, 746, 749, 701
436, 698, 746, 749, 701, 699, 747, 750, 702
437, 700, 748, 731, 683, 701, 749, 751, 703
438, 701, 749, 751, 703, 702, 750, 752, 704
439, 683, 731, 732, 684, 703, 751, 753, 705
440, 703, 751, 753, 705, 704, 752, 754, 706
441, 684, 732, 738, 690, 705, 753, 755, 707
442, 705, 753, 755, 707, 706, 754, 756, 708
443, 690, 738, 757, 709, 707, 755, 758, 710
444, 707, 755, 758, 710, 708, 756, 759, 711
445, 709, 757, 760, 712, 710, 758, 761, 713
446, 710, 758, 761, 713, 711, 759, 762, 714
447, 712, 760, 763, 715, 713, 761, 764, 716
448, 713, 761, 764, 716, 714, 762, 765, 717
449, 715, 763, 766, 718, 716, 764, 767, 719
450, 716, 764, 767, 719, 717, 765, 768, 720
451, 721, 769, 770, 722, 723, 771, 772, 724
452, 723, 771, 772, 724, 725, 773, 774, 726
453, 725, 773, 774, 726, 727, 775, 776, 728
454, 727, 775, 776, 728, 729, 777, 778, 730
455, 729, 777, 778, 730, 731, 779, 780, 732
456, 722, 770, 781, 733, 724, 772, 782, 734
457, 724, 772, 782, 734, 726, 774, 783, 735
458, 726, 774, 783, 735, 728, 776, 784, 736
459, 728, 776, 784, 736, 730, 778, 785, 737
460, 730, 778, 785, 737, 732, 780, 786, 738
461, 739, 787, 788, 740, 741, 789, 790, 742
462, 741, 789, 790, 742, 743, 791, 792, 744
463, 740, 788, 793, 745, 742, 790, 794, 746
464, 742, 790, 794, 746, 744, 792, 795, 747
465, 745, 793, 796, 748, 746, 794, 797, 749
466, 746, 794, 797, 749, 747, 795, 798, 750
467, 748, 796, 779, 731, 749, 797, 799, 751
468, 749, 797, 799, 751, 750, 798, 800, 752
469, 731, 779, 780, 732, 751, 799, 801, 753
470, 751, 799, 801, 753, 752, 800, 802, 754
471, 732, 780, 786, 738, 753, 801, 803, 755
472, 753, 801, 803, 755, 754, 802, 804, 756
473, 738, 786, 805, 757, 755, 803, 806, 758
474, 755, 803, 806, 758, 756, 804, 807, 759
475, 757, 805, 808, 760, 758, 806, 809, 761
476, 758, 806, 809, 761, 759, 807, 810, 762
477, 760, 808, 811, 763, 761, 809, 812, 764
478, 761, 809, 812, 764, 762, 810, 813, 765
479, 763, 811, 814, 766, 764, 812, 815, 767
480, 764, 812, 815, 767, 765, 813, 816, 768
481, 769, 817, 818, 770, 771, 819, 820, 772
482, 771, 819, 820, 772, 773, 821, 822, 774
483, 773, 821, 822, 774, 775, 823, 824, 776
484, 775, 823, 824, 776, 777, 825, 826, 778
485, 777, 825, 826, 778, 779, 827, 828, 780
486, 770, 818, 829, 781, 772, 820, 830, 782
487, 772, 820, 830, 782, 774, 822, 831, 783
488, 774, 822, 831, 783, 776, 824, 832, 784
489, 776, 824, 832, 784, 778, 826, 833, 785
490, 778, 826, 833, 785, 780, 828, 834, 786
491, 787, 835, 836, 788, 789, 837, 838, 790
492, 789, 837, 838, 790, 791, 839, 840, 792
493, 788, 836, 841, 793, 790, 838, 842, 794
494, 790, 838, 842, 794, 792, 840, 843, 795
495, 793, 841, 844, 796, 794, 842, 845, 797
496, 794, 842, 845, 797, 795, 843, 846, 798
497, 796, 844, 827, 779, 797, 845, 847, 799
498, 797, 845, 847, 799, 798, 846, 848, 800
499, 779, 827, 828, 780, 799, 847, 849, 801
500, 799, 847, 849, 801, 800, 848, 850, 802
501, 780, 828, 834, 786, 801, 849, 851, 803
502, 801, 849, 851, 803, 802, 850, 852, 804
503, 786, 834, 853, 805, 803, 851, 854, 806
504, 803, 851, 854, 806, 804, 852, 855, 807
505, 805, 853, 856, 808, 806, 854, 857, 809
506, 806, 854, 857, 809, 807, 855, 858, 810
507, 808, 856, 859, 811, 809, 857, 860, 812
508, 809, 857, 860, 812, 810, 858, 861, 813
509, 811, 859, 862, 814, 812, 860, 863, 815
510, 812, 860, 863, 815, 813, 861, 864, 816
511, 817, 865, 866, 818, 819, 867, 868, 820
512, 819, 867, 868, 820, 821, 869, 870, 822
513, 821, 869, 870, 822, 823, 871, 872, 824
514, 823, 871, 872, 824, 825, 873, 874, 826
515, 825, 873, 874, 826, 827, 875, 876, 828
516, 818, 866, 877, 829, 820, 868, 878, 830
517, 820, 868, 878, 830, 822, 870, 879, 831
518, 822, 870, 879, 831, 824, 872, 880, 832
519, 824, 872, 880, 832, 826, 874, 881, 833
520, 826, 874, 881, 833, 828, 876, 882, 834
521, 835, 883, 884, 836, 837, 885, 886, 838
522, 837, 885, 886, 838, 839, 887, 888, 840
523, 836, 884, 889, 841, 838, 886, 890, 842
524, 838, 886, 890, 842, 840, 888, 891, 843
525, 841, 889, 892, 844, 842, 890, 893, 845
526, 842, 890, 893, 845, 843, 891, 894, 846
527, 844, 892, 875, 827, 845, 893, 895, 847
528, 845, 893, 895, 847, 846, 894, 896, 848
529, 827, 875, 876, 828, 847, 895, 897, 849
530, 847, 895, 897, 849, 848, 896, 898, 850
531, 828, 876, 882, 834, 849, 897, 899, 851
532, 849, 897, 899, 851, 850, 898, 900, 852
533, 834, 882, 901, 853, 851, 899, 902, 854
534, 851, 899, 902, 854, 852, 900, 903, 855
535, 853, 901, 904, 856, 854, 902, 905, 857
536, 854, 902, 905, 857, 855, 903, 906, 858
537, 856, 904, 907, 859, 857, 905, 908, 860
538, 857, 905, 908, 860, 858, 906, 909, 861
539, 859, 907, 910, 862, 860, 908, 911, 863
540, 860, 908, 911, 863, 861, 909, 912, 864
541, 865, 913, 914, 866, 867, 915, 916, 868
542, 867, 915, 916, 868, 869, 917, 918, 870
543, 869, 917, 918, 870, 871, 919, 920, 872
544, 871, 919, 920, 872, 873, 921, 922, 874
545, 873, 921, 922, 874, 875, 923, 924, 876
546, 866, 914, 925, 877, 868, 916, 926, 878
547, 868, 916, 926, 878, 870, 918, 927, 879
548, 870, 918, 927, 879, 872, 920, 928, 880
549, 872, 920, 928, 880, 874, 922, 929, 881
550, 874, 922, 929, 881, 876, 924, 930, 882
551, 883, 931, 932, 884, 885, 933, 934, 886
552, 885, 933, 934, 886, 887, 935, 936, 888
553, 884, 932, 937, 889, 886, 934, 938, 890
554, 886, 934, 938, 890, 888, 936, 939, 891
555, 889, 937, 940, 892, 890, 938, 941, 893
556, 890, 938, 941, 893, 891, 939, 942, 894
557, 892, 940, 923, 875, 893, 941, 943, 895
558, 893, 941, 943, 895, 894, 942, 944, 896
559, 875, 923, 924, 876, 895, 943, 945, 897
560, 895, 943, 945, 897, 896, 944, 946, 898
561, 876, 924, 930, 882, 897, 945, 947, 899
562, 897, 945, 947, 899, 898, 946, 948, 900
563, 882, 930, 949, 901, 899, 947, 950, 902
564, 899, 947, 950, 902, 900, 948, 951, 903
565, 901, 949, 952, 904, 902, 950, 953, 905
566, 902, 950, 953, 905, 903, 951, 954, 906
567, 904, 952, 955, 907, 905, 953, 956, 908
568, 905, 953, 956, 908, 906, 954, 957, 909
569, 907, 955, 958, 910, 908, 956, 959, 911
570, 908, 956, 959, 911, 909, 957, 960, 912
571, 913, 961, 962, 914, 915, 963, 964, 916
572, 915, 963, 964, 916, 917, 965, 966, 918
573, 917, 965, 966, 918, 919, 967, 968, 920
574, 919, 967, 968, 920, 921, 969, 970, 922
575, 921, 969, 970, 922, 923, 971, 972, 924
576, 914, 962, 973, 925, 916, 964, 974, 926
577, 916, 964, 974, 926, 918, 966, 975, 927
578, 918, 966, 975, 927, 920, 968, 976, 928
579, 920, 968, 976, 928, 922, 970, 977, 929
580, 922, 970, 977, 929, 924, 972, 978, 930
581, 931, 979, 980, 932, 933, 981, 982, 934
582, 933, 981, 982, 934, 935, 983, 984, 936
583, 932, 980, 985, 937, 934, 982, 986, 938
584, 934, 982, 986, 938, 936, 984, 987, 939
585, 937, 985, 988, 940, 938, 986, 989, 941
586, 938, 986, 989, 941, 939, 987, 990, 942
587, 940, 988, 971, 923, 941, 989, 991, 943
588, 941, 989, 991, 943, 942, 990, 992, 944
589, 923, 971, 972, 924, 943, 991, 993, 945
590, 943, 991, 993, 945, 944, 992, 994, 946
591, 924, 972, 978, 930, 945, 993, 995, 947
592, 945, 993, 995, 947, 946, 994, 996, 948
593, 930, 978, 997, 949, 947, 995, 998, 950
594, 947, 995, 998, 950, 948, 996, 999, 951
595, 949, 997, 1000, 952, 950, 998, 1001, 953
596, 950, 998, 1001, 953, 951, 999, 1002, 954
597, 952, 1000, 1003, 955, 953, 1001, 1004, 956
598, 953, 1001, 1004, 956, 954, 1002, 1005, 957
599, 955, 1003, 1006, 958, 956, 1004, 1007, 959
600, 956, 1004, 1007, 959, 957, 1005, 1008, 960
601, 961, 1009, 1010, 962, 963, 1011, 1012, 964
602, 963, 1011, 1012, 964, 965, 1013, 1014, 966
603, 965, 1013, 1014, 966, 967, 1015, 1016, 968
604, 967, 1015, 1016, 968, 969, 1017, 1018, 970
605, 969, 1017, 1018, 970, 971, 1019, 1020, 972
606, 962, 1010, 1021, 973, 964, 1012, 1022, 974
607, 964, 1012, 1022, 974, 966, 1014, 1023, 975
608, 966, 1014, 1023, 975, 968, 1016, 1024, 976
609, 968, 1016, 1024, 976, 970, 1018, 1025, 977
610, 970, 1018, 1025, 977, 972, 1020, 1026, 978
611, 979, 1027, 1028, 980, 981, 1029, 1030, 982
612, 981, 1029, 1030, 982, 983, 1031, 1032, 984
613, 980, 1028, 1033, 985, 982, 1030, 1034, 986
614, 982, 1030, 1034, 986, 984, 1032, 1035, 987
615, 985, 1033, 1036, 988, 986, 1034, 1037, 989
616, 986, 1034, 1037, 989, 987, 1035, 1038, 990
617, 988, 1036, 1019, 971, 989, 1037, 1039, 991
618, 989, 1037, 1039, 991, 990, 1038, 1040, 992
619, 971, 1019, 1020, 972, 991, 1039, 1041, 993
620, 991, 1039, 1041, 993, 992, 1040, 1042, 994
621, 972, 1020, 1026, 978, 993, 1041, 1043, 995
622, 993, 1041, 1043, 995, 994, 1042, 1044, 996
623, 978, 1026, 1045, 997, 995, 1043, 1046, 998
624, 995, 1043, 1046, 998, 996, 1044, 1047, 999
625, 997, 1045, 1048, 1000, 998, 1046, 1049, 1001
626, 998, 1046, 1049, 1001, 999, 1047, 1050, 1002
627, 1000, 1048, 1051, 1003, 1001, 1049, 1052, 1004
628, 1001, 1049, 1052, 1004, 1002, 1050, 1053, 1005
629, 1003, 1051, 1054, 1006, 1004, 1052, 1055, 1007
630, 1004, 1052, 1055, 1007, 1005, 1053, 1056, 1008
631, 1009, 1057, 1058, 1010, 1011, 1059, 1060, 1012
632, 1011, 1059, 1060, 1012, 1013, 1061, 1062, 1014
633, 1013, 1061, 1062, 1014, 1015, 1063, 1064, 1016
634, 1015, 1063, 1064, 1016, 1017, 1065, 1066, 1018
635, 1017, 1065, 1066, 1018, 1019, 1067, 1068, 1020
636, 1010, 1058, 1069, 1021, 1012, 1060, 1070, 1022
637, 1012, 1060, 1070, 1022, 1014, 1062, 1071, 1023
638, 1014, 1062, 1071, 1023, 1016, 1064, 1072, 1024
639, 1016, 1064, 1072, 1024, 1018, 1066, 1073, 1025
640, 1018, 1066, 1073, 1025, 1020, 1068, 1074, 1026
641, 1027, 1075, 1076, 1028, 1029, 1077, 1078, 1030
642, 1029, 1077, 1078, 1030, 1031, 1079, 1080, 1032
643, 1028, 1076, 1081, 1033, 1030, 1078, 1082, 1034
644, 1030, 1078, 1082, 1034, 1032, 1080, 1083, 1035
645, 1033, 1081, 1084, 1036, 1034, 1082, 1085, 1037
646, 1034, 1082, 1085, 1037, 1035, 1083, 1086, 1038
647, 1036, 1084, 1067, 1019, 1037, 1085, 1087, 1039
648, 1037, 1085, 1087, 1039, 1038, 1086, 1088, 1040
649, 1019, 1067, 1068, 1020, 1039, 1087, 1089, 1041
650, 1039, 1087, 1089, 1041, 1040, 1088, 1090, 1042
651, 1020, 1068, 1074, 1026, 1041, 1089, 1091, 1043
652, 1041, 1089, 1091, 1043, 1042, 1090, 1092, 1044
653, 1026, 1074, 1093, 1045, 1043, 1091, 1094, 1046
654, 1043, 1091, 1094, 1046, 1044, 1092, 1095, 1047
655, 1045, 1093, 1096, 1048, 1046, 1094, 1097, 1049
656, 1046, 1094, 1097, 1049, 1047, 1095, 1098, 1050
657, 1048, 1096, 1099, 1051, 1049, 1097, 1100, 1052
658, 1049, 1097, 1100, 1052, 1050, 1098, 1101, 1053
659, 1051, 1099, 1102, 1054, 1052, 1100, 1103, 1055
660, 1052, 1100, 1103, 1055, 1053, 1101, 1104, 1056
661, 1057, 1105, 1106, 1058, 1059, 1107, 1108, 1060
662, 1059, 1107, 1108, 1060, 1061, 1109, 1110, 1062
663, 1061, 1109, 1110, 1062, 1063, 1111, 1112, 1064
664, 1063, 1111, 1112, 1064, 1065, 1113, 1114, 1066
665, 1065, 1113, 1114, 1066, 1067, 1115, 1116, 1068
666, 1058, 1106, 1117, 1069, 1060, 1108, 1118, 1070
667, 1060, 1108, 1118, 1070, 1062, 1110, 1119, 1071
668, 1062, 1110, 1119, 1071, 1064, 1112, 1120, 1072
669, 1064, 1112, 1120, 1072, 1066, 1114, 1121, 1073
670, 1066, 1114, 1121, 1073, 1068, 1116, 1122, 1074
671, 1075, 1123, 1124, 1076, 1077, 1125, 1126, 1078
672, 1077, 1125, 1126, 1078, 1079, 1127, 1128, 1080
673, 1076, 1124, 1129, 1081, 1078, 1126, 1130, 1082
674, 1078, 1126, 1130, 1082, 1080, 1128, 1131, 1083
675, 1081, 1129, 1132, 1084, 1082, 1130, 1133, 1085
676, 1082, 1130, 1133, 1085, 1083, 1131, 1134, 1086
677, 1084, 1132, 1115, 1067, 1085, 1133, 1135, 1087
678, 1085, 1133, 1135, 1087, 1086, 1134, 1136, 1088
679, 1067, 1115, 1116, 1068, 1087, 1135, 1137, 1089
680, 1087, 1135, 1137, 1089, 1088, 1136, 1138, 1090
681, 1068, 1116, 1122, 1074, 1089, 1137, 1139, 1091
682, 1089, 1137, 1139, 1091, 1090, 1138, 1140, 1092
683, 1074, 1122, 1141, 1093, 1091, 1139, 1142, 1094
684, 1091, 1139, 1142, 1094, 1092, 1140, 1143, 1095
685, 1093, 1141, 1144, 1096, 1094, 1142, 1145, 1097
686, 1094, 1142, 1145, 1097, 1095, 1143, 1146, 1098
687, 1096, 1144, 1147, 1099, 1097, 1145, 1148, 1100
688, 1097, 1145, 1148, 1100, 1098, 1146, 1149, 1101
689, 1099, 1147, 1150, 1102, 1100, 1148, 1151, 1103
690, 1100, 1148, 1151, 1103, 1101, 1149, 1152, 1104
691, 1105, 1153, 1154, 1106, 1107, 1155, 1156, 1108
692, 1107, 1155, 1156, 1108, 1109, 1157, 1158, 1110
693, 1109, 1157, 1158, 1110, 1111, 1159, 1160, 1112
694, 1111, 1159, 1160, 1112, 1113, 1161, 1162, 1114
695, 1113, 1161, 1162, 1114, 1115, 1163, 1164, 1116
696, 1106, 1154, 1165, 1117, 1108, 1156, 1166, 1118
697, 1108, 1156, 1166, 1118, 1110, 1158, 1167, 1119
698, 1110, 1158, 1167, 1119, 1112, 1160, 1168, 1120
699, 1112, 1160, 1168, 1120, 1114, 1162, 1169, 1121
700, 1114, 1162, 1169, 1121, 1116, 1164, 1170, 1122
701, 1123, 1171, 1172, 1124, 1125, 1173, 1174, 1126
702, 1125, 1173, 1174, 1126, 1127, 1175, 1176, 1128
703, 1124, 1172, 1177, 1129, 1126, 1174, 1178, 1130
704, 1126, 1174, 1178, 1130, 1128, 1176, 1179, 1131
705, 1129, 1177, 1180, 1132, 1130, 1178, 1181, 1133
706, 1130, 1178, 1181, 1133, 1131, 1179, 1182, 1134
707, 1132, 1180, 1163, 1115, 1133, 1181, 1183, 1135
708, 1133, 1181, 1183, 1135, 1134, 1182, 1184, 1136
709, 1115, 1163, 1164, 1116, 1135, 1183, 1185, 1137
710, 1135, 1183, 1185, 1137, 1136, 1184, 1186, 1138
711, 1116, 1164, 1170, 1122, 1137, 1185, 1187, 1139
712, 1137, 1185, 1187, 1139, 1138, 1186, 1188, 1140
713, 1122, 1170, 1189, 1141, 1139, 1187, 1190, 1142
714, 1139, 1187, 1190, 1142, 1140, 1188, 1191, 1143
715, 1141, 1189, 1192, 1144, 1142, 1190, 1193, 1145
716, 1142, 1190, 1193, 1145, 1143, 1191, 1194, 1146
717, 1144, 1192, 1195, 1147, 1145, 1193, 1196, 1148
718, 1145, 1193, 1196, 1148, 1146, 1194, 1197, 1149
719, 1147, 1195, 1198, 1150, 1148, 1196, 1199, 1151
720, 1148, 1196, 1199, 1151, 1149, 1197, 1200, 1152
721, 1153, 1201, 1202, 1154, 1155, 1203, 1204, 1156
722, 1155, 1203, 1204, 1156, 1157, 1205, 1206, 1158
723, 1157, 1205, 1206, 1158, 1159, 1207, 1208, 1160
724, 1159, 1207, 1208, 1160, 1161, 1209, 1210, 1162
725, 1161, 1209, 1210, 1162, 1163, 1211, 1212, 1164
726, 1154, 1202, 1213, 1165, 1156, 1204, 1214, 1166
727, 1156, 1204, 1214, 1166, 1158, 1206, 1215, 1167
728, 1158, 1206, 1215, 1167, 1160, 1208, 1216, 1168
729, 1160, 1208, 1216, 1168, 1162, 1210, 1217, 1169
730, 1162, 1210, 1217, 1169, 1164, 1212, 1218, 1170
731, 1171, 1219, 1220, 1172, 1173, 1221, 1222, 1174
732, 1173, 1221, 1222, 1174, 1175, 1223, 1224, 1176
733, 1172, 1220, 1225, 1177, 1174, 1222, 1226, 1178
734, 1174, 1222, 1226, 1178, 1176, 1224, 1227, 1179
735, 1177, 1225, 1228, 1180, 1178, 1226, 1229, 1181
736, 1178, 1226, 1229, 1181, 1179, 1227, 1230, 1182
737, 1180, 1228, 1211, 1163, 1181, 1229, 1231, 1183
738, 1181, 1229, 1231, 1183, 1182, 1230, 1232, 1184
739, 1163, 1211, 1212, 1164, 1183, 1231, 1233, 1185
740, 1183, 1231, 1233, 1185, 1184, 1232, 1234, 1186
741, 1164, 1212, 1218, 1170, 1185, 1233, 1235, 1187
742, 1185, 1233, 1235, 1187, 1186, 1234, 1236, 1188
743, 1170, 1218, 1237, 1189, 1187, 1235, 1238, 1190
744, 1187, 1235, 1238, 1190, 1188, 1236, 1239, 1191
745, 1189, 1237, 1240, 1192, 1190, 1238, 1241, 1193
746, 1190, 1238, 1241, 1193, 1191, 1239, 1242, 1194
747, 1192, 1240, 1243, 1195, 1193, 1241, 1244, 1196
748, 1193, 1241, 1244, 1196, 1194, 1242, 1245, 1197
749, 1195, 1243, 1246, 1198, 1196, 1244, 1247, 1199
750, 1196, 1244, 1247, 1199, 1197, 1245, 1248, 1200
751, 1201, 1249, 1250, 1202, 1203, 1251, 1252, 1204
752, 1203, 1251, 1252, 1204, 1205, 1253, 1254, 1206
753, 1205, 1253, 1254, 1206, 1207, 1255, 1256, 1208
754, 1207, 1255, 1256, 1208, 1209, 1257, 1258, 1210
755, 1209, 1257, 1258, 1210, 1211, 1259, 1260, 1212
756, 1202, 1250, 1261, 1213, 1204, 1252, 1262, 1214
757, 1204, 1252, 1262, 1214, 1206, 1254, 1263, 1215
758, 1206, 1254, 1263, 1215, 1208, 1256, 1264, 1216
759, 1208, 1256, 1264, 1216, 1210, 1258, 1265, 1217
760, 1210, 1258, 1265, 1217, 1212, 1260, 1266, 1218
761, 1219, 1267, 1268, 1220, 1221, 1269, 1270, 1222
762, 1221, 1269, 1270, 1222, 1223, 1271, 1272, 1224
763, 1220, 1268, 1273, 1225, 1222, 1270, 1274, 1226
764, 1222, 1270, 1274, 1226, 1224, 1272, 1275, 1227
765, 1225, 1273, 1276, 1228, 1226, 1274, 1277, 1229
766, 1226, 1274, 1277, 1229, 1227, 1275, 1278, 1230
767, 1228, 1276, 1259, 1211, 1229, 1277, 1279, 1231
768, 1229, 1277, 1279, 1231, 1230, 1278, 1280, 1232
769, 1211, 1259, 1260, 1212, 1231, 1279, 1281, 1233
770, 1231, 1279, 1281, 1233, 1232, 1280, 1282, 1234
771, 1212, 1260, 1266, 1218, 1233, 1281, 1283, 1235
772, 1233, 1281, 1283, 1235, 1234, 1282, 1284, 1236
773, 1218, 1266, 1285, 1237, 1235, 1283, 1286, 1238
774, 1235, 1283, 1286, 1238, 1236, 1284, 1287, 1239
775, 1237, 1285, 1288, 1240, 1238, 1286, 1289, 1241
776, 1238, 1286, 1289, 1241, 1239, 1287, 1290, 1242
777, 1240, 1288, 1291, 1243, 1241, 1289, 1292, 1244
778, 1241, 1289, 1292, 1244, 1242, 1290, 1293, 1245
779, 1243, 1291, 1294, 1246, 1244, 1292, 1295, 1247
780, 1244, 1292, 1295, 1247, 1245, 1293, 1296, 1248
781, 1249, 1297, 1298, 1250, 1251, 1299, 1300, 1252
782, 1251, 1299, 1300, 1252, 1253, 1301, 1302, 1254
783, 1253, 1301, 1302, 1254, 1255, 1303, 1304, 1256
784, 1255, 1303, 1304, 1256, 1257, 1305, 1306, 1258
785, 1257, 1305, 1306, 1258, 1259, 1307, 1308, 1260
786, 1250, 1298, 1309, 1261, 1252, 1300, 1310, 1262
787, 1252, 1300, 1310, 1262, 1254, 1302, 1311, 1263
788, 1254, 1302, 1311, 1263, 1256, 1304, 1312, 1264
789, 1256, 1304, 1312, 1264, 1258, 1306, 1313, 1265
790, 1258, 1306, 1313, 1265, 1260, 1308, 1314, 1266
791, 1267, 1315, 1316, 1268, 1269, 1317, 1318, 1270
792, 1269, 1317, 1318, 1270, 1271, 1319, 1320, 1272
793, 1268, 1316, 1321, 1273, 1270, 1318, 1322, 1274
794, 1270, 1318, 1322, 1274, 1272, 1320, 1323, 1275
795, 1273, 1321, 1324, 1276, 1274, 1322, 1325, 1277
796, 1274, 1322, 1325, 1277, 1275, 1323, 1326, 1278
797, 1276, 1324, 1307, 1259, 1277, 1325, 1327, 1279
798, 1277, 1325, 1327, 1279, 1278, 1326, 1328, 1280
799, 1259, 1307, 1308, 1260, 1279, 1327, 1329, 1281
800, 1279, 1327, 1329, 1281, 1280, 1328, 1330, 1282
801, 1260, 1308, 1314, 1266, 1281, 1329, 1331, 1283
802, 1281, 1329, 1331, 1283, 1282, 1330, 1332, 1284
803, 1266, 1314, 1333, 1285, 1283, 1331, 1334, 1286
804, 1283, 1331, 1334, 1286, 1284, 1332, 1335, 1287
805, 1285, 1333, 1336, 1288, 1286, 1334, 1337, 1289
806, 1286, 1334, 1337, 1289, 1287, 1335, 1338, 1290
807, 1288, 1336, 1339, 1291, 1289, 1337, 1340, 1292
808, 1289, 1337, 1340, 1292, 1290, 1338, 1341, 1293
809, 1291, 1339, 1342, 1294, 1292, 1340, 1343, 1295
810, 1292, 1340, 1343, 1295, 1293, 1341, 1344, 1296
811, 1297, 1345, 1346, 1298, 1299, 1347, 1348, 1300
812, 1299, 1347, 1348, 1300, 1301, 1349, 1350, 1302
813, 1301, 1349, 1350, 1302, 1303, 1351, 1352, 1304
814, 1303, 1351, 1352, 1304, 1305, 1353, 1354, 1306
815, 1305, 1353, 1354, 1306, 1307, 1355, 1356, 1308
816, 1298, 1346, 1357, 1309, 1300, 1348, 1358, 1310
817, 1300, 1348, 1358, 1310, 1302, 1350, 1359, 1311
818, 1302, 1350, 1359, 1311, 1304, 1352, 1360, 1312
819, 1304, 1352, 1360, 1312, 1306, 1354, 1361, 1313
820, 1306, 1354, 1361, 1313, 1308, 1356, 1362, 1314
821, 1315, 1363, 1364, 1316, 1317, 1365, 1366, 1318
822, 1317, 1365, 1366, 1318, 1319, 1367, 1368, 1320
823, 1316, 1364, 1369, 1321, 1318, 1366, 1370, 1322
824, 1318, 1366, 1370, 1322, 1320, 1368, 1371, 1323
825, 1321, 1369, 1372, 1324, 1322, 1370, 1373, 1325
826, 1322, 1370, 1373, 1325, 1323, 1371, 1374, 1326
827, 1324, 1372, 1355, 1307, 1325, 1373, 1375, 1327
828, 1325, 1373, 1375, 1327, 1326, 1374, 1376, 1328
829, 1307, 1355, 1356, 1308, 1327, 1375, 1377, 1329
830, 1327, 1375, 1377, 1329, 1328, 1376, 1378, 1330
831, 1308, 1356, 1362, 1314, 1329, 1377, 1379, 1331
832, 1329, 1377, 1379, 1331, 1330, 1378, 1380, 1332
833, 1314, 1362, 1381, 1333, 1331, 1379, 1382, 1334
834, 1331, 1379, 1382, 1334, 1332, 1380, 1383, 1335
835, 1333, 1381, 1384, 1336, 1334, 1382, 1385, 1337
836, 1334, 1382, 1385, 1337, 1335, 1383, 1386, 1338
837, 1336, 1384, 1387, 1339, 1337, 1385, 1388, 1340
838, 1337, 1385, 1388, 1340, 1338, 1386, 1389, 1341
839, 1339, 1387, 1390, 1342, 1340, 1388, 1391, 1343
840, 1340, 1388, 1391, 1343, 1341, 1389, 1392, 1344
841, 1345, 1393, 1394, 1346, 1347, 1395, 1396, 1348
842, 1347, 1395, 1396, 1348, 1349, 1397, 1398, 1350
843, 1349, 1397, 1398, 1350, 1351, 1399, 1400, 1352
844, 1351, 1399, 1400, 1352, 1353, 1401, 1402, 1354
845, 1353, 1401, 1402, 1354, 1355, 1403, 1404, 1356
846, 1346, 1394, 1405, 1357, 1348, 1396, 1406, 1358
847, 1348, 1396, 1406, 1358, 1350, 1398, 1407, 1359
848, 1350, 1398, 1407, 1359, 1352, 1400, 1408, 1360
849, 1352, 1400, 1408, 1360, 1354, 1402, 1409, 1361
850, 1354, 1402, 1409, 1361, 1356, 1404, 1410, 1362
851, 1363, 1411, 1412, 1364, 1365, 1413, 1414, 1366
852, 1365, 1413, 1414, 1366, 1367, 1415, 1416, 1368
853, 1364, 1412, 1417, 1369, 1366, 1414, 1418, 1370
854, 1366, 1414, 1418, 1370, 1368, 1416, 1419, 1371
855, 1369, 1417, 1420, 1372, 1370, 1418, 1421, 1373
856, 1370, 1418, 1421, 1373, 1371, 1419, 1422, 1374
857, 1372, 1420, 1403, 1355, 1373, 1421, 1423, 1375
858, 1373, 1421, 1423, 1375, 1374, 1422, 1424, 1376
859, 1355, 1403, 1404, 1356, 1375, 1423, 1425, 1377
860, 1375, 1423, 1425, 1377, 1376, 1424, 1426, 1378
861, 1356, 1404, 1410, 1362, 1377, 1425, 1427, 1379
862, 1377, 1425, 1427, 1379, 1378, 1426, 1428, 1380
863, 1362, 1410, 1429, 1381, 1379, 1427, 1430, 1382
864, 1379, 1427, 1430, 1382, 1380, 1428, 1431, 1383
865, 1381, 1429, 1432, 1384, 1382, 1430, 1433, 1385
866, 1382, 1430, 1433, 1385, 1383, 1431, 1434, 1386
867, 1384, 1432, 1435, 1387, 1385, 1433, 1436, 1388
868, 1385, 1433, 1436, 1388, 1386, 1434, 1437, 1389
869, 1387, 1435, 1438, 1390, 1388, 1436, 1439, 1391
870, 1388, 1436, 1439, 1391, 1389, 1437, 1440, 1392
871, 1393, 1441, 1442, 1394, 1395, 1443, 1444, 1396
872, 1395, 1443, 1444, 1396, 1397, 1445, 1446, 1398
873, 1397, 1445, 1446, 1398, 1399, 1447, 1448, 1400
874, 1399, 1447, 1448, 1400, 1401, 1449, 1450, 1402
875, 1401, 1449, 1450, 1402, 1403, 1451, 1452, 1404
876, 1394, 1442, 1453, 1405, 1396, 1444, 1454, 1406
877, 1396, 1444, 1454, 1406, 1398, 1446, 1455, 1407
878, 1398, 1446, 1455, 1407, 1400, 1448, 1456, 1408
879, 1400, 1448, 1456, 1408, 1402, 1450, 1457, 1409
880, 1402, 1450, 1457, 1409, 1404, 1452, 1458, 1410
881, 1411, 1459, 1460, 1412, 1413, 1461, 1462, 1414
882, 1413, 1461, 1462, 1414, 1415, 1463, 1464, 1416
883, 1412, 1460, 1465, 1417, 1414, 1462, 1466, 1418
884, 1414, 1462, 1466, 1418, 1416, 1464, 1467, 1419
885, 1417, 1465, 1468, 1420, 1418, 1466, 1469, 1421
886, 1418, 1466, 1469, 1421, 1419, 1467, 1470, 1422
887, 1420, 1468, 1451, 1403, 1421, 1469, 1471, 1423
888, 1421, 1469, 1471, 1423, 1422, 1470, 1472, 1424
889, 1403, 1451, 1452, 1404, 1423, 1471, 1473, 1425
890, 1423, 1471, 1473, 1425, 1424, 1472, 1474, 1426
891, 1404, 1452, 1458, 1410, 1425, 1473, 1475, 1427
892, 1425, 1473, 1475, 1427, 1426, 1474, 1476, 1428
893, 1410, 1458, 1477, 1429, 1427, 1475, 1478, 1430
894, 1427, 1475, 1478, 1430, 1428, 1476, 1479, 1431
895, 1429, 1477, 1480, 1432, 1430, 1478, 1481, 1433
896, 1430, 1478, 1481, 1433, 1431, 1479, 1482, 1434
897, 1432, 1480, 1483, 1435, 1433, 1481, 1484, 1436
898, 1433, 1481, 1484, 1436, 1434, 1482, 1485, 1437
899, 1435, 1483, 1486, 1438, 1436, 1484, 1487, 1439
900, 1436, 1484, 1487, 1439, 1437, 1485, 1488, 1440
901, 1441, 1489, 1490, 1442, 1443, 1491, 1492, 1444
902, 1443, 1491, 1492, 1444, 1445, 1493, 1494, 1446
903, 1445, 1493, 1494, 1446, 1447, 1495, 1496, 1448
904, 1447, 1495, 1496, 1448, 1449, 1497, 1498, 1450
905, 1449, 1497, 1498, 1450, 1451, 1499, 1500, 1452
906, 1442, 1490, 1501, 1453, 1444, 1492, 1502, 1454
907, 1444, 1492, 1502, 1454, 1446, 1494, 1503, 1455
908, 1446, 1494, 1503, 1455, 1448, 1496, 1504, 1456
909, 1448, 1496, 1504, 1456, 1450, 1498, 1505, 1457
910, 1450, 1498, 1505, 1457, 1452, 1500, 1506, 1458
911, 1459, 1507, 1508, 1460, 1461, 1509, 1510, 1462
912, 1461, 1509, 1510, 1462, 1463, 1511, 1512, 1464
913, 1460, 1508, 1513, 1465, 1462, 1510, 1514, 1466
914, 1462, 1510, 1514, 1466, 1464, 1512, 1515, 1467
915, 1465, 1513, 1516, 1468, 1466, 1514, 1517, 1469
916, 1466, 1514, 1517, 1469, 1467, 1515, 1518, 1470
917, 1468, 1516, 1499, 1451, 1469, 1517, 1519, 1471
918, 1469, 1517, 1519, 1471, 1470, 1518, 1520, 1472
919, 1451, 1499, 1500, 1452, 1471, 1519, 1521, 1473
920, 1471, 1519, 1521, 1473, 1472, 1520, 1522, 1474
921, 1452, 1500, 1506, 1458, 1473, 1521, 1523, 1475
922, 1473, 1521, 1523, 1475, 1474, 1522, 1524, 1476
923, 1458, 1506, 1525, 1477, 1475, 1523, 1526, 1478
924, 1475, 1523, 1526, 1478, 1476, 1524, 1527, 1479
925, 1477, 1525, 1528, 1480, 1478, 1526, 1529, 1481
926, 1478, 1526, 1529, 1481, 1479, 1527, 1530, 1482
927, 1480, 1528, 1531, 1483, 1481, 1529, 1532, 1484
928, 1481, 1529, 1532, 1484, 1482, 1530, 1533, 1485
929, 1483, 1531, 1534, 1486, 1484, 1532, 1535, 1487
930, 1484, 1532, 1535, 1487, 1485, 1533, 1536, 1488
931, 1489, 1537, 1538, 1490, 1491, 1539, 1540, 1492
932, 1491, 1539, 1540, 1492, 1493, 1541, 1542, 1494
933, 1493, 1541, 1542, 1494, 1495, 1543, 1544, 1496
934, 1495, 1543, 1544, 1496, 1497, 1545, 1546, 1498
935, 1497, 1545, 1546, 1498, 1499, 1547, 1548, 1500
936, 1490, 1538, 1549, 1501, 1492, 1540, 1550, 1502
937, 1492, 1540, 1550, 1502, 1494, 1542, 1551, 1503
938, 1494, 1542, 1551, 1503, 1496, 1544, 1552, 1504
939, 1496, 1544, 1552, 1504, 1498, 1546, 1553, 1505
940, 1498, 1546, 1553, 1505, 1500, 1548, 1554, 1506
941, 1507, 1555, 1556, 1508, 1509, 1557, 1558, 1510
942, 1509, 1557, 1558, 1510, 1511, 1559, 1560, 1512
943, 1508, 1556, 1561, 1513, 1510, 1558, 1562, 1514
944, 1510, 1558, 1562, 1514, 1512, 1560, 1563, 1515
945, 1513, 1561, 1564, 1516, 1514, 1562, 1565, 1517
946, 1514, 1562, 1565, 1517, 1515, 1563, 1566, 1518
947, 1516, 1564, 1547, 1499, 1517, 1565, 1567, 1519
948, 1517, 1565, 1567, 1519, 1518, 1566, 1568, 1520
949, 1499, 1547, 1548, 1500, 1519, 1567, 1569, 1521
950, 1519, 1567, 1569, 1521, 1520, 1568, 1570, 1522
951, 1500, 1548, 1554, 1506, 1521, 1569, 1571, 1523
952, 1521, 1569, 1571, 1523, 1522, 1570, 1572, 1524
953, 1506, 1554, 1573, 1525, 1523, 1571, 1574, 1526
954, 1523, 1571, 1574, 1526, 1524, 1572, 1575, 1527
955, 1525, 1573, 1576, 1528, 1526, 1574, 1577, 1529
956, 1526, 1574, 1577, 1529, 1527, 1575, 1578, 1530
957, 1528, 1576, 1579, 1531, 1529, 1577, 1580, 1532
958, 1529, 1577, 1580, 1532, 1530, 1578, 1581, 1533
959, 1531, 1579, 1582, 1534, 1532, 1580, 1583, 1535
960, 1532, 1580, 1583, 1535, 1533, 1581, 1584, 1536
*NSET, NSET=CLAMP
1, 4, 5, 8, 9, 12, 13, 16, 17, 20, 21, 24, 26, 28, 30, 32
34, 36, 37, 40, 41, 44, 45, 48, 50, 52, 54, 56, 58, 60, 62, 64
66, 68, 70, 72, 74, 76, 78, 80, 82, 84, 86, 88, 90, 92, 94, 96
*NSET, NSET=TIP_TOP
1559, 1560, 1563, 1566, 1568, 1570, 1572, 1575, 1578, 1581, 1584
*NSET, NSET=TIP_FLANGE
1559, 1560, 1563, 1566, 1568, 1570, 1572, 1575, 1578, 1581, 1584
*MATERIAL, NAME=STEEL
*ELASTIC
210000, 0.3
*SOLID SECTION, ELSET=EALL, MATERIAL=STEEL
*BOUNDARY
CLAMP, 1, 3, 0.0
*STEP
*STATIC
*CLOAD
1559, 3, -454.545454545
1560, 3, -454.545454545
1563, 3, -454.545454545
1566, 3, -454.545454545
1568, 3, -454.545454545
1570, 3, -454.545454545
1572, 3, -454.545454545
1575, 3, -454.545454545
1578, 3, -454.545454545
1581, 3, -454.545454545
1584, 3, -454.545454545
*NODE FILE
U
*EL FILE
S, ENER
*NODE PRINT, NSET=TIP_TOP
U
*NODE PRINT, NSET=CLAMP
RF
*EL PRINT, ELSET=EALL
ELSE
*ENERGY PRINT
*END STEP
