*HEADING
T08 S-LIN t08_slin_href20 conforming C3D8 frozen T
units: mm, N, s, MPa, t. Illustrative steel, not a coupon card.
beam=T08 case=S-LIN job=t08_slin_href20 type=C3D8
E=210000.0 nu=0.3 fy=235.0 load=-5000.0 N on TIP_TOP
*NODE, NSET=NALL
1, 0, -16, 0
2, 20, -15.9, 1.25
3, 20, 0, 1.25
4, 0, 0, 0
5, 0, -16, 42
6, 20, -15.9, 43
7, 20, 0, 43
8, 0, 0, 42
9, 0, -16, 84
10, 20, -15.9, 84.75
11, 20, 0, 84.75
12, 0, 0, 84
13, 0, -16, 126
14, 20, -15.9, 126.5
15, 20, 0, 126.5
16, 0, 0, 126
17, 0, -16, 168
18, 20, -15.9, 168.25
19, 20, 0, 168.25
20, 0, 0, 168
21, 0, -16, 210
22, 20, -15.9, 210
23, 20, 0, 210
24, 0, 0, 210
25, 20, 15.9, 1.25
26, 0, 16, 0
27, 20, 15.9, 43
28, 0, 16, 42
29, 20, 15.9, 84.75
30, 0, 16, 84
31, 20, 15.9, 126.5
32, 0, 16, 126
33, 20, 15.9, 168.25
34, 0, 16, 168
35, 20, 15.9, 210
36, 0, 16, 210
37, 0, -170, 210
38, 20, -169.05, 210
39, 20, -130.7625, 210
40, 0, -131.5, 210
41, 0, -170, 220
42, 20, -169.05, 220
43, 20, -130.7625, 220
44, 0, -131.5, 220
45, 0, -170, 230
46, 20, -169.05, 230
47, 20, -130.7625, 230
48, 0, -131.5, 230
49, 20, -92.475, 210
50, 0, -93, 210
51, 20, -92.475, 220
52, 0, -93, 220
53, 20, -92.475, 230
54, 0, -93, 230
55, 20, -54.1875, 210
56, 0, -54.5, 210
57, 20, -54.1875, 220
58, 0, -54.5, 220
59, 20, -54.1875, 230
60, 0, -54.5, 230
61, 20, -15.9, 220
62, 0, -16, 220
63, 20, -15.9, 230
64, 0, -16, 230
65, 20, 0, 220
66, 0, 0, 220
67, 20, 0, 230
68, 0, 0, 230
69, 20, 15.9, 220
70, 0, 16, 220
71, 20, 15.9, 230
72, 0, 16, 230
73, 20, 54.1875, 210
74, 0, 54.5, 210
75, 20, 54.1875, 220
76, 0, 54.5, 220
77, 20, 54.1875, 230
78, 0, 54.5, 230
79, 20, 92.475, 210
80, 0, 93, 210
81, 20, 92.475, 220
82, 0, 93, 220
83, 20, 92.475, 230
84, 0, 93, 230
85, 20, 130.7625, 210
86, 0, 131.5, 210
87, 20, 130.7625, 220
88, 0, 131.5, 220
89, 20, 130.7625, 230
90, 0, 131.5, 230
91, 20, 169.05, 210
92, 0, 170, 210
93, 20, 169.05, 220
94, 0, 170, 220
95, 20, 169.05, 230
96, 0, 170, 230
97, 40, -15.8, 2.5
98, 40, 0, 2.5
99, 40, -15.8, 44
100, 40, 0, 44
101, 40, -15.8, 85.5
102, 40, 0, 85.5
103, 40, -15.8, 127
104, 40, 0, 127
105, 40, -15.8, 168.5
106, 40, 0, 168.5
107, 40, -15.8, 210
108, 40, 0, 210
109, 40, 15.8, 2.5
110, 40, 15.8, 44
111, 40, 15.8, 85.5
112, 40, 15.8, 127
113, 40, 15.8, 168.5
114, 40, 15.8, 210
115, 40, -168.1, 210
116, 40, -130.025, 210
117, 40, -168.1, 220
118, 40, -130.025, 220
119, 40, -168.1, 230
120, 40, -130.025, 230
121, 40, -91.95, 210
122, 40, -91.95, 220
123, 40, -91.95, 230
124, 40, -53.875, 210
125, 40, -53.875, 220
126, 40, -53.875, 230
127, 40, -15.8, 220
128, 40, -15.8, 230
129, 40, 0, 220
130, 40, 0, 230
131, 40, 15.8, 220
132, 40, 15.8, 230
133, 40, 53.875, 210
134, 40, 53.875, 220
135, 40, 53.875, 230
136, 40, 91.95, 210
137, 40, 91.95, 220
138, 40, 91.95, 230
139, 40, 130.025, 210
140, 40, 130.025, 220
141, 40, 130.025, 230
142, 40, 168.1, 210
143, 40, 168.1, 220
144, 40, 168.1, 230
145, 60, -15.7, 3.75
146, 60, 0, 3.75
147, 60, -15.7, 45
148, 60, 0, 45
149, 60, -15.7, 86.25
150, 60, 0, 86.25
151, 60, -15.7, 127.5
152, 60, 0, 127.5
153, 60, -15.7, 168.75
154, 60, 0, 168.75
155, 60, -15.7, 210
156, 60, 0, 210
157, 60, 15.7, 3.75
158, 60, 15.7, 45
159, 60, 15.7, 86.25
160, 60, 15.7, 127.5
161, 60, 15.7, 168.75
162, 60, 15.7, 210
163, 60, -167.15, 210
164, 60, -129.2875, 210
165, 60, -167.15, 220
166, 60, -129.2875, 220
167, 60, -167.15, 230
168, 60, -129.2875, 230
169, 60, -91.425, 210
170, 60, -91.425, 220
171, 60, -91.425, 230
172, 60, -53.5625, 210
173, 60, -53.5625, 220
174, 60, -53.5625, 230
175, 60, -15.7, 220
176, 60, -15.7, 230
177, 60, 0, 220
178, 60, 0, 230
179, 60, 15.7, 220
180, 60, 15.7, 230
181, 60, 53.5625, 210
182, 60, 53.5625, 220
183, 60, 53.5625, 230
184, 60, 91.425, 210
185, 60, 91.425, 220
186, 60, 91.425, 230
187, 60, 129.2875, 210
188, 60, 129.2875, 220
189, 60, 129.2875, 230
190, 60, 167.15, 210
191, 60, 167.15, 220
192, 60, 167.15, 230
193, 80, -15.6, 5
194, 80, 0, 5
195, 80, -15.6, 46
196, 80, 0, 46
197, 80, -15.6, 87
198, 80, 0, 87
199, 80, -15.6, 128
200, 80, 0, 128
201, 80, -15.6, 169
202, 80, 0, 169
203, 80, -15.6, 210
204, 80, 0, 210
205, 80, 15.6, 5
206, 80, 15.6, 46
207, 80, 15.6, 87
208, 80, 15.6, 128
209, 80, 15.6, 169
210, 80, 15.6, 210
211, 80, -166.2, 210
212, 80, -128.55, 210
213, 80, -166.2, 220
214, 80, -128.55, 220
215, 80, -166.2, 230
216, 80, -128.55, 230
217, 80, -90.9, 210
218, 80, -90.9, 220
219, 80, -90.9, 230
220, 80, -53.25, 210
221, 80, -53.25, 220
222, 80, -53.25, 230
223, 80, -15.6, 220
224, 80, -15.6, 230
225, 80, 0, 220
226, 80, 0, 230
227, 80, 15.6, 220
228, 80, 15.6, 230
229, 80, 53.25, 210
230, 80, 53.25, 220
231, 80, 53.25, 230
232, 80, 90.9, 210
233, 80, 90.9, 220
234, 80, 90.9, 230
235, 80, 128.55, 210
236, 80, 128.55, 220
237, 80, 128.55, 230
238, 80, 166.2, 210
239, 80, 166.2, 220
240, 80, 166.2, 230
241, 100, -15.5, 6.25
242, 100, 0, 6.25
243, 100, -15.5, 47
244, 100, 0, 47
245, 100, -15.5, 87.75
246, 100, 0, 87.75
247, 100, -15.5, 128.5
248, 100, 0, 128.5
249, 100, -15.5, 169.25
250, 100, 0, 169.25
251, 100, -15.5, 210
252, 100, 0, 210
253, 100, 15.5, 6.25
254, 100, 15.5, 47
255, 100, 15.5, 87.75
256, 100, 15.5, 128.5
257, 100, 15.5, 169.25
258, 100, 15.5, 210
259, 100, -165.25, 210
260, 100, -127.8125, 210
261, 100, -165.25, 220
262, 100, -127.8125, 220
263, 100, -165.25, 230
264, 100, -127.8125, 230
265, 100, -90.375, 210
266, 100, -90.375, 220
267, 100, -90.375, 230
268, 100, -52.9375, 210
269, 100, -52.9375, 220
270, 100, -52.9375, 230
271, 100, -15.5, 220
272, 100, -15.5, 230
273, 100, 0, 220
274, 100, 0, 230
275, 100, 15.5, 220
276, 100, 15.5, 230
277, 100, 52.9375, 210
278, 100, 52.9375, 220
279, 100, 52.9375, 230
280, 100, 90.375, 210
281, 100, 90.375, 220
282, 100, 90.375, 230
283, 100, 127.8125, 210
284, 100, 127.8125, 220
285, 100, 127.8125, 230
286, 100, 165.25, 210
287, 100, 165.25, 220
288, 100, 165.25, 230
289, 120, -15.4, 7.5
290, 120, 0, 7.5
291, 120, -15.4, 48
292, 120, 0, 48
293, 120, -15.4, 88.5
294, 120, 0, 88.5
295, 120, -15.4, 129
296, 120, 0, 129
297, 120, -15.4, 169.5
298, 120, 0, 169.5
299, 120, -15.4, 210
300, 120, 0, 210
301, 120, 15.4, 7.5
302, 120, 15.4, 48
303, 120, 15.4, 88.5
304, 120, 15.4, 129
305, 120, 15.4, 169.5
306, 120, 15.4, 210
307, 120, -164.3, 210
308, 120, -127.075, 210
309, 120, -164.3, 220
310, 120, -127.075, 220
311, 120, -164.3, 230
312, 120, -127.075, 230
313, 120, -89.85, 210
314, 120, -89.85, 220
315, 120, -89.85, 230
316, 120, -52.625, 210
317, 120, -52.625, 220
318, 120, -52.625, 230
319, 120, -15.4, 220
320, 120, -15.4, 230
321, 120, 0, 220
322, 120, 0, 230
323, 120, 15.4, 220
324, 120, 15.4, 230
325, 120, 52.625, 210
326, 120, 52.625, 220
327, 120, 52.625, 230
328, 120, 89.85, 210
329, 120, 89.85, 220
330, 120, 89.85, 230
331, 120, 127.075, 210
332, 120, 127.075, 220
333, 120, 127.075, 230
334, 120, 164.3, 210
335, 120, 164.3, 220
336, 120, 164.3, 230
337, 140, -15.3, 8.75
338, 140, 0, 8.75
339, 140, -15.3, 49
340, 140, 0, 49
341, 140, -15.3, 89.25
342, 140, 0, 89.25
343, 140, -15.3, 129.5
344, 140, 0, 129.5
345, 140, -15.3, 169.75
346, 140, 0, 169.75
347, 140, -15.3, 210
348, 140, 0, 210
349, 140, 15.3, 8.75
350, 140, 15.3, 49
351, 140, 15.3, 89.25
352, 140, 15.3, 129.5
353, 140, 15.3, 169.75
354, 140, 15.3, 210
355, 140, -163.35, 210
356, 140, -126.3375, 210
357, 140, -163.35, 220
358, 140, -126.3375, 220
359, 140, -163.35, 230
360, 140, -126.3375, 230
361, 140, -89.325, 210
362, 140, -89.325, 220
363, 140, -89.325, 230
364, 140, -52.3125, 210
365, 140, -52.3125, 220
366, 140, -52.3125, 230
367, 140, -15.3, 220
368, 140, -15.3, 230
369, 140, 0, 220
370, 140, 0, 230
371, 140, 15.3, 220
372, 140, 15.3, 230
373, 140, 52.3125, 210
374, 140, 52.3125, 220
375, 140, 52.3125, 230
376, 140, 89.325, 210
377, 140, 89.325, 220
378, 140, 89.325, 230
379, 140, 126.3375, 210
380, 140, 126.3375, 220
381, 140, 126.3375, 230
382, 140, 163.35, 210
383, 140, 163.35, 220
384, 140, 163.35, 230
385, 160, -15.2, 10
386, 160, 0, 10
387, 160, -15.2, 50
388, 160, 0, 50
389, 160, -15.2, 90
390, 160, 0, 90
391, 160, -15.2, 130
392, 160, 0, 130
393, 160, -15.2, 170
394, 160, 0, 170
395, 160, -15.2, 210
396, 160, 0, 210
397, 160, 15.2, 10
398, 160, 15.2, 50
399, 160, 15.2, 90
400, 160, 15.2, 130
401, 160, 15.2, 170
402, 160, 15.2, 210
403, 160, -162.4, 210
404, 160, -125.6, 210
405, 160, -162.4, 220
406, 160, -125.6, 220
407, 160, -162.4, 230
408, 160, -125.6, 230
409, 160, -88.8, 210
410, 160, -88.8, 220
411, 160, -88.8, 230
412, 160, -52, 210
413, 160, -52, 220
414, 160, -52, 230
415, 160, -15.2, 220
416, 160, -15.2, 230
417, 160, 0, 220
418, 160, 0, 230
419, 160, 15.2, 220
420, 160, 15.2, 230
421, 160, 52, 210
422, 160, 52, 220
423, 160, 52, 230
424, 160, 88.8, 210
425, 160, 88.8, 220
426, 160, 88.8, 230
427, 160, 125.6, 210
428, 160, 125.6, 220
429, 160, 125.6, 230
430, 160, 162.4, 210
431, 160, 162.4, 220
432, 160, 162.4, 230
433, 180, -15.1, 11.25
434, 180, 0, 11.25
435, 180, -15.1, 51
436, 180, 0, 51
437, 180, -15.1, 90.75
438, 180, 0, 90.75
439, 180, -15.1, 130.5
440, 180, 0, 130.5
441, 180, -15.1, 170.25
442, 180, 0, 170.25
443, 180, -15.1, 210
444, 180, 0, 210
445, 180, 15.1, 11.25
446, 180, 15.1, 51
447, 180, 15.1, 90.75
448, 180, 15.1, 130.5
449, 180, 15.1, 170.25
450, 180, 15.1, 210
451, 180, -161.45, 210
452, 180, -124.8625, 210
453, 180, -161.45, 220
454, 180, -124.8625, 220
455, 180, -161.45, 230
456, 180, -124.8625, 230
457, 180, -88.275, 210
458, 180, -88.275, 220
459, 180, -88.275, 230
460, 180, -51.6875, 210
461, 180, -51.6875, 220
462, 180, -51.6875, 230
463, 180, -15.1, 220
464, 180, -15.1, 230
465, 180, 0, 220
466, 180, 0, 230
467, 180, 15.1, 220
468, 180, 15.1, 230
469, 180, 51.6875, 210
470, 180, 51.6875, 220
471, 180, 51.6875, 230
472, 180, 88.275, 210
473, 180, 88.275, 220
474, 180, 88.275, 230
475, 180, 124.8625, 210
476, 180, 124.8625, 220
477, 180, 124.8625, 230
478, 180, 161.45, 210
479, 180, 161.45, 220
480, 180, 161.45, 230
481, 200, -15, 12.5
482, 200, 0, 12.5
483, 200, -15, 52
484, 200, 0, 52
485, 200, -15, 91.5
486, 200, 0, 91.5
487, 200, -15, 131
488, 200, 0, 131
489, 200, -15, 170.5
490, 200, 0, 170.5
491, 200, -15, 210
492, 200, 0, 210
493, 200, 15, 12.5
494, 200, 15, 52
495, 200, 15, 91.5
496, 200, 15, 131
497, 200, 15, 170.5
498, 200, 15, 210
499, 200, -160.5, 210
500, 200, -124.125, 210
501, 200, -160.5, 220
502, 200, -124.125, 220
503, 200, -160.5, 230
504, 200, -124.125, 230
505, 200, -87.75, 210
506, 200, -87.75, 220
507, 200, -87.75, 230
508, 200, -51.375, 210
509, 200, -51.375, 220
510, 200, -51.375, 230
511, 200, -15, 220
512, 200, -15, 230
513, 200, 0, 220
514, 200, 0, 230
515, 200, 15, 220
516, 200, 15, 230
517, 200, 51.375, 210
518, 200, 51.375, 220
519, 200, 51.375, 230
520, 200, 87.75, 210
521, 200, 87.75, 220
522, 200, 87.75, 230
523, 200, 124.125, 210
524, 200, 124.125, 220
525, 200, 124.125, 230
526, 200, 160.5, 210
527, 200, 160.5, 220
528, 200, 160.5, 230
529, 220, -14.9, 13.75
530, 220, 0, 13.75
531, 220, -14.9, 53
532, 220, 0, 53
533, 220, -14.9, 92.25
534, 220, 0, 92.25
535, 220, -14.9, 131.5
536, 220, 0, 131.5
537, 220, -14.9, 170.75
538, 220, 0, 170.75
539, 220, -14.9, 210
540, 220, 0, 210
541, 220, 14.9, 13.75
542, 220, 14.9, 53
543, 220, 14.9, 92.25
544, 220, 14.9, 131.5
545, 220, 14.9, 170.75
546, 220, 14.9, 210
547, 220, -159.55, 210
548, 220, -123.3875, 210
549, 220, -159.55, 220
550, 220, -123.3875, 220
551, 220, -159.55, 230
552, 220, -123.3875, 230
553, 220, -87.225, 210
554, 220, -87.225, 220
555, 220, -87.225, 230
556, 220, -51.0625, 210
557, 220, -51.0625, 220
558, 220, -51.0625, 230
559, 220, -14.9, 220
560, 220, -14.9, 230
561, 220, 0, 220
562, 220, 0, 230
563, 220, 14.9, 220
564, 220, 14.9, 230
565, 220, 51.0625, 210
566, 220, 51.0625, 220
567, 220, 51.0625, 230
568, 220, 87.225, 210
569, 220, 87.225, 220
570, 220, 87.225, 230
571, 220, 123.3875, 210
572, 220, 123.3875, 220
573, 220, 123.3875, 230
574, 220, 159.55, 210
575, 220, 159.55, 220
576, 220, 159.55, 230
577, 240, -14.8, 15
578, 240, 0, 15
579, 240, -14.8, 54
580, 240, 0, 54
581, 240, -14.8, 93
582, 240, 0, 93
583, 240, -14.8, 132
584, 240, 0, 132
585, 240, -14.8, 171
586, 240, 0, 171
587, 240, -14.8, 210
588, 240, 0, 210
589, 240, 14.8, 15
590, 240, 14.8, 54
591, 240, 14.8, 93
592, 240, 14.8, 132
593, 240, 14.8, 171
594, 240, 14.8, 210
595, 240, -158.6, 210
596, 240, -122.65, 210
597, 240, -158.6, 220
598, 240, -122.65, 220
599, 240, -158.6, 230
600, 240, -122.65, 230
601, 240, -86.7, 210
602, 240, -86.7, 220
603, 240, -86.7, 230
604, 240, -50.75, 210
605, 240, -50.75, 220
606, 240, -50.75, 230
607, 240, -14.8, 220
608, 240, -14.8, 230
609, 240, 0, 220
610, 240, 0, 230
611, 240, 14.8, 220
612, 240, 14.8, 230
613, 240, 50.75, 210
614, 240, 50.75, 220
615, 240, 50.75, 230
616, 240, 86.7, 210
617, 240, 86.7, 220
618, 240, 86.7, 230
619, 240, 122.65, 210
620, 240, 122.65, 220
621, 240, 122.65, 230
622, 240, 158.6, 210
623, 240, 158.6, 220
624, 240, 158.6, 230
625, 260, -14.7, 16.25
626, 260, 0, 16.25
627, 260, -14.7, 55
628, 260, 0, 55
629, 260, -14.7, 93.75
630, 260, 0, 93.75
631, 260, -14.7, 132.5
632, 260, 0, 132.5
633, 260, -14.7, 171.25
634, 260, 0, 171.25
635, 260, -14.7, 210
636, 260, 0, 210
637, 260, 14.7, 16.25
638, 260, 14.7, 55
639, 260, 14.7, 93.75
640, 260, 14.7, 132.5
641, 260, 14.7, 171.25
642, 260, 14.7, 210
643, 260, -157.65, 210
644, 260, -121.9125, 210
645, 260, -157.65, 220
646, 260, -121.9125, 220
647, 260, -157.65, 230
648, 260, -121.9125, 230
649, 260, -86.175, 210
650, 260, -86.175, 220
651, 260, -86.175, 230
652, 260, -50.4375, 210
653, 260, -50.4375, 220
654, 260, -50.4375, 230
655, 260, -14.7, 220
656, 260, -14.7, 230
657, 260, 0, 220
658, 260, 0, 230
659, 260, 14.7, 220
660, 260, 14.7, 230
661, 260, 50.4375, 210
662, 260, 50.4375, 220
663, 260, 50.4375, 230
664, 260, 86.175, 210
665, 260, 86.175, 220
666, 260, 86.175, 230
667, 260, 121.9125, 210
668, 260, 121.9125, 220
669, 260, 121.9125, 230
670, 260, 157.65, 210
671, 260, 157.65, 220
672, 260, 157.65, 230
673, 280, -14.6, 17.5
674, 280, 0, 17.5
675, 280, -14.6, 56
676, 280, 0, 56
677, 280, -14.6, 94.5
678, 280, 0, 94.5
679, 280, -14.6, 133
680, 280, 0, 133
681, 280, -14.6, 171.5
682, 280, 0, 171.5
683, 280, -14.6, 210
684, 280, 0, 210
685, 280, 14.6, 17.5
686, 280, 14.6, 56
687, 280, 14.6, 94.5
688, 280, 14.6, 133
689, 280, 14.6, 171.5
690, 280, 14.6, 210
691, 280, -156.7, 210
692, 280, -121.175, 210
693, 280, -156.7, 220
694, 280, -121.175, 220
695, 280, -156.7, 230
696, 280, -121.175, 230
697, 280, -85.65, 210
698, 280, -85.65, 220
699, 280, -85.65, 230
700, 280, -50.125, 210
701, 280, -50.125, 220
702, 280, -50.125, 230
703, 280, -14.6, 220
704, 280, -14.6, 230
705, 280, 0, 220
706, 280, 0, 230
707, 280, 14.6, 220
708, 280, 14.6, 230
709, 280, 50.125, 210
710, 280, 50.125, 220
711, 280, 50.125, 230
712, 280, 85.65, 210
713, 280, 85.65, 220
714, 280, 85.65, 230
715, 280, 121.175, 210
716, 280, 121.175, 220
717, 280, 121.175, 230
718, 280, 156.7, 210
719, 280, 156.7, 220
720, 280, 156.7, 230
721, 300, -14.5, 18.75
722, 300, 0, 18.75
723, 300, -14.5, 57
724, 300, 0, 57
725, 300, -14.5, 95.25
726, 300, 0, 95.25
727, 300, -14.5, 133.5
728, 300, 0, 133.5
729, 300, -14.5, 171.75
730, 300, 0, 171.75
731, 300, -14.5, 210
732, 300, 0, 210
733, 300, 14.5, 18.75
734, 300, 14.5, 57
735, 300, 14.5, 95.25
736, 300, 14.5, 133.5
737, 300, 14.5, 171.75
738, 300, 14.5, 210
739, 300, -155.75, 210
740, 300, -120.4375, 210
741, 300, -155.75, 220
742, 300, -120.4375, 220
743, 300, -155.75, 230
744, 300, -120.4375, 230
745, 300, -85.125, 210
746, 300, -85.125, 220
747, 300, -85.125, 230
748, 300, -49.8125, 210
749, 300, -49.8125, 220
750, 300, -49.8125, 230
751, 300, -14.5, 220
752, 300, -14.5, 230
753, 300, 0, 220
754, 300, 0, 230
755, 300, 14.5, 220
756, 300, 14.5, 230
757, 300, 49.8125, 210
758, 300, 49.8125, 220
759, 300, 49.8125, 230
760, 300, 85.125, 210
761, 300, 85.125, 220
762, 300, 85.125, 230
763, 300, 120.4375, 210
764, 300, 120.4375, 220
765, 300, 120.4375, 230
766, 300, 155.75, 210
767, 300, 155.75, 220
768, 300, 155.75, 230
769, 320, -14.4, 20
770, 320, 0, 20
771, 320, -14.4, 58
772, 320, 0, 58
773, 320, -14.4, 96
774, 320, 0, 96
775, 320, -14.4, 134
776, 320, 0, 134
777, 320, -14.4, 172
778, 320, 0, 172
779, 320, -14.4, 210
780, 320, 0, 210
781, 320, 14.4, 20
782, 320, 14.4, 58
783, 320, 14.4, 96
784, 320, 14.4, 134
785, 320, 14.4, 172
786, 320, 14.4, 210
787, 320, -154.8, 210
788, 320, -119.7, 210
789, 320, -154.8, 220
790, 320, -119.7, 220
791, 320, -154.8, 230
792, 320, -119.7, 230
793, 320, -84.6, 210
794, 320, -84.6, 220
795, 320, -84.6, 230
796, 320, -49.5, 210
797, 320, -49.5, 220
798, 320, -49.5, 230
799, 320, -14.4, 220
800, 320, -14.4, 230
801, 320, 0, 220
802, 320, 0, 230
803, 320, 14.4, 220
804, 320, 14.4, 230
805, 320, 49.5, 210
806, 320, 49.5, 220
807, 320, 49.5, 230
808, 320, 84.6, 210
809, 320, 84.6, 220
810, 320, 84.6, 230
811, 320, 119.7, 210
812, 320, 119.7, 220
813, 320, 119.7, 230
814, 320, 154.8, 210
815, 320, 154.8, 220
816, 320, 154.8, 230
817, 340, -14.3, 21.25
818, 340, 0, 21.25
819, 340, -14.3, 59
820, 340, 0, 59
821, 340, -14.3, 96.75
822, 340, 0, 96.75
823, 340, -14.3, 134.5
824, 340, 0, 134.5
825, 340, -14.3, 172.25
826, 340, 0, 172.25
827, 340, -14.3, 210
828, 340, 0, 210
829, 340, 14.3, 21.25
830, 340, 14.3, 59
831, 340, 14.3, 96.75
832, 340, 14.3, 134.5
833, 340, 14.3, 172.25
834, 340, 14.3, 210
835, 340, -153.85, 210
836, 340, -118.9625, 210
837, 340, -153.85, 220
838, 340, -118.9625, 220
839, 340, -153.85, 230
840, 340, -118.9625, 230
841, 340, -84.075, 210
842, 340, -84.075, 220
843, 340, -84.075, 230
844, 340, -49.1875, 210
845, 340, -49.1875, 220
846, 340, -49.1875, 230
847, 340, -14.3, 220
848, 340, -14.3, 230
849, 340, 0, 220
850, 340, 0, 230
851, 340, 14.3, 220
852, 340, 14.3, 230
853, 340, 49.1875, 210
854, 340, 49.1875, 220
855, 340, 49.1875, 230
856, 340, 84.075, 210
857, 340, 84.075, 220
858, 340, 84.075, 230
859, 340, 118.9625, 210
860, 340, 118.9625, 220
861, 340, 118.9625, 230
862, 340, 153.85, 210
863, 340, 153.85, 220
864, 340, 153.85, 230
865, 360, -14.2, 22.5
866, 360, 0, 22.5
867, 360, -14.2, 60
868, 360, 0, 60
869, 360, -14.2, 97.5
870, 360, 0, 97.5
871, 360, -14.2, 135
872, 360, 0, 135
873, 360, -14.2, 172.5
874, 360, 0, 172.5
875, 360, -14.2, 210
876, 360, 0, 210
877, 360, 14.2, 22.5
878, 360, 14.2, 60
879, 360, 14.2, 97.5
880, 360, 14.2, 135
881, 360, 14.2, 172.5
882, 360, 14.2, 210
883, 360, -152.9, 210
884, 360, -118.225, 210
885, 360, -152.9, 220
886, 360, -118.225, 220
887, 360, -152.9, 230
888, 360, -118.225, 230
889, 360, -83.55, 210
890, 360, -83.55, 220
891, 360, -83.55, 230
892, 360, -48.875, 210
893, 360, -48.875, 220
894, 360, -48.875, 230
895, 360, -14.2, 220
896, 360, -14.2, 230
897, 360, 0, 220
898, 360, 0, 230
899, 360, 14.2, 220
900, 360, 14.2, 230
901, 360, 48.875, 210
902, 360, 48.875, 220
903, 360, 48.875, 230
904, 360, 83.55, 210
905, 360, 83.55, 220
906, 360, 83.55, 230
907, 360, 118.225, 210
908, 360, 118.225, 220
909, 360, 118.225, 230
910, 360, 152.9, 210
911, 360, 152.9, 220
912, 360, 152.9, 230
913, 380, -14.1, 23.75
914, 380, 0, 23.75
915, 380, -14.1, 61
916, 380, 0, 61
917, 380, -14.1, 98.25
918, 380, 0, 98.25
919, 380, -14.1, 135.5
920, 380, 0, 135.5
921, 380, -14.1, 172.75
922, 380, 0, 172.75
923, 380, -14.1, 210
924, 380, 0, 210
925, 380, 14.1, 23.75
926, 380, 14.1, 61
927, 380, 14.1, 98.25
928, 380, 14.1, 135.5
929, 380, 14.1, 172.75
930, 380, 14.1, 210
931, 380, -151.95, 210
932, 380, -117.4875, 210
933, 380, -151.95, 220
934, 380, -117.4875, 220
935, 380, -151.95, 230
936, 380, -117.4875, 230
937, 380, -83.025, 210
938, 380, -83.025, 220
939, 380, -83.025, 230
940, 380, -48.5625, 210
941, 380, -48.5625, 220
942, 380, -48.5625, 230
943, 380, -14.1, 220
944, 380, -14.1, 230
945, 380, 0, 220
946, 380, 0, 230
947, 380, 14.1, 220
948, 380, 14.1, 230
949, 380, 48.5625, 210
950, 380, 48.5625, 220
951, 380, 48.5625, 230
952, 380, 83.025, 210
953, 380, 83.025, 220
954, 380, 83.025, 230
955, 380, 117.4875, 210
956, 380, 117.4875, 220
957, 380, 117.4875, 230
958, 380, 151.95, 210
959, 380, 151.95, 220
960, 380, 151.95, 230
961, 400, -14, 25
962, 400, 0, 25
963, 400, -14, 62
964, 400, 0, 62
965, 400, -14, 99
966, 400, 0, 99
967, 400, -14, 136
968, 400, 0, 136
969, 400, -14, 173
970, 400, 0, 173
971, 400, -14, 210
972, 400, 0, 210
973, 400, 14, 25
974, 400, 14, 62
975, 400, 14, 99
976, 400, 14, 136
977, 400, 14, 173
978, 400, 14, 210
979, 400, -151, 210
980, 400, -116.75, 210
981, 400, -151, 220
982, 400, -116.75, 220
983, 400, -151, 230
984, 400, -116.75, 230
985, 400, -82.5, 210
986, 400, -82.5, 220
987, 400, -82.5, 230
988, 400, -48.25, 210
989, 400, -48.25, 220
990, 400, -48.25, 230
991, 400, -14, 220
992, 400, -14, 230
993, 400, 0, 220
994, 400, 0, 230
995, 400, 14, 220
996, 400, 14, 230
997, 400, 48.25, 210
998, 400, 48.25, 220
999, 400, 48.25, 230
1000, 400, 82.5, 210
1001, 400, 82.5, 220
1002, 400, 82.5, 230
1003, 400, 116.75, 210
1004, 400, 116.75, 220
1005, 400, 116.75, 230
1006, 400, 151, 210
1007, 400, 151, 220
1008, 400, 151, 230
1009, 420, -13.9, 26.25
1010, 420, 0, 26.25
1011, 420, -13.9, 63
1012, 420, 0, 63
1013, 420, -13.9, 99.75
1014, 420, 0, 99.75
1015, 420, -13.9, 136.5
1016, 420, 0, 136.5
1017, 420, -13.9, 173.25
1018, 420, 0, 173.25
1019, 420, -13.9, 210
1020, 420, 0, 210
1021, 420, 13.9, 26.25
1022, 420, 13.9, 63
1023, 420, 13.9, 99.75
1024, 420, 13.9, 136.5
1025, 420, 13.9, 173.25
1026, 420, 13.9, 210
1027, 420, -150.05, 210
1028, 420, -116.0125, 210
1029, 420, -150.05, 220
1030, 420, -116.0125, 220
1031, 420, -150.05, 230
1032, 420, -116.0125, 230
1033, 420, -81.975, 210
1034, 420, -81.975, 220
1035, 420, -81.975, 230
1036, 420, -47.9375, 210
1037, 420, -47.9375, 220
1038, 420, -47.9375, 230
1039, 420, -13.9, 220
1040, 420, -13.9, 230
1041, 420, 0, 220
1042, 420, 0, 230
1043, 420, 13.9, 220
1044, 420, 13.9, 230
1045, 420, 47.9375, 210
1046, 420, 47.9375, 220
1047, 420, 47.9375, 230
1048, 420, 81.975, 210
1049, 420, 81.975, 220
1050, 420, 81.975, 230
1051, 420, 116.0125, 210
1052, 420, 116.0125, 220
1053, 420, 116.0125, 230
1054, 420, 150.05, 210
1055, 420, 150.05, 220
1056, 420, 150.05, 230
1057, 440, -13.8, 27.5
1058, 440, 0, 27.5
1059, 440, -13.8, 64
1060, 440, 0, 64
1061, 440, -13.8, 100.5
1062, 440, 0, 100.5
1063, 440, -13.8, 137
1064, 440, 0, 137
1065, 440, -13.8, 173.5
1066, 440, 0, 173.5
1067, 440, -13.8, 210
1068, 440, 0, 210
1069, 440, 13.8, 27.5
1070, 440, 13.8, 64
1071, 440, 13.8, 100.5
1072, 440, 13.8, 137
1073, 440, 13.8, 173.5
1074, 440, 13.8, 210
1075, 440, -149.1, 210
1076, 440, -115.275, 210
1077, 440, -149.1, 220
1078, 440, -115.275, 220
1079, 440, -149.1, 230
1080, 440, -115.275, 230
1081, 440, -81.45, 210
1082, 440, -81.45, 220
1083, 440, -81.45, 230
1084, 440, -47.625, 210
1085, 440, -47.625, 220
1086, 440, -47.625, 230
1087, 440, -13.8, 220
1088, 440, -13.8, 230
1089, 440, 0, 220
1090, 440, 0, 230
1091, 440, 13.8, 220
1092, 440, 13.8, 230
1093, 440, 47.625, 210
1094, 440, 47.625, 220
1095, 440, 47.625, 230
1096, 440, 81.45, 210
1097, 440, 81.45, 220
1098, 440, 81.45, 230
1099, 440, 115.275, 210
1100, 440, 115.275, 220
1101, 440, 115.275, 230
1102, 440, 149.1, 210
1103, 440, 149.1, 220
1104, 440, 149.1, 230
1105, 460, -13.7, 28.75
1106, 460, 0, 28.75
1107, 460, -13.7, 65
1108, 460, 0, 65
1109, 460, -13.7, 101.25
1110, 460, 0, 101.25
1111, 460, -13.7, 137.5
1112, 460, 0, 137.5
1113, 460, -13.7, 173.75
1114, 460, 0, 173.75
1115, 460, -13.7, 210
1116, 460, 0, 210
1117, 460, 13.7, 28.75
1118, 460, 13.7, 65
1119, 460, 13.7, 101.25
1120, 460, 13.7, 137.5
1121, 460, 13.7, 173.75
1122, 460, 13.7, 210
1123, 460, -148.15, 210
1124, 460, -114.5375, 210
1125, 460, -148.15, 220
1126, 460, -114.5375, 220
1127, 460, -148.15, 230
1128, 460, -114.5375, 230
1129, 460, -80.925, 210
1130, 460, -80.925, 220
1131, 460, -80.925, 230
1132, 460, -47.3125, 210
1133, 460, -47.3125, 220
1134, 460, -47.3125, 230
1135, 460, -13.7, 220
1136, 460, -13.7, 230
1137, 460, 0, 220
1138, 460, 0, 230
1139, 460, 13.7, 220
1140, 460, 13.7, 230
1141, 460, 47.3125, 210
1142, 460, 47.3125, 220
1143, 460, 47.3125, 230
1144, 460, 80.925, 210
1145, 460, 80.925, 220
1146, 460, 80.925, 230
1147, 460, 114.5375, 210
1148, 460, 114.5375, 220
1149, 460, 114.5375, 230
1150, 460, 148.15, 210
1151, 460, 148.15, 220
1152, 460, 148.15, 230
1153, 480, -13.6, 30
1154, 480, 0, 30
1155, 480, -13.6, 66
1156, 480, 0, 66
1157, 480, -13.6, 102
1158, 480, 0, 102
1159, 480, -13.6, 138
1160, 480, 0, 138
1161, 480, -13.6, 174
1162, 480, 0, 174
1163, 480, -13.6, 210
1164, 480, 0, 210
1165, 480, 13.6, 30
1166, 480, 13.6, 66
1167, 480, 13.6, 102
1168, 480, 13.6, 138
1169, 480, 13.6, 174
1170, 480, 13.6, 210
1171, 480, -147.2, 210
1172, 480, -113.8, 210
1173, 480, -147.2, 220
1174, 480, -113.8, 220
1175, 480, -147.2, 230
1176, 480, -113.8, 230
1177, 480, -80.4, 210
1178, 480, -80.4, 220
1179, 480, -80.4, 230
1180, 480, -47, 210
1181, 480, -47, 220
1182, 480, -47, 230
1183, 480, -13.6, 220
1184, 480, -13.6, 230
1185, 480, 0, 220
1186, 480, 0, 230
1187, 480, 13.6, 220
1188, 480, 13.6, 230
1189, 480, 47, 210
1190, 480, 47, 220
1191, 480, 47, 230
1192, 480, 80.4, 210
1193, 480, 80.4, 220
1194, 480, 80.4, 230
1195, 480, 113.8, 210
1196, 480, 113.8, 220
1197, 480, 113.8, 230
1198, 480, 147.2, 210
1199, 480, 147.2, 220
1200, 480, 147.2, 230
1201, 500, -13.5, 31.25
1202, 500, 0, 31.25
1203, 500, -13.5, 67
1204, 500, 0, 67
1205, 500, -13.5, 102.75
1206, 500, 0, 102.75
1207, 500, -13.5, 138.5
1208, 500, 0, 138.5
1209, 500, -13.5, 174.25
1210, 500, 0, 174.25
1211, 500, -13.5, 210
1212, 500, 0, 210
1213, 500, 13.5, 31.25
1214, 500, 13.5, 67
1215, 500, 13.5, 102.75
1216, 500, 13.5, 138.5
1217, 500, 13.5, 174.25
1218, 500, 13.5, 210
1219, 500, -146.25, 210
1220, 500, -113.0625, 210
1221, 500, -146.25, 220
1222, 500, -113.0625, 220
1223, 500, -146.25, 230
1224, 500, -113.0625, 230
1225, 500, -79.875, 210
1226, 500, -79.875, 220
1227, 500, -79.875, 230
1228, 500, -46.6875, 210
1229, 500, -46.6875, 220
1230, 500, -46.6875, 230
1231, 500, -13.5, 220
1232, 500, -13.5, 230
1233, 500, 0, 220
1234, 500, 0, 230
1235, 500, 13.5, 220
1236, 500, 13.5, 230
1237, 500, 46.6875, 210
1238, 500, 46.6875, 220
1239, 500, 46.6875, 230
1240, 500, 79.875, 210
1241, 500, 79.875, 220
1242, 500, 79.875, 230
1243, 500, 113.0625, 210
1244, 500, 113.0625, 220
1245, 500, 113.0625, 230
1246, 500, 146.25, 210
1247, 500, 146.25, 220
1248, 500, 146.25, 230
1249, 520, -13.4, 32.5
1250, 520, 0, 32.5
1251, 520, -13.4, 68
1252, 520, 0, 68
1253, 520, -13.4, 103.5
1254, 520, 0, 103.5
1255, 520, -13.4, 139
1256, 520, 0, 139
1257, 520, -13.4, 174.5
1258, 520, 0, 174.5
1259, 520, -13.4, 210
1260, 520, 0, 210
1261, 520, 13.4, 32.5
1262, 520, 13.4, 68
1263, 520, 13.4, 103.5
1264, 520, 13.4, 139
1265, 520, 13.4, 174.5
1266, 520, 13.4, 210
1267, 520, -145.3, 210
1268, 520, -112.325, 210
1269, 520, -145.3, 220
1270, 520, -112.325, 220
1271, 520, -145.3, 230
1272, 520, -112.325, 230
1273, 520, -79.35, 210
1274, 520, -79.35, 220
1275, 520, -79.35, 230
1276, 520, -46.375, 210
1277, 520, -46.375, 220
1278, 520, -46.375, 230
1279, 520, -13.4, 220
1280, 520, -13.4, 230
1281, 520, 0, 220
1282, 520, 0, 230
1283, 520, 13.4, 220
1284, 520, 13.4, 230
1285, 520, 46.375, 210
1286, 520, 46.375, 220
1287, 520, 46.375, 230
1288, 520, 79.35, 210
1289, 520, 79.35, 220
1290, 520, 79.35, 230
1291, 520, 112.325, 210
1292, 520, 112.325, 220
1293, 520, 112.325, 230
1294, 520, 145.3, 210
1295, 520, 145.3, 220
1296, 520, 145.3, 230
1297, 540, -13.3, 33.75
1298, 540, 0, 33.75
1299, 540, -13.3, 69
1300, 540, 0, 69
1301, 540, -13.3, 104.25
1302, 540, 0, 104.25
1303, 540, -13.3, 139.5
1304, 540, 0, 139.5
1305, 540, -13.3, 174.75
1306, 540, 0, 174.75
1307, 540, -13.3, 210
1308, 540, 0, 210
1309, 540, 13.3, 33.75
1310, 540, 13.3, 69
1311, 540, 13.3, 104.25
1312, 540, 13.3, 139.5
1313, 540, 13.3, 174.75
1314, 540, 13.3, 210
1315, 540, -144.35, 210
1316, 540, -111.5875, 210
1317, 540, -144.35, 220
1318, 540, -111.5875, 220
1319, 540, -144.35, 230
1320, 540, -111.5875, 230
1321, 540, -78.825, 210
1322, 540, -78.825, 220
1323, 540, -78.825, 230
1324, 540, -46.0625, 210
1325, 540, -46.0625, 220
1326, 540, -46.0625, 230
1327, 540, -13.3, 220
1328, 540, -13.3, 230
1329, 540, 0, 220
1330, 540, 0, 230
1331, 540, 13.3, 220
1332, 540, 13.3, 230
1333, 540, 46.0625, 210
1334, 540, 46.0625, 220
1335, 540, 46.0625, 230
1336, 540, 78.825, 210
1337, 540, 78.825, 220
1338, 540, 78.825, 230
1339, 540, 111.5875, 210
1340, 540, 111.5875, 220
1341, 540, 111.5875, 230
1342, 540, 144.35, 210
1343, 540, 144.35, 220
1344, 540, 144.35, 230
1345, 560, -13.2, 35
1346, 560, 0, 35
1347, 560, -13.2, 70
1348, 560, 0, 70
1349, 560, -13.2, 105
1350, 560, 0, 105
1351, 560, -13.2, 140
1352, 560, 0, 140
1353, 560, -13.2, 175
1354, 560, 0, 175
1355, 560, -13.2, 210
1356, 560, 0, 210
1357, 560, 13.2, 35
1358, 560, 13.2, 70
1359, 560, 13.2, 105
1360, 560, 13.2, 140
1361, 560, 13.2, 175
1362, 560, 13.2, 210
1363, 560, -143.4, 210
1364, 560, -110.85, 210
1365, 560, -143.4, 220
1366, 560, -110.85, 220
1367, 560, -143.4, 230
1368, 560, -110.85, 230
1369, 560, -78.3, 210
1370, 560, -78.3, 220
1371, 560, -78.3, 230
1372, 560, -45.75, 210
1373, 560, -45.75, 220
1374, 560, -45.75, 230
1375, 560, -13.2, 220
1376, 560, -13.2, 230
1377, 560, 0, 220
1378, 560, 0, 230
1379, 560, 13.2, 220
1380, 560, 13.2, 230
1381, 560, 45.75, 210
1382, 560, 45.75, 220
1383, 560, 45.75, 230
1384, 560, 78.3, 210
1385, 560, 78.3, 220
1386, 560, 78.3, 230
1387, 560, 110.85, 210
1388, 560, 110.85, 220
1389, 560, 110.85, 230
1390, 560, 143.4, 210
1391, 560, 143.4, 220
1392, 560, 143.4, 230
1393, 580, -13.1, 36.25
1394, 580, 0, 36.25
1395, 580, -13.1, 71
1396, 580, 0, 71
1397, 580, -13.1, 105.75
1398, 580, 0, 105.75
1399, 580, -13.1, 140.5
1400, 580, 0, 140.5
1401, 580, -13.1, 175.25
1402, 580, 0, 175.25
1403, 580, -13.1, 210
1404, 580, 0, 210
1405, 580, 13.1, 36.25
1406, 580, 13.1, 71
1407, 580, 13.1, 105.75
1408, 580, 13.1, 140.5
1409, 580, 13.1, 175.25
1410, 580, 13.1, 210
1411, 580, -142.45, 210
1412, 580, -110.1125, 210
1413, 580, -142.45, 220
1414, 580, -110.1125, 220
1415, 580, -142.45, 230
1416, 580, -110.1125, 230
1417, 580, -77.775, 210
1418, 580, -77.775, 220
1419, 580, -77.775, 230
1420, 580, -45.4375, 210
1421, 580, -45.4375, 220
1422, 580, -45.4375, 230
1423, 580, -13.1, 220
1424, 580, -13.1, 230
1425, 580, 0, 220
1426, 580, 0, 230
1427, 580, 13.1, 220
1428, 580, 13.1, 230
1429, 580, 45.4375, 210
1430, 580, 45.4375, 220
1431, 580, 45.4375, 230
1432, 580, 77.775, 210
1433, 580, 77.775, 220
1434, 580, 77.775, 230
1435, 580, 110.1125, 210
1436, 580, 110.1125, 220
1437, 580, 110.1125, 230
1438, 580, 142.45, 210
1439, 580, 142.45, 220
1440, 580, 142.45, 230
1441, 600, -13, 37.5
1442, 600, 0, 37.5
1443, 600, -13, 72
1444, 600, 0, 72
1445, 600, -13, 106.5
1446, 600, 0, 106.5
1447, 600, -13, 141
1448, 600, 0, 141
1449, 600, -13, 175.5
1450, 600, 0, 175.5
1451, 600, -13, 210
1452, 600, 0, 210
1453, 600, 13, 37.5
1454, 600, 13, 72
1455, 600, 13, 106.5
1456, 600, 13, 141
1457, 600, 13, 175.5
1458, 600, 13, 210
1459, 600, -141.5, 210
1460, 600, -109.375, 210
1461, 600, -141.5, 220
1462, 600, -109.375, 220
1463, 600, -141.5, 230
1464, 600, -109.375, 230
1465, 600, -77.25, 210
1466, 600, -77.25, 220
1467, 600, -77.25, 230
1468, 600, -45.125, 210
1469, 600, -45.125, 220
1470, 600, -45.125, 230
1471, 600, -13, 220
1472, 600, -13, 230
1473, 600, 0, 220
1474, 600, 0, 230
1475, 600, 13, 220
1476, 600, 13, 230
1477, 600, 45.125, 210
1478, 600, 45.125, 220
1479, 600, 45.125, 230
1480, 600, 77.25, 210
1481, 600, 77.25, 220
1482, 600, 77.25, 230
1483, 600, 109.375, 210
1484, 600, 109.375, 220
1485, 600, 109.375, 230
1486, 600, 141.5, 210
1487, 600, 141.5, 220
1488, 600, 141.5, 230
1489, 620, -12.9, 38.75
1490, 620, 0, 38.75
1491, 620, -12.9, 73
1492, 620, 0, 73
1493, 620, -12.9, 107.25
1494, 620, 0, 107.25
1495, 620, -12.9, 141.5
1496, 620, 0, 141.5
1497, 620, -12.9, 175.75
1498, 620, 0, 175.75
1499, 620, -12.9, 210
1500, 620, 0, 210
1501, 620, 12.9, 38.75
1502, 620, 12.9, 73
1503, 620, 12.9, 107.25
1504, 620, 12.9, 141.5
1505, 620, 12.9, 175.75
1506, 620, 12.9, 210
1507, 620, -140.55, 210
1508, 620, -108.6375, 210
1509, 620, -140.55, 220
1510, 620, -108.6375, 220
1511, 620, -140.55, 230
1512, 620, -108.6375, 230
1513, 620, -76.725, 210
1514, 620, -76.725, 220
1515, 620, -76.725, 230
1516, 620, -44.8125, 210
1517, 620, -44.8125, 220
1518, 620, -44.8125, 230
1519, 620, -12.9, 220
1520, 620, -12.9, 230
1521, 620, 0, 220
1522, 620, 0, 230
1523, 620, 12.9, 220
1524, 620, 12.9, 230
1525, 620, 44.8125, 210
1526, 620, 44.8125, 220
1527, 620, 44.8125, 230
1528, 620, 76.725, 210
1529, 620, 76.725, 220
1530, 620, 76.725, 230
1531, 620, 108.6375, 210
1532, 620, 108.6375, 220
1533, 620, 108.6375, 230
1534, 620, 140.55, 210
1535, 620, 140.55, 220
1536, 620, 140.55, 230
1537, 640, -12.8, 40
1538, 640, 0, 40
1539, 640, -12.8, 74
1540, 640, 0, 74
1541, 640, -12.8, 108
1542, 640, 0, 108
1543, 640, -12.8, 142
1544, 640, 0, 142
1545, 640, -12.8, 176
1546, 640, 0, 176
1547, 640, -12.8, 210
1548, 640, 0, 210
1549, 640, 12.8, 40
1550, 640, 12.8, 74
1551, 640, 12.8, 108
1552, 640, 12.8, 142
1553, 640, 12.8, 176
1554, 640, 12.8, 210
1555, 640, -139.6, 210
1556, 640, -107.9, 210
1557, 640, -139.6, 220
1558, 640, -107.9, 220
1559, 640, -139.6, 230
1560, 640, -107.9, 230
1561, 640, -76.2, 210
1562, 640, -76.2, 220
1563, 640, -76.2, 230
1564, 640, -44.5, 210
1565, 640, -44.5, 220
1566, 640, -44.5, 230
1567, 640, -12.8, 220
1568, 640, -12.8, 230
1569, 640, 0, 220
1570, 640, 0, 230
1571, 640, 12.8, 220
1572, 640, 12.8, 230
1573, 640, 44.5, 210
1574, 640, 44.5, 220
1575, 640, 44.5, 230
1576, 640, 76.2, 210
1577, 640, 76.2, 220
1578, 640, 76.2, 230
1579, 640, 107.9, 210
1580, 640, 107.9, 220
1581, 640, 107.9, 230
1582, 640, 139.6, 210
1583, 640, 139.6, 220
1584, 640, 139.6, 230
1585, 660, -12.7, 41.25
1586, 660, 0, 41.25
1587, 660, -12.7, 75
1588, 660, 0, 75
1589, 660, -12.7, 108.75
1590, 660, 0, 108.75
1591, 660, -12.7, 142.5
1592, 660, 0, 142.5
1593, 660, -12.7, 176.25
1594, 660, 0, 176.25
1595, 660, -12.7, 210
1596, 660, 0, 210
1597, 660, 12.7, 41.25
1598, 660, 12.7, 75
1599, 660, 12.7, 108.75
1600, 660, 12.7, 142.5
1601, 660, 12.7, 176.25
1602, 660, 12.7, 210
1603, 660, -138.65, 210
1604, 660, -107.1625, 210
1605, 660, -138.65, 220
1606, 660, -107.1625, 220
1607, 660, -138.65, 230
1608, 660, -107.1625, 230
1609, 660, -75.675, 210
1610, 660, -75.675, 220
1611, 660, -75.675, 230
1612, 660, -44.1875, 210
1613, 660, -44.1875, 220
1614, 660, -44.1875, 230
1615, 660, -12.7, 220
1616, 660, -12.7, 230
1617, 660, 0, 220
1618, 660, 0, 230
1619, 660, 12.7, 220
1620, 660, 12.7, 230
1621, 660, 44.1875, 210
1622, 660, 44.1875, 220
1623, 660, 44.1875, 230
1624, 660, 75.675, 210
1625, 660, 75.675, 220
1626, 660, 75.675, 230
1627, 660, 107.1625, 210
1628, 660, 107.1625, 220
1629, 660, 107.1625, 230
1630, 660, 138.65, 210
1631, 660, 138.65, 220
1632, 660, 138.65, 230
1633, 680, -12.6, 42.5
1634, 680, 0, 42.5
1635, 680, -12.6, 76
1636, 680, 0, 76
1637, 680, -12.6, 109.5
1638, 680, 0, 109.5
1639, 680, -12.6, 143
1640, 680, 0, 143
1641, 680, -12.6, 176.5
1642, 680, 0, 176.5
1643, 680, -12.6, 210
1644, 680, 0, 210
1645, 680, 12.6, 42.5
1646, 680, 12.6, 76
1647, 680, 12.6, 109.5
1648, 680, 12.6, 143
1649, 680, 12.6, 176.5
1650, 680, 12.6, 210
1651, 680, -137.7, 210
1652, 680, -106.425, 210
1653, 680, -137.7, 220
1654, 680, -106.425, 220
1655, 680, -137.7, 230
1656, 680, -106.425, 230
1657, 680, -75.15, 210
1658, 680, -75.15, 220
1659, 680, -75.15, 230
1660, 680, -43.875, 210
1661, 680, -43.875, 220
1662, 680, -43.875, 230
1663, 680, -12.6, 220
1664, 680, -12.6, 230
1665, 680, 0, 220
1666, 680, 0, 230
1667, 680, 12.6, 220
1668, 680, 12.6, 230
1669, 680, 43.875, 210
1670, 680, 43.875, 220
1671, 680, 43.875, 230
1672, 680, 75.15, 210
1673, 680, 75.15, 220
1674, 680, 75.15, 230
1675, 680, 106.425, 210
1676, 680, 106.425, 220
1677, 680, 106.425, 230
1678, 680, 137.7, 210
1679, 680, 137.7, 220
1680, 680, 137.7, 230
1681, 700, -12.5, 43.75
1682, 700, 0, 43.75
1683, 700, -12.5, 77
1684, 700, 0, 77
1685, 700, -12.5, 110.25
1686, 700, 0, 110.25
1687, 700, -12.5, 143.5
1688, 700, 0, 143.5
1689, 700, -12.5, 176.75
1690, 700, 0, 176.75
1691, 700, -12.5, 210
1692, 700, 0, 210
1693, 700, 12.5, 43.75
1694, 700, 12.5, 77
1695, 700, 12.5, 110.25
1696, 700, 12.5, 143.5
1697, 700, 12.5, 176.75
1698, 700, 12.5, 210
1699, 700, -136.75, 210
1700, 700, -105.6875, 210
1701, 700, -136.75, 220
1702, 700, -105.6875, 220
1703, 700, -136.75, 230
1704, 700, -105.6875, 230
1705, 700, -74.625, 210
1706, 700, -74.625, 220
1707, 700, -74.625, 230
1708, 700, -43.5625, 210
1709, 700, -43.5625, 220
1710, 700, -43.5625, 230
1711, 700, -12.5, 220
1712, 700, -12.5, 230
1713, 700, 0, 220
1714, 700, 0, 230
1715, 700, 12.5, 220
1716, 700, 12.5, 230
1717, 700, 43.5625, 210
1718, 700, 43.5625, 220
1719, 700, 43.5625, 230
1720, 700, 74.625, 210
1721, 700, 74.625, 220
1722, 700, 74.625, 230
1723, 700, 105.6875, 210
1724, 700, 105.6875, 220
1725, 700, 105.6875, 230
1726, 700, 136.75, 210
1727, 700, 136.75, 220
1728, 700, 136.75, 230
1729, 720, -12.4, 45
1730, 720, 0, 45
1731, 720, -12.4, 78
1732, 720, 0, 78
1733, 720, -12.4, 111
1734, 720, 0, 111
1735, 720, -12.4, 144
1736, 720, 0, 144
1737, 720, -12.4, 177
1738, 720, 0, 177
1739, 720, -12.4, 210
1740, 720, 0, 210
1741, 720, 12.4, 45
1742, 720, 12.4, 78
1743, 720, 12.4, 111
1744, 720, 12.4, 144
1745, 720, 12.4, 177
1746, 720, 12.4, 210
1747, 720, -135.8, 210
1748, 720, -104.95, 210
1749, 720, -135.8, 220
1750, 720, -104.95, 220
1751, 720, -135.8, 230
1752, 720, -104.95, 230
1753, 720, -74.1, 210
1754, 720, -74.1, 220
1755, 720, -74.1, 230
1756, 720, -43.25, 210
1757, 720, -43.25, 220
1758, 720, -43.25, 230
1759, 720, -12.4, 220
1760, 720, -12.4, 230
1761, 720, 0, 220
1762, 720, 0, 230
1763, 720, 12.4, 220
1764, 720, 12.4, 230
1765, 720, 43.25, 210
1766, 720, 43.25, 220
1767, 720, 43.25, 230
1768, 720, 74.1, 210
1769, 720, 74.1, 220
1770, 720, 74.1, 230
1771, 720, 104.95, 210
1772, 720, 104.95, 220
1773, 720, 104.95, 230
1774, 720, 135.8, 210
1775, 720, 135.8, 220
1776, 720, 135.8, 230
1777, 740, -12.3, 46.25
1778, 740, 0, 46.25
1779, 740, -12.3, 79
1780, 740, 0, 79
1781, 740, -12.3, 111.75
1782, 740, 0, 111.75
1783, 740, -12.3, 144.5
1784, 740, 0, 144.5
1785, 740, -12.3, 177.25
1786, 740, 0, 177.25
1787, 740, -12.3, 210
1788, 740, 0, 210
1789, 740, 12.3, 46.25
1790, 740, 12.3, 79
1791, 740, 12.3, 111.75
1792, 740, 12.3, 144.5
1793, 740, 12.3, 177.25
1794, 740, 12.3, 210
1795, 740, -134.85, 210
1796, 740, -104.2125, 210
1797, 740, -134.85, 220
1798, 740, -104.2125, 220
1799, 740, -134.85, 230
1800, 740, -104.2125, 230
1801, 740, -73.575, 210
1802, 740, -73.575, 220
1803, 740, -73.575, 230
1804, 740, -42.9375, 210
1805, 740, -42.9375, 220
1806, 740, -42.9375, 230
1807, 740, -12.3, 220
1808, 740, -12.3, 230
1809, 740, 0, 220
1810, 740, 0, 230
1811, 740, 12.3, 220
1812, 740, 12.3, 230
1813, 740, 42.9375, 210
1814, 740, 42.9375, 220
1815, 740, 42.9375, 230
1816, 740, 73.575, 210
1817, 740, 73.575, 220
1818, 740, 73.575, 230
1819, 740, 104.2125, 210
1820, 740, 104.2125, 220
1821, 740, 104.2125, 230
1822, 740, 134.85, 210
1823, 740, 134.85, 220
1824, 740, 134.85, 230
1825, 760, -12.2, 47.5
1826, 760, 0, 47.5
1827, 760, -12.2, 80
1828, 760, 0, 80
1829, 760, -12.2, 112.5
1830, 760, 0, 112.5
1831, 760, -12.2, 145
1832, 760, 0, 145
1833, 760, -12.2, 177.5
1834, 760, 0, 177.5
1835, 760, -12.2, 210
1836, 760, 0, 210
1837, 760, 12.2, 47.5
1838, 760, 12.2, 80
1839, 760, 12.2, 112.5
1840, 760, 12.2, 145
1841, 760, 12.2, 177.5
1842, 760, 12.2, 210
1843, 760, -133.9, 210
1844, 760, -103.475, 210
1845, 760, -133.9, 220
1846, 760, -103.475, 220
1847, 760, -133.9, 230
1848, 760, -103.475, 230
1849, 760, -73.05, 210
1850, 760, -73.05, 220
1851, 760, -73.05, 230
1852, 760, -42.625, 210
1853, 760, -42.625, 220
1854, 760, -42.625, 230
1855, 760, -12.2, 220
1856, 760, -12.2, 230
1857, 760, 0, 220
1858, 760, 0, 230
1859, 760, 12.2, 220
1860, 760, 12.2, 230
1861, 760, 42.625, 210
1862, 760, 42.625, 220
1863, 760, 42.625, 230
1864, 760, 73.05, 210
1865, 760, 73.05, 220
1866, 760, 73.05, 230
1867, 760, 103.475, 210
1868, 760, 103.475, 220
1869, 760, 103.475, 230
1870, 760, 133.9, 210
1871, 760, 133.9, 220
1872, 760, 133.9, 230
1873, 780, -12.1, 48.75
1874, 780, 0, 48.75
1875, 780, -12.1, 81
1876, 780, 0, 81
1877, 780, -12.1, 113.25
1878, 780, 0, 113.25
1879, 780, -12.1, 145.5
1880, 780, 0, 145.5
1881, 780, -12.1, 177.75
1882, 780, 0, 177.75
1883, 780, -12.1, 210
1884, 780, 0, 210
1885, 780, 12.1, 48.75
1886, 780, 12.1, 81
1887, 780, 12.1, 113.25
1888, 780, 12.1, 145.5
1889, 780, 12.1, 177.75
1890, 780, 12.1, 210
1891, 780, -132.95, 210
1892, 780, -102.7375, 210
1893, 780, -132.95, 220
1894, 780, -102.7375, 220
1895, 780, -132.95, 230
1896, 780, -102.7375, 230
1897, 780, -72.525, 210
1898, 780, -72.525, 220
1899, 780, -72.525, 230
1900, 780, -42.3125, 210
1901, 780, -42.3125, 220
1902, 780, -42.3125, 230
1903, 780, -12.1, 220
1904, 780, -12.1, 230
1905, 780, 0, 220
1906, 780, 0, 230
1907, 780, 12.1, 220
1908, 780, 12.1, 230
1909, 780, 42.3125, 210
1910, 780, 42.3125, 220
1911, 780, 42.3125, 230
1912, 780, 72.525, 210
1913, 780, 72.525, 220
1914, 780, 72.525, 230
1915, 780, 102.7375, 210
1916, 780, 102.7375, 220
1917, 780, 102.7375, 230
1918, 780, 132.95, 210
1919, 780, 132.95, 220
1920, 780, 132.95, 230
1921, 800, -12, 50
1922, 800, 0, 50
1923, 800, -12, 82
1924, 800, 0, 82
1925, 800, -12, 114
1926, 800, 0, 114
1927, 800, -12, 146
1928, 800, 0, 146
1929, 800, -12, 178
1930, 800, 0, 178
1931, 800, -12, 210
1932, 800, 0, 210
1933, 800, 12, 50
1934, 800, 12, 82
1935, 800, 12, 114
1936, 800, 12, 146
1937, 800, 12, 178
1938, 800, 12, 210
1939, 800, -132, 210
1940, 800, -102, 210
1941, 800, -132, 220
1942, 800, -102, 220
1943, 800, -132, 230
1944, 800, -102, 230
1945, 800, -72, 210
1946, 800, -72, 220
1947, 800, -72, 230
1948, 800, -42, 210
1949, 800, -42, 220
1950, 800, -42, 230
1951, 800, -12, 220
1952, 800, -12, 230
1953, 800, 0, 220
1954, 800, 0, 230
1955, 800, 12, 220
1956, 800, 12, 230
1957, 800, 42, 210
1958, 800, 42, 220
1959, 800, 42, 230
1960, 800, 72, 210
1961, 800, 72, 220
1962, 800, 72, 230
1963, 800, 102, 210
1964, 800, 102, 220
1965, 800, 102, 230
1966, 800, 132, 210
1967, 800, 132, 220
1968, 800, 132, 230
1969, 820, -11.9, 51.25
1970, 820, 0, 51.25
1971, 820, -11.9, 83
1972, 820, 0, 83
1973, 820, -11.9, 114.75
1974, 820, 0, 114.75
1975, 820, -11.9, 146.5
1976, 820, 0, 146.5
1977, 820, -11.9, 178.25
1978, 820, 0, 178.25
1979, 820, -11.9, 210
1980, 820, 0, 210
1981, 820, 11.9, 51.25
1982, 820, 11.9, 83
1983, 820, 11.9, 114.75
1984, 820, 11.9, 146.5
1985, 820, 11.9, 178.25
1986, 820, 11.9, 210
1987, 820, -131.05, 210
1988, 820, -101.2625, 210
1989, 820, -131.05, 220
1990, 820, -101.2625, 220
1991, 820, -131.05, 230
1992, 820, -101.2625, 230
1993, 820, -71.475, 210
1994, 820, -71.475, 220
1995, 820, -71.475, 230
1996, 820, -41.6875, 210
1997, 820, -41.6875, 220
1998, 820, -41.6875, 230
1999, 820, -11.9, 220
2000, 820, -11.9, 230
2001, 820, 0, 220
2002, 820, 0, 230
2003, 820, 11.9, 220
2004, 820, 11.9, 230
2005, 820, 41.6875, 210
2006, 820, 41.6875, 220
2007, 820, 41.6875, 230
2008, 820, 71.475, 210
2009, 820, 71.475, 220
2010, 820, 71.475, 230
2011, 820, 101.2625, 210
2012, 820, 101.2625, 220
2013, 820, 101.2625, 230
2014, 820, 131.05, 210
2015, 820, 131.05, 220
2016, 820, 131.05, 230
2017, 840, -11.8, 52.5
2018, 840, 0, 52.5
2019, 840, -11.8, 84
2020, 840, 0, 84
2021, 840, -11.8, 115.5
2022, 840, 0, 115.5
2023, 840, -11.8, 147
2024, 840, 0, 147
2025, 840, -11.8, 178.5
2026, 840, 0, 178.5
2027, 840, -11.8, 210
2028, 840, 0, 210
2029, 840, 11.8, 52.5
2030, 840, 11.8, 84
2031, 840, 11.8, 115.5
2032, 840, 11.8, 147
2033, 840, 11.8, 178.5
2034, 840, 11.8, 210
2035, 840, -130.1, 210
2036, 840, -100.525, 210
2037, 840, -130.1, 220
2038, 840, -100.525, 220
2039, 840, -130.1, 230
2040, 840, -100.525, 230
2041, 840, -70.95, 210
2042, 840, -70.95, 220
2043, 840, -70.95, 230
2044, 840, -41.375, 210
2045, 840, -41.375, 220
2046, 840, -41.375, 230
2047, 840, -11.8, 220
2048, 840, -11.8, 230
2049, 840, 0, 220
2050, 840, 0, 230
2051, 840, 11.8, 220
2052, 840, 11.8, 230
2053, 840, 41.375, 210
2054, 840, 41.375, 220
2055, 840, 41.375, 230
2056, 840, 70.95, 210
2057, 840, 70.95, 220
2058, 840, 70.95, 230
2059, 840, 100.525, 210
2060, 840, 100.525, 220
2061, 840, 100.525, 230
2062, 840, 130.1, 210
2063, 840, 130.1, 220
2064, 840, 130.1, 230
2065, 860, -11.7, 53.75
2066, 860, 0, 53.75
2067, 860, -11.7, 85
2068, 860, 0, 85
2069, 860, -11.7, 116.25
2070, 860, 0, 116.25
2071, 860, -11.7, 147.5
2072, 860, 0, 147.5
2073, 860, -11.7, 178.75
2074, 860, 0, 178.75
2075, 860, -11.7, 210
2076, 860, 0, 210
2077, 860, 11.7, 53.75
2078, 860, 11.7, 85
2079, 860, 11.7, 116.25
2080, 860, 11.7, 147.5
2081, 860, 11.7, 178.75
2082, 860, 11.7, 210
2083, 860, -129.15, 210
2084, 860, -99.7875, 210
2085, 860, -129.15, 220
2086, 860, -99.7875, 220
2087, 860, -129.15, 230
2088, 860, -99.7875, 230
2089, 860, -70.425, 210
2090, 860, -70.425, 220
2091, 860, -70.425, 230
2092, 860, -41.0625, 210
2093, 860, -41.0625, 220
2094, 860, -41.0625, 230
2095, 860, -11.7, 220
2096, 860, -11.7, 230
2097, 860, 0, 220
2098, 860, 0, 230
2099, 860, 11.7, 220
2100, 860, 11.7, 230
2101, 860, 41.0625, 210
2102, 860, 41.0625, 220
2103, 860, 41.0625, 230
2104, 860, 70.425, 210
2105, 860, 70.425, 220
2106, 860, 70.425, 230
2107, 860, 99.7875, 210
2108, 860, 99.7875, 220
2109, 860, 99.7875, 230
2110, 860, 129.15, 210
2111, 860, 129.15, 220
2112, 860, 129.15, 230
2113, 880, -11.6, 55
2114, 880, 0, 55
2115, 880, -11.6, 86
2116, 880, 0, 86
2117, 880, -11.6, 117
2118, 880, 0, 117
2119, 880, -11.6, 148
2120, 880, 0, 148
2121, 880, -11.6, 179
2122, 880, 0, 179
2123, 880, -11.6, 210
2124, 880, 0, 210
2125, 880, 11.6, 55
2126, 880, 11.6, 86
2127, 880, 11.6, 117
2128, 880, 11.6, 148
2129, 880, 11.6, 179
2130, 880, 11.6, 210
2131, 880, -128.2, 210
2132, 880, -99.05, 210
2133, 880, -128.2, 220
2134, 880, -99.05, 220
2135, 880, -128.2, 230
2136, 880, -99.05, 230
2137, 880, -69.9, 210
2138, 880, -69.9, 220
2139, 880, -69.9, 230
2140, 880, -40.75, 210
2141, 880, -40.75, 220
2142, 880, -40.75, 230
2143, 880, -11.6, 220
2144, 880, -11.6, 230
2145, 880, 0, 220
2146, 880, 0, 230
2147, 880, 11.6, 220
2148, 880, 11.6, 230
2149, 880, 40.75, 210
2150, 880, 40.75, 220
2151, 880, 40.75, 230
2152, 880, 69.9, 210
2153, 880, 69.9, 220
2154, 880, 69.9, 230
2155, 880, 99.05, 210
2156, 880, 99.05, 220
2157, 880, 99.05, 230
2158, 880, 128.2, 210
2159, 880, 128.2, 220
2160, 880, 128.2, 230
2161, 900, -11.5, 56.25
2162, 900, 0, 56.25
2163, 900, -11.5, 87
2164, 900, 0, 87
2165, 900, -11.5, 117.75
2166, 900, 0, 117.75
2167, 900, -11.5, 148.5
2168, 900, 0, 148.5
2169, 900, -11.5, 179.25
2170, 900, 0, 179.25
2171, 900, -11.5, 210
2172, 900, 0, 210
2173, 900, 11.5, 56.25
2174, 900, 11.5, 87
2175, 900, 11.5, 117.75
2176, 900, 11.5, 148.5
2177, 900, 11.5, 179.25
2178, 900, 11.5, 210
2179, 900, -127.25, 210
2180, 900, -98.3125, 210
2181, 900, -127.25, 220
2182, 900, -98.3125, 220
2183, 900, -127.25, 230
2184, 900, -98.3125, 230
2185, 900, -69.375, 210
2186, 900, -69.375, 220
2187, 900, -69.375, 230
2188, 900, -40.4375, 210
2189, 900, -40.4375, 220
2190, 900, -40.4375, 230
2191, 900, -11.5, 220
2192, 900, -11.5, 230
2193, 900, 0, 220
2194, 900, 0, 230
2195, 900, 11.5, 220
2196, 900, 11.5, 230
2197, 900, 40.4375, 210
2198, 900, 40.4375, 220
2199, 900, 40.4375, 230
2200, 900, 69.375, 210
2201, 900, 69.375, 220
2202, 900, 69.375, 230
2203, 900, 98.3125, 210
2204, 900, 98.3125, 220
2205, 900, 98.3125, 230
2206, 900, 127.25, 210
2207, 900, 127.25, 220
2208, 900, 127.25, 230
2209, 920, -11.4, 57.5
2210, 920, 0, 57.5
2211, 920, -11.4, 88
2212, 920, 0, 88
2213, 920, -11.4, 118.5
2214, 920, 0, 118.5
2215, 920, -11.4, 149
2216, 920, 0, 149
2217, 920, -11.4, 179.5
2218, 920, 0, 179.5
2219, 920, -11.4, 210
2220, 920, 0, 210
2221, 920, 11.4, 57.5
2222, 920, 11.4, 88
2223, 920, 11.4, 118.5
2224, 920, 11.4, 149
2225, 920, 11.4, 179.5
2226, 920, 11.4, 210
2227, 920, -126.3, 210
2228, 920, -97.575, 210
2229, 920, -126.3, 220
2230, 920, -97.575, 220
2231, 920, -126.3, 230
2232, 920, -97.575, 230
2233, 920, -68.85, 210
2234, 920, -68.85, 220
2235, 920, -68.85, 230
2236, 920, -40.125, 210
2237, 920, -40.125, 220
2238, 920, -40.125, 230
2239, 920, -11.4, 220
2240, 920, -11.4, 230
2241, 920, 0, 220
2242, 920, 0, 230
2243, 920, 11.4, 220
2244, 920, 11.4, 230
2245, 920, 40.125, 210
2246, 920, 40.125, 220
2247, 920, 40.125, 230
2248, 920, 68.85, 210
2249, 920, 68.85, 220
2250, 920, 68.85, 230
2251, 920, 97.575, 210
2252, 920, 97.575, 220
2253, 920, 97.575, 230
2254, 920, 126.3, 210
2255, 920, 126.3, 220
2256, 920, 126.3, 230
2257, 940, -11.3, 58.75
2258, 940, 0, 58.75
2259, 940, -11.3, 89
2260, 940, 0, 89
2261, 940, -11.3, 119.25
2262, 940, 0, 119.25
2263, 940, -11.3, 149.5
2264, 940, 0, 149.5
2265, 940, -11.3, 179.75
2266, 940, 0, 179.75
2267, 940, -11.3, 210
2268, 940, 0, 210
2269, 940, 11.3, 58.75
2270, 940, 11.3, 89
2271, 940, 11.3, 119.25
2272, 940, 11.3, 149.5
2273, 940, 11.3, 179.75
2274, 940, 11.3, 210
2275, 940, -125.35, 210
2276, 940, -96.8375, 210
2277, 940, -125.35, 220
2278, 940, -96.8375, 220
2279, 940, -125.35, 230
2280, 940, -96.8375, 230
2281, 940, -68.325, 210
2282, 940, -68.325, 220
2283, 940, -68.325, 230
2284, 940, -39.8125, 210
2285, 940, -39.8125, 220
2286, 940, -39.8125, 230
2287, 940, -11.3, 220
2288, 940, -11.3, 230
2289, 940, 0, 220
2290, 940, 0, 230
2291, 940, 11.3, 220
2292, 940, 11.3, 230
2293, 940, 39.8125, 210
2294, 940, 39.8125, 220
2295, 940, 39.8125, 230
2296, 940, 68.325, 210
2297, 940, 68.325, 220
2298, 940, 68.325, 230
2299, 940, 96.8375, 210
2300, 940, 96.8375, 220
2301, 940, 96.8375, 230
2302, 940, 125.35, 210
2303, 940, 125.35, 220
2304, 940, 125.35, 230
2305, 960, -11.2, 60
2306, 960, 0, 60
2307, 960, -11.2, 90
2308, 960, 0, 90
2309, 960, -11.2, 120
2310, 960, 0, 120
2311, 960, -11.2, 150
2312, 960, 0, 150
2313, 960, -11.2, 180
2314, 960, 0, 180
2315, 960, -11.2, 210
2316, 960, 0, 210
2317, 960, 11.2, 60
2318, 960, 11.2, 90
2319, 960, 11.2, 120
2320, 960, 11.2, 150
2321, 960, 11.2, 180
2322, 960, 11.2, 210
2323, 960, -124.4, 210
2324, 960, -96.1, 210
2325, 960, -124.4, 220
2326, 960, -96.1, 220
2327, 960, -124.4, 230
2328, 960, -96.1, 230
2329, 960, -67.8, 210
2330, 960, -67.8, 220
2331, 960, -67.8, 230
2332, 960, -39.5, 210
2333, 960, -39.5, 220
2334, 960, -39.5, 230
2335, 960, -11.2, 220
2336, 960, -11.2, 230
2337, 960, 0, 220
2338, 960, 0, 230
2339, 960, 11.2, 220
2340, 960, 11.2, 230
2341, 960, 39.5, 210
2342, 960, 39.5, 220
2343, 960, 39.5, 230
2344, 960, 67.8, 210
2345, 960, 67.8, 220
2346, 960, 67.8, 230
2347, 960, 96.1, 210
2348, 960, 96.1, 220
2349, 960, 96.1, 230
2350, 960, 124.4, 210
2351, 960, 124.4, 220
2352, 960, 124.4, 230
2353, 980, -11.1, 61.25
2354, 980, 0, 61.25
2355, 980, -11.1, 91
2356, 980, 0, 91
2357, 980, -11.1, 120.75
2358, 980, 0, 120.75
2359, 980, -11.1, 150.5
2360, 980, 0, 150.5
2361, 980, -11.1, 180.25
2362, 980, 0, 180.25
2363, 980, -11.1, 210
2364, 980, 0, 210
2365, 980, 11.1, 61.25
2366, 980, 11.1, 91
2367, 980, 11.1, 120.75
2368, 980, 11.1, 150.5
2369, 980, 11.1, 180.25
2370, 980, 11.1, 210
2371, 980, -123.45, 210
2372, 980, -95.3625, 210
2373, 980, -123.45, 220
2374, 980, -95.3625, 220
2375, 980, -123.45, 230
2376, 980, -95.3625, 230
2377, 980, -67.275, 210
2378, 980, -67.275, 220
2379, 980, -67.275, 230
2380, 980, -39.1875, 210
2381, 980, -39.1875, 220
2382, 980, -39.1875, 230
2383, 980, -11.1, 220
2384, 980, -11.1, 230
2385, 980, 0, 220
2386, 980, 0, 230
2387, 980, 11.1, 220
2388, 980, 11.1, 230
2389, 980, 39.1875, 210
2390, 980, 39.1875, 220
2391, 980, 39.1875, 230
2392, 980, 67.275, 210
2393, 980, 67.275, 220
2394, 980, 67.275, 230
2395, 980, 95.3625, 210
2396, 980, 95.3625, 220
2397, 980, 95.3625, 230
2398, 980, 123.45, 210
2399, 980, 123.45, 220
2400, 980, 123.45, 230
2401, 1000, -11, 62.5
2402, 1000, 0, 62.5
2403, 1000, -11, 92
2404, 1000, 0, 92
2405, 1000, -11, 121.5
2406, 1000, 0, 121.5
2407, 1000, -11, 151
2408, 1000, 0, 151
2409, 1000, -11, 180.5
2410, 1000, 0, 180.5
2411, 1000, -11, 210
2412, 1000, 0, 210
2413, 1000, 11, 62.5
2414, 1000, 11, 92
2415, 1000, 11, 121.5
2416, 1000, 11, 151
2417, 1000, 11, 180.5
2418, 1000, 11, 210
2419, 1000, -122.5, 210
2420, 1000, -94.625, 210
2421, 1000, -122.5, 220
2422, 1000, -94.625, 220
2423, 1000, -122.5, 230
2424, 1000, -94.625, 230
2425, 1000, -66.75, 210
2426, 1000, -66.75, 220
2427, 1000, -66.75, 230
2428, 1000, -38.875, 210
2429, 1000, -38.875, 220
2430, 1000, -38.875, 230
2431, 1000, -11, 220
2432, 1000, -11, 230
2433, 1000, 0, 220
2434, 1000, 0, 230
2435, 1000, 11, 220
2436, 1000, 11, 230
2437, 1000, 38.875, 210
2438, 1000, 38.875, 220
2439, 1000, 38.875, 230
2440, 1000, 66.75, 210
2441, 1000, 66.75, 220
2442, 1000, 66.75, 230
2443, 1000, 94.625, 210
2444, 1000, 94.625, 220
2445, 1000, 94.625, 230
2446, 1000, 122.5, 210
2447, 1000, 122.5, 220
2448, 1000, 122.5, 230
2449, 1020, -10.9, 63.75
2450, 1020, 0, 63.75
2451, 1020, -10.9, 93
2452, 1020, 0, 93
2453, 1020, -10.9, 122.25
2454, 1020, 0, 122.25
2455, 1020, -10.9, 151.5
2456, 1020, 0, 151.5
2457, 1020, -10.9, 180.75
2458, 1020, 0, 180.75
2459, 1020, -10.9, 210
2460, 1020, 0, 210
2461, 1020, 10.9, 63.75
2462, 1020, 10.9, 93
2463, 1020, 10.9, 122.25
2464, 1020, 10.9, 151.5
2465, 1020, 10.9, 180.75
2466, 1020, 10.9, 210
2467, 1020, -121.55, 210
2468, 1020, -93.8875, 210
2469, 1020, -121.55, 220
2470, 1020, -93.8875, 220
2471, 1020, -121.55, 230
2472, 1020, -93.8875, 230
2473, 1020, -66.225, 210
2474, 1020, -66.225, 220
2475, 1020, -66.225, 230
2476, 1020, -38.5625, 210
2477, 1020, -38.5625, 220
2478, 1020, -38.5625, 230
2479, 1020, -10.9, 220
2480, 1020, -10.9, 230
2481, 1020, 0, 220
2482, 1020, 0, 230
2483, 1020, 10.9, 220
2484, 1020, 10.9, 230
2485, 1020, 38.5625, 210
2486, 1020, 38.5625, 220
2487, 1020, 38.5625, 230
2488, 1020, 66.225, 210
2489, 1020, 66.225, 220
2490, 1020, 66.225, 230
2491, 1020, 93.8875, 210
2492, 1020, 93.8875, 220
2493, 1020, 93.8875, 230
2494, 1020, 121.55, 210
2495, 1020, 121.55, 220
2496, 1020, 121.55, 230
2497, 1040, -10.8, 65
2498, 1040, 0, 65
2499, 1040, -10.8, 94
2500, 1040, 0, 94
2501, 1040, -10.8, 123
2502, 1040, 0, 123
2503, 1040, -10.8, 152
2504, 1040, 0, 152
2505, 1040, -10.8, 181
2506, 1040, 0, 181
2507, 1040, -10.8, 210
2508, 1040, 0, 210
2509, 1040, 10.8, 65
2510, 1040, 10.8, 94
2511, 1040, 10.8, 123
2512, 1040, 10.8, 152
2513, 1040, 10.8, 181
2514, 1040, 10.8, 210
2515, 1040, -120.6, 210
2516, 1040, -93.15, 210
2517, 1040, -120.6, 220
2518, 1040, -93.15, 220
2519, 1040, -120.6, 230
2520, 1040, -93.15, 230
2521, 1040, -65.7, 210
2522, 1040, -65.7, 220
2523, 1040, -65.7, 230
2524, 1040, -38.25, 210
2525, 1040, -38.25, 220
2526, 1040, -38.25, 230
2527, 1040, -10.8, 220
2528, 1040, -10.8, 230
2529, 1040, 0, 220
2530, 1040, 0, 230
2531, 1040, 10.8, 220
2532, 1040, 10.8, 230
2533, 1040, 38.25, 210
2534, 1040, 38.25, 220
2535, 1040, 38.25, 230
2536, 1040, 65.7, 210
2537, 1040, 65.7, 220
2538, 1040, 65.7, 230
2539, 1040, 93.15, 210
2540, 1040, 93.15, 220
2541, 1040, 93.15, 230
2542, 1040, 120.6, 210
2543, 1040, 120.6, 220
2544, 1040, 120.6, 230
2545, 1060, -10.7, 66.25
2546, 1060, 0, 66.25
2547, 1060, -10.7, 95
2548, 1060, 0, 95
2549, 1060, -10.7, 123.75
2550, 1060, 0, 123.75
2551, 1060, -10.7, 152.5
2552, 1060, 0, 152.5
2553, 1060, -10.7, 181.25
2554, 1060, 0, 181.25
2555, 1060, -10.7, 210
2556, 1060, 0, 210
2557, 1060, 10.7, 66.25
2558, 1060, 10.7, 95
2559, 1060, 10.7, 123.75
2560, 1060, 10.7, 152.5
2561, 1060, 10.7, 181.25
2562, 1060, 10.7, 210
2563, 1060, -119.65, 210
2564, 1060, -92.4125, 210
2565, 1060, -119.65, 220
2566, 1060, -92.4125, 220
2567, 1060, -119.65, 230
2568, 1060, -92.4125, 230
2569, 1060, -65.175, 210
2570, 1060, -65.175, 220
2571, 1060, -65.175, 230
2572, 1060, -37.9375, 210
2573, 1060, -37.9375, 220
2574, 1060, -37.9375, 230
2575, 1060, -10.7, 220
2576, 1060, -10.7, 230
2577, 1060, 0, 220
2578, 1060, 0, 230
2579, 1060, 10.7, 220
2580, 1060, 10.7, 230
2581, 1060, 37.9375, 210
2582, 1060, 37.9375, 220
2583, 1060, 37.9375, 230
2584, 1060, 65.175, 210
2585, 1060, 65.175, 220
2586, 1060, 65.175, 230
2587, 1060, 92.4125, 210
2588, 1060, 92.4125, 220
2589, 1060, 92.4125, 230
2590, 1060, 119.65, 210
2591, 1060, 119.65, 220
2592, 1060, 119.65, 230
2593, 1080, -10.6, 67.5
2594, 1080, 0, 67.5
2595, 1080, -10.6, 96
2596, 1080, 0, 96
2597, 1080, -10.6, 124.5
2598, 1080, 0, 124.5
2599, 1080, -10.6, 153
2600, 1080, 0, 153
2601, 1080, -10.6, 181.5
2602, 1080, 0, 181.5
2603, 1080, -10.6, 210
2604, 1080, 0, 210
2605, 1080, 10.6, 67.5
2606, 1080, 10.6, 96
2607, 1080, 10.6, 124.5
2608, 1080, 10.6, 153
2609, 1080, 10.6, 181.5
2610, 1080, 10.6, 210
2611, 1080, -118.7, 210
2612, 1080, -91.675, 210
2613, 1080, -118.7, 220
2614, 1080, -91.675, 220
2615, 1080, -118.7, 230
2616, 1080, -91.675, 230
2617, 1080, -64.65, 210
2618, 1080, -64.65, 220
2619, 1080, -64.65, 230
2620, 1080, -37.625, 210
2621, 1080, -37.625, 220
2622, 1080, -37.625, 230
2623, 1080, -10.6, 220
2624, 1080, -10.6, 230
2625, 1080, 0, 220
2626, 1080, 0, 230
2627, 1080, 10.6, 220
2628, 1080, 10.6, 230
2629, 1080, 37.625, 210
2630, 1080, 37.625, 220
2631, 1080, 37.625, 230
2632, 1080, 64.65, 210
2633, 1080, 64.65, 220
2634, 1080, 64.65, 230
2635, 1080, 91.675, 210
2636, 1080, 91.675, 220
2637, 1080, 91.675, 230
2638, 1080, 118.7, 210
2639, 1080, 118.7, 220
2640, 1080, 118.7, 230
2641, 1100, -10.5, 68.75
2642, 1100, 0, 68.75
2643, 1100, -10.5, 97
2644, 1100, 0, 97
2645, 1100, -10.5, 125.25
2646, 1100, 0, 125.25
2647, 1100, -10.5, 153.5
2648, 1100, 0, 153.5
2649, 1100, -10.5, 181.75
2650, 1100, 0, 181.75
2651, 1100, -10.5, 210
2652, 1100, 0, 210
2653, 1100, 10.5, 68.75
2654, 1100, 10.5, 97
2655, 1100, 10.5, 125.25
2656, 1100, 10.5, 153.5
2657, 1100, 10.5, 181.75
2658, 1100, 10.5, 210
2659, 1100, -117.75, 210
2660, 1100, -90.9375, 210
2661, 1100, -117.75, 220
2662, 1100, -90.9375, 220
2663, 1100, -117.75, 230
2664, 1100, -90.9375, 230
2665, 1100, -64.125, 210
2666, 1100, -64.125, 220
2667, 1100, -64.125, 230
2668, 1100, -37.3125, 210
2669, 1100, -37.3125, 220
2670, 1100, -37.3125, 230
2671, 1100, -10.5, 220
2672, 1100, -10.5, 230
2673, 1100, 0, 220
2674, 1100, 0, 230
2675, 1100, 10.5, 220
2676, 1100, 10.5, 230
2677, 1100, 37.3125, 210
2678, 1100, 37.3125, 220
2679, 1100, 37.3125, 230
2680, 1100, 64.125, 210
2681, 1100, 64.125, 220
2682, 1100, 64.125, 230
2683, 1100, 90.9375, 210
2684, 1100, 90.9375, 220
2685, 1100, 90.9375, 230
2686, 1100, 117.75, 210
2687, 1100, 117.75, 220
2688, 1100, 117.75, 230
2689, 1120, -10.4, 70
2690, 1120, 0, 70
2691, 1120, -10.4, 98
2692, 1120, 0, 98
2693, 1120, -10.4, 126
2694, 1120, 0, 126
2695, 1120, -10.4, 154
2696, 1120, 0, 154
2697, 1120, -10.4, 182
2698, 1120, 0, 182
2699, 1120, -10.4, 210
2700, 1120, 0, 210
2701, 1120, 10.4, 70
2702, 1120, 10.4, 98
2703, 1120, 10.4, 126
2704, 1120, 10.4, 154
2705, 1120, 10.4, 182
2706, 1120, 10.4, 210
2707, 1120, -116.8, 210
2708, 1120, -90.2, 210
2709, 1120, -116.8, 220
2710, 1120, -90.2, 220
2711, 1120, -116.8, 230
2712, 1120, -90.2, 230
2713, 1120, -63.6, 210
2714, 1120, -63.6, 220
2715, 1120, -63.6, 230
2716, 1120, -37, 210
2717, 1120, -37, 220
2718, 1120, -37, 230
2719, 1120, -10.4, 220
2720, 1120, -10.4, 230
2721, 1120, 0, 220
2722, 1120, 0, 230
2723, 1120, 10.4, 220
2724, 1120, 10.4, 230
2725, 1120, 37, 210
2726, 1120, 37, 220
2727, 1120, 37, 230
2728, 1120, 63.6, 210
2729, 1120, 63.6, 220
2730, 1120, 63.6, 230
2731, 1120, 90.2, 210
2732, 1120, 90.2, 220
2733, 1120, 90.2, 230
2734, 1120, 116.8, 210
2735, 1120, 116.8, 220
2736, 1120, 116.8, 230
2737, 1140, -10.3, 71.25
2738, 1140, 0, 71.25
2739, 1140, -10.3, 99
2740, 1140, 0, 99
2741, 1140, -10.3, 126.75
2742, 1140, 0, 126.75
2743, 1140, -10.3, 154.5
2744, 1140, 0, 154.5
2745, 1140, -10.3, 182.25
2746, 1140, 0, 182.25
2747, 1140, -10.3, 210
2748, 1140, 0, 210
2749, 1140, 10.3, 71.25
2750, 1140, 10.3, 99
2751, 1140, 10.3, 126.75
2752, 1140, 10.3, 154.5
2753, 1140, 10.3, 182.25
2754, 1140, 10.3, 210
2755, 1140, -115.85, 210
2756, 1140, -89.4625, 210
2757, 1140, -115.85, 220
2758, 1140, -89.4625, 220
2759, 1140, -115.85, 230
2760, 1140, -89.4625, 230
2761, 1140, -63.075, 210
2762, 1140, -63.075, 220
2763, 1140, -63.075, 230
2764, 1140, -36.6875, 210
2765, 1140, -36.6875, 220
2766, 1140, -36.6875, 230
2767, 1140, -10.3, 220
2768, 1140, -10.3, 230
2769, 1140, 0, 220
2770, 1140, 0, 230
2771, 1140, 10.3, 220
2772, 1140, 10.3, 230
2773, 1140, 36.6875, 210
2774, 1140, 36.6875, 220
2775, 1140, 36.6875, 230
2776, 1140, 63.075, 210
2777, 1140, 63.075, 220
2778, 1140, 63.075, 230
2779, 1140, 89.4625, 210
2780, 1140, 89.4625, 220
2781, 1140, 89.4625, 230
2782, 1140, 115.85, 210
2783, 1140, 115.85, 220
2784, 1140, 115.85, 230
2785, 1160, -10.2, 72.5
2786, 1160, 0, 72.5
2787, 1160, -10.2, 100
2788, 1160, 0, 100
2789, 1160, -10.2, 127.5
2790, 1160, 0, 127.5
2791, 1160, -10.2, 155
2792, 1160, 0, 155
2793, 1160, -10.2, 182.5
2794, 1160, 0, 182.5
2795, 1160, -10.2, 210
2796, 1160, 0, 210
2797, 1160, 10.2, 72.5
2798, 1160, 10.2, 100
2799, 1160, 10.2, 127.5
2800, 1160, 10.2, 155
2801, 1160, 10.2, 182.5
2802, 1160, 10.2, 210
2803, 1160, -114.9, 210
2804, 1160, -88.725, 210
2805, 1160, -114.9, 220
2806, 1160, -88.725, 220
2807, 1160, -114.9, 230
2808, 1160, -88.725, 230
2809, 1160, -62.55, 210
2810, 1160, -62.55, 220
2811, 1160, -62.55, 230
2812, 1160, -36.375, 210
2813, 1160, -36.375, 220
2814, 1160, -36.375, 230
2815, 1160, -10.2, 220
2816, 1160, -10.2, 230
2817, 1160, 0, 220
2818, 1160, 0, 230
2819, 1160, 10.2, 220
2820, 1160, 10.2, 230
2821, 1160, 36.375, 210
2822, 1160, 36.375, 220
2823, 1160, 36.375, 230
2824, 1160, 62.55, 210
2825, 1160, 62.55, 220
2826, 1160, 62.55, 230
2827, 1160, 88.725, 210
2828, 1160, 88.725, 220
2829, 1160, 88.725, 230
2830, 1160, 114.9, 210
2831, 1160, 114.9, 220
2832, 1160, 114.9, 230
2833, 1180, -10.1, 73.75
2834, 1180, 0, 73.75
2835, 1180, -10.1, 101
2836, 1180, 0, 101
2837, 1180, -10.1, 128.25
2838, 1180, 0, 128.25
2839, 1180, -10.1, 155.5
2840, 1180, 0, 155.5
2841, 1180, -10.1, 182.75
2842, 1180, 0, 182.75
2843, 1180, -10.1, 210
2844, 1180, 0, 210
2845, 1180, 10.1, 73.75
2846, 1180, 10.1, 101
2847, 1180, 10.1, 128.25
2848, 1180, 10.1, 155.5
2849, 1180, 10.1, 182.75
2850, 1180, 10.1, 210
2851, 1180, -113.95, 210
2852, 1180, -87.9875, 210
2853, 1180, -113.95, 220
2854, 1180, -87.9875, 220
2855, 1180, -113.95, 230
2856, 1180, -87.9875, 230
2857, 1180, -62.025, 210
2858, 1180, -62.025, 220
2859, 1180, -62.025, 230
2860, 1180, -36.0625, 210
2861, 1180, -36.0625, 220
2862, 1180, -36.0625, 230
2863, 1180, -10.1, 220
2864, 1180, -10.1, 230
2865, 1180, 0, 220
2866, 1180, 0, 230
2867, 1180, 10.1, 220
2868, 1180, 10.1, 230
2869, 1180, 36.0625, 210
2870, 1180, 36.0625, 220
2871, 1180, 36.0625, 230
2872, 1180, 62.025, 210
2873, 1180, 62.025, 220
2874, 1180, 62.025, 230
2875, 1180, 87.9875, 210
2876, 1180, 87.9875, 220
2877, 1180, 87.9875, 230
2878, 1180, 113.95, 210
2879, 1180, 113.95, 220
2880, 1180, 113.95, 230
2881, 1200, -10, 75
2882, 1200, 0, 75
2883, 1200, -10, 102
2884, 1200, 0, 102
2885, 1200, -10, 129
2886, 1200, 0, 129
2887, 1200, -10, 156
2888, 1200, 0, 156
2889, 1200, -10, 183
2890, 1200, 0, 183
2891, 1200, -10, 210
2892, 1200, 0, 210
2893, 1200, 10, 75
2894, 1200, 10, 102
2895, 1200, 10, 129
2896, 1200, 10, 156
2897, 1200, 10, 183
2898, 1200, 10, 210
2899, 1200, -113, 210
2900, 1200, -87.25, 210
2901, 1200, -113, 220
2902, 1200, -87.25, 220
2903, 1200, -113, 230
2904, 1200, -87.25, 230
2905, 1200, -61.5, 210
2906, 1200, -61.5, 220
2907, 1200, -61.5, 230
2908, 1200, -35.75, 210
2909, 1200, -35.75, 220
2910, 1200, -35.75, 230
2911, 1200, -10, 220
2912, 1200, -10, 230
2913, 1200, 0, 220
2914, 1200, 0, 230
2915, 1200, 10, 220
2916, 1200, 10, 230
2917, 1200, 35.75, 210
2918, 1200, 35.75, 220
2919, 1200, 35.75, 230
2920, 1200, 61.5, 210
2921, 1200, 61.5, 220
2922, 1200, 61.5, 230
2923, 1200, 87.25, 210
2924, 1200, 87.25, 220
2925, 1200, 87.25, 230
2926, 1200, 113, 210
2927, 1200, 113, 220
2928, 1200, 113, 230
2929, 1220, -9.9, 76.25
2930, 1220, 0, 76.25
2931, 1220, -9.9, 103
2932, 1220, 0, 103
2933, 1220, -9.9, 129.75
2934, 1220, 0, 129.75
2935, 1220, -9.9, 156.5
2936, 1220, 0, 156.5
2937, 1220, -9.9, 183.25
2938, 1220, 0, 183.25
2939, 1220, -9.9, 210
2940, 1220, 0, 210
2941, 1220, 9.9, 76.25
2942, 1220, 9.9, 103
2943, 1220, 9.9, 129.75
2944, 1220, 9.9, 156.5
2945, 1220, 9.9, 183.25
2946, 1220, 9.9, 210
2947, 1220, -112.05, 210
2948, 1220, -86.5125, 210
2949, 1220, -112.05, 220
2950, 1220, -86.5125, 220
2951, 1220, -112.05, 230
2952, 1220, -86.5125, 230
2953, 1220, -60.975, 210
2954, 1220, -60.975, 220
2955, 1220, -60.975, 230
2956, 1220, -35.4375, 210
2957, 1220, -35.4375, 220
2958, 1220, -35.4375, 230
2959, 1220, -9.9, 220
2960, 1220, -9.9, 230
2961, 1220, 0, 220
2962, 1220, 0, 230
2963, 1220, 9.9, 220
2964, 1220, 9.9, 230
2965, 1220, 35.4375, 210
2966, 1220, 35.4375, 220
2967, 1220, 35.4375, 230
2968, 1220, 60.975, 210
2969, 1220, 60.975, 220
2970, 1220, 60.975, 230
2971, 1220, 86.5125, 210
2972, 1220, 86.5125, 220
2973, 1220, 86.5125, 230
2974, 1220, 112.05, 210
2975, 1220, 112.05, 220
2976, 1220, 112.05, 230
2977, 1240, -9.8, 77.5
2978, 1240, 0, 77.5
2979, 1240, -9.8, 104
2980, 1240, 0, 104
2981, 1240, -9.8, 130.5
2982, 1240, 0, 130.5
2983, 1240, -9.8, 157
2984, 1240, 0, 157
2985, 1240, -9.8, 183.5
2986, 1240, 0, 183.5
2987, 1240, -9.8, 210
2988, 1240, 0, 210
2989, 1240, 9.8, 77.5
2990, 1240, 9.8, 104
2991, 1240, 9.8, 130.5
2992, 1240, 9.8, 157
2993, 1240, 9.8, 183.5
2994, 1240, 9.8, 210
2995, 1240, -111.1, 210
2996, 1240, -85.775, 210
2997, 1240, -111.1, 220
2998, 1240, -85.775, 220
2999, 1240, -111.1, 230
3000, 1240, -85.775, 230
3001, 1240, -60.45, 210
3002, 1240, -60.45, 220
3003, 1240, -60.45, 230
3004, 1240, -35.125, 210
3005, 1240, -35.125, 220
3006, 1240, -35.125, 230
3007, 1240, -9.8, 220
3008, 1240, -9.8, 230
3009, 1240, 0, 220
3010, 1240, 0, 230
3011, 1240, 9.8, 220
3012, 1240, 9.8, 230
3013, 1240, 35.125, 210
3014, 1240, 35.125, 220
3015, 1240, 35.125, 230
3016, 1240, 60.45, 210
3017, 1240, 60.45, 220
3018, 1240, 60.45, 230
3019, 1240, 85.775, 210
3020, 1240, 85.775, 220
3021, 1240, 85.775, 230
3022, 1240, 111.1, 210
3023, 1240, 111.1, 220
3024, 1240, 111.1, 230
3025, 1260, -9.7, 78.75
3026, 1260, 0, 78.75
3027, 1260, -9.7, 105
3028, 1260, 0, 105
3029, 1260, -9.7, 131.25
3030, 1260, 0, 131.25
3031, 1260, -9.7, 157.5
3032, 1260, 0, 157.5
3033, 1260, -9.7, 183.75
3034, 1260, 0, 183.75
3035, 1260, -9.7, 210
3036, 1260, 0, 210
3037, 1260, 9.7, 78.75
3038, 1260, 9.7, 105
3039, 1260, 9.7, 131.25
3040, 1260, 9.7, 157.5
3041, 1260, 9.7, 183.75
3042, 1260, 9.7, 210
3043, 1260, -110.15, 210
3044, 1260, -85.0375, 210
3045, 1260, -110.15, 220
3046, 1260, -85.0375, 220
3047, 1260, -110.15, 230
3048, 1260, -85.0375, 230
3049, 1260, -59.925, 210
3050, 1260, -59.925, 220
3051, 1260, -59.925, 230
3052, 1260, -34.8125, 210
3053, 1260, -34.8125, 220
3054, 1260, -34.8125, 230
3055, 1260, -9.7, 220
3056, 1260, -9.7, 230
3057, 1260, 0, 220
3058, 1260, 0, 230
3059, 1260, 9.7, 220
3060, 1260, 9.7, 230
3061, 1260, 34.8125, 210
3062, 1260, 34.8125, 220
3063, 1260, 34.8125, 230
3064, 1260, 59.925, 210
3065, 1260, 59.925, 220
3066, 1260, 59.925, 230
3067, 1260, 85.0375, 210
3068, 1260, 85.0375, 220
3069, 1260, 85.0375, 230
3070, 1260, 110.15, 210
3071, 1260, 110.15, 220
3072, 1260, 110.15, 230
3073, 1280, -9.6, 80
3074, 1280, 0, 80
3075, 1280, -9.6, 106
3076, 1280, 0, 106
3077, 1280, -9.6, 132
3078, 1280, 0, 132
3079, 1280, -9.6, 158
3080, 1280, 0, 158
3081, 1280, -9.6, 184
3082, 1280, 0, 184
3083, 1280, -9.6, 210
3084, 1280, 0, 210
3085, 1280, 9.6, 80
3086, 1280, 9.6, 106
3087, 1280, 9.6, 132
3088, 1280, 9.6, 158
3089, 1280, 9.6, 184
3090, 1280, 9.6, 210
3091, 1280, -109.2, 210
3092, 1280, -84.3, 210
3093, 1280, -109.2, 220
3094, 1280, -84.3, 220
3095, 1280, -109.2, 230
3096, 1280, -84.3, 230
3097, 1280, -59.4, 210
3098, 1280, -59.4, 220
3099, 1280, -59.4, 230
3100, 1280, -34.5, 210
3101, 1280, -34.5, 220
3102, 1280, -34.5, 230
3103, 1280, -9.6, 220
3104, 1280, -9.6, 230
3105, 1280, 0, 220
3106, 1280, 0, 230
3107, 1280, 9.6, 220
3108, 1280, 9.6, 230
3109, 1280, 34.5, 210
3110, 1280, 34.5, 220
3111, 1280, 34.5, 230
3112, 1280, 59.4, 210
3113, 1280, 59.4, 220
3114, 1280, 59.4, 230
3115, 1280, 84.3, 210
3116, 1280, 84.3, 220
3117, 1280, 84.3, 230
3118, 1280, 109.2, 210
3119, 1280, 109.2, 220
3120, 1280, 109.2, 230
3121, 1300, -9.5, 81.25
3122, 1300, 0, 81.25
3123, 1300, -9.5, 107
3124, 1300, 0, 107
3125, 1300, -9.5, 132.75
3126, 1300, 0, 132.75
3127, 1300, -9.5, 158.5
3128, 1300, 0, 158.5
3129, 1300, -9.5, 184.25
3130, 1300, 0, 184.25
3131, 1300, -9.5, 210
3132, 1300, 0, 210
3133, 1300, 9.5, 81.25
3134, 1300, 9.5, 107
3135, 1300, 9.5, 132.75
3136, 1300, 9.5, 158.5
3137, 1300, 9.5, 184.25
3138, 1300, 9.5, 210
3139, 1300, -108.25, 210
3140, 1300, -83.5625, 210
3141, 1300, -108.25, 220
3142, 1300, -83.5625, 220
3143, 1300, -108.25, 230
3144, 1300, -83.5625, 230
3145, 1300, -58.875, 210
3146, 1300, -58.875, 220
3147, 1300, -58.875, 230
3148, 1300, -34.1875, 210
3149, 1300, -34.1875, 220
3150, 1300, -34.1875, 230
3151, 1300, -9.5, 220
3152, 1300, -9.5, 230
3153, 1300, 0, 220
3154, 1300, 0, 230
3155, 1300, 9.5, 220
3156, 1300, 9.5, 230
3157, 1300, 34.1875, 210
3158, 1300, 34.1875, 220
3159, 1300, 34.1875, 230
3160, 1300, 58.875, 210
3161, 1300, 58.875, 220
3162, 1300, 58.875, 230
3163, 1300, 83.5625, 210
3164, 1300, 83.5625, 220
3165, 1300, 83.5625, 230
3166, 1300, 108.25, 210
3167, 1300, 108.25, 220
3168, 1300, 108.25, 230
3169, 1320, -9.4, 82.5
3170, 1320, 0, 82.5
3171, 1320, -9.4, 108
3172, 1320, 0, 108
3173, 1320, -9.4, 133.5
3174, 1320, 0, 133.5
3175, 1320, -9.4, 159
3176, 1320, 0, 159
3177, 1320, -9.4, 184.5
3178, 1320, 0, 184.5
3179, 1320, -9.4, 210
3180, 1320, 0, 210
3181, 1320, 9.4, 82.5
3182, 1320, 9.4, 108
3183, 1320, 9.4, 133.5
3184, 1320, 9.4, 159
3185, 1320, 9.4, 184.5
3186, 1320, 9.4, 210
3187, 1320, -107.3, 210
3188, 1320, -82.825, 210
3189, 1320, -107.3, 220
3190, 1320, -82.825, 220
3191, 1320, -107.3, 230
3192, 1320, -82.825, 230
3193, 1320, -58.35, 210
3194, 1320, -58.35, 220
3195, 1320, -58.35, 230
3196, 1320, -33.875, 210
3197, 1320, -33.875, 220
3198, 1320, -33.875, 230
3199, 1320, -9.4, 220
3200, 1320, -9.4, 230
3201, 1320, 0, 220
3202, 1320, 0, 230
3203, 1320, 9.4, 220
3204, 1320, 9.4, 230
3205, 1320, 33.875, 210
3206, 1320, 33.875, 220
3207, 1320, 33.875, 230
3208, 1320, 58.35, 210
3209, 1320, 58.35, 220
3210, 1320, 58.35, 230
3211, 1320, 82.825, 210
3212, 1320, 82.825, 220
3213, 1320, 82.825, 230
3214, 1320, 107.3, 210
3215, 1320, 107.3, 220
3216, 1320, 107.3, 230
3217, 1340, -9.3, 83.75
3218, 1340, 0, 83.75
3219, 1340, -9.3, 109
3220, 1340, 0, 109
3221, 1340, -9.3, 134.25
3222, 1340, 0, 134.25
3223, 1340, -9.3, 159.5
3224, 1340, 0, 159.5
3225, 1340, -9.3, 184.75
3226, 1340, 0, 184.75
3227, 1340, -9.3, 210
3228, 1340, 0, 210
3229, 1340, 9.3, 83.75
3230, 1340, 9.3, 109
3231, 1340, 9.3, 134.25
3232, 1340, 9.3, 159.5
3233, 1340, 9.3, 184.75
3234, 1340, 9.3, 210
3235, 1340, -106.35, 210
3236, 1340, -82.0875, 210
3237, 1340, -106.35, 220
3238, 1340, -82.0875, 220
3239, 1340, -106.35, 230
3240, 1340, -82.0875, 230
3241, 1340, -57.825, 210
3242, 1340, -57.825, 220
3243, 1340, -57.825, 230
3244, 1340, -33.5625, 210
3245, 1340, -33.5625, 220
3246, 1340, -33.5625, 230
3247, 1340, -9.3, 220
3248, 1340, -9.3, 230
3249, 1340, 0, 220
3250, 1340, 0, 230
3251, 1340, 9.3, 220
3252, 1340, 9.3, 230
3253, 1340, 33.5625, 210
3254, 1340, 33.5625, 220
3255, 1340, 33.5625, 230
3256, 1340, 57.825, 210
3257, 1340, 57.825, 220
3258, 1340, 57.825, 230
3259, 1340, 82.0875, 210
3260, 1340, 82.0875, 220
3261, 1340, 82.0875, 230
3262, 1340, 106.35, 210
3263, 1340, 106.35, 220
3264, 1340, 106.35, 230
3265, 1360, -9.2, 85
3266, 1360, 0, 85
3267, 1360, -9.2, 110
3268, 1360, 0, 110
3269, 1360, -9.2, 135
3270, 1360, 0, 135
3271, 1360, -9.2, 160
3272, 1360, 0, 160
3273, 1360, -9.2, 185
3274, 1360, 0, 185
3275, 1360, -9.2, 210
3276, 1360, 0, 210
3277, 1360, 9.2, 85
3278, 1360, 9.2, 110
3279, 1360, 9.2, 135
3280, 1360, 9.2, 160
3281, 1360, 9.2, 185
3282, 1360, 9.2, 210
3283, 1360, -105.4, 210
3284, 1360, -81.35, 210
3285, 1360, -105.4, 220
3286, 1360, -81.35, 220
3287, 1360, -105.4, 230
3288, 1360, -81.35, 230
3289, 1360, -57.3, 210
3290, 1360, -57.3, 220
3291, 1360, -57.3, 230
3292, 1360, -33.25, 210
3293, 1360, -33.25, 220
3294, 1360, -33.25, 230
3295, 1360, -9.2, 220
3296, 1360, -9.2, 230
3297, 1360, 0, 220
3298, 1360, 0, 230
3299, 1360, 9.2, 220
3300, 1360, 9.2, 230
3301, 1360, 33.25, 210
3302, 1360, 33.25, 220
3303, 1360, 33.25, 230
3304, 1360, 57.3, 210
3305, 1360, 57.3, 220
3306, 1360, 57.3, 230
3307, 1360, 81.35, 210
3308, 1360, 81.35, 220
3309, 1360, 81.35, 230
3310, 1360, 105.4, 210
3311, 1360, 105.4, 220
3312, 1360, 105.4, 230
3313, 1380, -9.1, 86.25
3314, 1380, 0, 86.25
3315, 1380, -9.1, 111
3316, 1380, 0, 111
3317, 1380, -9.1, 135.75
3318, 1380, 0, 135.75
3319, 1380, -9.1, 160.5
3320, 1380, 0, 160.5
3321, 1380, -9.1, 185.25
3322, 1380, 0, 185.25
3323, 1380, -9.1, 210
3324, 1380, 0, 210
3325, 1380, 9.1, 86.25
3326, 1380, 9.1, 111
3327, 1380, 9.1, 135.75
3328, 1380, 9.1, 160.5
3329, 1380, 9.1, 185.25
3330, 1380, 9.1, 210
3331, 1380, -104.45, 210
3332, 1380, -80.6125, 210
3333, 1380, -104.45, 220
3334, 1380, -80.6125, 220
3335, 1380, -104.45, 230
3336, 1380, -80.6125, 230
3337, 1380, -56.775, 210
3338, 1380, -56.775, 220
3339, 1380, -56.775, 230
3340, 1380, -32.9375, 210
3341, 1380, -32.9375, 220
3342, 1380, -32.9375, 230
3343, 1380, -9.1, 220
3344, 1380, -9.1, 230
3345, 1380, 0, 220
3346, 1380, 0, 230
3347, 1380, 9.1, 220
3348, 1380, 9.1, 230
3349, 1380, 32.9375, 210
3350, 1380, 32.9375, 220
3351, 1380, 32.9375, 230
3352, 1380, 56.775, 210
3353, 1380, 56.775, 220
3354, 1380, 56.775, 230
3355, 1380, 80.6125, 210
3356, 1380, 80.6125, 220
3357, 1380, 80.6125, 230
3358, 1380, 104.45, 210
3359, 1380, 104.45, 220
3360, 1380, 104.45, 230
3361, 1400, -9, 87.5
3362, 1400, 0, 87.5
3363, 1400, -9, 112
3364, 1400, 0, 112
3365, 1400, -9, 136.5
3366, 1400, 0, 136.5
3367, 1400, -9, 161
3368, 1400, 0, 161
3369, 1400, -9, 185.5
3370, 1400, 0, 185.5
3371, 1400, -9, 210
3372, 1400, 0, 210
3373, 1400, 9, 87.5
3374, 1400, 9, 112
3375, 1400, 9, 136.5
3376, 1400, 9, 161
3377, 1400, 9, 185.5
3378, 1400, 9, 210
3379, 1400, -103.5, 210
3380, 1400, -79.875, 210
3381, 1400, -103.5, 220
3382, 1400, -79.875, 220
3383, 1400, -103.5, 230
3384, 1400, -79.875, 230
3385, 1400, -56.25, 210
3386, 1400, -56.25, 220
3387, 1400, -56.25, 230
3388, 1400, -32.625, 210
3389, 1400, -32.625, 220
3390, 1400, -32.625, 230
3391, 1400, -9, 220
3392, 1400, -9, 230
3393, 1400, 0, 220
3394, 1400, 0, 230
3395, 1400, 9, 220
3396, 1400, 9, 230
3397, 1400, 32.625, 210
3398, 1400, 32.625, 220
3399, 1400, 32.625, 230
3400, 1400, 56.25, 210
3401, 1400, 56.25, 220
3402, 1400, 56.25, 230
3403, 1400, 79.875, 210
3404, 1400, 79.875, 220
3405, 1400, 79.875, 230
3406, 1400, 103.5, 210
3407, 1400, 103.5, 220
3408, 1400, 103.5, 230
3409, 1420, -8.9, 88.75
3410, 1420, 0, 88.75
3411, 1420, -8.9, 113
3412, 1420, 0, 113
3413, 1420, -8.9, 137.25
3414, 1420, 0, 137.25
3415, 1420, -8.9, 161.5
3416, 1420, 0, 161.5
3417, 1420, -8.9, 185.75
3418, 1420, 0, 185.75
3419, 1420, -8.9, 210
3420, 1420, 0, 210
3421, 1420, 8.9, 88.75
3422, 1420, 8.9, 113
3423, 1420, 8.9, 137.25
3424, 1420, 8.9, 161.5
3425, 1420, 8.9, 185.75
3426, 1420, 8.9, 210
3427, 1420, -102.55, 210
3428, 1420, -79.1375, 210
3429, 1420, -102.55, 220
3430, 1420, -79.1375, 220
3431, 1420, -102.55, 230
3432, 1420, -79.1375, 230
3433, 1420, -55.725, 210
3434, 1420, -55.725, 220
3435, 1420, -55.725, 230
3436, 1420, -32.3125, 210
3437, 1420, -32.3125, 220
3438, 1420, -32.3125, 230
3439, 1420, -8.9, 220
3440, 1420, -8.9, 230
3441, 1420, 0, 220
3442, 1420, 0, 230
3443, 1420, 8.9, 220
3444, 1420, 8.9, 230
3445, 1420, 32.3125, 210
3446, 1420, 32.3125, 220
3447, 1420, 32.3125, 230
3448, 1420, 55.725, 210
3449, 1420, 55.725, 220
3450, 1420, 55.725, 230
3451, 1420, 79.1375, 210
3452, 1420, 79.1375, 220
3453, 1420, 79.1375, 230
3454, 1420, 102.55, 210
3455, 1420, 102.55, 220
3456, 1420, 102.55, 230
3457, 1440, -8.8, 90
3458, 1440, 0, 90
3459, 1440, -8.8, 114
3460, 1440, 0, 114
3461, 1440, -8.8, 138
3462, 1440, 0, 138
3463, 1440, -8.8, 162
3464, 1440, 0, 162
3465, 1440, -8.8, 186
3466, 1440, 0, 186
3467, 1440, -8.8, 210
3468, 1440, 0, 210
3469, 1440, 8.8, 90
3470, 1440, 8.8, 114
3471, 1440, 8.8, 138
3472, 1440, 8.8, 162
3473, 1440, 8.8, 186
3474, 1440, 8.8, 210
3475, 1440, -101.6, 210
3476, 1440, -78.4, 210
3477, 1440, -101.6, 220
3478, 1440, -78.4, 220
3479, 1440, -101.6, 230
3480, 1440, -78.4, 230
3481, 1440, -55.2, 210
3482, 1440, -55.2, 220
3483, 1440, -55.2, 230
3484, 1440, -32, 210
3485, 1440, -32, 220
3486, 1440, -32, 230
3487, 1440, -8.8, 220
3488, 1440, -8.8, 230
3489, 1440, 0, 220
3490, 1440, 0, 230
3491, 1440, 8.8, 220
3492, 1440, 8.8, 230
3493, 1440, 32, 210
3494, 1440, 32, 220
3495, 1440, 32, 230
3496, 1440, 55.2, 210
3497, 1440, 55.2, 220
3498, 1440, 55.2, 230
3499, 1440, 78.4, 210
3500, 1440, 78.4, 220
3501, 1440, 78.4, 230
3502, 1440, 101.6, 210
3503, 1440, 101.6, 220
3504, 1440, 101.6, 230
3505, 1460, -8.7, 91.25
3506, 1460, 0, 91.25
3507, 1460, -8.7, 115
3508, 1460, 0, 115
3509, 1460, -8.7, 138.75
3510, 1460, 0, 138.75
3511, 1460, -8.7, 162.5
3512, 1460, 0, 162.5
3513, 1460, -8.7, 186.25
3514, 1460, 0, 186.25
3515, 1460, -8.7, 210
3516, 1460, 0, 210
3517, 1460, 8.7, 91.25
3518, 1460, 8.7, 115
3519, 1460, 8.7, 138.75
3520, 1460, 8.7, 162.5
3521, 1460, 8.7, 186.25
3522, 1460, 8.7, 210
3523, 1460, -100.65, 210
3524, 1460, -77.6625, 210
3525, 1460, -100.65, 220
3526, 1460, -77.6625, 220
3527, 1460, -100.65, 230
3528, 1460, -77.6625, 230
3529, 1460, -54.675, 210
3530, 1460, -54.675, 220
3531, 1460, -54.675, 230
3532, 1460, -31.6875, 210
3533, 1460, -31.6875, 220
3534, 1460, -31.6875, 230
3535, 1460, -8.7, 220
3536, 1460, -8.7, 230
3537, 1460, 0, 220
3538, 1460, 0, 230
3539, 1460, 8.7, 220
3540, 1460, 8.7, 230
3541, 1460, 31.6875, 210
3542, 1460, 31.6875, 220
3543, 1460, 31.6875, 230
3544, 1460, 54.675, 210
3545, 1460, 54.675, 220
3546, 1460, 54.675, 230
3547, 1460, 77.6625, 210
3548, 1460, 77.6625, 220
3549, 1460, 77.6625, 230
3550, 1460, 100.65, 210
3551, 1460, 100.65, 220
3552, 1460, 100.65, 230
3553, 1480, -8.6, 92.5
3554, 1480, 0, 92.5
3555, 1480, -8.6, 116
3556, 1480, 0, 116
3557, 1480, -8.6, 139.5
3558, 1480, 0, 139.5
3559, 1480, -8.6, 163
3560, 1480, 0, 163
3561, 1480, -8.6, 186.5
3562, 1480, 0, 186.5
3563, 1480, -8.6, 210
3564, 1480, 0, 210
3565, 1480, 8.6, 92.5
3566, 1480, 8.6, 116
3567, 1480, 8.6, 139.5
3568, 1480, 8.6, 163
3569, 1480, 8.6, 186.5
3570, 1480, 8.6, 210
3571, 1480, -99.7, 210
3572, 1480, -76.925, 210
3573, 1480, -99.7, 220
3574, 1480, -76.925, 220
3575, 1480, -99.7, 230
3576, 1480, -76.925, 230
3577, 1480, -54.15, 210
3578, 1480, -54.15, 220
3579, 1480, -54.15, 230
3580, 1480, -31.375, 210
3581, 1480, -31.375, 220
3582, 1480, -31.375, 230
3583, 1480, -8.6, 220
3584, 1480, -8.6, 230
3585, 1480, 0, 220
3586, 1480, 0, 230
3587, 1480, 8.6, 220
3588, 1480, 8.6, 230
3589, 1480, 31.375, 210
3590, 1480, 31.375, 220
3591, 1480, 31.375, 230
3592, 1480, 54.15, 210
3593, 1480, 54.15, 220
3594, 1480, 54.15, 230
3595, 1480, 76.925, 210
3596, 1480, 76.925, 220
3597, 1480, 76.925, 230
3598, 1480, 99.7, 210
3599, 1480, 99.7, 220
3600, 1480, 99.7, 230
3601, 1500, -8.5, 93.75
3602, 1500, 0, 93.75
3603, 1500, -8.5, 117
3604, 1500, 0, 117
3605, 1500, -8.5, 140.25
3606, 1500, 0, 140.25
3607, 1500, -8.5, 163.5
3608, 1500, 0, 163.5
3609, 1500, -8.5, 186.75
3610, 1500, 0, 186.75
3611, 1500, -8.5, 210
3612, 1500, 0, 210
3613, 1500, 8.5, 93.75
3614, 1500, 8.5, 117
3615, 1500, 8.5, 140.25
3616, 1500, 8.5, 163.5
3617, 1500, 8.5, 186.75
3618, 1500, 8.5, 210
3619, 1500, -98.75, 210
3620, 1500, -76.1875, 210
3621, 1500, -98.75, 220
3622, 1500, -76.1875, 220
3623, 1500, -98.75, 230
3624, 1500, -76.1875, 230
3625, 1500, -53.625, 210
3626, 1500, -53.625, 220
3627, 1500, -53.625, 230
3628, 1500, -31.0625, 210
3629, 1500, -31.0625, 220
3630, 1500, -31.0625, 230
3631, 1500, -8.5, 220
3632, 1500, -8.5, 230
3633, 1500, 0, 220
3634, 1500, 0, 230
3635, 1500, 8.5, 220
3636, 1500, 8.5, 230
3637, 1500, 31.0625, 210
3638, 1500, 31.0625, 220
3639, 1500, 31.0625, 230
3640, 1500, 53.625, 210
3641, 1500, 53.625, 220
3642, 1500, 53.625, 230
3643, 1500, 76.1875, 210
3644, 1500, 76.1875, 220
3645, 1500, 76.1875, 230
3646, 1500, 98.75, 210
3647, 1500, 98.75, 220
3648, 1500, 98.75, 230
3649, 1520, -8.4, 95
3650, 1520, 0, 95
3651, 1520, -8.4, 118
3652, 1520, 0, 118
3653, 1520, -8.4, 141
3654, 1520, 0, 141
3655, 1520, -8.4, 164
3656, 1520, 0, 164
3657, 1520, -8.4, 187
3658, 1520, 0, 187
3659, 1520, -8.4, 210
3660, 1520, 0, 210
3661, 1520, 8.4, 95
3662, 1520, 8.4, 118
3663, 1520, 8.4, 141
3664, 1520, 8.4, 164
3665, 1520, 8.4, 187
3666, 1520, 8.4, 210
3667, 1520, -97.8, 210
3668, 1520, -75.45, 210
3669, 1520, -97.8, 220
3670, 1520, -75.45, 220
3671, 1520, -97.8, 230
3672, 1520, -75.45, 230
3673, 1520, -53.1, 210
3674, 1520, -53.1, 220
3675, 1520, -53.1, 230
3676, 1520, -30.75, 210
3677, 1520, -30.75, 220
3678, 1520, -30.75, 230
3679, 1520, -8.4, 220
3680, 1520, -8.4, 230
3681, 1520, 0, 220
3682, 1520, 0, 230
3683, 1520, 8.4, 220
3684, 1520, 8.4, 230
3685, 1520, 30.75, 210
3686, 1520, 30.75, 220
3687, 1520, 30.75, 230
3688, 1520, 53.1, 210
3689, 1520, 53.1, 220
3690, 1520, 53.1, 230
3691, 1520, 75.45, 210
3692, 1520, 75.45, 220
3693, 1520, 75.45, 230
3694, 1520, 97.8, 210
3695, 1520, 97.8, 220
3696, 1520, 97.8, 230
3697, 1540, -8.3, 96.25
3698, 1540, 0, 96.25
3699, 1540, -8.3, 119
3700, 1540, 0, 119
3701, 1540, -8.3, 141.75
3702, 1540, 0, 141.75
3703, 1540, -8.3, 164.5
3704, 1540, 0, 164.5
3705, 1540, -8.3, 187.25
3706, 1540, 0, 187.25
3707, 1540, -8.3, 210
3708, 1540, 0, 210
3709, 1540, 8.3, 96.25
3710, 1540, 8.3, 119
3711, 1540, 8.3, 141.75
3712, 1540, 8.3, 164.5
3713, 1540, 8.3, 187.25
3714, 1540, 8.3, 210
3715, 1540, -96.85, 210
3716, 1540, -74.7125, 210
3717, 1540, -96.85, 220
3718, 1540, -74.7125, 220
3719, 1540, -96.85, 230
3720, 1540, -74.7125, 230
3721, 1540, -52.575, 210
3722, 1540, -52.575, 220
3723, 1540, -52.575, 230
3724, 1540, -30.4375, 210
3725, 1540, -30.4375, 220
3726, 1540, -30.4375, 230
3727, 1540, -8.3, 220
3728, 1540, -8.3, 230
3729, 1540, 0, 220
3730, 1540, 0, 230
3731, 1540, 8.3, 220
3732, 1540, 8.3, 230
3733, 1540, 30.4375, 210
3734, 1540, 30.4375, 220
3735, 1540, 30.4375, 230
3736, 1540, 52.575, 210
3737, 1540, 52.575, 220
3738, 1540, 52.575, 230
3739, 1540, 74.7125, 210
3740, 1540, 74.7125, 220
3741, 1540, 74.7125, 230
3742, 1540, 96.85, 210
3743, 1540, 96.85, 220
3744, 1540, 96.85, 230
3745, 1560, -8.2, 97.5
3746, 1560, 0, 97.5
3747, 1560, -8.2, 120
3748, 1560, 0, 120
3749, 1560, -8.2, 142.5
3750, 1560, 0, 142.5
3751, 1560, -8.2, 165
3752, 1560, 0, 165
3753, 1560, -8.2, 187.5
3754, 1560, 0, 187.5
3755, 1560, -8.2, 210
3756, 1560, 0, 210
3757, 1560, 8.2, 97.5
3758, 1560, 8.2, 120
3759, 1560, 8.2, 142.5
3760, 1560, 8.2, 165
3761, 1560, 8.2, 187.5
3762, 1560, 8.2, 210
3763, 1560, -95.9, 210
3764, 1560, -73.975, 210
3765, 1560, -95.9, 220
3766, 1560, -73.975, 220
3767, 1560, -95.9, 230
3768, 1560, -73.975, 230
3769, 1560, -52.05, 210
3770, 1560, -52.05, 220
3771, 1560, -52.05, 230
3772, 1560, -30.125, 210
3773, 1560, -30.125, 220
3774, 1560, -30.125, 230
3775, 1560, -8.2, 220
3776, 1560, -8.2, 230
3777, 1560, 0, 220
3778, 1560, 0, 230
3779, 1560, 8.2, 220
3780, 1560, 8.2, 230
3781, 1560, 30.125, 210
3782, 1560, 30.125, 220
3783, 1560, 30.125, 230
3784, 1560, 52.05, 210
3785, 1560, 52.05, 220
3786, 1560, 52.05, 230
3787, 1560, 73.975, 210
3788, 1560, 73.975, 220
3789, 1560, 73.975, 230
3790, 1560, 95.9, 210
3791, 1560, 95.9, 220
3792, 1560, 95.9, 230
3793, 1580, -8.1, 98.75
3794, 1580, 0, 98.75
3795, 1580, -8.1, 121
3796, 1580, 0, 121
3797, 1580, -8.1, 143.25
3798, 1580, 0, 143.25
3799, 1580, -8.1, 165.5
3800, 1580, 0, 165.5
3801, 1580, -8.1, 187.75
3802, 1580, 0, 187.75
3803, 1580, -8.1, 210
3804, 1580, 0, 210
3805, 1580, 8.1, 98.75
3806, 1580, 8.1, 121
3807, 1580, 8.1, 143.25
3808, 1580, 8.1, 165.5
3809, 1580, 8.1, 187.75
3810, 1580, 8.1, 210
3811, 1580, -94.95, 210
3812, 1580, -73.2375, 210
3813, 1580, -94.95, 220
3814, 1580, -73.2375, 220
3815, 1580, -94.95, 230
3816, 1580, -73.2375, 230
3817, 1580, -51.525, 210
3818, 1580, -51.525, 220
3819, 1580, -51.525, 230
3820, 1580, -29.8125, 210
3821, 1580, -29.8125, 220
3822, 1580, -29.8125, 230
3823, 1580, -8.1, 220
3824, 1580, -8.1, 230
3825, 1580, 0, 220
3826, 1580, 0, 230
3827, 1580, 8.1, 220
3828, 1580, 8.1, 230
3829, 1580, 29.8125, 210
3830, 1580, 29.8125, 220
3831, 1580, 29.8125, 230
3832, 1580, 51.525, 210
3833, 1580, 51.525, 220
3834, 1580, 51.525, 230
3835, 1580, 73.2375, 210
3836, 1580, 73.2375, 220
3837, 1580, 73.2375, 230
3838, 1580, 94.95, 210
3839, 1580, 94.95, 220
3840, 1580, 94.95, 230
3841, 1600, -8, 100
3842, 1600, 0, 100
3843, 1600, -8, 122
3844, 1600, 0, 122
3845, 1600, -8, 144
3846, 1600, 0, 144
3847, 1600, -8, 166
3848, 1600, 0, 166
3849, 1600, -8, 188
3850, 1600, 0, 188
3851, 1600, -8, 210
3852, 1600, 0, 210
3853, 1600, 8, 100
3854, 1600, 8, 122
3855, 1600, 8, 144
3856, 1600, 8, 166
3857, 1600, 8, 188
3858, 1600, 8, 210
3859, 1600, -94, 210
3860, 1600, -72.5, 210
3861, 1600, -94, 220
3862, 1600, -72.5, 220
3863, 1600, -94, 230
3864, 1600, -72.5, 230
3865, 1600, -51, 210
3866, 1600, -51, 220
3867, 1600, -51, 230
3868, 1600, -29.5, 210
3869, 1600, -29.5, 220
3870, 1600, -29.5, 230
3871, 1600, -8, 220
3872, 1600, -8, 230
3873, 1600, 0, 220
3874, 1600, 0, 230
3875, 1600, 8, 220
3876, 1600, 8, 230
3877, 1600, 29.5, 210
3878, 1600, 29.5, 220
3879, 1600, 29.5, 230
3880, 1600, 51, 210
3881, 1600, 51, 220
3882, 1600, 51, 230
3883, 1600, 72.5, 210
3884, 1600, 72.5, 220
3885, 1600, 72.5, 230
3886, 1600, 94, 210
3887, 1600, 94, 220
3888, 1600, 94, 230
3889, 1620, -7.9, 101.25
3890, 1620, 0, 101.25
3891, 1620, -7.9, 123
3892, 1620, 0, 123
3893, 1620, -7.9, 144.75
3894, 1620, 0, 144.75
3895, 1620, -7.9, 166.5
3896, 1620, 0, 166.5
3897, 1620, -7.9, 188.25
3898, 1620, 0, 188.25
3899, 1620, -7.9, 210
3900, 1620, 0, 210
3901, 1620, 7.9, 101.25
3902, 1620, 7.9, 123
3903, 1620, 7.9, 144.75
3904, 1620, 7.9, 166.5
3905, 1620, 7.9, 188.25
3906, 1620, 7.9, 210
3907, 1620, -93.05, 210
3908, 1620, -71.7625, 210
3909, 1620, -93.05, 220
3910, 1620, -71.7625, 220
3911, 1620, -93.05, 230
3912, 1620, -71.7625, 230
3913, 1620, -50.475, 210
3914, 1620, -50.475, 220
3915, 1620, -50.475, 230
3916, 1620, -29.1875, 210
3917, 1620, -29.1875, 220
3918, 1620, -29.1875, 230
3919, 1620, -7.9, 220
3920, 1620, -7.9, 230
3921, 1620, 0, 220
3922, 1620, 0, 230
3923, 1620, 7.9, 220
3924, 1620, 7.9, 230
3925, 1620, 29.1875, 210
3926, 1620, 29.1875, 220
3927, 1620, 29.1875, 230
3928, 1620, 50.475, 210
3929, 1620, 50.475, 220
3930, 1620, 50.475, 230
3931, 1620, 71.7625, 210
3932, 1620, 71.7625, 220
3933, 1620, 71.7625, 230
3934, 1620, 93.05, 210
3935, 1620, 93.05, 220
3936, 1620, 93.05, 230
3937, 1640, -7.8, 102.5
3938, 1640, 0, 102.5
3939, 1640, -7.8, 124
3940, 1640, 0, 124
3941, 1640, -7.8, 145.5
3942, 1640, 0, 145.5
3943, 1640, -7.8, 167
3944, 1640, 0, 167
3945, 1640, -7.8, 188.5
3946, 1640, 0, 188.5
3947, 1640, -7.8, 210
3948, 1640, 0, 210
3949, 1640, 7.8, 102.5
3950, 1640, 7.8, 124
3951, 1640, 7.8, 145.5
3952, 1640, 7.8, 167
3953, 1640, 7.8, 188.5
3954, 1640, 7.8, 210
3955, 1640, -92.1, 210
3956, 1640, -71.025, 210
3957, 1640, -92.1, 220
3958, 1640, -71.025, 220
3959, 1640, -92.1, 230
3960, 1640, -71.025, 230
3961, 1640, -49.95, 210
3962, 1640, -49.95, 220
3963, 1640, -49.95, 230
3964, 1640, -28.875, 210
3965, 1640, -28.875, 220
3966, 1640, -28.875, 230
3967, 1640, -7.8, 220
3968, 1640, -7.8, 230
3969, 1640, 0, 220
3970, 1640, 0, 230
3971, 1640, 7.8, 220
3972, 1640, 7.8, 230
3973, 1640, 28.875, 210
3974, 1640, 28.875, 220
3975, 1640, 28.875, 230
3976, 1640, 49.95, 210
3977, 1640, 49.95, 220
3978, 1640, 49.95, 230
3979, 1640, 71.025, 210
3980, 1640, 71.025, 220
3981, 1640, 71.025, 230
3982, 1640, 92.1, 210
3983, 1640, 92.1, 220
3984, 1640, 92.1, 230
3985, 1660, -7.7, 103.75
3986, 1660, 0, 103.75
3987, 1660, -7.7, 125
3988, 1660, 0, 125
3989, 1660, -7.7, 146.25
3990, 1660, 0, 146.25
3991, 1660, -7.7, 167.5
3992, 1660, 0, 167.5
3993, 1660, -7.7, 188.75
3994, 1660, 0, 188.75
3995, 1660, -7.7, 210
3996, 1660, 0, 210
3997, 1660, 7.7, 103.75
3998, 1660, 7.7, 125
3999, 1660, 7.7, 146.25
4000, 1660, 7.7, 167.5
4001, 1660, 7.7, 188.75
4002, 1660, 7.7, 210
4003, 1660, -91.15, 210
4004, 1660, -70.2875, 210
4005, 1660, -91.15, 220
4006, 1660, -70.2875, 220
4007, 1660, -91.15, 230
4008, 1660, -70.2875, 230
4009, 1660, -49.425, 210
4010, 1660, -49.425, 220
4011, 1660, -49.425, 230
4012, 1660, -28.5625, 210
4013, 1660, -28.5625, 220
4014, 1660, -28.5625, 230
4015, 1660, -7.7, 220
4016, 1660, -7.7, 230
4017, 1660, 0, 220
4018, 1660, 0, 230
4019, 1660, 7.7, 220
4020, 1660, 7.7, 230
4021, 1660, 28.5625, 210
4022, 1660, 28.5625, 220
4023, 1660, 28.5625, 230
4024, 1660, 49.425, 210
4025, 1660, 49.425, 220
4026, 1660, 49.425, 230
4027, 1660, 70.2875, 210
4028, 1660, 70.2875, 220
4029, 1660, 70.2875, 230
4030, 1660, 91.15, 210
4031, 1660, 91.15, 220
4032, 1660, 91.15, 230
4033, 1680, -7.6, 105
4034, 1680, 0, 105
4035, 1680, -7.6, 126
4036, 1680, 0, 126
4037, 1680, -7.6, 147
4038, 1680, 0, 147
4039, 1680, -7.6, 168
4040, 1680, 0, 168
4041, 1680, -7.6, 189
4042, 1680, 0, 189
4043, 1680, -7.6, 210
4044, 1680, 0, 210
4045, 1680, 7.6, 105
4046, 1680, 7.6, 126
4047, 1680, 7.6, 147
4048, 1680, 7.6, 168
4049, 1680, 7.6, 189
4050, 1680, 7.6, 210
4051, 1680, -90.2, 210
4052, 1680, -69.55, 210
4053, 1680, -90.2, 220
4054, 1680, -69.55, 220
4055, 1680, -90.2, 230
4056, 1680, -69.55, 230
4057, 1680, -48.9, 210
4058, 1680, -48.9, 220
4059, 1680, -48.9, 230
4060, 1680, -28.25, 210
4061, 1680, -28.25, 220
4062, 1680, -28.25, 230
4063, 1680, -7.6, 220
4064, 1680, -7.6, 230
4065, 1680, 0, 220
4066, 1680, 0, 230
4067, 1680, 7.6, 220
4068, 1680, 7.6, 230
4069, 1680, 28.25, 210
4070, 1680, 28.25, 220
4071, 1680, 28.25, 230
4072, 1680, 48.9, 210
4073, 1680, 48.9, 220
4074, 1680, 48.9, 230
4075, 1680, 69.55, 210
4076, 1680, 69.55, 220
4077, 1680, 69.55, 230
4078, 1680, 90.2, 210
4079, 1680, 90.2, 220
4080, 1680, 90.2, 230
4081, 1700, -7.5, 106.25
4082, 1700, 0, 106.25
4083, 1700, -7.5, 127
4084, 1700, 0, 127
4085, 1700, -7.5, 147.75
4086, 1700, 0, 147.75
4087, 1700, -7.5, 168.5
4088, 1700, 0, 168.5
4089, 1700, -7.5, 189.25
4090, 1700, 0, 189.25
4091, 1700, -7.5, 210
4092, 1700, 0, 210
4093, 1700, 7.5, 106.25
4094, 1700, 7.5, 127
4095, 1700, 7.5, 147.75
4096, 1700, 7.5, 168.5
4097, 1700, 7.5, 189.25
4098, 1700, 7.5, 210
4099, 1700, -89.25, 210
4100, 1700, -68.8125, 210
4101, 1700, -89.25, 220
4102, 1700, -68.8125, 220
4103, 1700, -89.25, 230
4104, 1700, -68.8125, 230
4105, 1700, -48.375, 210
4106, 1700, -48.375, 220
4107, 1700, -48.375, 230
4108, 1700, -27.9375, 210
4109, 1700, -27.9375, 220
4110, 1700, -27.9375, 230
4111, 1700, -7.5, 220
4112, 1700, -7.5, 230
4113, 1700, 0, 220
4114, 1700, 0, 230
4115, 1700, 7.5, 220
4116, 1700, 7.5, 230
4117, 1700, 27.9375, 210
4118, 1700, 27.9375, 220
4119, 1700, 27.9375, 230
4120, 1700, 48.375, 210
4121, 1700, 48.375, 220
4122, 1700, 48.375, 230
4123, 1700, 68.8125, 210
4124, 1700, 68.8125, 220
4125, 1700, 68.8125, 230
4126, 1700, 89.25, 210
4127, 1700, 89.25, 220
4128, 1700, 89.25, 230
4129, 1720, -7.4, 107.5
4130, 1720, 0, 107.5
4131, 1720, -7.4, 128
4132, 1720, 0, 128
4133, 1720, -7.4, 148.5
4134, 1720, 0, 148.5
4135, 1720, -7.4, 169
4136, 1720, 0, 169
4137, 1720, -7.4, 189.5
4138, 1720, 0, 189.5
4139, 1720, -7.4, 210
4140, 1720, 0, 210
4141, 1720, 7.4, 107.5
4142, 1720, 7.4, 128
4143, 1720, 7.4, 148.5
4144, 1720, 7.4, 169
4145, 1720, 7.4, 189.5
4146, 1720, 7.4, 210
4147, 1720, -88.3, 210
4148, 1720, -68.075, 210
4149, 1720, -88.3, 220
4150, 1720, -68.075, 220
4151, 1720, -88.3, 230
4152, 1720, -68.075, 230
4153, 1720, -47.85, 210
4154, 1720, -47.85, 220
4155, 1720, -47.85, 230
4156, 1720, -27.625, 210
4157, 1720, -27.625, 220
4158, 1720, -27.625, 230
4159, 1720, -7.4, 220
4160, 1720, -7.4, 230
4161, 1720, 0, 220
4162, 1720, 0, 230
4163, 1720, 7.4, 220
4164, 1720, 7.4, 230
4165, 1720, 27.625, 210
4166, 1720, 27.625, 220
4167, 1720, 27.625, 230
4168, 1720, 47.85, 210
4169, 1720, 47.85, 220
4170, 1720, 47.85, 230
4171, 1720, 68.075, 210
4172, 1720, 68.075, 220
4173, 1720, 68.075, 230
4174, 1720, 88.3, 210
4175, 1720, 88.3, 220
4176, 1720, 88.3, 230
4177, 1740, -7.3, 108.75
4178, 1740, 0, 108.75
4179, 1740, -7.3, 129
4180, 1740, 0, 129
4181, 1740, -7.3, 149.25
4182, 1740, 0, 149.25
4183, 1740, -7.3, 169.5
4184, 1740, 0, 169.5
4185, 1740, -7.3, 189.75
4186, 1740, 0, 189.75
4187, 1740, -7.3, 210
4188, 1740, 0, 210
4189, 1740, 7.3, 108.75
4190, 1740, 7.3, 129
4191, 1740, 7.3, 149.25
4192, 1740, 7.3, 169.5
4193, 1740, 7.3, 189.75
4194, 1740, 7.3, 210
4195, 1740, -87.35, 210
4196, 1740, -67.3375, 210
4197, 1740, -87.35, 220
4198, 1740, -67.3375, 220
4199, 1740, -87.35, 230
4200, 1740, -67.3375, 230
4201, 1740, -47.325, 210
4202, 1740, -47.325, 220
4203, 1740, -47.325, 230
4204, 1740, -27.3125, 210
4205, 1740, -27.3125, 220
4206, 1740, -27.3125, 230
4207, 1740, -7.3, 220
4208, 1740, -7.3, 230
4209, 1740, 0, 220
4210, 1740, 0, 230
4211, 1740, 7.3, 220
4212, 1740, 7.3, 230
4213, 1740, 27.3125, 210
4214, 1740, 27.3125, 220
4215, 1740, 27.3125, 230
4216, 1740, 47.325, 210
4217, 1740, 47.325, 220
4218, 1740, 47.325, 230
4219, 1740, 67.3375, 210
4220, 1740, 67.3375, 220
4221, 1740, 67.3375, 230
4222, 1740, 87.35, 210
4223, 1740, 87.35, 220
4224, 1740, 87.35, 230
4225, 1760, -7.2, 110
4226, 1760, 0, 110
4227, 1760, -7.2, 130
4228, 1760, 0, 130
4229, 1760, -7.2, 150
4230, 1760, 0, 150
4231, 1760, -7.2, 170
4232, 1760, 0, 170
4233, 1760, -7.2, 190
4234, 1760, 0, 190
4235, 1760, -7.2, 210
4236, 1760, 0, 210
4237, 1760, 7.2, 110
4238, 1760, 7.2, 130
4239, 1760, 7.2, 150
4240, 1760, 7.2, 170
4241, 1760, 7.2, 190
4242, 1760, 7.2, 210
4243, 1760, -86.4, 210
4244, 1760, -66.6, 210
4245, 1760, -86.4, 220
4246, 1760, -66.6, 220
4247, 1760, -86.4, 230
4248, 1760, -66.6, 230
4249, 1760, -46.8, 210
4250, 1760, -46.8, 220
4251, 1760, -46.8, 230
4252, 1760, -27, 210
4253, 1760, -27, 220
4254, 1760, -27, 230
4255, 1760, -7.2, 220
4256, 1760, -7.2, 230
4257, 1760, 0, 220
4258, 1760, 0, 230
4259, 1760, 7.2, 220
4260, 1760, 7.2, 230
4261, 1760, 27, 210
4262, 1760, 27, 220
4263, 1760, 27, 230
4264, 1760, 46.8, 210
4265, 1760, 46.8, 220
4266, 1760, 46.8, 230
4267, 1760, 66.6, 210
4268, 1760, 66.6, 220
4269, 1760, 66.6, 230
4270, 1760, 86.4, 210
4271, 1760, 86.4, 220
4272, 1760, 86.4, 230
4273, 1780, -7.1, 111.25
4274, 1780, 0, 111.25
4275, 1780, -7.1, 131
4276, 1780, 0, 131
4277, 1780, -7.1, 150.75
4278, 1780, 0, 150.75
4279, 1780, -7.1, 170.5
4280, 1780, 0, 170.5
4281, 1780, -7.1, 190.25
4282, 1780, 0, 190.25
4283, 1780, -7.1, 210
4284, 1780, 0, 210
4285, 1780, 7.1, 111.25
4286, 1780, 7.1, 131
4287, 1780, 7.1, 150.75
4288, 1780, 7.1, 170.5
4289, 1780, 7.1, 190.25
4290, 1780, 7.1, 210
4291, 1780, -85.45, 210
4292, 1780, -65.8625, 210
4293, 1780, -85.45, 220
4294, 1780, -65.8625, 220
4295, 1780, -85.45, 230
4296, 1780, -65.8625, 230
4297, 1780, -46.275, 210
4298, 1780, -46.275, 220
4299, 1780, -46.275, 230
4300, 1780, -26.6875, 210
4301, 1780, -26.6875, 220
4302, 1780, -26.6875, 230
4303, 1780, -7.1, 220
4304, 1780, -7.1, 230
4305, 1780, 0, 220
4306, 1780, 0, 230
4307, 1780, 7.1, 220
4308, 1780, 7.1, 230
4309, 1780, 26.6875, 210
4310, 1780, 26.6875, 220
4311, 1780, 26.6875, 230
4312, 1780, 46.275, 210
4313, 1780, 46.275, 220
4314, 1780, 46.275, 230
4315, 1780, 65.8625, 210
4316, 1780, 65.8625, 220
4317, 1780, 65.8625, 230
4318, 1780, 85.45, 210
4319, 1780, 85.45, 220
4320, 1780, 85.45, 230
4321, 1800, -7, 112.5
4322, 1800, 0, 112.5
4323, 1800, -7, 132
4324, 1800, 0, 132
4325, 1800, -7, 151.5
4326, 1800, 0, 151.5
4327, 1800, -7, 171
4328, 1800, 0, 171
4329, 1800, -7, 190.5
4330, 1800, 0, 190.5
4331, 1800, -7, 210
4332, 1800, 0, 210
4333, 1800, 7, 112.5
4334, 1800, 7, 132
4335, 1800, 7, 151.5
4336, 1800, 7, 171
4337, 1800, 7, 190.5
4338, 1800, 7, 210
4339, 1800, -84.5, 210
4340, 1800, -65.125, 210
4341, 1800, -84.5, 220
4342, 1800, -65.125, 220
4343, 1800, -84.5, 230
4344, 1800, -65.125, 230
4345, 1800, -45.75, 210
4346, 1800, -45.75, 220
4347, 1800, -45.75, 230
4348, 1800, -26.375, 210
4349, 1800, -26.375, 220
4350, 1800, -26.375, 230
4351, 1800, -7, 220
4352, 1800, -7, 230
4353, 1800, 0, 220
4354, 1800, 0, 230
4355, 1800, 7, 220
4356, 1800, 7, 230
4357, 1800, 26.375, 210
4358, 1800, 26.375, 220
4359, 1800, 26.375, 230
4360, 1800, 45.75, 210
4361, 1800, 45.75, 220
4362, 1800, 45.75, 230
4363, 1800, 65.125, 210
4364, 1800, 65.125, 220
4365, 1800, 65.125, 230
4366, 1800, 84.5, 210
4367, 1800, 84.5, 220
4368, 1800, 84.5, 230
4369, 1820, -6.9, 113.75
4370, 1820, 0, 113.75
4371, 1820, -6.9, 133
4372, 1820, 0, 133
4373, 1820, -6.9, 152.25
4374, 1820, 0, 152.25
4375, 1820, -6.9, 171.5
4376, 1820, 0, 171.5
4377, 1820, -6.9, 190.75
4378, 1820, 0, 190.75
4379, 1820, -6.9, 210
4380, 1820, 0, 210
4381, 1820, 6.9, 113.75
4382, 1820, 6.9, 133
4383, 1820, 6.9, 152.25
4384, 1820, 6.9, 171.5
4385, 1820, 6.9, 190.75
4386, 1820, 6.9, 210
4387, 1820, -83.55, 210
4388, 1820, -64.3875, 210
4389, 1820, -83.55, 220
4390, 1820, -64.3875, 220
4391, 1820, -83.55, 230
4392, 1820, -64.3875, 230
4393, 1820, -45.225, 210
4394, 1820, -45.225, 220
4395, 1820, -45.225, 230
4396, 1820, -26.0625, 210
4397, 1820, -26.0625, 220
4398, 1820, -26.0625, 230
4399, 1820, -6.9, 220
4400, 1820, -6.9, 230
4401, 1820, 0, 220
4402, 1820, 0, 230
4403, 1820, 6.9, 220
4404, 1820, 6.9, 230
4405, 1820, 26.0625, 210
4406, 1820, 26.0625, 220
4407, 1820, 26.0625, 230
4408, 1820, 45.225, 210
4409, 1820, 45.225, 220
4410, 1820, 45.225, 230
4411, 1820, 64.3875, 210
4412, 1820, 64.3875, 220
4413, 1820, 64.3875, 230
4414, 1820, 83.55, 210
4415, 1820, 83.55, 220
4416, 1820, 83.55, 230
4417, 1840, -6.8, 115
4418, 1840, 0, 115
4419, 1840, -6.8, 134
4420, 1840, 0, 134
4421, 1840, -6.8, 153
4422, 1840, 0, 153
4423, 1840, -6.8, 172
4424, 1840, 0, 172
4425, 1840, -6.8, 191
4426, 1840, 0, 191
4427, 1840, -6.8, 210
4428, 1840, 0, 210
4429, 1840, 6.8, 115
4430, 1840, 6.8, 134
4431, 1840, 6.8, 153
4432, 1840, 6.8, 172
4433, 1840, 6.8, 191
4434, 1840, 6.8, 210
4435, 1840, -82.6, 210
4436, 1840, -63.65, 210
4437, 1840, -82.6, 220
4438, 1840, -63.65, 220
4439, 1840, -82.6, 230
4440, 1840, -63.65, 230
4441, 1840, -44.7, 210
4442, 1840, -44.7, 220
4443, 1840, -44.7, 230
4444, 1840, -25.75, 210
4445, 1840, -25.75, 220
4446, 1840, -25.75, 230
4447, 1840, -6.8, 220
4448, 1840, -6.8, 230
4449, 1840, 0, 220
4450, 1840, 0, 230
4451, 1840, 6.8, 220
4452, 1840, 6.8, 230
4453, 1840, 25.75, 210
4454, 1840, 25.75, 220
4455, 1840, 25.75, 230
4456, 1840, 44.7, 210
4457, 1840, 44.7, 220
4458, 1840, 44.7, 230
4459, 1840, 63.65, 210
4460, 1840, 63.65, 220
4461, 1840, 63.65, 230
4462, 1840, 82.6, 210
4463, 1840, 82.6, 220
4464, 1840, 82.6, 230
4465, 1860, -6.7, 116.25
4466, 1860, 0, 116.25
4467, 1860, -6.7, 135
4468, 1860, 0, 135
4469, 1860, -6.7, 153.75
4470, 1860, 0, 153.75
4471, 1860, -6.7, 172.5
4472, 1860, 0, 172.5
4473, 1860, -6.7, 191.25
4474, 1860, 0, 191.25
4475, 1860, -6.7, 210
4476, 1860, 0, 210
4477, 1860, 6.7, 116.25
4478, 1860, 6.7, 135
4479, 1860, 6.7, 153.75
4480, 1860, 6.7, 172.5
4481, 1860, 6.7, 191.25
4482, 1860, 6.7, 210
4483, 1860, -81.65, 210
4484, 1860, -62.9125, 210
4485, 1860, -81.65, 220
4486, 1860, -62.9125, 220
4487, 1860, -81.65, 230
4488, 1860, -62.9125, 230
4489, 1860, -44.175, 210
4490, 1860, -44.175, 220
4491, 1860, -44.175, 230
4492, 1860, -25.4375, 210
4493, 1860, -25.4375, 220
4494, 1860, -25.4375, 230
4495, 1860, -6.7, 220
4496, 1860, -6.7, 230
4497, 1860, 0, 220
4498, 1860, 0, 230
4499, 1860, 6.7, 220
4500, 1860, 6.7, 230
4501, 1860, 25.4375, 210
4502, 1860, 25.4375, 220
4503, 1860, 25.4375, 230
4504, 1860, 44.175, 210
4505, 1860, 44.175, 220
4506, 1860, 44.175, 230
4507, 1860, 62.9125, 210
4508, 1860, 62.9125, 220
4509, 1860, 62.9125, 230
4510, 1860, 81.65, 210
4511, 1860, 81.65, 220
4512, 1860, 81.65, 230
4513, 1880, -6.6, 117.5
4514, 1880, 0, 117.5
4515, 1880, -6.6, 136
4516, 1880, 0, 136
4517, 1880, -6.6, 154.5
4518, 1880, 0, 154.5
4519, 1880, -6.6, 173
4520, 1880, 0, 173
4521, 1880, -6.6, 191.5
4522, 1880, 0, 191.5
4523, 1880, -6.6, 210
4524, 1880, 0, 210
4525, 1880, 6.6, 117.5
4526, 1880, 6.6, 136
4527, 1880, 6.6, 154.5
4528, 1880, 6.6, 173
4529, 1880, 6.6, 191.5
4530, 1880, 6.6, 210
4531, 1880, -80.7, 210
4532, 1880, -62.175, 210
4533, 1880, -80.7, 220
4534, 1880, -62.175, 220
4535, 1880, -80.7, 230
4536, 1880, -62.175, 230
4537, 1880, -43.65, 210
4538, 1880, -43.65, 220
4539, 1880, -43.65, 230
4540, 1880, -25.125, 210
4541, 1880, -25.125, 220
4542, 1880, -25.125, 230
4543, 1880, -6.6, 220
4544, 1880, -6.6, 230
4545, 1880, 0, 220
4546, 1880, 0, 230
4547, 1880, 6.6, 220
4548, 1880, 6.6, 230
4549, 1880, 25.125, 210
4550, 1880, 25.125, 220
4551, 1880, 25.125, 230
4552, 1880, 43.65, 210
4553, 1880, 43.65, 220
4554, 1880, 43.65, 230
4555, 1880, 62.175, 210
4556, 1880, 62.175, 220
4557, 1880, 62.175, 230
4558, 1880, 80.7, 210
4559, 1880, 80.7, 220
4560, 1880, 80.7, 230
4561, 1900, -6.5, 118.75
4562, 1900, 0, 118.75
4563, 1900, -6.5, 137
4564, 1900, 0, 137
4565, 1900, -6.5, 155.25
4566, 1900, 0, 155.25
4567, 1900, -6.5, 173.5
4568, 1900, 0, 173.5
4569, 1900, -6.5, 191.75
4570, 1900, 0, 191.75
4571, 1900, -6.5, 210
4572, 1900, 0, 210
4573, 1900, 6.5, 118.75
4574, 1900, 6.5, 137
4575, 1900, 6.5, 155.25
4576, 1900, 6.5, 173.5
4577, 1900, 6.5, 191.75
4578, 1900, 6.5, 210
4579, 1900, -79.75, 210
4580, 1900, -61.4375, 210
4581, 1900, -79.75, 220
4582, 1900, -61.4375, 220
4583, 1900, -79.75, 230
4584, 1900, -61.4375, 230
4585, 1900, -43.125, 210
4586, 1900, -43.125, 220
4587, 1900, -43.125, 230
4588, 1900, -24.8125, 210
4589, 1900, -24.8125, 220
4590, 1900, -24.8125, 230
4591, 1900, -6.5, 220
4592, 1900, -6.5, 230
4593, 1900, 0, 220
4594, 1900, 0, 230
4595, 1900, 6.5, 220
4596, 1900, 6.5, 230
4597, 1900, 24.8125, 210
4598, 1900, 24.8125, 220
4599, 1900, 24.8125, 230
4600, 1900, 43.125, 210
4601, 1900, 43.125, 220
4602, 1900, 43.125, 230
4603, 1900, 61.4375, 210
4604, 1900, 61.4375, 220
4605, 1900, 61.4375, 230
4606, 1900, 79.75, 210
4607, 1900, 79.75, 220
4608, 1900, 79.75, 230
4609, 1920, -6.4, 120
4610, 1920, 0, 120
4611, 1920, -6.4, 138
4612, 1920, 0, 138
4613, 1920, -6.4, 156
4614, 1920, 0, 156
4615, 1920, -6.4, 174
4616, 1920, 0, 174
4617, 1920, -6.4, 192
4618, 1920, 0, 192
4619, 1920, -6.4, 210
4620, 1920, 0, 210
4621, 1920, 6.4, 120
4622, 1920, 6.4, 138
4623, 1920, 6.4, 156
4624, 1920, 6.4, 174
4625, 1920, 6.4, 192
4626, 1920, 6.4, 210
4627, 1920, -78.8, 210
4628, 1920, -60.7, 210
4629, 1920, -78.8, 220
4630, 1920, -60.7, 220
4631, 1920, -78.8, 230
4632, 1920, -60.7, 230
4633, 1920, -42.6, 210
4634, 1920, -42.6, 220
4635, 1920, -42.6, 230
4636, 1920, -24.5, 210
4637, 1920, -24.5, 220
4638, 1920, -24.5, 230
4639, 1920, -6.4, 220
4640, 1920, -6.4, 230
4641, 1920, 0, 220
4642, 1920, 0, 230
4643, 1920, 6.4, 220
4644, 1920, 6.4, 230
4645, 1920, 24.5, 210
4646, 1920, 24.5, 220
4647, 1920, 24.5, 230
4648, 1920, 42.6, 210
4649, 1920, 42.6, 220
4650, 1920, 42.6, 230
4651, 1920, 60.7, 210
4652, 1920, 60.7, 220
4653, 1920, 60.7, 230
4654, 1920, 78.8, 210
4655, 1920, 78.8, 220
4656, 1920, 78.8, 230
4657, 1940, -6.3, 121.25
4658, 1940, 0, 121.25
4659, 1940, -6.3, 139
4660, 1940, 0, 139
4661, 1940, -6.3, 156.75
4662, 1940, 0, 156.75
4663, 1940, -6.3, 174.5
4664, 1940, 0, 174.5
4665, 1940, -6.3, 192.25
4666, 1940, 0, 192.25
4667, 1940, -6.3, 210
4668, 1940, 0, 210
4669, 1940, 6.3, 121.25
4670, 1940, 6.3, 139
4671, 1940, 6.3, 156.75
4672, 1940, 6.3, 174.5
4673, 1940, 6.3, 192.25
4674, 1940, 6.3, 210
4675, 1940, -77.85, 210
4676, 1940, -59.9625, 210
4677, 1940, -77.85, 220
4678, 1940, -59.9625, 220
4679, 1940, -77.85, 230
4680, 1940, -59.9625, 230
4681, 1940, -42.075, 210
4682, 1940, -42.075, 220
4683, 1940, -42.075, 230
4684, 1940, -24.1875, 210
4685, 1940, -24.1875, 220
4686, 1940, -24.1875, 230
4687, 1940, -6.3, 220
4688, 1940, -6.3, 230
4689, 1940, 0, 220
4690, 1940, 0, 230
4691, 1940, 6.3, 220
4692, 1940, 6.3, 230
4693, 1940, 24.1875, 210
4694, 1940, 24.1875, 220
4695, 1940, 24.1875, 230
4696, 1940, 42.075, 210
4697, 1940, 42.075, 220
4698, 1940, 42.075, 230
4699, 1940, 59.9625, 210
4700, 1940, 59.9625, 220
4701, 1940, 59.9625, 230
4702, 1940, 77.85, 210
4703, 1940, 77.85, 220
4704, 1940, 77.85, 230
4705, 1960, -6.2, 122.5
4706, 1960, 0, 122.5
4707, 1960, -6.2, 140
4708, 1960, 0, 140
4709, 1960, -6.2, 157.5
4710, 1960, 0, 157.5
4711, 1960, -6.2, 175
4712, 1960, 0, 175
4713, 1960, -6.2, 192.5
4714, 1960, 0, 192.5
4715, 1960, -6.2, 210
4716, 1960, 0, 210
4717, 1960, 6.2, 122.5
4718, 1960, 6.2, 140
4719, 1960, 6.2, 157.5
4720, 1960, 6.2, 175
4721, 1960, 6.2, 192.5
4722, 1960, 6.2, 210
4723, 1960, -76.9, 210
4724, 1960, -59.225, 210
4725, 1960, -76.9, 220
4726, 1960, -59.225, 220
4727, 1960, -76.9, 230
4728, 1960, -59.225, 230
4729, 1960, -41.55, 210
4730, 1960, -41.55, 220
4731, 1960, -41.55, 230
4732, 1960, -23.875, 210
4733, 1960, -23.875, 220
4734, 1960, -23.875, 230
4735, 1960, -6.2, 220
4736, 1960, -6.2, 230
4737, 1960, 0, 220
4738, 1960, 0, 230
4739, 1960, 6.2, 220
4740, 1960, 6.2, 230
4741, 1960, 23.875, 210
4742, 1960, 23.875, 220
4743, 1960, 23.875, 230
4744, 1960, 41.55, 210
4745, 1960, 41.55, 220
4746, 1960, 41.55, 230
4747, 1960, 59.225, 210
4748, 1960, 59.225, 220
4749, 1960, 59.225, 230
4750, 1960, 76.9, 210
4751, 1960, 76.9, 220
4752, 1960, 76.9, 230
4753, 1980, -6.1, 123.75
4754, 1980, 0, 123.75
4755, 1980, -6.1, 141
4756, 1980, 0, 141
4757, 1980, -6.1, 158.25
4758, 1980, 0, 158.25
4759, 1980, -6.1, 175.5
4760, 1980, 0, 175.5
4761, 1980, -6.1, 192.75
4762, 1980, 0, 192.75
4763, 1980, -6.1, 210
4764, 1980, 0, 210
4765, 1980, 6.1, 123.75
4766, 1980, 6.1, 141
4767, 1980, 6.1, 158.25
4768, 1980, 6.1, 175.5
4769, 1980, 6.1, 192.75
4770, 1980, 6.1, 210
4771, 1980, -75.95, 210
4772, 1980, -58.4875, 210
4773, 1980, -75.95, 220
4774, 1980, -58.4875, 220
4775, 1980, -75.95, 230
4776, 1980, -58.4875, 230
4777, 1980, -41.025, 210
4778, 1980, -41.025, 220
4779, 1980, -41.025, 230
4780, 1980, -23.5625, 210
4781, 1980, -23.5625, 220
4782, 1980, -23.5625, 230
4783, 1980, -6.1, 220
4784, 1980, -6.1, 230
4785, 1980, 0, 220
4786, 1980, 0, 230
4787, 1980, 6.1, 220
4788, 1980, 6.1, 230
4789, 1980, 23.5625, 210
4790, 1980, 23.5625, 220
4791, 1980, 23.5625, 230
4792, 1980, 41.025, 210
4793, 1980, 41.025, 220
4794, 1980, 41.025, 230
4795, 1980, 58.4875, 210
4796, 1980, 58.4875, 220
4797, 1980, 58.4875, 230
4798, 1980, 75.95, 210
4799, 1980, 75.95, 220
4800, 1980, 75.95, 230
4801, 2000, -6, 125
4802, 2000, 0, 125
4803, 2000, -6, 142
4804, 2000, 0, 142
4805, 2000, -6, 159
4806, 2000, 0, 159
4807, 2000, -6, 176
4808, 2000, 0, 176
4809, 2000, -6, 193
4810, 2000, 0, 193
4811, 2000, -6, 210
4812, 2000, 0, 210
4813, 2000, 6, 125
4814, 2000, 6, 142
4815, 2000, 6, 159
4816, 2000, 6, 176
4817, 2000, 6, 193
4818, 2000, 6, 210
4819, 2000, -75, 210
4820, 2000, -57.75, 210
4821, 2000, -75, 220
4822, 2000, -57.75, 220
4823, 2000, -75, 230
4824, 2000, -57.75, 230
4825, 2000, -40.5, 210
4826, 2000, -40.5, 220
4827, 2000, -40.5, 230
4828, 2000, -23.25, 210
4829, 2000, -23.25, 220
4830, 2000, -23.25, 230
4831, 2000, -6, 220
4832, 2000, -6, 230
4833, 2000, 0, 220
4834, 2000, 0, 230
4835, 2000, 6, 220
4836, 2000, 6, 230
4837, 2000, 23.25, 210
4838, 2000, 23.25, 220
4839, 2000, 23.25, 230
4840, 2000, 40.5, 210
4841, 2000, 40.5, 220
4842, 2000, 40.5, 230
4843, 2000, 57.75, 210
4844, 2000, 57.75, 220
4845, 2000, 57.75, 230
4846, 2000, 75, 210
4847, 2000, 75, 220
4848, 2000, 75, 230
*ELEMENT, TYPE=C3D8, ELSET=EALL
1, 1, 2, 3, 4, 5, 6, 7, 8
2, 5, 6, 7, 8, 9, 10, 11, 12
3, 9, 10, 11, 12, 13, 14, 15, 16
4, 13, 14, 15, 16, 17, 18, 19, 20
5, 17, 18, 19, 20, 21, 22, 23, 24
6, 4, 3, 25, 26, 8, 7, 27, 28
7, 8, 7, 27, 28, 12, 11, 29, 30
8, 12, 11, 29, 30, 16, 15, 31, 32
9, 16, 15, 31, 32, 20, 19, 33, 34
10, 20, 19, 33, 34, 24, 23, 35, 36
11, 37, 38, 39, 40, 41, 42, 43, 44
12, 41, 42, 43, 44, 45, 46, 47, 48
13, 40, 39, 49, 50, 44, 43, 51, 52
14, 44, 43, 51, 52, 48, 47, 53, 54
15, 50, 49, 55, 56, 52, 51, 57, 58
16, 52, 51, 57, 58, 54, 53, 59, 60
17, 56, 55, 22, 21, 58, 57, 61, 62
18, 58, 57, 61, 62, 60, 59, 63, 64
19, 21, 22, 23, 24, 62, 61, 65, 66
20, 62, 61, 65, 66, 64, 63, 67, 68
21, 24, 23, 35, 36, 66, 65, 69, 70
22, 66, 65, 69, 70, 68, 67, 71, 72
23, 36, 35, 73, 74, 70, 69, 75, 76
24, 70, 69, 75, 76, 72, 71, 77, 78
25, 74, 73, 79, 80, 76, 75, 81, 82
26, 76, 75, 81, 82, 78, 77, 83, 84
27, 80, 79, 85, 86, 82, 81, 87, 88
28, 82, 81, 87, 88, 84, 83, 89, 90
29, 86, 85, 91, 92, 88, 87, 93, 94
30, 88, 87, 93, 94, 90, 89, 95, 96
31, 2, 97, 98, 3, 6, 99, 100, 7
32, 6, 99, 100, 7, 10, 101, 102, 11
33, 10, 101, 102, 11, 14, 103, 104, 15
34, 14, 103, 104, 15, 18, 105, 106, 19
35, 18, 105, 106, 19, 22, 107, 108, 23
36, 3, 98, 109, 25, 7, 100, 110, 27
37, 7, 100, 110, 27, 11, 102, 111, 29
38, 11, 102, 111, 29, 15, 104, 112, 31
39, 15, 104, 112, 31, 19, 106, 113, 33
40, 19, 106, 113, 33, 23, 108, 114, 35
41, 38, 115, 116, 39, 42, 117, 118, 43
42, 42, 117, 118, 43, 46, 119, 120, 47
43, 39, 116, 121, 49, 43, 118, 122, 51
44, 43, 118, 122, 51, 47, 120, 123, 53
45, 49, 121, 124, 55, 51, 122, 125, 57
46, 51, 122, 125, 57, 53, 123, 126, 59
47, 55, 124, 107, 22, 57, 125, 127, 61
48, 57, 125, 127, 61, 59, 126, 128, 63
49, 22, 107, 108, 23, 61, 127, 129, 65
50, 61, 127, 129, 65, 63, 128, 130, 67
51, 23, 108, 114, 35, 65, 129, 131, 69
52, 65, 129, 131, 69, 67, 130, 132, 71
53, 35, 114, 133, 73, 69, 131, 134, 75
54, 69, 131, 134, 75, 71, 132, 135, 77
55, 73, 133, 136, 79, 75, 134, 137, 81
56, 75, 134, 137, 81, 77, 135, 138, 83
57, 79, 136, 139, 85, 81, 137, 140, 87
58, 81, 137, 140, 87, 83, 138, 141, 89
59, 85, 139, 142, 91, 87, 140, 143, 93
60, 87, 140, 143, 93, 89, 141, 144, 95
61, 97, 145, 146, 98, 99, 147, 148, 100
62, 99, 147, 148, 100, 101, 149, 150, 102
63, 101, 149, 150, 102, 103, 151, 152, 104
64, 103, 151, 152, 104, 105, 153, 154, 106
65, 105, 153, 154, 106, 107, 155, 156, 108
66, 98, 146, 157, 109, 100, 148, 158, 110
67, 100, 148, 158, 110, 102, 150, 159, 111
68, 102, 150, 159, 111, 104, 152, 160, 112
69, 104, 152, 160, 112, 106, 154, 161, 113
70, 106, 154, 161, 113, 108, 156, 162, 114
71, 115, 163, 164, 116, 117, 165, 166, 118
72, 117, 165, 166, 118, 119, 167, 168, 120
73, 116, 164, 169, 121, 118, 166, 170, 122
74, 118, 166, 170, 122, 120, 168, 171, 123
75, 121, 169, 172, 124, 122, 170, 173, 125
76, 122, 170, 173, 125, 123, 171, 174, 126
77, 124, 172, 155, 107, 125, 173, 175, 127
78, 125, 173, 175, 127, 126, 174, 176, 128
79, 107, 155, 156, 108, 127, 175, 177, 129
80, 127, 175, 177, 129, 128, 176, 178, 130
81, 108, 156, 162, 114, 129, 177, 179, 131
82, 129, 177, 179, 131, 130, 178, 180, 132
83, 114, 162, 181, 133, 131, 179, 182, 134
84, 131, 179, 182, 134, 132, 180, 183, 135
85, 133, 181, 184, 136, 134, 182, 185, 137
86, 134, 182, 185, 137, 135, 183, 186, 138
87, 136, 184, 187, 139, 137, 185, 188, 140
88, 137, 185, 188, 140, 138, 186, 189, 141
89, 139, 187, 190, 142, 140, 188, 191, 143
90, 140, 188, 191, 143, 141, 189, 192, 144
91, 145, 193, 194, 146, 147, 195, 196, 148
92, 147, 195, 196, 148, 149, 197, 198, 150
93, 149, 197, 198, 150, 151, 199, 200, 152
94, 151, 199, 200, 152, 153, 201, 202, 154
95, 153, 201, 202, 154, 155, 203, 204, 156
96, 146, 194, 205, 157, 148, 196, 206, 158
97, 148, 196, 206, 158, 150, 198, 207, 159
98, 150, 198, 207, 159, 152, 200, 208, 160
99, 152, 200, 208, 160, 154, 202, 209, 161
100, 154, 202, 209, 161, 156, 204, 210, 162
101, 163, 211, 212, 164, 165, 213, 214, 166
102, 165, 213, 214, 166, 167, 215, 216, 168
103, 164, 212, 217, 169, 166, 214, 218, 170
104, 166, 214, 218, 170, 168, 216, 219, 171
105, 169, 217, 220, 172, 170, 218, 221, 173
106, 170, 218, 221, 173, 171, 219, 222, 174
107, 172, 220, 203, 155, 173, 221, 223, 175
108, 173, 221, 223, 175, 174, 222, 224, 176
109, 155, 203, 204, 156, 175, 223, 225, 177
110, 175, 223, 225, 177, 176, 224, 226, 178
111, 156, 204, 210, 162, 177, 225, 227, 179
112, 177, 225, 227, 179, 178, 226, 228, 180
113, 162, 210, 229, 181, 179, 227, 230, 182
114, 179, 227, 230, 182, 180, 228, 231, 183
115, 181, 229, 232, 184, 182, 230, 233, 185
116, 182, 230, 233, 185, 183, 231, 234, 186
117, 184, 232, 235, 187, 185, 233, 236, 188
118, 185, 233, 236, 188, 186, 234, 237, 189
119, 187, 235, 238, 190, 188, 236, 239, 191
120, 188, 236, 239, 191, 189, 237, 240, 192
121, 193, 241, 242, 194, 195, 243, 244, 196
122, 195, 243, 244, 196, 197, 245, 246, 198
123, 197, 245, 246, 198, 199, 247, 248, 200
124, 199, 247, 248, 200, 201, 249, 250, 202
125, 201, 249, 250, 202, 203, 251, 252, 204
126, 194, 242, 253, 205, 196, 244, 254, 206
127, 196, 244, 254, 206, 198, 246, 255, 207
128, 198, 246, 255, 207, 200, 248, 256, 208
129, 200, 248, 256, 208, 202, 250, 257, 209
130, 202, 250, 257, 209, 204, 252, 258, 210
131, 211, 259, 260, 212, 213, 261, 262, 214
132, 213, 261, 262, 214, 215, 263, 264, 216
133, 212, 260, 265, 217, 214, 262, 266, 218
134, 214, 262, 266, 218, 216, 264, 267, 219
135, 217, 265, 268, 220, 218, 266, 269, 221
136, 218, 266, 269, 221, 219, 267, 270, 222
137, 220, 268, 251, 203, 221, 269, 271, 223
138, 221, 269, 271, 223, 222, 270, 272, 224
139, 203, 251, 252, 204, 223, 271, 273, 225
140, 223, 271, 273, 225, 224, 272, 274, 226
141, 204, 252, 258, 210, 225, 273, 275, 227
142, 225, 273, 275, 227, 226, 274, 276, 228
143, 210, 258, 277, 229, 227, 275, 278, 230
144, 227, 275, 278, 230, 228, 276, 279, 231
145, 229, 277, 280, 232, 230, 278, 281, 233
146, 230, 278, 281, 233, 231, 279, 282, 234
147, 232, 280, 283, 235, 233, 281, 284, 236
148, 233, 281, 284, 236, 234, 282, 285, 237
149, 235, 283, 286, 238, 236, 284, 287, 239
150, 236, 284, 287, 239, 237, 285, 288, 240
151, 241, 289, 290, 242, 243, 291, 292, 244
152, 243, 291, 292, 244, 245, 293, 294, 246
153, 245, 293, 294, 246, 247, 295, 296, 248
154, 247, 295, 296, 248, 249, 297, 298, 250
155, 249, 297, 298, 250, 251, 299, 300, 252
156, 242, 290, 301, 253, 244, 292, 302, 254
157, 244, 292, 302, 254, 246, 294, 303, 255
158, 246, 294, 303, 255, 248, 296, 304, 256
159, 248, 296, 304, 256, 250, 298, 305, 257
160, 250, 298, 305, 257, 252, 300, 306, 258
161, 259, 307, 308, 260, 261, 309, 310, 262
162, 261, 309, 310, 262, 263, 311, 312, 264
163, 260, 308, 313, 265, 262, 310, 314, 266
164, 262, 310, 314, 266, 264, 312, 315, 267
165, 265, 313, 316, 268, 266, 314, 317, 269
166, 266, 314, 317, 269, 267, 315, 318, 270
167, 268, 316, 299, 251, 269, 317, 319, 271
168, 269, 317, 319, 271, 270, 318, 320, 272
169, 251, 299, 300, 252, 271, 319, 321, 273
170, 271, 319, 321, 273, 272, 320, 322, 274
171, 252, 300, 306, 258, 273, 321, 323, 275
172, 273, 321, 323, 275, 274, 322, 324, 276
173, 258, 306, 325, 277, 275, 323, 326, 278
174, 275, 323, 326, 278, 276, 324, 327, 279
175, 277, 325, 328, 280, 278, 326, 329, 281
176, 278, 326, 329, 281, 279, 327, 330, 282
177, 280, 328, 331, 283, 281, 329, 332, 284
178, 281, 329, 332, 284, 282, 330, 333, 285
179, 283, 331, 334, 286, 284, 332, 335, 287
180, 284, 332, 335, 287, 285, 333, 336, 288
181, 289, 337, 338, 290, 291, 339, 340, 292
182, 291, 339, 340, 292, 293, 341, 342, 294
183, 293, 341, 342, 294, 295, 343, 344, 296
184, 295, 343, 344, 296, 297, 345, 346, 298
185, 297, 345, 346, 298, 299, 347, 348, 300
186, 290, 338, 349, 301, 292, 340, 350, 302
187, 292, 340, 350, 302, 294, 342, 351, 303
188, 294, 342, 351, 303, 296, 344, 352, 304
189, 296, 344, 352, 304, 298, 346, 353, 305
190, 298, 346, 353, 305, 300, 348, 354, 306
191, 307, 355, 356, 308, 309, 357, 358, 310
192, 309, 357, 358, 310, 311, 359, 360, 312
193, 308, 356, 361, 313, 310, 358, 362, 314
194, 310, 358, 362, 314, 312, 360, 363, 315
195, 313, 361, 364, 316, 314, 362, 365, 317
196, 314, 362, 365, 317, 315, 363, 366, 318
197, 316, 364, 347, 299, 317, 365, 367, 319
198, 317, 365, 367, 319, 318, 366, 368, 320
199, 299, 347, 348, 300, 319, 367, 369, 321
200, 319, 367, 369, 321, 320, 368, 370, 322
201, 300, 348, 354, 306, 321, 369, 371, 323
202, 321, 369, 371, 323, 322, 370, 372, 324
203, 306, 354, 373, 325, 323, 371, 374, 326
204, 323, 371, 374, 326, 324, 372, 375, 327
205, 325, 373, 376, 328, 326, 374, 377, 329
206, 326, 374, 377, 329, 327, 375, 378, 330
207, 328, 376, 379, 331, 329, 377, 380, 332
208, 329, 377, 380, 332, 330, 378, 381, 333
209, 331, 379, 382, 334, 332, 380, 383, 335
210, 332, 380, 383, 335, 333, 381, 384, 336
211, 337, 385, 386, 338, 339, 387, 388, 340
212, 339, 387, 388, 340, 341, 389, 390, 342
213, 341, 389, 390, 342, 343, 391, 392, 344
214, 343, 391, 392, 344, 345, 393, 394, 346
215, 345, 393, 394, 346, 347, 395, 396, 348
216, 338, 386, 397, 349, 340, 388, 398, 350
217, 340, 388, 398, 350, 342, 390, 399, 351
218, 342, 390, 399, 351, 344, 392, 400, 352
219, 344, 392, 400, 352, 346, 394, 401, 353
220, 346, 394, 401, 353, 348, 396, 402, 354
221, 355, 403, 404, 356, 357, 405, 406, 358
222, 357, 405, 406, 358, 359, 407, 408, 360
223, 356, 404, 409, 361, 358, 406, 410, 362
224, 358, 406, 410, 362, 360, 408, 411, 363
225, 361, 409, 412, 364, 362, 410, 413, 365
226, 362, 410, 413, 365, 363, 411, 414, 366
227, 364, 412, 395, 347, 365, 413, 415, 367
228, 365, 413, 415, 367, 366, 414, 416, 368
229, 347, 395, 396, 348, 367, 415, 417, 369
230, 367, 415, 417, 369, 368, 416, 418, 370
231, 348, 396, 402, 354, 369, 417, 419, 371
232, 369, 417, 419, 371, 370, 418, 420, 372
233, 354, 402, 421, 373, 371, 419, 422, 374
234, 371, 419, 422, 374, 372, 420, 423, 375
235, 373, 421, 424, 376, 374, 422, 425, 377
236, 374, 422, 425, 377, 375, 423, 426, 378
237, 376, 424, 427, 379, 377, 425, 428, 380
238, 377, 425, 428, 380, 378, 426, 429, 381
239, 379, 427, 430, 382, 380, 428, 431, 383
240, 380, 428, 431, 383, 381, 429, 432, 384
241, 385, 433, 434, 386, 387, 435, 436, 388
242, 387, 435, 436, 388, 389, 437, 438, 390
243, 389, 437, 438, 390, 391, 439, 440, 392
244, 391, 439, 440, 392, 393, 441, 442, 394
245, 393, 441, 442, 394, 395, 443, 444, 396
246, 386, 434, 445, 397, 388, 436, 446, 398
247, 388, 436, 446, 398, 390, 438, 447, 399
248, 390, 438, 447, 399, 392, 440, 448, 400
249, 392, 440, 448, 400, 394, 442, 449, 401
250, 394, 442, 449, 401, 396, 444, 450, 402
251, 403, 451, 452, 404, 405, 453, 454, 406
252, 405, 453, 454, 406, 407, 455, 456, 408
253, 404, 452, 457, 409, 406, 454, 458, 410
254, 406, 454, 458, 410, 408, 456, 459, 411
255, 409, 457, 460, 412, 410, 458, 461, 413
256, 410, 458, 461, 413, 411, 459, 462, 414
257, 412, 460, 443, 395, 413, 461, 463, 415
258, 413, 461, 463, 415, 414, 462, 464, 416
259, 395, 443, 444, 396, 415, 463, 465, 417
260, 415, 463, 465, 417, 416, 464, 466, 418
261, 396, 444, 450, 402, 417, 465, 467, 419
262, 417, 465, 467, 419, 418, 466, 468, 420
263, 402, 450, 469, 421, 419, 467, 470, 422
264, 419, 467, 470, 422, 420, 468, 471, 423
265, 421, 469, 472, 424, 422, 470, 473, 425
266, 422, 470, 473, 425, 423, 471, 474, 426
267, 424, 472, 475, 427, 425, 473, 476, 428
268, 425, 473, 476, 428, 426, 474, 477, 429
269, 427, 475, 478, 430, 428, 476, 479, 431
270, 428, 476, 479, 431, 429, 477, 480, 432
271, 433, 481, 482, 434, 435, 483, 484, 436
272, 435, 483, 484, 436, 437, 485, 486, 438
273, 437, 485, 486, 438, 439, 487, 488, 440
274, 439, 487, 488, 440, 441, 489, 490, 442
275, 441, 489, 490, 442, 443, 491, 492, 444
276, 434, 482, 493, 445, 436, 484, 494, 446
277, 436, 484, 494, 446, 438, 486, 495, 447
278, 438, 486, 495, 447, 440, 488, 496, 448
279, 440, 488, 496, 448, 442, 490, 497, 449
280, 442, 490, 497, 449, 444, 492, 498, 450
281, 451, 499, 500, 452, 453, 501, 502, 454
282, 453, 501, 502, 454, 455, 503, 504, 456
283, 452, 500, 505, 457, 454, 502, 506, 458
284, 454, 502, 506, 458, 456, 504, 507, 459
285, 457, 505, 508, 460, 458, 506, 509, 461
286, 458, 506, 509, 461, 459, 507, 510, 462
287, 460, 508, 491, 443, 461, 509, 511, 463
288, 461, 509, 511, 463, 462, 510, 512, 464
289, 443, 491, 492, 444, 463, 511, 513, 465
290, 463, 511, 513, 465, 464, 512, 514, 466
291, 444, 492, 498, 450, 465, 513, 515, 467
292, 465, 513, 515, 467, 466, 514, 516, 468
293, 450, 498, 517, 469, 467, 515, 518, 470
294, 467, 515, 518, 470, 468, 516, 519, 471
295, 469, 517, 520, 472, 470, 518, 521, 473
296, 470, 518, 521, 473, 471, 519, 522, 474
297, 472, 520, 523, 475, 473, 521, 524, 476
298, 473, 521, 524, 476, 474, 522, 525, 477
299, 475, 523, 526, 478, 476, 524, 527, 479
300, 476, 524, 527, 479, 477, 525, 528, 480
301, 481, 529, 530, 482, 483, 531, 532, 484
302, 483, 531, 532, 484, 485, 533, 534, 486
303, 485, 533, 534, 486, 487, 535, 536, 488
304, 487, 535, 536, 488, 489, 537, 538, 490
305, 489, 537, 538, 490, 491, 539, 540, 492
306, 482, 530, 541, 493, 484, 532, 542, 494
307, 484, 532, 542, 494, 486, 534, 543, 495
308, 486, 534, 543, 495, 488, 536, 544, 496
309, 488, 536, 544, 496, 490, 538, 545, 497
310, 490, 538, 545, 497, 492, 540, 546, 498
311, 499, 547, 548, 500, 501, 549, 550, 502
312, 501, 549, 550, 502, 503, 551, 552, 504
313, 500, 548, 553, 505, 502, 550, 554, 506
314, 502, 550, 554, 506, 504, 552, 555, 507
315, 505, 553, 556, 508, 506, 554, 557, 509
316, 506, 554, 557, 509, 507, 555, 558, 510
317, 508, 556, 539, 491, 509, 557, 559, 511
318, 509, 557, 559, 511, 510, 558, 560, 512
319, 491, 539, 540, 492, 511, 559, 561, 513
320, 511, 559, 561, 513, 512, 560, 562, 514
321, 492, 540, 546, 498, 513, 561, 563, 515
322, 513, 561, 563, 515, 514, 562, 564, 516
323, 498, 546, 565, 517, 515, 563, 566, 518
324, 515, 563, 566, 518, 516, 564, 567, 519
325, 517, 565, 568, 520, 518, 566, 569, 521
326, 518, 566, 569, 521, 519, 567, 570, 522
327, 520, 568, 571, 523, 521, 569, 572, 524
328, 521, 569, 572, 524, 522, 570, 573, 525
329, 523, 571, 574, 526, 524, 572, 575, 527
330, 524, 572, 575, 527, 525, 573, 576, 528
331, 529, 577, 578, 530, 531, 579, 580, 532
332, 531, 579, 580, 532, 533, 581, 582, 534
333, 533, 581, 582, 534, 535, 583, 584, 536
334, 535, 583, 584, 536, 537, 585, 586, 538
335, 537, 585, 586, 538, 539, 587, 588, 540
336, 530, 578, 589, 541, 532, 580, 590, 542
337, 532, 580, 590, 542, 534, 582, 591, 543
338, 534, 582, 591, 543, 536, 584, 592, 544
339, 536, 584, 592, 544, 538, 586, 593, 545
340, 538, 586, 593, 545, 540, 588, 594, 546
341, 547, 595, 596, 548, 549, 597, 598, 550
342, 549, 597, 598, 550, 551, 599, 600, 552
343, 548, 596, 601, 553, 550, 598, 602, 554
344, 550, 598, 602, 554, 552, 600, 603, 555
345, 553, 601, 604, 556, 554, 602, 605, 557
346, 554, 602, 605, 557, 555, 603, 606, 558
347, 556, 604, 587, 539, 557, 605, 607, 559
348, 557, 605, 607, 559, 558, 606, 608, 560
349, 539, 587, 588, 540, 559, 607, 609, 561
350, 559, 607, 609, 561, 560, 608, 610, 562
351, 540, 588, 594, 546, 561, 609, 611, 563
352, 561, 609, 611, 563, 562, 610, 612, 564
353, 546, 594, 613, 565, 563, 611, 614, 566
354, 563, 611, 614, 566, 564, 612, 615, 567
355, 565, 613, 616, 568, 566, 614, 617, 569
356, 566, 614, 617, 569, 567, 615, 618, 570
357, 568, 616, 619, 571, 569, 617, 620, 572
358, 569, 617, 620, 572, 570, 618, 621, 573
359, 571, 619, 622, 574, 572, 620, 623, 575
360, 572, 620, 623, 575, 573, 621, 624, 576
361, 577, 625, 626, 578, 579, 627, 628, 580
362, 579, 627, 628, 580, 581, 629, 630, 582
363, 581, 629, 630, 582, 583, 631, 632, 584
364, 583, 631, 632, 584, 585, 633, 634, 586
365, 585, 633, 634, 586, 587, 635, 636, 588
366, 578, 626, 637, 589, 580, 628, 638, 590
367, 580, 628, 638, 590, 582, 630, 639, 591
368, 582, 630, 639, 591, 584, 632, 640, 592
369, 584, 632, 640, 592, 586, 634, 641, 593
370, 586, 634, 641, 593, 588, 636, 642, 594
371, 595, 643, 644, 596, 597, 645, 646, 598
372, 597, 645, 646, 598, 599, 647, 648, 600
373, 596, 644, 649, 601, 598, 646, 650, 602
374, 598, 646, 650, 602, 600, 648, 651, 603
375, 601, 649, 652, 604, 602, 650, 653, 605
376, 602, 650, 653, 605, 603, 651, 654, 606
377, 604, 652, 635, 587, 605, 653, 655, 607
378, 605, 653, 655, 607, 606, 654, 656, 608
379, 587, 635, 636, 588, 607, 655, 657, 609
380, 607, 655, 657, 609, 608, 656, 658, 610
381, 588, 636, 642, 594, 609, 657, 659, 611
382, 609, 657, 659, 611, 610, 658, 660, 612
383, 594, 642, 661, 613, 611, 659, 662, 614
384, 611, 659, 662, 614, 612, 660, 663, 615
385, 613, 661, 664, 616, 614, 662, 665, 617
386, 614, 662, 665, 617, 615, 663, 666, 618
387, 616, 664, 667, 619, 617, 665, 668, 620
388, 617, 665, 668, 620, 618, 666, 669, 621
389, 619, 667, 670, 622, 620, 668, 671, 623
390, 620, 668, 671, 623, 621, 669, 672, 624
391, 625, 673, 674, 626, 627, 675, 676, 628
392, 627, 675, 676, 628, 629, 677, 678, 630
393, 629, 677, 678, 630, 631, 679, 680, 632
394, 631, 679, 680, 632, 633, 681, 682, 634
395, 633, 681, 682, 634, 635, 683, 684, 636
396, 626, 674, 685, 637, 628, 676, 686, 638
397, 628, 676, 686, 638, 630, 678, 687, 639
398, 630, 678, 687, 639, 632, 680, 688, 640
399, 632, 680, 688, 640, 634, 682, 689, 641
400, 634, 682, 689, 641, 636, 684, 690, 642
401, 643, 691, 692, 644, 645, 693, 694, 646
402, 645, 693, 694, 646, 647, 695, 696, 648
403, 644, 692, 697, 649, 646, 694, 698, 650
404, 646, 694, 698, 650, 648, 696, 699, 651
405, 649, 697, 700, 652, 650, 698, 701, 653
406, 650, 698, 701, 653, 651, 699, 702, 654
407, 652, 700, 683, 635, 653, 701, 703, 655
408, 653, 701, 703, 655, 654, 702, 704, 656
409, 635, 683, 684, 636, 655, 703, 705, 657
410, 655, 703, 705, 657, 656, 704, 706, 658
411, 636, 684, 690, 642, 657, 705, 707, 659
412, 657, 705, 707, 659, 658, 706, 708, 660
413, 642, 690, 709, 661, 659, 707, 710, 662
414, 659, 707, 710, 662, 660, 708, 711, 663
415, 661, 709, 712, 664, 662, 710, 713, 665
416, 662, 710, 713, 665, 663, 711, 714, 666
417, 664, 712, 715, 667, 665, 713, 716, 668
418, 665, 713, 716, 668, 666, 714, 717, 669
419, 667, 715, 718, 670, 668, 716, 719, 671
420, 668, 716, 719, 671, 669, 717, 720, 672
421, 673, 721, 722, 674, 675, 723, 724, 676
422, 675, 723, 724, 676, 677, 725, 726, 678
423, 677, 725, 726, 678, 679, 727, 728, 680
424, 679, 727, 728, 680, 681, 729, 730, 682
425, 681, 729, 730, 682, 683, 731, 732, 684
426, 674, 722, 733, 685, 676, 724, 734, 686
427, 676, 724, 734, 686, 678, 726, 735, 687
428, 678, 726, 735, 687, 680, 728, 736, 688
429, 680, 728, 736, 688, 682, 730, 737, 689
430, 682, 730, 737, 689, 684, 732, 738, 690
431, 691, 739, 740, 692, 693, 741, 742, 694
432, 693, 741, 742, 694, 695, 743, 744, 696
433, 692, 740, 745, 697, 694, 742, 746, 698
434, 694, 742, 746, 698, 696, 744, 747, 699
435, 697, 745, 748, 700, 698, 746, 749, 701
436, 698, 746, 749, 701, 699, 747, 750, 702
437, 700, 748, 731, 683, 701, 749, 751, 703
438, 701, 749, 751, 703, 702, 750, 752, 704
439, 683, 731, 732, 684, 703, 751, 753, 705
440, 703, 751, 753, 705, 704, 752, 754, 706
441, 684, 732, 738, 690, 705, 753, 755, 707
442, 705, 753, 755, 707, 706, 754, 756, 708
443, 690, 738, 757, 709, 707, 755, 758, 710
444, 707, 755, 758, 710, 708, 756, 759, 711
445, 709, 757, 760, 712, 710, 758, 761, 713
446, 710, 758, 761, 713, 711, 759, 762, 714
447, 712, 760, 763, 715, 713, 761, 764, 716
448, 713, 761, 764, 716, 714, 762, 765, 717
449, 715, 763, 766, 718, 716, 764, 767, 719
450, 716, 764, 767, 719, 717, 765, 768, 720
451, 721, 769, 770, 722, 723, 771, 772, 724
452, 723, 771, 772, 724, 725, 773, 774, 726
453, 725, 773, 774, 726, 727, 775, 776, 728
454, 727, 775, 776, 728, 729, 777, 778, 730
455, 729, 777, 778, 730, 731, 779, 780, 732
456, 722, 770, 781, 733, 724, 772, 782, 734
457, 724, 772, 782, 734, 726, 774, 783, 735
458, 726, 774, 783, 735, 728, 776, 784, 736
459, 728, 776, 784, 736, 730, 778, 785, 737
460, 730, 778, 785, 737, 732, 780, 786, 738
461, 739, 787, 788, 740, 741, 789, 790, 742
462, 741, 789, 790, 742, 743, 791, 792, 744
463, 740, 788, 793, 745, 742, 790, 794, 746
464, 742, 790, 794, 746, 744, 792, 795, 747
465, 745, 793, 796, 748, 746, 794, 797, 749
466, 746, 794, 797, 749, 747, 795, 798, 750
467, 748, 796, 779, 731, 749, 797, 799, 751
468, 749, 797, 799, 751, 750, 798, 800, 752
469, 731, 779, 780, 732, 751, 799, 801, 753
470, 751, 799, 801, 753, 752, 800, 802, 754
471, 732, 780, 786, 738, 753, 801, 803, 755
472, 753, 801, 803, 755, 754, 802, 804, 756
473, 738, 786, 805, 757, 755, 803, 806, 758
474, 755, 803, 806, 758, 756, 804, 807, 759
475, 757, 805, 808, 760, 758, 806, 809, 761
476, 758, 806, 809, 761, 759, 807, 810, 762
477, 760, 808, 811, 763, 761, 809, 812, 764
478, 761, 809, 812, 764, 762, 810, 813, 765
479, 763, 811, 814, 766, 764, 812, 815, 767
480, 764, 812, 815, 767, 765, 813, 816, 768
481, 769, 817, 818, 770, 771, 819, 820, 772
482, 771, 819, 820, 772, 773, 821, 822, 774
483, 773, 821, 822, 774, 775, 823, 824, 776
484, 775, 823, 824, 776, 777, 825, 826, 778
485, 777, 825, 826, 778, 779, 827, 828, 780
486, 770, 818, 829, 781, 772, 820, 830, 782
487, 772, 820, 830, 782, 774, 822, 831, 783
488, 774, 822, 831, 783, 776, 824, 832, 784
489, 776, 824, 832, 784, 778, 826, 833, 785
490, 778, 826, 833, 785, 780, 828, 834, 786
491, 787, 835, 836, 788, 789, 837, 838, 790
492, 789, 837, 838, 790, 791, 839, 840, 792
493, 788, 836, 841, 793, 790, 838, 842, 794
494, 790, 838, 842, 794, 792, 840, 843, 795
495, 793, 841, 844, 796, 794, 842, 845, 797
496, 794, 842, 845, 797, 795, 843, 846, 798
497, 796, 844, 827, 779, 797, 845, 847, 799
498, 797, 845, 847, 799, 798, 846, 848, 800
499, 779, 827, 828, 780, 799, 847, 849, 801
500, 799, 847, 849, 801, 800, 848, 850, 802
501, 780, 828, 834, 786, 801, 849, 851, 803
502, 801, 849, 851, 803, 802, 850, 852, 804
503, 786, 834, 853, 805, 803, 851, 854, 806
504, 803, 851, 854, 806, 804, 852, 855, 807
505, 805, 853, 856, 808, 806, 854, 857, 809
506, 806, 854, 857, 809, 807, 855, 858, 810
507, 808, 856, 859, 811, 809, 857, 860, 812
508, 809, 857, 860, 812, 810, 858, 861, 813
509, 811, 859, 862, 814, 812, 860, 863, 815
510, 812, 860, 863, 815, 813, 861, 864, 816
511, 817, 865, 866, 818, 819, 867, 868, 820
512, 819, 867, 868, 820, 821, 869, 870, 822
513, 821, 869, 870, 822, 823, 871, 872, 824
514, 823, 871, 872, 824, 825, 873, 874, 826
515, 825, 873, 874, 826, 827, 875, 876, 828
516, 818, 866, 877, 829, 820, 868, 878, 830
517, 820, 868, 878, 830, 822, 870, 879, 831
518, 822, 870, 879, 831, 824, 872, 880, 832
519, 824, 872, 880, 832, 826, 874, 881, 833
520, 826, 874, 881, 833, 828, 876, 882, 834
521, 835, 883, 884, 836, 837, 885, 886, 838
522, 837, 885, 886, 838, 839, 887, 888, 840
523, 836, 884, 889, 841, 838, 886, 890, 842
524, 838, 886, 890, 842, 840, 888, 891, 843
525, 841, 889, 892, 844, 842, 890, 893, 845
526, 842, 890, 893, 845, 843, 891, 894, 846
527, 844, 892, 875, 827, 845, 893, 895, 847
528, 845, 893, 895, 847, 846, 894, 896, 848
529, 827, 875, 876, 828, 847, 895, 897, 849
530, 847, 895, 897, 849, 848, 896, 898, 850
531, 828, 876, 882, 834, 849, 897, 899, 851
532, 849, 897, 899, 851, 850, 898, 900, 852
533, 834, 882, 901, 853, 851, 899, 902, 854
534, 851, 899, 902, 854, 852, 900, 903, 855
535, 853, 901, 904, 856, 854, 902, 905, 857
536, 854, 902, 905, 857, 855, 903, 906, 858
537, 856, 904, 907, 859, 857, 905, 908, 860
538, 857, 905, 908, 860, 858, 906, 909, 861
539, 859, 907, 910, 862, 860, 908, 911, 863
540, 860, 908, 911, 863, 861, 909, 912, 864
541, 865, 913, 914, 866, 867, 915, 916, 868
542, 867, 915, 916, 868, 869, 917, 918, 870
543, 869, 917, 918, 870, 871, 919, 920, 872
544, 871, 919, 920, 872, 873, 921, 922, 874
545, 873, 921, 922, 874, 875, 923, 924, 876
546, 866, 914, 925, 877, 868, 916, 926, 878
547, 868, 916, 926, 878, 870, 918, 927, 879
548, 870, 918, 927, 879, 872, 920, 928, 880
549, 872, 920, 928, 880, 874, 922, 929, 881
550, 874, 922, 929, 881, 876, 924, 930, 882
551, 883, 931, 932, 884, 885, 933, 934, 886
552, 885, 933, 934, 886, 887, 935, 936, 888
553, 884, 932, 937, 889, 886, 934, 938, 890
554, 886, 934, 938, 890, 888, 936, 939, 891
555, 889, 937, 940, 892, 890, 938, 941, 893
556, 890, 938, 941, 893, 891, 939, 942, 894
557, 892, 940, 923, 875, 893, 941, 943, 895
558, 893, 941, 943, 895, 894, 942, 944, 896
559, 875, 923, 924, 876, 895, 943, 945, 897
560, 895, 943, 945, 897, 896, 944, 946, 898
561, 876, 924, 930, 882, 897, 945, 947, 899
562, 897, 945, 947, 899, 898, 946, 948, 900
563, 882, 930, 949, 901, 899, 947, 950, 902
564, 899, 947, 950, 902, 900, 948, 951, 903
565, 901, 949, 952, 904, 902, 950, 953, 905
566, 902, 950, 953, 905, 903, 951, 954, 906
567, 904, 952, 955, 907, 905, 953, 956, 908
568, 905, 953, 956, 908, 906, 954, 957, 909
569, 907, 955, 958, 910, 908, 956, 959, 911
570, 908, 956, 959, 911, 909, 957, 960, 912
571, 913, 961, 962, 914, 915, 963, 964, 916
572, 915, 963, 964, 916, 917, 965, 966, 918
573, 917, 965, 966, 918, 919, 967, 968, 920
574, 919, 967, 968, 920, 921, 969, 970, 922
575, 921, 969, 970, 922, 923, 971, 972, 924
576, 914, 962, 973, 925, 916, 964, 974, 926
577, 916, 964, 974, 926, 918, 966, 975, 927
578, 918, 966, 975, 927, 920, 968, 976, 928
579, 920, 968, 976, 928, 922, 970, 977, 929
580, 922, 970, 977, 929, 924, 972, 978, 930
581, 931, 979, 980, 932, 933, 981, 982, 934
582, 933, 981, 982, 934, 935, 983, 984, 936
583, 932, 980, 985, 937, 934, 982, 986, 938
584, 934, 982, 986, 938, 936, 984, 987, 939
585, 937, 985, 988, 940, 938, 986, 989, 941
586, 938, 986, 989, 941, 939, 987, 990, 942
587, 940, 988, 971, 923, 941, 989, 991, 943
588, 941, 989, 991, 943, 942, 990, 992, 944
589, 923, 971, 972, 924, 943, 991, 993, 945
590, 943, 991, 993, 945, 944, 992, 994, 946
591, 924, 972, 978, 930, 945, 993, 995, 947
592, 945, 993, 995, 947, 946, 994, 996, 948
593, 930, 978, 997, 949, 947, 995, 998, 950
594, 947, 995, 998, 950, 948, 996, 999, 951
595, 949, 997, 1000, 952, 950, 998, 1001, 953
596, 950, 998, 1001, 953, 951, 999, 1002, 954
597, 952, 1000, 1003, 955, 953, 1001, 1004, 956
598, 953, 1001, 1004, 956, 954, 1002, 1005, 957
599, 955, 1003, 1006, 958, 956, 1004, 1007, 959
600, 956, 1004, 1007, 959, 957, 1005, 1008, 960
601, 961, 1009, 1010, 962, 963, 1011, 1012, 964
602, 963, 1011, 1012, 964, 965, 1013, 1014, 966
603, 965, 1013, 1014, 966, 967, 1015, 1016, 968
604, 967, 1015, 1016, 968, 969, 1017, 1018, 970
605, 969, 1017, 1018, 970, 971, 1019, 1020, 972
606, 962, 1010, 1021, 973, 964, 1012, 1022, 974
607, 964, 1012, 1022, 974, 966, 1014, 1023, 975
608, 966, 1014, 1023, 975, 968, 1016, 1024, 976
609, 968, 1016, 1024, 976, 970, 1018, 1025, 977
610, 970, 1018, 1025, 977, 972, 1020, 1026, 978
611, 979, 1027, 1028, 980, 981, 1029, 1030, 982
612, 981, 1029, 1030, 982, 983, 1031, 1032, 984
613, 980, 1028, 1033, 985, 982, 1030, 1034, 986
614, 982, 1030, 1034, 986, 984, 1032, 1035, 987
615, 985, 1033, 1036, 988, 986, 1034, 1037, 989
616, 986, 1034, 1037, 989, 987, 1035, 1038, 990
617, 988, 1036, 1019, 971, 989, 1037, 1039, 991
618, 989, 1037, 1039, 991, 990, 1038, 1040, 992
619, 971, 1019, 1020, 972, 991, 1039, 1041, 993
620, 991, 1039, 1041, 993, 992, 1040, 1042, 994
621, 972, 1020, 1026, 978, 993, 1041, 1043, 995
622, 993, 1041, 1043, 995, 994, 1042, 1044, 996
623, 978, 1026, 1045, 997, 995, 1043, 1046, 998
624, 995, 1043, 1046, 998, 996, 1044, 1047, 999
625, 997, 1045, 1048, 1000, 998, 1046, 1049, 1001
626, 998, 1046, 1049, 1001, 999, 1047, 1050, 1002
627, 1000, 1048, 1051, 1003, 1001, 1049, 1052, 1004
628, 1001, 1049, 1052, 1004, 1002, 1050, 1053, 1005
629, 1003, 1051, 1054, 1006, 1004, 1052, 1055, 1007
630, 1004, 1052, 1055, 1007, 1005, 1053, 1056, 1008
631, 1009, 1057, 1058, 1010, 1011, 1059, 1060, 1012
632, 1011, 1059, 1060, 1012, 1013, 1061, 1062, 1014
633, 1013, 1061, 1062, 1014, 1015, 1063, 1064, 1016
634, 1015, 1063, 1064, 1016, 1017, 1065, 1066, 1018
635, 1017, 1065, 1066, 1018, 1019, 1067, 1068, 1020
636, 1010, 1058, 1069, 1021, 1012, 1060, 1070, 1022
637, 1012, 1060, 1070, 1022, 1014, 1062, 1071, 1023
638, 1014, 1062, 1071, 1023, 1016, 1064, 1072, 1024
639, 1016, 1064, 1072, 1024, 1018, 1066, 1073, 1025
640, 1018, 1066, 1073, 1025, 1020, 1068, 1074, 1026
641, 1027, 1075, 1076, 1028, 1029, 1077, 1078, 1030
642, 1029, 1077, 1078, 1030, 1031, 1079, 1080, 1032
643, 1028, 1076, 1081, 1033, 1030, 1078, 1082, 1034
644, 1030, 1078, 1082, 1034, 1032, 1080, 1083, 1035
645, 1033, 1081, 1084, 1036, 1034, 1082, 1085, 1037
646, 1034, 1082, 1085, 1037, 1035, 1083, 1086, 1038
647, 1036, 1084, 1067, 1019, 1037, 1085, 1087, 1039
648, 1037, 1085, 1087, 1039, 1038, 1086, 1088, 1040
649, 1019, 1067, 1068, 1020, 1039, 1087, 1089, 1041
650, 1039, 1087, 1089, 1041, 1040, 1088, 1090, 1042
651, 1020, 1068, 1074, 1026, 1041, 1089, 1091, 1043
652, 1041, 1089, 1091, 1043, 1042, 1090, 1092, 1044
653, 1026, 1074, 1093, 1045, 1043, 1091, 1094, 1046
654, 1043, 1091, 1094, 1046, 1044, 1092, 1095, 1047
655, 1045, 1093, 1096, 1048, 1046, 1094, 1097, 1049
656, 1046, 1094, 1097, 1049, 1047, 1095, 1098, 1050
657, 1048, 1096, 1099, 1051, 1049, 1097, 1100, 1052
658, 1049, 1097, 1100, 1052, 1050, 1098, 1101, 1053
659, 1051, 1099, 1102, 1054, 1052, 1100, 1103, 1055
660, 1052, 1100, 1103, 1055, 1053, 1101, 1104, 1056
661, 1057, 1105, 1106, 1058, 1059, 1107, 1108, 1060
662, 1059, 1107, 1108, 1060, 1061, 1109, 1110, 1062
663, 1061, 1109, 1110, 1062, 1063, 1111, 1112, 1064
664, 1063, 1111, 1112, 1064, 1065, 1113, 1114, 1066
665, 1065, 1113, 1114, 1066, 1067, 1115, 1116, 1068
666, 1058, 1106, 1117, 1069, 1060, 1108, 1118, 1070
667, 1060, 1108, 1118, 1070, 1062, 1110, 1119, 1071
668, 1062, 1110, 1119, 1071, 1064, 1112, 1120, 1072
669, 1064, 1112, 1120, 1072, 1066, 1114, 1121, 1073
670, 1066, 1114, 1121, 1073, 1068, 1116, 1122, 1074
671, 1075, 1123, 1124, 1076, 1077, 1125, 1126, 1078
672, 1077, 1125, 1126, 1078, 1079, 1127, 1128, 1080
673, 1076, 1124, 1129, 1081, 1078, 1126, 1130, 1082
674, 1078, 1126, 1130, 1082, 1080, 1128, 1131, 1083
675, 1081, 1129, 1132, 1084, 1082, 1130, 1133, 1085
676, 1082, 1130, 1133, 1085, 1083, 1131, 1134, 1086
677, 1084, 1132, 1115, 1067, 1085, 1133, 1135, 1087
678, 1085, 1133, 1135, 1087, 1086, 1134, 1136, 1088
679, 1067, 1115, 1116, 1068, 1087, 1135, 1137, 1089
680, 1087, 1135, 1137, 1089, 1088, 1136, 1138, 1090
681, 1068, 1116, 1122, 1074, 1089, 1137, 1139, 1091
682, 1089, 1137, 1139, 1091, 1090, 1138, 1140, 1092
683, 1074, 1122, 1141, 1093, 1091, 1139, 1142, 1094
684, 1091, 1139, 1142, 1094, 1092, 1140, 1143, 1095
685, 1093, 1141, 1144, 1096, 1094, 1142, 1145, 1097
686, 1094, 1142, 1145, 1097, 1095, 1143, 1146, 1098
687, 1096, 1144, 1147, 1099, 1097, 1145, 1148, 1100
688, 1097, 1145, 1148, 1100, 1098, 1146, 1149, 1101
689, 1099, 1147, 1150, 1102, 1100, 1148, 1151, 1103
690, 1100, 1148, 1151, 1103, 1101, 1149, 1152, 1104
691, 1105, 1153, 1154, 1106, 1107, 1155, 1156, 1108
692, 1107, 1155, 1156, 1108, 1109, 1157, 1158, 1110
693, 1109, 1157, 1158, 1110, 1111, 1159, 1160, 1112
694, 1111, 1159, 1160, 1112, 1113, 1161, 1162, 1114
695, 1113, 1161, 1162, 1114, 1115, 1163, 1164, 1116
696, 1106, 1154, 1165, 1117, 1108, 1156, 1166, 1118
697, 1108, 1156, 1166, 1118, 1110, 1158, 1167, 1119
698, 1110, 1158, 1167, 1119, 1112, 1160, 1168, 1120
699, 1112, 1160, 1168, 1120, 1114, 1162, 1169, 1121
700, 1114, 1162, 1169, 1121, 1116, 1164, 1170, 1122
701, 1123, 1171, 1172, 1124, 1125, 1173, 1174, 1126
702, 1125, 1173, 1174, 1126, 1127, 1175, 1176, 1128
703, 1124, 1172, 1177, 1129, 1126, 1174, 1178, 1130
704, 1126, 1174, 1178, 1130, 1128, 1176, 1179, 1131
705, 1129, 1177, 1180, 1132, 1130, 1178, 1181, 1133
706, 1130, 1178, 1181, 1133, 1131, 1179, 1182, 1134
707, 1132, 1180, 1163, 1115, 1133, 1181, 1183, 1135
708, 1133, 1181, 1183, 1135, 1134, 1182, 1184, 1136
709, 1115, 1163, 1164, 1116, 1135, 1183, 1185, 1137
710, 1135, 1183, 1185, 1137, 1136, 1184, 1186, 1138
711, 1116, 1164, 1170, 1122, 1137, 1185, 1187, 1139
712, 1137, 1185, 1187, 1139, 1138, 1186, 1188, 1140
713, 1122, 1170, 1189, 1141, 1139, 1187, 1190, 1142
714, 1139, 1187, 1190, 1142, 1140, 1188, 1191, 1143
715, 1141, 1189, 1192, 1144, 1142, 1190, 1193, 1145
716, 1142, 1190, 1193, 1145, 1143, 1191, 1194, 1146
717, 1144, 1192, 1195, 1147, 1145, 1193, 1196, 1148
718, 1145, 1193, 1196, 1148, 1146, 1194, 1197, 1149
719, 1147, 1195, 1198, 1150, 1148, 1196, 1199, 1151
720, 1148, 1196, 1199, 1151, 1149, 1197, 1200, 1152
721, 1153, 1201, 1202, 1154, 1155, 1203, 1204, 1156
722, 1155, 1203, 1204, 1156, 1157, 1205, 1206, 1158
723, 1157, 1205, 1206, 1158, 1159, 1207, 1208, 1160
724, 1159, 1207, 1208, 1160, 1161, 1209, 1210, 1162
725, 1161, 1209, 1210, 1162, 1163, 1211, 1212, 1164
726, 1154, 1202, 1213, 1165, 1156, 1204, 1214, 1166
727, 1156, 1204, 1214, 1166, 1158, 1206, 1215, 1167
728, 1158, 1206, 1215, 1167, 1160, 1208, 1216, 1168
729, 1160, 1208, 1216, 1168, 1162, 1210, 1217, 1169
730, 1162, 1210, 1217, 1169, 1164, 1212, 1218, 1170
731, 1171, 1219, 1220, 1172, 1173, 1221, 1222, 1174
732, 1173, 1221, 1222, 1174, 1175, 1223, 1224, 1176
733, 1172, 1220, 1225, 1177, 1174, 1222, 1226, 1178
734, 1174, 1222, 1226, 1178, 1176, 1224, 1227, 1179
735, 1177, 1225, 1228, 1180, 1178, 1226, 1229, 1181
736, 1178, 1226, 1229, 1181, 1179, 1227, 1230, 1182
737, 1180, 1228, 1211, 1163, 1181, 1229, 1231, 1183
738, 1181, 1229, 1231, 1183, 1182, 1230, 1232, 1184
739, 1163, 1211, 1212, 1164, 1183, 1231, 1233, 1185
740, 1183, 1231, 1233, 1185, 1184, 1232, 1234, 1186
741, 1164, 1212, 1218, 1170, 1185, 1233, 1235, 1187
742, 1185, 1233, 1235, 1187, 1186, 1234, 1236, 1188
743, 1170, 1218, 1237, 1189, 1187, 1235, 1238, 1190
744, 1187, 1235, 1238, 1190, 1188, 1236, 1239, 1191
745, 1189, 1237, 1240, 1192, 1190, 1238, 1241, 1193
746, 1190, 1238, 1241, 1193, 1191, 1239, 1242, 1194
747, 1192, 1240, 1243, 1195, 1193, 1241, 1244, 1196
748, 1193, 1241, 1244, 1196, 1194, 1242, 1245, 1197
749, 1195, 1243, 1246, 1198, 1196, 1244, 1247, 1199
750, 1196, 1244, 1247, 1199, 1197, 1245, 1248, 1200
751, 1201, 1249, 1250, 1202, 1203, 1251, 1252, 1204
752, 1203, 1251, 1252, 1204, 1205, 1253, 1254, 1206
753, 1205, 1253, 1254, 1206, 1207, 1255, 1256, 1208
754, 1207, 1255, 1256, 1208, 1209, 1257, 1258, 1210
755, 1209, 1257, 1258, 1210, 1211, 1259, 1260, 1212
756, 1202, 1250, 1261, 1213, 1204, 1252, 1262, 1214
757, 1204, 1252, 1262, 1214, 1206, 1254, 1263, 1215
758, 1206, 1254, 1263, 1215, 1208, 1256, 1264, 1216
759, 1208, 1256, 1264, 1216, 1210, 1258, 1265, 1217
760, 1210, 1258, 1265, 1217, 1212, 1260, 1266, 1218
761, 1219, 1267, 1268, 1220, 1221, 1269, 1270, 1222
762, 1221, 1269, 1270, 1222, 1223, 1271, 1272, 1224
763, 1220, 1268, 1273, 1225, 1222, 1270, 1274, 1226
764, 1222, 1270, 1274, 1226, 1224, 1272, 1275, 1227
765, 1225, 1273, 1276, 1228, 1226, 1274, 1277, 1229
766, 1226, 1274, 1277, 1229, 1227, 1275, 1278, 1230
767, 1228, 1276, 1259, 1211, 1229, 1277, 1279, 1231
768, 1229, 1277, 1279, 1231, 1230, 1278, 1280, 1232
769, 1211, 1259, 1260, 1212, 1231, 1279, 1281, 1233
770, 1231, 1279, 1281, 1233, 1232, 1280, 1282, 1234
771, 1212, 1260, 1266, 1218, 1233, 1281, 1283, 1235
772, 1233, 1281, 1283, 1235, 1234, 1282, 1284, 1236
773, 1218, 1266, 1285, 1237, 1235, 1283, 1286, 1238
774, 1235, 1283, 1286, 1238, 1236, 1284, 1287, 1239
775, 1237, 1285, 1288, 1240, 1238, 1286, 1289, 1241
776, 1238, 1286, 1289, 1241, 1239, 1287, 1290, 1242
777, 1240, 1288, 1291, 1243, 1241, 1289, 1292, 1244
778, 1241, 1289, 1292, 1244, 1242, 1290, 1293, 1245
779, 1243, 1291, 1294, 1246, 1244, 1292, 1295, 1247
780, 1244, 1292, 1295, 1247, 1245, 1293, 1296, 1248
781, 1249, 1297, 1298, 1250, 1251, 1299, 1300, 1252
782, 1251, 1299, 1300, 1252, 1253, 1301, 1302, 1254
783, 1253, 1301, 1302, 1254, 1255, 1303, 1304, 1256
784, 1255, 1303, 1304, 1256, 1257, 1305, 1306, 1258
785, 1257, 1305, 1306, 1258, 1259, 1307, 1308, 1260
786, 1250, 1298, 1309, 1261, 1252, 1300, 1310, 1262
787, 1252, 1300, 1310, 1262, 1254, 1302, 1311, 1263
788, 1254, 1302, 1311, 1263, 1256, 1304, 1312, 1264
789, 1256, 1304, 1312, 1264, 1258, 1306, 1313, 1265
790, 1258, 1306, 1313, 1265, 1260, 1308, 1314, 1266
791, 1267, 1315, 1316, 1268, 1269, 1317, 1318, 1270
792, 1269, 1317, 1318, 1270, 1271, 1319, 1320, 1272
793, 1268, 1316, 1321, 1273, 1270, 1318, 1322, 1274
794, 1270, 1318, 1322, 1274, 1272, 1320, 1323, 1275
795, 1273, 1321, 1324, 1276, 1274, 1322, 1325, 1277
796, 1274, 1322, 1325, 1277, 1275, 1323, 1326, 1278
797, 1276, 1324, 1307, 1259, 1277, 1325, 1327, 1279
798, 1277, 1325, 1327, 1279, 1278, 1326, 1328, 1280
799, 1259, 1307, 1308, 1260, 1279, 1327, 1329, 1281
800, 1279, 1327, 1329, 1281, 1280, 1328, 1330, 1282
801, 1260, 1308, 1314, 1266, 1281, 1329, 1331, 1283
802, 1281, 1329, 1331, 1283, 1282, 1330, 1332, 1284
803, 1266, 1314, 1333, 1285, 1283, 1331, 1334, 1286
804, 1283, 1331, 1334, 1286, 1284, 1332, 1335, 1287
805, 1285, 1333, 1336, 1288, 1286, 1334, 1337, 1289
806, 1286, 1334, 1337, 1289, 1287, 1335, 1338, 1290
807, 1288, 1336, 1339, 1291, 1289, 1337, 1340, 1292
808, 1289, 1337, 1340, 1292, 1290, 1338, 1341, 1293
809, 1291, 1339, 1342, 1294, 1292, 1340, 1343, 1295
810, 1292, 1340, 1343, 1295, 1293, 1341, 1344, 1296
811, 1297, 1345, 1346, 1298, 1299, 1347, 1348, 1300
812, 1299, 1347, 1348, 1300, 1301, 1349, 1350, 1302
813, 1301, 1349, 1350, 1302, 1303, 1351, 1352, 1304
814, 1303, 1351, 1352, 1304, 1305, 1353, 1354, 1306
815, 1305, 1353, 1354, 1306, 1307, 1355, 1356, 1308
816, 1298, 1346, 1357, 1309, 1300, 1348, 1358, 1310
817, 1300, 1348, 1358, 1310, 1302, 1350, 1359, 1311
818, 1302, 1350, 1359, 1311, 1304, 1352, 1360, 1312
819, 1304, 1352, 1360, 1312, 1306, 1354, 1361, 1313
820, 1306, 1354, 1361, 1313, 1308, 1356, 1362, 1314
821, 1315, 1363, 1364, 1316, 1317, 1365, 1366, 1318
822, 1317, 1365, 1366, 1318, 1319, 1367, 1368, 1320
823, 1316, 1364, 1369, 1321, 1318, 1366, 1370, 1322
824, 1318, 1366, 1370, 1322, 1320, 1368, 1371, 1323
825, 1321, 1369, 1372, 1324, 1322, 1370, 1373, 1325
826, 1322, 1370, 1373, 1325, 1323, 1371, 1374, 1326
827, 1324, 1372, 1355, 1307, 1325, 1373, 1375, 1327
828, 1325, 1373, 1375, 1327, 1326, 1374, 1376, 1328
829, 1307, 1355, 1356, 1308, 1327, 1375, 1377, 1329
830, 1327, 1375, 1377, 1329, 1328, 1376, 1378, 1330
831, 1308, 1356, 1362, 1314, 1329, 1377, 1379, 1331
832, 1329, 1377, 1379, 1331, 1330, 1378, 1380, 1332
833, 1314, 1362, 1381, 1333, 1331, 1379, 1382, 1334
834, 1331, 1379, 1382, 1334, 1332, 1380, 1383, 1335
835, 1333, 1381, 1384, 1336, 1334, 1382, 1385, 1337
836, 1334, 1382, 1385, 1337, 1335, 1383, 1386, 1338
837, 1336, 1384, 1387, 1339, 1337, 1385, 1388, 1340
838, 1337, 1385, 1388, 1340, 1338, 1386, 1389, 1341
839, 1339, 1387, 1390, 1342, 1340, 1388, 1391, 1343
840, 1340, 1388, 1391, 1343, 1341, 1389, 1392, 1344
841, 1345, 1393, 1394, 1346, 1347, 1395, 1396, 1348
842, 1347, 1395, 1396, 1348, 1349, 1397, 1398, 1350
843, 1349, 1397, 1398, 1350, 1351, 1399, 1400, 1352
844, 1351, 1399, 1400, 1352, 1353, 1401, 1402, 1354
845, 1353, 1401, 1402, 1354, 1355, 1403, 1404, 1356
846, 1346, 1394, 1405, 1357, 1348, 1396, 1406, 1358
847, 1348, 1396, 1406, 1358, 1350, 1398, 1407, 1359
848, 1350, 1398, 1407, 1359, 1352, 1400, 1408, 1360
849, 1352, 1400, 1408, 1360, 1354, 1402, 1409, 1361
850, 1354, 1402, 1409, 1361, 1356, 1404, 1410, 1362
851, 1363, 1411, 1412, 1364, 1365, 1413, 1414, 1366
852, 1365, 1413, 1414, 1366, 1367, 1415, 1416, 1368
853, 1364, 1412, 1417, 1369, 1366, 1414, 1418, 1370
854, 1366, 1414, 1418, 1370, 1368, 1416, 1419, 1371
855, 1369, 1417, 1420, 1372, 1370, 1418, 1421, 1373
856, 1370, 1418, 1421, 1373, 1371, 1419, 1422, 1374
857, 1372, 1420, 1403, 1355, 1373, 1421, 1423, 1375
858, 1373, 1421, 1423, 1375, 1374, 1422, 1424, 1376
859, 1355, 1403, 1404, 1356, 1375, 1423, 1425, 1377
860, 1375, 1423, 1425, 1377, 1376, 1424, 1426, 1378
861, 1356, 1404, 1410, 1362, 1377, 1425, 1427, 1379
862, 1377, 1425, 1427, 1379, 1378, 1426, 1428, 1380
863, 1362, 1410, 1429, 1381, 1379, 1427, 1430, 1382
864, 1379, 1427, 1430, 1382, 1380, 1428, 1431, 1383
865, 1381, 1429, 1432, 1384, 1382, 1430, 1433, 1385
866, 1382, 1430, 1433, 1385, 1383, 1431, 1434, 1386
867, 1384, 1432, 1435, 1387, 1385, 1433, 1436, 1388
868, 1385, 1433, 1436, 1388, 1386, 1434, 1437, 1389
869, 1387, 1435, 1438, 1390, 1388, 1436, 1439, 1391
870, 1388, 1436, 1439, 1391, 1389, 1437, 1440, 1392
871, 1393, 1441, 1442, 1394, 1395, 1443, 1444, 1396
872, 1395, 1443, 1444, 1396, 1397, 1445, 1446, 1398
873, 1397, 1445, 1446, 1398, 1399, 1447, 1448, 1400
874, 1399, 1447, 1448, 1400, 1401, 1449, 1450, 1402
875, 1401, 1449, 1450, 1402, 1403, 1451, 1452, 1404
876, 1394, 1442, 1453, 1405, 1396, 1444, 1454, 1406
877, 1396, 1444, 1454, 1406, 1398, 1446, 1455, 1407
878, 1398, 1446, 1455, 1407, 1400, 1448, 1456, 1408
879, 1400, 1448, 1456, 1408, 1402, 1450, 1457, 1409
880, 1402, 1450, 1457, 1409, 1404, 1452, 1458, 1410
881, 1411, 1459, 1460, 1412, 1413, 1461, 1462, 1414
882, 1413, 1461, 1462, 1414, 1415, 1463, 1464, 1416
883, 1412, 1460, 1465, 1417, 1414, 1462, 1466, 1418
884, 1414, 1462, 1466, 1418, 1416, 1464, 1467, 1419
885, 1417, 1465, 1468, 1420, 1418, 1466, 1469, 1421
886, 1418, 1466, 1469, 1421, 1419, 1467, 1470, 1422
887, 1420, 1468, 1451, 1403, 1421, 1469, 1471, 1423
888, 1421, 1469, 1471, 1423, 1422, 1470, 1472, 1424
889, 1403, 1451, 1452, 1404, 1423, 1471, 1473, 1425
890, 1423, 1471, 1473, 1425, 1424, 1472, 1474, 1426
891, 1404, 1452, 1458, 1410, 1425, 1473, 1475, 1427
892, 1425, 1473, 1475, 1427, 1426, 1474, 1476, 1428
893, 1410, 1458, 1477, 1429, 1427, 1475, 1478, 1430
894, 1427, 1475, 1478, 1430, 1428, 1476, 1479, 1431
895, 1429, 1477, 1480, 1432, 1430, 1478, 1481, 1433
896, 1430, 1478, 1481, 1433, 1431, 1479, 1482, 1434
897, 1432, 1480, 1483, 1435, 1433, 1481, 1484, 1436
898, 1433, 1481, 1484, 1436, 1434, 1482, 1485, 1437
899, 1435, 1483, 1486, 1438, 1436, 1484, 1487, 1439
900, 1436, 1484, 1487, 1439, 1437, 1485, 1488, 1440
901, 1441, 1489, 1490, 1442, 1443, 1491, 1492, 1444
902, 1443, 1491, 1492, 1444, 1445, 1493, 1494, 1446
903, 1445, 1493, 1494, 1446, 1447, 1495, 1496, 1448
904, 1447, 1495, 1496, 1448, 1449, 1497, 1498, 1450
905, 1449, 1497, 1498, 1450, 1451, 1499, 1500, 1452
906, 1442, 1490, 1501, 1453, 1444, 1492, 1502, 1454
907, 1444, 1492, 1502, 1454, 1446, 1494, 1503, 1455
908, 1446, 1494, 1503, 1455, 1448, 1496, 1504, 1456
909, 1448, 1496, 1504, 1456, 1450, 1498, 1505, 1457
910, 1450, 1498, 1505, 1457, 1452, 1500, 1506, 1458
911, 1459, 1507, 1508, 1460, 1461, 1509, 1510, 1462
912, 1461, 1509, 1510, 1462, 1463, 1511, 1512, 1464
913, 1460, 1508, 1513, 1465, 1462, 1510, 1514, 1466
914, 1462, 1510, 1514, 1466, 1464, 1512, 1515, 1467
915, 1465, 1513, 1516, 1468, 1466, 1514, 1517, 1469
916, 1466, 1514, 1517, 1469, 1467, 1515, 1518, 1470
917, 1468, 1516, 1499, 1451, 1469, 1517, 1519, 1471
918, 1469, 1517, 1519, 1471, 1470, 1518, 1520, 1472
919, 1451, 1499, 1500, 1452, 1471, 1519, 1521, 1473
920, 1471, 1519, 1521, 1473, 1472, 1520, 1522, 1474
921, 1452, 1500, 1506, 1458, 1473, 1521, 1523, 1475
922, 1473, 1521, 1523, 1475, 1474, 1522, 1524, 1476
923, 1458, 1506, 1525, 1477, 1475, 1523, 1526, 1478
924, 1475, 1523, 1526, 1478, 1476, 1524, 1527, 1479
925, 1477, 1525, 1528, 1480, 1478, 1526, 1529, 1481
926, 1478, 1526, 1529, 1481, 1479, 1527, 1530, 1482
927, 1480, 1528, 1531, 1483, 1481, 1529, 1532, 1484
928, 1481, 1529, 1532, 1484, 1482, 1530, 1533, 1485
929, 1483, 1531, 1534, 1486, 1484, 1532, 1535, 1487
930, 1484, 1532, 1535, 1487, 1485, 1533, 1536, 1488
931, 1489, 1537, 1538, 1490, 1491, 1539, 1540, 1492
932, 1491, 1539, 1540, 1492, 1493, 1541, 1542, 1494
933, 1493, 1541, 1542, 1494, 1495, 1543, 1544, 1496
934, 1495, 1543, 1544, 1496, 1497, 1545, 1546, 1498
935, 1497, 1545, 1546, 1498, 1499, 1547, 1548, 1500
936, 1490, 1538, 1549, 1501, 1492, 1540, 1550, 1502
937, 1492, 1540, 1550, 1502, 1494, 1542, 1551, 1503
938, 1494, 1542, 1551, 1503, 1496, 1544, 1552, 1504
939, 1496, 1544, 1552, 1504, 1498, 1546, 1553, 1505
940, 1498, 1546, 1553, 1505, 1500, 1548, 1554, 1506
941, 1507, 1555, 1556, 1508, 1509, 1557, 1558, 1510
942, 1509, 1557, 1558, 1510, 1511, 1559, 1560, 1512
943, 1508, 1556, 1561, 1513, 1510, 1558, 1562, 1514
944, 1510, 1558, 1562, 1514, 1512, 1560, 1563, 1515
945, 1513, 1561, 1564, 1516, 1514, 1562, 1565, 1517
946, 1514, 1562, 1565, 1517, 1515, 1563, 1566, 1518
947, 1516, 1564, 1547, 1499, 1517, 1565, 1567, 1519
948, 1517, 1565, 1567, 1519, 1518, 1566, 1568, 1520
949, 1499, 1547, 1548, 1500, 1519, 1567, 1569, 1521
950, 1519, 1567, 1569, 1521, 1520, 1568, 1570, 1522
951, 1500, 1548, 1554, 1506, 1521, 1569, 1571, 1523
952, 1521, 1569, 1571, 1523, 1522, 1570, 1572, 1524
953, 1506, 1554, 1573, 1525, 1523, 1571, 1574, 1526
954, 1523, 1571, 1574, 1526, 1524, 1572, 1575, 1527
955, 1525, 1573, 1576, 1528, 1526, 1574, 1577, 1529
956, 1526, 1574, 1577, 1529, 1527, 1575, 1578, 1530
957, 1528, 1576, 1579, 1531, 1529, 1577, 1580, 1532
958, 1529, 1577, 1580, 1532, 1530, 1578, 1581, 1533
959, 1531, 1579, 1582, 1534, 1532, 1580, 1583, 1535
960, 1532, 1580, 1583, 1535, 1533, 1581, 1584, 1536
961, 1537, 1585, 1586, 1538, 1539, 1587, 1588, 1540
962, 1539, 1587, 1588, 1540, 1541, 1589, 1590, 1542
963, 1541, 1589, 1590, 1542, 1543, 1591, 1592, 1544
964, 1543, 1591, 1592, 1544, 1545, 1593, 1594, 1546
965, 1545, 1593, 1594, 1546, 1547, 1595, 1596, 1548
966, 1538, 1586, 1597, 1549, 1540, 1588, 1598, 1550
967, 1540, 1588, 1598, 1550, 1542, 1590, 1599, 1551
968, 1542, 1590, 1599, 1551, 1544, 1592, 1600, 1552
969, 1544, 1592, 1600, 1552, 1546, 1594, 1601, 1553
970, 1546, 1594, 1601, 1553, 1548, 1596, 1602, 1554
971, 1555, 1603, 1604, 1556, 1557, 1605, 1606, 1558
972, 1557, 1605, 1606, 1558, 1559, 1607, 1608, 1560
973, 1556, 1604, 1609, 1561, 1558, 1606, 1610, 1562
974, 1558, 1606, 1610, 1562, 1560, 1608, 1611, 1563
975, 1561, 1609, 1612, 1564, 1562, 1610, 1613, 1565
976, 1562, 1610, 1613, 1565, 1563, 1611, 1614, 1566
977, 1564, 1612, 1595, 1547, 1565, 1613, 1615, 1567
978, 1565, 1613, 1615, 1567, 1566, 1614, 1616, 1568
979, 1547, 1595, 1596, 1548, 1567, 1615, 1617, 1569
980, 1567, 1615, 1617, 1569, 1568, 1616, 1618, 1570
981, 1548, 1596, 1602, 1554, 1569, 1617, 1619, 1571
982, 1569, 1617, 1619, 1571, 1570, 1618, 1620, 1572
983, 1554, 1602, 1621, 1573, 1571, 1619, 1622, 1574
984, 1571, 1619, 1622, 1574, 1572, 1620, 1623, 1575
985, 1573, 1621, 1624, 1576, 1574, 1622, 1625, 1577
986, 1574, 1622, 1625, 1577, 1575, 1623, 1626, 1578
987, 1576, 1624, 1627, 1579, 1577, 1625, 1628, 1580
988, 1577, 1625, 1628, 1580, 1578, 1626, 1629, 1581
989, 1579, 1627, 1630, 1582, 1580, 1628, 1631, 1583
990, 1580, 1628, 1631, 1583, 1581, 1629, 1632, 1584
991, 1585, 1633, 1634, 1586, 1587, 1635, 1636, 1588
992, 1587, 1635, 1636, 1588, 1589, 1637, 1638, 1590
993, 1589, 1637, 1638, 1590, 1591, 1639, 1640, 1592
994, 1591, 1639, 1640, 1592, 1593, 1641, 1642, 1594
995, 1593, 1641, 1642, 1594, 1595, 1643, 1644, 1596
996, 1586, 1634, 1645, 1597, 1588, 1636, 1646, 1598
997, 1588, 1636, 1646, 1598, 1590, 1638, 1647, 1599
998, 1590, 1638, 1647, 1599, 1592, 1640, 1648, 1600
999, 1592, 1640, 1648, 1600, 1594, 1642, 1649, 1601
1000, 1594, 1642, 1649, 1601, 1596, 1644, 1650, 1602
1001, 1603, 1651, 1652, 1604, 1605, 1653, 1654, 1606
1002, 1605, 1653, 1654, 1606, 1607, 1655, 1656, 1608
1003, 1604, 1652, 1657, 1609, 1606, 1654, 1658, 1610
1004, 1606, 1654, 1658, 1610, 1608, 1656, 1659, 1611
1005, 1609, 1657, 1660, 1612, 1610, 1658, 1661, 1613
1006, 1610, 1658, 1661, 1613, 1611, 1659, 1662, 1614
1007, 1612, 1660, 1643, 1595, 1613, 1661, 1663, 1615
1008, 1613, 1661, 1663, 1615, 1614, 1662, 1664, 1616
1009, 1595, 1643, 1644, 1596, 1615, 1663, 1665, 1617
1010, 1615, 1663, 1665, 1617, 1616, 1664, 1666, 1618
1011, 1596, 1644, 1650, 1602, 1617, 1665, 1667, 1619
1012, 1617, 1665, 1667, 1619, 1618, 1666, 1668, 1620
1013, 1602, 1650, 1669, 1621, 1619, 1667, 1670, 1622
1014, 1619, 1667, 1670, 1622, 1620, 1668, 1671, 1623
1015, 1621, 1669, 1672, 1624, 1622, 1670, 1673, 1625
1016, 1622, 1670, 1673, 1625, 1623, 1671, 1674, 1626
1017, 1624, 1672, 1675, 1627, 1625, 1673, 1676, 1628
1018, 1625, 1673, 1676, 1628, 1626, 1674, 1677, 1629
1019, 1627, 1675, 1678, 1630, 1628, 1676, 1679, 1631
1020, 1628, 1676, 1679, 1631, 1629, 1677, 1680, 1632
1021, 1633, 1681, 1682, 1634, 1635, 1683, 1684, 1636
1022, 1635, 1683, 1684, 1636, 1637, 1685, 1686, 1638
1023, 1637, 1685, 1686, 1638, 1639, 1687, 1688, 1640
1024, 1639, 1687, 1688, 1640, 1641, 1689, 1690, 1642
1025, 1641, 1689, 1690, 1642, 1643, 1691, 1692, 1644
1026, 1634, 1682, 1693, 1645, 1636, 1684, 1694, 1646
1027, 1636, 1684, 1694, 1646, 1638, 1686, 1695, 1647
1028, 1638, 1686, 1695, 1647, 1640, 1688, 1696, 1648
1029, 1640, 1688, 1696, 1648, 1642, 1690, 1697, 1649
1030, 1642, 1690, 1697, 1649, 1644, 1692, 1698, 1650
1031, 1651, 1699, 1700, 1652, 1653, 1701, 1702, 1654
1032, 1653, 1701, 1702, 1654, 1655, 1703, 1704, 1656
1033, 1652, 1700, 1705, 1657, 1654, 1702, 1706, 1658
1034, 1654, 1702, 1706, 1658, 1656, 1704, 1707, 1659
1035, 1657, 1705, 1708, 1660, 1658, 1706, 1709, 1661
1036, 1658, 1706, 1709, 1661, 1659, 1707, 1710, 1662
1037, 1660, 1708, 1691, 1643, 1661, 1709, 1711, 1663
1038, 1661, 1709, 1711, 1663, 1662, 1710, 1712, 1664
1039, 1643, 1691, 1692, 1644, 1663, 1711, 1713, 1665
1040, 1663, 1711, 1713, 1665, 1664, 1712, 1714, 1666
1041, 1644, 1692, 1698, 1650, 1665, 1713, 1715, 1667
1042, 1665, 1713, 1715, 1667, 1666, 1714, 1716, 1668
1043, 1650, 1698, 1717, 1669, 1667, 1715, 1718, 1670
1044, 1667, 1715, 1718, 1670, 1668, 1716, 1719, 1671
1045, 1669, 1717, 1720, 1672, 1670, 1718, 1721, 1673
1046, 1670, 1718, 1721, 1673, 1671, 1719, 1722, 1674
1047, 1672, 1720, 1723, 1675, 1673, 1721, 1724, 1676
1048, 1673, 1721, 1724, 1676, 1674, 1722, 1725, 1677
1049, 1675, 1723, 1726, 1678, 1676, 1724, 1727, 1679
1050, 1676, 1724, 1727, 1679, 1677, 1725, 1728, 1680
1051, 1681, 1729, 1730, 1682, 1683, 1731, 1732, 1684
1052, 1683, 1731, 1732, 1684, 1685, 1733, 1734, 1686
1053, 1685, 1733, 1734, 1686, 1687, 1735, 1736, 1688
1054, 1687, 1735, 1736, 1688, 1689, 1737, 1738, 1690
1055, 1689, 1737, 1738, 1690, 1691, 1739, 1740, 1692
1056, 1682, 1730, 1741, 1693, 1684, 1732, 1742, 1694
1057, 1684, 1732, 1742, 1694, 1686, 1734, 1743, 1695
1058, 1686, 1734, 1743, 1695, 1688, 1736, 1744, 1696
1059, 1688, 1736, 1744, 1696, 1690, 1738, 1745, 1697
1060, 1690, 1738, 1745, 1697, 1692, 1740, 1746, 1698
1061, 1699, 1747, 1748, 1700, 1701, 1749, 1750, 1702
1062, 1701, 1749, 1750, 1702, 1703, 1751, 1752, 1704
1063, 1700, 1748, 1753, 1705, 1702, 1750, 1754, 1706
1064, 1702, 1750, 1754, 1706, 1704, 1752, 1755, 1707
1065, 1705, 1753, 1756, 1708, 1706, 1754, 1757, 1709
1066, 1706, 1754, 1757, 1709, 1707, 1755, 1758, 1710
1067, 1708, 1756, 1739, 1691, 1709, 1757, 1759, 1711
1068, 1709, 1757, 1759, 1711, 1710, 1758, 1760, 1712
1069, 1691, 1739, 1740, 1692, 1711, 1759, 1761, 1713
1070, 1711, 1759, 1761, 1713, 1712, 1760, 1762, 1714
1071, 1692, 1740, 1746, 1698, 1713, 1761, 1763, 1715
1072, 1713, 1761, 1763, 1715, 1714, 1762, 1764, 1716
1073, 1698, 1746, 1765, 1717, 1715, 1763, 1766, 1718
1074, 1715, 1763, 1766, 1718, 1716, 1764, 1767, 1719
1075, 1717, 1765, 1768, 1720, 1718, 1766, 1769, 1721
1076, 1718, 1766, 1769, 1721, 1719, 1767, 1770, 1722
1077, 1720, 1768, 1771, 1723, 1721, 1769, 1772, 1724
1078, 1721, 1769, 1772, 1724, 1722, 1770, 1773, 1725
1079, 1723, 1771, 1774, 1726, 1724, 1772, 1775, 1727
1080, 1724, 1772, 1775, 1727, 1725, 1773, 1776, 1728
1081, 1729, 1777, 1778, 1730, 1731, 1779, 1780, 1732
1082, 1731, 1779, 1780, 1732, 1733, 1781, 1782, 1734
1083, 1733, 1781, 1782, 1734, 1735, 1783, 1784, 1736
1084, 1735, 1783, 1784, 1736, 1737, 1785, 1786, 1738
1085, 1737, 1785, 1786, 1738, 1739, 1787, 1788, 1740
1086, 1730, 1778, 1789, 1741, 1732, 1780, 1790, 1742
1087, 1732, 1780, 1790, 1742, 1734, 1782, 1791, 1743
1088, 1734, 1782, 1791, 1743, 1736, 1784, 1792, 1744
1089, 1736, 1784, 1792, 1744, 1738, 1786, 1793, 1745
1090, 1738, 1786, 1793, 1745, 1740, 1788, 1794, 1746
1091, 1747, 1795, 1796, 1748, 1749, 1797, 1798, 1750
1092, 1749, 1797, 1798, 1750, 1751, 1799, 1800, 1752
1093, 1748, 1796, 1801, 1753, 1750, 1798, 1802, 1754
1094, 1750, 1798, 1802, 1754, 1752, 1800, 1803, 1755
1095, 1753, 1801, 1804, 1756, 1754, 1802, 1805, 1757
1096, 1754, 1802, 1805, 1757, 1755, 1803, 1806, 1758
1097, 1756, 1804, 1787, 1739, 1757, 1805, 1807, 1759
1098, 1757, 1805, 1807, 1759, 1758, 1806, 1808, 1760
1099, 1739, 1787, 1788, 1740, 1759, 1807, 1809, 1761
1100, 1759, 1807, 1809, 1761, 1760, 1808, 1810, 1762
1101, 1740, 1788, 1794, 1746, 1761, 1809, 1811, 1763
1102, 1761, 1809, 1811, 1763, 1762, 1810, 1812, 1764
1103, 1746, 1794, 1813, 1765, 1763, 1811, 1814, 1766
1104, 1763, 1811, 1814, 1766, 1764, 1812, 1815, 1767
1105, 1765, 1813, 1816, 1768, 1766, 1814, 1817, 1769
1106, 1766, 1814, 1817, 1769, 1767, 1815, 1818, 1770
1107, 1768, 1816, 1819, 1771, 1769, 1817, 1820, 1772
1108, 1769, 1817, 1820, 1772, 1770, 1818, 1821, 1773
1109, 1771, 1819, 1822, 1774, 1772, 1820, 1823, 1775
1110, 1772, 1820, 1823, 1775, 1773, 1821, 1824, 1776
1111, 1777, 1825, 1826, 1778, 1779, 1827, 1828, 1780
1112, 1779, 1827, 1828, 1780, 1781, 1829, 1830, 1782
1113, 1781, 1829, 1830, 1782, 1783, 1831, 1832, 1784
1114, 1783, 1831, 1832, 1784, 1785, 1833, 1834, 1786
1115, 1785, 1833, 1834, 1786, 1787, 1835, 1836, 1788
1116, 1778, 1826, 1837, 1789, 1780, 1828, 1838, 1790
1117, 1780, 1828, 1838, 1790, 1782, 1830, 1839, 1791
1118, 1782, 1830, 1839, 1791, 1784, 1832, 1840, 1792
1119, 1784, 1832, 1840, 1792, 1786, 1834, 1841, 1793
1120, 1786, 1834, 1841, 1793, 1788, 1836, 1842, 1794
1121, 1795, 1843, 1844, 1796, 1797, 1845, 1846, 1798
1122, 1797, 1845, 1846, 1798, 1799, 1847, 1848, 1800
1123, 1796, 1844, 1849, 1801, 1798, 1846, 1850, 1802
1124, 1798, 1846, 1850, 1802, 1800, 1848, 1851, 1803
1125, 1801, 1849, 1852, 1804, 1802, 1850, 1853, 1805
1126, 1802, 1850, 1853, 1805, 1803, 1851, 1854, 1806
1127, 1804, 1852, 1835, 1787, 1805, 1853, 1855, 1807
1128, 1805, 1853, 1855, 1807, 1806, 1854, 1856, 1808
1129, 1787, 1835, 1836, 1788, 1807, 1855, 1857, 1809
1130, 1807, 1855, 1857, 1809, 1808, 1856, 1858, 1810
1131, 1788, 1836, 1842, 1794, 1809, 1857, 1859, 1811
1132, 1809, 1857, 1859, 1811, 1810, 1858, 1860, 1812
1133, 1794, 1842, 1861, 1813, 1811, 1859, 1862, 1814
1134, 1811, 1859, 1862, 1814, 1812, 1860, 1863, 1815
1135, 1813, 1861, 1864, 1816, 1814, 1862, 1865, 1817
1136, 1814, 1862, 1865, 1817, 1815, 1863, 1866, 1818
1137, 1816, 1864, 1867, 1819, 1817, 1865, 1868, 1820
1138, 1817, 1865, 1868, 1820, 1818, 1866, 1869, 1821
1139, 1819, 1867, 1870, 1822, 1820, 1868, 1871, 1823
1140, 1820, 1868, 1871, 1823, 1821, 1869, 1872, 1824
1141, 1825, 1873, 1874, 1826, 1827, 1875, 1876, 1828
1142, 1827, 1875, 1876, 1828, 1829, 1877, 1878, 1830
1143, 1829, 1877, 1878, 1830, 1831, 1879, 1880, 1832
1144, 1831, 1879, 1880, 1832, 1833, 1881, 1882, 1834
1145, 1833, 1881, 1882, 1834, 1835, 1883, 1884, 1836
1146, 1826, 1874, 1885, 1837, 1828, 1876, 1886, 1838
1147, 1828, 1876, 1886, 1838, 1830, 1878, 1887, 1839
1148, 1830, 1878, 1887, 1839, 1832, 1880, 1888, 1840
1149, 1832, 1880, 1888, 1840, 1834, 1882, 1889, 1841
1150, 1834, 1882, 1889, 1841, 1836, 1884, 1890, 1842
1151, 1843, 1891, 1892, 1844, 1845, 1893, 1894, 1846
1152, 1845, 1893, 1894, 1846, 1847, 1895, 1896, 1848
1153, 1844, 1892, 1897, 1849, 1846, 1894, 1898, 1850
1154, 1846, 1894, 1898, 1850, 1848, 1896, 1899, 1851
1155, 1849, 1897, 1900, 1852, 1850, 1898, 1901, 1853
1156, 1850, 1898, 1901, 1853, 1851, 1899, 1902, 1854
1157, 1852, 1900, 1883, 1835, 1853, 1901, 1903, 1855
1158, 1853, 1901, 1903, 1855, 1854, 1902, 1904, 1856
1159, 1835, 1883, 1884, 1836, 1855, 1903, 1905, 1857
1160, 1855, 1903, 1905, 1857, 1856, 1904, 1906, 1858
1161, 1836, 1884, 1890, 1842, 1857, 1905, 1907, 1859
1162, 1857, 1905, 1907, 1859, 1858, 1906, 1908, 1860
1163, 1842, 1890, 1909, 1861, 1859, 1907, 1910, 1862
1164, 1859, 1907, 1910, 1862, 1860, 1908, 1911, 1863
1165, 1861, 1909, 1912, 1864, 1862, 1910, 1913, 1865
1166, 1862, 1910, 1913, 1865, 1863, 1911, 1914, 1866
1167, 1864, 1912, 1915, 1867, 1865, 1913, 1916, 1868
1168, 1865, 1913, 1916, 1868, 1866, 1914, 1917, 1869
1169, 1867, 1915, 1918, 1870, 1868, 1916, 1919, 1871
1170, 1868, 1916, 1919, 1871, 1869, 1917, 1920, 1872
1171, 1873, 1921, 1922, 1874, 1875, 1923, 1924, 1876
1172, 1875, 1923, 1924, 1876, 1877, 1925, 1926, 1878
1173, 1877, 1925, 1926, 1878, 1879, 1927, 1928, 1880
1174, 1879, 1927, 1928, 1880, 1881, 1929, 1930, 1882
1175, 1881, 1929, 1930, 1882, 1883, 1931, 1932, 1884
1176, 1874, 1922, 1933, 1885, 1876, 1924, 1934, 1886
1177, 1876, 1924, 1934, 1886, 1878, 1926, 1935, 1887
1178, 1878, 1926, 1935, 1887, 1880, 1928, 1936, 1888
1179, 1880, 1928, 1936, 1888, 1882, 1930, 1937, 1889
1180, 1882, 1930, 1937, 1889, 1884, 1932, 1938, 1890
1181, 1891, 1939, 1940, 1892, 1893, 1941, 1942, 1894
1182, 1893, 1941, 1942, 1894, 1895, 1943, 1944, 1896
1183, 1892, 1940, 1945, 1897, 1894, 1942, 1946, 1898
1184, 1894, 1942, 1946, 1898, 1896, 1944, 1947, 1899
1185, 1897, 1945, 1948, 1900, 1898, 1946, 1949, 1901
1186, 1898, 1946, 1949, 1901, 1899, 1947, 1950, 1902
1187, 1900, 1948, 1931, 1883, 1901, 1949, 1951, 1903
1188, 1901, 1949, 1951, 1903, 1902, 1950, 1952, 1904
1189, 1883, 1931, 1932, 1884, 1903, 1951, 1953, 1905
1190, 1903, 1951, 1953, 1905, 1904, 1952, 1954, 1906
1191, 1884, 1932, 1938, 1890, 1905, 1953, 1955, 1907
1192, 1905, 1953, 1955, 1907, 1906, 1954, 1956, 1908
1193, 1890, 1938, 1957, 1909, 1907, 1955, 1958, 1910
1194, 1907, 1955, 1958, 1910, 1908, 1956, 1959, 1911
1195, 1909, 1957, 1960, 1912, 1910, 1958, 1961, 1913
1196, 1910, 1958, 1961, 1913, 1911, 1959, 1962, 1914
1197, 1912, 1960, 1963, 1915, 1913, 1961, 1964, 1916
1198, 1913, 1961, 1964, 1916, 1914, 1962, 1965, 1917
1199, 1915, 1963, 1966, 1918, 1916, 1964, 1967, 1919
1200, 1916, 1964, 1967, 1919, 1917, 1965, 1968, 1920
1201, 1921, 1969, 1970, 1922, 1923, 1971, 1972, 1924
1202, 1923, 1971, 1972, 1924, 1925, 1973, 1974, 1926
1203, 1925, 1973, 1974, 1926, 1927, 1975, 1976, 1928
1204, 1927, 1975, 1976, 1928, 1929, 1977, 1978, 1930
1205, 1929, 1977, 1978, 1930, 1931, 1979, 1980, 1932
1206, 1922, 1970, 1981, 1933, 1924, 1972, 1982, 1934
1207, 1924, 1972, 1982, 1934, 1926, 1974, 1983, 1935
1208, 1926, 1974, 1983, 1935, 1928, 1976, 1984, 1936
1209, 1928, 1976, 1984, 1936, 1930, 1978, 1985, 1937
1210, 1930, 1978, 1985, 1937, 1932, 1980, 1986, 1938
1211, 1939, 1987, 1988, 1940, 1941, 1989, 1990, 1942
1212, 1941, 1989, 1990, 1942, 1943, 1991, 1992, 1944
1213, 1940, 1988, 1993, 1945, 1942, 1990, 1994, 1946
1214, 1942, 1990, 1994, 1946, 1944, 1992, 1995, 1947
1215, 1945, 1993, 1996, 1948, 1946, 1994, 1997, 1949
1216, 1946, 1994, 1997, 1949, 1947, 1995, 1998, 1950
1217, 1948, 1996, 1979, 1931, 1949, 1997, 1999, 1951
1218, 1949, 1997, 1999, 1951, 1950, 1998, 2000, 1952
1219, 1931, 1979, 1980, 1932, 1951, 1999, 2001, 1953
1220, 1951, 1999, 2001, 1953, 1952, 2000, 2002, 1954
1221, 1932, 1980, 1986, 1938, 1953, 2001, 2003, 1955
1222, 1953, 2001, 2003, 1955, 1954, 2002, 2004, 1956
1223, 1938, 1986, 2005, 1957, 1955, 2003, 2006, 1958
1224, 1955, 2003, 2006, 1958, 1956, 2004, 2007, 1959
1225, 1957, 2005, 2008, 1960, 1958, 2006, 2009, 1961
1226, 1958, 2006, 2009, 1961, 1959, 2007, 2010, 1962
1227, 1960, 2008, 2011, 1963, 1961, 2009, 2012, 1964
1228, 1961, 2009, 2012, 1964, 1962, 2010, 2013, 1965
1229, 1963, 2011, 2014, 1966, 1964, 2012, 2015, 1967
1230, 1964, 2012, 2015, 1967, 1965, 2013, 2016, 1968
1231, 1969, 2017, 2018, 1970, 1971, 2019, 2020, 1972
1232, 1971, 2019, 2020, 1972, 1973, 2021, 2022, 1974
1233, 1973, 2021, 2022, 1974, 1975, 2023, 2024, 1976
1234, 1975, 2023, 2024, 1976, 1977, 2025, 2026, 1978
1235, 1977, 2025, 2026, 1978, 1979, 2027, 2028, 1980
1236, 1970, 2018, 2029, 1981, 1972, 2020, 2030, 1982
1237, 1972, 2020, 2030, 1982, 1974, 2022, 2031, 1983
1238, 1974, 2022, 2031, 1983, 1976, 2024, 2032, 1984
1239, 1976, 2024, 2032, 1984, 1978, 2026, 2033, 1985
1240, 1978, 2026, 2033, 1985, 1980, 2028, 2034, 1986
1241, 1987, 2035, 2036, 1988, 1989, 2037, 2038, 1990
1242, 1989, 2037, 2038, 1990, 1991, 2039, 2040, 1992
1243, 1988, 2036, 2041, 1993, 1990, 2038, 2042, 1994
1244, 1990, 2038, 2042, 1994, 1992, 2040, 2043, 1995
1245, 1993, 2041, 2044, 1996, 1994, 2042, 2045, 1997
1246, 1994, 2042, 2045, 1997, 1995, 2043, 2046, 1998
1247, 1996, 2044, 2027, 1979, 1997, 2045, 2047, 1999
1248, 1997, 2045, 2047, 1999, 1998, 2046, 2048, 2000
1249, 1979, 2027, 2028, 1980, 1999, 2047, 2049, 2001
1250, 1999, 2047, 2049, 2001, 2000, 2048, 2050, 2002
1251, 1980, 2028, 2034, 1986, 2001, 2049, 2051, 2003
1252, 2001, 2049, 2051, 2003, 2002, 2050, 2052, 2004
1253, 1986, 2034, 2053, 2005, 2003, 2051, 2054, 2006
1254, 2003, 2051, 2054, 2006, 2004, 2052, 2055, 2007
1255, 2005, 2053, 2056, 2008, 2006, 2054, 2057, 2009
1256, 2006, 2054, 2057, 2009, 2007, 2055, 2058, 2010
1257, 2008, 2056, 2059, 2011, 2009, 2057, 2060, 2012
1258, 2009, 2057, 2060, 2012, 2010, 2058, 2061, 2013
1259, 2011, 2059, 2062, 2014, 2012, 2060, 2063, 2015
1260, 2012, 2060, 2063, 2015, 2013, 2061, 2064, 2016
1261, 2017, 2065, 2066, 2018, 2019, 2067, 2068, 2020
1262, 2019, 2067, 2068, 2020, 2021, 2069, 2070, 2022
1263, 2021, 2069, 2070, 2022, 2023, 2071, 2072, 2024
1264, 2023, 2071, 2072, 2024, 2025, 2073, 2074, 2026
1265, 2025, 2073, 2074, 2026, 2027, 2075, 2076, 2028
1266, 2018, 2066, 2077, 2029, 2020, 2068, 2078, 2030
1267, 2020, 2068, 2078, 2030, 2022, 2070, 2079, 2031
1268, 2022, 2070, 2079, 2031, 2024, 2072, 2080, 2032
1269, 2024, 2072, 2080, 2032, 2026, 2074, 2081, 2033
1270, 2026, 2074, 2081, 2033, 2028, 2076, 2082, 2034
1271, 2035, 2083, 2084, 2036, 2037, 2085, 2086, 2038
1272, 2037, 2085, 2086, 2038, 2039, 2087, 2088, 2040
1273, 2036, 2084, 2089, 2041, 2038, 2086, 2090, 2042
1274, 2038, 2086, 2090, 2042, 2040, 2088, 2091, 2043
1275, 2041, 2089, 2092, 2044, 2042, 2090, 2093, 2045
1276, 2042, 2090, 2093, 2045, 2043, 2091, 2094, 2046
1277, 2044, 2092, 2075, 2027, 2045, 2093, 2095, 2047
1278, 2045, 2093, 2095, 2047, 2046, 2094, 2096, 2048
1279, 2027, 2075, 2076, 2028, 2047, 2095, 2097, 2049
1280, 2047, 2095, 2097, 2049, 2048, 2096, 2098, 2050
1281, 2028, 2076, 2082, 2034, 2049, 2097, 2099, 2051
1282, 2049, 2097, 2099, 2051, 2050, 2098, 2100, 2052
1283, 2034, 2082, 2101, 2053, 2051, 2099, 2102, 2054
1284, 2051, 2099, 2102, 2054, 2052, 2100, 2103, 2055
1285, 2053, 2101, 2104, 2056, 2054, 2102, 2105, 2057
1286, 2054, 2102, 2105, 2057, 2055, 2103, 2106, 2058
1287, 2056, 2104, 2107, 2059, 2057, 2105, 2108, 2060
1288, 2057, 2105, 2108, 2060, 2058, 2106, 2109, 2061
1289, 2059, 2107, 2110, 2062, 2060, 2108, 2111, 2063
1290, 2060, 2108, 2111, 2063, 2061, 2109, 2112, 2064
1291, 2065, 2113, 2114, 2066, 2067, 2115, 2116, 2068
1292, 2067, 2115, 2116, 2068, 2069, 2117, 2118, 2070
1293, 2069, 2117, 2118, 2070, 2071, 2119, 2120, 2072
1294, 2071, 2119, 2120, 2072, 2073, 2121, 2122, 2074
1295, 2073, 2121, 2122, 2074, 2075, 2123, 2124, 2076
1296, 2066, 2114, 2125, 2077, 2068, 2116, 2126, 2078
1297, 2068, 2116, 2126, 2078, 2070, 2118, 2127, 2079
1298, 2070, 2118, 2127, 2079, 2072, 2120, 2128, 2080
1299, 2072, 2120, 2128, 2080, 2074, 2122, 2129, 2081
1300, 2074, 2122, 2129, 2081, 2076, 2124, 2130, 2082
1301, 2083, 2131, 2132, 2084, 2085, 2133, 2134, 2086
1302, 2085, 2133, 2134, 2086, 2087, 2135, 2136, 2088
1303, 2084, 2132, 2137, 2089, 2086, 2134, 2138, 2090
1304, 2086, 2134, 2138, 2090, 2088, 2136, 2139, 2091
1305, 2089, 2137, 2140, 2092, 2090, 2138, 2141, 2093
1306, 2090, 2138, 2141, 2093, 2091, 2139, 2142, 2094
1307, 2092, 2140, 2123, 2075, 2093, 2141, 2143, 2095
1308, 2093, 2141, 2143, 2095, 2094, 2142, 2144, 2096
1309, 2075, 2123, 2124, 2076, 2095, 2143, 2145, 2097
1310, 2095, 2143, 2145, 2097, 2096, 2144, 2146, 2098
1311, 2076, 2124, 2130, 2082, 2097, 2145, 2147, 2099
1312, 2097, 2145, 2147, 2099, 2098, 2146, 2148, 2100
1313, 2082, 2130, 2149, 2101, 2099, 2147, 2150, 2102
1314, 2099, 2147, 2150, 2102, 2100, 2148, 2151, 2103
1315, 2101, 2149, 2152, 2104, 2102, 2150, 2153, 2105
1316, 2102, 2150, 2153, 2105, 2103, 2151, 2154, 2106
1317, 2104, 2152, 2155, 2107, 2105, 2153, 2156, 2108
1318, 2105, 2153, 2156, 2108, 2106, 2154, 2157, 2109
1319, 2107, 2155, 2158, 2110, 2108, 2156, 2159, 2111
1320, 2108, 2156, 2159, 2111, 2109, 2157, 2160, 2112
1321, 2113, 2161, 2162, 2114, 2115, 2163, 2164, 2116
1322, 2115, 2163, 2164, 2116, 2117, 2165, 2166, 2118
1323, 2117, 2165, 2166, 2118, 2119, 2167, 2168, 2120
1324, 2119, 2167, 2168, 2120, 2121, 2169, 2170, 2122
1325, 2121, 2169, 2170, 2122, 2123, 2171, 2172, 2124
1326, 2114, 2162, 2173, 2125, 2116, 2164, 2174, 2126
1327, 2116, 2164, 2174, 2126, 2118, 2166, 2175, 2127
1328, 2118, 2166, 2175, 2127, 2120, 2168, 2176, 2128
1329, 2120, 2168, 2176, 2128, 2122, 2170, 2177, 2129
1330, 2122, 2170, 2177, 2129, 2124, 2172, 2178, 2130
1331, 2131, 2179, 2180, 2132, 2133, 2181, 2182, 2134
1332, 2133, 2181, 2182, 2134, 2135, 2183, 2184, 2136
1333, 2132, 2180, 2185, 2137, 2134, 2182, 2186, 2138
1334, 2134, 2182, 2186, 2138, 2136, 2184, 2187, 2139
1335, 2137, 2185, 2188, 2140, 2138, 2186, 2189, 2141
1336, 2138, 2186, 2189, 2141, 2139, 2187, 2190, 2142
1337, 2140, 2188, 2171, 2123, 2141, 2189, 2191, 2143
1338, 2141, 2189, 2191, 2143, 2142, 2190, 2192, 2144
1339, 2123, 2171, 2172, 2124, 2143, 2191, 2193, 2145
1340, 2143, 2191, 2193, 2145, 2144, 2192, 2194, 2146
1341, 2124, 2172, 2178, 2130, 2145, 2193, 2195, 2147
1342, 2145, 2193, 2195, 2147, 2146, 2194, 2196, 2148
1343, 2130, 2178, 2197, 2149, 2147, 2195, 2198, 2150
1344, 2147, 2195, 2198, 2150, 2148, 2196, 2199, 2151
1345, 2149, 2197, 2200, 2152, 2150, 2198, 2201, 2153
1346, 2150, 2198, 2201, 2153, 2151, 2199, 2202, 2154
1347, 2152, 2200, 2203, 2155, 2153, 2201, 2204, 2156
1348, 2153, 2201, 2204, 2156, 2154, 2202, 2205, 2157
1349, 2155, 2203, 2206, 2158, 2156, 2204, 2207, 2159
1350, 2156, 2204, 2207, 2159, 2157, 2205, 2208, 2160
1351, 2161, 2209, 2210, 2162, 2163, 2211, 2212, 2164
1352, 2163, 2211, 2212, 2164, 2165, 2213, 2214, 2166
1353, 2165, 2213, 2214, 2166, 2167, 2215, 2216, 2168
1354, 2167, 2215, 2216, 2168, 2169, 2217, 2218, 2170
1355, 2169, 2217, 2218, 2170, 2171, 2219, 2220, 2172
1356, 2162, 2210, 2221, 2173, 2164, 2212, 2222, 2174
1357, 2164, 2212, 2222, 2174, 2166, 2214, 2223, 2175
1358, 2166, 2214, 2223, 2175, 2168, 2216, 2224, 2176
1359, 2168, 2216, 2224, 2176, 2170, 2218, 2225, 2177
1360, 2170, 2218, 2225, 2177, 2172, 2220, 2226, 2178
1361, 2179, 2227, 2228, 2180, 2181, 2229, 2230, 2182
1362, 2181, 2229, 2230, 2182, 2183, 2231, 2232, 2184
1363, 2180, 2228, 2233, 2185, 2182, 2230, 2234, 2186
1364, 2182, 2230, 2234, 2186, 2184, 2232, 2235, 2187
1365, 2185, 2233, 2236, 2188, 2186, 2234, 2237, 2189
1366, 2186, 2234, 2237, 2189, 2187, 2235, 2238, 2190
1367, 2188, 2236, 2219, 2171, 2189, 2237, 2239, 2191
1368, 2189, 2237, 2239, 2191, 2190, 2238, 2240, 2192
1369, 2171, 2219, 2220, 2172, 2191, 2239, 2241, 2193
1370, 2191, 2239, 2241, 2193, 2192, 2240, 2242, 2194
1371, 2172, 2220, 2226, 2178, 2193, 2241, 2243, 2195
1372, 2193, 2241, 2243, 2195, 2194, 2242, 2244, 2196
1373, 2178, 2226, 2245, 2197, 2195, 2243, 2246, 2198
1374, 2195, 2243, 2246, 2198, 2196, 2244, 2247, 2199
1375, 2197, 2245, 2248, 2200, 2198, 2246, 2249, 2201
1376, 2198, 2246, 2249, 2201, 2199, 2247, 2250, 2202
1377, 2200, 2248, 2251, 2203, 2201, 2249, 2252, 2204
1378, 2201, 2249, 2252, 2204, 2202, 2250, 2253, 2205
1379, 2203, 2251, 2254, 2206, 2204, 2252, 2255, 2207
1380, 2204, 2252, 2255, 2207, 2205, 2253, 2256, 2208
1381, 2209, 2257, 2258, 2210, 2211, 2259, 2260, 2212
1382, 2211, 2259, 2260, 2212, 2213, 2261, 2262, 2214
1383, 2213, 2261, 2262, 2214, 2215, 2263, 2264, 2216
1384, 2215, 2263, 2264, 2216, 2217, 2265, 2266, 2218
1385, 2217, 2265, 2266, 2218, 2219, 2267, 2268, 2220
1386, 2210, 2258, 2269, 2221, 2212, 2260, 2270, 2222
1387, 2212, 2260, 2270, 2222, 2214, 2262, 2271, 2223
1388, 2214, 2262, 2271, 2223, 2216, 2264, 2272, 2224
1389, 2216, 2264, 2272, 2224, 2218, 2266, 2273, 2225
1390, 2218, 2266, 2273, 2225, 2220, 2268, 2274, 2226
1391, 2227, 2275, 2276, 2228, 2229, 2277, 2278, 2230
1392, 2229, 2277, 2278, 2230, 2231, 2279, 2280, 2232
1393, 2228, 2276, 2281, 2233, 2230, 2278, 2282, 2234
1394, 2230, 2278, 2282, 2234, 2232, 2280, 2283, 2235
1395, 2233, 2281, 2284, 2236, 2234, 2282, 2285, 2237
1396, 2234, 2282, 2285, 2237, 2235, 2283, 2286, 2238
1397, 2236, 2284, 2267, 2219, 2237, 2285, 2287, 2239
1398, 2237, 2285, 2287, 2239, 2238, 2286, 2288, 2240
1399, 2219, 2267, 2268, 2220, 2239, 2287, 2289, 2241
1400, 2239, 2287, 2289, 2241, 2240, 2288, 2290, 2242
1401, 2220, 2268, 2274, 2226, 2241, 2289, 2291, 2243
1402, 2241, 2289, 2291, 2243, 2242, 2290, 2292, 2244
1403, 2226, 2274, 2293, 2245, 2243, 2291, 2294, 2246
1404, 2243, 2291, 2294, 2246, 2244, 2292, 2295, 2247
1405, 2245, 2293, 2296, 2248, 2246, 2294, 2297, 2249
1406, 2246, 2294, 2297, 2249, 2247, 2295, 2298, 2250
1407, 2248, 2296, 2299, 2251, 2249, 2297, 2300, 2252
1408, 2249, 2297, 2300, 2252, 2250, 2298, 2301, 2253
1409, 2251, 2299, 2302, 2254, 2252, 2300, 2303, 2255
1410, 2252, 2300, 2303, 2255, 2253, 2301, 2304, 2256
1411, 2257, 2305, 2306, 2258, 2259, 2307, 2308, 2260
1412, 2259, 2307, 2308, 2260, 2261, 2309, 2310, 2262
1413, 2261, 2309, 2310, 2262, 2263, 2311, 2312, 2264
1414, 2263, 2311, 2312, 2264, 2265, 2313, 2314, 2266
1415, 2265, 2313, 2314, 2266, 2267, 2315, 2316, 2268
1416, 2258, 2306, 2317, 2269, 2260, 2308, 2318, 2270
1417, 2260, 2308, 2318, 2270, 2262, 2310, 2319, 2271
1418, 2262, 2310, 2319, 2271, 2264, 2312, 2320, 2272
1419, 2264, 2312, 2320, 2272, 2266, 2314, 2321, 2273
1420, 2266, 2314, 2321, 2273, 2268, 2316, 2322, 2274
1421, 2275, 2323, 2324, 2276, 2277, 2325, 2326, 2278
1422, 2277, 2325, 2326, 2278, 2279, 2327, 2328, 2280
1423, 2276, 2324, 2329, 2281, 2278, 2326, 2330, 2282
1424, 2278, 2326, 2330, 2282, 2280, 2328, 2331, 2283
1425, 2281, 2329, 2332, 2284, 2282, 2330, 2333, 2285
1426, 2282, 2330, 2333, 2285, 2283, 2331, 2334, 2286
1427, 2284, 2332, 2315, 2267, 2285, 2333, 2335, 2287
1428, 2285, 2333, 2335, 2287, 2286, 2334, 2336, 2288
1429, 2267, 2315, 2316, 2268, 2287, 2335, 2337, 2289
1430, 2287, 2335, 2337, 2289, 2288, 2336, 2338, 2290
1431, 2268, 2316, 2322, 2274, 2289, 2337, 2339, 2291
1432, 2289, 2337, 2339, 2291, 2290, 2338, 2340, 2292
1433, 2274, 2322, 2341, 2293, 2291, 2339, 2342, 2294
1434, 2291, 2339, 2342, 2294, 2292, 2340, 2343, 2295
1435, 2293, 2341, 2344, 2296, 2294, 2342, 2345, 2297
1436, 2294, 2342, 2345, 2297, 2295, 2343, 2346, 2298
1437, 2296, 2344, 2347, 2299, 2297, 2345, 2348, 2300
1438, 2297, 2345, 2348, 2300, 2298, 2346, 2349, 2301
1439, 2299, 2347, 2350, 2302, 2300, 2348, 2351, 2303
1440, 2300, 2348, 2351, 2303, 2301, 2349, 2352, 2304
1441, 2305, 2353, 2354, 2306, 2307, 2355, 2356, 2308
1442, 2307, 2355, 2356, 2308, 2309, 2357, 2358, 2310
1443, 2309, 2357, 2358, 2310, 2311, 2359, 2360, 2312
1444, 2311, 2359, 2360, 2312, 2313, 2361, 2362, 2314
1445, 2313, 2361, 2362, 2314, 2315, 2363, 2364, 2316
1446, 2306, 2354, 2365, 2317, 2308, 2356, 2366, 2318
1447, 2308, 2356, 2366, 2318, 2310, 2358, 2367, 2319
1448, 2310, 2358, 2367, 2319, 2312, 2360, 2368, 2320
1449, 2312, 2360, 2368, 2320, 2314, 2362, 2369, 2321
1450, 2314, 2362, 2369, 2321, 2316, 2364, 2370, 2322
1451, 2323, 2371, 2372, 2324, 2325, 2373, 2374, 2326
1452, 2325, 2373, 2374, 2326, 2327, 2375, 2376, 2328
1453, 2324, 2372, 2377, 2329, 2326, 2374, 2378, 2330
1454, 2326, 2374, 2378, 2330, 2328, 2376, 2379, 2331
1455, 2329, 2377, 2380, 2332, 2330, 2378, 2381, 2333
1456, 2330, 2378, 2381, 2333, 2331, 2379, 2382, 2334
1457, 2332, 2380, 2363, 2315, 2333, 2381, 2383, 2335
1458, 2333, 2381, 2383, 2335, 2334, 2382, 2384, 2336
1459, 2315, 2363, 2364, 2316, 2335, 2383, 2385, 2337
1460, 2335, 2383, 2385, 2337, 2336, 2384, 2386, 2338
1461, 2316, 2364, 2370, 2322, 2337, 2385, 2387, 2339
1462, 2337, 2385, 2387, 2339, 2338, 2386, 2388, 2340
1463, 2322, 2370, 2389, 2341, 2339, 2387, 2390, 2342
1464, 2339, 2387, 2390, 2342, 2340, 2388, 2391, 2343
1465, 2341, 2389, 2392, 2344, 2342, 2390, 2393, 2345
1466, 2342, 2390, 2393, 2345, 2343, 2391, 2394, 2346
1467, 2344, 2392, 2395, 2347, 2345, 2393, 2396, 2348
1468, 2345, 2393, 2396, 2348, 2346, 2394, 2397, 2349
1469, 2347, 2395, 2398, 2350, 2348, 2396, 2399, 2351
1470, 2348, 2396, 2399, 2351, 2349, 2397, 2400, 2352
1471, 2353, 2401, 2402, 2354, 2355, 2403, 2404, 2356
1472, 2355, 2403, 2404, 2356, 2357, 2405, 2406, 2358
1473, 2357, 2405, 2406, 2358, 2359, 2407, 2408, 2360
1474, 2359, 2407, 2408, 2360, 2361, 2409, 2410, 2362
1475, 2361, 2409, 2410, 2362, 2363, 2411, 2412, 2364
1476, 2354, 2402, 2413, 2365, 2356, 2404, 2414, 2366
1477, 2356, 2404, 2414, 2366, 2358, 2406, 2415, 2367
1478, 2358, 2406, 2415, 2367, 2360, 2408, 2416, 2368
1479, 2360, 2408, 2416, 2368, 2362, 2410, 2417, 2369
1480, 2362, 2410, 2417, 2369, 2364, 2412, 2418, 2370
1481, 2371, 2419, 2420, 2372, 2373, 2421, 2422, 2374
1482, 2373, 2421, 2422, 2374, 2375, 2423, 2424, 2376
1483, 2372, 2420, 2425, 2377, 2374, 2422, 2426, 2378
1484, 2374, 2422, 2426, 2378, 2376, 2424, 2427, 2379
1485, 2377, 2425, 2428, 2380, 2378, 2426, 2429, 2381
1486, 2378, 2426, 2429, 2381, 2379, 2427, 2430, 2382
1487, 2380, 2428, 2411, 2363, 2381, 2429, 2431, 2383
1488, 2381, 2429, 2431, 2383, 2382, 2430, 2432, 2384
1489, 2363, 2411, 2412, 2364, 2383, 2431, 2433, 2385
1490, 2383, 2431, 2433, 2385, 2384, 2432, 2434, 2386
1491, 2364, 2412, 2418, 2370, 2385, 2433, 2435, 2387
1492, 2385, 2433, 2435, 2387, 2386, 2434, 2436, 2388
1493, 2370, 2418, 2437, 2389, 2387, 2435, 2438, 2390
1494, 2387, 2435, 2438, 2390, 2388, 2436, 2439, 2391
1495, 2389, 2437, 2440, 2392, 2390, 2438, 2441, 2393
1496, 2390, 2438, 2441, 2393, 2391, 2439, 2442, 2394
1497, 2392, 2440, 2443, 2395, 2393, 2441, 2444, 2396
1498, 2393, 2441, 2444, 2396, 2394, 2442, 2445, 2397
1499, 2395, 2443, 2446, 2398, 2396, 2444, 2447, 2399
1500, 2396, 2444, 2447, 2399, 2397, 2445, 2448, 2400
1501, 2401, 2449, 2450, 2402, 2403, 2451, 2452, 2404
1502, 2403, 2451, 2452, 2404, 2405, 2453, 2454, 2406
1503, 2405, 2453, 2454, 2406, 2407, 2455, 2456, 2408
1504, 2407, 2455, 2456, 2408, 2409, 2457, 2458, 2410
1505, 2409, 2457, 2458, 2410, 2411, 2459, 2460, 2412
1506, 2402, 2450, 2461, 2413, 2404, 2452, 2462, 2414
1507, 2404, 2452, 2462, 2414, 2406, 2454, 2463, 2415
1508, 2406, 2454, 2463, 2415, 2408, 2456, 2464, 2416
1509, 2408, 2456, 2464, 2416, 2410, 2458, 2465, 2417
1510, 2410, 2458, 2465, 2417, 2412, 2460, 2466, 2418
1511, 2419, 2467, 2468, 2420, 2421, 2469, 2470, 2422
1512, 2421, 2469, 2470, 2422, 2423, 2471, 2472, 2424
1513, 2420, 2468, 2473, 2425, 2422, 2470, 2474, 2426
1514, 2422, 2470, 2474, 2426, 2424, 2472, 2475, 2427
1515, 2425, 2473, 2476, 2428, 2426, 2474, 2477, 2429
1516, 2426, 2474, 2477, 2429, 2427, 2475, 2478, 2430
1517, 2428, 2476, 2459, 2411, 2429, 2477, 2479, 2431
1518, 2429, 2477, 2479, 2431, 2430, 2478, 2480, 2432
1519, 2411, 2459, 2460, 2412, 2431, 2479, 2481, 2433
1520, 2431, 2479, 2481, 2433, 2432, 2480, 2482, 2434
1521, 2412, 2460, 2466, 2418, 2433, 2481, 2483, 2435
1522, 2433, 2481, 2483, 2435, 2434, 2482, 2484, 2436
1523, 2418, 2466, 2485, 2437, 2435, 2483, 2486, 2438
1524, 2435, 2483, 2486, 2438, 2436, 2484, 2487, 2439
1525, 2437, 2485, 2488, 2440, 2438, 2486, 2489, 2441
1526, 2438, 2486, 2489, 2441, 2439, 2487, 2490, 2442
1527, 2440, 2488, 2491, 2443, 2441, 2489, 2492, 2444
1528, 2441, 2489, 2492, 2444, 2442, 2490, 2493, 2445
1529, 2443, 2491, 2494, 2446, 2444, 2492, 2495, 2447
1530, 2444, 2492, 2495, 2447, 2445, 2493, 2496, 2448
1531, 2449, 2497, 2498, 2450, 2451, 2499, 2500, 2452
1532, 2451, 2499, 2500, 2452, 2453, 2501, 2502, 2454
1533, 2453, 2501, 2502, 2454, 2455, 2503, 2504, 2456
1534, 2455, 2503, 2504, 2456, 2457, 2505, 2506, 2458
1535, 2457, 2505, 2506, 2458, 2459, 2507, 2508, 2460
1536, 2450, 2498, 2509, 2461, 2452, 2500, 2510, 2462
1537, 2452, 2500, 2510, 2462, 2454, 2502, 2511, 2463
1538, 2454, 2502, 2511, 2463, 2456, 2504, 2512, 2464
1539, 2456, 2504, 2512, 2464, 2458, 2506, 2513, 2465
1540, 2458, 2506, 2513, 2465, 2460, 2508, 2514, 2466
1541, 2467, 2515, 2516, 2468, 2469, 2517, 2518, 2470
1542, 2469, 2517, 2518, 2470, 2471, 2519, 2520, 2472
1543, 2468, 2516, 2521, 2473, 2470, 2518, 2522, 2474
1544, 2470, 2518, 2522, 2474, 2472, 2520, 2523, 2475
1545, 2473, 2521, 2524, 2476, 2474, 2522, 2525, 2477
1546, 2474, 2522, 2525, 2477, 2475, 2523, 2526, 2478
1547, 2476, 2524, 2507, 2459, 2477, 2525, 2527, 2479
1548, 2477, 2525, 2527, 2479, 2478, 2526, 2528, 2480
1549, 2459, 2507, 2508, 2460, 2479, 2527, 2529, 2481
1550, 2479, 2527, 2529, 2481, 2480, 2528, 2530, 2482
1551, 2460, 2508, 2514, 2466, 2481, 2529, 2531, 2483
1552, 2481, 2529, 2531, 2483, 2482, 2530, 2532, 2484
1553, 2466, 2514, 2533, 2485, 2483, 2531, 2534, 2486
1554, 2483, 2531, 2534, 2486, 2484, 2532, 2535, 2487
1555, 2485, 2533, 2536, 2488, 2486, 2534, 2537, 2489
1556, 2486, 2534, 2537, 2489, 2487, 2535, 2538, 2490
1557, 2488, 2536, 2539, 2491, 2489, 2537, 2540, 2492
1558, 2489, 2537, 2540, 2492, 2490, 2538, 2541, 2493
1559, 2491, 2539, 2542, 2494, 2492, 2540, 2543, 2495
1560, 2492, 2540, 2543, 2495, 2493, 2541, 2544, 2496
1561, 2497, 2545, 2546, 2498, 2499, 2547, 2548, 2500
1562, 2499, 2547, 2548, 2500, 2501, 2549, 2550, 2502
1563, 2501, 2549, 2550, 2502, 2503, 2551, 2552, 2504
1564, 2503, 2551, 2552, 2504, 2505, 2553, 2554, 2506
1565, 2505, 2553, 2554, 2506, 2507, 2555, 2556, 2508
1566, 2498, 2546, 2557, 2509, 2500, 2548, 2558, 2510
1567, 2500, 2548, 2558, 2510, 2502, 2550, 2559, 2511
1568, 2502, 2550, 2559, 2511, 2504, 2552, 2560, 2512
1569, 2504, 2552, 2560, 2512, 2506, 2554, 2561, 2513
1570, 2506, 2554, 2561, 2513, 2508, 2556, 2562, 2514
1571, 2515, 2563, 2564, 2516, 2517, 2565, 2566, 2518
1572, 2517, 2565, 2566, 2518, 2519, 2567, 2568, 2520
1573, 2516, 2564, 2569, 2521, 2518, 2566, 2570, 2522
1574, 2518, 2566, 2570, 2522, 2520, 2568, 2571, 2523
1575, 2521, 2569, 2572, 2524, 2522, 2570, 2573, 2525
1576, 2522, 2570, 2573, 2525, 2523, 2571, 2574, 2526
1577, 2524, 2572, 2555, 2507, 2525, 2573, 2575, 2527
1578, 2525, 2573, 2575, 2527, 2526, 2574, 2576, 2528
1579, 2507, 2555, 2556, 2508, 2527, 2575, 2577, 2529
1580, 2527, 2575, 2577, 2529, 2528, 2576, 2578, 2530
1581, 2508, 2556, 2562, 2514, 2529, 2577, 2579, 2531
1582, 2529, 2577, 2579, 2531, 2530, 2578, 2580, 2532
1583, 2514, 2562, 2581, 2533, 2531, 2579, 2582, 2534
1584, 2531, 2579, 2582, 2534, 2532, 2580, 2583, 2535
1585, 2533, 2581, 2584, 2536, 2534, 2582, 2585, 2537
1586, 2534, 2582, 2585, 2537, 2535, 2583, 2586, 2538
1587, 2536, 2584, 2587, 2539, 2537, 2585, 2588, 2540
1588, 2537, 2585, 2588, 2540, 2538, 2586, 2589, 2541
1589, 2539, 2587, 2590, 2542, 2540, 2588, 2591, 2543
1590, 2540, 2588, 2591, 2543, 2541, 2589, 2592, 2544
1591, 2545, 2593, 2594, 2546, 2547, 2595, 2596, 2548
1592, 2547, 2595, 2596, 2548, 2549, 2597, 2598, 2550
1593, 2549, 2597, 2598, 2550, 2551, 2599, 2600, 2552
1594, 2551, 2599, 2600, 2552, 2553, 2601, 2602, 2554
1595, 2553, 2601, 2602, 2554, 2555, 2603, 2604, 2556
1596, 2546, 2594, 2605, 2557, 2548, 2596, 2606, 2558
1597, 2548, 2596, 2606, 2558, 2550, 2598, 2607, 2559
1598, 2550, 2598, 2607, 2559, 2552, 2600, 2608, 2560
1599, 2552, 2600, 2608, 2560, 2554, 2602, 2609, 2561
1600, 2554, 2602, 2609, 2561, 2556, 2604, 2610, 2562
1601, 2563, 2611, 2612, 2564, 2565, 2613, 2614, 2566
1602, 2565, 2613, 2614, 2566, 2567, 2615, 2616, 2568
1603, 2564, 2612, 2617, 2569, 2566, 2614, 2618, 2570
1604, 2566, 2614, 2618, 2570, 2568, 2616, 2619, 2571
1605, 2569, 2617, 2620, 2572, 2570, 2618, 2621, 2573
1606, 2570, 2618, 2621, 2573, 2571, 2619, 2622, 2574
1607, 2572, 2620, 2603, 2555, 2573, 2621, 2623, 2575
1608, 2573, 2621, 2623, 2575, 2574, 2622, 2624, 2576
1609, 2555, 2603, 2604, 2556, 2575, 2623, 2625, 2577
1610, 2575, 2623, 2625, 2577, 2576, 2624, 2626, 2578
1611, 2556, 2604, 2610, 2562, 2577, 2625, 2627, 2579
1612, 2577, 2625, 2627, 2579, 2578, 2626, 2628, 2580
1613, 2562, 2610, 2629, 2581, 2579, 2627, 2630, 2582
1614, 2579, 2627, 2630, 2582, 2580, 2628, 2631, 2583
1615, 2581, 2629, 2632, 2584, 2582, 2630, 2633, 2585
1616, 2582, 2630, 2633, 2585, 2583, 2631, 2634, 2586
1617, 2584, 2632, 2635, 2587, 2585, 2633, 2636, 2588
1618, 2585, 2633, 2636, 2588, 2586, 2634, 2637, 2589
1619, 2587, 2635, 2638, 2590, 2588, 2636, 2639, 2591
1620, 2588, 2636, 2639, 2591, 2589, 2637, 2640, 2592
1621, 2593, 2641, 2642, 2594, 2595, 2643, 2644, 2596
1622, 2595, 2643, 2644, 2596, 2597, 2645, 2646, 2598
1623, 2597, 2645, 2646, 2598, 2599, 2647, 2648, 2600
1624, 2599, 2647, 2648, 2600, 2601, 2649, 2650, 2602
1625, 2601, 2649, 2650, 2602, 2603, 2651, 2652, 2604
1626, 2594, 2642, 2653, 2605, 2596, 2644, 2654, 2606
1627, 2596, 2644, 2654, 2606, 2598, 2646, 2655, 2607
1628, 2598, 2646, 2655, 2607, 2600, 2648, 2656, 2608
1629, 2600, 2648, 2656, 2608, 2602, 2650, 2657, 2609
1630, 2602, 2650, 2657, 2609, 2604, 2652, 2658, 2610
1631, 2611, 2659, 2660, 2612, 2613, 2661, 2662, 2614
1632, 2613, 2661, 2662, 2614, 2615, 2663, 2664, 2616
1633, 2612, 2660, 2665, 2617, 2614, 2662, 2666, 2618
1634, 2614, 2662, 2666, 2618, 2616, 2664, 2667, 2619
1635, 2617, 2665, 2668, 2620, 2618, 2666, 2669, 2621
1636, 2618, 2666, 2669, 2621, 2619, 2667, 2670, 2622
1637, 2620, 2668, 2651, 2603, 2621, 2669, 2671, 2623
1638, 2621, 2669, 2671, 2623, 2622, 2670, 2672, 2624
1639, 2603, 2651, 2652, 2604, 2623, 2671, 2673, 2625
1640, 2623, 2671, 2673, 2625, 2624, 2672, 2674, 2626
1641, 2604, 2652, 2658, 2610, 2625, 2673, 2675, 2627
1642, 2625, 2673, 2675, 2627, 2626, 2674, 2676, 2628
1643, 2610, 2658, 2677, 2629, 2627, 2675, 2678, 2630
1644, 2627, 2675, 2678, 2630, 2628, 2676, 2679, 2631
1645, 2629, 2677, 2680, 2632, 2630, 2678, 2681, 2633
1646, 2630, 2678, 2681, 2633, 2631, 2679, 2682, 2634
1647, 2632, 2680, 2683, 2635, 2633, 2681, 2684, 2636
1648, 2633, 2681, 2684, 2636, 2634, 2682, 2685, 2637
1649, 2635, 2683, 2686, 2638, 2636, 2684, 2687, 2639
1650, 2636, 2684, 2687, 2639, 2637, 2685, 2688, 2640
1651, 2641, 2689, 2690, 2642, 2643, 2691, 2692, 2644
1652, 2643, 2691, 2692, 2644, 2645, 2693, 2694, 2646
1653, 2645, 2693, 2694, 2646, 2647, 2695, 2696, 2648
1654, 2647, 2695, 2696, 2648, 2649, 2697, 2698, 2650
1655, 2649, 2697, 2698, 2650, 2651, 2699, 2700, 2652
1656, 2642, 2690, 2701, 2653, 2644, 2692, 2702, 2654
1657, 2644, 2692, 2702, 2654, 2646, 2694, 2703, 2655
1658, 2646, 2694, 2703, 2655, 2648, 2696, 2704, 2656
1659, 2648, 2696, 2704, 2656, 2650, 2698, 2705, 2657
1660, 2650, 2698, 2705, 2657, 2652, 2700, 2706, 2658
1661, 2659, 2707, 2708, 2660, 2661, 2709, 2710, 2662
1662, 2661, 2709, 2710, 2662, 2663, 2711, 2712, 2664
1663, 2660, 2708, 2713, 2665, 2662, 2710, 2714, 2666
1664, 2662, 2710, 2714, 2666, 2664, 2712, 2715, 2667
1665, 2665, 2713, 2716, 2668, 2666, 2714, 2717, 2669
1666, 2666, 2714, 2717, 2669, 2667, 2715, 2718, 2670
1667, 2668, 2716, 2699, 2651, 2669, 2717, 2719, 2671
1668, 2669, 2717, 2719, 2671, 2670, 2718, 2720, 2672
1669, 2651, 2699, 2700, 2652, 2671, 2719, 2721, 2673
1670, 2671, 2719, 2721, 2673, 2672, 2720, 2722, 2674
1671, 2652, 2700, 2706, 2658, 2673, 2721, 2723, 2675
1672, 2673, 2721, 2723, 2675, 2674, 2722, 2724, 2676
1673, 2658, 2706, 2725, 2677, 2675, 2723, 2726, 2678
1674, 2675, 2723, 2726, 2678, 2676, 2724, 2727, 2679
1675, 2677, 2725, 2728, 2680, 2678, 2726, 2729, 2681
1676, 2678, 2726, 2729, 2681, 2679, 2727, 2730, 2682
1677, 2680, 2728, 2731, 2683, 2681, 2729, 2732, 2684
1678, 2681, 2729, 2732, 2684, 2682, 2730, 2733, 2685
1679, 2683, 2731, 2734, 2686, 2684, 2732, 2735, 2687
1680, 2684, 2732, 2735, 2687, 2685, 2733, 2736, 2688
1681, 2689, 2737, 2738, 2690, 2691, 2739, 2740, 2692
1682, 2691, 2739, 2740, 2692, 2693, 2741, 2742, 2694
1683, 2693, 2741, 2742, 2694, 2695, 2743, 2744, 2696
1684, 2695, 2743, 2744, 2696, 2697, 2745, 2746, 2698
1685, 2697, 2745, 2746, 2698, 2699, 2747, 2748, 2700
1686, 2690, 2738, 2749, 2701, 2692, 2740, 2750, 2702
1687, 2692, 2740, 2750, 2702, 2694, 2742, 2751, 2703
1688, 2694, 2742, 2751, 2703, 2696, 2744, 2752, 2704
1689, 2696, 2744, 2752, 2704, 2698, 2746, 2753, 2705
1690, 2698, 2746, 2753, 2705, 2700, 2748, 2754, 2706
1691, 2707, 2755, 2756, 2708, 2709, 2757, 2758, 2710
1692, 2709, 2757, 2758, 2710, 2711, 2759, 2760, 2712
1693, 2708, 2756, 2761, 2713, 2710, 2758, 2762, 2714
1694, 2710, 2758, 2762, 2714, 2712, 2760, 2763, 2715
1695, 2713, 2761, 2764, 2716, 2714, 2762, 2765, 2717
1696, 2714, 2762, 2765, 2717, 2715, 2763, 2766, 2718
1697, 2716, 2764, 2747, 2699, 2717, 2765, 2767, 2719
1698, 2717, 2765, 2767, 2719, 2718, 2766, 2768, 2720
1699, 2699, 2747, 2748, 2700, 2719, 2767, 2769, 2721
1700, 2719, 2767, 2769, 2721, 2720, 2768, 2770, 2722
1701, 2700, 2748, 2754, 2706, 2721, 2769, 2771, 2723
1702, 2721, 2769, 2771, 2723, 2722, 2770, 2772, 2724
1703, 2706, 2754, 2773, 2725, 2723, 2771, 2774, 2726
1704, 2723, 2771, 2774, 2726, 2724, 2772, 2775, 2727
1705, 2725, 2773, 2776, 2728, 2726, 2774, 2777, 2729
1706, 2726, 2774, 2777, 2729, 2727, 2775, 2778, 2730
1707, 2728, 2776, 2779, 2731, 2729, 2777, 2780, 2732
1708, 2729, 2777, 2780, 2732, 2730, 2778, 2781, 2733
1709, 2731, 2779, 2782, 2734, 2732, 2780, 2783, 2735
1710, 2732, 2780, 2783, 2735, 2733, 2781, 2784, 2736
1711, 2737, 2785, 2786, 2738, 2739, 2787, 2788, 2740
1712, 2739, 2787, 2788, 2740, 2741, 2789, 2790, 2742
1713, 2741, 2789, 2790, 2742, 2743, 2791, 2792, 2744
1714, 2743, 2791, 2792, 2744, 2745, 2793, 2794, 2746
1715, 2745, 2793, 2794, 2746, 2747, 2795, 2796, 2748
1716, 2738, 2786, 2797, 2749, 2740, 2788, 2798, 2750
1717, 2740, 2788, 2798, 2750, 2742, 2790, 2799, 2751
1718, 2742, 2790, 2799, 2751, 2744, 2792, 2800, 2752
1719, 2744, 2792, 2800, 2752, 2746, 2794, 2801, 2753
1720, 2746, 2794, 2801, 2753, 2748, 2796, 2802, 2754
1721, 2755, 2803, 2804, 2756, 2757, 2805, 2806, 2758
1722, 2757, 2805, 2806, 2758, 2759, 2807, 2808, 2760
1723, 2756, 2804, 2809, 2761, 2758, 2806, 2810, 2762
1724, 2758, 2806, 2810, 2762, 2760, 2808, 2811, 2763
1725, 2761, 2809, 2812, 2764, 2762, 2810, 2813, 2765
1726, 2762, 2810, 2813, 2765, 2763, 2811, 2814, 2766
1727, 2764, 2812, 2795, 2747, 2765, 2813, 2815, 2767
1728, 2765, 2813, 2815, 2767, 2766, 2814, 2816, 2768
1729, 2747, 2795, 2796, 2748, 2767, 2815, 2817, 2769
1730, 2767, 2815, 2817, 2769, 2768, 2816, 2818, 2770
1731, 2748, 2796, 2802, 2754, 2769, 2817, 2819, 2771
1732, 2769, 2817, 2819, 2771, 2770, 2818, 2820, 2772
1733, 2754, 2802, 2821, 2773, 2771, 2819, 2822, 2774
1734, 2771, 2819, 2822, 2774, 2772, 2820, 2823, 2775
1735, 2773, 2821, 2824, 2776, 2774, 2822, 2825, 2777
1736, 2774, 2822, 2825, 2777, 2775, 2823, 2826, 2778
1737, 2776, 2824, 2827, 2779, 2777, 2825, 2828, 2780
1738, 2777, 2825, 2828, 2780, 2778, 2826, 2829, 2781
1739, 2779, 2827, 2830, 2782, 2780, 2828, 2831, 2783
1740, 2780, 2828, 2831, 2783, 2781, 2829, 2832, 2784
1741, 2785, 2833, 2834, 2786, 2787, 2835, 2836, 2788
1742, 2787, 2835, 2836, 2788, 2789, 2837, 2838, 2790
1743, 2789, 2837, 2838, 2790, 2791, 2839, 2840, 2792
1744, 2791, 2839, 2840, 2792, 2793, 2841, 2842, 2794
1745, 2793, 2841, 2842, 2794, 2795, 2843, 2844, 2796
1746, 2786, 2834, 2845, 2797, 2788, 2836, 2846, 2798
1747, 2788, 2836, 2846, 2798, 2790, 2838, 2847, 2799
1748, 2790, 2838, 2847, 2799, 2792, 2840, 2848, 2800
1749, 2792, 2840, 2848, 2800, 2794, 2842, 2849, 2801
1750, 2794, 2842, 2849, 2801, 2796, 2844, 2850, 2802
1751, 2803, 2851, 2852, 2804, 2805, 2853, 2854, 2806
1752, 2805, 2853, 2854, 2806, 2807, 2855, 2856, 2808
1753, 2804, 2852, 2857, 2809, 2806, 2854, 2858, 2810
1754, 2806, 2854, 2858, 2810, 2808, 2856, 2859, 2811
1755, 2809, 2857, 2860, 2812, 2810, 2858, 2861, 2813
1756, 2810, 2858, 2861, 2813, 2811, 2859, 2862, 2814
1757, 2812, 2860, 2843, 2795, 2813, 2861, 2863, 2815
1758, 2813, 2861, 2863, 2815, 2814, 2862, 2864, 2816
1759, 2795, 2843, 2844, 2796, 2815, 2863, 2865, 2817
1760, 2815, 2863, 2865, 2817, 2816, 2864, 2866, 2818
1761, 2796, 2844, 2850, 2802, 2817, 2865, 2867, 2819
1762, 2817, 2865, 2867, 2819, 2818, 2866, 2868, 2820
1763, 2802, 2850, 2869, 2821, 2819, 2867, 2870, 2822
1764, 2819, 2867, 2870, 2822, 2820, 2868, 2871, 2823
1765, 2821, 2869, 2872, 2824, 2822, 2870, 2873, 2825
1766, 2822, 2870, 2873, 2825, 2823, 2871, 2874, 2826
1767, 2824, 2872, 2875, 2827, 2825, 2873, 2876, 2828
1768, 2825, 2873, 2876, 2828, 2826, 2874, 2877, 2829
1769, 2827, 2875, 2878, 2830, 2828, 2876, 2879, 2831
1770, 2828, 2876, 2879, 2831, 2829, 2877, 2880, 2832
1771, 2833, 2881, 2882, 2834, 2835, 2883, 2884, 2836
1772, 2835, 2883, 2884, 2836, 2837, 2885, 2886, 2838
1773, 2837, 2885, 2886, 2838, 2839, 2887, 2888, 2840
1774, 2839, 2887, 2888, 2840, 2841, 2889, 2890, 2842
1775, 2841, 2889, 2890, 2842, 2843, 2891, 2892, 2844
1776, 2834, 2882, 2893, 2845, 2836, 2884, 2894, 2846
1777, 2836, 2884, 2894, 2846, 2838, 2886, 2895, 2847
1778, 2838, 2886, 2895, 2847, 2840, 2888, 2896, 2848
1779, 2840, 2888, 2896, 2848, 2842, 2890, 2897, 2849
1780, 2842, 2890, 2897, 2849, 2844, 2892, 2898, 2850
1781, 2851, 2899, 2900, 2852, 2853, 2901, 2902, 2854
1782, 2853, 2901, 2902, 2854, 2855, 2903, 2904, 2856
1783, 2852, 2900, 2905, 2857, 2854, 2902, 2906, 2858
1784, 2854, 2902, 2906, 2858, 2856, 2904, 2907, 2859
1785, 2857, 2905, 2908, 2860, 2858, 2906, 2909, 2861
1786, 2858, 2906, 2909, 2861, 2859, 2907, 2910, 2862
1787, 2860, 2908, 2891, 2843, 2861, 2909, 2911, 2863
1788, 2861, 2909, 2911, 2863, 2862, 2910, 2912, 2864
1789, 2843, 2891, 2892, 2844, 2863, 2911, 2913, 2865
1790, 2863, 2911, 2913, 2865, 2864, 2912, 2914, 2866
1791, 2844, 2892, 2898, 2850, 2865, 2913, 2915, 2867
1792, 2865, 2913, 2915, 2867, 2866, 2914, 2916, 2868
1793, 2850, 2898, 2917, 2869, 2867, 2915, 2918, 2870
1794, 2867, 2915, 2918, 2870, 2868, 2916, 2919, 2871
1795, 2869, 2917, 2920, 2872, 2870, 2918, 2921, 2873
1796, 2870, 2918, 2921, 2873, 2871, 2919, 2922, 2874
1797, 2872, 2920, 2923, 2875, 2873, 2921, 2924, 2876
1798, 2873, 2921, 2924, 2876, 2874, 2922, 2925, 2877
1799, 2875, 2923, 2926, 2878, 2876, 2924, 2927, 2879
1800, 2876, 2924, 2927, 2879, 2877, 2925, 2928, 2880
1801, 2881, 2929, 2930, 2882, 2883, 2931, 2932, 2884
1802, 2883, 2931, 2932, 2884, 2885, 2933, 2934, 2886
1803, 2885, 2933, 2934, 2886, 2887, 2935, 2936, 2888
1804, 2887, 2935, 2936, 2888, 2889, 2937, 2938, 2890
1805, 2889, 2937, 2938, 2890, 2891, 2939, 2940, 2892
1806, 2882, 2930, 2941, 2893, 2884, 2932, 2942, 2894
1807, 2884, 2932, 2942, 2894, 2886, 2934, 2943, 2895
1808, 2886, 2934, 2943, 2895, 2888, 2936, 2944, 2896
1809, 2888, 2936, 2944, 2896, 2890, 2938, 2945, 2897
1810, 2890, 2938, 2945, 2897, 2892, 2940, 2946, 2898
1811, 2899, 2947, 2948, 2900, 2901, 2949, 2950, 2902
1812, 2901, 2949, 2950, 2902, 2903, 2951, 2952, 2904
1813, 2900, 2948, 2953, 2905, 2902, 2950, 2954, 2906
1814, 2902, 2950, 2954, 2906, 2904, 2952, 2955, 2907
1815, 2905, 2953, 2956, 2908, 2906, 2954, 2957, 2909
1816, 2906, 2954, 2957, 2909, 2907, 2955, 2958, 2910
1817, 2908, 2956, 2939, 2891, 2909, 2957, 2959, 2911
1818, 2909, 2957, 2959, 2911, 2910, 2958, 2960, 2912
1819, 2891, 2939, 2940, 2892, 2911, 2959, 2961, 2913
1820, 2911, 2959, 2961, 2913, 2912, 2960, 2962, 2914
1821, 2892, 2940, 2946, 2898, 2913, 2961, 2963, 2915
1822, 2913, 2961, 2963, 2915, 2914, 2962, 2964, 2916
1823, 2898, 2946, 2965, 2917, 2915, 2963, 2966, 2918
1824, 2915, 2963, 2966, 2918, 2916, 2964, 2967, 2919
1825, 2917, 2965, 2968, 2920, 2918, 2966, 2969, 2921
1826, 2918, 2966, 2969, 2921, 2919, 2967, 2970, 2922
1827, 2920, 2968, 2971, 2923, 2921, 2969, 2972, 2924
1828, 2921, 2969, 2972, 2924, 2922, 2970, 2973, 2925
1829, 2923, 2971, 2974, 2926, 2924, 2972, 2975, 2927
1830, 2924, 2972, 2975, 2927, 2925, 2973, 2976, 2928
1831, 2929, 2977, 2978, 2930, 2931, 2979, 2980, 2932
1832, 2931, 2979, 2980, 2932, 2933, 2981, 2982, 2934
1833, 2933, 2981, 2982, 2934, 2935, 2983, 2984, 2936
1834, 2935, 2983, 2984, 2936, 2937, 2985, 2986, 2938
1835, 2937, 2985, 2986, 2938, 2939, 2987, 2988, 2940
1836, 2930, 2978, 2989, 2941, 2932, 2980, 2990, 2942
1837, 2932, 2980, 2990, 2942, 2934, 2982, 2991, 2943
1838, 2934, 2982, 2991, 2943, 2936, 2984, 2992, 2944
1839, 2936, 2984, 2992, 2944, 2938, 2986, 2993, 2945
1840, 2938, 2986, 2993, 2945, 2940, 2988, 2994, 2946
1841, 2947, 2995, 2996, 2948, 2949, 2997, 2998, 2950
1842, 2949, 2997, 2998, 2950, 2951, 2999, 3000, 2952
1843, 2948, 2996, 3001, 2953, 2950, 2998, 3002, 2954
1844, 2950, 2998, 3002, 2954, 2952, 3000, 3003, 2955
1845, 2953, 3001, 3004, 2956, 2954, 3002, 3005, 2957
1846, 2954, 3002, 3005, 2957, 2955, 3003, 3006, 2958
1847, 2956, 3004, 2987, 2939, 2957, 3005, 3007, 2959
1848, 2957, 3005, 3007, 2959, 2958, 3006, 3008, 2960
1849, 2939, 2987, 2988, 2940, 2959, 3007, 3009, 2961
1850, 2959, 3007, 3009, 2961, 2960, 3008, 3010, 2962
1851, 2940, 2988, 2994, 2946, 2961, 3009, 3011, 2963
1852, 2961, 3009, 3011, 2963, 2962, 3010, 3012, 2964
1853, 2946, 2994, 3013, 2965, 2963, 3011, 3014, 2966
1854, 2963, 3011, 3014, 2966, 2964, 3012, 3015, 2967
1855, 2965, 3013, 3016, 2968, 2966, 3014, 3017, 2969
1856, 2966, 3014, 3017, 2969, 2967, 3015, 3018, 2970
1857, 2968, 3016, 3019, 2971, 2969, 3017, 3020, 2972
1858, 2969, 3017, 3020, 2972, 2970, 3018, 3021, 2973
1859, 2971, 3019, 3022, 2974, 2972, 3020, 3023, 2975
1860, 2972, 3020, 3023, 2975, 2973, 3021, 3024, 2976
1861, 2977, 3025, 3026, 2978, 2979, 3027, 3028, 2980
1862, 2979, 3027, 3028, 2980, 2981, 3029, 3030, 2982
1863, 2981, 3029, 3030, 2982, 2983, 3031, 3032, 2984
1864, 2983, 3031, 3032, 2984, 2985, 3033, 3034, 2986
1865, 2985, 3033, 3034, 2986, 2987, 3035, 3036, 2988
1866, 2978, 3026, 3037, 2989, 2980, 3028, 3038, 2990
1867, 2980, 3028, 3038, 2990, 2982, 3030, 3039, 2991
1868, 2982, 3030, 3039, 2991, 2984, 3032, 3040, 2992
1869, 2984, 3032, 3040, 2992, 2986, 3034, 3041, 2993
1870, 2986, 3034, 3041, 2993, 2988, 3036, 3042, 2994
1871, 2995, 3043, 3044, 2996, 2997, 3045, 3046, 2998
1872, 2997, 3045, 3046, 2998, 2999, 3047, 3048, 3000
1873, 2996, 3044, 3049, 3001, 2998, 3046, 3050, 3002
1874, 2998, 3046, 3050, 3002, 3000, 3048, 3051, 3003
1875, 3001, 3049, 3052, 3004, 3002, 3050, 3053, 3005
1876, 3002, 3050, 3053, 3005, 3003, 3051, 3054, 3006
1877, 3004, 3052, 3035, 2987, 3005, 3053, 3055, 3007
1878, 3005, 3053, 3055, 3007, 3006, 3054, 3056, 3008
1879, 2987, 3035, 3036, 2988, 3007, 3055, 3057, 3009
1880, 3007, 3055, 3057, 3009, 3008, 3056, 3058, 3010
1881, 2988, 3036, 3042, 2994, 3009, 3057, 3059, 3011
1882, 3009, 3057, 3059, 3011, 3010, 3058, 3060, 3012
1883, 2994, 3042, 3061, 3013, 3011, 3059, 3062, 3014
1884, 3011, 3059, 3062, 3014, 3012, 3060, 3063, 3015
1885, 3013, 3061, 3064, 3016, 3014, 3062, 3065, 3017
1886, 3014, 3062, 3065, 3017, 3015, 3063, 3066, 3018
1887, 3016, 3064, 3067, 3019, 3017, 3065, 3068, 3020
1888, 3017, 3065, 3068, 3020, 3018, 3066, 3069, 3021
1889, 3019, 3067, 3070, 3022, 3020, 3068, 3071, 3023
1890, 3020, 3068, 3071, 3023, 3021, 3069, 3072, 3024
1891, 3025, 3073, 3074, 3026, 3027, 3075, 3076, 3028
1892, 3027, 3075, 3076, 3028, 3029, 3077, 3078, 3030
1893, 3029, 3077, 3078, 3030, 3031, 3079, 3080, 3032
1894, 3031, 3079, 3080, 3032, 3033, 3081, 3082, 3034
1895, 3033, 3081, 3082, 3034, 3035, 3083, 3084, 3036
1896, 3026, 3074, 3085, 3037, 3028, 3076, 3086, 3038
1897, 3028, 3076, 3086, 3038, 3030, 3078, 3087, 3039
1898, 3030, 3078, 3087, 3039, 3032, 3080, 3088, 3040
1899, 3032, 3080, 3088, 3040, 3034, 3082, 3089, 3041
1900, 3034, 3082, 3089, 3041, 3036, 3084, 3090, 3042
1901, 3043, 3091, 3092, 3044, 3045, 3093, 3094, 3046
1902, 3045, 3093, 3094, 3046, 3047, 3095, 3096, 3048
1903, 3044, 3092, 3097, 3049, 3046, 3094, 3098, 3050
1904, 3046, 3094, 3098, 3050, 3048, 3096, 3099, 3051
1905, 3049, 3097, 3100, 3052, 3050, 3098, 3101, 3053
1906, 3050, 3098, 3101, 3053, 3051, 3099, 3102, 3054
1907, 3052, 3100, 3083, 3035, 3053, 3101, 3103, 3055
1908, 3053, 3101, 3103, 3055, 3054, 3102, 3104, 3056
1909, 3035, 3083, 3084, 3036, 3055, 3103, 3105, 3057
1910, 3055, 3103, 3105, 3057, 3056, 3104, 3106, 3058
1911, 3036, 3084, 3090, 3042, 3057, 3105, 3107, 3059
1912, 3057, 3105, 3107, 3059, 3058, 3106, 3108, 3060
1913, 3042, 3090, 3109, 3061, 3059, 3107, 3110, 3062
1914, 3059, 3107, 3110, 3062, 3060, 3108, 3111, 3063
1915, 3061, 3109, 3112, 3064, 3062, 3110, 3113, 3065
1916, 3062, 3110, 3113, 3065, 3063, 3111, 3114, 3066
1917, 3064, 3112, 3115, 3067, 3065, 3113, 3116, 3068
1918, 3065, 3113, 3116, 3068, 3066, 3114, 3117, 3069
1919, 3067, 3115, 3118, 3070, 3068, 3116, 3119, 3071
1920, 3068, 3116, 3119, 3071, 3069, 3117, 3120, 3072
1921, 3073, 3121, 3122, 3074, 3075, 3123, 3124, 3076
1922, 3075, 3123, 3124, 3076, 3077, 3125, 3126, 3078
1923, 3077, 3125, 3126, 3078, 3079, 3127, 3128, 3080
1924, 3079, 3127, 3128, 3080, 3081, 3129, 3130, 3082
1925, 3081, 3129, 3130, 3082, 3083, 3131, 3132, 3084
1926, 3074, 3122, 3133, 3085, 3076, 3124, 3134, 3086
1927, 3076, 3124, 3134, 3086, 3078, 3126, 3135, 3087
1928, 3078, 3126, 3135, 3087, 3080, 3128, 3136, 3088
1929, 3080, 3128, 3136, 3088, 3082, 3130, 3137, 3089
1930, 3082, 3130, 3137, 3089, 3084, 3132, 3138, 3090
1931, 3091, 3139, 3140, 3092, 3093, 3141, 3142, 3094
1932, 3093, 3141, 3142, 3094, 3095, 3143, 3144, 3096
1933, 3092, 3140, 3145, 3097, 3094, 3142, 3146, 3098
1934, 3094, 3142, 3146, 3098, 3096, 3144, 3147, 3099
1935, 3097, 3145, 3148, 3100, 3098, 3146, 3149, 3101
1936, 3098, 3146, 3149, 3101, 3099, 3147, 3150, 3102
1937, 3100, 3148, 3131, 3083, 3101, 3149, 3151, 3103
1938, 3101, 3149, 3151, 3103, 3102, 3150, 3152, 3104
1939, 3083, 3131, 3132, 3084, 3103, 3151, 3153, 3105
1940, 3103, 3151, 3153, 3105, 3104, 3152, 3154, 3106
1941, 3084, 3132, 3138, 3090, 3105, 3153, 3155, 3107
1942, 3105, 3153, 3155, 3107, 3106, 3154, 3156, 3108
1943, 3090, 3138, 3157, 3109, 3107, 3155, 3158, 3110
1944, 3107, 3155, 3158, 3110, 3108, 3156, 3159, 3111
1945, 3109, 3157, 3160, 3112, 3110, 3158, 3161, 3113
1946, 3110, 3158, 3161, 3113, 3111, 3159, 3162, 3114
1947, 3112, 3160, 3163, 3115, 3113, 3161, 3164, 3116
1948, 3113, 3161, 3164, 3116, 3114, 3162, 3165, 3117
1949, 3115, 3163, 3166, 3118, 3116, 3164, 3167, 3119
1950, 3116, 3164, 3167, 3119, 3117, 3165, 3168, 3120
1951, 3121, 3169, 3170, 3122, 3123, 3171, 3172, 3124
1952, 3123, 3171, 3172, 3124, 3125, 3173, 3174, 3126
1953, 3125, 3173, 3174, 3126, 3127, 3175, 3176, 3128
1954, 3127, 3175, 3176, 3128, 3129, 3177, 3178, 3130
1955, 3129, 3177, 3178, 3130, 3131, 3179, 3180, 3132
1956, 3122, 3170, 3181, 3133, 3124, 3172, 3182, 3134
1957, 3124, 3172, 3182, 3134, 3126, 3174, 3183, 3135
1958, 3126, 3174, 3183, 3135, 3128, 3176, 3184, 3136
1959, 3128, 3176, 3184, 3136, 3130, 3178, 3185, 3137
1960, 3130, 3178, 3185, 3137, 3132, 3180, 3186, 3138
1961, 3139, 3187, 3188, 3140, 3141, 3189, 3190, 3142
1962, 3141, 3189, 3190, 3142, 3143, 3191, 3192, 3144
1963, 3140, 3188, 3193, 3145, 3142, 3190, 3194, 3146
1964, 3142, 3190, 3194, 3146, 3144, 3192, 3195, 3147
1965, 3145, 3193, 3196, 3148, 3146, 3194, 3197, 3149
1966, 3146, 3194, 3197, 3149, 3147, 3195, 3198, 3150
1967, 3148, 3196, 3179, 3131, 3149, 3197, 3199, 3151
1968, 3149, 3197, 3199, 3151, 3150, 3198, 3200, 3152
1969, 3131, 3179, 3180, 3132, 3151, 3199, 3201, 3153
1970, 3151, 3199, 3201, 3153, 3152, 3200, 3202, 3154
1971, 3132, 3180, 3186, 3138, 3153, 3201, 3203, 3155
1972, 3153, 3201, 3203, 3155, 3154, 3202, 3204, 3156
1973, 3138, 3186, 3205, 3157, 3155, 3203, 3206, 3158
1974, 3155, 3203, 3206, 3158, 3156, 3204, 3207, 3159
1975, 3157, 3205, 3208, 3160, 3158, 3206, 3209, 3161
1976, 3158, 3206, 3209, 3161, 3159, 3207, 3210, 3162
1977, 3160, 3208, 3211, 3163, 3161, 3209, 3212, 3164
1978, 3161, 3209, 3212, 3164, 3162, 3210, 3213, 3165
1979, 3163, 3211, 3214, 3166, 3164, 3212, 3215, 3167
1980, 3164, 3212, 3215, 3167, 3165, 3213, 3216, 3168
1981, 3169, 3217, 3218, 3170, 3171, 3219, 3220, 3172
1982, 3171, 3219, 3220, 3172, 3173, 3221, 3222, 3174
1983, 3173, 3221, 3222, 3174, 3175, 3223, 3224, 3176
1984, 3175, 3223, 3224, 3176, 3177, 3225, 3226, 3178
1985, 3177, 3225, 3226, 3178, 3179, 3227, 3228, 3180
1986, 3170, 3218, 3229, 3181, 3172, 3220, 3230, 3182
1987, 3172, 3220, 3230, 3182, 3174, 3222, 3231, 3183
1988, 3174, 3222, 3231, 3183, 3176, 3224, 3232, 3184
1989, 3176, 3224, 3232, 3184, 3178, 3226, 3233, 3185
1990, 3178, 3226, 3233, 3185, 3180, 3228, 3234, 3186
1991, 3187, 3235, 3236, 3188, 3189, 3237, 3238, 3190
1992, 3189, 3237, 3238, 3190, 3191, 3239, 3240, 3192
1993, 3188, 3236, 3241, 3193, 3190, 3238, 3242, 3194
1994, 3190, 3238, 3242, 3194, 3192, 3240, 3243, 3195
1995, 3193, 3241, 3244, 3196, 3194, 3242, 3245, 3197
1996, 3194, 3242, 3245, 3197, 3195, 3243, 3246, 3198
1997, 3196, 3244, 3227, 3179, 3197, 3245, 3247, 3199
1998, 3197, 3245, 3247, 3199, 3198, 3246, 3248, 3200
1999, 3179, 3227, 3228, 3180, 3199, 3247, 3249, 3201
2000, 3199, 3247, 3249, 3201, 3200, 3248, 3250, 3202
2001, 3180, 3228, 3234, 3186, 3201, 3249, 3251, 3203
2002, 3201, 3249, 3251, 3203, 3202, 3250, 3252, 3204
2003, 3186, 3234, 3253, 3205, 3203, 3251, 3254, 3206
2004, 3203, 3251, 3254, 3206, 3204, 3252, 3255, 3207
2005, 3205, 3253, 3256, 3208, 3206, 3254, 3257, 3209
2006, 3206, 3254, 3257, 3209, 3207, 3255, 3258, 3210
2007, 3208, 3256, 3259, 3211, 3209, 3257, 3260, 3212
2008, 3209, 3257, 3260, 3212, 3210, 3258, 3261, 3213
2009, 3211, 3259, 3262, 3214, 3212, 3260, 3263, 3215
2010, 3212, 3260, 3263, 3215, 3213, 3261, 3264, 3216
2011, 3217, 3265, 3266, 3218, 3219, 3267, 3268, 3220
2012, 3219, 3267, 3268, 3220, 3221, 3269, 3270, 3222
2013, 3221, 3269, 3270, 3222, 3223, 3271, 3272, 3224
2014, 3223, 3271, 3272, 3224, 3225, 3273, 3274, 3226
2015, 3225, 3273, 3274, 3226, 3227, 3275, 3276, 3228
2016, 3218, 3266, 3277, 3229, 3220, 3268, 3278, 3230
2017, 3220, 3268, 3278, 3230, 3222, 3270, 3279, 3231
2018, 3222, 3270, 3279, 3231, 3224, 3272, 3280, 3232
2019, 3224, 3272, 3280, 3232, 3226, 3274, 3281, 3233
2020, 3226, 3274, 3281, 3233, 3228, 3276, 3282, 3234
2021, 3235, 3283, 3284, 3236, 3237, 3285, 3286, 3238
2022, 3237, 3285, 3286, 3238, 3239, 3287, 3288, 3240
2023, 3236, 3284, 3289, 3241, 3238, 3286, 3290, 3242
2024, 3238, 3286, 3290, 3242, 3240, 3288, 3291, 3243
2025, 3241, 3289, 3292, 3244, 3242, 3290, 3293, 3245
2026, 3242, 3290, 3293, 3245, 3243, 3291, 3294, 3246
2027, 3244, 3292, 3275, 3227, 3245, 3293, 3295, 3247
2028, 3245, 3293, 3295, 3247, 3246, 3294, 3296, 3248
2029, 3227, 3275, 3276, 3228, 3247, 3295, 3297, 3249
2030, 3247, 3295, 3297, 3249, 3248, 3296, 3298, 3250
2031, 3228, 3276, 3282, 3234, 3249, 3297, 3299, 3251
2032, 3249, 3297, 3299, 3251, 3250, 3298, 3300, 3252
2033, 3234, 3282, 3301, 3253, 3251, 3299, 3302, 3254
2034, 3251, 3299, 3302, 3254, 3252, 3300, 3303, 3255
2035, 3253, 3301, 3304, 3256, 3254, 3302, 3305, 3257
2036, 3254, 3302, 3305, 3257, 3255, 3303, 3306, 3258
2037, 3256, 3304, 3307, 3259, 3257, 3305, 3308, 3260
2038, 3257, 3305, 3308, 3260, 3258, 3306, 3309, 3261
2039, 3259, 3307, 3310, 3262, 3260, 3308, 3311, 3263
2040, 3260, 3308, 3311, 3263, 3261, 3309, 3312, 3264
2041, 3265, 3313, 3314, 3266, 3267, 3315, 3316, 3268
2042, 3267, 3315, 3316, 3268, 3269, 3317, 3318, 3270
2043, 3269, 3317, 3318, 3270, 3271, 3319, 3320, 3272
2044, 3271, 3319, 3320, 3272, 3273, 3321, 3322, 3274
2045, 3273, 3321, 3322, 3274, 3275, 3323, 3324, 3276
2046, 3266, 3314, 3325, 3277, 3268, 3316, 3326, 3278
2047, 3268, 3316, 3326, 3278, 3270, 3318, 3327, 3279
2048, 3270, 3318, 3327, 3279, 3272, 3320, 3328, 3280
2049, 3272, 3320, 3328, 3280, 3274, 3322, 3329, 3281
2050, 3274, 3322, 3329, 3281, 3276, 3324, 3330, 3282
2051, 3283, 3331, 3332, 3284, 3285, 3333, 3334, 3286
2052, 3285, 3333, 3334, 3286, 3287, 3335, 3336, 3288
2053, 3284, 3332, 3337, 3289, 3286, 3334, 3338, 3290
2054, 3286, 3334, 3338, 3290, 3288, 3336, 3339, 3291
2055, 3289, 3337, 3340, 3292, 3290, 3338, 3341, 3293
2056, 3290, 3338, 3341, 3293, 3291, 3339, 3342, 3294
2057, 3292, 3340, 3323, 3275, 3293, 3341, 3343, 3295
2058, 3293, 3341, 3343, 3295, 3294, 3342, 3344, 3296
2059, 3275, 3323, 3324, 3276, 3295, 3343, 3345, 3297
2060, 3295, 3343, 3345, 3297, 3296, 3344, 3346, 3298
2061, 3276, 3324, 3330, 3282, 3297, 3345, 3347, 3299
2062, 3297, 3345, 3347, 3299, 3298, 3346, 3348, 3300
2063, 3282, 3330, 3349, 3301, 3299, 3347, 3350, 3302
2064, 3299, 3347, 3350, 3302, 3300, 3348, 3351, 3303
2065, 3301, 3349, 3352, 3304, 3302, 3350, 3353, 3305
2066, 3302, 3350, 3353, 3305, 3303, 3351, 3354, 3306
2067, 3304, 3352, 3355, 3307, 3305, 3353, 3356, 3308
2068, 3305, 3353, 3356, 3308, 3306, 3354, 3357, 3309
2069, 3307, 3355, 3358, 3310, 3308, 3356, 3359, 3311
2070, 3308, 3356, 3359, 3311, 3309, 3357, 3360, 3312
2071, 3313, 3361, 3362, 3314, 3315, 3363, 3364, 3316
2072, 3315, 3363, 3364, 3316, 3317, 3365, 3366, 3318
2073, 3317, 3365, 3366, 3318, 3319, 3367, 3368, 3320
2074, 3319, 3367, 3368, 3320, 3321, 3369, 3370, 3322
2075, 3321, 3369, 3370, 3322, 3323, 3371, 3372, 3324
2076, 3314, 3362, 3373, 3325, 3316, 3364, 3374, 3326
2077, 3316, 3364, 3374, 3326, 3318, 3366, 3375, 3327
2078, 3318, 3366, 3375, 3327, 3320, 3368, 3376, 3328
2079, 3320, 3368, 3376, 3328, 3322, 3370, 3377, 3329
2080, 3322, 3370, 3377, 3329, 3324, 3372, 3378, 3330
2081, 3331, 3379, 3380, 3332, 3333, 3381, 3382, 3334
2082, 3333, 3381, 3382, 3334, 3335, 3383, 3384, 3336
2083, 3332, 3380, 3385, 3337, 3334, 3382, 3386, 3338
2084, 3334, 3382, 3386, 3338, 3336, 3384, 3387, 3339
2085, 3337, 3385, 3388, 3340, 3338, 3386, 3389, 3341
2086, 3338, 3386, 3389, 3341, 3339, 3387, 3390, 3342
2087, 3340, 3388, 3371, 3323, 3341, 3389, 3391, 3343
2088, 3341, 3389, 3391, 3343, 3342, 3390, 3392, 3344
2089, 3323, 3371, 3372, 3324, 3343, 3391, 3393, 3345
2090, 3343, 3391, 3393, 3345, 3344, 3392, 3394, 3346
2091, 3324, 3372, 3378, 3330, 3345, 3393, 3395, 3347
2092, 3345, 3393, 3395, 3347, 3346, 3394, 3396, 3348
2093, 3330, 3378, 3397, 3349, 3347, 3395, 3398, 3350
2094, 3347, 3395, 3398, 3350, 3348, 3396, 3399, 3351
2095, 3349, 3397, 3400, 3352, 3350, 3398, 3401, 3353
2096, 3350, 3398, 3401, 3353, 3351, 3399, 3402, 3354
2097, 3352, 3400, 3403, 3355, 3353, 3401, 3404, 3356
2098, 3353, 3401, 3404, 3356, 3354, 3402, 3405, 3357
2099, 3355, 3403, 3406, 3358, 3356, 3404, 3407, 3359
2100, 3356, 3404, 3407, 3359, 3357, 3405, 3408, 3360
2101, 3361, 3409, 3410, 3362, 3363, 3411, 3412, 3364
2102, 3363, 3411, 3412, 3364, 3365, 3413, 3414, 3366
2103, 3365, 3413, 3414, 3366, 3367, 3415, 3416, 3368
2104, 3367, 3415, 3416, 3368, 3369, 3417, 3418, 3370
2105, 3369, 3417, 3418, 3370, 3371, 3419, 3420, 3372
2106, 3362, 3410, 3421, 3373, 3364, 3412, 3422, 3374
2107, 3364, 3412, 3422, 3374, 3366, 3414, 3423, 3375
2108, 3366, 3414, 3423, 3375, 3368, 3416, 3424, 3376
2109, 3368, 3416, 3424, 3376, 3370, 3418, 3425, 3377
2110, 3370, 3418, 3425, 3377, 3372, 3420, 3426, 3378
2111, 3379, 3427, 3428, 3380, 3381, 3429, 3430, 3382
2112, 3381, 3429, 3430, 3382, 3383, 3431, 3432, 3384
2113, 3380, 3428, 3433, 3385, 3382, 3430, 3434, 3386
2114, 3382, 3430, 3434, 3386, 3384, 3432, 3435, 3387
2115, 3385, 3433, 3436, 3388, 3386, 3434, 3437, 3389
2116, 3386, 3434, 3437, 3389, 3387, 3435, 3438, 3390
2117, 3388, 3436, 3419, 3371, 3389, 3437, 3439, 3391
2118, 3389, 3437, 3439, 3391, 3390, 3438, 3440, 3392
2119, 3371, 3419, 3420, 3372, 3391, 3439, 3441, 3393
2120, 3391, 3439, 3441, 3393, 3392, 3440, 3442, 3394
2121, 3372, 3420, 3426, 3378, 3393, 3441, 3443, 3395
2122, 3393, 3441, 3443, 3395, 3394, 3442, 3444, 3396
2123, 3378, 3426, 3445, 3397, 3395, 3443, 3446, 3398
2124, 3395, 3443, 3446, 3398, 3396, 3444, 3447, 3399
2125, 3397, 3445, 3448, 3400, 3398, 3446, 3449, 3401
2126, 3398, 3446, 3449, 3401, 3399, 3447, 3450, 3402
2127, 3400, 3448, 3451, 3403, 3401, 3449, 3452, 3404
2128, 3401, 3449, 3452, 3404, 3402, 3450, 3453, 3405
2129, 3403, 3451, 3454, 3406, 3404, 3452, 3455, 3407
2130, 3404, 3452, 3455, 3407, 3405, 3453, 3456, 3408
2131, 3409, 3457, 3458, 3410, 3411, 3459, 3460, 3412
2132, 3411, 3459, 3460, 3412, 3413, 3461, 3462, 3414
2133, 3413, 3461, 3462, 3414, 3415, 3463, 3464, 3416
2134, 3415, 3463, 3464, 3416, 3417, 3465, 3466, 3418
2135, 3417, 3465, 3466, 3418, 3419, 3467, 3468, 3420
2136, 3410, 3458, 3469, 3421, 3412, 3460, 3470, 3422
2137, 3412, 3460, 3470, 3422, 3414, 3462, 3471, 3423
2138, 3414, 3462, 3471, 3423, 3416, 3464, 3472, 3424
2139, 3416, 3464, 3472, 3424, 3418, 3466, 3473, 3425
2140, 3418, 3466, 3473, 3425, 3420, 3468, 3474, 3426
2141, 3427, 3475, 3476, 3428, 3429, 3477, 3478, 3430
2142, 3429, 3477, 3478, 3430, 3431, 3479, 3480, 3432
2143, 3428, 3476, 3481, 3433, 3430, 3478, 3482, 3434
2144, 3430, 3478, 3482, 3434, 3432, 3480, 3483, 3435
2145, 3433, 3481, 3484, 3436, 3434, 3482, 3485, 3437
2146, 3434, 3482, 3485, 3437, 3435, 3483, 3486, 3438
2147, 3436, 3484, 3467, 3419, 3437, 3485, 3487, 3439
2148, 3437, 3485, 3487, 3439, 3438, 3486, 3488, 3440
2149, 3419, 3467, 3468, 3420, 3439, 3487, 3489, 3441
2150, 3439, 3487, 3489, 3441, 3440, 3488, 3490, 3442
2151, 3420, 3468, 3474, 3426, 3441, 3489, 3491, 3443
2152, 3441, 3489, 3491, 3443, 3442, 3490, 3492, 3444
2153, 3426, 3474, 3493, 3445, 3443, 3491, 3494, 3446
2154, 3443, 3491, 3494, 3446, 3444, 3492, 3495, 3447
2155, 3445, 3493, 3496, 3448, 3446, 3494, 3497, 3449
2156, 3446, 3494, 3497, 3449, 3447, 3495, 3498, 3450
2157, 3448, 3496, 3499, 3451, 3449, 3497, 3500, 3452
2158, 3449, 3497, 3500, 3452, 3450, 3498, 3501, 3453
2159, 3451, 3499, 3502, 3454, 3452, 3500, 3503, 3455
2160, 3452, 3500, 3503, 3455, 3453, 3501, 3504, 3456
2161, 3457, 3505, 3506, 3458, 3459, 3507, 3508, 3460
2162, 3459, 3507, 3508, 3460, 3461, 3509, 3510, 3462
2163, 3461, 3509, 3510, 3462, 3463, 3511, 3512, 3464
2164, 3463, 3511, 3512, 3464, 3465, 3513, 3514, 3466
2165, 3465, 3513, 3514, 3466, 3467, 3515, 3516, 3468
2166, 3458, 3506, 3517, 3469, 3460, 3508, 3518, 3470
2167, 3460, 3508, 3518, 3470, 3462, 3510, 3519, 3471
2168, 3462, 3510, 3519, 3471, 3464, 3512, 3520, 3472
2169, 3464, 3512, 3520, 3472, 3466, 3514, 3521, 3473
2170, 3466, 3514, 3521, 3473, 3468, 3516, 3522, 3474
2171, 3475, 3523, 3524, 3476, 3477, 3525, 3526, 3478
2172, 3477, 3525, 3526, 3478, 3479, 3527, 3528, 3480
2173, 3476, 3524, 3529, 3481, 3478, 3526, 3530, 3482
2174, 3478, 3526, 3530, 3482, 3480, 3528, 3531, 3483
2175, 3481, 3529, 3532, 3484, 3482, 3530, 3533, 3485
2176, 3482, 3530, 3533, 3485, 3483, 3531, 3534, 3486
2177, 3484, 3532, 3515, 3467, 3485, 3533, 3535, 3487
2178, 3485, 3533, 3535, 3487, 3486, 3534, 3536, 3488
2179, 3467, 3515, 3516, 3468, 3487, 3535, 3537, 3489
2180, 3487, 3535, 3537, 3489, 3488, 3536, 3538, 3490
2181, 3468, 3516, 3522, 3474, 3489, 3537, 3539, 3491
2182, 3489, 3537, 3539, 3491, 3490, 3538, 3540, 3492
2183, 3474, 3522, 3541, 3493, 3491, 3539, 3542, 3494
2184, 3491, 3539, 3542, 3494, 3492, 3540, 3543, 3495
2185, 3493, 3541, 3544, 3496, 3494, 3542, 3545, 3497
2186, 3494, 3542, 3545, 3497, 3495, 3543, 3546, 3498
2187, 3496, 3544, 3547, 3499, 3497, 3545, 3548, 3500
2188, 3497, 3545, 3548, 3500, 3498, 3546, 3549, 3501
2189, 3499, 3547, 3550, 3502, 3500, 3548, 3551, 3503
2190, 3500, 3548, 3551, 3503, 3501, 3549, 3552, 3504
2191, 3505, 3553, 3554, 3506, 3507, 3555, 3556, 3508
2192, 3507, 3555, 3556, 3508, 3509, 3557, 3558, 3510
2193, 3509, 3557, 3558, 3510, 3511, 3559, 3560, 3512
2194, 3511, 3559, 3560, 3512, 3513, 3561, 3562, 3514
2195, 3513, 3561, 3562, 3514, 3515, 3563, 3564, 3516
2196, 3506, 3554, 3565, 3517, 3508, 3556, 3566, 3518
2197, 3508, 3556, 3566, 3518, 3510, 3558, 3567, 3519
2198, 3510, 3558, 3567, 3519, 3512, 3560, 3568, 3520
2199, 3512, 3560, 3568, 3520, 3514, 3562, 3569, 3521
2200, 3514, 3562, 3569, 3521, 3516, 3564, 3570, 3522
2201, 3523, 3571, 3572, 3524, 3525, 3573, 3574, 3526
2202, 3525, 3573, 3574, 3526, 3527, 3575, 3576, 3528
2203, 3524, 3572, 3577, 3529, 3526, 3574, 3578, 3530
2204, 3526, 3574, 3578, 3530, 3528, 3576, 3579, 3531
2205, 3529, 3577, 3580, 3532, 3530, 3578, 3581, 3533
2206, 3530, 3578, 3581, 3533, 3531, 3579, 3582, 3534
2207, 3532, 3580, 3563, 3515, 3533, 3581, 3583, 3535
2208, 3533, 3581, 3583, 3535, 3534, 3582, 3584, 3536
2209, 3515, 3563, 3564, 3516, 3535, 3583, 3585, 3537
2210, 3535, 3583, 3585, 3537, 3536, 3584, 3586, 3538
2211, 3516, 3564, 3570, 3522, 3537, 3585, 3587, 3539
2212, 3537, 3585, 3587, 3539, 3538, 3586, 3588, 3540
2213, 3522, 3570, 3589, 3541, 3539, 3587, 3590, 3542
2214, 3539, 3587, 3590, 3542, 3540, 3588, 3591, 3543
2215, 3541, 3589, 3592, 3544, 3542, 3590, 3593, 3545
2216, 3542, 3590, 3593, 3545, 3543, 3591, 3594, 3546
2217, 3544, 3592, 3595, 3547, 3545, 3593, 3596, 3548
2218, 3545, 3593, 3596, 3548, 3546, 3594, 3597, 3549
2219, 3547, 3595, 3598, 3550, 3548, 3596, 3599, 3551
2220, 3548, 3596, 3599, 3551, 3549, 3597, 3600, 3552
2221, 3553, 3601, 3602, 3554, 3555, 3603, 3604, 3556
2222, 3555, 3603, 3604, 3556, 3557, 3605, 3606, 3558
2223, 3557, 3605, 3606, 3558, 3559, 3607, 3608, 3560
2224, 3559, 3607, 3608, 3560, 3561, 3609, 3610, 3562
2225, 3561, 3609, 3610, 3562, 3563, 3611, 3612, 3564
2226, 3554, 3602, 3613, 3565, 3556, 3604, 3614, 3566
2227, 3556, 3604, 3614, 3566, 3558, 3606, 3615, 3567
2228, 3558, 3606, 3615, 3567, 3560, 3608, 3616, 3568
2229, 3560, 3608, 3616, 3568, 3562, 3610, 3617, 3569
2230, 3562, 3610, 3617, 3569, 3564, 3612, 3618, 3570
2231, 3571, 3619, 3620, 3572, 3573, 3621, 3622, 3574
2232, 3573, 3621, 3622, 3574, 3575, 3623, 3624, 3576
2233, 3572, 3620, 3625, 3577, 3574, 3622, 3626, 3578
2234, 3574, 3622, 3626, 3578, 3576, 3624, 3627, 3579
2235, 3577, 3625, 3628, 3580, 3578, 3626, 3629, 3581
2236, 3578, 3626, 3629, 3581, 3579, 3627, 3630, 3582
2237, 3580, 3628, 3611, 3563, 3581, 3629, 3631, 3583
2238, 3581, 3629, 3631, 3583, 3582, 3630, 3632, 3584
2239, 3563, 3611, 3612, 3564, 3583, 3631, 3633, 3585
2240, 3583, 3631, 3633, 3585, 3584, 3632, 3634, 3586
2241, 3564, 3612, 3618, 3570, 3585, 3633, 3635, 3587
2242, 3585, 3633, 3635, 3587, 3586, 3634, 3636, 3588
2243, 3570, 3618, 3637, 3589, 3587, 3635, 3638, 3590
2244, 3587, 3635, 3638, 3590, 3588, 3636, 3639, 3591
2245, 3589, 3637, 3640, 3592, 3590, 3638, 3641, 3593
2246, 3590, 3638, 3641, 3593, 3591, 3639, 3642, 3594
2247, 3592, 3640, 3643, 3595, 3593, 3641, 3644, 3596
2248, 3593, 3641, 3644, 3596, 3594, 3642, 3645, 3597
2249, 3595, 3643, 3646, 3598, 3596, 3644, 3647, 3599
2250, 3596, 3644, 3647, 3599, 3597, 3645, 3648, 3600
2251, 3601, 3649, 3650, 3602, 3603, 3651, 3652, 3604
2252, 3603, 3651, 3652, 3604, 3605, 3653, 3654, 3606
2253, 3605, 3653, 3654, 3606, 3607, 3655, 3656, 3608
2254, 3607, 3655, 3656, 3608, 3609, 3657, 3658, 3610
2255, 3609, 3657, 3658, 3610, 3611, 3659, 3660, 3612
2256, 3602, 3650, 3661, 3613, 3604, 3652, 3662, 3614
2257, 3604, 3652, 3662, 3614, 3606, 3654, 3663, 3615
2258, 3606, 3654, 3663, 3615, 3608, 3656, 3664, 3616
2259, 3608, 3656, 3664, 3616, 3610, 3658, 3665, 3617
2260, 3610, 3658, 3665, 3617, 3612, 3660, 3666, 3618
2261, 3619, 3667, 3668, 3620, 3621, 3669, 3670, 3622
2262, 3621, 3669, 3670, 3622, 3623, 3671, 3672, 3624
2263, 3620, 3668, 3673, 3625, 3622, 3670, 3674, 3626
2264, 3622, 3670, 3674, 3626, 3624, 3672, 3675, 3627
2265, 3625, 3673, 3676, 3628, 3626, 3674, 3677, 3629
2266, 3626, 3674, 3677, 3629, 3627, 3675, 3678, 3630
2267, 3628, 3676, 3659, 3611, 3629, 3677, 3679, 3631
2268, 3629, 3677, 3679, 3631, 3630, 3678, 3680, 3632
2269, 3611, 3659, 3660, 3612, 3631, 3679, 3681, 3633
2270, 3631, 3679, 3681, 3633, 3632, 3680, 3682, 3634
2271, 3612, 3660, 3666, 3618, 3633, 3681, 3683, 3635
2272, 3633, 3681, 3683, 3635, 3634, 3682, 3684, 3636
2273, 3618, 3666, 3685, 3637, 3635, 3683, 3686, 3638
2274, 3635, 3683, 3686, 3638, 3636, 3684, 3687, 3639
2275, 3637, 3685, 3688, 3640, 3638, 3686, 3689, 3641
2276, 3638, 3686, 3689, 3641, 3639, 3687, 3690, 3642
2277, 3640, 3688, 3691, 3643, 3641, 3689, 3692, 3644
2278, 3641, 3689, 3692, 3644, 3642, 3690, 3693, 3645
2279, 3643, 3691, 3694, 3646, 3644, 3692, 3695, 3647
2280, 3644, 3692, 3695, 3647, 3645, 3693, 3696, 3648
2281, 3649, 3697, 3698, 3650, 3651, 3699, 3700, 3652
2282, 3651, 3699, 3700, 3652, 3653, 3701, 3702, 3654
2283, 3653, 3701, 3702, 3654, 3655, 3703, 3704, 3656
2284, 3655, 3703, 3704, 3656, 3657, 3705, 3706, 3658
2285, 3657, 3705, 3706, 3658, 3659, 3707, 3708, 3660
2286, 3650, 3698, 3709, 3661, 3652, 3700, 3710, 3662
2287, 3652, 3700, 3710, 3662, 3654, 3702, 3711, 3663
2288, 3654, 3702, 3711, 3663, 3656, 3704, 3712, 3664
2289, 3656, 3704, 3712, 3664, 3658, 3706, 3713, 3665
2290, 3658, 3706, 3713, 3665, 3660, 3708, 3714, 3666
2291, 3667, 3715, 3716, 3668, 3669, 3717, 3718, 3670
2292, 3669, 3717, 3718, 3670, 3671, 3719, 3720, 3672
2293, 3668, 3716, 3721, 3673, 3670, 3718, 3722, 3674
2294, 3670, 3718, 3722, 3674, 3672, 3720, 3723, 3675
2295, 3673, 3721, 3724, 3676, 3674, 3722, 3725, 3677
2296, 3674, 3722, 3725, 3677, 3675, 3723, 3726, 3678
2297, 3676, 3724, 3707, 3659, 3677, 3725, 3727, 3679
2298, 3677, 3725, 3727, 3679, 3678, 3726, 3728, 3680
2299, 3659, 3707, 3708, 3660, 3679, 3727, 3729, 3681
2300, 3679, 3727, 3729, 3681, 3680, 3728, 3730, 3682
2301, 3660, 3708, 3714, 3666, 3681, 3729, 3731, 3683
2302, 3681, 3729, 3731, 3683, 3682, 3730, 3732, 3684
2303, 3666, 3714, 3733, 3685, 3683, 3731, 3734, 3686
2304, 3683, 3731, 3734, 3686, 3684, 3732, 3735, 3687
2305, 3685, 3733, 3736, 3688, 3686, 3734, 3737, 3689
2306, 3686, 3734, 3737, 3689, 3687, 3735, 3738, 3690
2307, 3688, 3736, 3739, 3691, 3689, 3737, 3740, 3692
2308, 3689, 3737, 3740, 3692, 3690, 3738, 3741, 3693
2309, 3691, 3739, 3742, 3694, 3692, 3740, 3743, 3695
2310, 3692, 3740, 3743, 3695, 3693, 3741, 3744, 3696
2311, 3697, 3745, 3746, 3698, 3699, 3747, 3748, 3700
2312, 3699, 3747, 3748, 3700, 3701, 3749, 3750, 3702
2313, 3701, 3749, 3750, 3702, 3703, 3751, 3752, 3704
2314, 3703, 3751, 3752, 3704, 3705, 3753, 3754, 3706
2315, 3705, 3753, 3754, 3706, 3707, 3755, 3756, 3708
2316, 3698, 3746, 3757, 3709, 3700, 3748, 3758, 3710
2317, 3700, 3748, 3758, 3710, 3702, 3750, 3759, 3711
2318, 3702, 3750, 3759, 3711, 3704, 3752, 3760, 3712
2319, 3704, 3752, 3760, 3712, 3706, 3754, 3761, 3713
2320, 3706, 3754, 3761, 3713, 3708, 3756, 3762, 3714
2321, 3715, 3763, 3764, 3716, 3717, 3765, 3766, 3718
2322, 3717, 3765, 3766, 3718, 3719, 3767, 3768, 3720
2323, 3716, 3764, 3769, 3721, 3718, 3766, 3770, 3722
2324, 3718, 3766, 3770, 3722, 3720, 3768, 3771, 3723
2325, 3721, 3769, 3772, 3724, 3722, 3770, 3773, 3725
2326, 3722, 3770, 3773, 3725, 3723, 3771, 3774, 3726
2327, 3724, 3772, 3755, 3707, 3725, 3773, 3775, 3727
2328, 3725, 3773, 3775, 3727, 3726, 3774, 3776, 3728
2329, 3707, 3755, 3756, 3708, 3727, 3775, 3777, 3729
2330, 3727, 3775, 3777, 3729, 3728, 3776, 3778, 3730
2331, 3708, 3756, 3762, 3714, 3729, 3777, 3779, 3731
2332, 3729, 3777, 3779, 3731, 3730, 3778, 3780, 3732
2333, 3714, 3762, 3781, 3733, 3731, 3779, 3782, 3734
2334, 3731, 3779, 3782, 3734, 3732, 3780, 3783, 3735
2335, 3733, 3781, 3784, 3736, 3734, 3782, 3785, 3737
2336, 3734, 3782, 3785, 3737, 3735, 3783, 3786, 3738
2337, 3736, 3784, 3787, 3739, 3737, 3785, 3788, 3740
2338, 3737, 3785, 3788, 3740, 3738, 3786, 3789, 3741
2339, 3739, 3787, 3790, 3742, 3740, 3788, 3791, 3743
2340, 3740, 3788, 3791, 3743, 3741, 3789, 3792, 3744
2341, 3745, 3793, 3794, 3746, 3747, 3795, 3796, 3748
2342, 3747, 3795, 3796, 3748, 3749, 3797, 3798, 3750
2343, 3749, 3797, 3798, 3750, 3751, 3799, 3800, 3752
2344, 3751, 3799, 3800, 3752, 3753, 3801, 3802, 3754
2345, 3753, 3801, 3802, 3754, 3755, 3803, 3804, 3756
2346, 3746, 3794, 3805, 3757, 3748, 3796, 3806, 3758
2347, 3748, 3796, 3806, 3758, 3750, 3798, 3807, 3759
2348, 3750, 3798, 3807, 3759, 3752, 3800, 3808, 3760
2349, 3752, 3800, 3808, 3760, 3754, 3802, 3809, 3761
2350, 3754, 3802, 3809, 3761, 3756, 3804, 3810, 3762
2351, 3763, 3811, 3812, 3764, 3765, 3813, 3814, 3766
2352, 3765, 3813, 3814, 3766, 3767, 3815, 3816, 3768
2353, 3764, 3812, 3817, 3769, 3766, 3814, 3818, 3770
2354, 3766, 3814, 3818, 3770, 3768, 3816, 3819, 3771
2355, 3769, 3817, 3820, 3772, 3770, 3818, 3821, 3773
2356, 3770, 3818, 3821, 3773, 3771, 3819, 3822, 3774
2357, 3772, 3820, 3803, 3755, 3773, 3821, 3823, 3775
2358, 3773, 3821, 3823, 3775, 3774, 3822, 3824, 3776
2359, 3755, 3803, 3804, 3756, 3775, 3823, 3825, 3777
2360, 3775, 3823, 3825, 3777, 3776, 3824, 3826, 3778
2361, 3756, 3804, 3810, 3762, 3777, 3825, 3827, 3779
2362, 3777, 3825, 3827, 3779, 3778, 3826, 3828, 3780
2363, 3762, 3810, 3829, 3781, 3779, 3827, 3830, 3782
2364, 3779, 3827, 3830, 3782, 3780, 3828, 3831, 3783
2365, 3781, 3829, 3832, 3784, 3782, 3830, 3833, 3785
2366, 3782, 3830, 3833, 3785, 3783, 3831, 3834, 3786
2367, 3784, 3832, 3835, 3787, 3785, 3833, 3836, 3788
2368, 3785, 3833, 3836, 3788, 3786, 3834, 3837, 3789
2369, 3787, 3835, 3838, 3790, 3788, 3836, 3839, 3791
2370, 3788, 3836, 3839, 3791, 3789, 3837, 3840, 3792
2371, 3793, 3841, 3842, 3794, 3795, 3843, 3844, 3796
2372, 3795, 3843, 3844, 3796, 3797, 3845, 3846, 3798
2373, 3797, 3845, 3846, 3798, 3799, 3847, 3848, 3800
2374, 3799, 3847, 3848, 3800, 3801, 3849, 3850, 3802
2375, 3801, 3849, 3850, 3802, 3803, 3851, 3852, 3804
2376, 3794, 3842, 3853, 3805, 3796, 3844, 3854, 3806
2377, 3796, 3844, 3854, 3806, 3798, 3846, 3855, 3807
2378, 3798, 3846, 3855, 3807, 3800, 3848, 3856, 3808
2379, 3800, 3848, 3856, 3808, 3802, 3850, 3857, 3809
2380, 3802, 3850, 3857, 3809, 3804, 3852, 3858, 3810
2381, 3811, 3859, 3860, 3812, 3813, 3861, 3862, 3814
2382, 3813, 3861, 3862, 3814, 3815, 3863, 3864, 3816
2383, 3812, 3860, 3865, 3817, 3814, 3862, 3866, 3818
2384, 3814, 3862, 3866, 3818, 3816, 3864, 3867, 3819
2385, 3817, 3865, 3868, 3820, 3818, 3866, 3869, 3821
2386, 3818, 3866, 3869, 3821, 3819, 3867, 3870, 3822
2387, 3820, 3868, 3851, 3803, 3821, 3869, 3871, 3823
2388, 3821, 3869, 3871, 3823, 3822, 3870, 3872, 3824
2389, 3803, 3851, 3852, 3804, 3823, 3871, 3873, 3825
2390, 3823, 3871, 3873, 3825, 3824, 3872, 3874, 3826
2391, 3804, 3852, 3858, 3810, 3825, 3873, 3875, 3827
2392, 3825, 3873, 3875, 3827, 3826, 3874, 3876, 3828
2393, 3810, 3858, 3877, 3829, 3827, 3875, 3878, 3830
2394, 3827, 3875, 3878, 3830, 3828, 3876, 3879, 3831
2395, 3829, 3877, 3880, 3832, 3830, 3878, 3881, 3833
2396, 3830, 3878, 3881, 3833, 3831, 3879, 3882, 3834
2397, 3832, 3880, 3883, 3835, 3833, 3881, 3884, 3836
2398, 3833, 3881, 3884, 3836, 3834, 3882, 3885, 3837
2399, 3835, 3883, 3886, 3838, 3836, 3884, 3887, 3839
2400, 3836, 3884, 3887, 3839, 3837, 3885, 3888, 3840
2401, 3841, 3889, 3890, 3842, 3843, 3891, 3892, 3844
2402, 3843, 3891, 3892, 3844, 3845, 3893, 3894, 3846
2403, 3845, 3893, 3894, 3846, 3847, 3895, 3896, 3848
2404, 3847, 3895, 3896, 3848, 3849, 3897, 3898, 3850
2405, 3849, 3897, 3898, 3850, 3851, 3899, 3900, 3852
2406, 3842, 3890, 3901, 3853, 3844, 3892, 3902, 3854
2407, 3844, 3892, 3902, 3854, 3846, 3894, 3903, 3855
2408, 3846, 3894, 3903, 3855, 3848, 3896, 3904, 3856
2409, 3848, 3896, 3904, 3856, 3850, 3898, 3905, 3857
2410, 3850, 3898, 3905, 3857, 3852, 3900, 3906, 3858
2411, 3859, 3907, 3908, 3860, 3861, 3909, 3910, 3862
2412, 3861, 3909, 3910, 3862, 3863, 3911, 3912, 3864
2413, 3860, 3908, 3913, 3865, 3862, 3910, 3914, 3866
2414, 3862, 3910, 3914, 3866, 3864, 3912, 3915, 3867
2415, 3865, 3913, 3916, 3868, 3866, 3914, 3917, 3869
2416, 3866, 3914, 3917, 3869, 3867, 3915, 3918, 3870
2417, 3868, 3916, 3899, 3851, 3869, 3917, 3919, 3871
2418, 3869, 3917, 3919, 3871, 3870, 3918, 3920, 3872
2419, 3851, 3899, 3900, 3852, 3871, 3919, 3921, 3873
2420, 3871, 3919, 3921, 3873, 3872, 3920, 3922, 3874
2421, 3852, 3900, 3906, 3858, 3873, 3921, 3923, 3875
2422, 3873, 3921, 3923, 3875, 3874, 3922, 3924, 3876
2423, 3858, 3906, 3925, 3877, 3875, 3923, 3926, 3878
2424, 3875, 3923, 3926, 3878, 3876, 3924, 3927, 3879
2425, 3877, 3925, 3928, 3880, 3878, 3926, 3929, 3881
2426, 3878, 3926, 3929, 3881, 3879, 3927, 3930, 3882
2427, 3880, 3928, 3931, 3883, 3881, 3929, 3932, 3884
2428, 3881, 3929, 3932, 3884, 3882, 3930, 3933, 3885
2429, 3883, 3931, 3934, 3886, 3884, 3932, 3935, 3887
2430, 3884, 3932, 3935, 3887, 3885, 3933, 3936, 3888
2431, 3889, 3937, 3938, 3890, 3891, 3939, 3940, 3892
2432, 3891, 3939, 3940, 3892, 3893, 3941, 3942, 3894
2433, 3893, 3941, 3942, 3894, 3895, 3943, 3944, 3896
2434, 3895, 3943, 3944, 3896, 3897, 3945, 3946, 3898
2435, 3897, 3945, 3946, 3898, 3899, 3947, 3948, 3900
2436, 3890, 3938, 3949, 3901, 3892, 3940, 3950, 3902
2437, 3892, 3940, 3950, 3902, 3894, 3942, 3951, 3903
2438, 3894, 3942, 3951, 3903, 3896, 3944, 3952, 3904
2439, 3896, 3944, 3952, 3904, 3898, 3946, 3953, 3905
2440, 3898, 3946, 3953, 3905, 3900, 3948, 3954, 3906
2441, 3907, 3955, 3956, 3908, 3909, 3957, 3958, 3910
2442, 3909, 3957, 3958, 3910, 3911, 3959, 3960, 3912
2443, 3908, 3956, 3961, 3913, 3910, 3958, 3962, 3914
2444, 3910, 3958, 3962, 3914, 3912, 3960, 3963, 3915
2445, 3913, 3961, 3964, 3916, 3914, 3962, 3965, 3917
2446, 3914, 3962, 3965, 3917, 3915, 3963, 3966, 3918
2447, 3916, 3964, 3947, 3899, 3917, 3965, 3967, 3919
2448, 3917, 3965, 3967, 3919, 3918, 3966, 3968, 3920
2449, 3899, 3947, 3948, 3900, 3919, 3967, 3969, 3921
2450, 3919, 3967, 3969, 3921, 3920, 3968, 3970, 3922
2451, 3900, 3948, 3954, 3906, 3921, 3969, 3971, 3923
2452, 3921, 3969, 3971, 3923, 3922, 3970, 3972, 3924
2453, 3906, 3954, 3973, 3925, 3923, 3971, 3974, 3926
2454, 3923, 3971, 3974, 3926, 3924, 3972, 3975, 3927
2455, 3925, 3973, 3976, 3928, 3926, 3974, 3977, 3929
2456, 3926, 3974, 3977, 3929, 3927, 3975, 3978, 3930
2457, 3928, 3976, 3979, 3931, 3929, 3977, 3980, 3932
2458, 3929, 3977, 3980, 3932, 3930, 3978, 3981, 3933
2459, 3931, 3979, 3982, 3934, 3932, 3980, 3983, 3935
2460, 3932, 3980, 3983, 3935, 3933, 3981, 3984, 3936
2461, 3937, 3985, 3986, 3938, 3939, 3987, 3988, 3940
2462, 3939, 3987, 3988, 3940, 3941, 3989, 3990, 3942
2463, 3941, 3989, 3990, 3942, 3943, 3991, 3992, 3944
2464, 3943, 3991, 3992, 3944, 3945, 3993, 3994, 3946
2465, 3945, 3993, 3994, 3946, 3947, 3995, 3996, 3948
2466, 3938, 3986, 3997, 3949, 3940, 3988, 3998, 3950
2467, 3940, 3988, 3998, 3950, 3942, 3990, 3999, 3951
2468, 3942, 3990, 3999, 3951, 3944, 3992, 4000, 3952
2469, 3944, 3992, 4000, 3952, 3946, 3994, 4001, 3953
2470, 3946, 3994, 4001, 3953, 3948, 3996, 4002, 3954
2471, 3955, 4003, 4004, 3956, 3957, 4005, 4006, 3958
2472, 3957, 4005, 4006, 3958, 3959, 4007, 4008, 3960
2473, 3956, 4004, 4009, 3961, 3958, 4006, 4010, 3962
2474, 3958, 4006, 4010, 3962, 3960, 4008, 4011, 3963
2475, 3961, 4009, 4012, 3964, 3962, 4010, 4013, 3965
2476, 3962, 4010, 4013, 3965, 3963, 4011, 4014, 3966
2477, 3964, 4012, 3995, 3947, 3965, 4013, 4015, 3967
2478, 3965, 4013, 4015, 3967, 3966, 4014, 4016, 3968
2479, 3947, 3995, 3996, 3948, 3967, 4015, 4017, 3969
2480, 3967, 4015, 4017, 3969, 3968, 4016, 4018, 3970
2481, 3948, 3996, 4002, 3954, 3969, 4017, 4019, 3971
2482, 3969, 4017, 4019, 3971, 3970, 4018, 4020, 3972
2483, 3954, 4002, 4021, 3973, 3971, 4019, 4022, 3974
2484, 3971, 4019, 4022, 3974, 3972, 4020, 4023, 3975
2485, 3973, 4021, 4024, 3976, 3974, 4022, 4025, 3977
2486, 3974, 4022, 4025, 3977, 3975, 4023, 4026, 3978
2487, 3976, 4024, 4027, 3979, 3977, 4025, 4028, 3980
2488, 3977, 4025, 4028, 3980, 3978, 4026, 4029, 3981
2489, 3979, 4027, 4030, 3982, 3980, 4028, 4031, 3983
2490, 3980, 4028, 4031, 3983, 3981, 4029, 4032, 3984
2491, 3985, 4033, 4034, 3986, 3987, 4035, 4036, 3988
2492, 3987, 4035, 4036, 3988, 3989, 4037, 4038, 3990
2493, 3989, 4037, 4038, 3990, 3991, 4039, 4040, 3992
2494, 3991, 4039, 4040, 3992, 3993, 4041, 4042, 3994
2495, 3993, 4041, 4042, 3994, 3995, 4043, 4044, 3996
2496, 3986, 4034, 4045, 3997, 3988, 4036, 4046, 3998
2497, 3988, 4036, 4046, 3998, 3990, 4038, 4047, 3999
2498, 3990, 4038, 4047, 3999, 3992, 4040, 4048, 4000
2499, 3992, 4040, 4048, 4000, 3994, 4042, 4049, 4001
2500, 3994, 4042, 4049, 4001, 3996, 4044, 4050, 4002
2501, 4003, 4051, 4052, 4004, 4005, 4053, 4054, 4006
2502, 4005, 4053, 4054, 4006, 4007, 4055, 4056, 4008
2503, 4004, 4052, 4057, 4009, 4006, 4054, 4058, 4010
2504, 4006, 4054, 4058, 4010, 4008, 4056, 4059, 4011
2505, 4009, 4057, 4060, 4012, 4010, 4058, 4061, 4013
2506, 4010, 4058, 4061, 4013, 4011, 4059, 4062, 4014
2507, 4012, 4060, 4043, 3995, 4013, 4061, 4063, 4015
2508, 4013, 4061, 4063, 4015, 4014, 4062, 4064, 4016
2509, 3995, 4043, 4044, 3996, 4015, 4063, 4065, 4017
2510, 4015, 4063, 4065, 4017, 4016, 4064, 4066, 4018
2511, 3996, 4044, 4050, 4002, 4017, 4065, 4067, 4019
2512, 4017, 4065, 4067, 4019, 4018, 4066, 4068, 4020
2513, 4002, 4050, 4069, 4021, 4019, 4067, 4070, 4022
2514, 4019, 4067, 4070, 4022, 4020, 4068, 4071, 4023
2515, 4021, 4069, 4072, 4024, 4022, 4070, 4073, 4025
2516, 4022, 4070, 4073, 4025, 4023, 4071, 4074, 4026
2517, 4024, 4072, 4075, 4027, 4025, 4073, 4076, 4028
2518, 4025, 4073, 4076, 4028, 4026, 4074, 4077, 4029
2519, 4027, 4075, 4078, 4030, 4028, 4076, 4079, 4031
2520, 4028, 4076, 4079, 4031, 4029, 4077, 4080, 4032
2521, 4033, 4081, 4082, 4034, 4035, 4083, 4084, 4036
2522, 4035, 4083, 4084, 4036, 4037, 4085, 4086, 4038
2523, 4037, 4085, 4086, 4038, 4039, 4087, 4088, 4040
2524, 4039, 4087, 4088, 4040, 4041, 4089, 4090, 4042
2525, 4041, 4089, 4090, 4042, 4043, 4091, 4092, 4044
2526, 4034, 4082, 4093, 4045, 4036, 4084, 4094, 4046
2527, 4036, 4084, 4094, 4046, 4038, 4086, 4095, 4047
2528, 4038, 4086, 4095, 4047, 4040, 4088, 4096, 4048
2529, 4040, 4088, 4096, 4048, 4042, 4090, 4097, 4049
2530, 4042, 4090, 4097, 4049, 4044, 4092, 4098, 4050
2531, 4051, 4099, 4100, 4052, 4053, 4101, 4102, 4054
2532, 4053, 4101, 4102, 4054, 4055, 4103, 4104, 4056
2533, 4052, 4100, 4105, 4057, 4054, 4102, 4106, 4058
2534, 4054, 4102, 4106, 4058, 4056, 4104, 4107, 4059
2535, 4057, 4105, 4108, 4060, 4058, 4106, 4109, 4061
2536, 4058, 4106, 4109, 4061, 4059, 4107, 4110, 4062
2537, 4060, 4108, 4091, 4043, 4061, 4109, 4111, 4063
2538, 4061, 4109, 4111, 4063, 4062, 4110, 4112, 4064
2539, 4043, 4091, 4092, 4044, 4063, 4111, 4113, 4065
2540, 4063, 4111, 4113, 4065, 4064, 4112, 4114, 4066
2541, 4044, 4092, 4098, 4050, 4065, 4113, 4115, 4067
2542, 4065, 4113, 4115, 4067, 4066, 4114, 4116, 4068
2543, 4050, 4098, 4117, 4069, 4067, 4115, 4118, 4070
2544, 4067, 4115, 4118, 4070, 4068, 4116, 4119, 4071
2545, 4069, 4117, 4120, 4072, 4070, 4118, 4121, 4073
2546, 4070, 4118, 4121, 4073, 4071, 4119, 4122, 4074
2547, 4072, 4120, 4123, 4075, 4073, 4121, 4124, 4076
2548, 4073, 4121, 4124, 4076, 4074, 4122, 4125, 4077
2549, 4075, 4123, 4126, 4078, 4076, 4124, 4127, 4079
2550, 4076, 4124, 4127, 4079, 4077, 4125, 4128, 4080
2551, 4081, 4129, 4130, 4082, 4083, 4131, 4132, 4084
2552, 4083, 4131, 4132, 4084, 4085, 4133, 4134, 4086
2553, 4085, 4133, 4134, 4086, 4087, 4135, 4136, 4088
2554, 4087, 4135, 4136, 4088, 4089, 4137, 4138, 4090
2555, 4089, 4137, 4138, 4090, 4091, 4139, 4140, 4092
2556, 4082, 4130, 4141, 4093, 4084, 4132, 4142, 4094
2557, 4084, 4132, 4142, 4094, 4086, 4134, 4143, 4095
2558, 4086, 4134, 4143, 4095, 4088, 4136, 4144, 4096
2559, 4088, 4136, 4144, 4096, 4090, 4138, 4145, 4097
2560, 4090, 4138, 4145, 4097, 4092, 4140, 4146, 4098
2561, 4099, 4147, 4148, 4100, 4101, 4149, 4150, 4102
2562, 4101, 4149, 4150, 4102, 4103, 4151, 4152, 4104
2563, 4100, 4148, 4153, 4105, 4102, 4150, 4154, 4106
2564, 4102, 4150, 4154, 4106, 4104, 4152, 4155, 4107
2565, 4105, 4153, 4156, 4108, 4106, 4154, 4157, 4109
2566, 4106, 4154, 4157, 4109, 4107, 4155, 4158, 4110
2567, 4108, 4156, 4139, 4091, 4109, 4157, 4159, 4111
2568, 4109, 4157, 4159, 4111, 4110, 4158, 4160, 4112
2569, 4091, 4139, 4140, 4092, 4111, 4159, 4161, 4113
2570, 4111, 4159, 4161, 4113, 4112, 4160, 4162, 4114
2571, 4092, 4140, 4146, 4098, 4113, 4161, 4163, 4115
2572, 4113, 4161, 4163, 4115, 4114, 4162, 4164, 4116
2573, 4098, 4146, 4165, 4117, 4115, 4163, 4166, 4118
2574, 4115, 4163, 4166, 4118, 4116, 4164, 4167, 4119
2575, 4117, 4165, 4168, 4120, 4118, 4166, 4169, 4121
2576, 4118, 4166, 4169, 4121, 4119, 4167, 4170, 4122
2577, 4120, 4168, 4171, 4123, 4121, 4169, 4172, 4124
2578, 4121, 4169, 4172, 4124, 4122, 4170, 4173, 4125
2579, 4123, 4171, 4174, 4126, 4124, 4172, 4175, 4127
2580, 4124, 4172, 4175, 4127, 4125, 4173, 4176, 4128
2581, 4129, 4177, 4178, 4130, 4131, 4179, 4180, 4132
2582, 4131, 4179, 4180, 4132, 4133, 4181, 4182, 4134
2583, 4133, 4181, 4182, 4134, 4135, 4183, 4184, 4136
2584, 4135, 4183, 4184, 4136, 4137, 4185, 4186, 4138
2585, 4137, 4185, 4186, 4138, 4139, 4187, 4188, 4140
2586, 4130, 4178, 4189, 4141, 4132, 4180, 4190, 4142
2587, 4132, 4180, 4190, 4142, 4134, 4182, 4191, 4143
2588, 4134, 4182, 4191, 4143, 4136, 4184, 4192, 4144
2589, 4136, 4184, 4192, 4144, 4138, 4186, 4193, 4145
2590, 4138, 4186, 4193, 4145, 4140, 4188, 4194, 4146
2591, 4147, 4195, 4196, 4148, 4149, 4197, 4198, 4150
2592, 4149, 4197, 4198, 4150, 4151, 4199, 4200, 4152
2593, 4148, 4196, 4201, 4153, 4150, 4198, 4202, 4154
2594, 4150, 4198, 4202, 4154, 4152, 4200, 4203, 4155
2595, 4153, 4201, 4204, 4156, 4154, 4202, 4205, 4157
2596, 4154, 4202, 4205, 4157, 4155, 4203, 4206, 4158
2597, 4156, 4204, 4187, 4139, 4157, 4205, 4207, 4159
2598, 4157, 4205, 4207, 4159, 4158, 4206, 4208, 4160
2599, 4139, 4187, 4188, 4140, 4159, 4207, 4209, 4161
2600, 4159, 4207, 4209, 4161, 4160, 4208, 4210, 4162
2601, 4140, 4188, 4194, 4146, 4161, 4209, 4211, 4163
2602, 4161, 4209, 4211, 4163, 4162, 4210, 4212, 4164
2603, 4146, 4194, 4213, 4165, 4163, 4211, 4214, 4166
2604, 4163, 4211, 4214, 4166, 4164, 4212, 4215, 4167
2605, 4165, 4213, 4216, 4168, 4166, 4214, 4217, 4169
2606, 4166, 4214, 4217, 4169, 4167, 4215, 4218, 4170
2607, 4168, 4216, 4219, 4171, 4169, 4217, 4220, 4172
2608, 4169, 4217, 4220, 4172, 4170, 4218, 4221, 4173
2609, 4171, 4219, 4222, 4174, 4172, 4220, 4223, 4175
2610, 4172, 4220, 4223, 4175, 4173, 4221, 4224, 4176
2611, 4177, 4225, 4226, 4178, 4179, 4227, 4228, 4180
2612, 4179, 4227, 4228, 4180, 4181, 4229, 4230, 4182
2613, 4181, 4229, 4230, 4182, 4183, 4231, 4232, 4184
2614, 4183, 4231, 4232, 4184, 4185, 4233, 4234, 4186
2615, 4185, 4233, 4234, 4186, 4187, 4235, 4236, 4188
2616, 4178, 4226, 4237, 4189, 4180, 4228, 4238, 4190
2617, 4180, 4228, 4238, 4190, 4182, 4230, 4239, 4191
2618, 4182, 4230, 4239, 4191, 4184, 4232, 4240, 4192
2619, 4184, 4232, 4240, 4192, 4186, 4234, 4241, 4193
2620, 4186, 4234, 4241, 4193, 4188, 4236, 4242, 4194
2621, 4195, 4243, 4244, 4196, 4197, 4245, 4246, 4198
2622, 4197, 4245, 4246, 4198, 4199, 4247, 4248, 4200
2623, 4196, 4244, 4249, 4201, 4198, 4246, 4250, 4202
2624, 4198, 4246, 4250, 4202, 4200, 4248, 4251, 4203
2625, 4201, 4249, 4252, 4204, 4202, 4250, 4253, 4205
2626, 4202, 4250, 4253, 4205, 4203, 4251, 4254, 4206
2627, 4204, 4252, 4235, 4187, 4205, 4253, 4255, 4207
2628, 4205, 4253, 4255, 4207, 4206, 4254, 4256, 4208
2629, 4187, 4235, 4236, 4188, 4207, 4255, 4257, 4209
2630, 4207, 4255, 4257, 4209, 4208, 4256, 4258, 4210
2631, 4188, 4236, 4242, 4194, 4209, 4257, 4259, 4211
2632, 4209, 4257, 4259, 4211, 4210, 4258, 4260, 4212
2633, 4194, 4242, 4261, 4213, 4211, 4259, 4262, 4214
2634, 4211, 4259, 4262, 4214, 4212, 4260, 4263, 4215
2635, 4213, 4261, 4264, 4216, 4214, 4262, 4265, 4217
2636, 4214, 4262, 4265, 4217, 4215, 4263, 4266, 4218
2637, 4216, 4264, 4267, 4219, 4217, 4265, 4268, 4220
2638, 4217, 4265, 4268, 4220, 4218, 4266, 4269, 4221
2639, 4219, 4267, 4270, 4222, 4220, 4268, 4271, 4223
2640, 4220, 4268, 4271, 4223, 4221, 4269, 4272, 4224
2641, 4225, 4273, 4274, 4226, 4227, 4275, 4276, 4228
2642, 4227, 4275, 4276, 4228, 4229, 4277, 4278, 4230
2643, 4229, 4277, 4278, 4230, 4231, 4279, 4280, 4232
2644, 4231, 4279, 4280, 4232, 4233, 4281, 4282, 4234
2645, 4233, 4281, 4282, 4234, 4235, 4283, 4284, 4236
2646, 4226, 4274, 4285, 4237, 4228, 4276, 4286, 4238
2647, 4228, 4276, 4286, 4238, 4230, 4278, 4287, 4239
2648, 4230, 4278, 4287, 4239, 4232, 4280, 4288, 4240
2649, 4232, 4280, 4288, 4240, 4234, 4282, 4289, 4241
2650, 4234, 4282, 4289, 4241, 4236, 4284, 4290, 4242
2651, 4243, 4291, 4292, 4244, 4245, 4293, 4294, 4246
2652, 4245, 4293, 4294, 4246, 4247, 4295, 4296, 4248
2653, 4244, 4292, 4297, 4249, 4246, 4294, 4298, 4250
2654, 4246, 4294, 4298, 4250, 4248, 4296, 4299, 4251
2655, 4249, 4297, 4300, 4252, 4250, 4298, 4301, 4253
2656, 4250, 4298, 4301, 4253, 4251, 4299, 4302, 4254
2657, 4252, 4300, 4283, 4235, 4253, 4301, 4303, 4255
2658, 4253, 4301, 4303, 4255, 4254, 4302, 4304, 4256
2659, 4235, 4283, 4284, 4236, 4255, 4303, 4305, 4257
2660, 4255, 4303, 4305, 4257, 4256, 4304, 4306, 4258
2661, 4236, 4284, 4290, 4242, 4257, 4305, 4307, 4259
2662, 4257, 4305, 4307, 4259, 4258, 4306, 4308, 4260
2663, 4242, 4290, 4309, 4261, 4259, 4307, 4310, 4262
2664, 4259, 4307, 4310, 4262, 4260, 4308, 4311, 4263
2665, 4261, 4309, 4312, 4264, 4262, 4310, 4313, 4265
2666, 4262, 4310, 4313, 4265, 4263, 4311, 4314, 4266
2667, 4264, 4312, 4315, 4267, 4265, 4313, 4316, 4268
2668, 4265, 4313, 4316, 4268, 4266, 4314, 4317, 4269
2669, 4267, 4315, 4318, 4270, 4268, 4316, 4319, 4271
2670, 4268, 4316, 4319, 4271, 4269, 4317, 4320, 4272
2671, 4273, 4321, 4322, 4274, 4275, 4323, 4324, 4276
2672, 4275, 4323, 4324, 4276, 4277, 4325, 4326, 4278
2673, 4277, 4325, 4326, 4278, 4279, 4327, 4328, 4280
2674, 4279, 4327, 4328, 4280, 4281, 4329, 4330, 4282
2675, 4281, 4329, 4330, 4282, 4283, 4331, 4332, 4284
2676, 4274, 4322, 4333, 4285, 4276, 4324, 4334, 4286
2677, 4276, 4324, 4334, 4286, 4278, 4326, 4335, 4287
2678, 4278, 4326, 4335, 4287, 4280, 4328, 4336, 4288
2679, 4280, 4328, 4336, 4288, 4282, 4330, 4337, 4289
2680, 4282, 4330, 4337, 4289, 4284, 4332, 4338, 4290
2681, 4291, 4339, 4340, 4292, 4293, 4341, 4342, 4294
2682, 4293, 4341, 4342, 4294, 4295, 4343, 4344, 4296
2683, 4292, 4340, 4345, 4297, 4294, 4342, 4346, 4298
2684, 4294, 4342, 4346, 4298, 4296, 4344, 4347, 4299
2685, 4297, 4345, 4348, 4300, 4298, 4346, 4349, 4301
2686, 4298, 4346, 4349, 4301, 4299, 4347, 4350, 4302
2687, 4300, 4348, 4331, 4283, 4301, 4349, 4351, 4303
2688, 4301, 4349, 4351, 4303, 4302, 4350, 4352, 4304
2689, 4283, 4331, 4332, 4284, 4303, 4351, 4353, 4305
2690, 4303, 4351, 4353, 4305, 4304, 4352, 4354, 4306
2691, 4284, 4332, 4338, 4290, 4305, 4353, 4355, 4307
2692, 4305, 4353, 4355, 4307, 4306, 4354, 4356, 4308
2693, 4290, 4338, 4357, 4309, 4307, 4355, 4358, 4310
2694, 4307, 4355, 4358, 4310, 4308, 4356, 4359, 4311
2695, 4309, 4357, 4360, 4312, 4310, 4358, 4361, 4313
2696, 4310, 4358, 4361, 4313, 4311, 4359, 4362, 4314
2697, 4312, 4360, 4363, 4315, 4313, 4361, 4364, 4316
2698, 4313, 4361, 4364, 4316, 4314, 4362, 4365, 4317
2699, 4315, 4363, 4366, 4318, 4316, 4364, 4367, 4319
2700, 4316, 4364, 4367, 4319, 4317, 4365, 4368, 4320
2701, 4321, 4369, 4370, 4322, 4323, 4371, 4372, 4324
2702, 4323, 4371, 4372, 4324, 4325, 4373, 4374, 4326
2703, 4325, 4373, 4374, 4326, 4327, 4375, 4376, 4328
2704, 4327, 4375, 4376, 4328, 4329, 4377, 4378, 4330
2705, 4329, 4377, 4378, 4330, 4331, 4379, 4380, 4332
2706, 4322, 4370, 4381, 4333, 4324, 4372, 4382, 4334
2707, 4324, 4372, 4382, 4334, 4326, 4374, 4383, 4335
2708, 4326, 4374, 4383, 4335, 4328, 4376, 4384, 4336
2709, 4328, 4376, 4384, 4336, 4330, 4378, 4385, 4337
2710, 4330, 4378, 4385, 4337, 4332, 4380, 4386, 4338
2711, 4339, 4387, 4388, 4340, 4341, 4389, 4390, 4342
2712, 4341, 4389, 4390, 4342, 4343, 4391, 4392, 4344
2713, 4340, 4388, 4393, 4345, 4342, 4390, 4394, 4346
2714, 4342, 4390, 4394, 4346, 4344, 4392, 4395, 4347
2715, 4345, 4393, 4396, 4348, 4346, 4394, 4397, 4349
2716, 4346, 4394, 4397, 4349, 4347, 4395, 4398, 4350
2717, 4348, 4396, 4379, 4331, 4349, 4397, 4399, 4351
2718, 4349, 4397, 4399, 4351, 4350, 4398, 4400, 4352
2719, 4331, 4379, 4380, 4332, 4351, 4399, 4401, 4353
2720, 4351, 4399, 4401, 4353, 4352, 4400, 4402, 4354
2721, 4332, 4380, 4386, 4338, 4353, 4401, 4403, 4355
2722, 4353, 4401, 4403, 4355, 4354, 4402, 4404, 4356
2723, 4338, 4386, 4405, 4357, 4355, 4403, 4406, 4358
2724, 4355, 4403, 4406, 4358, 4356, 4404, 4407, 4359
2725, 4357, 4405, 4408, 4360, 4358, 4406, 4409, 4361
2726, 4358, 4406, 4409, 4361, 4359, 4407, 4410, 4362
2727, 4360, 4408, 4411, 4363, 4361, 4409, 4412, 4364
2728, 4361, 4409, 4412, 4364, 4362, 4410, 4413, 4365
2729, 4363, 4411, 4414, 4366, 4364, 4412, 4415, 4367
2730, 4364, 4412, 4415, 4367, 4365, 4413, 4416, 4368
2731, 4369, 4417, 4418, 4370, 4371, 4419, 4420, 4372
2732, 4371, 4419, 4420, 4372, 4373, 4421, 4422, 4374
2733, 4373, 4421, 4422, 4374, 4375, 4423, 4424, 4376
2734, 4375, 4423, 4424, 4376, 4377, 4425, 4426, 4378
2735, 4377, 4425, 4426, 4378, 4379, 4427, 4428, 4380
2736, 4370, 4418, 4429, 4381, 4372, 4420, 4430, 4382
2737, 4372, 4420, 4430, 4382, 4374, 4422, 4431, 4383
2738, 4374, 4422, 4431, 4383, 4376, 4424, 4432, 4384
2739, 4376, 4424, 4432, 4384, 4378, 4426, 4433, 4385
2740, 4378, 4426, 4433, 4385, 4380, 4428, 4434, 4386
2741, 4387, 4435, 4436, 4388, 4389, 4437, 4438, 4390
2742, 4389, 4437, 4438, 4390, 4391, 4439, 4440, 4392
2743, 4388, 4436, 4441, 4393, 4390, 4438, 4442, 4394
2744, 4390, 4438, 4442, 4394, 4392, 4440, 4443, 4395
2745, 4393, 4441, 4444, 4396, 4394, 4442, 4445, 4397
2746, 4394, 4442, 4445, 4397, 4395, 4443, 4446, 4398
2747, 4396, 4444, 4427, 4379, 4397, 4445, 4447, 4399
2748, 4397, 4445, 4447, 4399, 4398, 4446, 4448, 4400
2749, 4379, 4427, 4428, 4380, 4399, 4447, 4449, 4401
2750, 4399, 4447, 4449, 4401, 4400, 4448, 4450, 4402
2751, 4380, 4428, 4434, 4386, 4401, 4449, 4451, 4403
2752, 4401, 4449, 4451, 4403, 4402, 4450, 4452, 4404
2753, 4386, 4434, 4453, 4405, 4403, 4451, 4454, 4406
2754, 4403, 4451, 4454, 4406, 4404, 4452, 4455, 4407
2755, 4405, 4453, 4456, 4408, 4406, 4454, 4457, 4409
2756, 4406, 4454, 4457, 4409, 4407, 4455, 4458, 4410
2757, 4408, 4456, 4459, 4411, 4409, 4457, 4460, 4412
2758, 4409, 4457, 4460, 4412, 4410, 4458, 4461, 4413
2759, 4411, 4459, 4462, 4414, 4412, 4460, 4463, 4415
2760, 4412, 4460, 4463, 4415, 4413, 4461, 4464, 4416
2761, 4417, 4465, 4466, 4418, 4419, 4467, 4468, 4420
2762, 4419, 4467, 4468, 4420, 4421, 4469, 4470, 4422
2763, 4421, 4469, 4470, 4422, 4423, 4471, 4472, 4424
2764, 4423, 4471, 4472, 4424, 4425, 4473, 4474, 4426
2765, 4425, 4473, 4474, 4426, 4427, 4475, 4476, 4428
2766, 4418, 4466, 4477, 4429, 4420, 4468, 4478, 4430
2767, 4420, 4468, 4478, 4430, 4422, 4470, 4479, 4431
2768, 4422, 4470, 4479, 4431, 4424, 4472, 4480, 4432
2769, 4424, 4472, 4480, 4432, 4426, 4474, 4481, 4433
2770, 4426, 4474, 4481, 4433, 4428, 4476, 4482, 4434
2771, 4435, 4483, 4484, 4436, 4437, 4485, 4486, 4438
2772, 4437, 4485, 4486, 4438, 4439, 4487, 4488, 4440
2773, 4436, 4484, 4489, 4441, 4438, 4486, 4490, 4442
2774, 4438, 4486, 4490, 4442, 4440, 4488, 4491, 4443
2775, 4441, 4489, 4492, 4444, 4442, 4490, 4493, 4445
2776, 4442, 4490, 4493, 4445, 4443, 4491, 4494, 4446
2777, 4444, 4492, 4475, 4427, 4445, 4493, 4495, 4447
2778, 4445, 4493, 4495, 4447, 4446, 4494, 4496, 4448
2779, 4427, 4475, 4476, 4428, 4447, 4495, 4497, 4449
2780, 4447, 4495, 4497, 4449, 4448, 4496, 4498, 4450
2781, 4428, 4476, 4482, 4434, 4449, 4497, 4499, 4451
2782, 4449, 4497, 4499, 4451, 4450, 4498, 4500, 4452
2783, 4434, 4482, 4501, 4453, 4451, 4499, 4502, 4454
2784, 4451, 4499, 4502, 4454, 4452, 4500, 4503, 4455
2785, 4453, 4501, 4504, 4456, 4454, 4502, 4505, 4457
2786, 4454, 4502, 4505, 4457, 4455, 4503, 4506, 4458
2787, 4456, 4504, 4507, 4459, 4457, 4505, 4508, 4460
2788, 4457, 4505, 4508, 4460, 4458, 4506, 4509, 4461
2789, 4459, 4507, 4510, 4462, 4460, 4508, 4511, 4463
2790, 4460, 4508, 4511, 4463, 4461, 4509, 4512, 4464
2791, 4465, 4513, 4514, 4466, 4467, 4515, 4516, 4468
2792, 4467, 4515, 4516, 4468, 4469, 4517, 4518, 4470
2793, 4469, 4517, 4518, 4470, 4471, 4519, 4520, 4472
2794, 4471, 4519, 4520, 4472, 4473, 4521, 4522, 4474
2795, 4473, 4521, 4522, 4474, 4475, 4523, 4524, 4476
2796, 4466, 4514, 4525, 4477, 4468, 4516, 4526, 4478
2797, 4468, 4516, 4526, 4478, 4470, 4518, 4527, 4479
2798, 4470, 4518, 4527, 4479, 4472, 4520, 4528, 4480
2799, 4472, 4520, 4528, 4480, 4474, 4522, 4529, 4481
2800, 4474, 4522, 4529, 4481, 4476, 4524, 4530, 4482
2801, 4483, 4531, 4532, 4484, 4485, 4533, 4534, 4486
2802, 4485, 4533, 4534, 4486, 4487, 4535, 4536, 4488
2803, 4484, 4532, 4537, 4489, 4486, 4534, 4538, 4490
2804, 4486, 4534, 4538, 4490, 4488, 4536, 4539, 4491
2805, 4489, 4537, 4540, 4492, 4490, 4538, 4541, 4493
2806, 4490, 4538, 4541, 4493, 4491, 4539, 4542, 4494
2807, 4492, 4540, 4523, 4475, 4493, 4541, 4543, 4495
2808, 4493, 4541, 4543, 4495, 4494, 4542, 4544, 4496
2809, 4475, 4523, 4524, 4476, 4495, 4543, 4545, 4497
2810, 4495, 4543, 4545, 4497, 4496, 4544, 4546, 4498
2811, 4476, 4524, 4530, 4482, 4497, 4545, 4547, 4499
2812, 4497, 4545, 4547, 4499, 4498, 4546, 4548, 4500
2813, 4482, 4530, 4549, 4501, 4499, 4547, 4550, 4502
2814, 4499, 4547, 4550, 4502, 4500, 4548, 4551, 4503
2815, 4501, 4549, 4552, 4504, 4502, 4550, 4553, 4505
2816, 4502, 4550, 4553, 4505, 4503, 4551, 4554, 4506
2817, 4504, 4552, 4555, 4507, 4505, 4553, 4556, 4508
2818, 4505, 4553, 4556, 4508, 4506, 4554, 4557, 4509
2819, 4507, 4555, 4558, 4510, 4508, 4556, 4559, 4511
2820, 4508, 4556, 4559, 4511, 4509, 4557, 4560, 4512
2821, 4513, 4561, 4562, 4514, 4515, 4563, 4564, 4516
2822, 4515, 4563, 4564, 4516, 4517, 4565, 4566, 4518
2823, 4517, 4565, 4566, 4518, 4519, 4567, 4568, 4520
2824, 4519, 4567, 4568, 4520, 4521, 4569, 4570, 4522
2825, 4521, 4569, 4570, 4522, 4523, 4571, 4572, 4524
2826, 4514, 4562, 4573, 4525, 4516, 4564, 4574, 4526
2827, 4516, 4564, 4574, 4526, 4518, 4566, 4575, 4527
2828, 4518, 4566, 4575, 4527, 4520, 4568, 4576, 4528
2829, 4520, 4568, 4576, 4528, 4522, 4570, 4577, 4529
2830, 4522, 4570, 4577, 4529, 4524, 4572, 4578, 4530
2831, 4531, 4579, 4580, 4532, 4533, 4581, 4582, 4534
2832, 4533, 4581, 4582, 4534, 4535, 4583, 4584, 4536
2833, 4532, 4580, 4585, 4537, 4534, 4582, 4586, 4538
2834, 4534, 4582, 4586, 4538, 4536, 4584, 4587, 4539
2835, 4537, 4585, 4588, 4540, 4538, 4586, 4589, 4541
2836, 4538, 4586, 4589, 4541, 4539, 4587, 4590, 4542
2837, 4540, 4588, 4571, 4523, 4541, 4589, 4591, 4543
2838, 4541, 4589, 4591, 4543, 4542, 4590, 4592, 4544
2839, 4523, 4571, 4572, 4524, 4543, 4591, 4593, 4545
2840, 4543, 4591, 4593, 4545, 4544, 4592, 4594, 4546
2841, 4524, 4572, 4578, 4530, 4545, 4593, 4595, 4547
2842, 4545, 4593, 4595, 4547, 4546, 4594, 4596, 4548
2843, 4530, 4578, 4597, 4549, 4547, 4595, 4598, 4550
2844, 4547, 4595, 4598, 4550, 4548, 4596, 4599, 4551
2845, 4549, 4597, 4600, 4552, 4550, 4598, 4601, 4553
2846, 4550, 4598, 4601, 4553, 4551, 4599, 4602, 4554
2847, 4552, 4600, 4603, 4555, 4553, 4601, 4604, 4556
2848, 4553, 4601, 4604, 4556, 4554, 4602, 4605, 4557
2849, 4555, 4603, 4606, 4558, 4556, 4604, 4607, 4559
2850, 4556, 4604, 4607, 4559, 4557, 4605, 4608, 4560
2851, 4561, 4609, 4610, 4562, 4563, 4611, 4612, 4564
2852, 4563, 4611, 4612, 4564, 4565, 4613, 4614, 4566
2853, 4565, 4613, 4614, 4566, 4567, 4615, 4616, 4568
2854, 4567, 4615, 4616, 4568, 4569, 4617, 4618, 4570
2855, 4569, 4617, 4618, 4570, 4571, 4619, 4620, 4572
2856, 4562, 4610, 4621, 4573, 4564, 4612, 4622, 4574
2857, 4564, 4612, 4622, 4574, 4566, 4614, 4623, 4575
2858, 4566, 4614, 4623, 4575, 4568, 4616, 4624, 4576
2859, 4568, 4616, 4624, 4576, 4570, 4618, 4625, 4577
2860, 4570, 4618, 4625, 4577, 4572, 4620, 4626, 4578
2861, 4579, 4627, 4628, 4580, 4581, 4629, 4630, 4582
2862, 4581, 4629, 4630, 4582, 4583, 4631, 4632, 4584
2863, 4580, 4628, 4633, 4585, 4582, 4630, 4634, 4586
2864, 4582, 4630, 4634, 4586, 4584, 4632, 4635, 4587
2865, 4585, 4633, 4636, 4588, 4586, 4634, 4637, 4589
2866, 4586, 4634, 4637, 4589, 4587, 4635, 4638, 4590
2867, 4588, 4636, 4619, 4571, 4589, 4637, 4639, 4591
2868, 4589, 4637, 4639, 4591, 4590, 4638, 4640, 4592
2869, 4571, 4619, 4620, 4572, 4591, 4639, 4641, 4593
2870, 4591, 4639, 4641, 4593, 4592, 4640, 4642, 4594
2871, 4572, 4620, 4626, 4578, 4593, 4641, 4643, 4595
2872, 4593, 4641, 4643, 4595, 4594, 4642, 4644, 4596
2873, 4578, 4626, 4645, 4597, 4595, 4643, 4646, 4598
2874, 4595, 4643, 4646, 4598, 4596, 4644, 4647, 4599
2875, 4597, 4645, 4648, 4600, 4598, 4646, 4649, 4601
2876, 4598, 4646, 4649, 4601, 4599, 4647, 4650, 4602
2877, 4600, 4648, 4651, 4603, 4601, 4649, 4652, 4604
2878, 4601, 4649, 4652, 4604, 4602, 4650, 4653, 4605
2879, 4603, 4651, 4654, 4606, 4604, 4652, 4655, 4607
2880, 4604, 4652, 4655, 4607, 4605, 4653, 4656, 4608
2881, 4609, 4657, 4658, 4610, 4611, 4659, 4660, 4612
2882, 4611, 4659, 4660, 4612, 4613, 4661, 4662, 4614
2883, 4613, 4661, 4662, 4614, 4615, 4663, 4664, 4616
2884, 4615, 4663, 4664, 4616, 4617, 4665, 4666, 4618
2885, 4617, 4665, 4666, 4618, 4619, 4667, 4668, 4620
2886, 4610, 4658, 4669, 4621, 4612, 4660, 4670, 4622
2887, 4612, 4660, 4670, 4622, 4614, 4662, 4671, 4623
2888, 4614, 4662, 4671, 4623, 4616, 4664, 4672, 4624
2889, 4616, 4664, 4672, 4624, 4618, 4666, 4673, 4625
2890, 4618, 4666, 4673, 4625, 4620, 4668, 4674, 4626
2891, 4627, 4675, 4676, 4628, 4629, 4677, 4678, 4630
2892, 4629, 4677, 4678, 4630, 4631, 4679, 4680, 4632
2893, 4628, 4676, 4681, 4633, 4630, 4678, 4682, 4634
2894, 4630, 4678, 4682, 4634, 4632, 4680, 4683, 4635
2895, 4633, 4681, 4684, 4636, 4634, 4682, 4685, 4637
2896, 4634, 4682, 4685, 4637, 4635, 4683, 4686, 4638
2897, 4636, 4684, 4667, 4619, 4637, 4685, 4687, 4639
2898, 4637, 4685, 4687, 4639, 4638, 4686, 4688, 4640
2899, 4619, 4667, 4668, 4620, 4639, 4687, 4689, 4641
2900, 4639, 4687, 4689, 4641, 4640, 4688, 4690, 4642
2901, 4620, 4668, 4674, 4626, 4641, 4689, 4691, 4643
2902, 4641, 4689, 4691, 4643, 4642, 4690, 4692, 4644
2903, 4626, 4674, 4693, 4645, 4643, 4691, 4694, 4646
2904, 4643, 4691, 4694, 4646, 4644, 4692, 4695, 4647
2905, 4645, 4693, 4696, 4648, 4646, 4694, 4697, 4649
2906, 4646, 4694, 4697, 4649, 4647, 4695, 4698, 4650
2907, 4648, 4696, 4699, 4651, 4649, 4697, 4700, 4652
2908, 4649, 4697, 4700, 4652, 4650, 4698, 4701, 4653
2909, 4651, 4699, 4702, 4654, 4652, 4700, 4703, 4655
2910, 4652, 4700, 4703, 4655, 4653, 4701, 4704, 4656
2911, 4657, 4705, 4706, 4658, 4659, 4707, 4708, 4660
2912, 4659, 4707, 4708, 4660, 4661, 4709, 4710, 4662
2913, 4661, 4709, 4710, 4662, 4663, 4711, 4712, 4664
2914, 4663, 4711, 4712, 4664, 4665, 4713, 4714, 4666
2915, 4665, 4713, 4714, 4666, 4667, 4715, 4716, 4668
2916, 4658, 4706, 4717, 4669, 4660, 4708, 4718, 4670
2917, 4660, 4708, 4718, 4670, 4662, 4710, 4719, 4671
2918, 4662, 4710, 4719, 4671, 4664, 4712, 4720, 4672
2919, 4664, 4712, 4720, 4672, 4666, 4714, 4721, 4673
2920, 4666, 4714, 4721, 4673, 4668, 4716, 4722, 4674
2921, 4675, 4723, 4724, 4676, 4677, 4725, 4726, 4678
2922, 4677, 4725, 4726, 4678, 4679, 4727, 4728, 4680
2923, 4676, 4724, 4729, 4681, 4678, 4726, 4730, 4682
2924, 4678, 4726, 4730, 4682, 4680, 4728, 4731, 4683
2925, 4681, 4729, 4732, 4684, 4682, 4730, 4733, 4685
2926, 4682, 4730, 4733, 4685, 4683, 4731, 4734, 4686
2927, 4684, 4732, 4715, 4667, 4685, 4733, 4735, 4687
2928, 4685, 4733, 4735, 4687, 4686, 4734, 4736, 4688
2929, 4667, 4715, 4716, 4668, 4687, 4735, 4737, 4689
2930, 4687, 4735, 4737, 4689, 4688, 4736, 4738, 4690
2931, 4668, 4716, 4722, 4674, 4689, 4737, 4739, 4691
2932, 4689, 4737, 4739, 4691, 4690, 4738, 4740, 4692
2933, 4674, 4722, 4741, 4693, 4691, 4739, 4742, 4694
2934, 4691, 4739, 4742, 4694, 4692, 4740, 4743, 4695
2935, 4693, 4741, 4744, 4696, 4694, 4742, 4745, 4697
2936, 4694, 4742, 4745, 4697, 4695, 4743, 4746, 4698
2937, 4696, 4744, 4747, 4699, 4697, 4745, 4748, 4700
2938, 4697, 4745, 4748, 4700, 4698, 4746, 4749, 4701
2939, 4699, 4747, 4750, 4702, 4700, 4748, 4751, 4703
2940, 4700, 4748, 4751, 4703, 4701, 4749, 4752, 4704
2941, 4705, 4753, 4754, 4706, 4707, 4755, 4756, 4708
2942, 4707, 4755, 4756, 4708, 4709, 4757, 4758, 4710
2943, 4709, 4757, 4758, 4710, 4711, 4759, 4760, 4712
2944, 4711, 4759, 4760, 4712, 4713, 4761, 4762, 4714
2945, 4713, 4761, 4762, 4714, 4715, 4763, 4764, 4716
2946, 4706, 4754, 4765, 4717, 4708, 4756, 4766, 4718
2947, 4708, 4756, 4766, 4718, 4710, 4758, 4767, 4719
2948, 4710, 4758, 4767, 4719, 4712, 4760, 4768, 4720
2949, 4712, 4760, 4768, 4720, 4714, 4762, 4769, 4721
2950, 4714, 4762, 4769, 4721, 4716, 4764, 4770, 4722
2951, 4723, 4771, 4772, 4724, 4725, 4773, 4774, 4726
2952, 4725, 4773, 4774, 4726, 4727, 4775, 4776, 4728
2953, 4724, 4772, 4777, 4729, 4726, 4774, 4778, 4730
2954, 4726, 4774, 4778, 4730, 4728, 4776, 4779, 4731
2955, 4729, 4777, 4780, 4732, 4730, 4778, 4781, 4733
2956, 4730, 4778, 4781, 4733, 4731, 4779, 4782, 4734
2957, 4732, 4780, 4763, 4715, 4733, 4781, 4783, 4735
2958, 4733, 4781, 4783, 4735, 4734, 4782, 4784, 4736
2959, 4715, 4763, 4764, 4716, 4735, 4783, 4785, 4737
2960, 4735, 4783, 4785, 4737, 4736, 4784, 4786, 4738
2961, 4716, 4764, 4770, 4722, 4737, 4785, 4787, 4739
2962, 4737, 4785, 4787, 4739, 4738, 4786, 4788, 4740
2963, 4722, 4770, 4789, 4741, 4739, 4787, 4790, 4742
2964, 4739, 4787, 4790, 4742, 4740, 4788, 4791, 4743
2965, 4741, 4789, 4792, 4744, 4742, 4790, 4793, 4745
2966, 4742, 4790, 4793, 4745, 4743, 4791, 4794, 4746
2967, 4744, 4792, 4795, 4747, 4745, 4793, 4796, 4748
2968, 4745, 4793, 4796, 4748, 4746, 4794, 4797, 4749
2969, 4747, 4795, 4798, 4750, 4748, 4796, 4799, 4751
2970, 4748, 4796, 4799, 4751, 4749, 4797, 4800, 4752
2971, 4753, 4801, 4802, 4754, 4755, 4803, 4804, 4756
2972, 4755, 4803, 4804, 4756, 4757, 4805, 4806, 4758
2973, 4757, 4805, 4806, 4758, 4759, 4807, 4808, 4760
2974, 4759, 4807, 4808, 4760, 4761, 4809, 4810, 4762
2975, 4761, 4809, 4810, 4762, 4763, 4811, 4812, 4764
2976, 4754, 4802, 4813, 4765, 4756, 4804, 4814, 4766
2977, 4756, 4804, 4814, 4766, 4758, 4806, 4815, 4767
2978, 4758, 4806, 4815, 4767, 4760, 4808, 4816, 4768
2979, 4760, 4808, 4816, 4768, 4762, 4810, 4817, 4769
2980, 4762, 4810, 4817, 4769, 4764, 4812, 4818, 4770
2981, 4771, 4819, 4820, 4772, 4773, 4821, 4822, 4774
2982, 4773, 4821, 4822, 4774, 4775, 4823, 4824, 4776
2983, 4772, 4820, 4825, 4777, 4774, 4822, 4826, 4778
2984, 4774, 4822, 4826, 4778, 4776, 4824, 4827, 4779
2985, 4777, 4825, 4828, 4780, 4778, 4826, 4829, 4781
2986, 4778, 4826, 4829, 4781, 4779, 4827, 4830, 4782
2987, 4780, 4828, 4811, 4763, 4781, 4829, 4831, 4783
2988, 4781, 4829, 4831, 4783, 4782, 4830, 4832, 4784
2989, 4763, 4811, 4812, 4764, 4783, 4831, 4833, 4785
2990, 4783, 4831, 4833, 4785, 4784, 4832, 4834, 4786
2991, 4764, 4812, 4818, 4770, 4785, 4833, 4835, 4787
2992, 4785, 4833, 4835, 4787, 4786, 4834, 4836, 4788
2993, 4770, 4818, 4837, 4789, 4787, 4835, 4838, 4790
2994, 4787, 4835, 4838, 4790, 4788, 4836, 4839, 4791
2995, 4789, 4837, 4840, 4792, 4790, 4838, 4841, 4793
2996, 4790, 4838, 4841, 4793, 4791, 4839, 4842, 4794
2997, 4792, 4840, 4843, 4795, 4793, 4841, 4844, 4796
2998, 4793, 4841, 4844, 4796, 4794, 4842, 4845, 4797
2999, 4795, 4843, 4846, 4798, 4796, 4844, 4847, 4799
3000, 4796, 4844, 4847, 4799, 4797, 4845, 4848, 4800
*NSET, NSET=CLAMP
1, 4, 5, 8, 9, 12, 13, 16, 17, 20, 21, 24, 26, 28, 30, 32
34, 36, 37, 40, 41, 44, 45, 48, 50, 52, 54, 56, 58, 60, 62, 64
66, 68, 70, 72, 74, 76, 78, 80, 82, 84, 86, 88, 90, 92, 94, 96
*NSET, NSET=TIP_TOP
4823, 4824, 4827, 4830, 4832, 4834, 4836, 4839, 4842, 4845, 4848
*NSET, NSET=TIP_FLANGE
4823, 4824, 4827, 4830, 4832, 4834, 4836, 4839, 4842, 4845, 4848
*MATERIAL, NAME=STEEL
*ELASTIC
210000, 0.3
*SOLID SECTION, ELSET=EALL, MATERIAL=STEEL
*BOUNDARY
CLAMP, 1, 3, 0.0
*STEP
*STATIC
*CLOAD
4823, 3, -454.545454545
4824, 3, -454.545454545
4827, 3, -454.545454545
4830, 3, -454.545454545
4832, 3, -454.545454545
4834, 3, -454.545454545
4836, 3, -454.545454545
4839, 3, -454.545454545
4842, 3, -454.545454545
4845, 3, -454.545454545
4848, 3, -454.545454545
*NODE FILE
U
*EL FILE
S, ENER
*NODE PRINT, NSET=TIP_TOP
U
*NODE PRINT, NSET=CLAMP
RF
*EL PRINT, ELSET=EALL
ELSE
*ENERGY PRINT
*END STEP
