*HEADING
R8 clamp_web h-branch ccx vs in-process
local Dirichlet problem; displacements on the cut from the global FE solution
*NODE, NSET=NALL
1, 0, -10, 0
2, 0, -10, 14
3, 0, -10, 28
4, 0, -5, 0
5, 0, -5, 14
6, 0, -5, 28
7, 0, 0, 0
8, 0, 0, 14
9, 0, 0, 28
10, 55.5555555556, -10, 0
11, 55.5555555556, -10, 14
12, 55.5555555556, -10, 28
13, 55.5555555556, -5, 0
14, 55.5555555556, -5, 14
15, 55.5555555556, -5, 28
16, 55.5555555556, 0, 0
17, 55.5555555556, 0, 14
18, 55.5555555556, 0, 28
19, 111.111111111, -10, 0
20, 111.111111111, -10, 14
21, 111.111111111, -10, 28
22, 111.111111111, -5, 0
23, 111.111111111, -5, 14
24, 111.111111111, -5, 28
25, 111.111111111, 0, 0
26, 111.111111111, 0, 14
27, 111.111111111, 0, 28
28, 0, -10, 42
29, 0, -10, 56
30, 0, -5, 42
31, 0, -5, 56
32, 0, 0, 42
33, 0, 0, 56
34, 55.5555555556, -10, 42
35, 55.5555555556, -10, 56
36, 55.5555555556, -5, 42
37, 55.5555555556, -5, 56
38, 55.5555555556, 0, 42
39, 55.5555555556, 0, 56
40, 111.111111111, -10, 42
41, 111.111111111, -10, 56
42, 111.111111111, -5, 42
43, 111.111111111, -5, 56
44, 111.111111111, 0, 42
45, 111.111111111, 0, 56
46, 0, -10, 70
47, 0, -10, 84
48, 0, -5, 70
49, 0, -5, 84
50, 0, 0, 70
51, 0, 0, 84
52, 55.5555555556, -10, 70
53, 55.5555555556, -10, 84
54, 55.5555555556, -5, 70
55, 55.5555555556, -5, 84
56, 55.5555555556, 0, 70
57, 55.5555555556, 0, 84
58, 111.111111111, -10, 70
59, 111.111111111, -10, 84
60, 111.111111111, -5, 70
61, 111.111111111, -5, 84
62, 111.111111111, 0, 70
63, 111.111111111, 0, 84
64, 0, 5, 28
65, 0, 5, 42
66, 0, 5, 56
67, 0, 10, 28
68, 0, 10, 42
69, 0, 10, 56
70, 55.5555555556, 5, 28
71, 55.5555555556, 5, 42
72, 55.5555555556, 5, 56
73, 55.5555555556, 10, 28
74, 55.5555555556, 10, 42
75, 55.5555555556, 10, 56
76, 111.111111111, 5, 28
77, 111.111111111, 5, 42
78, 111.111111111, 5, 56
79, 111.111111111, 10, 28
80, 111.111111111, 10, 42
81, 111.111111111, 10, 56
82, 166.666666667, -10, 28
83, 166.666666667, -10, 42
84, 166.666666667, -10, 56
85, 166.666666667, -5, 28
86, 166.666666667, -5, 42
87, 166.666666667, -5, 56
88, 166.666666667, 0, 28
89, 166.666666667, 0, 42
90, 166.666666667, 0, 56
91, 222.222222222, -10, 28
92, 222.222222222, -10, 42
93, 222.222222222, -10, 56
94, 222.222222222, -5, 28
95, 222.222222222, -5, 42
96, 222.222222222, -5, 56
97, 222.222222222, 0, 28
98, 222.222222222, 0, 42
99, 222.222222222, 0, 56
*ELEMENT, TYPE=C3D8, ELSET=EALL
1, 1, 10, 13, 4, 2, 11, 14, 5
2, 2, 11, 14, 5, 3, 12, 15, 6
3, 4, 13, 16, 7, 5, 14, 17, 8
4, 5, 14, 17, 8, 6, 15, 18, 9
5, 10, 19, 22, 13, 11, 20, 23, 14
6, 11, 20, 23, 14, 12, 21, 24, 15
7, 13, 22, 25, 16, 14, 23, 26, 17
8, 14, 23, 26, 17, 15, 24, 27, 18
9, 3, 12, 15, 6, 28, 34, 36, 30
10, 28, 34, 36, 30, 29, 35, 37, 31
11, 6, 15, 18, 9, 30, 36, 38, 32
12, 30, 36, 38, 32, 31, 37, 39, 33
13, 12, 21, 24, 15, 34, 40, 42, 36
14, 34, 40, 42, 36, 35, 41, 43, 37
15, 15, 24, 27, 18, 36, 42, 44, 38
16, 36, 42, 44, 38, 37, 43, 45, 39
17, 29, 35, 37, 31, 46, 52, 54, 48
18, 46, 52, 54, 48, 47, 53, 55, 49
19, 31, 37, 39, 33, 48, 54, 56, 50
20, 48, 54, 56, 50, 49, 55, 57, 51
21, 35, 41, 43, 37, 52, 58, 60, 54
22, 52, 58, 60, 54, 53, 59, 61, 55
23, 37, 43, 45, 39, 54, 60, 62, 56
24, 54, 60, 62, 56, 55, 61, 63, 57
25, 9, 18, 70, 64, 32, 38, 71, 65
26, 32, 38, 71, 65, 33, 39, 72, 66
27, 64, 70, 73, 67, 65, 71, 74, 68
28, 65, 71, 74, 68, 66, 72, 75, 69
29, 18, 27, 76, 70, 38, 44, 77, 71
30, 38, 44, 77, 71, 39, 45, 78, 72
31, 70, 76, 79, 73, 71, 77, 80, 74
32, 71, 77, 80, 74, 72, 78, 81, 75
33, 21, 82, 85, 24, 40, 83, 86, 42
34, 40, 83, 86, 42, 41, 84, 87, 43
35, 24, 85, 88, 27, 42, 86, 89, 44
36, 42, 86, 89, 44, 43, 87, 90, 45
37, 82, 91, 94, 85, 83, 92, 95, 86
38, 83, 92, 95, 86, 84, 93, 96, 87
39, 85, 94, 97, 88, 86, 95, 98, 89
40, 86, 95, 98, 89, 87, 96, 99, 90
*NSET, NSET=BDRY
1, 2, 3, 4, 5, 6, 7, 8, 9, 10, 11, 12, 13, 16, 17, 18
19, 20, 21, 22, 23, 24, 25, 26, 27, 28, 29, 30, 31, 32, 33, 34
35, 39, 40, 41, 43, 44, 45, 46, 47, 48, 49, 50, 51, 52, 53, 55
56, 57, 58, 59, 60, 61, 62, 63, 64, 65, 66, 67, 68, 69, 70, 72
73, 74, 75, 76, 77, 78, 79, 80, 81, 82, 83, 84, 85, 87, 88, 89
90, 91, 92, 93, 94, 95, 96, 97, 98, 99
*NSET, NSET=FREE
14, 15, 36, 37, 38, 42, 54, 71, 86
*MATERIAL, NAME=STEEL
*ELASTIC
210000, 0.3
*SOLID SECTION, ELSET=EALL, MATERIAL=STEEL
*BOUNDARY
1, 1, 1, 0
1, 2, 2, 0
1, 3, 3, 0
2, 1, 1, 0
2, 2, 2, 0
2, 3, 3, 0
3, 1, 1, 0
3, 2, 2, 0
3, 3, 3, 0
4, 1, 1, 0
4, 2, 2, 0
4, 3, 3, 0
5, 1, 1, 0
5, 2, 2, 0
5, 3, 3, 0
6, 1, 1, 0
6, 2, 2, 0
6, 3, 3, 0
7, 1, 1, 0
7, 2, 2, 0
7, 3, 3, 0
8, 1, 1, 0
8, 2, 2, 0
8, 3, 3, 0
9, 1, 1, 0
9, 2, 2, 0
9, 3, 3, 0
10, 1, 1, -0.01507635
10, 2, 2, -0.00054005
10, 3, 3, -0.0100442
11, 1, 1, -0.0131203
11, 2, 2, -0.000471163
11, 3, 3, -0.00942675
12, 1, 1, -0.01116425
12, 2, 2, -0.000402276
12, 3, 3, -0.0088093
13, 1, 1, -0.015069
13, 2, 2, -0.000270025000325
13, 3, 3, -0.010056925
16, 1, 1, -0.01506165
16, 2, 2, -6.50715e-13
16, 3, 3, -0.01006965
17, 1, 1, -0.0131072
17, 2, 2, -5.8621e-13
17, 3, 3, -0.0094506
18, 1, 1, -0.01115275
18, 2, 2, -5.21705e-13
18, 3, 3, -0.00883155
19, 1, 1, -0.0301527
19, 2, 2, -0.0010801
19, 3, 3, -0.0200884
20, 1, 1, -0.0262406
20, 2, 2, -0.000942326
20, 3, 3, -0.0188535
21, 1, 1, -0.0223285
21, 2, 2, -0.000804552
21, 3, 3, -0.0176186
22, 1, 1, -0.030138
22, 2, 2, -0.000540050000651
22, 3, 3, -0.02011385
23, 1, 1, -0.0262275
23, 2, 2, -0.000471163000586
23, 3, 3, -0.01887735
24, 1, 1, -0.022317
24, 2, 2, -0.000402276000522
24, 3, 3, -0.01764085
25, 1, 1, -0.0301233
25, 2, 2, -1.30143e-12
25, 3, 3, -0.0201393
26, 1, 1, -0.0262144
26, 2, 2, -1.17242e-12
26, 3, 3, -0.0189012
27, 1, 1, -0.0223055
27, 2, 2, -1.04341e-12
27, 3, 3, -0.0176631
28, 1, 1, 0
28, 2, 2, 0
28, 3, 3, 0
29, 1, 1, 0
29, 2, 2, 0
29, 3, 3, 0
30, 1, 1, 0
30, 2, 2, 0
30, 3, 3, 0
31, 1, 1, 0
31, 2, 2, 0
31, 3, 3, 0
32, 1, 1, 0
32, 2, 2, 0
32, 3, 3, 0
33, 1, 1, 0
33, 2, 2, 0
33, 3, 3, 0
34, 1, 1, -0.009393275
34, 2, 2, -0.000344939
34, 3, 3, -0.008381125
35, 1, 1, -0.0076223
35, 2, 2, -0.000287602
35, 3, 3, -0.00795295
39, 1, 1, -0.0076148
39, 2, 2, -3.873045e-13
39, 3, 3, -0.00797395
40, 1, 1, -0.01878655
40, 2, 2, -0.000689878
40, 3, 3, -0.01676225
41, 1, 1, -0.0152446
41, 2, 2, -0.000575204
41, 3, 3, -0.0159059
43, 1, 1, -0.0152371
43, 2, 2, -0.000287602000387
43, 3, 3, -0.0159269
44, 1, 1, -0.01876755
44, 2, 2, -9.090095e-13
44, 3, 3, -0.0168055
45, 1, 1, -0.0152296
45, 2, 2, -7.74609e-13
45, 3, 3, -0.0159479
46, 1, 1, 0
46, 2, 2, 0
46, 3, 3, 0
47, 1, 1, 0
47, 2, 2, 0
47, 3, 3, 0
48, 1, 1, 0
48, 2, 2, 0
48, 3, 3, 0
49, 1, 1, 0
49, 2, 2, 0
49, 3, 3, 0
50, 1, 1, 0
50, 2, 2, 0
50, 3, 3, 0
51, 1, 1, 0
51, 2, 2, 0
51, 3, 3, 0
52, 1, 1, -0.0059352775
52, 2, 2, -0.00022592625
52, 3, 3, -0.0076968
53, 1, 1, -0.004248255
53, 2, 2, -0.0001642505
53, 3, 3, -0.00744065
55, 1, 1, -0.004245095
55, 2, 2, -8.21252501266e-05
55, 3, 3, -0.0074513
56, 1, 1, -0.0059283675
56, 2, 2, -3.202325e-13
56, 3, 3, -0.00771795
57, 1, 1, -0.004241935
57, 2, 2, -2.531605e-13
57, 3, 3, -0.00746195
58, 1, 1, -0.011870555
58, 2, 2, -0.0004518525
58, 3, 3, -0.0153936
59, 1, 1, -0.00849651
59, 2, 2, -0.000328501
59, 3, 3, -0.0148813
60, 1, 1, -0.011863645
60, 2, 2, -0.00022592625032
60, 3, 3, -0.01541475
61, 1, 1, -0.00849019
61, 2, 2, -0.000164250500253
61, 3, 3, -0.0149026
62, 1, 1, -0.011856735
62, 2, 2, -6.40465e-13
62, 3, 3, -0.0154359
63, 1, 1, -0.00848387
63, 2, 2, -5.06321e-13
63, 3, 3, -0.0149239
64, 1, 1, 0
64, 2, 2, 0
64, 3, 3, 0
65, 1, 1, 0
65, 2, 2, 0
65, 3, 3, 0
66, 1, 1, 0
66, 2, 2, 0
66, 3, 3, 0
67, 1, 1, 0
67, 2, 2, 0
67, 3, 3, 0
68, 1, 1, 0
68, 2, 2, 0
68, 3, 3, 0
69, 1, 1, 0
69, 2, 2, 0
69, 3, 3, 0
70, 1, 1, -0.0111585
70, 2, 2, 0.000201137999739
70, 3, 3, -0.008820425
72, 1, 1, -0.00761855
72, 2, 2, 0.000143800999806
72, 3, 3, -0.00796345
73, 1, 1, -0.01116425
73, 2, 2, 0.000402276
73, 3, 3, -0.0088093
74, 1, 1, -0.009393275
74, 2, 2, 0.000344939
74, 3, 3, -0.008381125
75, 1, 1, -0.0076223
75, 2, 2, 0.000287602
75, 3, 3, -0.00795295
76, 1, 1, -0.022317
76, 2, 2, 0.000402275999478
76, 3, 3, -0.01764085
77, 1, 1, -0.01877705
77, 2, 2, 0.000344938999545
77, 3, 3, -0.016783875
78, 1, 1, -0.0152371
78, 2, 2, 0.000287601999613
78, 3, 3, -0.0159269
79, 1, 1, -0.0223285
79, 2, 2, 0.000804552
79, 3, 3, -0.0176186
80, 1, 1, -0.01878655
80, 2, 2, 0.000689878
80, 3, 3, -0.01676225
81, 1, 1, -0.0152446
81, 2, 2, 0.000575204
81, 3, 3, -0.0159059
82, 1, 1, -0.03436985
82, 2, 2, -0.0006900585
82, 3, 3, -0.03952845
83, 1, 1, -0.029032825
83, 2, 2, -0.0005896535
83, 3, 3, -0.038727925
84, 1, 1, -0.0236958
84, 2, 2, -0.0004892485
84, 3, 3, -0.0379274
85, 1, 1, -0.034367525
85, 2, 2, -0.000345029251156
85, 3, 3, -0.039547575
87, 1, 1, -0.023694725
87, 2, 2, -0.00024462425086
87, 3, 3, -0.037945725
88, 1, 1, -0.0343652
88, 2, 2, -2.31211e-12
88, 3, 3, -0.0395667
89, 1, 1, -0.029029425
89, 2, 2, -2.01581225e-12
89, 3, 3, -0.038765375
90, 1, 1, -0.02369365
90, 2, 2, -1.7195145e-12
90, 3, 3, -0.03796405
91, 1, 1, -0.0464112
91, 2, 2, -0.000575565
91, 3, 3, -0.0614383
92, 1, 1, -0.0392791
92, 2, 2, -0.000489429
92, 3, 3, -0.0606936
93, 1, 1, -0.032147
93, 2, 2, -0.000403293
93, 3, 3, -0.0599489
94, 1, 1, -0.04641805
94, 2, 2, -0.00028778250179
94, 3, 3, -0.0614543
95, 1, 1, -0.0392852
95, 2, 2, -0.000244714501561
95, 3, 3, -0.060709425
96, 1, 1, -0.03215235
96, 2, 2, -0.000201646501332
96, 3, 3, -0.05996455
97, 1, 1, -0.0464249
97, 2, 2, -3.58081e-12
97, 3, 3, -0.0614703
98, 1, 1, -0.0392913
98, 2, 2, -3.122615e-12
98, 3, 3, -0.06072525
99, 1, 1, -0.0321577
99, 2, 2, -2.66442e-12
99, 3, 3, -0.0599802
*STEP
*STATIC
*NODE FILE
U
*EL FILE
S, ENER
*EL PRINT, ELSET=EALL
ELSE
*ENERGY PRINT
*END STEP
