*HEADING
Normalized cross-passage space-truss torsion benchmark
*NODE
1,-1.200000000000e+00,0.000000000000e+00,0.000000000000e+00
2,1.200000000000e+00,0.000000000000e+00,0.000000000000e+00
3,-1.200000000000e+00,0.000000000000e+00,2.000000000000e+00
4,1.200000000000e+00,0.000000000000e+00,2.000000000000e+00
5,-1.200000000000e+00,1.000000000000e+01,0.000000000000e+00
6,1.200000000000e+00,1.000000000000e+01,0.000000000000e+00
7,-1.200000000000e+00,1.000000000000e+01,2.000000000000e+00
8,1.200000000000e+00,1.000000000000e+01,2.000000000000e+00
9,-1.200000000000e+00,2.000000000000e+01,0.000000000000e+00
10,1.200000000000e+00,2.000000000000e+01,0.000000000000e+00
11,-1.200000000000e+00,2.000000000000e+01,2.000000000000e+00
12,1.200000000000e+00,2.000000000000e+01,2.000000000000e+00
13,-1.200000000000e+00,3.000000000000e+01,0.000000000000e+00
14,1.200000000000e+00,3.000000000000e+01,0.000000000000e+00
15,-1.200000000000e+00,3.000000000000e+01,2.000000000000e+00
16,1.200000000000e+00,3.000000000000e+01,2.000000000000e+00
17,-1.200000000000e+00,4.000000000000e+01,0.000000000000e+00
18,1.200000000000e+00,4.000000000000e+01,0.000000000000e+00
19,-1.200000000000e+00,4.000000000000e+01,2.000000000000e+00
20,1.200000000000e+00,4.000000000000e+01,2.000000000000e+00
21,-1.200000000000e+00,5.000000000000e+01,0.000000000000e+00
22,1.200000000000e+00,5.000000000000e+01,0.000000000000e+00
23,-1.200000000000e+00,5.000000000000e+01,2.000000000000e+00
24,1.200000000000e+00,5.000000000000e+01,2.000000000000e+00
25,-1.200000000000e+00,2.500000000000e+00,-1.060660171780e-01
26,-1.200000000000e+00,5.000000000000e+00,-1.500000000000e-01
27,-1.200000000000e+00,7.500000000000e+00,-1.060660171780e-01
28,1.200000000000e+00,2.500000000000e+00,1.060660171780e-01
29,1.200000000000e+00,5.000000000000e+00,1.500000000000e-01
30,1.200000000000e+00,7.500000000000e+00,1.060660171780e-01
31,-1.200000000000e+00,2.500000000000e+00,1.893933982822e+00
32,-1.200000000000e+00,5.000000000000e+00,1.850000000000e+00
33,-1.200000000000e+00,7.500000000000e+00,1.893933982822e+00
34,1.200000000000e+00,2.500000000000e+00,2.106066017178e+00
35,1.200000000000e+00,5.000000000000e+00,2.150000000000e+00
36,1.200000000000e+00,7.500000000000e+00,2.106066017178e+00
37,-1.200000000000e+00,1.125000000000e+01,-5.740251485476e-02
38,-1.200000000000e+00,1.250000000000e+01,-1.060660171780e-01
39,-1.200000000000e+00,1.375000000000e+01,-1.385819298767e-01
40,-1.200000000000e+00,1.500000000000e+01,-1.500000000000e-01
41,-1.200000000000e+00,1.625000000000e+01,-1.385819298767e-01
42,-1.200000000000e+00,1.750000000000e+01,-1.060660171780e-01
43,-1.200000000000e+00,1.875000000000e+01,-5.740251485476e-02
44,1.200000000000e+00,1.125000000000e+01,5.740251485476e-02
45,1.200000000000e+00,1.250000000000e+01,1.060660171780e-01
46,1.200000000000e+00,1.375000000000e+01,1.385819298767e-01
47,1.200000000000e+00,1.500000000000e+01,1.500000000000e-01
48,1.200000000000e+00,1.625000000000e+01,1.385819298767e-01
49,1.200000000000e+00,1.750000000000e+01,1.060660171780e-01
50,1.200000000000e+00,1.875000000000e+01,5.740251485476e-02
51,-1.200000000000e+00,1.125000000000e+01,1.942597485145e+00
52,-1.200000000000e+00,1.250000000000e+01,1.893933982822e+00
53,-1.200000000000e+00,1.375000000000e+01,1.861418070123e+00
54,-1.200000000000e+00,1.500000000000e+01,1.850000000000e+00
55,-1.200000000000e+00,1.625000000000e+01,1.861418070123e+00
56,-1.200000000000e+00,1.750000000000e+01,1.893933982822e+00
57,-1.200000000000e+00,1.875000000000e+01,1.942597485145e+00
58,1.200000000000e+00,1.125000000000e+01,2.057402514855e+00
59,1.200000000000e+00,1.250000000000e+01,2.106066017178e+00
60,1.200000000000e+00,1.375000000000e+01,2.138581929877e+00
61,1.200000000000e+00,1.500000000000e+01,2.150000000000e+00
62,1.200000000000e+00,1.625000000000e+01,2.138581929877e+00
63,1.200000000000e+00,1.750000000000e+01,2.106066017178e+00
64,1.200000000000e+00,1.875000000000e+01,2.057402514855e+00
65,-1.200000000000e+00,2.500000000000e+01,-1.500000000000e-01
66,1.200000000000e+00,2.500000000000e+01,1.500000000000e-01
67,-1.200000000000e+00,2.500000000000e+01,1.850000000000e+00
68,1.200000000000e+00,2.500000000000e+01,2.150000000000e+00
69,-1.200000000000e+00,3.500000000000e+01,-1.500000000000e-01
70,1.200000000000e+00,3.500000000000e+01,1.500000000000e-01
71,-1.200000000000e+00,3.500000000000e+01,1.850000000000e+00
72,1.200000000000e+00,3.500000000000e+01,2.150000000000e+00
73,-1.200000000000e+00,4.500000000000e+01,-1.500000000000e-01
74,1.200000000000e+00,4.500000000000e+01,1.500000000000e-01
75,-1.200000000000e+00,4.500000000000e+01,1.850000000000e+00
76,1.200000000000e+00,4.500000000000e+01,2.150000000000e+00
77,0.000000000000e+00,-3.600000000000e-02,0.000000000000e+00
78,0.000000000000e+00,3.600000000000e-02,2.000000000000e+00
79,-1.200000000000e+00,3.000000000000e-02,1.000000000000e+00
80,1.200000000000e+00,-3.000000000000e-02,1.000000000000e+00
81,0.000000000000e+00,9.964000000000e+00,0.000000000000e+00
82,0.000000000000e+00,1.003600000000e+01,2.000000000000e+00
83,-1.200000000000e+00,1.003000000000e+01,1.000000000000e+00
84,1.200000000000e+00,9.970000000000e+00,1.000000000000e+00
85,0.000000000000e+00,1.996400000000e+01,0.000000000000e+00
86,0.000000000000e+00,2.003600000000e+01,2.000000000000e+00
87,-1.200000000000e+00,2.003000000000e+01,1.000000000000e+00
88,1.200000000000e+00,1.997000000000e+01,1.000000000000e+00
89,0.000000000000e+00,2.996400000000e+01,0.000000000000e+00
90,0.000000000000e+00,3.003600000000e+01,2.000000000000e+00
91,-1.200000000000e+00,3.003000000000e+01,1.000000000000e+00
92,1.200000000000e+00,2.997000000000e+01,1.000000000000e+00
93,0.000000000000e+00,3.996400000000e+01,0.000000000000e+00
94,0.000000000000e+00,4.003600000000e+01,2.000000000000e+00
95,-1.200000000000e+00,4.003000000000e+01,1.000000000000e+00
96,1.200000000000e+00,3.997000000000e+01,1.000000000000e+00
97,0.000000000000e+00,4.996400000000e+01,0.000000000000e+00
98,0.000000000000e+00,5.003600000000e+01,2.000000000000e+00
99,-1.200000000000e+00,5.003000000000e+01,1.000000000000e+00
100,1.200000000000e+00,4.997000000000e+01,1.000000000000e+00
101,-1.200000000000e+00,5.030000000000e+00,8.500000000000e-01
102,-1.200000000000e+00,5.030000000000e+00,1.150000000000e+00
103,1.200000000000e+00,5.030000000000e+00,8.500000000000e-01
104,1.200000000000e+00,5.030000000000e+00,1.150000000000e+00
105,1.500000000000e-01,4.964000000000e+00,0.000000000000e+00
106,-1.500000000000e-01,4.964000000000e+00,0.000000000000e+00
107,1.500000000000e-01,4.964000000000e+00,2.000000000000e+00
108,-1.500000000000e-01,4.964000000000e+00,2.000000000000e+00
109,-1.200000000000e+00,1.126148050297e+01,1.925974851452e-01
110,-1.200000000000e+00,1.252121320344e+01,3.939339828220e-01
111,-1.200000000000e+00,1.377771638598e+01,6.114180701233e-01
112,-1.200000000000e+00,1.503000000000e+01,8.500000000000e-01
113,-1.200000000000e+00,1.627771638598e+01,1.111418070123e+00
114,-1.200000000000e+00,1.752121320344e+01,1.393933982822e+00
115,-1.200000000000e+00,1.876148050297e+01,1.692597485145e+00
116,-1.200000000000e+00,1.126148050297e+01,1.807402514855e+00
117,-1.200000000000e+00,1.252121320344e+01,1.606066017178e+00
118,-1.200000000000e+00,1.377771638598e+01,1.388581929877e+00
119,-1.200000000000e+00,1.503000000000e+01,1.150000000000e+00
120,-1.200000000000e+00,1.627771638598e+01,8.885819298767e-01
121,-1.200000000000e+00,1.752121320344e+01,6.060660171780e-01
122,-1.200000000000e+00,1.876148050297e+01,3.074025148548e-01
123,1.200000000000e+00,1.126148050297e+01,1.925974851452e-01
124,1.200000000000e+00,1.252121320344e+01,3.939339828220e-01
125,1.200000000000e+00,1.377771638598e+01,6.114180701233e-01
126,1.200000000000e+00,1.503000000000e+01,8.500000000000e-01
127,1.200000000000e+00,1.627771638598e+01,1.111418070123e+00
128,1.200000000000e+00,1.752121320344e+01,1.393933982822e+00
129,1.200000000000e+00,1.876148050297e+01,1.692597485145e+00
130,1.200000000000e+00,1.126148050297e+01,1.807402514855e+00
131,1.200000000000e+00,1.252121320344e+01,1.606066017178e+00
132,1.200000000000e+00,1.377771638598e+01,1.388581929877e+00
133,1.200000000000e+00,1.503000000000e+01,1.150000000000e+00
134,1.200000000000e+00,1.627771638598e+01,8.885819298767e-01
135,1.200000000000e+00,1.752121320344e+01,6.060660171780e-01
136,1.200000000000e+00,1.876148050297e+01,3.074025148548e-01
137,-8.425974851452e-01,1.123622339643e+01,0.000000000000e+00
138,-4.939339828220e-01,1.247454415588e+01,0.000000000000e+00
139,-1.614180701233e-01,1.371674033683e+01,0.000000000000e+00
140,1.500000000000e-01,1.496400000000e+01,0.000000000000e+00
141,4.385819298767e-01,1.621674033683e+01,0.000000000000e+00
142,7.060660171780e-01,1.747454415588e+01,0.000000000000e+00
143,9.574025148548e-01,1.873622339643e+01,0.000000000000e+00
144,8.425974851452e-01,1.123622339643e+01,0.000000000000e+00
145,4.939339828220e-01,1.247454415588e+01,0.000000000000e+00
146,1.614180701233e-01,1.371674033683e+01,0.000000000000e+00
147,-1.500000000000e-01,1.496400000000e+01,0.000000000000e+00
148,-4.385819298767e-01,1.621674033683e+01,0.000000000000e+00
149,-7.060660171780e-01,1.747454415588e+01,0.000000000000e+00
150,-9.574025148548e-01,1.873622339643e+01,0.000000000000e+00
151,-8.425974851452e-01,1.123622339643e+01,2.000000000000e+00
152,-4.939339828220e-01,1.247454415588e+01,2.000000000000e+00
153,-1.614180701233e-01,1.371674033683e+01,2.000000000000e+00
154,1.500000000000e-01,1.496400000000e+01,2.000000000000e+00
155,4.385819298767e-01,1.621674033683e+01,2.000000000000e+00
156,7.060660171780e-01,1.747454415588e+01,2.000000000000e+00
157,9.574025148548e-01,1.873622339643e+01,2.000000000000e+00
158,8.425974851452e-01,1.123622339643e+01,2.000000000000e+00
159,4.939339828220e-01,1.247454415588e+01,2.000000000000e+00
160,1.614180701233e-01,1.371674033683e+01,2.000000000000e+00
161,-1.500000000000e-01,1.496400000000e+01,2.000000000000e+00
162,-4.385819298767e-01,1.621674033683e+01,2.000000000000e+00
163,-7.060660171780e-01,1.747454415588e+01,2.000000000000e+00
164,-9.574025148548e-01,1.873622339643e+01,2.000000000000e+00
165,-1.200000000000e+00,2.503000000000e+01,8.500000000000e-01
166,-1.200000000000e+00,2.503000000000e+01,1.150000000000e+00
167,1.200000000000e+00,2.503000000000e+01,8.500000000000e-01
168,1.200000000000e+00,2.503000000000e+01,1.150000000000e+00
169,1.500000000000e-01,2.496400000000e+01,0.000000000000e+00
170,-1.500000000000e-01,2.496400000000e+01,0.000000000000e+00
171,1.500000000000e-01,2.496400000000e+01,2.000000000000e+00
172,-1.500000000000e-01,2.496400000000e+01,2.000000000000e+00
173,-1.200000000000e+00,3.503000000000e+01,8.500000000000e-01
174,-1.200000000000e+00,3.503000000000e+01,1.150000000000e+00
175,1.200000000000e+00,3.503000000000e+01,8.500000000000e-01
176,1.200000000000e+00,3.503000000000e+01,1.150000000000e+00
177,1.500000000000e-01,3.496400000000e+01,0.000000000000e+00
178,-1.500000000000e-01,3.496400000000e+01,0.000000000000e+00
179,1.500000000000e-01,3.496400000000e+01,2.000000000000e+00
180,-1.500000000000e-01,3.496400000000e+01,2.000000000000e+00
181,-1.200000000000e+00,4.503000000000e+01,8.500000000000e-01
182,-1.200000000000e+00,4.503000000000e+01,1.150000000000e+00
183,1.200000000000e+00,4.503000000000e+01,8.500000000000e-01
184,1.200000000000e+00,4.503000000000e+01,1.150000000000e+00
185,1.500000000000e-01,4.496400000000e+01,0.000000000000e+00
186,-1.500000000000e-01,4.496400000000e+01,0.000000000000e+00
187,1.500000000000e-01,4.496400000000e+01,2.000000000000e+00
188,-1.500000000000e-01,4.496400000000e+01,2.000000000000e+00
*ELEMENT,TYPE=B31,ELSET=ALL
1,1,25
2,25,26
3,26,27
4,27,5
5,2,28
6,28,29
7,29,30
8,30,6
9,3,31
10,31,32
11,32,33
12,33,7
13,4,34
14,34,35
15,35,36
16,36,8
17,5,37
18,37,38
19,38,39
20,39,40
21,40,41
22,41,42
23,42,43
24,43,9
25,6,44
26,44,45
27,45,46
28,46,47
29,47,48
30,48,49
31,49,50
32,50,10
33,7,51
34,51,52
35,52,53
36,53,54
37,54,55
38,55,56
39,56,57
40,57,11
41,8,58
42,58,59
43,59,60
44,60,61
45,61,62
46,62,63
47,63,64
48,64,12
49,9,65
50,65,13
51,10,66
52,66,14
53,11,67
54,67,15
55,12,68
56,68,16
57,13,69
58,69,17
59,14,70
60,70,18
61,15,71
62,71,19
63,16,72
64,72,20
65,17,73
66,73,21
67,18,74
68,74,22
69,19,75
70,75,23
71,20,76
72,76,24
73,1,77
74,77,2
75,3,78
76,78,4
77,1,79
78,79,3
79,2,80
80,80,4
81,5,81
82,81,6
83,7,82
84,82,8
85,5,83
86,83,7
87,6,84
88,84,8
89,9,85
90,85,10
91,11,86
92,86,12
93,9,87
94,87,11
95,10,88
96,88,12
97,13,89
98,89,14
99,15,90
100,90,16
101,13,91
102,91,15
103,14,92
104,92,16
105,17,93
106,93,18
107,19,94
108,94,20
109,17,95
110,95,19
111,18,96
112,96,20
113,21,97
114,97,22
115,23,98
116,98,24
117,21,99
118,99,23
119,22,100
120,100,24
121,1,101
122,101,7
123,3,102
124,102,5
125,2,103
126,103,8
127,4,104
128,104,6
129,1,105
130,105,6
131,2,106
132,106,5
133,3,107
134,107,8
135,4,108
136,108,7
137,5,109
138,109,110
139,110,111
140,111,112
141,112,113
142,113,114
143,114,115
144,115,11
145,7,116
146,116,117
147,117,118
148,118,119
149,119,120
150,120,121
151,121,122
152,122,9
153,6,123
154,123,124
155,124,125
156,125,126
157,126,127
158,127,128
159,128,129
160,129,12
161,8,130
162,130,131
163,131,132
164,132,133
165,133,134
166,134,135
167,135,136
168,136,10
169,5,137
170,137,138
171,138,139
172,139,140
173,140,141
174,141,142
175,142,143
176,143,10
177,6,144
178,144,145
179,145,146
180,146,147
181,147,148
182,148,149
183,149,150
184,150,9
185,7,151
186,151,152
187,152,153
188,153,154
189,154,155
190,155,156
191,156,157
192,157,12
193,8,158
194,158,159
195,159,160
196,160,161
197,161,162
198,162,163
199,163,164
200,164,11
201,9,165
202,165,15
203,11,166
204,166,13
205,10,167
206,167,16
207,12,168
208,168,14
209,9,169
210,169,14
211,10,170
212,170,13
213,11,171
214,171,16
215,12,172
216,172,15
217,13,173
218,173,19
219,15,174
220,174,17
221,14,175
222,175,20
223,16,176
224,176,18
225,13,177
226,177,18
227,14,178
228,178,17
229,15,179
230,179,20
231,16,180
232,180,19
233,17,181
234,181,23
235,19,182
236,182,21
237,18,183
238,183,24
239,20,184
240,184,22
241,17,185
242,185,22
243,18,186
244,186,21
245,19,187
246,187,24
247,20,188
248,188,23
*NSET,NSET=NALL,GENERATE
1,188,1
*NSET,NSET=LEFT
1,2,3,4
*NSET,NSET=RIGHT
21,22,23,24
*MATERIAL,NAME=STEEL
*ELASTIC
2.100000000000e+11,0.300000000000
*BEAM SECTION,ELSET=ALL,MATERIAL=STEEL,SECTION=RECT
6.000000000000e-02,4.000000000000e-02
0.371390676354,0.557086014531,0.742781352708
*BOUNDARY
LEFT,1,6,0.0
*STEP
*STATIC
*BOUNDARY
21,1,1,5.000000000000e-03
21,2,2,0.0
21,3,3,-6.000000000000e-03
*BOUNDARY
22,1,1,5.000000000000e-03
22,2,2,0.0
22,3,3,6.000000000000e-03
*BOUNDARY
23,1,1,-5.000000000000e-03
23,2,2,0.0
23,3,3,-6.000000000000e-03
*BOUNDARY
24,1,1,-5.000000000000e-03
24,2,2,0.0
24,3,3,6.000000000000e-03
*NODE FILE,NSET=NALL
U
*NODE PRINT,NSET=NALL
U
*NODE PRINT,NSET=RIGHT
RF
*EL PRINT,ELSET=ALL,TOTALS=YES
ELSE
*END STEP
