*HEADING
Normalized cross-passage space-truss torsion benchmark
*NODE
1,-1.200000000000e+00,0.000000000000e+00,0.000000000000e+00
2,1.200000000000e+00,0.000000000000e+00,0.000000000000e+00
3,-1.200000000000e+00,0.000000000000e+00,2.000000000000e+00
4,1.200000000000e+00,0.000000000000e+00,2.000000000000e+00
5,-1.200000000000e+00,1.000000000000e+01,0.000000000000e+00
6,1.200000000000e+00,1.000000000000e+01,0.000000000000e+00
7,-1.200000000000e+00,1.000000000000e+01,2.000000000000e+00
8,1.200000000000e+00,1.000000000000e+01,2.000000000000e+00
9,-1.200000000000e+00,2.000000000000e+01,0.000000000000e+00
10,1.200000000000e+00,2.000000000000e+01,0.000000000000e+00
11,-1.200000000000e+00,2.000000000000e+01,2.000000000000e+00
12,1.200000000000e+00,2.000000000000e+01,2.000000000000e+00
13,-1.200000000000e+00,3.000000000000e+01,0.000000000000e+00
14,1.200000000000e+00,3.000000000000e+01,0.000000000000e+00
15,-1.200000000000e+00,3.000000000000e+01,2.000000000000e+00
16,1.200000000000e+00,3.000000000000e+01,2.000000000000e+00
17,-1.200000000000e+00,4.000000000000e+01,0.000000000000e+00
18,1.200000000000e+00,4.000000000000e+01,0.000000000000e+00
19,-1.200000000000e+00,4.000000000000e+01,2.000000000000e+00
20,1.200000000000e+00,4.000000000000e+01,2.000000000000e+00
21,-1.200000000000e+00,5.000000000000e+01,0.000000000000e+00
22,1.200000000000e+00,5.000000000000e+01,0.000000000000e+00
23,-1.200000000000e+00,5.000000000000e+01,2.000000000000e+00
24,1.200000000000e+00,5.000000000000e+01,2.000000000000e+00
25,-1.200000000000e+00,5.000000000000e+00,-1.500000000000e-01
26,1.200000000000e+00,5.000000000000e+00,1.500000000000e-01
27,-1.200000000000e+00,5.000000000000e+00,1.850000000000e+00
28,1.200000000000e+00,5.000000000000e+00,2.150000000000e+00
29,-1.200000000000e+00,1.500000000000e+01,-1.500000000000e-01
30,1.200000000000e+00,1.500000000000e+01,1.500000000000e-01
31,-1.200000000000e+00,1.500000000000e+01,1.850000000000e+00
32,1.200000000000e+00,1.500000000000e+01,2.150000000000e+00
33,-1.200000000000e+00,2.500000000000e+01,-1.500000000000e-01
34,1.200000000000e+00,2.500000000000e+01,1.500000000000e-01
35,-1.200000000000e+00,2.500000000000e+01,1.850000000000e+00
36,1.200000000000e+00,2.500000000000e+01,2.150000000000e+00
37,-1.200000000000e+00,3.125000000000e+01,-5.740251485476e-02
38,-1.200000000000e+00,3.250000000000e+01,-1.060660171780e-01
39,-1.200000000000e+00,3.375000000000e+01,-1.385819298767e-01
40,-1.200000000000e+00,3.500000000000e+01,-1.500000000000e-01
41,-1.200000000000e+00,3.625000000000e+01,-1.385819298767e-01
42,-1.200000000000e+00,3.750000000000e+01,-1.060660171780e-01
43,-1.200000000000e+00,3.875000000000e+01,-5.740251485476e-02
44,1.200000000000e+00,3.125000000000e+01,5.740251485476e-02
45,1.200000000000e+00,3.250000000000e+01,1.060660171780e-01
46,1.200000000000e+00,3.375000000000e+01,1.385819298767e-01
47,1.200000000000e+00,3.500000000000e+01,1.500000000000e-01
48,1.200000000000e+00,3.625000000000e+01,1.385819298767e-01
49,1.200000000000e+00,3.750000000000e+01,1.060660171780e-01
50,1.200000000000e+00,3.875000000000e+01,5.740251485476e-02
51,-1.200000000000e+00,3.125000000000e+01,1.942597485145e+00
52,-1.200000000000e+00,3.250000000000e+01,1.893933982822e+00
53,-1.200000000000e+00,3.375000000000e+01,1.861418070123e+00
54,-1.200000000000e+00,3.500000000000e+01,1.850000000000e+00
55,-1.200000000000e+00,3.625000000000e+01,1.861418070123e+00
56,-1.200000000000e+00,3.750000000000e+01,1.893933982822e+00
57,-1.200000000000e+00,3.875000000000e+01,1.942597485145e+00
58,1.200000000000e+00,3.125000000000e+01,2.057402514855e+00
59,1.200000000000e+00,3.250000000000e+01,2.106066017178e+00
60,1.200000000000e+00,3.375000000000e+01,2.138581929877e+00
61,1.200000000000e+00,3.500000000000e+01,2.150000000000e+00
62,1.200000000000e+00,3.625000000000e+01,2.138581929877e+00
63,1.200000000000e+00,3.750000000000e+01,2.106066017178e+00
64,1.200000000000e+00,3.875000000000e+01,2.057402514855e+00
65,-1.200000000000e+00,4.500000000000e+01,-1.500000000000e-01
66,1.200000000000e+00,4.500000000000e+01,1.500000000000e-01
67,-1.200000000000e+00,4.500000000000e+01,1.850000000000e+00
68,1.200000000000e+00,4.500000000000e+01,2.150000000000e+00
69,-6.000000000000e-01,-2.545584412272e-02,0.000000000000e+00
70,0.000000000000e+00,-3.600000000000e-02,0.000000000000e+00
71,6.000000000000e-01,-2.545584412272e-02,0.000000000000e+00
72,-6.000000000000e-01,2.545584412272e-02,2.000000000000e+00
73,0.000000000000e+00,3.600000000000e-02,2.000000000000e+00
74,6.000000000000e-01,2.545584412272e-02,2.000000000000e+00
75,-1.200000000000e+00,2.121320343560e-02,5.000000000000e-01
76,-1.200000000000e+00,3.000000000000e-02,1.000000000000e+00
77,-1.200000000000e+00,2.121320343560e-02,1.500000000000e+00
78,1.200000000000e+00,-2.121320343560e-02,5.000000000000e-01
79,1.200000000000e+00,-3.000000000000e-02,1.000000000000e+00
80,1.200000000000e+00,-2.121320343560e-02,1.500000000000e+00
81,-6.000000000000e-01,1.997454415588e+01,0.000000000000e+00
82,0.000000000000e+00,1.996400000000e+01,0.000000000000e+00
83,6.000000000000e-01,1.997454415588e+01,0.000000000000e+00
84,-6.000000000000e-01,2.002545584412e+01,2.000000000000e+00
85,0.000000000000e+00,2.003600000000e+01,2.000000000000e+00
86,6.000000000000e-01,2.002545584412e+01,2.000000000000e+00
87,-1.200000000000e+00,2.002121320344e+01,5.000000000000e-01
88,-1.200000000000e+00,2.003000000000e+01,1.000000000000e+00
89,-1.200000000000e+00,2.002121320344e+01,1.500000000000e+00
90,1.200000000000e+00,1.997878679656e+01,5.000000000000e-01
91,1.200000000000e+00,1.997000000000e+01,1.000000000000e+00
92,1.200000000000e+00,1.997878679656e+01,1.500000000000e+00
93,0.000000000000e+00,2.996400000000e+01,0.000000000000e+00
94,0.000000000000e+00,3.003600000000e+01,2.000000000000e+00
95,-1.200000000000e+00,3.003000000000e+01,1.000000000000e+00
96,1.200000000000e+00,2.997000000000e+01,1.000000000000e+00
97,0.000000000000e+00,3.996400000000e+01,0.000000000000e+00
98,0.000000000000e+00,4.003600000000e+01,2.000000000000e+00
99,-1.200000000000e+00,4.003000000000e+01,1.000000000000e+00
100,1.200000000000e+00,3.997000000000e+01,1.000000000000e+00
101,-6.000000000000e-01,4.997454415588e+01,0.000000000000e+00
102,0.000000000000e+00,4.996400000000e+01,0.000000000000e+00
103,6.000000000000e-01,4.997454415588e+01,0.000000000000e+00
104,-6.000000000000e-01,5.002545584412e+01,2.000000000000e+00
105,0.000000000000e+00,5.003600000000e+01,2.000000000000e+00
106,6.000000000000e-01,5.002545584412e+01,2.000000000000e+00
107,-1.200000000000e+00,5.002121320344e+01,5.000000000000e-01
108,-1.200000000000e+00,5.003000000000e+01,1.000000000000e+00
109,-1.200000000000e+00,5.002121320344e+01,1.500000000000e+00
110,1.200000000000e+00,4.997878679656e+01,5.000000000000e-01
111,1.200000000000e+00,4.997000000000e+01,1.000000000000e+00
112,1.200000000000e+00,4.997878679656e+01,1.500000000000e+00
113,-1.200000000000e+00,2.521213203436e+00,3.939339828220e-01
114,-1.200000000000e+00,5.030000000000e+00,8.500000000000e-01
115,-1.200000000000e+00,7.521213203436e+00,1.393933982822e+00
116,-1.200000000000e+00,2.521213203436e+00,1.606066017178e+00
117,-1.200000000000e+00,5.030000000000e+00,1.150000000000e+00
118,-1.200000000000e+00,7.521213203436e+00,6.060660171780e-01
119,1.200000000000e+00,2.521213203436e+00,3.939339828220e-01
120,1.200000000000e+00,5.030000000000e+00,8.500000000000e-01
121,1.200000000000e+00,7.521213203436e+00,1.393933982822e+00
122,1.200000000000e+00,2.521213203436e+00,1.606066017178e+00
123,1.200000000000e+00,5.030000000000e+00,1.150000000000e+00
124,1.200000000000e+00,7.521213203436e+00,6.060660171780e-01
125,-4.939339828220e-01,2.474544155877e+00,0.000000000000e+00
126,1.500000000000e-01,4.964000000000e+00,0.000000000000e+00
127,7.060660171780e-01,7.474544155877e+00,0.000000000000e+00
128,4.939339828220e-01,2.474544155877e+00,0.000000000000e+00
129,-1.500000000000e-01,4.964000000000e+00,0.000000000000e+00
130,-7.060660171780e-01,7.474544155877e+00,0.000000000000e+00
131,-4.939339828220e-01,2.474544155877e+00,2.000000000000e+00
132,1.500000000000e-01,4.964000000000e+00,2.000000000000e+00
133,7.060660171780e-01,7.474544155877e+00,2.000000000000e+00
134,4.939339828220e-01,2.474544155877e+00,2.000000000000e+00
135,-1.500000000000e-01,4.964000000000e+00,2.000000000000e+00
136,-7.060660171780e-01,7.474544155877e+00,2.000000000000e+00
137,-1.200000000000e+00,1.503000000000e+01,8.500000000000e-01
138,-1.200000000000e+00,1.503000000000e+01,1.150000000000e+00
139,1.200000000000e+00,1.503000000000e+01,8.500000000000e-01
140,1.200000000000e+00,1.503000000000e+01,1.150000000000e+00
141,1.500000000000e-01,1.496400000000e+01,0.000000000000e+00
142,-1.500000000000e-01,1.496400000000e+01,0.000000000000e+00
143,1.500000000000e-01,1.496400000000e+01,2.000000000000e+00
144,-1.500000000000e-01,1.496400000000e+01,2.000000000000e+00
145,-1.200000000000e+00,2.252121320344e+01,3.939339828220e-01
146,-1.200000000000e+00,2.503000000000e+01,8.500000000000e-01
147,-1.200000000000e+00,2.752121320344e+01,1.393933982822e+00
148,-1.200000000000e+00,2.252121320344e+01,1.606066017178e+00
149,-1.200000000000e+00,2.503000000000e+01,1.150000000000e+00
150,-1.200000000000e+00,2.752121320344e+01,6.060660171780e-01
151,1.200000000000e+00,2.252121320344e+01,3.939339828220e-01
152,1.200000000000e+00,2.503000000000e+01,8.500000000000e-01
153,1.200000000000e+00,2.752121320344e+01,1.393933982822e+00
154,1.200000000000e+00,2.252121320344e+01,1.606066017178e+00
155,1.200000000000e+00,2.503000000000e+01,1.150000000000e+00
156,1.200000000000e+00,2.752121320344e+01,6.060660171780e-01
157,-4.939339828220e-01,2.247454415588e+01,0.000000000000e+00
158,1.500000000000e-01,2.496400000000e+01,0.000000000000e+00
159,7.060660171780e-01,2.747454415588e+01,0.000000000000e+00
160,4.939339828220e-01,2.247454415588e+01,0.000000000000e+00
161,-1.500000000000e-01,2.496400000000e+01,0.000000000000e+00
162,-7.060660171780e-01,2.747454415588e+01,0.000000000000e+00
163,-4.939339828220e-01,2.247454415588e+01,2.000000000000e+00
164,1.500000000000e-01,2.496400000000e+01,2.000000000000e+00
165,7.060660171780e-01,2.747454415588e+01,2.000000000000e+00
166,4.939339828220e-01,2.247454415588e+01,2.000000000000e+00
167,-1.500000000000e-01,2.496400000000e+01,2.000000000000e+00
168,-7.060660171780e-01,2.747454415588e+01,2.000000000000e+00
169,-1.200000000000e+00,3.126148050297e+01,1.925974851452e-01
170,-1.200000000000e+00,3.252121320344e+01,3.939339828220e-01
171,-1.200000000000e+00,3.377771638598e+01,6.114180701233e-01
172,-1.200000000000e+00,3.503000000000e+01,8.500000000000e-01
173,-1.200000000000e+00,3.627771638598e+01,1.111418070123e+00
174,-1.200000000000e+00,3.752121320344e+01,1.393933982822e+00
175,-1.200000000000e+00,3.876148050297e+01,1.692597485145e+00
176,-1.200000000000e+00,3.126148050297e+01,1.807402514855e+00
177,-1.200000000000e+00,3.252121320344e+01,1.606066017178e+00
178,-1.200000000000e+00,3.377771638598e+01,1.388581929877e+00
179,-1.200000000000e+00,3.503000000000e+01,1.150000000000e+00
180,-1.200000000000e+00,3.627771638598e+01,8.885819298767e-01
181,-1.200000000000e+00,3.752121320344e+01,6.060660171780e-01
182,-1.200000000000e+00,3.876148050297e+01,3.074025148548e-01
183,1.200000000000e+00,3.126148050297e+01,1.925974851452e-01
184,1.200000000000e+00,3.252121320344e+01,3.939339828220e-01
185,1.200000000000e+00,3.377771638598e+01,6.114180701233e-01
186,1.200000000000e+00,3.503000000000e+01,8.500000000000e-01
187,1.200000000000e+00,3.627771638598e+01,1.111418070123e+00
188,1.200000000000e+00,3.752121320344e+01,1.393933982822e+00
189,1.200000000000e+00,3.876148050297e+01,1.692597485145e+00
190,1.200000000000e+00,3.126148050297e+01,1.807402514855e+00
191,1.200000000000e+00,3.252121320344e+01,1.606066017178e+00
192,1.200000000000e+00,3.377771638598e+01,1.388581929877e+00
193,1.200000000000e+00,3.503000000000e+01,1.150000000000e+00
194,1.200000000000e+00,3.627771638598e+01,8.885819298767e-01
195,1.200000000000e+00,3.752121320344e+01,6.060660171780e-01
196,1.200000000000e+00,3.876148050297e+01,3.074025148548e-01
197,-8.425974851452e-01,3.123622339643e+01,0.000000000000e+00
198,-4.939339828220e-01,3.247454415588e+01,0.000000000000e+00
199,-1.614180701233e-01,3.371674033683e+01,0.000000000000e+00
200,1.500000000000e-01,3.496400000000e+01,0.000000000000e+00
201,4.385819298767e-01,3.621674033683e+01,0.000000000000e+00
202,7.060660171780e-01,3.747454415588e+01,0.000000000000e+00
203,9.574025148548e-01,3.873622339643e+01,0.000000000000e+00
204,8.425974851452e-01,3.123622339643e+01,0.000000000000e+00
205,4.939339828220e-01,3.247454415588e+01,0.000000000000e+00
206,1.614180701233e-01,3.371674033683e+01,0.000000000000e+00
207,-1.500000000000e-01,3.496400000000e+01,0.000000000000e+00
208,-4.385819298767e-01,3.621674033683e+01,0.000000000000e+00
209,-7.060660171780e-01,3.747454415588e+01,0.000000000000e+00
210,-9.574025148548e-01,3.873622339643e+01,0.000000000000e+00
211,-8.425974851452e-01,3.123622339643e+01,2.000000000000e+00
212,-4.939339828220e-01,3.247454415588e+01,2.000000000000e+00
213,-1.614180701233e-01,3.371674033683e+01,2.000000000000e+00
214,1.500000000000e-01,3.496400000000e+01,2.000000000000e+00
215,4.385819298767e-01,3.621674033683e+01,2.000000000000e+00
216,7.060660171780e-01,3.747454415588e+01,2.000000000000e+00
217,9.574025148548e-01,3.873622339643e+01,2.000000000000e+00
218,8.425974851452e-01,3.123622339643e+01,2.000000000000e+00
219,4.939339828220e-01,3.247454415588e+01,2.000000000000e+00
220,1.614180701233e-01,3.371674033683e+01,2.000000000000e+00
221,-1.500000000000e-01,3.496400000000e+01,2.000000000000e+00
222,-4.385819298767e-01,3.621674033683e+01,2.000000000000e+00
223,-7.060660171780e-01,3.747454415588e+01,2.000000000000e+00
224,-9.574025148548e-01,3.873622339643e+01,2.000000000000e+00
225,-1.200000000000e+00,4.252121320344e+01,3.939339828220e-01
226,-1.200000000000e+00,4.503000000000e+01,8.500000000000e-01
227,-1.200000000000e+00,4.752121320344e+01,1.393933982822e+00
228,-1.200000000000e+00,4.252121320344e+01,1.606066017178e+00
229,-1.200000000000e+00,4.503000000000e+01,1.150000000000e+00
230,-1.200000000000e+00,4.752121320344e+01,6.060660171780e-01
231,1.200000000000e+00,4.252121320344e+01,3.939339828220e-01
232,1.200000000000e+00,4.503000000000e+01,8.500000000000e-01
233,1.200000000000e+00,4.752121320344e+01,1.393933982822e+00
234,1.200000000000e+00,4.252121320344e+01,1.606066017178e+00
235,1.200000000000e+00,4.503000000000e+01,1.150000000000e+00
236,1.200000000000e+00,4.752121320344e+01,6.060660171780e-01
237,-4.939339828220e-01,4.247454415588e+01,0.000000000000e+00
238,1.500000000000e-01,4.496400000000e+01,0.000000000000e+00
239,7.060660171780e-01,4.747454415588e+01,0.000000000000e+00
240,4.939339828220e-01,4.247454415588e+01,0.000000000000e+00
241,-1.500000000000e-01,4.496400000000e+01,0.000000000000e+00
242,-7.060660171780e-01,4.747454415588e+01,0.000000000000e+00
243,-4.939339828220e-01,4.247454415588e+01,2.000000000000e+00
244,1.500000000000e-01,4.496400000000e+01,2.000000000000e+00
245,7.060660171780e-01,4.747454415588e+01,2.000000000000e+00
246,4.939339828220e-01,4.247454415588e+01,2.000000000000e+00
247,-1.500000000000e-01,4.496400000000e+01,2.000000000000e+00
248,-7.060660171780e-01,4.747454415588e+01,2.000000000000e+00
*ELEMENT,TYPE=B31,ELSET=ALL
1,1,25
2,25,5
3,2,26
4,26,6
5,3,27
6,27,7
7,4,28
8,28,8
9,5,29
10,29,9
11,6,30
12,30,10
13,7,31
14,31,11
15,8,32
16,32,12
17,9,33
18,33,13
19,10,34
20,34,14
21,11,35
22,35,15
23,12,36
24,36,16
25,13,37
26,37,38
27,38,39
28,39,40
29,40,41
30,41,42
31,42,43
32,43,17
33,14,44
34,44,45
35,45,46
36,46,47
37,47,48
38,48,49
39,49,50
40,50,18
41,15,51
42,51,52
43,52,53
44,53,54
45,54,55
46,55,56
47,56,57
48,57,19
49,16,58
50,58,59
51,59,60
52,60,61
53,61,62
54,62,63
55,63,64
56,64,20
57,17,65
58,65,21
59,18,66
60,66,22
61,19,67
62,67,23
63,20,68
64,68,24
65,1,69
66,69,70
67,70,71
68,71,2
69,3,72
70,72,73
71,73,74
72,74,4
73,1,75
74,75,76
75,76,77
76,77,3
77,2,78
78,78,79
79,79,80
80,80,4
81,5,6
82,7,8
83,5,7
84,6,8
85,9,81
86,81,82
87,82,83
88,83,10
89,11,84
90,84,85
91,85,86
92,86,12
93,9,87
94,87,88
95,88,89
96,89,11
97,10,90
98,90,91
99,91,92
100,92,12
101,13,93
102,93,14
103,15,94
104,94,16
105,13,95
106,95,15
107,14,96
108,96,16
109,17,97
110,97,18
111,19,98
112,98,20
113,17,99
114,99,19
115,18,100
116,100,20
117,21,101
118,101,102
119,102,103
120,103,22
121,23,104
122,104,105
123,105,106
124,106,24
125,21,107
126,107,108
127,108,109
128,109,23
129,22,110
130,110,111
131,111,112
132,112,24
133,1,113
134,113,114
135,114,115
136,115,7
137,3,116
138,116,117
139,117,118
140,118,5
141,2,119
142,119,120
143,120,121
144,121,8
145,4,122
146,122,123
147,123,124
148,124,6
149,1,125
150,125,126
151,126,127
152,127,6
153,2,128
154,128,129
155,129,130
156,130,5
157,3,131
158,131,132
159,132,133
160,133,8
161,4,134
162,134,135
163,135,136
164,136,7
165,5,137
166,137,11
167,7,138
168,138,9
169,6,139
170,139,12
171,8,140
172,140,10
173,5,141
174,141,10
175,6,142
176,142,9
177,7,143
178,143,12
179,8,144
180,144,11
181,9,145
182,145,146
183,146,147
184,147,15
185,11,148
186,148,149
187,149,150
188,150,13
189,10,151
190,151,152
191,152,153
192,153,16
193,12,154
194,154,155
195,155,156
196,156,14
197,9,157
198,157,158
199,158,159
200,159,14
201,10,160
202,160,161
203,161,162
204,162,13
205,11,163
206,163,164
207,164,165
208,165,16
209,12,166
210,166,167
211,167,168
212,168,15
213,13,169
214,169,170
215,170,171
216,171,172
217,172,173
218,173,174
219,174,175
220,175,19
221,15,176
222,176,177
223,177,178
224,178,179
225,179,180
226,180,181
227,181,182
228,182,17
229,14,183
230,183,184
231,184,185
232,185,186
233,186,187
234,187,188
235,188,189
236,189,20
237,16,190
238,190,191
239,191,192
240,192,193
241,193,194
242,194,195
243,195,196
244,196,18
245,13,197
246,197,198
247,198,199
248,199,200
249,200,201
250,201,202
251,202,203
252,203,18
253,14,204
254,204,205
255,205,206
256,206,207
257,207,208
258,208,209
259,209,210
260,210,17
261,15,211
262,211,212
263,212,213
264,213,214
265,214,215
266,215,216
267,216,217
268,217,20
269,16,218
270,218,219
271,219,220
272,220,221
273,221,222
274,222,223
275,223,224
276,224,19
277,17,225
278,225,226
279,226,227
280,227,23
281,19,228
282,228,229
283,229,230
284,230,21
285,18,231
286,231,232
287,232,233
288,233,24
289,20,234
290,234,235
291,235,236
292,236,22
293,17,237
294,237,238
295,238,239
296,239,22
297,18,240
298,240,241
299,241,242
300,242,21
301,19,243
302,243,244
303,244,245
304,245,24
305,20,246
306,246,247
307,247,248
308,248,23
*NSET,NSET=NALL,GENERATE
1,248,1
*NSET,NSET=LEFT
1,2,3,4
*NSET,NSET=RIGHT
21,22,23,24
*MATERIAL,NAME=STEEL
*ELASTIC
2.100000000000e+11,0.300000000000
*BEAM SECTION,ELSET=ALL,MATERIAL=STEEL,SECTION=RECT
6.000000000000e-02,4.000000000000e-02
0.371390676354,0.557086014531,0.742781352708
*BOUNDARY
LEFT,1,6,0.0
*STEP
*STATIC
*BOUNDARY
21,1,1,5.000000000000e-03
21,2,2,0.0
21,3,3,-6.000000000000e-03
*BOUNDARY
22,1,1,5.000000000000e-03
22,2,2,0.0
22,3,3,6.000000000000e-03
*BOUNDARY
23,1,1,-5.000000000000e-03
23,2,2,0.0
23,3,3,-6.000000000000e-03
*BOUNDARY
24,1,1,-5.000000000000e-03
24,2,2,0.0
24,3,3,6.000000000000e-03
*NODE FILE,NSET=NALL
U
*NODE PRINT,NSET=NALL
U
*NODE PRINT,NSET=RIGHT
RF
*EL PRINT,ELSET=ALL,TOTALS=YES
ELSE
*END STEP
