*HEADING
Normalized cross-passage space-truss torsion benchmark
*NODE
1,-1.200000000000e+00,0.000000000000e+00,0.000000000000e+00
2,1.200000000000e+00,0.000000000000e+00,0.000000000000e+00
3,-1.200000000000e+00,0.000000000000e+00,2.000000000000e+00
4,1.200000000000e+00,0.000000000000e+00,2.000000000000e+00
5,-1.200000000000e+00,1.000000000000e+01,0.000000000000e+00
6,1.200000000000e+00,1.000000000000e+01,0.000000000000e+00
7,-1.200000000000e+00,1.000000000000e+01,2.000000000000e+00
8,1.200000000000e+00,1.000000000000e+01,2.000000000000e+00
9,-1.200000000000e+00,2.000000000000e+01,0.000000000000e+00
10,1.200000000000e+00,2.000000000000e+01,0.000000000000e+00
11,-1.200000000000e+00,2.000000000000e+01,2.000000000000e+00
12,1.200000000000e+00,2.000000000000e+01,2.000000000000e+00
13,-1.200000000000e+00,3.000000000000e+01,0.000000000000e+00
14,1.200000000000e+00,3.000000000000e+01,0.000000000000e+00
15,-1.200000000000e+00,3.000000000000e+01,2.000000000000e+00
16,1.200000000000e+00,3.000000000000e+01,2.000000000000e+00
17,-1.200000000000e+00,4.000000000000e+01,0.000000000000e+00
18,1.200000000000e+00,4.000000000000e+01,0.000000000000e+00
19,-1.200000000000e+00,4.000000000000e+01,2.000000000000e+00
20,1.200000000000e+00,4.000000000000e+01,2.000000000000e+00
21,-1.200000000000e+00,5.000000000000e+01,0.000000000000e+00
22,1.200000000000e+00,5.000000000000e+01,0.000000000000e+00
23,-1.200000000000e+00,5.000000000000e+01,2.000000000000e+00
24,1.200000000000e+00,5.000000000000e+01,2.000000000000e+00
25,-1.200000000000e+00,1.250000000000e+01,-1.060660171780e-01
26,-1.200000000000e+00,1.500000000000e+01,-1.500000000000e-01
27,-1.200000000000e+00,1.750000000000e+01,-1.060660171780e-01
28,1.200000000000e+00,1.250000000000e+01,1.060660171780e-01
29,1.200000000000e+00,1.500000000000e+01,1.500000000000e-01
30,1.200000000000e+00,1.750000000000e+01,1.060660171780e-01
31,-1.200000000000e+00,1.250000000000e+01,1.893933982822e+00
32,-1.200000000000e+00,1.500000000000e+01,1.850000000000e+00
33,-1.200000000000e+00,1.750000000000e+01,1.893933982822e+00
34,1.200000000000e+00,1.250000000000e+01,2.106066017178e+00
35,1.200000000000e+00,1.500000000000e+01,2.150000000000e+00
36,1.200000000000e+00,1.750000000000e+01,2.106066017178e+00
37,-1.200000000000e+00,2.250000000000e+01,-1.060660171780e-01
38,-1.200000000000e+00,2.500000000000e+01,-1.500000000000e-01
39,-1.200000000000e+00,2.750000000000e+01,-1.060660171780e-01
40,1.200000000000e+00,2.250000000000e+01,1.060660171780e-01
41,1.200000000000e+00,2.500000000000e+01,1.500000000000e-01
42,1.200000000000e+00,2.750000000000e+01,1.060660171780e-01
43,-1.200000000000e+00,2.250000000000e+01,1.893933982822e+00
44,-1.200000000000e+00,2.500000000000e+01,1.850000000000e+00
45,-1.200000000000e+00,2.750000000000e+01,1.893933982822e+00
46,1.200000000000e+00,2.250000000000e+01,2.106066017178e+00
47,1.200000000000e+00,2.500000000000e+01,2.150000000000e+00
48,1.200000000000e+00,2.750000000000e+01,2.106066017178e+00
49,0.000000000000e+00,9.964000000000e+00,0.000000000000e+00
50,0.000000000000e+00,1.003600000000e+01,2.000000000000e+00
51,-1.200000000000e+00,1.003000000000e+01,1.000000000000e+00
52,1.200000000000e+00,9.970000000000e+00,1.000000000000e+00
53,-6.000000000000e-01,1.997454415588e+01,0.000000000000e+00
54,0.000000000000e+00,1.996400000000e+01,0.000000000000e+00
55,6.000000000000e-01,1.997454415588e+01,0.000000000000e+00
56,-6.000000000000e-01,2.002545584412e+01,2.000000000000e+00
57,0.000000000000e+00,2.003600000000e+01,2.000000000000e+00
58,6.000000000000e-01,2.002545584412e+01,2.000000000000e+00
59,-1.200000000000e+00,2.002121320344e+01,5.000000000000e-01
60,-1.200000000000e+00,2.003000000000e+01,1.000000000000e+00
61,-1.200000000000e+00,2.002121320344e+01,1.500000000000e+00
62,1.200000000000e+00,1.997878679656e+01,5.000000000000e-01
63,1.200000000000e+00,1.997000000000e+01,1.000000000000e+00
64,1.200000000000e+00,1.997878679656e+01,1.500000000000e+00
65,-9.000000000000e-01,2.998622339643e+01,0.000000000000e+00
66,-6.000000000000e-01,2.997454415588e+01,0.000000000000e+00
67,-3.000000000000e-01,2.996674033683e+01,0.000000000000e+00
68,0.000000000000e+00,2.996400000000e+01,0.000000000000e+00
69,3.000000000000e-01,2.996674033683e+01,0.000000000000e+00
70,6.000000000000e-01,2.997454415588e+01,0.000000000000e+00
71,9.000000000000e-01,2.998622339643e+01,0.000000000000e+00
72,-9.000000000000e-01,3.001377660357e+01,2.000000000000e+00
73,-6.000000000000e-01,3.002545584412e+01,2.000000000000e+00
74,-3.000000000000e-01,3.003325966317e+01,2.000000000000e+00
75,0.000000000000e+00,3.003600000000e+01,2.000000000000e+00
76,3.000000000000e-01,3.003325966317e+01,2.000000000000e+00
77,6.000000000000e-01,3.002545584412e+01,2.000000000000e+00
78,9.000000000000e-01,3.001377660357e+01,2.000000000000e+00
79,-1.200000000000e+00,3.001148050297e+01,2.500000000000e-01
80,-1.200000000000e+00,3.002121320344e+01,5.000000000000e-01
81,-1.200000000000e+00,3.002771638598e+01,7.500000000000e-01
82,-1.200000000000e+00,3.003000000000e+01,1.000000000000e+00
83,-1.200000000000e+00,3.002771638598e+01,1.250000000000e+00
84,-1.200000000000e+00,3.002121320344e+01,1.500000000000e+00
85,-1.200000000000e+00,3.001148050297e+01,1.750000000000e+00
86,1.200000000000e+00,2.998851949703e+01,2.500000000000e-01
87,1.200000000000e+00,2.997878679656e+01,5.000000000000e-01
88,1.200000000000e+00,2.997228361402e+01,7.500000000000e-01
89,1.200000000000e+00,2.997000000000e+01,1.000000000000e+00
90,1.200000000000e+00,2.997228361402e+01,1.250000000000e+00
91,1.200000000000e+00,2.997878679656e+01,1.500000000000e+00
92,1.200000000000e+00,2.998851949703e+01,1.750000000000e+00
93,-6.000000000000e-01,3.997454415588e+01,0.000000000000e+00
94,0.000000000000e+00,3.996400000000e+01,0.000000000000e+00
95,6.000000000000e-01,3.997454415588e+01,0.000000000000e+00
96,-6.000000000000e-01,4.002545584412e+01,2.000000000000e+00
97,0.000000000000e+00,4.003600000000e+01,2.000000000000e+00
98,6.000000000000e-01,4.002545584412e+01,2.000000000000e+00
99,-1.200000000000e+00,4.002121320344e+01,5.000000000000e-01
100,-1.200000000000e+00,4.003000000000e+01,1.000000000000e+00
101,-1.200000000000e+00,4.002121320344e+01,1.500000000000e+00
102,1.200000000000e+00,3.997878679656e+01,5.000000000000e-01
103,1.200000000000e+00,3.997000000000e+01,1.000000000000e+00
104,1.200000000000e+00,3.997878679656e+01,1.500000000000e+00
105,0.000000000000e+00,4.996400000000e+01,0.000000000000e+00
106,0.000000000000e+00,5.003600000000e+01,2.000000000000e+00
107,-1.200000000000e+00,5.003000000000e+01,1.000000000000e+00
108,1.200000000000e+00,4.997000000000e+01,1.000000000000e+00
109,-1.200000000000e+00,5.030000000000e+00,8.500000000000e-01
110,-1.200000000000e+00,5.030000000000e+00,1.150000000000e+00
111,1.200000000000e+00,5.030000000000e+00,8.500000000000e-01
112,1.200000000000e+00,5.030000000000e+00,1.150000000000e+00
113,1.500000000000e-01,4.964000000000e+00,0.000000000000e+00
114,-1.500000000000e-01,4.964000000000e+00,0.000000000000e+00
115,1.500000000000e-01,4.964000000000e+00,2.000000000000e+00
116,-1.500000000000e-01,4.964000000000e+00,2.000000000000e+00
117,-1.200000000000e+00,1.126148050297e+01,1.925974851452e-01
118,-1.200000000000e+00,1.252121320344e+01,3.939339828220e-01
119,-1.200000000000e+00,1.377771638598e+01,6.114180701233e-01
120,-1.200000000000e+00,1.503000000000e+01,8.500000000000e-01
121,-1.200000000000e+00,1.627771638598e+01,1.111418070123e+00
122,-1.200000000000e+00,1.752121320344e+01,1.393933982822e+00
123,-1.200000000000e+00,1.876148050297e+01,1.692597485145e+00
124,-1.200000000000e+00,1.126148050297e+01,1.807402514855e+00
125,-1.200000000000e+00,1.252121320344e+01,1.606066017178e+00
126,-1.200000000000e+00,1.377771638598e+01,1.388581929877e+00
127,-1.200000000000e+00,1.503000000000e+01,1.150000000000e+00
128,-1.200000000000e+00,1.627771638598e+01,8.885819298767e-01
129,-1.200000000000e+00,1.752121320344e+01,6.060660171780e-01
130,-1.200000000000e+00,1.876148050297e+01,3.074025148548e-01
131,1.200000000000e+00,1.126148050297e+01,1.925974851452e-01
132,1.200000000000e+00,1.252121320344e+01,3.939339828220e-01
133,1.200000000000e+00,1.377771638598e+01,6.114180701233e-01
134,1.200000000000e+00,1.503000000000e+01,8.500000000000e-01
135,1.200000000000e+00,1.627771638598e+01,1.111418070123e+00
136,1.200000000000e+00,1.752121320344e+01,1.393933982822e+00
137,1.200000000000e+00,1.876148050297e+01,1.692597485145e+00
138,1.200000000000e+00,1.126148050297e+01,1.807402514855e+00
139,1.200000000000e+00,1.252121320344e+01,1.606066017178e+00
140,1.200000000000e+00,1.377771638598e+01,1.388581929877e+00
141,1.200000000000e+00,1.503000000000e+01,1.150000000000e+00
142,1.200000000000e+00,1.627771638598e+01,8.885819298767e-01
143,1.200000000000e+00,1.752121320344e+01,6.060660171780e-01
144,1.200000000000e+00,1.876148050297e+01,3.074025148548e-01
145,-8.425974851452e-01,1.123622339643e+01,0.000000000000e+00
146,-4.939339828220e-01,1.247454415588e+01,0.000000000000e+00
147,-1.614180701233e-01,1.371674033683e+01,0.000000000000e+00
148,1.500000000000e-01,1.496400000000e+01,0.000000000000e+00
149,4.385819298767e-01,1.621674033683e+01,0.000000000000e+00
150,7.060660171780e-01,1.747454415588e+01,0.000000000000e+00
151,9.574025148548e-01,1.873622339643e+01,0.000000000000e+00
152,8.425974851452e-01,1.123622339643e+01,0.000000000000e+00
153,4.939339828220e-01,1.247454415588e+01,0.000000000000e+00
154,1.614180701233e-01,1.371674033683e+01,0.000000000000e+00
155,-1.500000000000e-01,1.496400000000e+01,0.000000000000e+00
156,-4.385819298767e-01,1.621674033683e+01,0.000000000000e+00
157,-7.060660171780e-01,1.747454415588e+01,0.000000000000e+00
158,-9.574025148548e-01,1.873622339643e+01,0.000000000000e+00
159,-8.425974851452e-01,1.123622339643e+01,2.000000000000e+00
160,-4.939339828220e-01,1.247454415588e+01,2.000000000000e+00
161,-1.614180701233e-01,1.371674033683e+01,2.000000000000e+00
162,1.500000000000e-01,1.496400000000e+01,2.000000000000e+00
163,4.385819298767e-01,1.621674033683e+01,2.000000000000e+00
164,7.060660171780e-01,1.747454415588e+01,2.000000000000e+00
165,9.574025148548e-01,1.873622339643e+01,2.000000000000e+00
166,8.425974851452e-01,1.123622339643e+01,2.000000000000e+00
167,4.939339828220e-01,1.247454415588e+01,2.000000000000e+00
168,1.614180701233e-01,1.371674033683e+01,2.000000000000e+00
169,-1.500000000000e-01,1.496400000000e+01,2.000000000000e+00
170,-4.385819298767e-01,1.621674033683e+01,2.000000000000e+00
171,-7.060660171780e-01,1.747454415588e+01,2.000000000000e+00
172,-9.574025148548e-01,1.873622339643e+01,2.000000000000e+00
173,-1.200000000000e+00,2.503000000000e+01,8.500000000000e-01
174,-1.200000000000e+00,2.503000000000e+01,1.150000000000e+00
175,1.200000000000e+00,2.503000000000e+01,8.500000000000e-01
176,1.200000000000e+00,2.503000000000e+01,1.150000000000e+00
177,1.500000000000e-01,2.496400000000e+01,0.000000000000e+00
178,-1.500000000000e-01,2.496400000000e+01,0.000000000000e+00
179,1.500000000000e-01,2.496400000000e+01,2.000000000000e+00
180,-1.500000000000e-01,2.496400000000e+01,2.000000000000e+00
181,-1.200000000000e+00,3.252121320344e+01,3.939339828220e-01
182,-1.200000000000e+00,3.503000000000e+01,8.500000000000e-01
183,-1.200000000000e+00,3.752121320344e+01,1.393933982822e+00
184,-1.200000000000e+00,3.252121320344e+01,1.606066017178e+00
185,-1.200000000000e+00,3.503000000000e+01,1.150000000000e+00
186,-1.200000000000e+00,3.752121320344e+01,6.060660171780e-01
187,1.200000000000e+00,3.252121320344e+01,3.939339828220e-01
188,1.200000000000e+00,3.503000000000e+01,8.500000000000e-01
189,1.200000000000e+00,3.752121320344e+01,1.393933982822e+00
190,1.200000000000e+00,3.252121320344e+01,1.606066017178e+00
191,1.200000000000e+00,3.503000000000e+01,1.150000000000e+00
192,1.200000000000e+00,3.752121320344e+01,6.060660171780e-01
193,-4.939339828220e-01,3.247454415588e+01,0.000000000000e+00
194,1.500000000000e-01,3.496400000000e+01,0.000000000000e+00
195,7.060660171780e-01,3.747454415588e+01,0.000000000000e+00
196,4.939339828220e-01,3.247454415588e+01,0.000000000000e+00
197,-1.500000000000e-01,3.496400000000e+01,0.000000000000e+00
198,-7.060660171780e-01,3.747454415588e+01,0.000000000000e+00
199,-4.939339828220e-01,3.247454415588e+01,2.000000000000e+00
200,1.500000000000e-01,3.496400000000e+01,2.000000000000e+00
201,7.060660171780e-01,3.747454415588e+01,2.000000000000e+00
202,4.939339828220e-01,3.247454415588e+01,2.000000000000e+00
203,-1.500000000000e-01,3.496400000000e+01,2.000000000000e+00
204,-7.060660171780e-01,3.747454415588e+01,2.000000000000e+00
205,-1.200000000000e+00,4.252121320344e+01,3.939339828220e-01
206,-1.200000000000e+00,4.503000000000e+01,8.500000000000e-01
207,-1.200000000000e+00,4.752121320344e+01,1.393933982822e+00
208,-1.200000000000e+00,4.252121320344e+01,1.606066017178e+00
209,-1.200000000000e+00,4.503000000000e+01,1.150000000000e+00
210,-1.200000000000e+00,4.752121320344e+01,6.060660171780e-01
211,1.200000000000e+00,4.252121320344e+01,3.939339828220e-01
212,1.200000000000e+00,4.503000000000e+01,8.500000000000e-01
213,1.200000000000e+00,4.752121320344e+01,1.393933982822e+00
214,1.200000000000e+00,4.252121320344e+01,1.606066017178e+00
215,1.200000000000e+00,4.503000000000e+01,1.150000000000e+00
216,1.200000000000e+00,4.752121320344e+01,6.060660171780e-01
217,-4.939339828220e-01,4.247454415588e+01,0.000000000000e+00
218,1.500000000000e-01,4.496400000000e+01,0.000000000000e+00
219,7.060660171780e-01,4.747454415588e+01,0.000000000000e+00
220,4.939339828220e-01,4.247454415588e+01,0.000000000000e+00
221,-1.500000000000e-01,4.496400000000e+01,0.000000000000e+00
222,-7.060660171780e-01,4.747454415588e+01,0.000000000000e+00
223,-4.939339828220e-01,4.247454415588e+01,2.000000000000e+00
224,1.500000000000e-01,4.496400000000e+01,2.000000000000e+00
225,7.060660171780e-01,4.747454415588e+01,2.000000000000e+00
226,4.939339828220e-01,4.247454415588e+01,2.000000000000e+00
227,-1.500000000000e-01,4.496400000000e+01,2.000000000000e+00
228,-7.060660171780e-01,4.747454415588e+01,2.000000000000e+00
*ELEMENT,TYPE=B31,ELSET=ALL
1,1,5
2,2,6
3,3,7
4,4,8
5,5,25
6,25,26
7,26,27
8,27,9
9,6,28
10,28,29
11,29,30
12,30,10
13,7,31
14,31,32
15,32,33
16,33,11
17,8,34
18,34,35
19,35,36
20,36,12
21,9,37
22,37,38
23,38,39
24,39,13
25,10,40
26,40,41
27,41,42
28,42,14
29,11,43
30,43,44
31,44,45
32,45,15
33,12,46
34,46,47
35,47,48
36,48,16
37,13,17
38,14,18
39,15,19
40,16,20
41,17,21
42,18,22
43,19,23
44,20,24
45,1,2
46,3,4
47,1,3
48,2,4
49,5,49
50,49,6
51,7,50
52,50,8
53,5,51
54,51,7
55,6,52
56,52,8
57,9,53
58,53,54
59,54,55
60,55,10
61,11,56
62,56,57
63,57,58
64,58,12
65,9,59
66,59,60
67,60,61
68,61,11
69,10,62
70,62,63
71,63,64
72,64,12
73,13,65
74,65,66
75,66,67
76,67,68
77,68,69
78,69,70
79,70,71
80,71,14
81,15,72
82,72,73
83,73,74
84,74,75
85,75,76
86,76,77
87,77,78
88,78,16
89,13,79
90,79,80
91,80,81
92,81,82
93,82,83
94,83,84
95,84,85
96,85,15
97,14,86
98,86,87
99,87,88
100,88,89
101,89,90
102,90,91
103,91,92
104,92,16
105,17,93
106,93,94
107,94,95
108,95,18
109,19,96
110,96,97
111,97,98
112,98,20
113,17,99
114,99,100
115,100,101
116,101,19
117,18,102
118,102,103
119,103,104
120,104,20
121,21,105
122,105,22
123,23,106
124,106,24
125,21,107
126,107,23
127,22,108
128,108,24
129,1,109
130,109,7
131,3,110
132,110,5
133,2,111
134,111,8
135,4,112
136,112,6
137,1,113
138,113,6
139,2,114
140,114,5
141,3,115
142,115,8
143,4,116
144,116,7
145,5,117
146,117,118
147,118,119
148,119,120
149,120,121
150,121,122
151,122,123
152,123,11
153,7,124
154,124,125
155,125,126
156,126,127
157,127,128
158,128,129
159,129,130
160,130,9
161,6,131
162,131,132
163,132,133
164,133,134
165,134,135
166,135,136
167,136,137
168,137,12
169,8,138
170,138,139
171,139,140
172,140,141
173,141,142
174,142,143
175,143,144
176,144,10
177,5,145
178,145,146
179,146,147
180,147,148
181,148,149
182,149,150
183,150,151
184,151,10
185,6,152
186,152,153
187,153,154
188,154,155
189,155,156
190,156,157
191,157,158
192,158,9
193,7,159
194,159,160
195,160,161
196,161,162
197,162,163
198,163,164
199,164,165
200,165,12
201,8,166
202,166,167
203,167,168
204,168,169
205,169,170
206,170,171
207,171,172
208,172,11
209,9,173
210,173,15
211,11,174
212,174,13
213,10,175
214,175,16
215,12,176
216,176,14
217,9,177
218,177,14
219,10,178
220,178,13
221,11,179
222,179,16
223,12,180
224,180,15
225,13,181
226,181,182
227,182,183
228,183,19
229,15,184
230,184,185
231,185,186
232,186,17
233,14,187
234,187,188
235,188,189
236,189,20
237,16,190
238,190,191
239,191,192
240,192,18
241,13,193
242,193,194
243,194,195
244,195,18
245,14,196
246,196,197
247,197,198
248,198,17
249,15,199
250,199,200
251,200,201
252,201,20
253,16,202
254,202,203
255,203,204
256,204,19
257,17,205
258,205,206
259,206,207
260,207,23
261,19,208
262,208,209
263,209,210
264,210,21
265,18,211
266,211,212
267,212,213
268,213,24
269,20,214
270,214,215
271,215,216
272,216,22
273,17,217
274,217,218
275,218,219
276,219,22
277,18,220
278,220,221
279,221,222
280,222,21
281,19,223
282,223,224
283,224,225
284,225,24
285,20,226
286,226,227
287,227,228
288,228,23
*NSET,NSET=NALL,GENERATE
1,228,1
*NSET,NSET=LEFT
1,2,3,4
*NSET,NSET=RIGHT
21,22,23,24
*MATERIAL,NAME=STEEL
*ELASTIC
2.100000000000e+11,0.300000000000
*BEAM SECTION,ELSET=ALL,MATERIAL=STEEL,SECTION=RECT
6.000000000000e-02,4.000000000000e-02
0.371390676354,0.557086014531,0.742781352708
*BOUNDARY
LEFT,1,6,0.0
*STEP
*STATIC
*BOUNDARY
21,1,1,5.000000000000e-03
21,2,2,0.0
21,3,3,-6.000000000000e-03
*BOUNDARY
22,1,1,5.000000000000e-03
22,2,2,0.0
22,3,3,6.000000000000e-03
*BOUNDARY
23,1,1,-5.000000000000e-03
23,2,2,0.0
23,3,3,-6.000000000000e-03
*BOUNDARY
24,1,1,-5.000000000000e-03
24,2,2,0.0
24,3,3,6.000000000000e-03
*NODE FILE,NSET=NALL
U
*NODE PRINT,NSET=NALL
U
*NODE PRINT,NSET=RIGHT
RF
*EL PRINT,ELSET=ALL,TOTALS=YES
ELSE
*END STEP
