*HEADING
T01 S-LIN hanging 8-split zz cycle 6
units: mm, N, s, MPa. Material is illustrative steel, not a coupon card.
E=210000.0 nu=0.3. load -5000.0 N on TIP_TOP.
*NODE, NSET=NALL
1, 0, -10, 0
2, 111.111111111, -10, 6.66666666667
3, 111.111111111, 0, 6.66666666667
4, 0, 0, 0
5, 0, -10, 40
6, 111.111111111, -10, 45.3333333333
7, 111.111111111, 0, 45.3333333333
8, 0, 0, 40
9, 0, -10, 80
10, 111.111111111, -10, 84
11, 111.111111111, 0, 84
12, 0, 0, 80
13, 0, -10, 120
14, 111.111111111, -10, 122.666666667
15, 111.111111111, 0, 122.666666667
16, 0, 0, 120
17, 0, -10, 160
18, 111.111111111, -10, 161.333333333
19, 111.111111111, 0, 161.333333333
20, 0, 0, 160
21, 0, -10, 200
22, 111.111111111, -10, 200
23, 111.111111111, 0, 200
24, 0, 0, 200
25, 111.111111111, 10, 6.66666666667
26, 0, 10, 0
27, 111.111111111, 10, 45.3333333333
28, 0, 10, 40
29, 111.111111111, 10, 84
30, 0, 10, 80
31, 111.111111111, 10, 122.666666667
32, 0, 10, 120
33, 111.111111111, 10, 161.333333333
34, 0, 10, 160
35, 111.111111111, 10, 200
36, 0, 10, 200
37, 0, -120, 200
38, 111.111111111, -120, 200
39, 111.111111111, -92.5, 200
40, 0, -92.5, 200
41, 0, -120, 210
42, 111.111111111, -120, 210
43, 111.111111111, -92.5, 210
44, 0, -92.5, 210
45, 0, -120, 220
46, 111.111111111, -120, 220
47, 111.111111111, -92.5, 220
48, 0, -92.5, 220
49, 111.111111111, -65, 200
50, 0, -65, 200
51, 111.111111111, -65, 210
52, 0, -65, 210
53, 111.111111111, -65, 220
54, 0, -65, 220
55, 111.111111111, -37.5, 200
56, 0, -37.5, 200
57, 111.111111111, -37.5, 210
58, 0, -37.5, 210
59, 111.111111111, -37.5, 220
60, 0, -37.5, 220
61, 111.111111111, -10, 210
62, 0, -10, 210
63, 111.111111111, -10, 220
64, 0, -10, 220
65, 111.111111111, 0, 210
66, 0, 0, 210
67, 111.111111111, 0, 220
68, 0, 0, 220
69, 111.111111111, 10, 210
70, 0, 10, 210
71, 111.111111111, 10, 220
72, 0, 10, 220
73, 111.111111111, 37.5, 200
74, 0, 37.5, 200
75, 111.111111111, 37.5, 210
76, 0, 37.5, 210
77, 111.111111111, 37.5, 220
78, 0, 37.5, 220
79, 111.111111111, 65, 200
80, 0, 65, 200
81, 111.111111111, 65, 210
82, 0, 65, 210
83, 111.111111111, 65, 220
84, 0, 65, 220
85, 111.111111111, 92.5, 200
86, 0, 92.5, 200
87, 111.111111111, 92.5, 210
88, 0, 92.5, 210
89, 111.111111111, 92.5, 220
90, 0, 92.5, 220
91, 111.111111111, 120, 200
92, 0, 120, 200
93, 111.111111111, 120, 210
94, 0, 120, 210
95, 111.111111111, 120, 220
96, 0, 120, 220
97, 222.222222222, -10, 13.3333333333
98, 222.222222222, 0, 13.3333333333
99, 222.222222222, -10, 50.6666666667
100, 222.222222222, 0, 50.6666666667
101, 222.222222222, -10, 88
102, 222.222222222, 0, 88
103, 222.222222222, -10, 125.333333333
104, 222.222222222, 0, 125.333333333
105, 222.222222222, -10, 162.666666667
106, 222.222222222, 0, 162.666666667
107, 222.222222222, -10, 200
108, 222.222222222, 0, 200
109, 222.222222222, 10, 13.3333333333
110, 222.222222222, 10, 50.6666666667
111, 222.222222222, 10, 88
112, 222.222222222, 10, 125.333333333
113, 222.222222222, 10, 162.666666667
114, 222.222222222, 10, 200
115, 222.222222222, -120, 200
116, 222.222222222, -92.5, 200
117, 222.222222222, -120, 210
118, 222.222222222, -92.5, 210
119, 222.222222222, -120, 220
120, 222.222222222, -92.5, 220
121, 222.222222222, -65, 200
122, 222.222222222, -65, 210
123, 222.222222222, -65, 220
124, 222.222222222, -37.5, 200
125, 222.222222222, -37.5, 210
126, 222.222222222, -37.5, 220
127, 222.222222222, -10, 210
128, 222.222222222, -10, 220
129, 222.222222222, 0, 210
130, 222.222222222, 0, 220
131, 222.222222222, 10, 210
132, 222.222222222, 10, 220
133, 222.222222222, 37.5, 200
134, 222.222222222, 37.5, 210
135, 222.222222222, 37.5, 220
136, 222.222222222, 65, 200
137, 222.222222222, 65, 210
138, 222.222222222, 65, 220
139, 222.222222222, 92.5, 200
140, 222.222222222, 92.5, 210
141, 222.222222222, 92.5, 220
142, 222.222222222, 120, 200
143, 222.222222222, 120, 210
144, 222.222222222, 120, 220
145, 333.333333333, -10, 20
146, 333.333333333, 0, 20
147, 333.333333333, -10, 56
148, 333.333333333, 0, 56
149, 333.333333333, -10, 92
150, 333.333333333, 0, 92
151, 333.333333333, -10, 128
152, 333.333333333, 0, 128
153, 333.333333333, -10, 164
154, 333.333333333, 0, 164
155, 333.333333333, -10, 200
156, 333.333333333, 0, 200
157, 333.333333333, 10, 20
158, 333.333333333, 10, 56
159, 333.333333333, 10, 92
160, 333.333333333, 10, 128
161, 333.333333333, 10, 164
162, 333.333333333, 10, 200
163, 333.333333333, -120, 200
164, 333.333333333, -92.5, 200
165, 333.333333333, -120, 210
166, 333.333333333, -92.5, 210
167, 333.333333333, -120, 220
168, 333.333333333, -92.5, 220
169, 333.333333333, -65, 200
170, 333.333333333, -65, 210
171, 333.333333333, -65, 220
172, 333.333333333, -37.5, 200
173, 333.333333333, -37.5, 210
174, 333.333333333, -37.5, 220
175, 333.333333333, -10, 210
176, 333.333333333, -10, 220
177, 333.333333333, 0, 210
178, 333.333333333, 0, 220
179, 333.333333333, 10, 210
180, 333.333333333, 10, 220
181, 333.333333333, 37.5, 200
182, 333.333333333, 37.5, 210
183, 333.333333333, 37.5, 220
184, 333.333333333, 65, 200
185, 333.333333333, 65, 210
186, 333.333333333, 65, 220
187, 333.333333333, 92.5, 200
188, 333.333333333, 92.5, 210
189, 333.333333333, 92.5, 220
190, 333.333333333, 120, 200
191, 333.333333333, 120, 210
192, 333.333333333, 120, 220
193, 444.444444444, -10, 26.6666666667
194, 444.444444444, 0, 26.6666666667
195, 444.444444444, -10, 61.3333333333
196, 444.444444444, 0, 61.3333333333
197, 444.444444444, -10, 96
198, 444.444444444, 0, 96
199, 444.444444444, -10, 130.666666667
200, 444.444444444, 0, 130.666666667
201, 444.444444444, -10, 165.333333333
202, 444.444444444, 0, 165.333333333
203, 444.444444444, -10, 200
204, 444.444444444, 0, 200
205, 444.444444444, 10, 26.6666666667
206, 444.444444444, 10, 61.3333333333
207, 444.444444444, 10, 96
208, 444.444444444, 10, 130.666666667
209, 444.444444444, 10, 165.333333333
210, 444.444444444, 10, 200
211, 444.444444444, -120, 200
212, 444.444444444, -92.5, 200
213, 444.444444444, -120, 210
214, 444.444444444, -92.5, 210
215, 444.444444444, -120, 220
216, 444.444444444, -92.5, 220
217, 444.444444444, -65, 200
218, 444.444444444, -65, 210
219, 444.444444444, -65, 220
220, 444.444444444, -37.5, 200
221, 444.444444444, -37.5, 210
222, 444.444444444, -37.5, 220
223, 444.444444444, -10, 210
224, 444.444444444, -10, 220
225, 444.444444444, 0, 210
226, 444.444444444, 0, 220
227, 444.444444444, 10, 210
228, 444.444444444, 10, 220
229, 444.444444444, 37.5, 200
230, 444.444444444, 37.5, 210
231, 444.444444444, 37.5, 220
232, 444.444444444, 65, 200
233, 444.444444444, 65, 210
234, 444.444444444, 65, 220
235, 444.444444444, 92.5, 200
236, 444.444444444, 92.5, 210
237, 444.444444444, 92.5, 220
238, 444.444444444, 120, 200
239, 444.444444444, 120, 210
240, 444.444444444, 120, 220
241, 555.555555556, -10, 33.3333333333
242, 555.555555556, 0, 33.3333333333
243, 555.555555556, -10, 66.6666666667
244, 555.555555556, 0, 66.6666666667
245, 555.555555556, -10, 100
246, 555.555555556, 0, 100
247, 555.555555556, -10, 133.333333333
248, 555.555555556, 0, 133.333333333
249, 555.555555556, -10, 166.666666667
250, 555.555555556, 0, 166.666666667
251, 555.555555556, -10, 200
252, 555.555555556, 0, 200
253, 555.555555556, 10, 33.3333333333
254, 555.555555556, 10, 66.6666666667
255, 555.555555556, 10, 100
256, 555.555555556, 10, 133.333333333
257, 555.555555556, 10, 166.666666667
258, 555.555555556, 10, 200
259, 555.555555556, -120, 200
260, 555.555555556, -92.5, 200
261, 555.555555556, -120, 210
262, 555.555555556, -92.5, 210
263, 555.555555556, -120, 220
264, 555.555555556, -92.5, 220
265, 555.555555556, -65, 200
266, 555.555555556, -65, 210
267, 555.555555556, -65, 220
268, 555.555555556, -37.5, 200
269, 555.555555556, -37.5, 210
270, 555.555555556, -37.5, 220
271, 555.555555556, -10, 210
272, 555.555555556, -10, 220
273, 555.555555556, 0, 210
274, 555.555555556, 0, 220
275, 555.555555556, 10, 210
276, 555.555555556, 10, 220
277, 555.555555556, 37.5, 200
278, 555.555555556, 37.5, 210
279, 555.555555556, 37.5, 220
280, 555.555555556, 65, 200
281, 555.555555556, 65, 210
282, 555.555555556, 65, 220
283, 555.555555556, 92.5, 200
284, 555.555555556, 92.5, 210
285, 555.555555556, 92.5, 220
286, 555.555555556, 120, 200
287, 555.555555556, 120, 210
288, 555.555555556, 120, 220
289, 666.666666667, -10, 40
290, 666.666666667, 0, 40
291, 666.666666667, -10, 72
292, 666.666666667, 0, 72
293, 666.666666667, -10, 104
294, 666.666666667, 0, 104
295, 666.666666667, -10, 136
296, 666.666666667, 0, 136
297, 666.666666667, -10, 168
298, 666.666666667, 0, 168
299, 666.666666667, -10, 200
300, 666.666666667, 0, 200
301, 666.666666667, 10, 40
302, 666.666666667, 10, 72
303, 666.666666667, 10, 104
304, 666.666666667, 10, 136
305, 666.666666667, 10, 168
306, 666.666666667, 10, 200
307, 666.666666667, -120, 200
308, 666.666666667, -92.5, 200
309, 666.666666667, -120, 210
310, 666.666666667, -92.5, 210
311, 666.666666667, -120, 220
312, 666.666666667, -92.5, 220
313, 666.666666667, -65, 200
314, 666.666666667, -65, 210
315, 666.666666667, -65, 220
316, 666.666666667, -37.5, 200
317, 666.666666667, -37.5, 210
318, 666.666666667, -37.5, 220
319, 666.666666667, -10, 210
320, 666.666666667, -10, 220
321, 666.666666667, 0, 210
322, 666.666666667, 0, 220
323, 666.666666667, 10, 210
324, 666.666666667, 10, 220
325, 666.666666667, 37.5, 200
326, 666.666666667, 37.5, 210
327, 666.666666667, 37.5, 220
328, 666.666666667, 65, 200
329, 666.666666667, 65, 210
330, 666.666666667, 65, 220
331, 666.666666667, 92.5, 200
332, 666.666666667, 92.5, 210
333, 666.666666667, 92.5, 220
334, 666.666666667, 120, 200
335, 666.666666667, 120, 210
336, 666.666666667, 120, 220
337, 777.777777778, -10, 46.6666666667
338, 777.777777778, 0, 46.6666666667
339, 777.777777778, -10, 77.3333333333
340, 777.777777778, 0, 77.3333333333
341, 777.777777778, -10, 108
342, 777.777777778, 0, 108
343, 777.777777778, -10, 138.666666667
344, 777.777777778, 0, 138.666666667
345, 777.777777778, -10, 169.333333333
346, 777.777777778, 0, 169.333333333
347, 777.777777778, -10, 200
348, 777.777777778, 0, 200
349, 777.777777778, 10, 46.6666666667
350, 777.777777778, 10, 77.3333333333
351, 777.777777778, 10, 108
352, 777.777777778, 10, 138.666666667
353, 777.777777778, 10, 169.333333333
354, 777.777777778, 10, 200
355, 777.777777778, -120, 200
356, 777.777777778, -92.5, 200
357, 777.777777778, -120, 210
358, 777.777777778, -92.5, 210
359, 777.777777778, -120, 220
360, 777.777777778, -92.5, 220
361, 777.777777778, -65, 200
362, 777.777777778, -65, 210
363, 777.777777778, -65, 220
364, 777.777777778, -37.5, 200
365, 777.777777778, -37.5, 210
366, 777.777777778, -37.5, 220
367, 777.777777778, -10, 210
368, 777.777777778, -10, 220
369, 777.777777778, 0, 210
370, 777.777777778, 0, 220
371, 777.777777778, 10, 210
372, 777.777777778, 10, 220
373, 777.777777778, 37.5, 200
374, 777.777777778, 37.5, 210
375, 777.777777778, 37.5, 220
376, 777.777777778, 65, 200
377, 777.777777778, 65, 210
378, 777.777777778, 65, 220
379, 777.777777778, 92.5, 200
380, 777.777777778, 92.5, 210
381, 777.777777778, 92.5, 220
382, 777.777777778, 120, 200
383, 777.777777778, 120, 210
384, 777.777777778, 120, 220
385, 888.888888889, -10, 53.3333333333
386, 888.888888889, 0, 53.3333333333
387, 888.888888889, -10, 82.6666666667
388, 888.888888889, 0, 82.6666666667
389, 888.888888889, -10, 112
390, 888.888888889, 0, 112
391, 888.888888889, -10, 141.333333333
392, 888.888888889, 0, 141.333333333
393, 888.888888889, -10, 170.666666667
394, 888.888888889, 0, 170.666666667
395, 888.888888889, -10, 200
396, 888.888888889, 0, 200
397, 888.888888889, 10, 53.3333333333
398, 888.888888889, 10, 82.6666666667
399, 888.888888889, 10, 112
400, 888.888888889, 10, 141.333333333
401, 888.888888889, 10, 170.666666667
402, 888.888888889, 10, 200
403, 888.888888889, -120, 200
404, 888.888888889, -92.5, 200
405, 888.888888889, -120, 210
406, 888.888888889, -92.5, 210
407, 888.888888889, -120, 220
408, 888.888888889, -92.5, 220
409, 888.888888889, -65, 200
410, 888.888888889, -65, 210
411, 888.888888889, -65, 220
412, 888.888888889, -37.5, 200
413, 888.888888889, -37.5, 210
414, 888.888888889, -37.5, 220
415, 888.888888889, -10, 210
416, 888.888888889, -10, 220
417, 888.888888889, 0, 210
418, 888.888888889, 0, 220
419, 888.888888889, 10, 210
420, 888.888888889, 10, 220
421, 888.888888889, 37.5, 200
422, 888.888888889, 37.5, 210
423, 888.888888889, 37.5, 220
424, 888.888888889, 65, 200
425, 888.888888889, 65, 210
426, 888.888888889, 65, 220
427, 888.888888889, 92.5, 200
428, 888.888888889, 92.5, 210
429, 888.888888889, 92.5, 220
430, 888.888888889, 120, 200
431, 888.888888889, 120, 210
432, 888.888888889, 120, 220
433, 1000, -10, 60
434, 1000, 0, 60
435, 1000, -10, 88
436, 1000, 0, 88
437, 1000, -10, 116
438, 1000, 0, 116
439, 1000, -10, 144
440, 1000, 0, 144
441, 1000, -10, 172
442, 1000, 0, 172
443, 1000, -10, 200
444, 1000, 0, 200
445, 1000, 10, 60
446, 1000, 10, 88
447, 1000, 10, 116
448, 1000, 10, 144
449, 1000, 10, 172
450, 1000, 10, 200
451, 1000, -120, 200
452, 1000, -92.5, 200
453, 1000, -120, 210
454, 1000, -92.5, 210
455, 1000, -120, 220
456, 1000, -92.5, 220
457, 1000, -65, 200
458, 1000, -65, 210
459, 1000, -65, 220
460, 1000, -37.5, 200
461, 1000, -37.5, 210
462, 1000, -37.5, 220
463, 1000, -10, 210
464, 1000, -10, 220
465, 1000, 0, 210
466, 1000, 0, 220
467, 1000, 10, 210
468, 1000, 10, 220
469, 1000, 37.5, 200
470, 1000, 37.5, 210
471, 1000, 37.5, 220
472, 1000, 65, 200
473, 1000, 65, 210
474, 1000, 65, 220
475, 1000, 92.5, 200
476, 1000, 92.5, 210
477, 1000, 92.5, 220
478, 1000, 120, 200
479, 1000, 120, 210
480, 1000, 120, 220
481, 1111.11111111, -10, 66.6666666667
482, 1111.11111111, 0, 66.6666666667
483, 1111.11111111, -10, 93.3333333333
484, 1111.11111111, 0, 93.3333333333
485, 1111.11111111, -10, 120
486, 1111.11111111, 0, 120
487, 1111.11111111, -10, 146.666666667
488, 1111.11111111, 0, 146.666666667
489, 1111.11111111, -10, 173.333333333
490, 1111.11111111, 0, 173.333333333
491, 1111.11111111, -10, 200
492, 1111.11111111, 0, 200
493, 1111.11111111, 10, 66.6666666667
494, 1111.11111111, 10, 93.3333333333
495, 1111.11111111, 10, 120
496, 1111.11111111, 10, 146.666666667
497, 1111.11111111, 10, 173.333333333
498, 1111.11111111, 10, 200
499, 1111.11111111, -120, 200
500, 1111.11111111, -92.5, 200
501, 1111.11111111, -120, 210
502, 1111.11111111, -92.5, 210
503, 1111.11111111, -120, 220
504, 1111.11111111, -92.5, 220
505, 1111.11111111, -65, 200
506, 1111.11111111, -65, 210
507, 1111.11111111, -65, 220
508, 1111.11111111, -37.5, 200
509, 1111.11111111, -37.5, 210
510, 1111.11111111, -37.5, 220
511, 1111.11111111, -10, 210
512, 1111.11111111, -10, 220
513, 1111.11111111, 0, 210
514, 1111.11111111, 0, 220
515, 1111.11111111, 10, 210
516, 1111.11111111, 10, 220
517, 1111.11111111, 37.5, 200
518, 1111.11111111, 37.5, 210
519, 1111.11111111, 37.5, 220
520, 1111.11111111, 65, 200
521, 1111.11111111, 65, 210
522, 1111.11111111, 65, 220
523, 1111.11111111, 92.5, 200
524, 1111.11111111, 92.5, 210
525, 1111.11111111, 92.5, 220
526, 1111.11111111, 120, 200
527, 1111.11111111, 120, 210
528, 1111.11111111, 120, 220
529, 1222.22222222, -10, 73.3333333333
530, 1222.22222222, 0, 73.3333333333
531, 1222.22222222, -10, 98.6666666667
532, 1222.22222222, 0, 98.6666666667
533, 1222.22222222, -10, 124
534, 1222.22222222, 0, 124
535, 1222.22222222, -10, 149.333333333
536, 1222.22222222, 0, 149.333333333
537, 1222.22222222, -10, 174.666666667
538, 1222.22222222, 0, 174.666666667
539, 1222.22222222, -10, 200
540, 1222.22222222, 0, 200
541, 1222.22222222, 10, 73.3333333333
542, 1222.22222222, 10, 98.6666666667
543, 1222.22222222, 10, 124
544, 1222.22222222, 10, 149.333333333
545, 1222.22222222, 10, 174.666666667
546, 1222.22222222, 10, 200
547, 1222.22222222, -120, 200
548, 1222.22222222, -92.5, 200
549, 1222.22222222, -120, 210
550, 1222.22222222, -92.5, 210
551, 1222.22222222, -120, 220
552, 1222.22222222, -92.5, 220
553, 1222.22222222, -65, 200
554, 1222.22222222, -65, 210
555, 1222.22222222, -65, 220
556, 1222.22222222, -37.5, 200
557, 1222.22222222, -37.5, 210
558, 1222.22222222, -37.5, 220
559, 1222.22222222, -10, 210
560, 1222.22222222, -10, 220
561, 1222.22222222, 0, 210
562, 1222.22222222, 0, 220
563, 1222.22222222, 10, 210
564, 1222.22222222, 10, 220
565, 1222.22222222, 37.5, 200
566, 1222.22222222, 37.5, 210
567, 1222.22222222, 37.5, 220
568, 1222.22222222, 65, 200
569, 1222.22222222, 65, 210
570, 1222.22222222, 65, 220
571, 1222.22222222, 92.5, 200
572, 1222.22222222, 92.5, 210
573, 1222.22222222, 92.5, 220
574, 1222.22222222, 120, 200
575, 1222.22222222, 120, 210
576, 1222.22222222, 120, 220
577, 1333.33333333, -10, 80
578, 1333.33333333, 0, 80
579, 1333.33333333, -10, 104
580, 1333.33333333, 0, 104
581, 1333.33333333, -10, 128
582, 1333.33333333, 0, 128
583, 1333.33333333, -10, 152
584, 1333.33333333, 0, 152
585, 1333.33333333, -10, 176
586, 1333.33333333, 0, 176
587, 1333.33333333, -10, 200
588, 1333.33333333, 0, 200
589, 1333.33333333, 10, 80
590, 1333.33333333, 10, 104
591, 1333.33333333, 10, 128
592, 1333.33333333, 10, 152
593, 1333.33333333, 10, 176
594, 1333.33333333, 10, 200
595, 1333.33333333, -120, 200
596, 1333.33333333, -92.5, 200
597, 1333.33333333, -120, 210
598, 1333.33333333, -92.5, 210
599, 1333.33333333, -120, 220
600, 1333.33333333, -92.5, 220
601, 1333.33333333, -65, 200
602, 1333.33333333, -65, 210
603, 1333.33333333, -65, 220
604, 1333.33333333, -37.5, 200
605, 1333.33333333, -37.5, 210
606, 1333.33333333, -37.5, 220
607, 1333.33333333, -10, 210
608, 1333.33333333, -10, 220
609, 1333.33333333, 0, 210
610, 1333.33333333, 0, 220
611, 1333.33333333, 10, 210
612, 1333.33333333, 10, 220
613, 1333.33333333, 37.5, 200
614, 1333.33333333, 37.5, 210
615, 1333.33333333, 37.5, 220
616, 1333.33333333, 65, 200
617, 1333.33333333, 65, 210
618, 1333.33333333, 65, 220
619, 1333.33333333, 92.5, 200
620, 1333.33333333, 92.5, 210
621, 1333.33333333, 92.5, 220
622, 1333.33333333, 120, 200
623, 1333.33333333, 120, 210
624, 1333.33333333, 120, 220
625, 1444.44444444, -10, 86.6666666667
626, 1444.44444444, 0, 86.6666666667
627, 1444.44444444, -10, 109.333333333
628, 1444.44444444, 0, 109.333333333
629, 1444.44444444, -10, 132
630, 1444.44444444, 0, 132
631, 1444.44444444, -10, 154.666666667
632, 1444.44444444, 0, 154.666666667
633, 1444.44444444, -10, 177.333333333
634, 1444.44444444, 0, 177.333333333
635, 1444.44444444, -10, 200
636, 1444.44444444, 0, 200
637, 1444.44444444, 10, 86.6666666667
638, 1444.44444444, 10, 109.333333333
639, 1444.44444444, 10, 132
640, 1444.44444444, 10, 154.666666667
641, 1444.44444444, 10, 177.333333333
642, 1444.44444444, 10, 200
643, 1444.44444444, -120, 200
644, 1444.44444444, -92.5, 200
645, 1444.44444444, -120, 210
646, 1444.44444444, -92.5, 210
647, 1444.44444444, -120, 220
648, 1444.44444444, -92.5, 220
649, 1444.44444444, -65, 200
650, 1444.44444444, -65, 210
651, 1444.44444444, -65, 220
652, 1444.44444444, -37.5, 200
653, 1444.44444444, -37.5, 210
654, 1444.44444444, -37.5, 220
655, 1444.44444444, -10, 210
656, 1444.44444444, -10, 220
657, 1444.44444444, 0, 210
658, 1444.44444444, 0, 220
659, 1444.44444444, 10, 210
660, 1444.44444444, 10, 220
661, 1444.44444444, 37.5, 200
662, 1444.44444444, 37.5, 210
663, 1444.44444444, 37.5, 220
664, 1444.44444444, 65, 200
665, 1444.44444444, 65, 210
666, 1444.44444444, 65, 220
667, 1444.44444444, 92.5, 200
668, 1444.44444444, 92.5, 210
669, 1444.44444444, 92.5, 220
670, 1444.44444444, 120, 200
671, 1444.44444444, 120, 210
672, 1444.44444444, 120, 220
673, 1555.55555556, -10, 93.3333333333
674, 1555.55555556, 0, 93.3333333333
675, 1555.55555556, -10, 114.666666667
676, 1555.55555556, 0, 114.666666667
677, 1555.55555556, -10, 136
678, 1555.55555556, 0, 136
679, 1555.55555556, -10, 157.333333333
680, 1555.55555556, 0, 157.333333333
681, 1555.55555556, -10, 178.666666667
682, 1555.55555556, 0, 178.666666667
683, 1555.55555556, -10, 200
684, 1555.55555556, 0, 200
685, 1555.55555556, 10, 93.3333333333
686, 1555.55555556, 10, 114.666666667
687, 1555.55555556, 10, 136
688, 1555.55555556, 10, 157.333333333
689, 1555.55555556, 10, 178.666666667
690, 1555.55555556, 10, 200
691, 1555.55555556, -120, 200
692, 1555.55555556, -92.5, 200
693, 1555.55555556, -120, 210
694, 1555.55555556, -92.5, 210
695, 1555.55555556, -120, 220
696, 1555.55555556, -92.5, 220
697, 1555.55555556, -65, 200
698, 1555.55555556, -65, 210
699, 1555.55555556, -65, 220
700, 1555.55555556, -37.5, 200
701, 1555.55555556, -37.5, 210
702, 1555.55555556, -37.5, 220
703, 1555.55555556, -10, 210
704, 1555.55555556, -10, 220
705, 1555.55555556, 0, 210
706, 1555.55555556, 0, 220
707, 1555.55555556, 10, 210
708, 1555.55555556, 10, 220
709, 1555.55555556, 37.5, 200
710, 1555.55555556, 37.5, 210
711, 1555.55555556, 37.5, 220
712, 1555.55555556, 65, 200
713, 1555.55555556, 65, 210
714, 1555.55555556, 65, 220
715, 1555.55555556, 92.5, 200
716, 1555.55555556, 92.5, 210
717, 1555.55555556, 92.5, 220
718, 1555.55555556, 120, 200
719, 1555.55555556, 120, 210
720, 1555.55555556, 120, 220
721, 1666.66666667, -10, 100
722, 1666.66666667, 0, 100
723, 1666.66666667, -10, 120
724, 1666.66666667, 0, 120
725, 1666.66666667, -10, 140
726, 1666.66666667, 0, 140
727, 1666.66666667, -10, 160
728, 1666.66666667, 0, 160
729, 1666.66666667, -10, 180
730, 1666.66666667, 0, 180
731, 1666.66666667, -10, 200
732, 1666.66666667, 0, 200
733, 1666.66666667, 10, 100
734, 1666.66666667, 10, 120
735, 1666.66666667, 10, 140
736, 1666.66666667, 10, 160
737, 1666.66666667, 10, 180
738, 1666.66666667, 10, 200
739, 1666.66666667, -120, 200
740, 1666.66666667, -92.5, 200
741, 1666.66666667, -120, 210
742, 1666.66666667, -92.5, 210
743, 1666.66666667, -120, 220
744, 1666.66666667, -92.5, 220
745, 1666.66666667, -65, 200
746, 1666.66666667, -65, 210
747, 1666.66666667, -65, 220
748, 1666.66666667, -37.5, 200
749, 1666.66666667, -37.5, 210
750, 1666.66666667, -37.5, 220
751, 1666.66666667, -10, 210
752, 1666.66666667, -10, 220
753, 1666.66666667, 0, 210
754, 1666.66666667, 0, 220
755, 1666.66666667, 10, 210
756, 1666.66666667, 10, 220
757, 1666.66666667, 37.5, 200
758, 1666.66666667, 37.5, 210
759, 1666.66666667, 37.5, 220
760, 1666.66666667, 65, 200
761, 1666.66666667, 65, 210
762, 1666.66666667, 65, 220
763, 1666.66666667, 92.5, 200
764, 1666.66666667, 92.5, 210
765, 1666.66666667, 92.5, 220
766, 1666.66666667, 120, 200
767, 1666.66666667, 120, 210
768, 1666.66666667, 120, 220
769, 1777.77777778, -10, 106.666666667
770, 1777.77777778, 0, 106.666666667
771, 1777.77777778, -10, 125.333333333
772, 1777.77777778, 0, 125.333333333
773, 1777.77777778, -10, 144
774, 1777.77777778, 0, 144
775, 1777.77777778, -10, 162.666666667
776, 1777.77777778, 0, 162.666666667
777, 1777.77777778, -10, 181.333333333
778, 1777.77777778, 0, 181.333333333
779, 1777.77777778, -10, 200
780, 1777.77777778, 0, 200
781, 1777.77777778, 10, 106.666666667
782, 1777.77777778, 10, 125.333333333
783, 1777.77777778, 10, 144
784, 1777.77777778, 10, 162.666666667
785, 1777.77777778, 10, 181.333333333
786, 1777.77777778, 10, 200
787, 1777.77777778, -120, 200
788, 1777.77777778, -92.5, 200
789, 1777.77777778, -120, 210
790, 1777.77777778, -92.5, 210
791, 1777.77777778, -120, 220
792, 1777.77777778, -92.5, 220
793, 1777.77777778, -65, 200
794, 1777.77777778, -65, 210
795, 1777.77777778, -65, 220
796, 1777.77777778, -37.5, 200
797, 1777.77777778, -37.5, 210
798, 1777.77777778, -37.5, 220
799, 1777.77777778, -10, 210
800, 1777.77777778, -10, 220
801, 1777.77777778, 0, 210
802, 1777.77777778, 0, 220
803, 1777.77777778, 10, 210
804, 1777.77777778, 10, 220
805, 1777.77777778, 37.5, 200
806, 1777.77777778, 37.5, 210
807, 1777.77777778, 37.5, 220
808, 1777.77777778, 65, 200
809, 1777.77777778, 65, 210
810, 1777.77777778, 65, 220
811, 1777.77777778, 92.5, 200
812, 1777.77777778, 92.5, 210
813, 1777.77777778, 92.5, 220
814, 1777.77777778, 120, 200
815, 1777.77777778, 120, 210
816, 1777.77777778, 120, 220
817, 1888.88888889, -10, 113.333333333
818, 1888.88888889, 0, 113.333333333
819, 1888.88888889, -10, 130.666666667
820, 1888.88888889, 0, 130.666666667
821, 1888.88888889, -10, 148
822, 1888.88888889, 0, 148
823, 1888.88888889, -10, 165.333333333
824, 1888.88888889, 0, 165.333333333
825, 1888.88888889, -10, 182.666666667
826, 1888.88888889, 0, 182.666666667
827, 1888.88888889, -10, 200
828, 1888.88888889, 0, 200
829, 1888.88888889, 10, 113.333333333
830, 1888.88888889, 10, 130.666666667
831, 1888.88888889, 10, 148
832, 1888.88888889, 10, 165.333333333
833, 1888.88888889, 10, 182.666666667
834, 1888.88888889, 10, 200
835, 1888.88888889, -120, 200
836, 1888.88888889, -92.5, 200
837, 1888.88888889, -120, 210
838, 1888.88888889, -92.5, 210
839, 1888.88888889, -120, 220
840, 1888.88888889, -92.5, 220
841, 1888.88888889, -65, 200
842, 1888.88888889, -65, 210
843, 1888.88888889, -65, 220
844, 1888.88888889, -37.5, 200
845, 1888.88888889, -37.5, 210
846, 1888.88888889, -37.5, 220
847, 1888.88888889, -10, 210
848, 1888.88888889, -10, 220
849, 1888.88888889, 0, 210
850, 1888.88888889, 0, 220
851, 1888.88888889, 10, 210
852, 1888.88888889, 10, 220
853, 1888.88888889, 37.5, 200
854, 1888.88888889, 37.5, 210
855, 1888.88888889, 37.5, 220
856, 1888.88888889, 65, 200
857, 1888.88888889, 65, 210
858, 1888.88888889, 65, 220
859, 1888.88888889, 92.5, 200
860, 1888.88888889, 92.5, 210
861, 1888.88888889, 92.5, 220
862, 1888.88888889, 120, 200
863, 1888.88888889, 120, 210
864, 1888.88888889, 120, 220
865, 2000, -10, 120
866, 2000, 0, 120
867, 2000, -10, 136
868, 2000, 0, 136
869, 2000, -10, 152
870, 2000, 0, 152
871, 2000, -10, 168
872, 2000, 0, 168
873, 2000, -10, 184
874, 2000, 0, 184
875, 2000, -10, 200
876, 2000, 0, 200
877, 2000, 10, 120
878, 2000, 10, 136
879, 2000, 10, 152
880, 2000, 10, 168
881, 2000, 10, 184
882, 2000, 10, 200
883, 2000, -120, 200
884, 2000, -92.5, 200
885, 2000, -120, 210
886, 2000, -92.5, 210
887, 2000, -120, 220
888, 2000, -92.5, 220
889, 2000, -65, 200
890, 2000, -65, 210
891, 2000, -65, 220
892, 2000, -37.5, 200
893, 2000, -37.5, 210
894, 2000, -37.5, 220
895, 2000, -10, 210
896, 2000, -10, 220
897, 2000, 0, 210
898, 2000, 0, 220
899, 2000, 10, 210
900, 2000, 10, 220
901, 2000, 37.5, 200
902, 2000, 37.5, 210
903, 2000, 37.5, 220
904, 2000, 65, 200
905, 2000, 65, 210
906, 2000, 65, 220
907, 2000, 92.5, 200
908, 2000, 92.5, 210
909, 2000, 92.5, 220
910, 2000, 120, 200
911, 2000, 120, 210
912, 2000, 120, 220
913, 1111.11111111, -10, 80
914, 1111.11111111, -5, 66.6666666667
915, 1111.11111111, -5, 80
916, 1111.11111111, -5, 93.3333333333
917, 1111.11111111, 0, 80
918, 1166.66666667, -10, 70
919, 1166.66666667, -10, 83
920, 1166.66666667, -10, 96
921, 1166.66666667, -5, 70
922, 1166.66666667, -5, 83
923, 1166.66666667, -5, 96
924, 1166.66666667, 0, 70
925, 1166.66666667, 0, 83
926, 1166.66666667, 0, 96
927, 1222.22222222, -10, 86
928, 1222.22222222, -5, 73.3333333333
929, 1222.22222222, -5, 86
930, 1222.22222222, -5, 98.6666666667
931, 1222.22222222, 0, 86
932, 1111.11111111, 5, 66.6666666667
933, 1111.11111111, 5, 80
934, 1111.11111111, 5, 93.3333333333
935, 1111.11111111, 10, 80
936, 1166.66666667, 5, 70
937, 1166.66666667, 5, 83
938, 1166.66666667, 5, 96
939, 1166.66666667, 10, 70
940, 1166.66666667, 10, 83
941, 1166.66666667, 10, 96
942, 1222.22222222, 5, 73.3333333333
943, 1222.22222222, 5, 86
944, 1222.22222222, 5, 98.6666666667
945, 1222.22222222, 10, 86
946, 1277.77777778, -10, 76.6666666667
947, 1277.77777778, -10, 89
948, 1277.77777778, -10, 101.333333333
949, 1277.77777778, -5, 76.6666666667
950, 1277.77777778, -5, 89
951, 1277.77777778, -5, 101.333333333
952, 1277.77777778, 0, 76.6666666667
953, 1277.77777778, 0, 89
954, 1277.77777778, 0, 101.333333333
955, 1333.33333333, -10, 92
956, 1333.33333333, -5, 80
957, 1333.33333333, -5, 92
958, 1333.33333333, -5, 104
959, 1333.33333333, 0, 92
960, 1277.77777778, 5, 76.6666666667
961, 1277.77777778, 5, 89
962, 1277.77777778, 5, 101.333333333
963, 1277.77777778, 10, 76.6666666667
964, 1277.77777778, 10, 89
965, 1277.77777778, 10, 101.333333333
966, 1333.33333333, 5, 80
967, 1333.33333333, 5, 92
968, 1333.33333333, 5, 104
969, 1333.33333333, 10, 92
970, 1388.88888889, -10, 83.3333333333
971, 1388.88888889, -10, 95
972, 1388.88888889, -10, 106.666666667
973, 1388.88888889, -5, 83.3333333333
974, 1388.88888889, -5, 95
975, 1388.88888889, -5, 106.666666667
976, 1388.88888889, 0, 83.3333333333
977, 1388.88888889, 0, 95
978, 1388.88888889, 0, 106.666666667
979, 1444.44444444, -10, 98
980, 1444.44444444, -5, 86.6666666667
981, 1444.44444444, -5, 98
982, 1444.44444444, -5, 109.333333333
983, 1444.44444444, 0, 98
984, 1388.88888889, 5, 83.3333333333
985, 1388.88888889, 5, 95
986, 1388.88888889, 5, 106.666666667
987, 1388.88888889, 10, 83.3333333333
988, 1388.88888889, 10, 95
989, 1388.88888889, 10, 106.666666667
990, 1444.44444444, 5, 86.6666666667
991, 1444.44444444, 5, 98
992, 1444.44444444, 5, 109.333333333
993, 1444.44444444, 10, 98
994, 1500, -10, 90
995, 1500, -10, 101
996, 1500, -10, 112
997, 1500, -5, 90
998, 1500, -5, 101
999, 1500, -5, 112
1000, 1500, 0, 90
1001, 1500, 0, 101
1002, 1500, 0, 112
1003, 1555.55555556, -10, 104
1004, 1555.55555556, -5, 93.3333333333
1005, 1555.55555556, -5, 104
1006, 1555.55555556, -5, 114.666666667
1007, 1555.55555556, 0, 104
1008, 1500, 5, 90
1009, 1500, 5, 101
1010, 1500, 5, 112
1011, 1500, 10, 90
1012, 1500, 10, 101
1013, 1500, 10, 112
1014, 1555.55555556, 5, 93.3333333333
1015, 1555.55555556, 5, 104
1016, 1555.55555556, 5, 114.666666667
1017, 1555.55555556, 10, 104
1018, 1611.11111111, -10, 96.6666666667
1019, 1611.11111111, -10, 107
1020, 1611.11111111, -10, 117.333333333
1021, 1611.11111111, -5, 96.6666666667
1022, 1611.11111111, -5, 107
1023, 1611.11111111, -5, 117.333333333
1024, 1611.11111111, 0, 96.6666666667
1025, 1611.11111111, 0, 107
1026, 1611.11111111, 0, 117.333333333
1027, 1666.66666667, -10, 110
1028, 1666.66666667, -5, 100
1029, 1666.66666667, -5, 110
1030, 1666.66666667, -5, 120
1031, 1666.66666667, 0, 110
1032, 1611.11111111, 5, 96.6666666667
1033, 1611.11111111, 5, 107
1034, 1611.11111111, 5, 117.333333333
1035, 1611.11111111, 10, 96.6666666667
1036, 1611.11111111, 10, 107
1037, 1611.11111111, 10, 117.333333333
1038, 1666.66666667, 5, 100
1039, 1666.66666667, 5, 110
1040, 1666.66666667, 5, 120
1041, 1666.66666667, 10, 110
1042, 1722.22222222, -10, 103.333333333
1043, 1722.22222222, -10, 113
1044, 1722.22222222, -10, 122.666666667
1045, 1722.22222222, -5, 103.333333333
1046, 1722.22222222, -5, 113
1047, 1722.22222222, -5, 122.666666667
1048, 1722.22222222, 0, 103.333333333
1049, 1722.22222222, 0, 113
1050, 1722.22222222, 0, 122.666666667
1051, 1777.77777778, -10, 116
1052, 1777.77777778, -5, 106.666666667
1053, 1777.77777778, -5, 116
1054, 1777.77777778, -5, 125.333333333
1055, 1777.77777778, 0, 116
1056, 1722.22222222, 5, 103.333333333
1057, 1722.22222222, 5, 113
1058, 1722.22222222, 5, 122.666666667
1059, 1722.22222222, 10, 103.333333333
1060, 1722.22222222, 10, 113
1061, 1722.22222222, 10, 122.666666667
1062, 1777.77777778, 5, 106.666666667
1063, 1777.77777778, 5, 116
1064, 1777.77777778, 5, 125.333333333
1065, 1777.77777778, 10, 116
1066, 1833.33333333, -10, 110
1067, 1833.33333333, -10, 119
1068, 1833.33333333, -10, 128
1069, 1833.33333333, -5, 110
1070, 1833.33333333, -5, 119
1071, 1833.33333333, -5, 128
1072, 1833.33333333, 0, 110
1073, 1833.33333333, 0, 119
1074, 1833.33333333, 0, 128
1075, 1888.88888889, -10, 122
1076, 1888.88888889, -5, 113.333333333
1077, 1888.88888889, -5, 122
1078, 1888.88888889, -5, 130.666666667
1079, 1888.88888889, 0, 122
1080, 1833.33333333, 5, 110
1081, 1833.33333333, 5, 119
1082, 1833.33333333, 5, 128
1083, 1833.33333333, 10, 110
1084, 1833.33333333, 10, 119
1085, 1833.33333333, 10, 128
1086, 1888.88888889, 5, 113.333333333
1087, 1888.88888889, 5, 122
1088, 1888.88888889, 5, 130.666666667
1089, 1888.88888889, 10, 122
1090, 1944.44444444, -10, 116.666666667
1091, 1944.44444444, -10, 125
1092, 1944.44444444, -10, 133.333333333
1093, 1944.44444444, -5, 116.666666667
1094, 1944.44444444, -5, 125
1095, 1944.44444444, -5, 133.333333333
1096, 1944.44444444, 0, 116.666666667
1097, 1944.44444444, 0, 125
1098, 1944.44444444, 0, 133.333333333
1099, 2000, -10, 128
1100, 2000, -5, 120
1101, 2000, -5, 128
1102, 2000, -5, 136
1103, 2000, 0, 128
1104, 1944.44444444, 5, 116.666666667
1105, 1944.44444444, 5, 125
1106, 1944.44444444, 5, 133.333333333
1107, 1944.44444444, 10, 116.666666667
1108, 1944.44444444, 10, 125
1109, 1944.44444444, 10, 133.333333333
1110, 2000, 5, 120
1111, 2000, 5, 128
1112, 2000, 5, 136
1113, 2000, 10, 128
1114, 0, -10, 20
1115, 0, -5, 0
1116, 0, -5, 20
1117, 0, -5, 40
1118, 0, 0, 20
1119, 55.5555555556, -10, 3.33333333333
1120, 55.5555555556, -10, 23
1121, 55.5555555556, -10, 42.6666666667
1122, 55.5555555556, -5, 3.33333333333
1123, 55.5555555556, -5, 23
1124, 55.5555555556, -5, 42.6666666667
1125, 55.5555555556, 0, 3.33333333333
1126, 55.5555555556, 0, 23
1127, 55.5555555556, 0, 42.6666666667
1128, 111.111111111, -10, 26
1129, 111.111111111, -5, 6.66666666667
1130, 111.111111111, -5, 26
1131, 111.111111111, -5, 45.3333333333
1132, 111.111111111, 0, 26
1133, 0, 5, 0
1134, 0, 5, 20
1135, 0, 5, 40
1136, 0, 10, 20
1137, 55.5555555556, 5, 3.33333333333
1138, 55.5555555556, 5, 23
1139, 55.5555555556, 5, 42.6666666667
1140, 55.5555555556, 10, 3.33333333333
1141, 55.5555555556, 10, 23
1142, 55.5555555556, 10, 42.6666666667
1143, 111.111111111, 5, 6.66666666667
1144, 111.111111111, 5, 26
1145, 111.111111111, 5, 45.3333333333
1146, 111.111111111, 10, 26
1147, 166.666666667, -10, 10
1148, 166.666666667, -10, 29
1149, 166.666666667, -10, 48
1150, 166.666666667, -5, 10
1151, 166.666666667, -5, 29
1152, 166.666666667, -5, 48
1153, 166.666666667, 0, 10
1154, 166.666666667, 0, 29
1155, 166.666666667, 0, 48
1156, 222.222222222, -10, 32
1157, 222.222222222, -5, 13.3333333333
1158, 222.222222222, -5, 32
1159, 222.222222222, -5, 50.6666666667
1160, 222.222222222, 0, 32
1161, 166.666666667, 5, 10
1162, 166.666666667, 5, 29
1163, 166.666666667, 5, 48
1164, 166.666666667, 10, 10
1165, 166.666666667, 10, 29
1166, 166.666666667, 10, 48
1167, 222.222222222, 5, 13.3333333333
1168, 222.222222222, 5, 32
1169, 222.222222222, 5, 50.6666666667
1170, 222.222222222, 10, 32
1171, 888.888888889, -10, 68
1172, 888.888888889, -5, 53.3333333333
1173, 888.888888889, -5, 68
1174, 888.888888889, -5, 82.6666666667
1175, 888.888888889, 0, 68
1176, 944.444444444, -10, 56.6666666667
1177, 944.444444444, -10, 71
1178, 944.444444444, -10, 85.3333333333
1179, 944.444444444, -5, 56.6666666667
1180, 944.444444444, -5, 71
1181, 944.444444444, -5, 85.3333333333
1182, 944.444444444, 0, 56.6666666667
1183, 944.444444444, 0, 71
1184, 944.444444444, 0, 85.3333333333
1185, 1000, -10, 74
1186, 1000, -5, 60
1187, 1000, -5, 74
1188, 1000, -5, 88
1189, 1000, 0, 74
1190, 888.888888889, 5, 53.3333333333
1191, 888.888888889, 5, 68
1192, 888.888888889, 5, 82.6666666667
1193, 888.888888889, 10, 68
1194, 944.444444444, 5, 56.6666666667
1195, 944.444444444, 5, 71
1196, 944.444444444, 5, 85.3333333333
1197, 944.444444444, 10, 56.6666666667
1198, 944.444444444, 10, 71
1199, 944.444444444, 10, 85.3333333333
1200, 1000, 5, 60
1201, 1000, 5, 74
1202, 1000, 5, 88
1203, 1000, 10, 74
1204, 1055.55555556, -10, 63.3333333333
1205, 1055.55555556, -10, 77
1206, 1055.55555556, -10, 90.6666666667
1207, 1055.55555556, -5, 63.3333333333
1208, 1055.55555556, -5, 77
1209, 1055.55555556, -5, 90.6666666667
1210, 1055.55555556, 0, 63.3333333333
1211, 1055.55555556, 0, 77
1212, 1055.55555556, 0, 90.6666666667
1213, 1055.55555556, 5, 63.3333333333
1214, 1055.55555556, 5, 77
1215, 1055.55555556, 5, 90.6666666667
1216, 1055.55555556, 10, 63.3333333333
1217, 1055.55555556, 10, 77
1218, 1055.55555556, 10, 90.6666666667
1219, 1222.22222222, -10, 111.333333333
1220, 1222.22222222, -5, 111.333333333
1221, 1222.22222222, -5, 124
1222, 1222.22222222, 0, 111.333333333
1223, 1277.77777778, -10, 113.666666667
1224, 1277.77777778, -10, 126
1225, 1277.77777778, -5, 113.666666667
1226, 1277.77777778, -5, 126
1227, 1277.77777778, 0, 113.666666667
1228, 1277.77777778, 0, 126
1229, 1333.33333333, -10, 116
1230, 1333.33333333, -5, 116
1231, 1333.33333333, -5, 128
1232, 1333.33333333, 0, 116
1233, 1222.22222222, 5, 111.333333333
1234, 1222.22222222, 5, 124
1235, 1222.22222222, 10, 111.333333333
1236, 1277.77777778, 5, 113.666666667
1237, 1277.77777778, 5, 126
1238, 1277.77777778, 10, 113.666666667
1239, 1277.77777778, 10, 126
1240, 1333.33333333, 5, 116
1241, 1333.33333333, 5, 128
1242, 1333.33333333, 10, 116
1243, 1388.88888889, -10, 118.333333333
1244, 1388.88888889, -10, 130
1245, 1388.88888889, -5, 118.333333333
1246, 1388.88888889, -5, 130
1247, 1388.88888889, 0, 118.333333333
1248, 1388.88888889, 0, 130
1249, 1444.44444444, -10, 120.666666667
1250, 1444.44444444, -5, 120.666666667
1251, 1444.44444444, -5, 132
1252, 1444.44444444, 0, 120.666666667
1253, 1388.88888889, 5, 118.333333333
1254, 1388.88888889, 5, 130
1255, 1388.88888889, 10, 118.333333333
1256, 1388.88888889, 10, 130
1257, 1444.44444444, 5, 120.666666667
1258, 1444.44444444, 5, 132
1259, 1444.44444444, 10, 120.666666667
1260, 1500, -10, 123
1261, 1500, -10, 134
1262, 1500, -5, 123
1263, 1500, -5, 134
1264, 1500, 0, 123
1265, 1500, 0, 134
1266, 1555.55555556, -10, 125.333333333
1267, 1555.55555556, -5, 125.333333333
1268, 1555.55555556, -5, 136
1269, 1555.55555556, 0, 125.333333333
1270, 1500, 5, 123
1271, 1500, 5, 134
1272, 1500, 10, 123
1273, 1500, 10, 134
1274, 1555.55555556, 5, 125.333333333
1275, 1555.55555556, 5, 136
1276, 1555.55555556, 10, 125.333333333
1277, 1611.11111111, -10, 127.666666667
1278, 1611.11111111, -10, 138
1279, 1611.11111111, -5, 127.666666667
1280, 1611.11111111, -5, 138
1281, 1611.11111111, 0, 127.666666667
1282, 1611.11111111, 0, 138
1283, 1666.66666667, -10, 130
1284, 1666.66666667, -5, 130
1285, 1666.66666667, -5, 140
1286, 1666.66666667, 0, 130
1287, 1555.55555556, -10, 189.333333333
1288, 1555.55555556, -5, 178.666666667
1289, 1555.55555556, -5, 189.333333333
1290, 1555.55555556, -5, 200
1291, 1555.55555556, 0, 189.333333333
1292, 1611.11111111, -10, 179.333333333
1293, 1611.11111111, -10, 189.666666667
1294, 1611.11111111, -10, 200
1295, 1611.11111111, -5, 179.333333333
1296, 1611.11111111, -5, 189.666666667
1297, 1611.11111111, -5, 200
1298, 1611.11111111, 0, 179.333333333
1299, 1611.11111111, 0, 189.666666667
1300, 1611.11111111, 0, 200
1301, 1666.66666667, -10, 190
1302, 1666.66666667, -5, 180
1303, 1666.66666667, -5, 190
1304, 1666.66666667, -5, 200
1305, 1666.66666667, 0, 190
1306, 1611.11111111, 5, 127.666666667
1307, 1611.11111111, 5, 138
1308, 1611.11111111, 10, 127.666666667
1309, 1611.11111111, 10, 138
1310, 1666.66666667, 5, 130
1311, 1666.66666667, 5, 140
1312, 1666.66666667, 10, 130
1313, 1555.55555556, 5, 178.666666667
1314, 1555.55555556, 5, 189.333333333
1315, 1555.55555556, 5, 200
1316, 1555.55555556, 10, 189.333333333
1317, 1611.11111111, 5, 179.333333333
1318, 1611.11111111, 5, 189.666666667
1319, 1611.11111111, 5, 200
1320, 1611.11111111, 10, 179.333333333
1321, 1611.11111111, 10, 189.666666667
1322, 1611.11111111, 10, 200
1323, 1666.66666667, 5, 180
1324, 1666.66666667, 5, 190
1325, 1666.66666667, 5, 200
1326, 1666.66666667, 10, 190
1327, 1722.22222222, -10, 132.333333333
1328, 1722.22222222, -10, 142
1329, 1722.22222222, -5, 132.333333333
1330, 1722.22222222, -5, 142
1331, 1722.22222222, 0, 132.333333333
1332, 1722.22222222, 0, 142
1333, 1777.77777778, -10, 134.666666667
1334, 1777.77777778, -5, 134.666666667
1335, 1777.77777778, -5, 144
1336, 1777.77777778, 0, 134.666666667
1337, 1722.22222222, -10, 180.666666667
1338, 1722.22222222, -10, 190.333333333
1339, 1722.22222222, -10, 200
1340, 1722.22222222, -5, 180.666666667
1341, 1722.22222222, -5, 190.333333333
1342, 1722.22222222, -5, 200
1343, 1722.22222222, 0, 180.666666667
1344, 1722.22222222, 0, 190.333333333
1345, 1722.22222222, 0, 200
1346, 1777.77777778, -10, 190.666666667
1347, 1777.77777778, -5, 181.333333333
1348, 1777.77777778, -5, 190.666666667
1349, 1777.77777778, -5, 200
1350, 1777.77777778, 0, 190.666666667
1351, 1722.22222222, 5, 132.333333333
1352, 1722.22222222, 5, 142
1353, 1722.22222222, 10, 132.333333333
1354, 1722.22222222, 10, 142
1355, 1777.77777778, 5, 134.666666667
1356, 1777.77777778, 5, 144
1357, 1777.77777778, 10, 134.666666667
1358, 1722.22222222, 5, 180.666666667
1359, 1722.22222222, 5, 190.333333333
1360, 1722.22222222, 5, 200
1361, 1722.22222222, 10, 180.666666667
1362, 1722.22222222, 10, 190.333333333
1363, 1722.22222222, 10, 200
1364, 1777.77777778, 5, 181.333333333
1365, 1777.77777778, 5, 190.666666667
1366, 1777.77777778, 5, 200
1367, 1777.77777778, 10, 190.666666667
1368, 1833.33333333, -10, 137
1369, 1833.33333333, -10, 146
1370, 1833.33333333, -5, 137
1371, 1833.33333333, -5, 146
1372, 1833.33333333, 0, 137
1373, 1833.33333333, 0, 146
1374, 1888.88888889, -10, 139.333333333
1375, 1888.88888889, -5, 139.333333333
1376, 1888.88888889, -5, 148
1377, 1888.88888889, 0, 139.333333333
1378, 1833.33333333, -10, 182
1379, 1833.33333333, -10, 191
1380, 1833.33333333, -10, 200
1381, 1833.33333333, -5, 182
1382, 1833.33333333, -5, 191
1383, 1833.33333333, -5, 200
1384, 1833.33333333, 0, 182
1385, 1833.33333333, 0, 191
1386, 1833.33333333, 0, 200
1387, 1888.88888889, -10, 191.333333333
1388, 1888.88888889, -5, 182.666666667
1389, 1888.88888889, -5, 191.333333333
1390, 1888.88888889, -5, 200
1391, 1888.88888889, 0, 191.333333333
1392, 1833.33333333, 5, 137
1393, 1833.33333333, 5, 146
1394, 1833.33333333, 10, 137
1395, 1833.33333333, 10, 146
1396, 1888.88888889, 5, 139.333333333
1397, 1888.88888889, 5, 148
1398, 1888.88888889, 10, 139.333333333
1399, 1833.33333333, 5, 182
1400, 1833.33333333, 5, 191
1401, 1833.33333333, 5, 200
1402, 1833.33333333, 10, 182
1403, 1833.33333333, 10, 191
1404, 1833.33333333, 10, 200
1405, 1888.88888889, 5, 182.666666667
1406, 1888.88888889, 5, 191.333333333
1407, 1888.88888889, 5, 200
1408, 1888.88888889, 10, 191.333333333
1409, 1944.44444444, -10, 141.666666667
1410, 1944.44444444, -10, 150
1411, 1944.44444444, -5, 141.666666667
1412, 1944.44444444, -5, 150
1413, 1944.44444444, 0, 141.666666667
1414, 1944.44444444, 0, 150
1415, 2000, -10, 144
1416, 2000, -5, 144
1417, 2000, -5, 152
1418, 2000, 0, 144
1419, 1944.44444444, -10, 183.333333333
1420, 1944.44444444, -10, 191.666666667
1421, 1944.44444444, -10, 200
1422, 1944.44444444, -5, 183.333333333
1423, 1944.44444444, -5, 191.666666667
1424, 1944.44444444, -5, 200
1425, 1944.44444444, 0, 183.333333333
1426, 1944.44444444, 0, 191.666666667
1427, 1944.44444444, 0, 200
1428, 2000, -10, 192
1429, 2000, -5, 184
1430, 2000, -5, 192
1431, 2000, -5, 200
1432, 2000, 0, 192
1433, 1944.44444444, 5, 141.666666667
1434, 1944.44444444, 5, 150
1435, 1944.44444444, 10, 141.666666667
1436, 1944.44444444, 10, 150
1437, 2000, 5, 144
1438, 2000, 5, 152
1439, 2000, 10, 144
1440, 1944.44444444, 5, 183.333333333
1441, 1944.44444444, 5, 191.666666667
1442, 1944.44444444, 5, 200
1443, 1944.44444444, 10, 183.333333333
1444, 1944.44444444, 10, 191.666666667
1445, 1944.44444444, 10, 200
1446, 2000, 5, 184
1447, 2000, 5, 192
1448, 2000, 5, 200
1449, 2000, 10, 192
1450, 777.777777778, -10, 62
1451, 777.777777778, -5, 46.6666666667
1452, 777.777777778, -5, 62
1453, 777.777777778, -5, 77.3333333333
1454, 777.777777778, 0, 62
1455, 833.333333333, -10, 50
1456, 833.333333333, -10, 65
1457, 833.333333333, -10, 80
1458, 833.333333333, -5, 50
1459, 833.333333333, -5, 65
1460, 833.333333333, -5, 80
1461, 833.333333333, 0, 50
1462, 833.333333333, 0, 65
1463, 833.333333333, 0, 80
1464, 777.777777778, 5, 46.6666666667
1465, 777.777777778, 5, 62
1466, 777.777777778, 5, 77.3333333333
1467, 777.777777778, 10, 62
1468, 833.333333333, 5, 50
1469, 833.333333333, 5, 65
1470, 833.333333333, 5, 80
1471, 833.333333333, 10, 50
1472, 833.333333333, 10, 65
1473, 833.333333333, 10, 80
1474, 1000, 0, 102
1475, 1000, 5, 102
1476, 1000, 5, 116
1477, 1000, 10, 102
1478, 1055.55555556, 0, 104.333333333
1479, 1055.55555556, 0, 118
1480, 1055.55555556, 5, 104.333333333
1481, 1055.55555556, 5, 118
1482, 1055.55555556, 10, 104.333333333
1483, 1055.55555556, 10, 118
1484, 1111.11111111, 0, 106.666666667
1485, 1111.11111111, 5, 106.666666667
1486, 1111.11111111, 5, 120
1487, 1111.11111111, 10, 106.666666667
1488, 1111.11111111, -10, 106.666666667
1489, 1111.11111111, -5, 106.666666667
1490, 1111.11111111, -5, 120
1491, 1166.66666667, -10, 109
1492, 1166.66666667, -10, 122
1493, 1166.66666667, -5, 109
1494, 1166.66666667, -5, 122
1495, 1166.66666667, 0, 109
1496, 1166.66666667, 0, 122
1497, 1166.66666667, 5, 109
1498, 1166.66666667, 5, 122
1499, 1166.66666667, 10, 109
1500, 1166.66666667, 10, 122
1501, 1222.22222222, -10, 136.666666667
1502, 1222.22222222, -5, 136.666666667
1503, 1222.22222222, -5, 149.333333333
1504, 1222.22222222, 0, 136.666666667
1505, 1277.77777778, -10, 138.333333333
1506, 1277.77777778, -10, 150.666666667
1507, 1277.77777778, -5, 138.333333333
1508, 1277.77777778, -5, 150.666666667
1509, 1277.77777778, 0, 138.333333333
1510, 1277.77777778, 0, 150.666666667
1511, 1333.33333333, -10, 140
1512, 1333.33333333, -5, 140
1513, 1333.33333333, -5, 152
1514, 1333.33333333, 0, 140
1515, 1222.22222222, 5, 136.666666667
1516, 1222.22222222, 5, 149.333333333
1517, 1222.22222222, 10, 136.666666667
1518, 1277.77777778, 5, 138.333333333
1519, 1277.77777778, 5, 150.666666667
1520, 1277.77777778, 10, 138.333333333
1521, 1277.77777778, 10, 150.666666667
1522, 1333.33333333, 5, 140
1523, 1333.33333333, 5, 152
1524, 1333.33333333, 10, 140
1525, 1388.88888889, -10, 141.666666667
1526, 1388.88888889, -10, 153.333333333
1527, 1388.88888889, -5, 141.666666667
1528, 1388.88888889, -5, 153.333333333
1529, 1388.88888889, 0, 141.666666667
1530, 1388.88888889, 0, 153.333333333
1531, 1444.44444444, -10, 143.333333333
1532, 1444.44444444, -5, 143.333333333
1533, 1444.44444444, -5, 154.666666667
1534, 1444.44444444, 0, 143.333333333
1535, 1388.88888889, 5, 141.666666667
1536, 1388.88888889, 5, 153.333333333
1537, 1388.88888889, 10, 141.666666667
1538, 1388.88888889, 10, 153.333333333
1539, 1444.44444444, 5, 143.333333333
1540, 1444.44444444, 5, 154.666666667
1541, 1444.44444444, 10, 143.333333333
1542, 1500, -10, 145
1543, 1500, -10, 156
1544, 1500, -5, 145
1545, 1500, -5, 156
1546, 1500, 0, 145
1547, 1500, 0, 156
1548, 1555.55555556, -10, 146.666666667
1549, 1555.55555556, -5, 146.666666667
1550, 1555.55555556, -5, 157.333333333
1551, 1555.55555556, 0, 146.666666667
1552, 1444.44444444, -10, 188.666666667
1553, 1444.44444444, -5, 177.333333333
1554, 1444.44444444, -5, 188.666666667
1555, 1444.44444444, -5, 200
1556, 1444.44444444, 0, 188.666666667
1557, 1500, -10, 178
1558, 1500, -10, 189
1559, 1500, -10, 200
1560, 1500, -5, 178
1561, 1500, -5, 189
1562, 1500, -5, 200
1563, 1500, 0, 178
1564, 1500, 0, 189
1565, 1500, 0, 200
1566, 1500, 5, 145
1567, 1500, 5, 156
1568, 1500, 10, 145
1569, 1500, 10, 156
1570, 1555.55555556, 5, 146.666666667
1571, 1555.55555556, 5, 157.333333333
1572, 1555.55555556, 10, 146.666666667
1573, 1444.44444444, 5, 177.333333333
1574, 1444.44444444, 5, 188.666666667
1575, 1444.44444444, 5, 200
1576, 1444.44444444, 10, 188.666666667
1577, 1500, 5, 178
1578, 1500, 5, 189
1579, 1500, 5, 200
1580, 1500, 10, 178
1581, 1500, 10, 189
1582, 1500, 10, 200
1583, 1611.11111111, -10, 148.333333333
1584, 1611.11111111, -10, 158.666666667
1585, 1611.11111111, -5, 148.333333333
1586, 1611.11111111, -5, 158.666666667
1587, 1611.11111111, 0, 148.333333333
1588, 1611.11111111, 0, 158.666666667
1589, 1666.66666667, -10, 150
1590, 1666.66666667, -5, 150
1591, 1666.66666667, -5, 160
1592, 1666.66666667, 0, 150
1593, 1555.55555556, -10, 168
1594, 1555.55555556, -5, 168
1595, 1555.55555556, 0, 168
1596, 1611.11111111, -10, 169
1597, 1611.11111111, -5, 169
1598, 1611.11111111, 0, 169
1599, 1666.66666667, -10, 170
1600, 1666.66666667, -5, 170
1601, 1666.66666667, 0, 170
1602, 1611.11111111, 5, 148.333333333
1603, 1611.11111111, 5, 158.666666667
1604, 1611.11111111, 10, 148.333333333
1605, 1611.11111111, 10, 158.666666667
1606, 1666.66666667, 5, 150
1607, 1666.66666667, 5, 160
1608, 1666.66666667, 10, 150
1609, 1555.55555556, 5, 168
1610, 1555.55555556, 10, 168
1611, 1611.11111111, 5, 169
1612, 1611.11111111, 10, 169
1613, 1666.66666667, 5, 170
1614, 1666.66666667, 10, 170
1615, 1722.22222222, -10, 151.666666667
1616, 1722.22222222, -10, 161.333333333
1617, 1722.22222222, -5, 151.666666667
1618, 1722.22222222, -5, 161.333333333
1619, 1722.22222222, 0, 151.666666667
1620, 1722.22222222, 0, 161.333333333
1621, 1777.77777778, -10, 153.333333333
1622, 1777.77777778, -5, 153.333333333
1623, 1777.77777778, -5, 162.666666667
1624, 1777.77777778, 0, 153.333333333
1625, 1722.22222222, -10, 171
1626, 1722.22222222, -5, 171
1627, 1722.22222222, 0, 171
1628, 1777.77777778, -10, 172
1629, 1777.77777778, -5, 172
1630, 1777.77777778, 0, 172
1631, 1722.22222222, 5, 151.666666667
1632, 1722.22222222, 5, 161.333333333
1633, 1722.22222222, 10, 151.666666667
1634, 1722.22222222, 10, 161.333333333
1635, 1777.77777778, 5, 153.333333333
1636, 1777.77777778, 5, 162.666666667
1637, 1777.77777778, 10, 153.333333333
1638, 1722.22222222, 5, 171
1639, 1722.22222222, 10, 171
1640, 1777.77777778, 5, 172
1641, 1777.77777778, 10, 172
1642, 1833.33333333, -10, 155
1643, 1833.33333333, -10, 164
1644, 1833.33333333, -5, 155
1645, 1833.33333333, -5, 164
1646, 1833.33333333, 0, 155
1647, 1833.33333333, 0, 164
1648, 1888.88888889, -10, 156.666666667
1649, 1888.88888889, -5, 156.666666667
1650, 1888.88888889, -5, 165.333333333
1651, 1888.88888889, 0, 156.666666667
1652, 1833.33333333, -10, 173
1653, 1833.33333333, -5, 173
1654, 1833.33333333, 0, 173
1655, 1888.88888889, -10, 174
1656, 1888.88888889, -5, 174
1657, 1888.88888889, 0, 174
1658, 1833.33333333, 5, 155
1659, 1833.33333333, 5, 164
1660, 1833.33333333, 10, 155
1661, 1833.33333333, 10, 164
1662, 1888.88888889, 5, 156.666666667
1663, 1888.88888889, 5, 165.333333333
1664, 1888.88888889, 10, 156.666666667
1665, 1833.33333333, 5, 173
1666, 1833.33333333, 10, 173
1667, 1888.88888889, 5, 174
1668, 1888.88888889, 10, 174
1669, 1944.44444444, -10, 158.333333333
1670, 1944.44444444, -10, 166.666666667
1671, 1944.44444444, -5, 158.333333333
1672, 1944.44444444, -5, 166.666666667
1673, 1944.44444444, 0, 158.333333333
1674, 1944.44444444, 0, 166.666666667
1675, 2000, -10, 160
1676, 2000, -5, 160
1677, 2000, -5, 168
1678, 2000, 0, 160
1679, 1944.44444444, -10, 175
1680, 1944.44444444, -5, 175
1681, 1944.44444444, 0, 175
1682, 2000, -10, 176
1683, 2000, -5, 176
1684, 2000, 0, 176
1685, 1944.44444444, 5, 158.333333333
1686, 1944.44444444, 5, 166.666666667
1687, 1944.44444444, 10, 158.333333333
1688, 1944.44444444, 10, 166.666666667
1689, 2000, 5, 160
1690, 2000, 5, 168
1691, 2000, 10, 160
1692, 1944.44444444, 5, 175
1693, 1944.44444444, 10, 175
1694, 2000, 5, 176
1695, 2000, 10, 176
1696, 55.5555555556, -10, 13.1666666667
1697, 55.5555555556, -7.5, 3.33333333333
1698, 55.5555555556, -7.5, 13.1666666667
1699, 55.5555555556, -7.5, 23
1700, 55.5555555556, -5, 13.1666666667
1701, 83.3333333333, -10, 5
1702, 83.3333333333, -10, 14.75
1703, 83.3333333333, -10, 24.5
1704, 83.3333333333, -7.5, 5
1705, 83.3333333333, -7.5, 14.75
1706, 83.3333333333, -7.5, 24.5
1707, 83.3333333333, -5, 5
1708, 83.3333333333, -5, 14.75
1709, 83.3333333333, -5, 24.5
1710, 111.111111111, -10, 16.3333333333
1711, 111.111111111, -7.5, 6.66666666667
1712, 111.111111111, -7.5, 16.3333333333
1713, 111.111111111, -7.5, 26
1714, 111.111111111, -5, 16.3333333333
1715, 55.5555555556, -2.5, 3.33333333333
1716, 55.5555555556, -2.5, 13.1666666667
1717, 55.5555555556, -2.5, 23
1718, 55.5555555556, 0, 13.1666666667
1719, 83.3333333333, -2.5, 5
1720, 83.3333333333, -2.5, 14.75
1721, 83.3333333333, -2.5, 24.5
1722, 83.3333333333, 0, 5
1723, 83.3333333333, 0, 14.75
1724, 83.3333333333, 0, 24.5
1725, 111.111111111, -2.5, 6.66666666667
1726, 111.111111111, -2.5, 16.3333333333
1727, 111.111111111, -2.5, 26
1728, 111.111111111, 0, 16.3333333333
1729, 0, -10, 60
1730, 0, -5, 60
1731, 0, -5, 80
1732, 0, 0, 60
1733, 55.5555555556, -10, 62.3333333333
1734, 55.5555555556, -10, 82
1735, 55.5555555556, -5, 62.3333333333
1736, 55.5555555556, -5, 82
1737, 55.5555555556, 0, 62.3333333333
1738, 55.5555555556, 0, 82
1739, 111.111111111, -10, 64.6666666667
1740, 111.111111111, -5, 64.6666666667
1741, 111.111111111, -5, 84
1742, 111.111111111, 0, 64.6666666667
1743, 0, -10, 100
1744, 0, -5, 100
1745, 0, -5, 120
1746, 0, 0, 100
1747, 55.5555555556, -10, 101.666666667
1748, 55.5555555556, -10, 121.333333333
1749, 55.5555555556, -5, 101.666666667
1750, 55.5555555556, -5, 121.333333333
1751, 55.5555555556, 0, 101.666666667
1752, 55.5555555556, 0, 121.333333333
1753, 111.111111111, -10, 103.333333333
1754, 111.111111111, -5, 103.333333333
1755, 111.111111111, -5, 122.666666667
1756, 111.111111111, 0, 103.333333333
1757, 55.5555555556, 2.5, 3.33333333333
1758, 55.5555555556, 2.5, 13.1666666667
1759, 55.5555555556, 2.5, 23
1760, 55.5555555556, 5, 13.1666666667
1761, 83.3333333333, 2.5, 5
1762, 83.3333333333, 2.5, 14.75
1763, 83.3333333333, 2.5, 24.5
1764, 83.3333333333, 5, 5
1765, 83.3333333333, 5, 14.75
1766, 83.3333333333, 5, 24.5
1767, 111.111111111, 2.5, 6.66666666667
1768, 111.111111111, 2.5, 16.3333333333
1769, 111.111111111, 2.5, 26
1770, 111.111111111, 5, 16.3333333333
1771, 55.5555555556, 7.5, 3.33333333333
1772, 55.5555555556, 7.5, 13.1666666667
1773, 55.5555555556, 7.5, 23
1774, 55.5555555556, 10, 13.1666666667
1775, 83.3333333333, 7.5, 5
1776, 83.3333333333, 7.5, 14.75
1777, 83.3333333333, 7.5, 24.5
1778, 83.3333333333, 10, 5
1779, 83.3333333333, 10, 14.75
1780, 83.3333333333, 10, 24.5
1781, 111.111111111, 7.5, 6.66666666667
1782, 111.111111111, 7.5, 16.3333333333
1783, 111.111111111, 7.5, 26
1784, 111.111111111, 10, 16.3333333333
1785, 0, 5, 60
1786, 0, 5, 80
1787, 0, 10, 60
1788, 55.5555555556, 5, 62.3333333333
1789, 55.5555555556, 5, 82
1790, 55.5555555556, 10, 62.3333333333
1791, 55.5555555556, 10, 82
1792, 111.111111111, 5, 64.6666666667
1793, 111.111111111, 5, 84
1794, 111.111111111, 10, 64.6666666667
1795, 0, 5, 100
1796, 0, 5, 120
1797, 0, 10, 100
1798, 55.5555555556, 5, 101.666666667
1799, 55.5555555556, 5, 121.333333333
1800, 55.5555555556, 10, 101.666666667
1801, 55.5555555556, 10, 121.333333333
1802, 111.111111111, 5, 103.333333333
1803, 111.111111111, 5, 122.666666667
1804, 111.111111111, 10, 103.333333333
1805, 166.666666667, -10, 67
1806, 166.666666667, -10, 86
1807, 166.666666667, -5, 67
1808, 166.666666667, -5, 86
1809, 166.666666667, 0, 67
1810, 166.666666667, 0, 86
1811, 222.222222222, -10, 69.3333333333
1812, 222.222222222, -5, 69.3333333333
1813, 222.222222222, -5, 88
1814, 222.222222222, 0, 69.3333333333
1815, 111.111111111, -10, 180.666666667
1816, 111.111111111, -5, 161.333333333
1817, 111.111111111, -5, 180.666666667
1818, 111.111111111, -5, 200
1819, 111.111111111, 0, 180.666666667
1820, 166.666666667, -10, 162
1821, 166.666666667, -10, 181
1822, 166.666666667, -10, 200
1823, 166.666666667, -5, 162
1824, 166.666666667, -5, 181
1825, 166.666666667, -5, 200
1826, 166.666666667, 0, 162
1827, 166.666666667, 0, 181
1828, 166.666666667, 0, 200
1829, 222.222222222, -10, 181.333333333
1830, 222.222222222, -5, 162.666666667
1831, 222.222222222, -5, 181.333333333
1832, 222.222222222, -5, 200
1833, 222.222222222, 0, 181.333333333
1834, 166.666666667, 5, 67
1835, 166.666666667, 5, 86
1836, 166.666666667, 10, 67
1837, 166.666666667, 10, 86
1838, 222.222222222, 5, 69.3333333333
1839, 222.222222222, 5, 88
1840, 222.222222222, 10, 69.3333333333
1841, 111.111111111, 5, 161.333333333
1842, 111.111111111, 5, 180.666666667
1843, 111.111111111, 5, 200
1844, 111.111111111, 10, 180.666666667
1845, 166.666666667, 5, 162
1846, 166.666666667, 5, 181
1847, 166.666666667, 5, 200
1848, 166.666666667, 10, 162
1849, 166.666666667, 10, 181
1850, 166.666666667, 10, 200
1851, 222.222222222, 5, 162.666666667
1852, 222.222222222, 5, 181.333333333
1853, 222.222222222, 5, 200
1854, 222.222222222, 10, 181.333333333
1855, 277.777777778, -10, 16.6666666667
1856, 277.777777778, -10, 35
1857, 277.777777778, -10, 53.3333333333
1858, 277.777777778, -5, 16.6666666667
1859, 277.777777778, -5, 35
1860, 277.777777778, -5, 53.3333333333
1861, 277.777777778, 0, 16.6666666667
1862, 277.777777778, 0, 35
1863, 277.777777778, 0, 53.3333333333
1864, 333.333333333, -10, 38
1865, 333.333333333, -5, 20
1866, 333.333333333, -5, 38
1867, 333.333333333, -5, 56
1868, 333.333333333, 0, 38
1869, 277.777777778, 5, 16.6666666667
1870, 277.777777778, 5, 35
1871, 277.777777778, 5, 53.3333333333
1872, 277.777777778, 10, 16.6666666667
1873, 277.777777778, 10, 35
1874, 277.777777778, 10, 53.3333333333
1875, 333.333333333, 5, 20
1876, 333.333333333, 5, 38
1877, 333.333333333, 5, 56
1878, 333.333333333, 10, 38
1879, 388.888888889, -10, 23.3333333333
1880, 388.888888889, -10, 41
1881, 388.888888889, -10, 58.6666666667
1882, 388.888888889, -5, 23.3333333333
1883, 388.888888889, -5, 41
1884, 388.888888889, -5, 58.6666666667
1885, 388.888888889, 0, 23.3333333333
1886, 388.888888889, 0, 41
1887, 388.888888889, 0, 58.6666666667
1888, 444.444444444, -10, 44
1889, 444.444444444, -5, 26.6666666667
1890, 444.444444444, -5, 44
1891, 444.444444444, -5, 61.3333333333
1892, 444.444444444, 0, 44
1893, 388.888888889, 5, 23.3333333333
1894, 388.888888889, 5, 41
1895, 388.888888889, 5, 58.6666666667
1896, 388.888888889, 10, 23.3333333333
1897, 388.888888889, 10, 41
1898, 388.888888889, 10, 58.6666666667
1899, 444.444444444, 5, 26.6666666667
1900, 444.444444444, 5, 44
1901, 444.444444444, 5, 61.3333333333
1902, 444.444444444, 10, 44
1903, 500, -10, 30
1904, 500, -10, 47
1905, 500, -10, 64
1906, 500, -5, 30
1907, 500, -5, 47
1908, 500, -5, 64
1909, 500, 0, 30
1910, 500, 0, 47
1911, 500, 0, 64
1912, 555.555555556, -10, 50
1913, 555.555555556, -5, 33.3333333333
1914, 555.555555556, -5, 50
1915, 555.555555556, -5, 66.6666666667
1916, 555.555555556, 0, 50
1917, 500, 5, 30
1918, 500, 5, 47
1919, 500, 5, 64
1920, 500, 10, 30
1921, 500, 10, 47
1922, 500, 10, 64
1923, 555.555555556, 5, 33.3333333333
1924, 555.555555556, 5, 50
1925, 555.555555556, 5, 66.6666666667
1926, 555.555555556, 10, 50
1927, 611.111111111, -10, 36.6666666667
1928, 611.111111111, -10, 53
1929, 611.111111111, -10, 69.3333333333
1930, 611.111111111, -5, 36.6666666667
1931, 611.111111111, -5, 53
1932, 611.111111111, -5, 69.3333333333
1933, 611.111111111, 0, 36.6666666667
1934, 611.111111111, 0, 53
1935, 611.111111111, 0, 69.3333333333
1936, 666.666666667, -10, 56
1937, 666.666666667, -5, 40
1938, 666.666666667, -5, 56
1939, 666.666666667, -5, 72
1940, 666.666666667, 0, 56
1941, 555.555555556, -10, 183.333333333
1942, 555.555555556, -5, 166.666666667
1943, 555.555555556, -5, 183.333333333
1944, 555.555555556, -5, 200
1945, 555.555555556, 0, 183.333333333
1946, 611.111111111, -10, 167.333333333
1947, 611.111111111, -10, 183.666666667
1948, 611.111111111, -10, 200
1949, 611.111111111, -5, 167.333333333
1950, 611.111111111, -5, 183.666666667
1951, 611.111111111, -5, 200
1952, 611.111111111, 0, 167.333333333
1953, 611.111111111, 0, 183.666666667
1954, 611.111111111, 0, 200
1955, 666.666666667, -10, 184
1956, 666.666666667, -5, 168
1957, 666.666666667, -5, 184
1958, 666.666666667, -5, 200
1959, 666.666666667, 0, 184
1960, 611.111111111, 5, 36.6666666667
1961, 611.111111111, 5, 53
1962, 611.111111111, 5, 69.3333333333
1963, 611.111111111, 10, 36.6666666667
1964, 611.111111111, 10, 53
1965, 611.111111111, 10, 69.3333333333
1966, 666.666666667, 5, 40
1967, 666.666666667, 5, 56
1968, 666.666666667, 5, 72
1969, 666.666666667, 10, 56
1970, 555.555555556, 5, 166.666666667
1971, 555.555555556, 5, 183.333333333
1972, 555.555555556, 5, 200
1973, 555.555555556, 10, 183.333333333
1974, 611.111111111, 5, 167.333333333
1975, 611.111111111, 5, 183.666666667
1976, 611.111111111, 5, 200
1977, 611.111111111, 10, 167.333333333
1978, 611.111111111, 10, 183.666666667
1979, 611.111111111, 10, 200
1980, 666.666666667, 5, 168
1981, 666.666666667, 5, 184
1982, 666.666666667, 5, 200
1983, 666.666666667, 10, 184
1984, 722.222222222, -10, 43.3333333333
1985, 722.222222222, -10, 59
1986, 722.222222222, -10, 74.6666666667
1987, 722.222222222, -5, 43.3333333333
1988, 722.222222222, -5, 59
1989, 722.222222222, -5, 74.6666666667
1990, 722.222222222, 0, 43.3333333333
1991, 722.222222222, 0, 59
1992, 722.222222222, 0, 74.6666666667
1993, 722.222222222, -10, 168.666666667
1994, 722.222222222, -10, 184.333333333
1995, 722.222222222, -10, 200
1996, 722.222222222, -5, 168.666666667
1997, 722.222222222, -5, 184.333333333
1998, 722.222222222, -5, 200
1999, 722.222222222, 0, 168.666666667
2000, 722.222222222, 0, 184.333333333
2001, 722.222222222, 0, 200
2002, 777.777777778, -10, 184.666666667
2003, 777.777777778, -5, 169.333333333
2004, 777.777777778, -5, 184.666666667
2005, 777.777777778, -5, 200
2006, 777.777777778, 0, 184.666666667
2007, 722.222222222, 5, 43.3333333333
2008, 722.222222222, 5, 59
2009, 722.222222222, 5, 74.6666666667
2010, 722.222222222, 10, 43.3333333333
2011, 722.222222222, 10, 59
2012, 722.222222222, 10, 74.6666666667
2013, 722.222222222, 5, 168.666666667
2014, 722.222222222, 5, 184.333333333
2015, 722.222222222, 5, 200
2016, 722.222222222, 10, 168.666666667
2017, 722.222222222, 10, 184.333333333
2018, 722.222222222, 10, 200
2019, 777.777777778, 5, 169.333333333
2020, 777.777777778, 5, 184.666666667
2021, 777.777777778, 5, 200
2022, 777.777777778, 10, 184.666666667
2023, 777.777777778, -10, 92.6666666667
2024, 777.777777778, -5, 92.6666666667
2025, 777.777777778, -5, 108
2026, 777.777777778, 0, 92.6666666667
2027, 833.333333333, -10, 95
2028, 833.333333333, -10, 110
2029, 833.333333333, -5, 95
2030, 833.333333333, -5, 110
2031, 833.333333333, 0, 95
2032, 833.333333333, 0, 110
2033, 888.888888889, -10, 97.3333333333
2034, 888.888888889, -5, 97.3333333333
2035, 888.888888889, -5, 112
2036, 888.888888889, 0, 97.3333333333
2037, 833.333333333, -10, 170
2038, 833.333333333, -10, 185
2039, 833.333333333, -10, 200
2040, 833.333333333, -5, 170
2041, 833.333333333, -5, 185
2042, 833.333333333, -5, 200
2043, 833.333333333, 0, 170
2044, 833.333333333, 0, 185
2045, 833.333333333, 0, 200
2046, 888.888888889, -10, 185.333333333
2047, 888.888888889, -5, 170.666666667
2048, 888.888888889, -5, 185.333333333
2049, 888.888888889, -5, 200
2050, 888.888888889, 0, 185.333333333
2051, 777.777777778, 5, 92.6666666667
2052, 777.777777778, 5, 108
2053, 777.777777778, 10, 92.6666666667
2054, 833.333333333, 5, 95
2055, 833.333333333, 5, 110
2056, 833.333333333, 10, 95
2057, 833.333333333, 10, 110
2058, 888.888888889, 5, 97.3333333333
2059, 888.888888889, 5, 112
2060, 888.888888889, 10, 97.3333333333
2061, 833.333333333, 5, 170
2062, 833.333333333, 5, 185
2063, 833.333333333, 5, 200
2064, 833.333333333, 10, 170
2065, 833.333333333, 10, 185
2066, 833.333333333, 10, 200
2067, 888.888888889, 5, 170.666666667
2068, 888.888888889, 5, 185.333333333
2069, 888.888888889, 5, 200
2070, 888.888888889, 10, 185.333333333
2071, 944.444444444, -10, 99.6666666667
2072, 944.444444444, -10, 114
2073, 944.444444444, -5, 99.6666666667
2074, 944.444444444, -5, 114
2075, 944.444444444, 0, 99.6666666667
2076, 944.444444444, 0, 114
2077, 1000, -10, 102
2078, 1000, -5, 102
2079, 1000, -5, 116
2080, 944.444444444, -10, 171.333333333
2081, 944.444444444, -10, 185.666666667
2082, 944.444444444, -10, 200
2083, 944.444444444, -5, 171.333333333
2084, 944.444444444, -5, 185.666666667
2085, 944.444444444, -5, 200
2086, 944.444444444, 0, 171.333333333
2087, 944.444444444, 0, 185.666666667
2088, 944.444444444, 0, 200
2089, 1000, -10, 186
2090, 1000, -5, 172
2091, 1000, -5, 186
2092, 1000, -5, 200
2093, 1000, 0, 186
2094, 888.888888889, 0, 60.6666666667
2095, 888.888888889, 2.5, 53.3333333333
2096, 888.888888889, 2.5, 60.6666666667
2097, 888.888888889, 2.5, 68
2098, 888.888888889, 5, 60.6666666667
2099, 916.666666667, 0, 55
2100, 916.666666667, 0, 62.25
2101, 916.666666667, 0, 69.5
2102, 916.666666667, 2.5, 55
2103, 916.666666667, 2.5, 62.25
2104, 916.666666667, 2.5, 69.5
2105, 916.666666667, 5, 55
2106, 916.666666667, 5, 62.25
2107, 916.666666667, 5, 69.5
2108, 944.444444444, 0, 63.8333333333
2109, 944.444444444, 2.5, 56.6666666667
2110, 944.444444444, 2.5, 63.8333333333
2111, 944.444444444, 2.5, 71
2112, 944.444444444, 5, 63.8333333333
2113, 888.888888889, 7.5, 53.3333333333
2114, 888.888888889, 7.5, 60.6666666667
2115, 888.888888889, 7.5, 68
2116, 888.888888889, 10, 60.6666666667
2117, 916.666666667, 7.5, 55
2118, 916.666666667, 7.5, 62.25
2119, 916.666666667, 7.5, 69.5
2120, 916.666666667, 10, 55
2121, 916.666666667, 10, 62.25
2122, 916.666666667, 10, 69.5
2123, 944.444444444, 7.5, 56.6666666667
2124, 944.444444444, 7.5, 63.8333333333
2125, 944.444444444, 7.5, 71
2126, 944.444444444, 10, 63.8333333333
2127, 944.444444444, 5, 99.6666666667
2128, 944.444444444, 5, 114
2129, 944.444444444, 10, 99.6666666667
2130, 944.444444444, 10, 114
2131, 944.444444444, 5, 171.333333333
2132, 944.444444444, 5, 185.666666667
2133, 944.444444444, 5, 200
2134, 944.444444444, 10, 171.333333333
2135, 944.444444444, 10, 185.666666667
2136, 944.444444444, 10, 200
2137, 1000, 5, 172
2138, 1000, 5, 186
2139, 1000, 5, 200
2140, 1000, 10, 186
2141, 1000, -10, 67
2142, 1000, -7.5, 60
2143, 1000, -7.5, 67
2144, 1000, -7.5, 74
2145, 1000, -5, 67
2146, 1027.77777778, -10, 61.6666666667
2147, 1027.77777778, -10, 68.5833333333
2148, 1027.77777778, -10, 75.5
2149, 1027.77777778, -7.5, 61.6666666667
2150, 1027.77777778, -7.5, 68.5833333333
2151, 1027.77777778, -7.5, 75.5
2152, 1027.77777778, -5, 61.6666666667
2153, 1027.77777778, -5, 68.5833333333
2154, 1027.77777778, -5, 75.5
2155, 1055.55555556, -10, 70.1666666667
2156, 1055.55555556, -7.5, 63.3333333333
2157, 1055.55555556, -7.5, 70.1666666667
2158, 1055.55555556, -7.5, 77
2159, 1055.55555556, -5, 70.1666666667
2160, 1000, -2.5, 60
2161, 1000, -2.5, 67
2162, 1000, -2.5, 74
2163, 1000, 0, 67
2164, 1027.77777778, -2.5, 61.6666666667
2165, 1027.77777778, -2.5, 68.5833333333
2166, 1027.77777778, -2.5, 75.5
2167, 1027.77777778, 0, 61.6666666667
2168, 1027.77777778, 0, 68.5833333333
2169, 1027.77777778, 0, 75.5
2170, 1055.55555556, -2.5, 63.3333333333
2171, 1055.55555556, -2.5, 70.1666666667
2172, 1055.55555556, -2.5, 77
2173, 1055.55555556, 0, 70.1666666667
2174, 1055.55555556, -10, 104.333333333
2175, 1055.55555556, -10, 118
2176, 1055.55555556, -5, 104.333333333
2177, 1055.55555556, -5, 118
2178, 1055.55555556, -10, 172.666666667
2179, 1055.55555556, -10, 186.333333333
2180, 1055.55555556, -10, 200
2181, 1055.55555556, -5, 172.666666667
2182, 1055.55555556, -5, 186.333333333
2183, 1055.55555556, -5, 200
2184, 1055.55555556, 0, 172.666666667
2185, 1055.55555556, 0, 186.333333333
2186, 1055.55555556, 0, 200
2187, 1111.11111111, -10, 186.666666667
2188, 1111.11111111, -5, 173.333333333
2189, 1111.11111111, -5, 186.666666667
2190, 1111.11111111, -5, 200
2191, 1111.11111111, 0, 186.666666667
2192, 1000, 0, 130
2193, 1000, 5, 130
2194, 1000, 5, 144
2195, 1000, 10, 130
2196, 1055.55555556, 0, 131.666666667
2197, 1055.55555556, 0, 145.333333333
2198, 1055.55555556, 5, 131.666666667
2199, 1055.55555556, 5, 145.333333333
2200, 1055.55555556, 10, 131.666666667
2201, 1055.55555556, 10, 145.333333333
2202, 1111.11111111, 0, 133.333333333
2203, 1111.11111111, 5, 133.333333333
2204, 1111.11111111, 5, 146.666666667
2205, 1111.11111111, 10, 133.333333333
2206, 1055.55555556, 5, 172.666666667
2207, 1055.55555556, 5, 186.333333333
2208, 1055.55555556, 5, 200
2209, 1055.55555556, 10, 172.666666667
2210, 1055.55555556, 10, 186.333333333
2211, 1055.55555556, 10, 200
2212, 1111.11111111, 5, 173.333333333
2213, 1111.11111111, 5, 186.666666667
2214, 1111.11111111, 5, 200
2215, 1111.11111111, 10, 186.666666667
2216, 1111.11111111, -10, 133.333333333
2217, 1111.11111111, -5, 133.333333333
2218, 1111.11111111, -5, 146.666666667
2219, 1166.66666667, -10, 135
2220, 1166.66666667, -10, 148
2221, 1166.66666667, -5, 135
2222, 1166.66666667, -5, 148
2223, 1166.66666667, 0, 135
2224, 1166.66666667, 0, 148
2225, 1166.66666667, -10, 174
2226, 1166.66666667, -10, 187
2227, 1166.66666667, -10, 200
2228, 1166.66666667, -5, 174
2229, 1166.66666667, -5, 187
2230, 1166.66666667, -5, 200
2231, 1166.66666667, 0, 174
2232, 1166.66666667, 0, 187
2233, 1166.66666667, 0, 200
2234, 1222.22222222, -10, 187.333333333
2235, 1222.22222222, -5, 174.666666667
2236, 1222.22222222, -5, 187.333333333
2237, 1222.22222222, -5, 200
2238, 1222.22222222, 0, 187.333333333
2239, 1166.66666667, 5, 135
2240, 1166.66666667, 5, 148
2241, 1166.66666667, 10, 135
2242, 1166.66666667, 10, 148
2243, 1166.66666667, 5, 174
2244, 1166.66666667, 5, 187
2245, 1166.66666667, 5, 200
2246, 1166.66666667, 10, 174
2247, 1166.66666667, 10, 187
2248, 1166.66666667, 10, 200
2249, 1222.22222222, 5, 174.666666667
2250, 1222.22222222, 5, 187.333333333
2251, 1222.22222222, 5, 200
2252, 1222.22222222, 10, 187.333333333
2253, 1111.11111111, -10, 205
2254, 1111.11111111, -5, 205
2255, 1111.11111111, -5, 210
2256, 1111.11111111, 0, 205
2257, 1166.66666667, -10, 205
2258, 1166.66666667, -10, 210
2259, 1166.66666667, -5, 205
2260, 1166.66666667, -5, 210
2261, 1166.66666667, 0, 205
2262, 1166.66666667, 0, 210
2263, 1222.22222222, -10, 205
2264, 1222.22222222, -5, 205
2265, 1222.22222222, -5, 210
2266, 1222.22222222, 0, 205
2267, 1111.11111111, 5, 205
2268, 1111.11111111, 5, 210
2269, 1111.11111111, 10, 205
2270, 1166.66666667, 5, 205
2271, 1166.66666667, 5, 210
2272, 1166.66666667, 10, 205
2273, 1166.66666667, 10, 210
2274, 1222.22222222, 5, 205
2275, 1222.22222222, 5, 210
2276, 1222.22222222, 10, 205
2277, 1222.22222222, -10, 162
2278, 1222.22222222, -5, 162
2279, 1222.22222222, 0, 162
2280, 1277.77777778, -10, 163
2281, 1277.77777778, -10, 175.333333333
2282, 1277.77777778, -5, 163
2283, 1277.77777778, -5, 175.333333333
2284, 1277.77777778, 0, 163
2285, 1277.77777778, 0, 175.333333333
2286, 1333.33333333, -10, 164
2287, 1333.33333333, -5, 164
2288, 1333.33333333, -5, 176
2289, 1333.33333333, 0, 164
2290, 1277.77777778, -10, 187.666666667
2291, 1277.77777778, -10, 200
2292, 1277.77777778, -5, 187.666666667
2293, 1277.77777778, -5, 200
2294, 1277.77777778, 0, 187.666666667
2295, 1277.77777778, 0, 200
2296, 1333.33333333, -10, 188
2297, 1333.33333333, -5, 188
2298, 1333.33333333, -5, 200
2299, 1333.33333333, 0, 188
2300, 1222.22222222, 5, 162
2301, 1222.22222222, 10, 162
2302, 1277.77777778, 5, 163
2303, 1277.77777778, 5, 175.333333333
2304, 1277.77777778, 10, 163
2305, 1277.77777778, 10, 175.333333333
2306, 1333.33333333, 5, 164
2307, 1333.33333333, 5, 176
2308, 1333.33333333, 10, 164
2309, 1277.77777778, 5, 187.666666667
2310, 1277.77777778, 5, 200
2311, 1277.77777778, 10, 187.666666667
2312, 1277.77777778, 10, 200
2313, 1333.33333333, 5, 188
2314, 1333.33333333, 5, 200
2315, 1333.33333333, 10, 188
2316, 1277.77777778, -10, 205
2317, 1277.77777778, -10, 210
2318, 1277.77777778, -5, 205
2319, 1277.77777778, -5, 210
2320, 1277.77777778, 0, 205
2321, 1277.77777778, 0, 210
2322, 1333.33333333, -10, 205
2323, 1333.33333333, -5, 205
2324, 1333.33333333, -5, 210
2325, 1333.33333333, 0, 205
2326, 1277.77777778, 5, 205
2327, 1277.77777778, 5, 210
2328, 1277.77777778, 10, 205
2329, 1277.77777778, 10, 210
2330, 1333.33333333, 5, 205
2331, 1333.33333333, 5, 210
2332, 1333.33333333, 10, 205
2333, 1388.88888889, -10, 165
2334, 1388.88888889, -10, 176.666666667
2335, 1388.88888889, -5, 165
2336, 1388.88888889, -5, 176.666666667
2337, 1388.88888889, 0, 165
2338, 1388.88888889, 0, 176.666666667
2339, 1444.44444444, -10, 166
2340, 1444.44444444, -5, 166
2341, 1444.44444444, 0, 166
2342, 1388.88888889, -10, 188.333333333
2343, 1388.88888889, -10, 200
2344, 1388.88888889, -5, 188.333333333
2345, 1388.88888889, -5, 200
2346, 1388.88888889, 0, 188.333333333
2347, 1388.88888889, 0, 200
2348, 1388.88888889, 5, 165
2349, 1388.88888889, 5, 176.666666667
2350, 1388.88888889, 10, 165
2351, 1388.88888889, 10, 176.666666667
2352, 1444.44444444, 5, 166
2353, 1444.44444444, 10, 166
2354, 1388.88888889, 5, 188.333333333
2355, 1388.88888889, 5, 200
2356, 1388.88888889, 10, 188.333333333
2357, 1388.88888889, 10, 200
2358, 1388.88888889, -10, 205
2359, 1388.88888889, -10, 210
2360, 1388.88888889, -5, 205
2361, 1388.88888889, -5, 210
2362, 1388.88888889, 0, 205
2363, 1388.88888889, 0, 210
2364, 1444.44444444, -10, 205
2365, 1444.44444444, -5, 205
2366, 1444.44444444, -5, 210
2367, 1444.44444444, 0, 205
2368, 1388.88888889, 5, 205
2369, 1388.88888889, 5, 210
2370, 1388.88888889, 10, 205
2371, 1388.88888889, 10, 210
2372, 1444.44444444, 5, 205
2373, 1444.44444444, 5, 210
2374, 1444.44444444, 10, 205
2375, 1500, -10, 167
2376, 1500, -5, 167
2377, 1500, 0, 167
2378, 1500, 5, 167
2379, 1500, 10, 167
2380, 1555.55555556, -10, 205
2381, 1555.55555556, -5, 205
2382, 1555.55555556, -5, 210
2383, 1555.55555556, 0, 205
2384, 1611.11111111, -10, 205
2385, 1611.11111111, -10, 210
2386, 1611.11111111, -5, 205
2387, 1611.11111111, -5, 210
2388, 1611.11111111, 0, 205
2389, 1611.11111111, 0, 210
2390, 1666.66666667, -10, 205
2391, 1666.66666667, -5, 205
2392, 1666.66666667, -5, 210
2393, 1666.66666667, 0, 205
2394, 1555.55555556, 5, 205
2395, 1555.55555556, 5, 210
2396, 1555.55555556, 10, 205
2397, 1611.11111111, 5, 205
2398, 1611.11111111, 5, 210
2399, 1611.11111111, 10, 205
2400, 1611.11111111, 10, 210
2401, 1666.66666667, 5, 205
2402, 1666.66666667, 5, 210
2403, 1666.66666667, 10, 205
2404, 1888.88888889, -10, 117.666666667
2405, 1888.88888889, -7.5, 113.333333333
2406, 1888.88888889, -7.5, 117.666666667
2407, 1888.88888889, -7.5, 122
2408, 1888.88888889, -5, 117.666666667
2409, 1916.66666667, -10, 115
2410, 1916.66666667, -10, 119.25
2411, 1916.66666667, -10, 123.5
2412, 1916.66666667, -7.5, 115
2413, 1916.66666667, -7.5, 119.25
2414, 1916.66666667, -7.5, 123.5
2415, 1916.66666667, -5, 115
2416, 1916.66666667, -5, 119.25
2417, 1916.66666667, -5, 123.5
2418, 1944.44444444, -10, 120.833333333
2419, 1944.44444444, -7.5, 116.666666667
2420, 1944.44444444, -7.5, 120.833333333
2421, 1944.44444444, -7.5, 125
2422, 1944.44444444, -5, 120.833333333
2423, 1888.88888889, -2.5, 113.333333333
2424, 1888.88888889, -2.5, 117.666666667
2425, 1888.88888889, -2.5, 122
2426, 1888.88888889, 0, 117.666666667
2427, 1916.66666667, -2.5, 115
2428, 1916.66666667, -2.5, 119.25
2429, 1916.66666667, -2.5, 123.5
2430, 1916.66666667, 0, 115
2431, 1916.66666667, 0, 119.25
2432, 1916.66666667, 0, 123.5
2433, 1944.44444444, -2.5, 116.666666667
2434, 1944.44444444, -2.5, 120.833333333
2435, 1944.44444444, -2.5, 125
2436, 1944.44444444, 0, 120.833333333
2437, 1972.22222222, -10, 118.333333333
2438, 1972.22222222, -10, 122.416666667
2439, 1972.22222222, -10, 126.5
2440, 1972.22222222, -7.5, 118.333333333
2441, 1972.22222222, -7.5, 122.416666667
2442, 1972.22222222, -7.5, 126.5
2443, 1972.22222222, -5, 118.333333333
2444, 1972.22222222, -5, 122.416666667
2445, 1972.22222222, -5, 126.5
2446, 2000, -10, 124
2447, 2000, -7.5, 120
2448, 2000, -7.5, 124
2449, 2000, -7.5, 128
2450, 2000, -5, 124
2451, 1972.22222222, -2.5, 118.333333333
2452, 1972.22222222, -2.5, 122.416666667
2453, 1972.22222222, -2.5, 126.5
2454, 1972.22222222, 0, 118.333333333
2455, 1972.22222222, 0, 122.416666667
2456, 1972.22222222, 0, 126.5
2457, 2000, -2.5, 120
2458, 2000, -2.5, 124
2459, 2000, -2.5, 128
2460, 2000, 0, 124
2461, 1888.88888889, 2.5, 113.333333333
2462, 1888.88888889, 2.5, 117.666666667
2463, 1888.88888889, 2.5, 122
2464, 1888.88888889, 5, 117.666666667
2465, 1916.66666667, 2.5, 115
2466, 1916.66666667, 2.5, 119.25
2467, 1916.66666667, 2.5, 123.5
2468, 1916.66666667, 5, 115
2469, 1916.66666667, 5, 119.25
2470, 1916.66666667, 5, 123.5
2471, 1944.44444444, 2.5, 116.666666667
2472, 1944.44444444, 2.5, 120.833333333
2473, 1944.44444444, 2.5, 125
2474, 1944.44444444, 5, 120.833333333
2475, 1888.88888889, 7.5, 113.333333333
2476, 1888.88888889, 7.5, 117.666666667
2477, 1888.88888889, 7.5, 122
2478, 1888.88888889, 10, 117.666666667
2479, 1916.66666667, 7.5, 115
2480, 1916.66666667, 7.5, 119.25
2481, 1916.66666667, 7.5, 123.5
2482, 1916.66666667, 10, 115
2483, 1916.66666667, 10, 119.25
2484, 1916.66666667, 10, 123.5
2485, 1944.44444444, 7.5, 116.666666667
2486, 1944.44444444, 7.5, 120.833333333
2487, 1944.44444444, 7.5, 125
2488, 1944.44444444, 10, 120.833333333
2489, 1972.22222222, 2.5, 118.333333333
2490, 1972.22222222, 2.5, 122.416666667
2491, 1972.22222222, 2.5, 126.5
2492, 1972.22222222, 5, 118.333333333
2493, 1972.22222222, 5, 122.416666667
2494, 1972.22222222, 5, 126.5
2495, 2000, 2.5, 120
2496, 2000, 2.5, 124
2497, 2000, 2.5, 128
2498, 2000, 5, 124
2499, 1972.22222222, 7.5, 118.333333333
2500, 1972.22222222, 7.5, 122.416666667
2501, 1972.22222222, 7.5, 126.5
2502, 1972.22222222, 10, 118.333333333
2503, 1972.22222222, 10, 122.416666667
2504, 1972.22222222, 10, 126.5
2505, 2000, 7.5, 120
2506, 2000, 7.5, 124
2507, 2000, 7.5, 128
2508, 2000, 10, 124
2509, 1888.88888889, -37.5, 205
2510, 1888.88888889, -23.75, 200
2511, 1888.88888889, -23.75, 205
2512, 1888.88888889, -23.75, 210
2513, 1888.88888889, -10, 205
2514, 1944.44444444, -37.5, 200
2515, 1944.44444444, -37.5, 205
2516, 1944.44444444, -37.5, 210
2517, 1944.44444444, -23.75, 200
2518, 1944.44444444, -23.75, 205
2519, 1944.44444444, -23.75, 210
2520, 1944.44444444, -10, 205
2521, 1944.44444444, -10, 210
2522, 2000, -37.5, 205
2523, 2000, -23.75, 200
2524, 2000, -23.75, 205
2525, 2000, -23.75, 210
2526, 2000, -10, 205
2527, 1888.88888889, -37.5, 215
2528, 1888.88888889, -23.75, 215
2529, 1888.88888889, -23.75, 220
2530, 1888.88888889, -10, 215
2531, 1944.44444444, -37.5, 215
2532, 1944.44444444, -37.5, 220
2533, 1944.44444444, -23.75, 215
2534, 1944.44444444, -23.75, 220
2535, 1944.44444444, -10, 215
2536, 1944.44444444, -10, 220
2537, 2000, -37.5, 215
2538, 2000, -23.75, 215
2539, 2000, -23.75, 220
2540, 2000, -10, 215
2541, 1888.88888889, -5, 205
2542, 1888.88888889, -5, 210
2543, 1888.88888889, 0, 205
2544, 1944.44444444, -5, 205
2545, 1944.44444444, -5, 210
2546, 1944.44444444, 0, 205
2547, 1944.44444444, 0, 210
2548, 2000, -5, 205
2549, 2000, -5, 210
2550, 2000, 0, 205
2551, 1888.88888889, -5, 215
2552, 1888.88888889, -5, 220
2553, 1888.88888889, 0, 215
2554, 1944.44444444, -5, 215
2555, 1944.44444444, -5, 220
2556, 1944.44444444, 0, 215
2557, 1944.44444444, 0, 220
2558, 2000, -5, 215
2559, 2000, -5, 220
2560, 2000, 0, 215
2561, 1888.88888889, 5, 205
2562, 1888.88888889, 5, 210
2563, 1888.88888889, 10, 205
2564, 1944.44444444, 5, 205
2565, 1944.44444444, 5, 210
2566, 1944.44444444, 10, 205
2567, 1944.44444444, 10, 210
2568, 2000, 5, 205
2569, 2000, 5, 210
2570, 2000, 10, 205
2571, 1888.88888889, 5, 215
2572, 1888.88888889, 5, 220
2573, 1888.88888889, 10, 215
2574, 1944.44444444, 5, 215
2575, 1944.44444444, 5, 220
2576, 1944.44444444, 10, 215
2577, 1944.44444444, 10, 220
2578, 2000, 5, 215
2579, 2000, 5, 220
2580, 2000, 10, 215
2581, 1888.88888889, 23.75, 200
2582, 1888.88888889, 23.75, 205
2583, 1888.88888889, 23.75, 210
2584, 1888.88888889, 37.5, 205
2585, 1944.44444444, 23.75, 200
2586, 1944.44444444, 23.75, 205
2587, 1944.44444444, 23.75, 210
2588, 1944.44444444, 37.5, 200
2589, 1944.44444444, 37.5, 205
2590, 1944.44444444, 37.5, 210
2591, 2000, 23.75, 200
2592, 2000, 23.75, 205
2593, 2000, 23.75, 210
2594, 2000, 37.5, 205
2595, 1888.88888889, 23.75, 215
2596, 1888.88888889, 23.75, 220
2597, 1888.88888889, 37.5, 215
2598, 1944.44444444, 23.75, 215
2599, 1944.44444444, 23.75, 220
2600, 1944.44444444, 37.5, 215
2601, 1944.44444444, 37.5, 220
2602, 2000, 23.75, 215
2603, 2000, 23.75, 220
2604, 2000, 37.5, 215
2605, 0, -10, 140
2606, 0, -5, 140
2607, 0, -5, 160
2608, 0, 0, 140
2609, 55.5555555556, -10, 141
2610, 55.5555555556, -10, 160.666666667
2611, 55.5555555556, -5, 141
2612, 55.5555555556, -5, 160.666666667
2613, 55.5555555556, 0, 141
2614, 55.5555555556, 0, 160.666666667
2615, 111.111111111, -10, 142
2616, 111.111111111, -5, 142
2617, 111.111111111, 0, 142
2618, 0, -10, 180
2619, 0, -5, 180
2620, 0, -5, 200
2621, 0, 0, 180
2622, 55.5555555556, -10, 180.333333333
2623, 55.5555555556, -10, 200
2624, 55.5555555556, -5, 180.333333333
2625, 55.5555555556, -5, 200
2626, 55.5555555556, 0, 180.333333333
2627, 55.5555555556, 0, 200
2628, 0, 5, 140
2629, 0, 5, 160
2630, 0, 10, 140
2631, 55.5555555556, 5, 141
2632, 55.5555555556, 5, 160.666666667
2633, 55.5555555556, 10, 141
2634, 55.5555555556, 10, 160.666666667
2635, 111.111111111, 5, 142
2636, 111.111111111, 10, 142
2637, 0, 5, 180
2638, 0, 5, 200
2639, 0, 10, 180
2640, 55.5555555556, 5, 180.333333333
2641, 55.5555555556, 5, 200
2642, 55.5555555556, 10, 180.333333333
2643, 55.5555555556, 10, 200
2644, 166.666666667, -10, 105
2645, 166.666666667, -10, 124
2646, 166.666666667, -5, 105
2647, 166.666666667, -5, 124
2648, 166.666666667, 0, 105
2649, 166.666666667, 0, 124
2650, 222.222222222, -10, 106.666666667
2651, 222.222222222, -5, 106.666666667
2652, 222.222222222, -5, 125.333333333
2653, 222.222222222, 0, 106.666666667
2654, 166.666666667, 5, 105
2655, 166.666666667, 5, 124
2656, 166.666666667, 10, 105
2657, 166.666666667, 10, 124
2658, 222.222222222, 5, 106.666666667
2659, 222.222222222, 5, 125.333333333
2660, 222.222222222, 10, 106.666666667
2661, 277.777777778, -10, 71.6666666667
2662, 277.777777778, -10, 90
2663, 277.777777778, -5, 71.6666666667
2664, 277.777777778, -5, 90
2665, 277.777777778, 0, 71.6666666667
2666, 277.777777778, 0, 90
2667, 333.333333333, -10, 74
2668, 333.333333333, -5, 74
2669, 333.333333333, -5, 92
2670, 333.333333333, 0, 74
2671, 277.777777778, -10, 163.333333333
2672, 277.777777778, -10, 181.666666667
2673, 277.777777778, -10, 200
2674, 277.777777778, -5, 163.333333333
2675, 277.777777778, -5, 181.666666667
2676, 277.777777778, -5, 200
2677, 277.777777778, 0, 163.333333333
2678, 277.777777778, 0, 181.666666667
2679, 277.777777778, 0, 200
2680, 333.333333333, -10, 182
2681, 333.333333333, -5, 164
2682, 333.333333333, -5, 182
2683, 333.333333333, -5, 200
2684, 333.333333333, 0, 182
2685, 277.777777778, 5, 71.6666666667
2686, 277.777777778, 5, 90
2687, 277.777777778, 10, 71.6666666667
2688, 277.777777778, 10, 90
2689, 333.333333333, 5, 74
2690, 333.333333333, 5, 92
2691, 333.333333333, 10, 74
2692, 277.777777778, 5, 163.333333333
2693, 277.777777778, 5, 181.666666667
2694, 277.777777778, 5, 200
2695, 277.777777778, 10, 163.333333333
2696, 277.777777778, 10, 181.666666667
2697, 277.777777778, 10, 200
2698, 333.333333333, 5, 164
2699, 333.333333333, 5, 182
2700, 333.333333333, 5, 200
2701, 333.333333333, 10, 182
2702, 388.888888889, -10, 76.3333333333
2703, 388.888888889, -10, 94
2704, 388.888888889, -5, 76.3333333333
2705, 388.888888889, -5, 94
2706, 388.888888889, 0, 76.3333333333
2707, 388.888888889, 0, 94
2708, 444.444444444, -10, 78.6666666667
2709, 444.444444444, -5, 78.6666666667
2710, 444.444444444, -5, 96
2711, 444.444444444, 0, 78.6666666667
2712, 388.888888889, -10, 164.666666667
2713, 388.888888889, -10, 182.333333333
2714, 388.888888889, -10, 200
2715, 388.888888889, -5, 164.666666667
2716, 388.888888889, -5, 182.333333333
2717, 388.888888889, -5, 200
2718, 388.888888889, 0, 164.666666667
2719, 388.888888889, 0, 182.333333333
2720, 388.888888889, 0, 200
2721, 444.444444444, -10, 182.666666667
2722, 444.444444444, -5, 165.333333333
2723, 444.444444444, -5, 182.666666667
2724, 444.444444444, -5, 200
2725, 444.444444444, 0, 182.666666667
2726, 388.888888889, 5, 76.3333333333
2727, 388.888888889, 5, 94
2728, 388.888888889, 10, 76.3333333333
2729, 388.888888889, 10, 94
2730, 444.444444444, 5, 78.6666666667
2731, 444.444444444, 5, 96
2732, 444.444444444, 10, 78.6666666667
2733, 388.888888889, 5, 164.666666667
2734, 388.888888889, 5, 182.333333333
2735, 388.888888889, 5, 200
2736, 388.888888889, 10, 164.666666667
2737, 388.888888889, 10, 182.333333333
2738, 388.888888889, 10, 200
2739, 444.444444444, 5, 165.333333333
2740, 444.444444444, 5, 182.666666667
2741, 444.444444444, 5, 200
2742, 444.444444444, 10, 182.666666667
2743, 500, -10, 81
2744, 500, -10, 98
2745, 500, -5, 81
2746, 500, -5, 98
2747, 500, 0, 81
2748, 500, 0, 98
2749, 555.555555556, -10, 83.3333333333
2750, 555.555555556, -5, 83.3333333333
2751, 555.555555556, -5, 100
2752, 555.555555556, 0, 83.3333333333
2753, 500, -10, 166
2754, 500, -10, 183
2755, 500, -10, 200
2756, 500, -5, 166
2757, 500, -5, 183
2758, 500, -5, 200
2759, 500, 0, 166
2760, 500, 0, 183
2761, 500, 0, 200
2762, 500, 5, 81
2763, 500, 5, 98
2764, 500, 10, 81
2765, 500, 10, 98
2766, 555.555555556, 5, 83.3333333333
2767, 555.555555556, 5, 100
2768, 555.555555556, 10, 83.3333333333
2769, 500, 5, 166
2770, 500, 5, 183
2771, 500, 5, 200
2772, 500, 10, 166
2773, 500, 10, 183
2774, 500, 10, 200
2775, 611.111111111, -10, 85.6666666667
2776, 611.111111111, -10, 102
2777, 611.111111111, -5, 85.6666666667
2778, 611.111111111, -5, 102
2779, 611.111111111, 0, 85.6666666667
2780, 611.111111111, 0, 102
2781, 666.666666667, -10, 88
2782, 666.666666667, -5, 88
2783, 666.666666667, -5, 104
2784, 666.666666667, 0, 88
2785, 555.555555556, -10, 150
2786, 555.555555556, -5, 133.333333333
2787, 555.555555556, -5, 150
2788, 555.555555556, 0, 150
2789, 611.111111111, -10, 134.666666667
2790, 611.111111111, -10, 151
2791, 611.111111111, -5, 134.666666667
2792, 611.111111111, -5, 151
2793, 611.111111111, 0, 134.666666667
2794, 611.111111111, 0, 151
2795, 666.666666667, -10, 152
2796, 666.666666667, -5, 136
2797, 666.666666667, -5, 152
2798, 666.666666667, 0, 152
2799, 611.111111111, 5, 85.6666666667
2800, 611.111111111, 5, 102
2801, 611.111111111, 10, 85.6666666667
2802, 611.111111111, 10, 102
2803, 666.666666667, 5, 88
2804, 666.666666667, 5, 104
2805, 666.666666667, 10, 88
2806, 555.555555556, 5, 133.333333333
2807, 555.555555556, 5, 150
2808, 555.555555556, 10, 150
2809, 611.111111111, 5, 134.666666667
2810, 611.111111111, 5, 151
2811, 611.111111111, 10, 134.666666667
2812, 611.111111111, 10, 151
2813, 666.666666667, 5, 136
2814, 666.666666667, 5, 152
2815, 666.666666667, 10, 152
2816, 555.555555556, -10, 205
2817, 555.555555556, -5, 205
2818, 555.555555556, -5, 210
2819, 555.555555556, 0, 205
2820, 611.111111111, -10, 205
2821, 611.111111111, -10, 210
2822, 611.111111111, -5, 205
2823, 611.111111111, -5, 210
2824, 611.111111111, 0, 205
2825, 611.111111111, 0, 210
2826, 666.666666667, -10, 205
2827, 666.666666667, -5, 205
2828, 666.666666667, -5, 210
2829, 666.666666667, 0, 205
2830, 555.555555556, 5, 205
2831, 555.555555556, 5, 210
2832, 555.555555556, 10, 205
2833, 611.111111111, 5, 205
2834, 611.111111111, 5, 210
2835, 611.111111111, 10, 205
2836, 611.111111111, 10, 210
2837, 666.666666667, 5, 205
2838, 666.666666667, 5, 210
2839, 666.666666667, 10, 205
2840, 722.222222222, -10, 90.3333333333
2841, 722.222222222, -10, 106
2842, 722.222222222, -5, 90.3333333333
2843, 722.222222222, -5, 106
2844, 722.222222222, 0, 90.3333333333
2845, 722.222222222, 0, 106
2846, 722.222222222, -10, 137.333333333
2847, 722.222222222, -10, 153
2848, 722.222222222, -5, 137.333333333
2849, 722.222222222, -5, 153
2850, 722.222222222, 0, 137.333333333
2851, 722.222222222, 0, 153
2852, 777.777777778, -10, 154
2853, 777.777777778, -5, 138.666666667
2854, 777.777777778, -5, 154
2855, 777.777777778, 0, 154
2856, 666.666666667, 5, 48
2857, 666.666666667, 7.5, 40
2858, 666.666666667, 7.5, 48
2859, 666.666666667, 7.5, 56
2860, 666.666666667, 10, 48
2861, 694.444444444, 5, 41.6666666667
2862, 694.444444444, 5, 49.5833333333
2863, 694.444444444, 5, 57.5
2864, 694.444444444, 7.5, 41.6666666667
2865, 694.444444444, 7.5, 49.5833333333
2866, 694.444444444, 7.5, 57.5
2867, 694.444444444, 10, 41.6666666667
2868, 694.444444444, 10, 49.5833333333
2869, 694.444444444, 10, 57.5
2870, 722.222222222, 5, 51.1666666667
2871, 722.222222222, 7.5, 43.3333333333
2872, 722.222222222, 7.5, 51.1666666667
2873, 722.222222222, 7.5, 59
2874, 722.222222222, 10, 51.1666666667
2875, 722.222222222, 5, 90.3333333333
2876, 722.222222222, 5, 106
2877, 722.222222222, 10, 90.3333333333
2878, 722.222222222, 10, 106
2879, 722.222222222, 5, 137.333333333
2880, 722.222222222, 5, 153
2881, 722.222222222, 10, 137.333333333
2882, 722.222222222, 10, 153
2883, 777.777777778, 5, 138.666666667
2884, 777.777777778, 5, 154
2885, 777.777777778, 10, 154
2886, 722.222222222, -10, 205
2887, 722.222222222, -10, 210
2888, 722.222222222, -5, 205
2889, 722.222222222, -5, 210
2890, 722.222222222, 0, 205
2891, 722.222222222, 0, 210
2892, 777.777777778, -10, 205
2893, 777.777777778, -5, 205
2894, 777.777777778, -5, 210
2895, 777.777777778, 0, 205
2896, 722.222222222, 5, 205
2897, 722.222222222, 5, 210
2898, 722.222222222, 10, 205
2899, 722.222222222, 10, 210
2900, 777.777777778, 5, 205
2901, 777.777777778, 5, 210
2902, 777.777777778, 10, 205
2903, 777.777777778, -10, 123.333333333
2904, 777.777777778, -5, 123.333333333
2905, 777.777777778, 0, 123.333333333
2906, 833.333333333, -10, 125
2907, 833.333333333, -10, 140
2908, 833.333333333, -5, 125
2909, 833.333333333, -5, 140
2910, 833.333333333, 0, 125
2911, 833.333333333, 0, 140
2912, 888.888888889, -10, 126.666666667
2913, 888.888888889, -5, 126.666666667
2914, 888.888888889, -5, 141.333333333
2915, 888.888888889, 0, 126.666666667
2916, 833.333333333, -10, 155
2917, 833.333333333, -5, 155
2918, 833.333333333, 0, 155
2919, 888.888888889, -10, 156
2920, 888.888888889, -5, 156
2921, 888.888888889, 0, 156
2922, 777.777777778, 5, 123.333333333
2923, 777.777777778, 10, 123.333333333
2924, 833.333333333, 5, 125
2925, 833.333333333, 5, 140
2926, 833.333333333, 10, 125
2927, 833.333333333, 10, 140
2928, 888.888888889, 5, 126.666666667
2929, 888.888888889, 5, 141.333333333
2930, 888.888888889, 10, 126.666666667
2931, 833.333333333, 5, 155
2932, 833.333333333, 10, 155
2933, 888.888888889, 5, 156
2934, 888.888888889, 10, 156
2935, 833.333333333, -10, 205
2936, 833.333333333, -10, 210
2937, 833.333333333, -5, 205
2938, 833.333333333, -5, 210
2939, 833.333333333, 0, 205
2940, 833.333333333, 0, 210
2941, 888.888888889, -10, 205
2942, 888.888888889, -5, 205
2943, 888.888888889, -5, 210
2944, 888.888888889, 0, 205
2945, 833.333333333, 5, 205
2946, 833.333333333, 5, 210
2947, 833.333333333, 10, 205
2948, 833.333333333, 10, 210
2949, 888.888888889, 5, 205
2950, 888.888888889, 5, 210
2951, 888.888888889, 10, 205
2952, 944.444444444, -10, 128.333333333
2953, 944.444444444, -10, 142.666666667
2954, 944.444444444, -5, 128.333333333
2955, 944.444444444, -5, 142.666666667
2956, 944.444444444, 0, 128.333333333
2957, 944.444444444, 0, 142.666666667
2958, 1000, -10, 130
2959, 1000, -5, 130
2960, 1000, -5, 144
2961, 944.444444444, -10, 157
2962, 944.444444444, -5, 157
2963, 944.444444444, 0, 157
2964, 1000, -10, 158
2965, 1000, -5, 158
2966, 1000, 0, 158
2967, 944.444444444, 5, 128.333333333
2968, 944.444444444, 5, 142.666666667
2969, 944.444444444, 10, 128.333333333
2970, 944.444444444, 10, 142.666666667
2971, 944.444444444, 5, 157
2972, 944.444444444, 10, 157
2973, 1000, 5, 158
2974, 1000, 10, 158
2975, 944.444444444, -10, 205
2976, 944.444444444, -10, 210
2977, 944.444444444, -5, 205
2978, 944.444444444, -5, 210
2979, 944.444444444, 0, 205
2980, 944.444444444, 0, 210
2981, 1000, -10, 205
2982, 1000, -5, 205
2983, 1000, -5, 210
2984, 1000, 0, 205
2985, 944.444444444, 5, 205
2986, 944.444444444, 5, 210
2987, 944.444444444, 10, 205
2988, 944.444444444, 10, 210
2989, 1000, 5, 205
2990, 1000, 5, 210
2991, 1000, 10, 205
2992, 1055.55555556, -10, 131.666666667
2993, 1055.55555556, -10, 145.333333333
2994, 1055.55555556, -5, 131.666666667
2995, 1055.55555556, -5, 145.333333333
2996, 1055.55555556, -10, 159
2997, 1055.55555556, -5, 159
2998, 1055.55555556, 0, 159
2999, 1111.11111111, -10, 160
3000, 1111.11111111, -5, 160
3001, 1111.11111111, 0, 160
3002, 1055.55555556, 5, 159
3003, 1055.55555556, 10, 159
3004, 1111.11111111, 5, 160
3005, 1111.11111111, 10, 160
3006, 1055.55555556, -10, 205
3007, 1055.55555556, -10, 210
3008, 1055.55555556, -5, 205
3009, 1055.55555556, -5, 210
3010, 1055.55555556, 0, 205
3011, 1055.55555556, 0, 210
3012, 1055.55555556, 5, 205
3013, 1055.55555556, 5, 210
3014, 1055.55555556, 10, 205
3015, 1055.55555556, 10, 210
3016, 1166.66666667, -10, 161
3017, 1166.66666667, -5, 161
3018, 1166.66666667, 0, 161
3019, 1111.11111111, -10, 193.333333333
3020, 1111.11111111, -7.5, 186.666666667
3021, 1111.11111111, -7.5, 193.333333333
3022, 1111.11111111, -7.5, 200
3023, 1111.11111111, -5, 193.333333333
3024, 1138.88888889, -10, 186.833333333
3025, 1138.88888889, -10, 193.416666667
3026, 1138.88888889, -10, 200
3027, 1138.88888889, -7.5, 186.833333333
3028, 1138.88888889, -7.5, 193.416666667
3029, 1138.88888889, -7.5, 200
3030, 1138.88888889, -5, 186.833333333
3031, 1138.88888889, -5, 193.416666667
3032, 1138.88888889, -5, 200
3033, 1166.66666667, -10, 193.5
3034, 1166.66666667, -7.5, 187
3035, 1166.66666667, -7.5, 193.5
3036, 1166.66666667, -7.5, 200
3037, 1166.66666667, -5, 193.5
3038, 1111.11111111, -2.5, 186.666666667
3039, 1111.11111111, -2.5, 193.333333333
3040, 1111.11111111, -2.5, 200
3041, 1111.11111111, 0, 193.333333333
3042, 1138.88888889, -2.5, 186.833333333
3043, 1138.88888889, -2.5, 193.416666667
3044, 1138.88888889, -2.5, 200
3045, 1138.88888889, 0, 186.833333333
3046, 1138.88888889, 0, 193.416666667
3047, 1138.88888889, 0, 200
3048, 1166.66666667, -2.5, 187
3049, 1166.66666667, -2.5, 193.5
3050, 1166.66666667, -2.5, 200
3051, 1166.66666667, 0, 193.5
3052, 1194.44444444, -5, 187.166666667
3053, 1194.44444444, -5, 193.583333333
3054, 1194.44444444, -5, 200
3055, 1194.44444444, -2.5, 187.166666667
3056, 1194.44444444, -2.5, 193.583333333
3057, 1194.44444444, -2.5, 200
3058, 1194.44444444, 0, 187.166666667
3059, 1194.44444444, 0, 193.583333333
3060, 1194.44444444, 0, 200
3061, 1222.22222222, -5, 193.666666667
3062, 1222.22222222, -2.5, 187.333333333
3063, 1222.22222222, -2.5, 193.666666667
3064, 1222.22222222, -2.5, 200
3065, 1222.22222222, 0, 193.666666667
3066, 1166.66666667, 5, 161
3067, 1166.66666667, 10, 161
3068, 1111.11111111, 2.5, 186.666666667
3069, 1111.11111111, 2.5, 193.333333333
3070, 1111.11111111, 2.5, 200
3071, 1111.11111111, 5, 193.333333333
3072, 1138.88888889, 2.5, 186.833333333
3073, 1138.88888889, 2.5, 193.416666667
3074, 1138.88888889, 2.5, 200
3075, 1138.88888889, 5, 186.833333333
3076, 1138.88888889, 5, 193.416666667
3077, 1138.88888889, 5, 200
3078, 1166.66666667, 2.5, 187
3079, 1166.66666667, 2.5, 193.5
3080, 1166.66666667, 2.5, 200
3081, 1166.66666667, 5, 193.5
3082, 1111.11111111, 7.5, 186.666666667
3083, 1111.11111111, 7.5, 193.333333333
3084, 1111.11111111, 7.5, 200
3085, 1111.11111111, 10, 193.333333333
3086, 1138.88888889, 7.5, 186.833333333
3087, 1138.88888889, 7.5, 193.416666667
3088, 1138.88888889, 7.5, 200
3089, 1138.88888889, 10, 186.833333333
3090, 1138.88888889, 10, 193.416666667
3091, 1138.88888889, 10, 200
3092, 1166.66666667, 7.5, 187
3093, 1166.66666667, 7.5, 193.5
3094, 1166.66666667, 7.5, 200
3095, 1166.66666667, 10, 193.5
3096, 1194.44444444, 2.5, 187.166666667
3097, 1194.44444444, 2.5, 193.583333333
3098, 1194.44444444, 2.5, 200
3099, 1194.44444444, 5, 187.166666667
3100, 1194.44444444, 5, 193.583333333
3101, 1194.44444444, 5, 200
3102, 1222.22222222, 2.5, 187.333333333
3103, 1222.22222222, 2.5, 193.666666667
3104, 1222.22222222, 2.5, 200
3105, 1222.22222222, 5, 193.666666667
3106, 1222.22222222, -10, 193.666666667
3107, 1222.22222222, -7.5, 187.333333333
3108, 1222.22222222, -7.5, 193.666666667
3109, 1222.22222222, -7.5, 200
3110, 1250, -10, 187.5
3111, 1250, -10, 193.75
3112, 1250, -10, 200
3113, 1250, -7.5, 187.5
3114, 1250, -7.5, 193.75
3115, 1250, -7.5, 200
3116, 1250, -5, 187.5
3117, 1250, -5, 193.75
3118, 1250, -5, 200
3119, 1277.77777778, -10, 193.833333333
3120, 1277.77777778, -7.5, 187.666666667
3121, 1277.77777778, -7.5, 193.833333333
3122, 1277.77777778, -7.5, 200
3123, 1277.77777778, -5, 193.833333333
3124, 1250, -2.5, 187.5
3125, 1250, -2.5, 193.75
3126, 1250, -2.5, 200
3127, 1250, 0, 187.5
3128, 1250, 0, 193.75
3129, 1250, 0, 200
3130, 1277.77777778, -2.5, 187.666666667
3131, 1277.77777778, -2.5, 193.833333333
3132, 1277.77777778, -2.5, 200
3133, 1277.77777778, 0, 193.833333333
3134, 1250, 2.5, 187.5
3135, 1250, 2.5, 193.75
3136, 1250, 2.5, 200
3137, 1250, 5, 187.5
3138, 1250, 5, 193.75
3139, 1250, 5, 200
3140, 1277.77777778, 2.5, 187.666666667
3141, 1277.77777778, 2.5, 193.833333333
3142, 1277.77777778, 2.5, 200
3143, 1277.77777778, 5, 193.833333333
3144, 1222.22222222, 7.5, 187.333333333
3145, 1222.22222222, 7.5, 193.666666667
3146, 1222.22222222, 7.5, 200
3147, 1222.22222222, 10, 193.666666667
3148, 1250, 7.5, 187.5
3149, 1250, 7.5, 193.75
3150, 1250, 7.5, 200
3151, 1250, 10, 187.5
3152, 1250, 10, 193.75
3153, 1250, 10, 200
3154, 1277.77777778, 7.5, 187.666666667
3155, 1277.77777778, 7.5, 193.833333333
3156, 1277.77777778, 7.5, 200
3157, 1277.77777778, 10, 193.833333333
3158, 1500, -10, 205
3159, 1500, -10, 210
3160, 1500, -5, 205
3161, 1500, -5, 210
3162, 1500, 0, 205
3163, 1500, 0, 210
3164, 1500, 5, 205
3165, 1500, 5, 210
3166, 1500, 10, 205
3167, 1500, 10, 210
3168, 1666.66666667, 5, 105
3169, 1666.66666667, 7.5, 100
3170, 1666.66666667, 7.5, 105
3171, 1666.66666667, 7.5, 110
3172, 1666.66666667, 10, 105
3173, 1694.44444444, 5, 101.666666667
3174, 1694.44444444, 5, 106.583333333
3175, 1694.44444444, 5, 111.5
3176, 1694.44444444, 7.5, 101.666666667
3177, 1694.44444444, 7.5, 106.583333333
3178, 1694.44444444, 7.5, 111.5
3179, 1694.44444444, 10, 101.666666667
3180, 1694.44444444, 10, 106.583333333
3181, 1694.44444444, 10, 111.5
3182, 1722.22222222, 5, 108.166666667
3183, 1722.22222222, 7.5, 103.333333333
3184, 1722.22222222, 7.5, 108.166666667
3185, 1722.22222222, 7.5, 113
3186, 1722.22222222, 10, 108.166666667
3187, 1777.77777778, -10, 111.333333333
3188, 1777.77777778, -7.5, 106.666666667
3189, 1777.77777778, -7.5, 111.333333333
3190, 1777.77777778, -7.5, 116
3191, 1777.77777778, -5, 111.333333333
3192, 1805.55555556, -10, 108.333333333
3193, 1805.55555556, -10, 112.916666667
3194, 1805.55555556, -10, 117.5
3195, 1805.55555556, -7.5, 108.333333333
3196, 1805.55555556, -7.5, 112.916666667
3197, 1805.55555556, -7.5, 117.5
3198, 1805.55555556, -5, 108.333333333
3199, 1805.55555556, -5, 112.916666667
3200, 1805.55555556, -5, 117.5
3201, 1833.33333333, -10, 114.5
3202, 1833.33333333, -7.5, 110
3203, 1833.33333333, -7.5, 114.5
3204, 1833.33333333, -7.5, 119
3205, 1833.33333333, -5, 114.5
3206, 1777.77777778, -2.5, 106.666666667
3207, 1777.77777778, -2.5, 111.333333333
3208, 1777.77777778, -2.5, 116
3209, 1777.77777778, 0, 111.333333333
3210, 1805.55555556, -2.5, 108.333333333
3211, 1805.55555556, -2.5, 112.916666667
3212, 1805.55555556, -2.5, 117.5
3213, 1805.55555556, 0, 108.333333333
3214, 1805.55555556, 0, 112.916666667
3215, 1805.55555556, 0, 117.5
3216, 1833.33333333, -2.5, 110
3217, 1833.33333333, -2.5, 114.5
3218, 1833.33333333, -2.5, 119
3219, 1833.33333333, 0, 114.5
3220, 1861.11111111, -10, 111.666666667
3221, 1861.11111111, -10, 116.083333333
3222, 1861.11111111, -10, 120.5
3223, 1861.11111111, -7.5, 111.666666667
3224, 1861.11111111, -7.5, 116.083333333
3225, 1861.11111111, -7.5, 120.5
3226, 1861.11111111, -5, 111.666666667
3227, 1861.11111111, -5, 116.083333333
3228, 1861.11111111, -5, 120.5
3229, 1861.11111111, -2.5, 111.666666667
3230, 1861.11111111, -2.5, 116.083333333
3231, 1861.11111111, -2.5, 120.5
3232, 1861.11111111, 0, 111.666666667
3233, 1861.11111111, 0, 116.083333333
3234, 1861.11111111, 0, 120.5
3235, 1777.77777778, 2.5, 106.666666667
3236, 1777.77777778, 2.5, 111.333333333
3237, 1777.77777778, 2.5, 116
3238, 1777.77777778, 5, 111.333333333
3239, 1805.55555556, 2.5, 108.333333333
3240, 1805.55555556, 2.5, 112.916666667
3241, 1805.55555556, 2.5, 117.5
3242, 1805.55555556, 5, 108.333333333
3243, 1805.55555556, 5, 112.916666667
3244, 1805.55555556, 5, 117.5
3245, 1833.33333333, 2.5, 110
3246, 1833.33333333, 2.5, 114.5
3247, 1833.33333333, 2.5, 119
3248, 1833.33333333, 5, 114.5
3249, 1777.77777778, 7.5, 106.666666667
3250, 1777.77777778, 7.5, 111.333333333
3251, 1777.77777778, 7.5, 116
3252, 1777.77777778, 10, 111.333333333
3253, 1805.55555556, 7.5, 108.333333333
3254, 1805.55555556, 7.5, 112.916666667
3255, 1805.55555556, 7.5, 117.5
3256, 1805.55555556, 10, 108.333333333
3257, 1805.55555556, 10, 112.916666667
3258, 1805.55555556, 10, 117.5
3259, 1833.33333333, 7.5, 110
3260, 1833.33333333, 7.5, 114.5
3261, 1833.33333333, 7.5, 119
3262, 1833.33333333, 10, 114.5
3263, 1861.11111111, 2.5, 111.666666667
3264, 1861.11111111, 2.5, 116.083333333
3265, 1861.11111111, 2.5, 120.5
3266, 1861.11111111, 5, 111.666666667
3267, 1861.11111111, 5, 116.083333333
3268, 1861.11111111, 5, 120.5
3269, 1861.11111111, 7.5, 111.666666667
3270, 1861.11111111, 7.5, 116.083333333
3271, 1861.11111111, 7.5, 120.5
3272, 1861.11111111, 10, 111.666666667
3273, 1861.11111111, 10, 116.083333333
3274, 1861.11111111, 10, 120.5
3275, 1944.44444444, -10, 129.166666667
3276, 1944.44444444, -7.5, 129.166666667
3277, 1944.44444444, -7.5, 133.333333333
3278, 1944.44444444, -5, 129.166666667
3279, 1972.22222222, -10, 130.583333333
3280, 1972.22222222, -10, 134.666666667
3281, 1972.22222222, -7.5, 130.583333333
3282, 1972.22222222, -7.5, 134.666666667
3283, 1972.22222222, -5, 130.583333333
3284, 1972.22222222, -5, 134.666666667
3285, 2000, -10, 132
3286, 2000, -7.5, 132
3287, 2000, -7.5, 136
3288, 2000, -5, 132
3289, 1944.44444444, -2.5, 129.166666667
3290, 1944.44444444, -2.5, 133.333333333
3291, 1944.44444444, 0, 129.166666667
3292, 1972.22222222, -2.5, 130.583333333
3293, 1972.22222222, -2.5, 134.666666667
3294, 1972.22222222, 0, 130.583333333
3295, 1972.22222222, 0, 134.666666667
3296, 2000, -2.5, 132
3297, 2000, -2.5, 136
3298, 2000, 0, 132
3299, 1944.44444444, 2.5, 129.166666667
3300, 1944.44444444, 2.5, 133.333333333
3301, 1944.44444444, 5, 129.166666667
3302, 1972.22222222, 2.5, 130.583333333
3303, 1972.22222222, 2.5, 134.666666667
3304, 1972.22222222, 5, 130.583333333
3305, 1972.22222222, 5, 134.666666667
3306, 2000, 2.5, 132
3307, 2000, 2.5, 136
3308, 2000, 5, 132
3309, 1944.44444444, 7.5, 129.166666667
3310, 1944.44444444, 7.5, 133.333333333
3311, 1944.44444444, 10, 129.166666667
3312, 1972.22222222, 7.5, 130.583333333
3313, 1972.22222222, 7.5, 134.666666667
3314, 1972.22222222, 10, 130.583333333
3315, 1972.22222222, 10, 134.666666667
3316, 2000, 7.5, 132
3317, 2000, 7.5, 136
3318, 2000, 10, 132
3319, 0, -10, 205
3320, 0, -5, 205
3321, 0, -5, 210
3322, 0, 0, 205
3323, 55.5555555556, -10, 205
3324, 55.5555555556, -10, 210
3325, 55.5555555556, -5, 205
3326, 55.5555555556, -5, 210
3327, 55.5555555556, 0, 205
3328, 55.5555555556, 0, 210
3329, 111.111111111, -10, 205
3330, 111.111111111, -5, 205
3331, 111.111111111, -5, 210
3332, 111.111111111, 0, 205
3333, 0, 5, 205
3334, 0, 5, 210
3335, 0, 10, 205
3336, 55.5555555556, 5, 205
3337, 55.5555555556, 5, 210
3338, 55.5555555556, 10, 205
3339, 55.5555555556, 10, 210
3340, 111.111111111, 5, 205
3341, 111.111111111, 5, 210
3342, 111.111111111, 10, 205
3343, 166.666666667, -10, 143
3344, 166.666666667, -5, 143
3345, 166.666666667, 0, 143
3346, 222.222222222, -10, 144
3347, 222.222222222, -5, 144
3348, 222.222222222, 0, 144
3349, 166.666666667, 5, 143
3350, 166.666666667, 10, 143
3351, 222.222222222, 5, 144
3352, 222.222222222, 10, 144
3353, 111.111111111, -120, 205
3354, 111.111111111, -106.25, 200
3355, 111.111111111, -106.25, 205
3356, 111.111111111, -106.25, 210
3357, 111.111111111, -92.5, 205
3358, 166.666666667, -120, 200
3359, 166.666666667, -120, 205
3360, 166.666666667, -120, 210
3361, 166.666666667, -106.25, 200
3362, 166.666666667, -106.25, 205
3363, 166.666666667, -106.25, 210
3364, 166.666666667, -92.5, 200
3365, 166.666666667, -92.5, 205
3366, 166.666666667, -92.5, 210
3367, 222.222222222, -120, 205
3368, 222.222222222, -106.25, 200
3369, 222.222222222, -106.25, 205
3370, 222.222222222, -106.25, 210
3371, 222.222222222, -92.5, 205
3372, 111.111111111, -120, 215
3373, 111.111111111, -106.25, 215
3374, 111.111111111, -106.25, 220
3375, 111.111111111, -92.5, 215
3376, 166.666666667, -120, 215
3377, 166.666666667, -120, 220
3378, 166.666666667, -106.25, 215
3379, 166.666666667, -106.25, 220
3380, 166.666666667, -92.5, 215
3381, 166.666666667, -92.5, 220
3382, 222.222222222, -120, 215
3383, 222.222222222, -106.25, 215
3384, 222.222222222, -106.25, 220
3385, 222.222222222, -92.5, 215
3386, 111.111111111, -78.75, 210
3387, 111.111111111, -78.75, 215
3388, 111.111111111, -78.75, 220
3389, 111.111111111, -65, 215
3390, 166.666666667, -78.75, 210
3391, 166.666666667, -78.75, 215
3392, 166.666666667, -78.75, 220
3393, 166.666666667, -65, 210
3394, 166.666666667, -65, 215
3395, 166.666666667, -65, 220
3396, 222.222222222, -78.75, 210
3397, 222.222222222, -78.75, 215
3398, 222.222222222, -78.75, 220
3399, 222.222222222, -65, 215
3400, 111.111111111, -51.25, 210
3401, 111.111111111, -51.25, 215
3402, 111.111111111, -51.25, 220
3403, 111.111111111, -37.5, 215
3404, 166.666666667, -51.25, 210
3405, 166.666666667, -51.25, 215
3406, 166.666666667, -51.25, 220
3407, 166.666666667, -37.5, 210
3408, 166.666666667, -37.5, 215
3409, 166.666666667, -37.5, 220
3410, 222.222222222, -51.25, 210
3411, 222.222222222, -51.25, 215
3412, 222.222222222, -51.25, 220
3413, 222.222222222, -37.5, 215
3414, 111.111111111, -23.75, 210
3415, 111.111111111, -23.75, 215
3416, 111.111111111, -23.75, 220
3417, 111.111111111, -10, 215
3418, 166.666666667, -23.75, 210
3419, 166.666666667, -23.75, 215
3420, 166.666666667, -23.75, 220
3421, 166.666666667, -10, 210
3422, 166.666666667, -10, 215
3423, 166.666666667, -10, 220
3424, 222.222222222, -23.75, 210
3425, 222.222222222, -23.75, 215
3426, 222.222222222, -23.75, 220
3427, 222.222222222, -10, 215
3428, 166.666666667, -10, 205
3429, 166.666666667, -5, 205
3430, 166.666666667, -5, 210
3431, 166.666666667, 0, 205
3432, 166.666666667, 0, 210
3433, 222.222222222, -10, 205
3434, 222.222222222, -5, 205
3435, 222.222222222, -5, 210
3436, 222.222222222, 0, 205
3437, 166.666666667, 5, 205
3438, 166.666666667, 5, 210
3439, 166.666666667, 10, 205
3440, 166.666666667, 10, 210
3441, 222.222222222, 5, 205
3442, 222.222222222, 5, 210
3443, 222.222222222, 10, 205
3444, 111.111111111, 10, 215
3445, 111.111111111, 23.75, 210
3446, 111.111111111, 23.75, 215
3447, 111.111111111, 23.75, 220
3448, 111.111111111, 37.5, 215
3449, 166.666666667, 10, 215
3450, 166.666666667, 10, 220
3451, 166.666666667, 23.75, 210
3452, 166.666666667, 23.75, 215
3453, 166.666666667, 23.75, 220
3454, 166.666666667, 37.5, 210
3455, 166.666666667, 37.5, 215
3456, 166.666666667, 37.5, 220
3457, 222.222222222, 10, 215
3458, 222.222222222, 23.75, 210
3459, 222.222222222, 23.75, 215
3460, 222.222222222, 23.75, 220
3461, 222.222222222, 37.5, 215
3462, 111.111111111, 51.25, 210
3463, 111.111111111, 51.25, 215
3464, 111.111111111, 51.25, 220
3465, 111.111111111, 65, 215
3466, 166.666666667, 51.25, 210
3467, 166.666666667, 51.25, 215
3468, 166.666666667, 51.25, 220
3469, 166.666666667, 65, 210
3470, 166.666666667, 65, 215
3471, 166.666666667, 65, 220
3472, 222.222222222, 51.25, 210
3473, 222.222222222, 51.25, 215
3474, 222.222222222, 51.25, 220
3475, 222.222222222, 65, 215
3476, 111.111111111, 78.75, 210
3477, 111.111111111, 78.75, 215
3478, 111.111111111, 78.75, 220
3479, 111.111111111, 92.5, 215
3480, 166.666666667, 78.75, 210
3481, 166.666666667, 78.75, 215
3482, 166.666666667, 78.75, 220
3483, 166.666666667, 92.5, 210
3484, 166.666666667, 92.5, 215
3485, 166.666666667, 92.5, 220
3486, 222.222222222, 78.75, 210
3487, 222.222222222, 78.75, 215
3488, 222.222222222, 78.75, 220
3489, 222.222222222, 92.5, 215
3490, 111.111111111, 92.5, 205
3491, 111.111111111, 106.25, 200
3492, 111.111111111, 106.25, 205
3493, 111.111111111, 106.25, 210
3494, 111.111111111, 120, 205
3495, 166.666666667, 92.5, 200
3496, 166.666666667, 92.5, 205
3497, 166.666666667, 106.25, 200
3498, 166.666666667, 106.25, 205
3499, 166.666666667, 106.25, 210
3500, 166.666666667, 120, 200
3501, 166.666666667, 120, 205
3502, 166.666666667, 120, 210
3503, 222.222222222, 92.5, 205
3504, 222.222222222, 106.25, 200
3505, 222.222222222, 106.25, 205
3506, 222.222222222, 106.25, 210
3507, 222.222222222, 120, 205
3508, 111.111111111, 106.25, 215
3509, 111.111111111, 106.25, 220
3510, 111.111111111, 120, 215
3511, 166.666666667, 106.25, 215
3512, 166.666666667, 106.25, 220
3513, 166.666666667, 120, 215
3514, 166.666666667, 120, 220
3515, 222.222222222, 106.25, 215
3516, 222.222222222, 106.25, 220
3517, 222.222222222, 120, 215
3518, 277.777777778, -10, 108.333333333
3519, 277.777777778, -10, 126.666666667
3520, 277.777777778, -5, 108.333333333
3521, 277.777777778, -5, 126.666666667
3522, 277.777777778, 0, 108.333333333
3523, 277.777777778, 0, 126.666666667
3524, 333.333333333, -10, 110
3525, 333.333333333, -5, 110
3526, 333.333333333, -5, 128
3527, 333.333333333, 0, 110
3528, 277.777777778, -10, 145
3529, 277.777777778, -5, 145
3530, 277.777777778, 0, 145
3531, 333.333333333, -10, 146
3532, 333.333333333, -5, 146
3533, 333.333333333, 0, 146
3534, 277.777777778, 5, 108.333333333
3535, 277.777777778, 5, 126.666666667
3536, 277.777777778, 10, 108.333333333
3537, 277.777777778, 10, 126.666666667
3538, 333.333333333, 5, 110
3539, 333.333333333, 5, 128
3540, 333.333333333, 10, 110
3541, 277.777777778, 5, 145
3542, 277.777777778, 10, 145
3543, 333.333333333, 5, 146
3544, 333.333333333, 10, 146
3545, 277.777777778, -10, 205
3546, 277.777777778, -10, 210
3547, 277.777777778, -5, 205
3548, 277.777777778, -5, 210
3549, 277.777777778, 0, 205
3550, 277.777777778, 0, 210
3551, 333.333333333, -10, 205
3552, 333.333333333, -5, 205
3553, 333.333333333, -5, 210
3554, 333.333333333, 0, 205
3555, 277.777777778, 5, 205
3556, 277.777777778, 5, 210
3557, 277.777777778, 10, 205
3558, 277.777777778, 10, 210
3559, 333.333333333, 5, 205
3560, 333.333333333, 5, 210
3561, 333.333333333, 10, 205
3562, 388.888888889, -10, 111.666666667
3563, 388.888888889, -10, 129.333333333
3564, 388.888888889, -5, 111.666666667
3565, 388.888888889, -5, 129.333333333
3566, 388.888888889, 0, 111.666666667
3567, 388.888888889, 0, 129.333333333
3568, 444.444444444, -10, 113.333333333
3569, 444.444444444, -5, 113.333333333
3570, 444.444444444, -5, 130.666666667
3571, 444.444444444, 0, 113.333333333
3572, 388.888888889, -10, 147
3573, 388.888888889, -5, 147
3574, 388.888888889, 0, 147
3575, 444.444444444, -10, 148
3576, 444.444444444, -5, 148
3577, 444.444444444, 0, 148
3578, 388.888888889, 5, 111.666666667
3579, 388.888888889, 5, 129.333333333
3580, 388.888888889, 10, 111.666666667
3581, 388.888888889, 10, 129.333333333
3582, 444.444444444, 5, 113.333333333
3583, 444.444444444, 5, 130.666666667
3584, 444.444444444, 10, 113.333333333
3585, 388.888888889, 5, 147
3586, 388.888888889, 10, 147
3587, 444.444444444, 5, 148
3588, 444.444444444, 10, 148
3589, 388.888888889, -10, 205
3590, 388.888888889, -10, 210
3591, 388.888888889, -5, 205
3592, 388.888888889, -5, 210
3593, 388.888888889, 0, 205
3594, 388.888888889, 0, 210
3595, 444.444444444, -10, 205
3596, 444.444444444, -5, 205
3597, 444.444444444, -5, 210
3598, 444.444444444, 0, 205
3599, 388.888888889, 5, 205
3600, 388.888888889, 5, 210
3601, 388.888888889, 10, 205
3602, 388.888888889, 10, 210
3603, 444.444444444, 5, 205
3604, 444.444444444, 5, 210
3605, 444.444444444, 10, 205
3606, 500, -10, 115
3607, 500, -10, 132
3608, 500, -5, 115
3609, 500, -5, 132
3610, 500, 0, 115
3611, 500, 0, 132
3612, 555.555555556, -10, 116.666666667
3613, 555.555555556, -5, 116.666666667
3614, 555.555555556, 0, 116.666666667
3615, 500, -10, 149
3616, 500, -5, 149
3617, 500, 0, 149
3618, 500, 5, 115
3619, 500, 5, 132
3620, 500, 10, 115
3621, 500, 10, 132
3622, 555.555555556, 5, 116.666666667
3623, 555.555555556, 10, 116.666666667
3624, 500, 5, 149
3625, 500, 10, 149
3626, 500, -10, 205
3627, 500, -10, 210
3628, 500, -5, 205
3629, 500, -5, 210
3630, 500, 0, 205
3631, 500, 0, 210
3632, 500, 5, 205
3633, 500, 5, 210
3634, 500, 10, 205
3635, 500, 10, 210
3636, 611.111111111, -10, 118.333333333
3637, 611.111111111, -5, 118.333333333
3638, 611.111111111, 0, 118.333333333
3639, 666.666666667, -10, 120
3640, 666.666666667, -5, 120
3641, 666.666666667, 0, 120
3642, 611.111111111, -10, 159.166666667
3643, 611.111111111, -7.5, 151
3644, 611.111111111, -7.5, 159.166666667
3645, 611.111111111, -7.5, 167.333333333
3646, 611.111111111, -5, 159.166666667
3647, 638.888888889, -10, 151.5
3648, 638.888888889, -10, 159.583333333
3649, 638.888888889, -10, 167.666666667
3650, 638.888888889, -7.5, 151.5
3651, 638.888888889, -7.5, 159.583333333
3652, 638.888888889, -7.5, 167.666666667
3653, 638.888888889, -5, 151.5
3654, 638.888888889, -5, 159.583333333
3655, 638.888888889, -5, 167.666666667
3656, 666.666666667, -10, 160
3657, 666.666666667, -7.5, 152
3658, 666.666666667, -7.5, 160
3659, 666.666666667, -7.5, 168
3660, 666.666666667, -5, 160
3661, 611.111111111, -2.5, 151
3662, 611.111111111, -2.5, 159.166666667
3663, 611.111111111, -2.5, 167.333333333
3664, 611.111111111, 0, 159.166666667
3665, 638.888888889, -2.5, 151.5
3666, 638.888888889, -2.5, 159.583333333
3667, 638.888888889, -2.5, 167.666666667
3668, 638.888888889, 0, 151.5
3669, 638.888888889, 0, 159.583333333
3670, 638.888888889, 0, 167.666666667
3671, 666.666666667, -2.5, 152
3672, 666.666666667, -2.5, 160
3673, 666.666666667, -2.5, 168
3674, 666.666666667, 0, 160
3675, 555.555555556, -10, 175
3676, 555.555555556, -7.5, 166.666666667
3677, 555.555555556, -7.5, 175
3678, 555.555555556, -7.5, 183.333333333
3679, 555.555555556, -5, 175
3680, 583.333333333, -10, 167
3681, 583.333333333, -10, 175.25
3682, 583.333333333, -10, 183.5
3683, 583.333333333, -7.5, 167
3684, 583.333333333, -7.5, 175.25
3685, 583.333333333, -7.5, 183.5
3686, 583.333333333, -5, 167
3687, 583.333333333, -5, 175.25
3688, 583.333333333, -5, 183.5
3689, 611.111111111, -10, 175.5
3690, 611.111111111, -7.5, 175.5
3691, 611.111111111, -7.5, 183.666666667
3692, 611.111111111, -5, 175.5
3693, 555.555555556, -10, 191.666666667
3694, 555.555555556, -7.5, 191.666666667
3695, 555.555555556, -7.5, 200
3696, 555.555555556, -5, 191.666666667
3697, 583.333333333, -10, 191.75
3698, 583.333333333, -10, 200
3699, 583.333333333, -7.5, 191.75
3700, 583.333333333, -7.5, 200
3701, 583.333333333, -5, 191.75
3702, 583.333333333, -5, 200
3703, 611.111111111, -10, 191.833333333
3704, 611.111111111, -7.5, 191.833333333
3705, 611.111111111, -7.5, 200
3706, 611.111111111, -5, 191.833333333
3707, 555.555555556, -2.5, 166.666666667
3708, 555.555555556, -2.5, 175
3709, 555.555555556, -2.5, 183.333333333
3710, 555.555555556, 0, 175
3711, 583.333333333, -2.5, 167
3712, 583.333333333, -2.5, 175.25
3713, 583.333333333, -2.5, 183.5
3714, 583.333333333, 0, 167
3715, 583.333333333, 0, 175.25
3716, 583.333333333, 0, 183.5
3717, 611.111111111, -2.5, 175.5
3718, 611.111111111, -2.5, 183.666666667
3719, 611.111111111, 0, 175.5
3720, 555.555555556, -2.5, 191.666666667
3721, 555.555555556, -2.5, 200
3722, 555.555555556, 0, 191.666666667
3723, 583.333333333, -2.5, 191.75
3724, 583.333333333, -2.5, 200
3725, 583.333333333, 0, 191.75
3726, 583.333333333, 0, 200
3727, 611.111111111, -2.5, 191.833333333
3728, 611.111111111, -2.5, 200
3729, 611.111111111, 0, 191.833333333
3730, 638.888888889, -10, 183.833333333
3731, 638.888888889, -10, 191.916666667
3732, 638.888888889, -10, 200
3733, 638.888888889, -7.5, 183.833333333
3734, 638.888888889, -7.5, 191.916666667
3735, 638.888888889, -7.5, 200
3736, 638.888888889, -5, 183.833333333
3737, 638.888888889, -5, 191.916666667
3738, 638.888888889, -5, 200
3739, 666.666666667, -10, 192
3740, 666.666666667, -7.5, 184
3741, 666.666666667, -7.5, 192
3742, 666.666666667, -7.5, 200
3743, 666.666666667, -5, 192
3744, 638.888888889, -2.5, 183.833333333
3745, 638.888888889, -2.5, 191.916666667
3746, 638.888888889, -2.5, 200
3747, 638.888888889, 0, 183.833333333
3748, 638.888888889, 0, 191.916666667
3749, 638.888888889, 0, 200
3750, 666.666666667, -2.5, 184
3751, 666.666666667, -2.5, 192
3752, 666.666666667, -2.5, 200
3753, 666.666666667, 0, 192
3754, 611.111111111, 5, 118.333333333
3755, 611.111111111, 10, 118.333333333
3756, 666.666666667, 5, 120
3757, 666.666666667, 10, 120
3758, 611.111111111, 2.5, 151
3759, 611.111111111, 2.5, 159.166666667
3760, 611.111111111, 2.5, 167.333333333
3761, 611.111111111, 5, 159.166666667
3762, 638.888888889, 2.5, 151.5
3763, 638.888888889, 2.5, 159.583333333
3764, 638.888888889, 2.5, 167.666666667
3765, 638.888888889, 5, 151.5
3766, 638.888888889, 5, 159.583333333
3767, 638.888888889, 5, 167.666666667
3768, 666.666666667, 2.5, 152
3769, 666.666666667, 2.5, 160
3770, 666.666666667, 2.5, 168
3771, 666.666666667, 5, 160
3772, 611.111111111, 7.5, 151
3773, 611.111111111, 7.5, 159.166666667
3774, 611.111111111, 7.5, 167.333333333
3775, 611.111111111, 10, 159.166666667
3776, 638.888888889, 7.5, 151.5
3777, 638.888888889, 7.5, 159.583333333
3778, 638.888888889, 7.5, 167.666666667
3779, 638.888888889, 10, 151.5
3780, 638.888888889, 10, 159.583333333
3781, 638.888888889, 10, 167.666666667
3782, 666.666666667, 7.5, 152
3783, 666.666666667, 7.5, 160
3784, 666.666666667, 7.5, 168
3785, 666.666666667, 10, 160
3786, 555.555555556, 2.5, 166.666666667
3787, 555.555555556, 2.5, 175
3788, 555.555555556, 2.5, 183.333333333
3789, 555.555555556, 5, 175
3790, 583.333333333, 2.5, 167
3791, 583.333333333, 2.5, 175.25
3792, 583.333333333, 2.5, 183.5
3793, 583.333333333, 5, 167
3794, 583.333333333, 5, 175.25
3795, 583.333333333, 5, 183.5
3796, 611.111111111, 2.5, 175.5
3797, 611.111111111, 2.5, 183.666666667
3798, 611.111111111, 5, 175.5
3799, 555.555555556, 2.5, 191.666666667
3800, 555.555555556, 2.5, 200
3801, 555.555555556, 5, 191.666666667
3802, 583.333333333, 2.5, 191.75
3803, 583.333333333, 2.5, 200
3804, 583.333333333, 5, 191.75
3805, 583.333333333, 5, 200
3806, 611.111111111, 2.5, 191.833333333
3807, 611.111111111, 2.5, 200
3808, 611.111111111, 5, 191.833333333
3809, 555.555555556, 7.5, 166.666666667
3810, 555.555555556, 7.5, 175
3811, 555.555555556, 7.5, 183.333333333
3812, 555.555555556, 10, 175
3813, 583.333333333, 7.5, 167
3814, 583.333333333, 7.5, 175.25
3815, 583.333333333, 7.5, 183.5
3816, 583.333333333, 10, 167
3817, 583.333333333, 10, 175.25
3818, 583.333333333, 10, 183.5
3819, 611.111111111, 7.5, 175.5
3820, 611.111111111, 7.5, 183.666666667
3821, 611.111111111, 10, 175.5
3822, 555.555555556, 7.5, 191.666666667
3823, 555.555555556, 7.5, 200
3824, 555.555555556, 10, 191.666666667
3825, 583.333333333, 7.5, 191.75
3826, 583.333333333, 7.5, 200
3827, 583.333333333, 10, 191.75
3828, 583.333333333, 10, 200
3829, 611.111111111, 7.5, 191.833333333
3830, 611.111111111, 7.5, 200
3831, 611.111111111, 10, 191.833333333
3832, 638.888888889, 2.5, 183.833333333
3833, 638.888888889, 2.5, 191.916666667
3834, 638.888888889, 2.5, 200
3835, 638.888888889, 5, 183.833333333
3836, 638.888888889, 5, 191.916666667
3837, 638.888888889, 5, 200
3838, 666.666666667, 2.5, 184
3839, 666.666666667, 2.5, 192
3840, 666.666666667, 2.5, 200
3841, 666.666666667, 5, 192
3842, 638.888888889, 7.5, 183.833333333
3843, 638.888888889, 7.5, 191.916666667
3844, 638.888888889, 7.5, 200
3845, 638.888888889, 10, 183.833333333
3846, 638.888888889, 10, 191.916666667
3847, 638.888888889, 10, 200
3848, 666.666666667, 7.5, 184
3849, 666.666666667, 7.5, 192
3850, 666.666666667, 7.5, 200
3851, 666.666666667, 10, 192
3852, 722.222222222, -10, 121.666666667
3853, 722.222222222, -5, 121.666666667
3854, 722.222222222, 0, 121.666666667
3855, 694.444444444, -10, 184.166666667
3856, 694.444444444, -10, 192.083333333
3857, 694.444444444, -10, 200
3858, 694.444444444, -7.5, 184.166666667
3859, 694.444444444, -7.5, 192.083333333
3860, 694.444444444, -7.5, 200
3861, 694.444444444, -5, 184.166666667
3862, 694.444444444, -5, 192.083333333
3863, 694.444444444, -5, 200
3864, 722.222222222, -10, 192.166666667
3865, 722.222222222, -7.5, 184.333333333
3866, 722.222222222, -7.5, 192.166666667
3867, 722.222222222, -7.5, 200
3868, 722.222222222, -5, 192.166666667
3869, 694.444444444, -2.5, 184.166666667
3870, 694.444444444, -2.5, 192.083333333
3871, 694.444444444, -2.5, 200
3872, 694.444444444, 0, 184.166666667
3873, 694.444444444, 0, 192.083333333
3874, 694.444444444, 0, 200
3875, 722.222222222, -2.5, 184.333333333
3876, 722.222222222, -2.5, 192.166666667
3877, 722.222222222, -2.5, 200
3878, 722.222222222, 0, 192.166666667
3879, 750, -10, 184.5
3880, 750, -10, 192.25
3881, 750, -10, 200
3882, 750, -7.5, 184.5
3883, 750, -7.5, 192.25
3884, 750, -7.5, 200
3885, 750, -5, 184.5
3886, 750, -5, 192.25
3887, 750, -5, 200
3888, 777.777777778, -10, 192.333333333
3889, 777.777777778, -7.5, 184.666666667
3890, 777.777777778, -7.5, 192.333333333
3891, 777.777777778, -7.5, 200
3892, 777.777777778, -5, 192.333333333
3893, 750, -2.5, 184.5
3894, 750, -2.5, 192.25
3895, 750, -2.5, 200
3896, 750, 0, 184.5
3897, 750, 0, 192.25
3898, 750, 0, 200
3899, 777.777777778, -2.5, 184.666666667
3900, 777.777777778, -2.5, 192.333333333
3901, 777.777777778, -2.5, 200
3902, 777.777777778, 0, 192.333333333
3903, 722.222222222, 5, 121.666666667
3904, 722.222222222, 10, 121.666666667
3905, 694.444444444, 2.5, 184.166666667
3906, 694.444444444, 2.5, 192.083333333
3907, 694.444444444, 2.5, 200
3908, 694.444444444, 5, 184.166666667
3909, 694.444444444, 5, 192.083333333
3910, 694.444444444, 5, 200
3911, 722.222222222, 2.5, 184.333333333
3912, 722.222222222, 2.5, 192.166666667
3913, 722.222222222, 2.5, 200
3914, 722.222222222, 5, 192.166666667
3915, 694.444444444, 7.5, 184.166666667
3916, 694.444444444, 7.5, 192.083333333
3917, 694.444444444, 7.5, 200
3918, 694.444444444, 10, 184.166666667
3919, 694.444444444, 10, 192.083333333
3920, 694.444444444, 10, 200
3921, 722.222222222, 7.5, 184.333333333
3922, 722.222222222, 7.5, 192.166666667
3923, 722.222222222, 7.5, 200
3924, 722.222222222, 10, 192.166666667
3925, 750, 2.5, 184.5
3926, 750, 2.5, 192.25
3927, 750, 2.5, 200
3928, 750, 5, 184.5
3929, 750, 5, 192.25
3930, 750, 5, 200
3931, 777.777777778, 2.5, 184.666666667
3932, 777.777777778, 2.5, 192.333333333
3933, 777.777777778, 2.5, 200
3934, 777.777777778, 5, 192.333333333
3935, 750, 7.5, 184.5
3936, 750, 7.5, 192.25
3937, 750, 7.5, 200
3938, 750, 10, 184.5
3939, 750, 10, 192.25
3940, 750, 10, 200
3941, 777.777777778, 7.5, 184.666666667
3942, 777.777777778, 7.5, 192.333333333
3943, 777.777777778, 7.5, 200
3944, 777.777777778, 10, 192.333333333
3945, 805.555555556, -10, 184.833333333
3946, 805.555555556, -10, 192.416666667
3947, 805.555555556, -10, 200
3948, 805.555555556, -7.5, 184.833333333
3949, 805.555555556, -7.5, 192.416666667
3950, 805.555555556, -7.5, 200
3951, 805.555555556, -5, 184.833333333
3952, 805.555555556, -5, 192.416666667
3953, 805.555555556, -5, 200
3954, 833.333333333, -10, 192.5
3955, 833.333333333, -7.5, 185
3956, 833.333333333, -7.5, 192.5
3957, 833.333333333, -7.5, 200
3958, 833.333333333, -5, 192.5
3959, 805.555555556, -2.5, 184.833333333
3960, 805.555555556, -2.5, 192.416666667
3961, 805.555555556, -2.5, 200
3962, 805.555555556, 0, 184.833333333
3963, 805.555555556, 0, 192.416666667
3964, 805.555555556, 0, 200
3965, 833.333333333, -2.5, 185
3966, 833.333333333, -2.5, 192.5
3967, 833.333333333, -2.5, 200
3968, 833.333333333, 0, 192.5
3969, 861.111111111, -10, 185.166666667
3970, 861.111111111, -10, 192.583333333
3971, 861.111111111, -10, 200
3972, 861.111111111, -7.5, 185.166666667
3973, 861.111111111, -7.5, 192.583333333
3974, 861.111111111, -7.5, 200
3975, 861.111111111, -5, 185.166666667
3976, 861.111111111, -5, 192.583333333
3977, 861.111111111, -5, 200
3978, 888.888888889, -10, 192.666666667
3979, 888.888888889, -7.5, 185.333333333
3980, 888.888888889, -7.5, 192.666666667
3981, 888.888888889, -7.5, 200
3982, 888.888888889, -5, 192.666666667
3983, 861.111111111, -2.5, 185.166666667
3984, 861.111111111, -2.5, 192.583333333
3985, 861.111111111, -2.5, 200
3986, 861.111111111, 0, 185.166666667
3987, 861.111111111, 0, 192.583333333
3988, 861.111111111, 0, 200
3989, 888.888888889, -2.5, 185.333333333
3990, 888.888888889, -2.5, 192.666666667
3991, 888.888888889, -2.5, 200
3992, 888.888888889, 0, 192.666666667
3993, 805.555555556, 2.5, 184.833333333
3994, 805.555555556, 2.5, 192.416666667
3995, 805.555555556, 2.5, 200
3996, 805.555555556, 5, 184.833333333
3997, 805.555555556, 5, 192.416666667
3998, 805.555555556, 5, 200
3999, 833.333333333, 2.5, 185
4000, 833.333333333, 2.5, 192.5
4001, 833.333333333, 2.5, 200
4002, 833.333333333, 5, 192.5
4003, 805.555555556, 7.5, 184.833333333
4004, 805.555555556, 7.5, 192.416666667
4005, 805.555555556, 7.5, 200
4006, 805.555555556, 10, 184.833333333
4007, 805.555555556, 10, 192.416666667
4008, 805.555555556, 10, 200
4009, 833.333333333, 7.5, 185
4010, 833.333333333, 7.5, 192.5
4011, 833.333333333, 7.5, 200
4012, 833.333333333, 10, 192.5
4013, 861.111111111, 2.5, 185.166666667
4014, 861.111111111, 2.5, 192.583333333
4015, 861.111111111, 2.5, 200
4016, 861.111111111, 5, 185.166666667
4017, 861.111111111, 5, 192.583333333
4018, 861.111111111, 5, 200
4019, 888.888888889, 2.5, 185.333333333
4020, 888.888888889, 2.5, 192.666666667
4021, 888.888888889, 2.5, 200
4022, 888.888888889, 5, 192.666666667
4023, 861.111111111, 7.5, 185.166666667
4024, 861.111111111, 7.5, 192.583333333
4025, 861.111111111, 7.5, 200
4026, 861.111111111, 10, 185.166666667
4027, 861.111111111, 10, 192.583333333
4028, 861.111111111, 10, 200
4029, 888.888888889, 7.5, 185.333333333
4030, 888.888888889, 7.5, 192.666666667
4031, 888.888888889, 7.5, 200
4032, 888.888888889, 10, 192.666666667
4033, 916.666666667, -10, 185.5
4034, 916.666666667, -10, 192.75
4035, 916.666666667, -10, 200
4036, 916.666666667, -7.5, 185.5
4037, 916.666666667, -7.5, 192.75
4038, 916.666666667, -7.5, 200
4039, 916.666666667, -5, 185.5
4040, 916.666666667, -5, 192.75
4041, 916.666666667, -5, 200
4042, 944.444444444, -10, 192.833333333
4043, 944.444444444, -7.5, 185.666666667
4044, 944.444444444, -7.5, 192.833333333
4045, 944.444444444, -7.5, 200
4046, 944.444444444, -5, 192.833333333
4047, 916.666666667, -2.5, 185.5
4048, 916.666666667, -2.5, 192.75
4049, 916.666666667, -2.5, 200
4050, 916.666666667, 0, 185.5
4051, 916.666666667, 0, 192.75
4052, 916.666666667, 0, 200
4053, 944.444444444, -2.5, 185.666666667
4054, 944.444444444, -2.5, 192.833333333
4055, 944.444444444, -2.5, 200
4056, 944.444444444, 0, 192.833333333
4057, 972.222222222, -10, 185.833333333
4058, 972.222222222, -10, 192.916666667
4059, 972.222222222, -10, 200
4060, 972.222222222, -7.5, 185.833333333
4061, 972.222222222, -7.5, 192.916666667
4062, 972.222222222, -7.5, 200
4063, 972.222222222, -5, 185.833333333
4064, 972.222222222, -5, 192.916666667
4065, 972.222222222, -5, 200
4066, 1000, -10, 193
4067, 1000, -7.5, 186
4068, 1000, -7.5, 193
4069, 1000, -7.5, 200
4070, 1000, -5, 193
4071, 972.222222222, -2.5, 185.833333333
4072, 972.222222222, -2.5, 192.916666667
4073, 972.222222222, -2.5, 200
4074, 972.222222222, 0, 185.833333333
4075, 972.222222222, 0, 192.916666667
4076, 972.222222222, 0, 200
4077, 1000, -2.5, 186
4078, 1000, -2.5, 193
4079, 1000, -2.5, 200
4080, 1000, 0, 193
4081, 916.666666667, 2.5, 185.5
4082, 916.666666667, 2.5, 192.75
4083, 916.666666667, 2.5, 200
4084, 916.666666667, 5, 185.5
4085, 916.666666667, 5, 192.75
4086, 916.666666667, 5, 200
4087, 944.444444444, 2.5, 185.666666667
4088, 944.444444444, 2.5, 192.833333333
4089, 944.444444444, 2.5, 200
4090, 944.444444444, 5, 192.833333333
4091, 916.666666667, 7.5, 185.5
4092, 916.666666667, 7.5, 192.75
4093, 916.666666667, 7.5, 200
4094, 916.666666667, 10, 185.5
4095, 916.666666667, 10, 192.75
4096, 916.666666667, 10, 200
4097, 944.444444444, 7.5, 185.666666667
4098, 944.444444444, 7.5, 192.833333333
4099, 944.444444444, 7.5, 200
4100, 944.444444444, 10, 192.833333333
4101, 972.222222222, 2.5, 185.833333333
4102, 972.222222222, 2.5, 192.916666667
4103, 972.222222222, 2.5, 200
4104, 972.222222222, 5, 185.833333333
4105, 972.222222222, 5, 192.916666667
4106, 972.222222222, 5, 200
4107, 1000, 2.5, 186
4108, 1000, 2.5, 193
4109, 1000, 2.5, 200
4110, 1000, 5, 193
4111, 972.222222222, 7.5, 185.833333333
4112, 972.222222222, 7.5, 192.916666667
4113, 972.222222222, 7.5, 200
4114, 972.222222222, 10, 185.833333333
4115, 972.222222222, 10, 192.916666667
4116, 972.222222222, 10, 200
4117, 1000, 7.5, 186
4118, 1000, 7.5, 193
4119, 1000, 7.5, 200
4120, 1000, 10, 193
4121, 1027.77777778, -10, 186.166666667
4122, 1027.77777778, -10, 193.083333333
4123, 1027.77777778, -10, 200
4124, 1027.77777778, -7.5, 186.166666667
4125, 1027.77777778, -7.5, 193.083333333
4126, 1027.77777778, -7.5, 200
4127, 1027.77777778, -5, 186.166666667
4128, 1027.77777778, -5, 193.083333333
4129, 1027.77777778, -5, 200
4130, 1055.55555556, -10, 193.166666667
4131, 1055.55555556, -7.5, 186.333333333
4132, 1055.55555556, -7.5, 193.166666667
4133, 1055.55555556, -7.5, 200
4134, 1055.55555556, -5, 193.166666667
4135, 1027.77777778, -2.5, 186.166666667
4136, 1027.77777778, -2.5, 193.083333333
4137, 1027.77777778, -2.5, 200
4138, 1027.77777778, 0, 186.166666667
4139, 1027.77777778, 0, 193.083333333
4140, 1027.77777778, 0, 200
4141, 1055.55555556, -2.5, 186.333333333
4142, 1055.55555556, -2.5, 193.166666667
4143, 1055.55555556, -2.5, 200
4144, 1055.55555556, 0, 193.166666667
4145, 1027.77777778, 2.5, 186.166666667
4146, 1027.77777778, 2.5, 193.083333333
4147, 1027.77777778, 2.5, 200
4148, 1027.77777778, 5, 186.166666667
4149, 1027.77777778, 5, 193.083333333
4150, 1027.77777778, 5, 200
4151, 1055.55555556, 2.5, 186.333333333
4152, 1055.55555556, 2.5, 193.166666667
4153, 1055.55555556, 2.5, 200
4154, 1055.55555556, 5, 193.166666667
4155, 1027.77777778, 7.5, 186.166666667
4156, 1027.77777778, 7.5, 193.083333333
4157, 1027.77777778, 7.5, 200
4158, 1027.77777778, 10, 186.166666667
4159, 1027.77777778, 10, 193.083333333
4160, 1027.77777778, 10, 200
4161, 1055.55555556, 7.5, 186.333333333
4162, 1055.55555556, 7.5, 193.166666667
4163, 1055.55555556, 7.5, 200
4164, 1055.55555556, 10, 193.166666667
4165, 1333.33333333, -10, 194
4166, 1333.33333333, -7.5, 188
4167, 1333.33333333, -7.5, 194
4168, 1333.33333333, -7.5, 200
4169, 1333.33333333, -5, 194
4170, 1361.11111111, -10, 188.166666667
4171, 1361.11111111, -10, 194.083333333
4172, 1361.11111111, -10, 200
4173, 1361.11111111, -7.5, 188.166666667
4174, 1361.11111111, -7.5, 194.083333333
4175, 1361.11111111, -7.5, 200
4176, 1361.11111111, -5, 188.166666667
4177, 1361.11111111, -5, 194.083333333
4178, 1361.11111111, -5, 200
4179, 1388.88888889, -10, 194.166666667
4180, 1388.88888889, -7.5, 188.333333333
4181, 1388.88888889, -7.5, 194.166666667
4182, 1388.88888889, -7.5, 200
4183, 1388.88888889, -5, 194.166666667
4184, 1333.33333333, -2.5, 188
4185, 1333.33333333, -2.5, 194
4186, 1333.33333333, -2.5, 200
4187, 1333.33333333, 0, 194
4188, 1361.11111111, -2.5, 188.166666667
4189, 1361.11111111, -2.5, 194.083333333
4190, 1361.11111111, -2.5, 200
4191, 1361.11111111, 0, 188.166666667
4192, 1361.11111111, 0, 194.083333333
4193, 1361.11111111, 0, 200
4194, 1388.88888889, -2.5, 188.333333333
4195, 1388.88888889, -2.5, 194.166666667
4196, 1388.88888889, -2.5, 200
4197, 1388.88888889, 0, 194.166666667
4198, 1416.66666667, -5, 188.5
4199, 1416.66666667, -5, 194.25
4200, 1416.66666667, -5, 200
4201, 1416.66666667, -2.5, 188.5
4202, 1416.66666667, -2.5, 194.25
4203, 1416.66666667, -2.5, 200
4204, 1416.66666667, 0, 188.5
4205, 1416.66666667, 0, 194.25
4206, 1416.66666667, 0, 200
4207, 1444.44444444, -5, 194.333333333
4208, 1444.44444444, -2.5, 188.666666667
4209, 1444.44444444, -2.5, 194.333333333
4210, 1444.44444444, -2.5, 200
4211, 1444.44444444, 0, 194.333333333
4212, 1333.33333333, 2.5, 188
4213, 1333.33333333, 2.5, 194
4214, 1333.33333333, 2.5, 200
4215, 1333.33333333, 5, 194
4216, 1361.11111111, 2.5, 188.166666667
4217, 1361.11111111, 2.5, 194.083333333
4218, 1361.11111111, 2.5, 200
4219, 1361.11111111, 5, 188.166666667
4220, 1361.11111111, 5, 194.083333333
4221, 1361.11111111, 5, 200
4222, 1388.88888889, 2.5, 188.333333333
4223, 1388.88888889, 2.5, 194.166666667
4224, 1388.88888889, 2.5, 200
4225, 1388.88888889, 5, 194.166666667
4226, 1333.33333333, 7.5, 188
4227, 1333.33333333, 7.5, 194
4228, 1333.33333333, 7.5, 200
4229, 1333.33333333, 10, 194
4230, 1361.11111111, 7.5, 188.166666667
4231, 1361.11111111, 7.5, 194.083333333
4232, 1361.11111111, 7.5, 200
4233, 1361.11111111, 10, 188.166666667
4234, 1361.11111111, 10, 194.083333333
4235, 1361.11111111, 10, 200
4236, 1388.88888889, 7.5, 188.333333333
4237, 1388.88888889, 7.5, 194.166666667
4238, 1388.88888889, 7.5, 200
4239, 1388.88888889, 10, 194.166666667
4240, 1416.66666667, 2.5, 188.5
4241, 1416.66666667, 2.5, 194.25
4242, 1416.66666667, 2.5, 200
4243, 1416.66666667, 5, 188.5
4244, 1416.66666667, 5, 194.25
4245, 1416.66666667, 5, 200
4246, 1444.44444444, 2.5, 188.666666667
4247, 1444.44444444, 2.5, 194.333333333
4248, 1444.44444444, 2.5, 200
4249, 1444.44444444, 5, 194.333333333
4250, 1444.44444444, -5, 92.3333333333
4251, 1444.44444444, -2.5, 86.6666666667
4252, 1444.44444444, -2.5, 92.3333333333
4253, 1444.44444444, -2.5, 98
4254, 1444.44444444, 0, 92.3333333333
4255, 1472.22222222, -5, 88.3333333333
4256, 1472.22222222, -5, 93.9166666667
4257, 1472.22222222, -5, 99.5
4258, 1472.22222222, -2.5, 88.3333333333
4259, 1472.22222222, -2.5, 93.9166666667
4260, 1472.22222222, -2.5, 99.5
4261, 1472.22222222, 0, 88.3333333333
4262, 1472.22222222, 0, 93.9166666667
4263, 1472.22222222, 0, 99.5
4264, 1500, -5, 95.5
4265, 1500, -2.5, 90
4266, 1500, -2.5, 95.5
4267, 1500, -2.5, 101
4268, 1500, 0, 95.5
4269, 1500, -10, 95.5
4270, 1500, -7.5, 90
4271, 1500, -7.5, 95.5
4272, 1500, -7.5, 101
4273, 1527.77777778, -10, 91.6666666667
4274, 1527.77777778, -10, 97.0833333333
4275, 1527.77777778, -10, 102.5
4276, 1527.77777778, -7.5, 91.6666666667
4277, 1527.77777778, -7.5, 97.0833333333
4278, 1527.77777778, -7.5, 102.5
4279, 1527.77777778, -5, 91.6666666667
4280, 1527.77777778, -5, 97.0833333333
4281, 1527.77777778, -5, 102.5
4282, 1555.55555556, -10, 98.6666666667
4283, 1555.55555556, -7.5, 93.3333333333
4284, 1555.55555556, -7.5, 98.6666666667
4285, 1555.55555556, -7.5, 104
4286, 1555.55555556, -5, 98.6666666667
4287, 1527.77777778, -2.5, 91.6666666667
4288, 1527.77777778, -2.5, 97.0833333333
4289, 1527.77777778, -2.5, 102.5
4290, 1527.77777778, 0, 91.6666666667
4291, 1527.77777778, 0, 97.0833333333
4292, 1527.77777778, 0, 102.5
4293, 1555.55555556, -2.5, 93.3333333333
4294, 1555.55555556, -2.5, 98.6666666667
4295, 1555.55555556, -2.5, 104
4296, 1555.55555556, 0, 98.6666666667
4297, 1444.44444444, -10, 194.333333333
4298, 1444.44444444, -7.5, 188.666666667
4299, 1444.44444444, -7.5, 194.333333333
4300, 1444.44444444, -7.5, 200
4301, 1472.22222222, -10, 188.833333333
4302, 1472.22222222, -10, 194.416666667
4303, 1472.22222222, -10, 200
4304, 1472.22222222, -7.5, 188.833333333
4305, 1472.22222222, -7.5, 194.416666667
4306, 1472.22222222, -7.5, 200
4307, 1472.22222222, -5, 188.833333333
4308, 1472.22222222, -5, 194.416666667
4309, 1472.22222222, -5, 200
4310, 1500, -10, 194.5
4311, 1500, -7.5, 189
4312, 1500, -7.5, 194.5
4313, 1500, -7.5, 200
4314, 1500, -5, 194.5
4315, 1500, -2.5, 189
4316, 1500, -2.5, 194.5
4317, 1500, -2.5, 200
4318, 1500, 0, 194.5
4319, 1527.77777778, -5, 189.166666667
4320, 1527.77777778, -5, 194.583333333
4321, 1527.77777778, -5, 200
4322, 1527.77777778, -2.5, 189.166666667
4323, 1527.77777778, -2.5, 194.583333333
4324, 1527.77777778, -2.5, 200
4325, 1527.77777778, 0, 189.166666667
4326, 1527.77777778, 0, 194.583333333
4327, 1527.77777778, 0, 200
4328, 1555.55555556, -5, 194.666666667
4329, 1555.55555556, -2.5, 189.333333333
4330, 1555.55555556, -2.5, 194.666666667
4331, 1555.55555556, -2.5, 200
4332, 1555.55555556, 0, 194.666666667
4333, 1444.44444444, 2.5, 86.6666666667
4334, 1444.44444444, 2.5, 92.3333333333
4335, 1444.44444444, 2.5, 98
4336, 1444.44444444, 5, 92.3333333333
4337, 1472.22222222, 2.5, 88.3333333333
4338, 1472.22222222, 2.5, 93.9166666667
4339, 1472.22222222, 2.5, 99.5
4340, 1472.22222222, 5, 88.3333333333
4341, 1472.22222222, 5, 93.9166666667
4342, 1472.22222222, 5, 99.5
4343, 1500, 2.5, 90
4344, 1500, 2.5, 95.5
4345, 1500, 2.5, 101
4346, 1500, 5, 95.5
4347, 1444.44444444, 7.5, 86.6666666667
4348, 1444.44444444, 7.5, 92.3333333333
4349, 1444.44444444, 7.5, 98
4350, 1444.44444444, 10, 92.3333333333
4351, 1472.22222222, 7.5, 88.3333333333
4352, 1472.22222222, 7.5, 93.9166666667
4353, 1472.22222222, 7.5, 99.5
4354, 1472.22222222, 10, 88.3333333333
4355, 1472.22222222, 10, 93.9166666667
4356, 1472.22222222, 10, 99.5
4357, 1500, 7.5, 90
4358, 1500, 7.5, 95.5
4359, 1500, 7.5, 101
4360, 1500, 10, 95.5
4361, 1527.77777778, 2.5, 91.6666666667
4362, 1527.77777778, 2.5, 97.0833333333
4363, 1527.77777778, 2.5, 102.5
4364, 1527.77777778, 5, 91.6666666667
4365, 1527.77777778, 5, 97.0833333333
4366, 1527.77777778, 5, 102.5
4367, 1555.55555556, 2.5, 93.3333333333
4368, 1555.55555556, 2.5, 98.6666666667
4369, 1555.55555556, 2.5, 104
4370, 1555.55555556, 5, 98.6666666667
4371, 1527.77777778, 7.5, 91.6666666667
4372, 1527.77777778, 7.5, 97.0833333333
4373, 1527.77777778, 7.5, 102.5
4374, 1527.77777778, 10, 91.6666666667
4375, 1527.77777778, 10, 97.0833333333
4376, 1527.77777778, 10, 102.5
4377, 1555.55555556, 7.5, 93.3333333333
4378, 1555.55555556, 7.5, 98.6666666667
4379, 1555.55555556, 7.5, 104
4380, 1555.55555556, 10, 98.6666666667
4381, 1444.44444444, 7.5, 188.666666667
4382, 1444.44444444, 7.5, 194.333333333
4383, 1444.44444444, 7.5, 200
4384, 1444.44444444, 10, 194.333333333
4385, 1472.22222222, 5, 188.833333333
4386, 1472.22222222, 5, 194.416666667
4387, 1472.22222222, 5, 200
4388, 1472.22222222, 7.5, 188.833333333
4389, 1472.22222222, 7.5, 194.416666667
4390, 1472.22222222, 7.5, 200
4391, 1472.22222222, 10, 188.833333333
4392, 1472.22222222, 10, 194.416666667
4393, 1472.22222222, 10, 200
4394, 1500, 5, 194.5
4395, 1500, 7.5, 189
4396, 1500, 7.5, 194.5
4397, 1500, 7.5, 200
4398, 1500, 10, 194.5
4399, 1500, 2.5, 189
4400, 1500, 2.5, 194.5
4401, 1500, 2.5, 200
4402, 1527.77777778, 2.5, 189.166666667
4403, 1527.77777778, 2.5, 194.583333333
4404, 1527.77777778, 2.5, 200
4405, 1527.77777778, 5, 189.166666667
4406, 1527.77777778, 5, 194.583333333
4407, 1527.77777778, 5, 200
4408, 1555.55555556, 2.5, 189.333333333
4409, 1555.55555556, 2.5, 194.666666667
4410, 1555.55555556, 2.5, 200
4411, 1555.55555556, 5, 194.666666667
4412, 1583.33333333, -10, 95
4413, 1583.33333333, -10, 100.25
4414, 1583.33333333, -10, 105.5
4415, 1583.33333333, -7.5, 95
4416, 1583.33333333, -7.5, 100.25
4417, 1583.33333333, -7.5, 105.5
4418, 1583.33333333, -5, 95
4419, 1583.33333333, -5, 100.25
4420, 1583.33333333, -5, 105.5
4421, 1611.11111111, -10, 101.833333333
4422, 1611.11111111, -7.5, 96.6666666667
4423, 1611.11111111, -7.5, 101.833333333
4424, 1611.11111111, -7.5, 107
4425, 1611.11111111, -5, 101.833333333
4426, 1583.33333333, -2.5, 95
4427, 1583.33333333, -2.5, 100.25
4428, 1583.33333333, -2.5, 105.5
4429, 1583.33333333, 0, 95
4430, 1583.33333333, 0, 100.25
4431, 1583.33333333, 0, 105.5
4432, 1611.11111111, -2.5, 96.6666666667
4433, 1611.11111111, -2.5, 101.833333333
4434, 1611.11111111, -2.5, 107
4435, 1611.11111111, 0, 101.833333333
4436, 1638.88888889, -10, 98.3333333333
4437, 1638.88888889, -10, 103.416666667
4438, 1638.88888889, -10, 108.5
4439, 1638.88888889, -7.5, 98.3333333333
4440, 1638.88888889, -7.5, 103.416666667
4441, 1638.88888889, -7.5, 108.5
4442, 1638.88888889, -5, 98.3333333333
4443, 1638.88888889, -5, 103.416666667
4444, 1638.88888889, -5, 108.5
4445, 1666.66666667, -10, 105
4446, 1666.66666667, -7.5, 100
4447, 1666.66666667, -7.5, 105
4448, 1666.66666667, -7.5, 110
4449, 1666.66666667, -5, 105
4450, 1638.88888889, -2.5, 98.3333333333
4451, 1638.88888889, -2.5, 103.416666667
4452, 1638.88888889, -2.5, 108.5
4453, 1638.88888889, 0, 98.3333333333
4454, 1638.88888889, 0, 103.416666667
4455, 1638.88888889, 0, 108.5
4456, 1666.66666667, -2.5, 100
4457, 1666.66666667, -2.5, 105
4458, 1666.66666667, -2.5, 110
4459, 1666.66666667, 0, 105
4460, 1555.55555556, -10, 194.666666667
4461, 1555.55555556, -7.5, 189.333333333
4462, 1555.55555556, -7.5, 194.666666667
4463, 1555.55555556, -7.5, 200
4464, 1583.33333333, -10, 189.5
4465, 1583.33333333, -10, 194.75
4466, 1583.33333333, -10, 200
4467, 1583.33333333, -7.5, 189.5
4468, 1583.33333333, -7.5, 194.75
4469, 1583.33333333, -7.5, 200
4470, 1583.33333333, -5, 189.5
4471, 1583.33333333, -5, 194.75
4472, 1583.33333333, -5, 200
4473, 1611.11111111, -10, 194.833333333
4474, 1611.11111111, -7.5, 189.666666667
4475, 1611.11111111, -7.5, 194.833333333
4476, 1611.11111111, -7.5, 200
4477, 1611.11111111, -5, 194.833333333
4478, 1583.33333333, 2.5, 95
4479, 1583.33333333, 2.5, 100.25
4480, 1583.33333333, 2.5, 105.5
4481, 1583.33333333, 5, 95
4482, 1583.33333333, 5, 100.25
4483, 1583.33333333, 5, 105.5
4484, 1611.11111111, 2.5, 96.6666666667
4485, 1611.11111111, 2.5, 101.833333333
4486, 1611.11111111, 2.5, 107
4487, 1611.11111111, 5, 101.833333333
4488, 1583.33333333, 7.5, 95
4489, 1583.33333333, 7.5, 100.25
4490, 1583.33333333, 7.5, 105.5
4491, 1583.33333333, 10, 95
4492, 1583.33333333, 10, 100.25
4493, 1583.33333333, 10, 105.5
4494, 1611.11111111, 7.5, 96.6666666667
4495, 1611.11111111, 7.5, 101.833333333
4496, 1611.11111111, 7.5, 107
4497, 1611.11111111, 10, 101.833333333
4498, 1638.88888889, 2.5, 98.3333333333
4499, 1638.88888889, 2.5, 103.416666667
4500, 1638.88888889, 2.5, 108.5
4501, 1638.88888889, 5, 98.3333333333
4502, 1638.88888889, 5, 103.416666667
4503, 1638.88888889, 5, 108.5
4504, 1666.66666667, 2.5, 100
4505, 1666.66666667, 2.5, 105
4506, 1666.66666667, 2.5, 110
4507, 1638.88888889, 7.5, 98.3333333333
4508, 1638.88888889, 7.5, 103.416666667
4509, 1638.88888889, 7.5, 108.5
4510, 1638.88888889, 10, 98.3333333333
4511, 1638.88888889, 10, 103.416666667
4512, 1638.88888889, 10, 108.5
4513, 1555.55555556, 7.5, 189.333333333
4514, 1555.55555556, 7.5, 194.666666667
4515, 1555.55555556, 7.5, 200
4516, 1555.55555556, 10, 194.666666667
4517, 1583.33333333, 5, 189.5
4518, 1583.33333333, 5, 194.75
4519, 1583.33333333, 5, 200
4520, 1583.33333333, 7.5, 189.5
4521, 1583.33333333, 7.5, 194.75
4522, 1583.33333333, 7.5, 200
4523, 1583.33333333, 10, 189.5
4524, 1583.33333333, 10, 194.75
4525, 1583.33333333, 10, 200
4526, 1611.11111111, 5, 194.833333333
4527, 1611.11111111, 7.5, 189.666666667
4528, 1611.11111111, 7.5, 194.833333333
4529, 1611.11111111, 7.5, 200
4530, 1611.11111111, 10, 194.833333333
4531, 1694.44444444, -10, 101.666666667
4532, 1694.44444444, -10, 106.583333333
4533, 1694.44444444, -10, 111.5
4534, 1694.44444444, -7.5, 101.666666667
4535, 1694.44444444, -7.5, 106.583333333
4536, 1694.44444444, -7.5, 111.5
4537, 1694.44444444, -5, 101.666666667
4538, 1694.44444444, -5, 106.583333333
4539, 1694.44444444, -5, 111.5
4540, 1722.22222222, -10, 108.166666667
4541, 1722.22222222, -7.5, 103.333333333
4542, 1722.22222222, -7.5, 108.166666667
4543, 1722.22222222, -7.5, 113
4544, 1722.22222222, -5, 108.166666667
4545, 1694.44444444, -2.5, 101.666666667
4546, 1694.44444444, -2.5, 106.583333333
4547, 1694.44444444, -2.5, 111.5
4548, 1694.44444444, 0, 101.666666667
4549, 1694.44444444, 0, 106.583333333
4550, 1694.44444444, 0, 111.5
4551, 1722.22222222, -2.5, 103.333333333
4552, 1722.22222222, -2.5, 108.166666667
4553, 1722.22222222, -2.5, 113
4554, 1722.22222222, 0, 108.166666667
4555, 1750, -10, 105
4556, 1750, -10, 109.75
4557, 1750, -10, 114.5
4558, 1750, -7.5, 105
4559, 1750, -7.5, 109.75
4560, 1750, -7.5, 114.5
4561, 1750, -5, 105
4562, 1750, -5, 109.75
4563, 1750, -5, 114.5
4564, 1750, -2.5, 105
4565, 1750, -2.5, 109.75
4566, 1750, -2.5, 114.5
4567, 1750, 0, 105
4568, 1750, 0, 109.75
4569, 1750, 0, 114.5
4570, 1694.44444444, 2.5, 101.666666667
4571, 1694.44444444, 2.5, 106.583333333
4572, 1694.44444444, 2.5, 111.5
4573, 1722.22222222, 2.5, 103.333333333
4574, 1722.22222222, 2.5, 108.166666667
4575, 1722.22222222, 2.5, 113
4576, 1750, 2.5, 105
4577, 1750, 2.5, 109.75
4578, 1750, 2.5, 114.5
4579, 1750, 5, 105
4580, 1750, 5, 109.75
4581, 1750, 5, 114.5
4582, 1750, 7.5, 105
4583, 1750, 7.5, 109.75
4584, 1750, 7.5, 114.5
4585, 1750, 10, 105
4586, 1750, 10, 109.75
4587, 1750, 10, 114.5
4588, 1722.22222222, -10, 205
4589, 1722.22222222, -10, 210
4590, 1722.22222222, -5, 205
4591, 1722.22222222, -5, 210
4592, 1722.22222222, 0, 205
4593, 1722.22222222, 0, 210
4594, 1777.77777778, -10, 205
4595, 1777.77777778, -5, 205
4596, 1777.77777778, -5, 210
4597, 1777.77777778, 0, 205
4598, 1722.22222222, 5, 205
4599, 1722.22222222, 5, 210
4600, 1722.22222222, 10, 205
4601, 1722.22222222, 10, 210
4602, 1777.77777778, 5, 205
4603, 1777.77777778, 5, 210
4604, 1777.77777778, 10, 205
4605, 1833.33333333, -10, 123.5
4606, 1833.33333333, -7.5, 123.5
4607, 1833.33333333, -7.5, 128
4608, 1833.33333333, -5, 123.5
4609, 1861.11111111, -10, 124.916666667
4610, 1861.11111111, -10, 129.333333333
4611, 1861.11111111, -7.5, 124.916666667
4612, 1861.11111111, -7.5, 129.333333333
4613, 1861.11111111, -5, 124.916666667
4614, 1861.11111111, -5, 129.333333333
4615, 1888.88888889, -10, 126.333333333
4616, 1888.88888889, -7.5, 126.333333333
4617, 1888.88888889, -7.5, 130.666666667
4618, 1888.88888889, -5, 126.333333333
4619, 1833.33333333, -2.5, 123.5
4620, 1833.33333333, -2.5, 128
4621, 1833.33333333, 0, 123.5
4622, 1861.11111111, -2.5, 124.916666667
4623, 1861.11111111, -2.5, 129.333333333
4624, 1861.11111111, 0, 124.916666667
4625, 1861.11111111, 0, 129.333333333
4626, 1888.88888889, -2.5, 126.333333333
4627, 1888.88888889, -2.5, 130.666666667
4628, 1888.88888889, 0, 126.333333333
4629, 1833.33333333, 2.5, 123.5
4630, 1833.33333333, 2.5, 128
4631, 1833.33333333, 5, 123.5
4632, 1861.11111111, 2.5, 124.916666667
4633, 1861.11111111, 2.5, 129.333333333
4634, 1861.11111111, 5, 124.916666667
4635, 1861.11111111, 5, 129.333333333
4636, 1888.88888889, 2.5, 126.333333333
4637, 1888.88888889, 2.5, 130.666666667
4638, 1888.88888889, 5, 126.333333333
4639, 1833.33333333, 7.5, 123.5
4640, 1833.33333333, 7.5, 128
4641, 1833.33333333, 10, 123.5
4642, 1861.11111111, 7.5, 124.916666667
4643, 1861.11111111, 7.5, 129.333333333
4644, 1861.11111111, 10, 124.916666667
4645, 1861.11111111, 10, 129.333333333
4646, 1888.88888889, 7.5, 126.333333333
4647, 1888.88888889, 7.5, 130.666666667
4648, 1888.88888889, 10, 126.333333333
4649, 1833.33333333, -10, 205
4650, 1833.33333333, -10, 210
4651, 1833.33333333, -5, 205
4652, 1833.33333333, -5, 210
4653, 1833.33333333, 0, 205
4654, 1833.33333333, 0, 210
4655, 1833.33333333, 5, 205
4656, 1833.33333333, 5, 210
4657, 1833.33333333, 10, 205
4658, 1833.33333333, 10, 210
4659, 1916.66666667, -10, 127.75
4660, 1916.66666667, -10, 132
4661, 1916.66666667, -7.5, 127.75
4662, 1916.66666667, -7.5, 132
4663, 1916.66666667, -5, 127.75
4664, 1916.66666667, -5, 132
4665, 1916.66666667, -2.5, 127.75
4666, 1916.66666667, -2.5, 132
4667, 1916.66666667, 0, 127.75
4668, 1916.66666667, 0, 132
4669, 1944.44444444, -10, 137.5
4670, 1944.44444444, -7.5, 137.5
4671, 1944.44444444, -7.5, 141.666666667
4672, 1944.44444444, -5, 137.5
4673, 1972.22222222, -10, 138.75
4674, 1972.22222222, -10, 142.833333333
4675, 1972.22222222, -7.5, 138.75
4676, 1972.22222222, -7.5, 142.833333333
4677, 1972.22222222, -5, 138.75
4678, 1972.22222222, -5, 142.833333333
4679, 2000, -10, 140
4680, 2000, -7.5, 140
4681, 2000, -7.5, 144
4682, 2000, -5, 140
4683, 1944.44444444, -2.5, 137.5
4684, 1944.44444444, -2.5, 141.666666667
4685, 1944.44444444, 0, 137.5
4686, 1972.22222222, -2.5, 138.75
4687, 1972.22222222, -2.5, 142.833333333
4688, 1972.22222222, 0, 138.75
4689, 1972.22222222, 0, 142.833333333
4690, 2000, -2.5, 140
4691, 2000, -2.5, 144
4692, 2000, 0, 140
4693, 1944.44444444, -10, 195.833333333
4694, 1944.44444444, -7.5, 191.666666667
4695, 1944.44444444, -7.5, 195.833333333
4696, 1944.44444444, -7.5, 200
4697, 1944.44444444, -5, 195.833333333
4698, 1972.22222222, -10, 191.833333333
4699, 1972.22222222, -10, 195.916666667
4700, 1972.22222222, -10, 200
4701, 1972.22222222, -7.5, 191.833333333
4702, 1972.22222222, -7.5, 195.916666667
4703, 1972.22222222, -7.5, 200
4704, 1972.22222222, -5, 191.833333333
4705, 1972.22222222, -5, 195.916666667
4706, 1972.22222222, -5, 200
4707, 2000, -10, 196
4708, 2000, -7.5, 192
4709, 2000, -7.5, 196
4710, 2000, -7.5, 200
4711, 2000, -5, 196
4712, 1916.66666667, 2.5, 127.75
4713, 1916.66666667, 2.5, 132
4714, 1916.66666667, 5, 127.75
4715, 1916.66666667, 5, 132
4716, 1916.66666667, 7.5, 127.75
4717, 1916.66666667, 7.5, 132
4718, 1916.66666667, 10, 127.75
4719, 1916.66666667, 10, 132
4720, 1944.44444444, 2.5, 137.5
4721, 1944.44444444, 2.5, 141.666666667
4722, 1944.44444444, 5, 137.5
4723, 1972.22222222, 2.5, 138.75
4724, 1972.22222222, 2.5, 142.833333333
4725, 1972.22222222, 5, 138.75
4726, 1972.22222222, 5, 142.833333333
4727, 2000, 2.5, 140
4728, 2000, 2.5, 144
4729, 2000, 5, 140
4730, 1944.44444444, 7.5, 137.5
4731, 1944.44444444, 7.5, 141.666666667
4732, 1944.44444444, 10, 137.5
4733, 1972.22222222, 7.5, 138.75
4734, 1972.22222222, 7.5, 142.833333333
4735, 1972.22222222, 10, 138.75
4736, 1972.22222222, 10, 142.833333333
4737, 2000, 7.5, 140
4738, 2000, 7.5, 144
4739, 2000, 10, 140
4740, 1944.44444444, 5, 195.833333333
4741, 1944.44444444, 7.5, 191.666666667
4742, 1944.44444444, 7.5, 195.833333333
4743, 1944.44444444, 7.5, 200
4744, 1944.44444444, 10, 195.833333333
4745, 1972.22222222, 5, 191.833333333
4746, 1972.22222222, 5, 195.916666667
4747, 1972.22222222, 5, 200
4748, 1972.22222222, 7.5, 191.833333333
4749, 1972.22222222, 7.5, 195.916666667
4750, 1972.22222222, 7.5, 200
4751, 1972.22222222, 10, 191.833333333
4752, 1972.22222222, 10, 195.916666667
4753, 1972.22222222, 10, 200
4754, 2000, 5, 196
4755, 2000, 7.5, 192
4756, 2000, 7.5, 196
4757, 2000, 7.5, 200
4758, 2000, 10, 196
*ELEMENT, TYPE=C3D8, ELSET=EALL
1, 1, 1119, 1122, 1115, 1114, 1120, 1123, 1116
2, 1114, 1120, 1123, 1116, 5, 1121, 1124, 1117
3, 1115, 1122, 1125, 4, 1116, 1123, 1126, 1118
4, 1116, 1123, 1126, 1118, 1117, 1124, 1127, 8
5, 1119, 1701, 1704, 1697, 1696, 1702, 1705, 1698
6, 1696, 1702, 1705, 1698, 1120, 1703, 1706, 1699
7, 1697, 1704, 1707, 1122, 1698, 1705, 1708, 1700
8, 1698, 1705, 1708, 1700, 1699, 1706, 1709, 1123
9, 1701, 2, 1711, 1704, 1702, 1710, 1712, 1705
10, 1702, 1710, 1712, 1705, 1703, 1128, 1713, 1706
11, 1704, 1711, 1129, 1707, 1705, 1712, 1714, 1708
12, 1705, 1712, 1714, 1708, 1706, 1713, 1130, 1709
13, 1120, 1128, 1130, 1123, 1121, 6, 1131, 1124
14, 1122, 1707, 1719, 1715, 1700, 1708, 1720, 1716
15, 1700, 1708, 1720, 1716, 1123, 1709, 1721, 1717
16, 1715, 1719, 1722, 1125, 1716, 1720, 1723, 1718
17, 1716, 1720, 1723, 1718, 1717, 1721, 1724, 1126
18, 1707, 1129, 1725, 1719, 1708, 1714, 1726, 1720
19, 1708, 1714, 1726, 1720, 1709, 1130, 1727, 1721
20, 1719, 1725, 3, 1722, 1720, 1726, 1728, 1723
21, 1720, 1726, 1728, 1723, 1721, 1727, 1132, 1724
22, 1123, 1130, 1132, 1126, 1124, 1131, 7, 1127
23, 5, 1121, 1124, 1117, 1729, 1733, 1735, 1730
24, 1729, 1733, 1735, 1730, 9, 1734, 1736, 1731
25, 1117, 1124, 1127, 8, 1730, 1735, 1737, 1732
26, 1730, 1735, 1737, 1732, 1731, 1736, 1738, 12
27, 1121, 6, 1131, 1124, 1733, 1739, 1740, 1735
28, 1733, 1739, 1740, 1735, 1734, 10, 1741, 1736
29, 1124, 1131, 7, 1127, 1735, 1740, 1742, 1737
30, 1735, 1740, 1742, 1737, 1736, 1741, 11, 1738
31, 9, 1734, 1736, 1731, 1743, 1747, 1749, 1744
32, 1743, 1747, 1749, 1744, 13, 1748, 1750, 1745
33, 1731, 1736, 1738, 12, 1744, 1749, 1751, 1746
34, 1744, 1749, 1751, 1746, 1745, 1750, 1752, 16
35, 1734, 10, 1741, 1736, 1747, 1753, 1754, 1749
36, 1747, 1753, 1754, 1749, 1748, 14, 1755, 1750
37, 1736, 1741, 11, 1738, 1749, 1754, 1756, 1751
38, 1749, 1754, 1756, 1751, 1750, 1755, 15, 1752
39, 13, 1748, 1750, 1745, 2605, 2609, 2611, 2606
40, 2605, 2609, 2611, 2606, 17, 2610, 2612, 2607
41, 1745, 1750, 1752, 16, 2606, 2611, 2613, 2608
42, 2606, 2611, 2613, 2608, 2607, 2612, 2614, 20
43, 1748, 14, 1755, 1750, 2609, 2615, 2616, 2611
44, 2609, 2615, 2616, 2611, 2610, 18, 1816, 2612
45, 1750, 1755, 15, 1752, 2611, 2616, 2617, 2613
46, 2611, 2616, 2617, 2613, 2612, 1816, 19, 2614
47, 17, 2610, 2612, 2607, 2618, 2622, 2624, 2619
48, 2618, 2622, 2624, 2619, 21, 2623, 2625, 2620
49, 2607, 2612, 2614, 20, 2619, 2624, 2626, 2621
50, 2619, 2624, 2626, 2621, 2620, 2625, 2627, 24
51, 2610, 18, 1816, 2612, 2622, 1815, 1817, 2624
52, 2622, 1815, 1817, 2624, 2623, 22, 1818, 2625
53, 2612, 1816, 19, 2614, 2624, 1817, 1819, 2626
54, 2624, 1817, 1819, 2626, 2625, 1818, 23, 2627
55, 4, 1125, 1137, 1133, 1118, 1126, 1138, 1134
56, 1118, 1126, 1138, 1134, 8, 1127, 1139, 1135
57, 1133, 1137, 1140, 26, 1134, 1138, 1141, 1136
58, 1134, 1138, 1141, 1136, 1135, 1139, 1142, 28
59, 1125, 1722, 1761, 1757, 1718, 1723, 1762, 1758
60, 1718, 1723, 1762, 1758, 1126, 1724, 1763, 1759
61, 1757, 1761, 1764, 1137, 1758, 1762, 1765, 1760
62, 1758, 1762, 1765, 1760, 1759, 1763, 1766, 1138
63, 1722, 3, 1767, 1761, 1723, 1728, 1768, 1762
64, 1723, 1728, 1768, 1762, 1724, 1132, 1769, 1763
65, 1761, 1767, 1143, 1764, 1762, 1768, 1770, 1765
66, 1762, 1768, 1770, 1765, 1763, 1769, 1144, 1766
67, 1126, 1132, 1144, 1138, 1127, 7, 1145, 1139
68, 1137, 1764, 1775, 1771, 1760, 1765, 1776, 1772
69, 1760, 1765, 1776, 1772, 1138, 1766, 1777, 1773
70, 1771, 1775, 1778, 1140, 1772, 1776, 1779, 1774
71, 1772, 1776, 1779, 1774, 1773, 1777, 1780, 1141
72, 1764, 1143, 1781, 1775, 1765, 1770, 1782, 1776
73, 1765, 1770, 1782, 1776, 1766, 1144, 1783, 1777
74, 1775, 1781, 25, 1778, 1776, 1782, 1784, 1779
75, 1776, 1782, 1784, 1779, 1777, 1783, 1146, 1780
76, 1138, 1144, 1146, 1141, 1139, 1145, 27, 1142
77, 8, 1127, 1139, 1135, 1732, 1737, 1788, 1785
78, 1732, 1737, 1788, 1785, 12, 1738, 1789, 1786
79, 1135, 1139, 1142, 28, 1785, 1788, 1790, 1787
80, 1785, 1788, 1790, 1787, 1786, 1789, 1791, 30
81, 1127, 7, 1145, 1139, 1737, 1742, 1792, 1788
82, 1737, 1742, 1792, 1788, 1738, 11, 1793, 1789
83, 1139, 1145, 27, 1142, 1788, 1792, 1794, 1790
84, 1788, 1792, 1794, 1790, 1789, 1793, 29, 1791
85, 12, 1738, 1789, 1786, 1746, 1751, 1798, 1795
86, 1746, 1751, 1798, 1795, 16, 1752, 1799, 1796
87, 1786, 1789, 1791, 30, 1795, 1798, 1800, 1797
88, 1795, 1798, 1800, 1797, 1796, 1799, 1801, 32
89, 1738, 11, 1793, 1789, 1751, 1756, 1802, 1798
90, 1751, 1756, 1802, 1798, 1752, 15, 1803, 1799
91, 1789, 1793, 29, 1791, 1798, 1802, 1804, 1800
92, 1798, 1802, 1804, 1800, 1799, 1803, 31, 1801
93, 16, 1752, 1799, 1796, 2608, 2613, 2631, 2628
94, 2608, 2613, 2631, 2628, 20, 2614, 2632, 2629
95, 1796, 1799, 1801, 32, 2628, 2631, 2633, 2630
96, 2628, 2631, 2633, 2630, 2629, 2632, 2634, 34
97, 1752, 15, 1803, 1799, 2613, 2617, 2635, 2631
98, 2613, 2617, 2635, 2631, 2614, 19, 1841, 2632
99, 1799, 1803, 31, 1801, 2631, 2635, 2636, 2633
100, 2631, 2635, 2636, 2633, 2632, 1841, 33, 2634
101, 20, 2614, 2632, 2629, 2621, 2626, 2640, 2637
102, 2621, 2626, 2640, 2637, 24, 2627, 2641, 2638
103, 2629, 2632, 2634, 34, 2637, 2640, 2642, 2639
104, 2637, 2640, 2642, 2639, 2638, 2641, 2643, 36
105, 2614, 19, 1841, 2632, 2626, 1819, 1842, 2640
106, 2626, 1819, 1842, 2640, 2627, 23, 1843, 2641
107, 2632, 1841, 33, 2634, 2640, 1842, 1844, 2642
108, 2640, 1842, 1844, 2642, 2641, 1843, 35, 2643
109, 37, 38, 39, 40, 41, 42, 43, 44
110, 41, 42, 43, 44, 45, 46, 47, 48
111, 40, 39, 49, 50, 44, 43, 51, 52
112, 44, 43, 51, 52, 48, 47, 53, 54
113, 50, 49, 55, 56, 52, 51, 57, 58
114, 52, 51, 57, 58, 54, 53, 59, 60
115, 56, 55, 22, 21, 58, 57, 61, 62
116, 58, 57, 61, 62, 60, 59, 63, 64
117, 21, 2623, 2625, 2620, 3319, 3323, 3325, 3320
118, 3319, 3323, 3325, 3320, 62, 3324, 3326, 3321
119, 2620, 2625, 2627, 24, 3320, 3325, 3327, 3322
120, 3320, 3325, 3327, 3322, 3321, 3326, 3328, 66
121, 2623, 22, 1818, 2625, 3323, 3329, 3330, 3325
122, 3323, 3329, 3330, 3325, 3324, 61, 3331, 3326
123, 2625, 1818, 23, 2627, 3325, 3330, 3332, 3327
124, 3325, 3330, 3332, 3327, 3326, 3331, 65, 3328
125, 62, 61, 65, 66, 64, 63, 67, 68
126, 24, 2627, 2641, 2638, 3322, 3327, 3336, 3333
127, 3322, 3327, 3336, 3333, 66, 3328, 3337, 3334
128, 2638, 2641, 2643, 36, 3333, 3336, 3338, 3335
129, 3333, 3336, 3338, 3335, 3334, 3337, 3339, 70
130, 2627, 23, 1843, 2641, 3327, 3332, 3340, 3336
131, 3327, 3332, 3340, 3336, 3328, 65, 3341, 3337
132, 2641, 1843, 35, 2643, 3336, 3340, 3342, 3338
133, 3336, 3340, 3342, 3338, 3337, 3341, 69, 3339
134, 66, 65, 69, 70, 68, 67, 71, 72
135, 36, 35, 73, 74, 70, 69, 75, 76
136, 70, 69, 75, 76, 72, 71, 77, 78
137, 74, 73, 79, 80, 76, 75, 81, 82
138, 76, 75, 81, 82, 78, 77, 83, 84
139, 80, 79, 85, 86, 82, 81, 87, 88
140, 82, 81, 87, 88, 84, 83, 89, 90
141, 86, 85, 91, 92, 88, 87, 93, 94
142, 88, 87, 93, 94, 90, 89, 95, 96
143, 2, 1147, 1150, 1129, 1128, 1148, 1151, 1130
144, 1128, 1148, 1151, 1130, 6, 1149, 1152, 1131
145, 1129, 1150, 1153, 3, 1130, 1151, 1154, 1132
146, 1130, 1151, 1154, 1132, 1131, 1152, 1155, 7
147, 1147, 97, 1157, 1150, 1148, 1156, 1158, 1151
148, 1148, 1156, 1158, 1151, 1149, 99, 1159, 1152
149, 1150, 1157, 98, 1153, 1151, 1158, 1160, 1154
150, 1151, 1158, 1160, 1154, 1152, 1159, 100, 1155
151, 6, 1149, 1152, 1131, 1739, 1805, 1807, 1740
152, 1739, 1805, 1807, 1740, 10, 1806, 1808, 1741
153, 1131, 1152, 1155, 7, 1740, 1807, 1809, 1742
154, 1740, 1807, 1809, 1742, 1741, 1808, 1810, 11
155, 1149, 99, 1159, 1152, 1805, 1811, 1812, 1807
156, 1805, 1811, 1812, 1807, 1806, 101, 1813, 1808
157, 1152, 1159, 100, 1155, 1807, 1812, 1814, 1809
158, 1807, 1812, 1814, 1809, 1808, 1813, 102, 1810
159, 10, 1806, 1808, 1741, 1753, 2644, 2646, 1754
160, 1753, 2644, 2646, 1754, 14, 2645, 2647, 1755
161, 1741, 1808, 1810, 11, 1754, 2646, 2648, 1756
162, 1754, 2646, 2648, 1756, 1755, 2647, 2649, 15
163, 1806, 101, 1813, 1808, 2644, 2650, 2651, 2646
164, 2644, 2650, 2651, 2646, 2645, 103, 2652, 2647
165, 1808, 1813, 102, 1810, 2646, 2651, 2653, 2648
166, 2646, 2651, 2653, 2648, 2647, 2652, 104, 2649
167, 14, 2645, 2647, 1755, 2615, 3343, 3344, 2616
168, 2615, 3343, 3344, 2616, 18, 1820, 1823, 1816
169, 1755, 2647, 2649, 15, 2616, 3344, 3345, 2617
170, 2616, 3344, 3345, 2617, 1816, 1823, 1826, 19
171, 2645, 103, 2652, 2647, 3343, 3346, 3347, 3344
172, 3343, 3346, 3347, 3344, 1820, 105, 1830, 1823
173, 2647, 2652, 104, 2649, 3344, 3347, 3348, 3345
174, 3344, 3347, 3348, 3345, 1823, 1830, 106, 1826
175, 18, 1820, 1823, 1816, 1815, 1821, 1824, 1817
176, 1815, 1821, 1824, 1817, 22, 1822, 1825, 1818
177, 1816, 1823, 1826, 19, 1817, 1824, 1827, 1819
178, 1817, 1824, 1827, 1819, 1818, 1825, 1828, 23
179, 1820, 105, 1830, 1823, 1821, 1829, 1831, 1824
180, 1821, 1829, 1831, 1824, 1822, 107, 1832, 1825
181, 1823, 1830, 106, 1826, 1824, 1831, 1833, 1827
182, 1824, 1831, 1833, 1827, 1825, 1832, 108, 1828
183, 3, 1153, 1161, 1143, 1132, 1154, 1162, 1144
184, 1132, 1154, 1162, 1144, 7, 1155, 1163, 1145
185, 1143, 1161, 1164, 25, 1144, 1162, 1165, 1146
186, 1144, 1162, 1165, 1146, 1145, 1163, 1166, 27
187, 1153, 98, 1167, 1161, 1154, 1160, 1168, 1162
188, 1154, 1160, 1168, 1162, 1155, 100, 1169, 1163
189, 1161, 1167, 109, 1164, 1162, 1168, 1170, 1165
190, 1162, 1168, 1170, 1165, 1163, 1169, 110, 1166
191, 7, 1155, 1163, 1145, 1742, 1809, 1834, 1792
192, 1742, 1809, 1834, 1792, 11, 1810, 1835, 1793
193, 1145, 1163, 1166, 27, 1792, 1834, 1836, 1794
194, 1792, 1834, 1836, 1794, 1793, 1835, 1837, 29
195, 1155, 100, 1169, 1163, 1809, 1814, 1838, 1834
196, 1809, 1814, 1838, 1834, 1810, 102, 1839, 1835
197, 1163, 1169, 110, 1166, 1834, 1838, 1840, 1836
198, 1834, 1838, 1840, 1836, 1835, 1839, 111, 1837
199, 11, 1810, 1835, 1793, 1756, 2648, 2654, 1802
200, 1756, 2648, 2654, 1802, 15, 2649, 2655, 1803
201, 1793, 1835, 1837, 29, 1802, 2654, 2656, 1804
202, 1802, 2654, 2656, 1804, 1803, 2655, 2657, 31
203, 1810, 102, 1839, 1835, 2648, 2653, 2658, 2654
204, 2648, 2653, 2658, 2654, 2649, 104, 2659, 2655
205, 1835, 1839, 111, 1837, 2654, 2658, 2660, 2656
206, 2654, 2658, 2660, 2656, 2655, 2659, 112, 2657
207, 15, 2649, 2655, 1803, 2617, 3345, 3349, 2635
208, 2617, 3345, 3349, 2635, 19, 1826, 1845, 1841
209, 1803, 2655, 2657, 31, 2635, 3349, 3350, 2636
210, 2635, 3349, 3350, 2636, 1841, 1845, 1848, 33
211, 2649, 104, 2659, 2655, 3345, 3348, 3351, 3349
212, 3345, 3348, 3351, 3349, 1826, 106, 1851, 1845
213, 2655, 2659, 112, 2657, 3349, 3351, 3352, 3350
214, 3349, 3351, 3352, 3350, 1845, 1851, 113, 1848
215, 19, 1826, 1845, 1841, 1819, 1827, 1846, 1842
216, 1819, 1827, 1846, 1842, 23, 1828, 1847, 1843
217, 1841, 1845, 1848, 33, 1842, 1846, 1849, 1844
218, 1842, 1846, 1849, 1844, 1843, 1847, 1850, 35
219, 1826, 106, 1851, 1845, 1827, 1833, 1852, 1846
220, 1827, 1833, 1852, 1846, 1828, 108, 1853, 1847
221, 1845, 1851, 113, 1848, 1846, 1852, 1854, 1849
222, 1846, 1852, 1854, 1849, 1847, 1853, 114, 1850
223, 38, 3358, 3361, 3354, 3353, 3359, 3362, 3355
224, 3353, 3359, 3362, 3355, 42, 3360, 3363, 3356
225, 3354, 3361, 3364, 39, 3355, 3362, 3365, 3357
226, 3355, 3362, 3365, 3357, 3356, 3363, 3366, 43
227, 3358, 115, 3368, 3361, 3359, 3367, 3369, 3362
228, 3359, 3367, 3369, 3362, 3360, 117, 3370, 3363
229, 3361, 3368, 116, 3364, 3362, 3369, 3371, 3365
230, 3362, 3369, 3371, 3365, 3363, 3370, 118, 3366
231, 42, 3360, 3363, 3356, 3372, 3376, 3378, 3373
232, 3372, 3376, 3378, 3373, 46, 3377, 3379, 3374
233, 3356, 3363, 3366, 43, 3373, 3378, 3380, 3375
234, 3373, 3378, 3380, 3375, 3374, 3379, 3381, 47
235, 3360, 117, 3370, 3363, 3376, 3382, 3383, 3378
236, 3376, 3382, 3383, 3378, 3377, 119, 3384, 3379
237, 3363, 3370, 118, 3366, 3378, 3383, 3385, 3380
238, 3378, 3383, 3385, 3380, 3379, 3384, 120, 3381
239, 39, 116, 121, 49, 43, 118, 122, 51
240, 43, 3366, 3390, 3386, 3375, 3380, 3391, 3387
241, 3375, 3380, 3391, 3387, 47, 3381, 3392, 3388
242, 3386, 3390, 3393, 51, 3387, 3391, 3394, 3389
243, 3387, 3391, 3394, 3389, 3388, 3392, 3395, 53
244, 3366, 118, 3396, 3390, 3380, 3385, 3397, 3391
245, 3380, 3385, 3397, 3391, 3381, 120, 3398, 3392
246, 3390, 3396, 122, 3393, 3391, 3397, 3399, 3394
247, 3391, 3397, 3399, 3394, 3392, 3398, 123, 3395
248, 49, 121, 124, 55, 51, 122, 125, 57
249, 51, 3393, 3404, 3400, 3389, 3394, 3405, 3401
250, 3389, 3394, 3405, 3401, 53, 3395, 3406, 3402
251, 3400, 3404, 3407, 57, 3401, 3405, 3408, 3403
252, 3401, 3405, 3408, 3403, 3402, 3406, 3409, 59
253, 3393, 122, 3410, 3404, 3394, 3399, 3411, 3405
254, 3394, 3399, 3411, 3405, 3395, 123, 3412, 3406
255, 3404, 3410, 125, 3407, 3405, 3411, 3413, 3408
256, 3405, 3411, 3413, 3408, 3406, 3412, 126, 3409
257, 55, 124, 107, 22, 57, 125, 127, 61
258, 57, 3407, 3418, 3414, 3403, 3408, 3419, 3415
259, 3403, 3408, 3419, 3415, 59, 3409, 3420, 3416
260, 3414, 3418, 3421, 61, 3415, 3419, 3422, 3417
261, 3415, 3419, 3422, 3417, 3416, 3420, 3423, 63
262, 3407, 125, 3424, 3418, 3408, 3413, 3425, 3419
263, 3408, 3413, 3425, 3419, 3409, 126, 3426, 3420
264, 3418, 3424, 127, 3421, 3419, 3425, 3427, 3422
265, 3419, 3425, 3427, 3422, 3420, 3426, 128, 3423
266, 22, 1822, 1825, 1818, 3329, 3428, 3429, 3330
267, 3329, 3428, 3429, 3330, 61, 3421, 3430, 3331
268, 1818, 1825, 1828, 23, 3330, 3429, 3431, 3332
269, 3330, 3429, 3431, 3332, 3331, 3430, 3432, 65
270, 1822, 107, 1832, 1825, 3428, 3433, 3434, 3429
271, 3428, 3433, 3434, 3429, 3421, 127, 3435, 3430
272, 1825, 1832, 108, 1828, 3429, 3434, 3436, 3431
273, 3429, 3434, 3436, 3431, 3430, 3435, 129, 3432
274, 61, 127, 129, 65, 63, 128, 130, 67
275, 23, 1828, 1847, 1843, 3332, 3431, 3437, 3340
276, 3332, 3431, 3437, 3340, 65, 3432, 3438, 3341
277, 1843, 1847, 1850, 35, 3340, 3437, 3439, 3342
278, 3340, 3437, 3439, 3342, 3341, 3438, 3440, 69
279, 1828, 108, 1853, 1847, 3431, 3436, 3441, 3437
280, 3431, 3436, 3441, 3437, 3432, 129, 3442, 3438
281, 1847, 1853, 114, 1850, 3437, 3441, 3443, 3439
282, 3437, 3441, 3443, 3439, 3438, 3442, 131, 3440
283, 65, 129, 131, 69, 67, 130, 132, 71
284, 35, 114, 133, 73, 69, 131, 134, 75
285, 69, 3440, 3451, 3445, 3444, 3449, 3452, 3446
286, 3444, 3449, 3452, 3446, 71, 3450, 3453, 3447
287, 3445, 3451, 3454, 75, 3446, 3452, 3455, 3448
288, 3446, 3452, 3455, 3448, 3447, 3453, 3456, 77
289, 3440, 131, 3458, 3451, 3449, 3457, 3459, 3452
290, 3449, 3457, 3459, 3452, 3450, 132, 3460, 3453
291, 3451, 3458, 134, 3454, 3452, 3459, 3461, 3455
292, 3452, 3459, 3461, 3455, 3453, 3460, 135, 3456
293, 73, 133, 136, 79, 75, 134, 137, 81
294, 75, 3454, 3466, 3462, 3448, 3455, 3467, 3463
295, 3448, 3455, 3467, 3463, 77, 3456, 3468, 3464
296, 3462, 3466, 3469, 81, 3463, 3467, 3470, 3465
297, 3463, 3467, 3470, 3465, 3464, 3468, 3471, 83
298, 3454, 134, 3472, 3466, 3455, 3461, 3473, 3467
299, 3455, 3461, 3473, 3467, 3456, 135, 3474, 3468
300, 3466, 3472, 137, 3469, 3467, 3473, 3475, 3470
301, 3467, 3473, 3475, 3470, 3468, 3474, 138, 3471
302, 79, 136, 139, 85, 81, 137, 140, 87
303, 81, 3469, 3480, 3476, 3465, 3470, 3481, 3477
304, 3465, 3470, 3481, 3477, 83, 3471, 3482, 3478
305, 3476, 3480, 3483, 87, 3477, 3481, 3484, 3479
306, 3477, 3481, 3484, 3479, 3478, 3482, 3485, 89
307, 3469, 137, 3486, 3480, 3470, 3475, 3487, 3481
308, 3470, 3475, 3487, 3481, 3471, 138, 3488, 3482
309, 3480, 3486, 140, 3483, 3481, 3487, 3489, 3484
310, 3481, 3487, 3489, 3484, 3482, 3488, 141, 3485
311, 85, 3495, 3497, 3491, 3490, 3496, 3498, 3492
312, 3490, 3496, 3498, 3492, 87, 3483, 3499, 3493
313, 3491, 3497, 3500, 91, 3492, 3498, 3501, 3494
314, 3492, 3498, 3501, 3494, 3493, 3499, 3502, 93
315, 3495, 139, 3504, 3497, 3496, 3503, 3505, 3498
316, 3496, 3503, 3505, 3498, 3483, 140, 3506, 3499
317, 3497, 3504, 142, 3500, 3498, 3505, 3507, 3501
318, 3498, 3505, 3507, 3501, 3499, 3506, 143, 3502
319, 87, 3483, 3499, 3493, 3479, 3484, 3511, 3508
320, 3479, 3484, 3511, 3508, 89, 3485, 3512, 3509
321, 3493, 3499, 3502, 93, 3508, 3511, 3513, 3510
322, 3508, 3511, 3513, 3510, 3509, 3512, 3514, 95
323, 3483, 140, 3506, 3499, 3484, 3489, 3515, 3511
324, 3484, 3489, 3515, 3511, 3485, 141, 3516, 3512
325, 3499, 3506, 143, 3502, 3511, 3515, 3517, 3513
326, 3511, 3515, 3517, 3513, 3512, 3516, 144, 3514
327, 97, 1855, 1858, 1157, 1156, 1856, 1859, 1158
328, 1156, 1856, 1859, 1158, 99, 1857, 1860, 1159
329, 1157, 1858, 1861, 98, 1158, 1859, 1862, 1160
330, 1158, 1859, 1862, 1160, 1159, 1860, 1863, 100
331, 1855, 145, 1865, 1858, 1856, 1864, 1866, 1859
332, 1856, 1864, 1866, 1859, 1857, 147, 1867, 1860
333, 1858, 1865, 146, 1861, 1859, 1866, 1868, 1862
334, 1859, 1866, 1868, 1862, 1860, 1867, 148, 1863
335, 99, 1857, 1860, 1159, 1811, 2661, 2663, 1812
336, 1811, 2661, 2663, 1812, 101, 2662, 2664, 1813
337, 1159, 1860, 1863, 100, 1812, 2663, 2665, 1814
338, 1812, 2663, 2665, 1814, 1813, 2664, 2666, 102
339, 1857, 147, 1867, 1860, 2661, 2667, 2668, 2663
340, 2661, 2667, 2668, 2663, 2662, 149, 2669, 2664
341, 1860, 1867, 148, 1863, 2663, 2668, 2670, 2665
342, 2663, 2668, 2670, 2665, 2664, 2669, 150, 2666
343, 101, 2662, 2664, 1813, 2650, 3518, 3520, 2651
344, 2650, 3518, 3520, 2651, 103, 3519, 3521, 2652
345, 1813, 2664, 2666, 102, 2651, 3520, 3522, 2653
346, 2651, 3520, 3522, 2653, 2652, 3521, 3523, 104
347, 2662, 149, 2669, 2664, 3518, 3524, 3525, 3520
348, 3518, 3524, 3525, 3520, 3519, 151, 3526, 3521
349, 2664, 2669, 150, 2666, 3520, 3525, 3527, 3522
350, 3520, 3525, 3527, 3522, 3521, 3526, 152, 3523
351, 103, 3519, 3521, 2652, 3346, 3528, 3529, 3347
352, 3346, 3528, 3529, 3347, 105, 2671, 2674, 1830
353, 2652, 3521, 3523, 104, 3347, 3529, 3530, 3348
354, 3347, 3529, 3530, 3348, 1830, 2674, 2677, 106
355, 3519, 151, 3526, 3521, 3528, 3531, 3532, 3529
356, 3528, 3531, 3532, 3529, 2671, 153, 2681, 2674
357, 3521, 3526, 152, 3523, 3529, 3532, 3533, 3530
358, 3529, 3532, 3533, 3530, 2674, 2681, 154, 2677
359, 105, 2671, 2674, 1830, 1829, 2672, 2675, 1831
360, 1829, 2672, 2675, 1831, 107, 2673, 2676, 1832
361, 1830, 2674, 2677, 106, 1831, 2675, 2678, 1833
362, 1831, 2675, 2678, 1833, 1832, 2676, 2679, 108
363, 2671, 153, 2681, 2674, 2672, 2680, 2682, 2675
364, 2672, 2680, 2682, 2675, 2673, 155, 2683, 2676
365, 2674, 2681, 154, 2677, 2675, 2682, 2684, 2678
366, 2675, 2682, 2684, 2678, 2676, 2683, 156, 2679
367, 98, 1861, 1869, 1167, 1160, 1862, 1870, 1168
368, 1160, 1862, 1870, 1168, 100, 1863, 1871, 1169
369, 1167, 1869, 1872, 109, 1168, 1870, 1873, 1170
370, 1168, 1870, 1873, 1170, 1169, 1871, 1874, 110
371, 1861, 146, 1875, 1869, 1862, 1868, 1876, 1870
372, 1862, 1868, 1876, 1870, 1863, 148, 1877, 1871
373, 1869, 1875, 157, 1872, 1870, 1876, 1878, 1873
374, 1870, 1876, 1878, 1873, 1871, 1877, 158, 1874
375, 100, 1863, 1871, 1169, 1814, 2665, 2685, 1838
376, 1814, 2665, 2685, 1838, 102, 2666, 2686, 1839
377, 1169, 1871, 1874, 110, 1838, 2685, 2687, 1840
378, 1838, 2685, 2687, 1840, 1839, 2686, 2688, 111
379, 1863, 148, 1877, 1871, 2665, 2670, 2689, 2685
380, 2665, 2670, 2689, 2685, 2666, 150, 2690, 2686
381, 1871, 1877, 158, 1874, 2685, 2689, 2691, 2687
382, 2685, 2689, 2691, 2687, 2686, 2690, 159, 2688
383, 102, 2666, 2686, 1839, 2653, 3522, 3534, 2658
384, 2653, 3522, 3534, 2658, 104, 3523, 3535, 2659
385, 1839, 2686, 2688, 111, 2658, 3534, 3536, 2660
386, 2658, 3534, 3536, 2660, 2659, 3535, 3537, 112
387, 2666, 150, 2690, 2686, 3522, 3527, 3538, 3534
388, 3522, 3527, 3538, 3534, 3523, 152, 3539, 3535
389, 2686, 2690, 159, 2688, 3534, 3538, 3540, 3536
390, 3534, 3538, 3540, 3536, 3535, 3539, 160, 3537
391, 104, 3523, 3535, 2659, 3348, 3530, 3541, 3351
392, 3348, 3530, 3541, 3351, 106, 2677, 2692, 1851
393, 2659, 3535, 3537, 112, 3351, 3541, 3542, 3352
394, 3351, 3541, 3542, 3352, 1851, 2692, 2695, 113
395, 3523, 152, 3539, 3535, 3530, 3533, 3543, 3541
396, 3530, 3533, 3543, 3541, 2677, 154, 2698, 2692
397, 3535, 3539, 160, 3537, 3541, 3543, 3544, 3542
398, 3541, 3543, 3544, 3542, 2692, 2698, 161, 2695
399, 106, 2677, 2692, 1851, 1833, 2678, 2693, 1852
400, 1833, 2678, 2693, 1852, 108, 2679, 2694, 1853
401, 1851, 2692, 2695, 113, 1852, 2693, 2696, 1854
402, 1852, 2693, 2696, 1854, 1853, 2694, 2697, 114
403, 2677, 154, 2698, 2692, 2678, 2684, 2699, 2693
404, 2678, 2684, 2699, 2693, 2679, 156, 2700, 2694
405, 2692, 2698, 161, 2695, 2693, 2699, 2701, 2696
406, 2693, 2699, 2701, 2696, 2694, 2700, 162, 2697
407, 115, 163, 164, 116, 117, 165, 166, 118
408, 117, 165, 166, 118, 119, 167, 168, 120
409, 116, 164, 169, 121, 118, 166, 170, 122
410, 118, 166, 170, 122, 120, 168, 171, 123
411, 121, 169, 172, 124, 122, 170, 173, 125
412, 122, 170, 173, 125, 123, 171, 174, 126
413, 124, 172, 155, 107, 125, 173, 175, 127
414, 125, 173, 175, 127, 126, 174, 176, 128
415, 107, 2673, 2676, 1832, 3433, 3545, 3547, 3434
416, 3433, 3545, 3547, 3434, 127, 3546, 3548, 3435
417, 1832, 2676, 2679, 108, 3434, 3547, 3549, 3436
418, 3434, 3547, 3549, 3436, 3435, 3548, 3550, 129
419, 2673, 155, 2683, 2676, 3545, 3551, 3552, 3547
420, 3545, 3551, 3552, 3547, 3546, 175, 3553, 3548
421, 2676, 2683, 156, 2679, 3547, 3552, 3554, 3549
422, 3547, 3552, 3554, 3549, 3548, 3553, 177, 3550
423, 127, 175, 177, 129, 128, 176, 178, 130
424, 108, 2679, 2694, 1853, 3436, 3549, 3555, 3441
425, 3436, 3549, 3555, 3441, 129, 3550, 3556, 3442
426, 1853, 2694, 2697, 114, 3441, 3555, 3557, 3443
427, 3441, 3555, 3557, 3443, 3442, 3556, 3558, 131
428, 2679, 156, 2700, 2694, 3549, 3554, 3559, 3555
429, 3549, 3554, 3559, 3555, 3550, 177, 3560, 3556
430, 2694, 2700, 162, 2697, 3555, 3559, 3561, 3557
431, 3555, 3559, 3561, 3557, 3556, 3560, 179, 3558
432, 129, 177, 179, 131, 130, 178, 180, 132
433, 114, 162, 181, 133, 131, 179, 182, 134
434, 131, 179, 182, 134, 132, 180, 183, 135
435, 133, 181, 184, 136, 134, 182, 185, 137
436, 134, 182, 185, 137, 135, 183, 186, 138
437, 136, 184, 187, 139, 137, 185, 188, 140
438, 137, 185, 188, 140, 138, 186, 189, 141
439, 139, 187, 190, 142, 140, 188, 191, 143
440, 140, 188, 191, 143, 141, 189, 192, 144
441, 145, 1879, 1882, 1865, 1864, 1880, 1883, 1866
442, 1864, 1880, 1883, 1866, 147, 1881, 1884, 1867
443, 1865, 1882, 1885, 146, 1866, 1883, 1886, 1868
444, 1866, 1883, 1886, 1868, 1867, 1884, 1887, 148
445, 1879, 193, 1889, 1882, 1880, 1888, 1890, 1883
446, 1880, 1888, 1890, 1883, 1881, 195, 1891, 1884
447, 1882, 1889, 194, 1885, 1883, 1890, 1892, 1886
448, 1883, 1890, 1892, 1886, 1884, 1891, 196, 1887
449, 147, 1881, 1884, 1867, 2667, 2702, 2704, 2668
450, 2667, 2702, 2704, 2668, 149, 2703, 2705, 2669
451, 1867, 1884, 1887, 148, 2668, 2704, 2706, 2670
452, 2668, 2704, 2706, 2670, 2669, 2705, 2707, 150
453, 1881, 195, 1891, 1884, 2702, 2708, 2709, 2704
454, 2702, 2708, 2709, 2704, 2703, 197, 2710, 2705
455, 1884, 1891, 196, 1887, 2704, 2709, 2711, 2706
456, 2704, 2709, 2711, 2706, 2705, 2710, 198, 2707
457, 149, 2703, 2705, 2669, 3524, 3562, 3564, 3525
458, 3524, 3562, 3564, 3525, 151, 3563, 3565, 3526
459, 2669, 2705, 2707, 150, 3525, 3564, 3566, 3527
460, 3525, 3564, 3566, 3527, 3526, 3565, 3567, 152
461, 2703, 197, 2710, 2705, 3562, 3568, 3569, 3564
462, 3562, 3568, 3569, 3564, 3563, 199, 3570, 3565
463, 2705, 2710, 198, 2707, 3564, 3569, 3571, 3566
464, 3564, 3569, 3571, 3566, 3565, 3570, 200, 3567
465, 151, 3563, 3565, 3526, 3531, 3572, 3573, 3532
466, 3531, 3572, 3573, 3532, 153, 2712, 2715, 2681
467, 3526, 3565, 3567, 152, 3532, 3573, 3574, 3533
468, 3532, 3573, 3574, 3533, 2681, 2715, 2718, 154
469, 3563, 199, 3570, 3565, 3572, 3575, 3576, 3573
470, 3572, 3575, 3576, 3573, 2712, 201, 2722, 2715
471, 3565, 3570, 200, 3567, 3573, 3576, 3577, 3574
472, 3573, 3576, 3577, 3574, 2715, 2722, 202, 2718
473, 153, 2712, 2715, 2681, 2680, 2713, 2716, 2682
474, 2680, 2713, 2716, 2682, 155, 2714, 2717, 2683
475, 2681, 2715, 2718, 154, 2682, 2716, 2719, 2684
476, 2682, 2716, 2719, 2684, 2683, 2717, 2720, 156
477, 2712, 201, 2722, 2715, 2713, 2721, 2723, 2716
478, 2713, 2721, 2723, 2716, 2714, 203, 2724, 2717
479, 2715, 2722, 202, 2718, 2716, 2723, 2725, 2719
480, 2716, 2723, 2725, 2719, 2717, 2724, 204, 2720
481, 146, 1885, 1893, 1875, 1868, 1886, 1894, 1876
482, 1868, 1886, 1894, 1876, 148, 1887, 1895, 1877
483, 1875, 1893, 1896, 157, 1876, 1894, 1897, 1878
484, 1876, 1894, 1897, 1878, 1877, 1895, 1898, 158
485, 1885, 194, 1899, 1893, 1886, 1892, 1900, 1894
486, 1886, 1892, 1900, 1894, 1887, 196, 1901, 1895
487, 1893, 1899, 205, 1896, 1894, 1900, 1902, 1897
488, 1894, 1900, 1902, 1897, 1895, 1901, 206, 1898
489, 148, 1887, 1895, 1877, 2670, 2706, 2726, 2689
490, 2670, 2706, 2726, 2689, 150, 2707, 2727, 2690
491, 1877, 1895, 1898, 158, 2689, 2726, 2728, 2691
492, 2689, 2726, 2728, 2691, 2690, 2727, 2729, 159
493, 1887, 196, 1901, 1895, 2706, 2711, 2730, 2726
494, 2706, 2711, 2730, 2726, 2707, 198, 2731, 2727
495, 1895, 1901, 206, 1898, 2726, 2730, 2732, 2728
496, 2726, 2730, 2732, 2728, 2727, 2731, 207, 2729
497, 150, 2707, 2727, 2690, 3527, 3566, 3578, 3538
498, 3527, 3566, 3578, 3538, 152, 3567, 3579, 3539
499, 2690, 2727, 2729, 159, 3538, 3578, 3580, 3540
500, 3538, 3578, 3580, 3540, 3539, 3579, 3581, 160
501, 2707, 198, 2731, 2727, 3566, 3571, 3582, 3578
502, 3566, 3571, 3582, 3578, 3567, 200, 3583, 3579
503, 2727, 2731, 207, 2729, 3578, 3582, 3584, 3580
504, 3578, 3582, 3584, 3580, 3579, 3583, 208, 3581
505, 152, 3567, 3579, 3539, 3533, 3574, 3585, 3543
506, 3533, 3574, 3585, 3543, 154, 2718, 2733, 2698
507, 3539, 3579, 3581, 160, 3543, 3585, 3586, 3544
508, 3543, 3585, 3586, 3544, 2698, 2733, 2736, 161
509, 3567, 200, 3583, 3579, 3574, 3577, 3587, 3585
510, 3574, 3577, 3587, 3585, 2718, 202, 2739, 2733
511, 3579, 3583, 208, 3581, 3585, 3587, 3588, 3586
512, 3585, 3587, 3588, 3586, 2733, 2739, 209, 2736
513, 154, 2718, 2733, 2698, 2684, 2719, 2734, 2699
514, 2684, 2719, 2734, 2699, 156, 2720, 2735, 2700
515, 2698, 2733, 2736, 161, 2699, 2734, 2737, 2701
516, 2699, 2734, 2737, 2701, 2700, 2735, 2738, 162
517, 2718, 202, 2739, 2733, 2719, 2725, 2740, 2734
518, 2719, 2725, 2740, 2734, 2720, 204, 2741, 2735
519, 2733, 2739, 209, 2736, 2734, 2740, 2742, 2737
520, 2734, 2740, 2742, 2737, 2735, 2741, 210, 2738
521, 163, 211, 212, 164, 165, 213, 214, 166
522, 165, 213, 214, 166, 167, 215, 216, 168
523, 164, 212, 217, 169, 166, 214, 218, 170
524, 166, 214, 218, 170, 168, 216, 219, 171
525, 169, 217, 220, 172, 170, 218, 221, 173
526, 170, 218, 221, 173, 171, 219, 222, 174
527, 172, 220, 203, 155, 173, 221, 223, 175
528, 173, 221, 223, 175, 174, 222, 224, 176
529, 155, 2714, 2717, 2683, 3551, 3589, 3591, 3552
530, 3551, 3589, 3591, 3552, 175, 3590, 3592, 3553
531, 2683, 2717, 2720, 156, 3552, 3591, 3593, 3554
532, 3552, 3591, 3593, 3554, 3553, 3592, 3594, 177
533, 2714, 203, 2724, 2717, 3589, 3595, 3596, 3591
534, 3589, 3595, 3596, 3591, 3590, 223, 3597, 3592
535, 2717, 2724, 204, 2720, 3591, 3596, 3598, 3593
536, 3591, 3596, 3598, 3593, 3592, 3597, 225, 3594
537, 175, 223, 225, 177, 176, 224, 226, 178
538, 156, 2720, 2735, 2700, 3554, 3593, 3599, 3559
539, 3554, 3593, 3599, 3559, 177, 3594, 3600, 3560
540, 2700, 2735, 2738, 162, 3559, 3599, 3601, 3561
541, 3559, 3599, 3601, 3561, 3560, 3600, 3602, 179
542, 2720, 204, 2741, 2735, 3593, 3598, 3603, 3599
543, 3593, 3598, 3603, 3599, 3594, 225, 3604, 3600
544, 2735, 2741, 210, 2738, 3599, 3603, 3605, 3601
545, 3599, 3603, 3605, 3601, 3600, 3604, 227, 3602
546, 177, 225, 227, 179, 178, 226, 228, 180
547, 162, 210, 229, 181, 179, 227, 230, 182
548, 179, 227, 230, 182, 180, 228, 231, 183
549, 181, 229, 232, 184, 182, 230, 233, 185
550, 182, 230, 233, 185, 183, 231, 234, 186
551, 184, 232, 235, 187, 185, 233, 236, 188
552, 185, 233, 236, 188, 186, 234, 237, 189
553, 187, 235, 238, 190, 188, 236, 239, 191
554, 188, 236, 239, 191, 189, 237, 240, 192
555, 193, 1903, 1906, 1889, 1888, 1904, 1907, 1890
556, 1888, 1904, 1907, 1890, 195, 1905, 1908, 1891
557, 1889, 1906, 1909, 194, 1890, 1907, 1910, 1892
558, 1890, 1907, 1910, 1892, 1891, 1908, 1911, 196
559, 1903, 241, 1913, 1906, 1904, 1912, 1914, 1907
560, 1904, 1912, 1914, 1907, 1905, 243, 1915, 1908
561, 1906, 1913, 242, 1909, 1907, 1914, 1916, 1910
562, 1907, 1914, 1916, 1910, 1908, 1915, 244, 1911
563, 195, 1905, 1908, 1891, 2708, 2743, 2745, 2709
564, 2708, 2743, 2745, 2709, 197, 2744, 2746, 2710
565, 1891, 1908, 1911, 196, 2709, 2745, 2747, 2711
566, 2709, 2745, 2747, 2711, 2710, 2746, 2748, 198
567, 1905, 243, 1915, 1908, 2743, 2749, 2750, 2745
568, 2743, 2749, 2750, 2745, 2744, 245, 2751, 2746
569, 1908, 1915, 244, 1911, 2745, 2750, 2752, 2747
570, 2745, 2750, 2752, 2747, 2746, 2751, 246, 2748
571, 197, 2744, 2746, 2710, 3568, 3606, 3608, 3569
572, 3568, 3606, 3608, 3569, 199, 3607, 3609, 3570
573, 2710, 2746, 2748, 198, 3569, 3608, 3610, 3571
574, 3569, 3608, 3610, 3571, 3570, 3609, 3611, 200
575, 2744, 245, 2751, 2746, 3606, 3612, 3613, 3608
576, 3606, 3612, 3613, 3608, 3607, 247, 2786, 3609
577, 2746, 2751, 246, 2748, 3608, 3613, 3614, 3610
578, 3608, 3613, 3614, 3610, 3609, 2786, 248, 3611
579, 199, 3607, 3609, 3570, 3575, 3615, 3616, 3576
580, 3575, 3615, 3616, 3576, 201, 2753, 2756, 2722
581, 3570, 3609, 3611, 200, 3576, 3616, 3617, 3577
582, 3576, 3616, 3617, 3577, 2722, 2756, 2759, 202
583, 3607, 247, 2786, 3609, 3615, 2785, 2787, 3616
584, 3615, 2785, 2787, 3616, 2753, 249, 1942, 2756
585, 3609, 2786, 248, 3611, 3616, 2787, 2788, 3617
586, 3616, 2787, 2788, 3617, 2756, 1942, 250, 2759
587, 201, 2753, 2756, 2722, 2721, 2754, 2757, 2723
588, 2721, 2754, 2757, 2723, 203, 2755, 2758, 2724
589, 2722, 2756, 2759, 202, 2723, 2757, 2760, 2725
590, 2723, 2757, 2760, 2725, 2724, 2758, 2761, 204
591, 2753, 249, 1942, 2756, 2754, 1941, 1943, 2757
592, 2754, 1941, 1943, 2757, 2755, 251, 1944, 2758
593, 2756, 1942, 250, 2759, 2757, 1943, 1945, 2760
594, 2757, 1943, 1945, 2760, 2758, 1944, 252, 2761
595, 194, 1909, 1917, 1899, 1892, 1910, 1918, 1900
596, 1892, 1910, 1918, 1900, 196, 1911, 1919, 1901
597, 1899, 1917, 1920, 205, 1900, 1918, 1921, 1902
598, 1900, 1918, 1921, 1902, 1901, 1919, 1922, 206
599, 1909, 242, 1923, 1917, 1910, 1916, 1924, 1918
600, 1910, 1916, 1924, 1918, 1911, 244, 1925, 1919
601, 1917, 1923, 253, 1920, 1918, 1924, 1926, 1921
602, 1918, 1924, 1926, 1921, 1919, 1925, 254, 1922
603, 196, 1911, 1919, 1901, 2711, 2747, 2762, 2730
604, 2711, 2747, 2762, 2730, 198, 2748, 2763, 2731
605, 1901, 1919, 1922, 206, 2730, 2762, 2764, 2732
606, 2730, 2762, 2764, 2732, 2731, 2763, 2765, 207
607, 1911, 244, 1925, 1919, 2747, 2752, 2766, 2762
608, 2747, 2752, 2766, 2762, 2748, 246, 2767, 2763
609, 1919, 1925, 254, 1922, 2762, 2766, 2768, 2764
610, 2762, 2766, 2768, 2764, 2763, 2767, 255, 2765
611, 198, 2748, 2763, 2731, 3571, 3610, 3618, 3582
612, 3571, 3610, 3618, 3582, 200, 3611, 3619, 3583
613, 2731, 2763, 2765, 207, 3582, 3618, 3620, 3584
614, 3582, 3618, 3620, 3584, 3583, 3619, 3621, 208
615, 2748, 246, 2767, 2763, 3610, 3614, 3622, 3618
616, 3610, 3614, 3622, 3618, 3611, 248, 2806, 3619
617, 2763, 2767, 255, 2765, 3618, 3622, 3623, 3620
618, 3618, 3622, 3623, 3620, 3619, 2806, 256, 3621
619, 200, 3611, 3619, 3583, 3577, 3617, 3624, 3587
620, 3577, 3617, 3624, 3587, 202, 2759, 2769, 2739
621, 3583, 3619, 3621, 208, 3587, 3624, 3625, 3588
622, 3587, 3624, 3625, 3588, 2739, 2769, 2772, 209
623, 3611, 248, 2806, 3619, 3617, 2788, 2807, 3624
624, 3617, 2788, 2807, 3624, 2759, 250, 1970, 2769
625, 3619, 2806, 256, 3621, 3624, 2807, 2808, 3625
626, 3624, 2807, 2808, 3625, 2769, 1970, 257, 2772
627, 202, 2759, 2769, 2739, 2725, 2760, 2770, 2740
628, 2725, 2760, 2770, 2740, 204, 2761, 2771, 2741
629, 2739, 2769, 2772, 209, 2740, 2770, 2773, 2742
630, 2740, 2770, 2773, 2742, 2741, 2771, 2774, 210
631, 2759, 250, 1970, 2769, 2760, 1945, 1971, 2770
632, 2760, 1945, 1971, 2770, 2761, 252, 1972, 2771
633, 2769, 1970, 257, 2772, 2770, 1971, 1973, 2773
634, 2770, 1971, 1973, 2773, 2771, 1972, 258, 2774
635, 211, 259, 260, 212, 213, 261, 262, 214
636, 213, 261, 262, 214, 215, 263, 264, 216
637, 212, 260, 265, 217, 214, 262, 266, 218
638, 214, 262, 266, 218, 216, 264, 267, 219
639, 217, 265, 268, 220, 218, 266, 269, 221
640, 218, 266, 269, 221, 219, 267, 270, 222
641, 220, 268, 251, 203, 221, 269, 271, 223
642, 221, 269, 271, 223, 222, 270, 272, 224
643, 203, 2755, 2758, 2724, 3595, 3626, 3628, 3596
644, 3595, 3626, 3628, 3596, 223, 3627, 3629, 3597
645, 2724, 2758, 2761, 204, 3596, 3628, 3630, 3598
646, 3596, 3628, 3630, 3598, 3597, 3629, 3631, 225
647, 2755, 251, 1944, 2758, 3626, 2816, 2817, 3628
648, 3626, 2816, 2817, 3628, 3627, 271, 2818, 3629
649, 2758, 1944, 252, 2761, 3628, 2817, 2819, 3630
650, 3628, 2817, 2819, 3630, 3629, 2818, 273, 3631
651, 223, 271, 273, 225, 224, 272, 274, 226
652, 204, 2761, 2771, 2741, 3598, 3630, 3632, 3603
653, 3598, 3630, 3632, 3603, 225, 3631, 3633, 3604
654, 2741, 2771, 2774, 210, 3603, 3632, 3634, 3605
655, 3603, 3632, 3634, 3605, 3604, 3633, 3635, 227
656, 2761, 252, 1972, 2771, 3630, 2819, 2830, 3632
657, 3630, 2819, 2830, 3632, 3631, 273, 2831, 3633
658, 2771, 1972, 258, 2774, 3632, 2830, 2832, 3634
659, 3632, 2830, 2832, 3634, 3633, 2831, 275, 3635
660, 225, 273, 275, 227, 226, 274, 276, 228
661, 210, 258, 277, 229, 227, 275, 278, 230
662, 227, 275, 278, 230, 228, 276, 279, 231
663, 229, 277, 280, 232, 230, 278, 281, 233
664, 230, 278, 281, 233, 231, 279, 282, 234
665, 232, 280, 283, 235, 233, 281, 284, 236
666, 233, 281, 284, 236, 234, 282, 285, 237
667, 235, 283, 286, 238, 236, 284, 287, 239
668, 236, 284, 287, 239, 237, 285, 288, 240
669, 241, 1927, 1930, 1913, 1912, 1928, 1931, 1914
670, 1912, 1928, 1931, 1914, 243, 1929, 1932, 1915
671, 1913, 1930, 1933, 242, 1914, 1931, 1934, 1916
672, 1914, 1931, 1934, 1916, 1915, 1932, 1935, 244
673, 1927, 289, 1937, 1930, 1928, 1936, 1938, 1931
674, 1928, 1936, 1938, 1931, 1929, 291, 1939, 1932
675, 1930, 1937, 290, 1933, 1931, 1938, 1940, 1934
676, 1931, 1938, 1940, 1934, 1932, 1939, 292, 1935
677, 243, 1929, 1932, 1915, 2749, 2775, 2777, 2750
678, 2749, 2775, 2777, 2750, 245, 2776, 2778, 2751
679, 1915, 1932, 1935, 244, 2750, 2777, 2779, 2752
680, 2750, 2777, 2779, 2752, 2751, 2778, 2780, 246
681, 1929, 291, 1939, 1932, 2775, 2781, 2782, 2777
682, 2775, 2781, 2782, 2777, 2776, 293, 2783, 2778
683, 1932, 1939, 292, 1935, 2777, 2782, 2784, 2779
684, 2777, 2782, 2784, 2779, 2778, 2783, 294, 2780
685, 245, 2776, 2778, 2751, 3612, 3636, 3637, 3613
686, 3612, 3636, 3637, 3613, 247, 2789, 2791, 2786
687, 2751, 2778, 2780, 246, 3613, 3637, 3638, 3614
688, 3613, 3637, 3638, 3614, 2786, 2791, 2793, 248
689, 2776, 293, 2783, 2778, 3636, 3639, 3640, 3637
690, 3636, 3639, 3640, 3637, 2789, 295, 2796, 2791
691, 2778, 2783, 294, 2780, 3637, 3640, 3641, 3638
692, 3637, 3640, 3641, 3638, 2791, 2796, 296, 2793
693, 247, 2789, 2791, 2786, 2785, 2790, 2792, 2787
694, 2785, 2790, 2792, 2787, 249, 1946, 1949, 1942
695, 2786, 2791, 2793, 248, 2787, 2792, 2794, 2788
696, 2787, 2792, 2794, 2788, 1942, 1949, 1952, 250
697, 2789, 295, 2796, 2791, 2790, 2795, 2797, 2792
698, 2790, 3647, 3650, 3643, 3642, 3648, 3651, 3644
699, 3642, 3648, 3651, 3644, 1946, 3649, 3652, 3645
700, 3643, 3650, 3653, 2792, 3644, 3651, 3654, 3646
701, 3644, 3651, 3654, 3646, 3645, 3652, 3655, 1949
702, 3647, 2795, 3657, 3650, 3648, 3656, 3658, 3651
703, 3648, 3656, 3658, 3651, 3649, 297, 3659, 3652
704, 3650, 3657, 2797, 3653, 3651, 3658, 3660, 3654
705, 3651, 3658, 3660, 3654, 3652, 3659, 1956, 3655
706, 2791, 2796, 296, 2793, 2792, 2797, 2798, 2794
707, 2792, 3653, 3665, 3661, 3646, 3654, 3666, 3662
708, 3646, 3654, 3666, 3662, 1949, 3655, 3667, 3663
709, 3661, 3665, 3668, 2794, 3662, 3666, 3669, 3664
710, 3662, 3666, 3669, 3664, 3663, 3667, 3670, 1952
711, 3653, 2797, 3671, 3665, 3654, 3660, 3672, 3666
712, 3654, 3660, 3672, 3666, 3655, 1956, 3673, 3667
713, 3665, 3671, 2798, 3668, 3666, 3672, 3674, 3669
714, 3666, 3672, 3674, 3669, 3667, 3673, 298, 3670
715, 249, 3680, 3683, 3676, 3675, 3681, 3684, 3677
716, 3675, 3681, 3684, 3677, 1941, 3682, 3685, 3678
717, 3676, 3683, 3686, 1942, 3677, 3684, 3687, 3679
718, 3677, 3684, 3687, 3679, 3678, 3685, 3688, 1943
719, 3680, 1946, 3645, 3683, 3681, 3689, 3690, 3684
720, 3681, 3689, 3690, 3684, 3682, 1947, 3691, 3685
721, 3683, 3645, 1949, 3686, 3684, 3690, 3692, 3687
722, 3684, 3690, 3692, 3687, 3685, 3691, 1950, 3688
723, 1941, 3682, 3685, 3678, 3693, 3697, 3699, 3694
724, 3693, 3697, 3699, 3694, 251, 3698, 3700, 3695
725, 3678, 3685, 3688, 1943, 3694, 3699, 3701, 3696
726, 3694, 3699, 3701, 3696, 3695, 3700, 3702, 1944
727, 3682, 1947, 3691, 3685, 3697, 3703, 3704, 3699
728, 3697, 3703, 3704, 3699, 3698, 1948, 3705, 3700
729, 3685, 3691, 1950, 3688, 3699, 3704, 3706, 3701
730, 3699, 3704, 3706, 3701, 3700, 3705, 1951, 3702
731, 1942, 3686, 3711, 3707, 3679, 3687, 3712, 3708
732, 3679, 3687, 3712, 3708, 1943, 3688, 3713, 3709
733, 3707, 3711, 3714, 250, 3708, 3712, 3715, 3710
734, 3708, 3712, 3715, 3710, 3709, 3713, 3716, 1945
735, 3686, 1949, 3663, 3711, 3687, 3692, 3717, 3712
736, 3687, 3692, 3717, 3712, 3688, 1950, 3718, 3713
737, 3711, 3663, 1952, 3714, 3712, 3717, 3719, 3715
738, 3712, 3717, 3719, 3715, 3713, 3718, 1953, 3716
739, 1943, 3688, 3713, 3709, 3696, 3701, 3723, 3720
740, 3696, 3701, 3723, 3720, 1944, 3702, 3724, 3721
741, 3709, 3713, 3716, 1945, 3720, 3723, 3725, 3722
742, 3720, 3723, 3725, 3722, 3721, 3724, 3726, 252
743, 3688, 1950, 3718, 3713, 3701, 3706, 3727, 3723
744, 3701, 3706, 3727, 3723, 3702, 1951, 3728, 3724
745, 3713, 3718, 1953, 3716, 3723, 3727, 3729, 3725
746, 3723, 3727, 3729, 3725, 3724, 3728, 1954, 3726
747, 1946, 297, 1956, 1949, 1947, 1955, 1957, 1950
748, 1947, 3730, 3733, 3691, 3703, 3731, 3734, 3704
749, 3703, 3731, 3734, 3704, 1948, 3732, 3735, 3705
750, 3691, 3733, 3736, 1950, 3704, 3734, 3737, 3706
751, 3704, 3734, 3737, 3706, 3705, 3735, 3738, 1951
752, 3730, 1955, 3740, 3733, 3731, 3739, 3741, 3734
753, 3731, 3739, 3741, 3734, 3732, 299, 3742, 3735
754, 3733, 3740, 1957, 3736, 3734, 3741, 3743, 3737
755, 3734, 3741, 3743, 3737, 3735, 3742, 1958, 3738
756, 1949, 1956, 298, 1952, 1950, 1957, 1959, 1953
757, 1950, 3736, 3744, 3718, 3706, 3737, 3745, 3727
758, 3706, 3737, 3745, 3727, 1951, 3738, 3746, 3728
759, 3718, 3744, 3747, 1953, 3727, 3745, 3748, 3729
760, 3727, 3745, 3748, 3729, 3728, 3746, 3749, 1954
761, 3736, 1957, 3750, 3744, 3737, 3743, 3751, 3745
762, 3737, 3743, 3751, 3745, 3738, 1958, 3752, 3746
763, 3744, 3750, 1959, 3747, 3745, 3751, 3753, 3748
764, 3745, 3751, 3753, 3748, 3746, 3752, 300, 3749
765, 242, 1933, 1960, 1923, 1916, 1934, 1961, 1924
766, 1916, 1934, 1961, 1924, 244, 1935, 1962, 1925
767, 1923, 1960, 1963, 253, 1924, 1961, 1964, 1926
768, 1924, 1961, 1964, 1926, 1925, 1962, 1965, 254
769, 1933, 290, 1966, 1960, 1934, 1940, 1967, 1961
770, 1934, 1940, 1967, 1961, 1935, 292, 1968, 1962
771, 1960, 1966, 301, 1963, 1961, 1967, 1969, 1964
772, 1961, 1967, 1969, 1964, 1962, 1968, 302, 1965
773, 244, 1935, 1962, 1925, 2752, 2779, 2799, 2766
774, 2752, 2779, 2799, 2766, 246, 2780, 2800, 2767
775, 1925, 1962, 1965, 254, 2766, 2799, 2801, 2768
776, 2766, 2799, 2801, 2768, 2767, 2800, 2802, 255
777, 1935, 292, 1968, 1962, 2779, 2784, 2803, 2799
778, 2779, 2784, 2803, 2799, 2780, 294, 2804, 2800
779, 1962, 1968, 302, 1965, 2799, 2803, 2805, 2801
780, 2799, 2803, 2805, 2801, 2800, 2804, 303, 2802
781, 246, 2780, 2800, 2767, 3614, 3638, 3754, 3622
782, 3614, 3638, 3754, 3622, 248, 2793, 2809, 2806
783, 2767, 2800, 2802, 255, 3622, 3754, 3755, 3623
784, 3622, 3754, 3755, 3623, 2806, 2809, 2811, 256
785, 2780, 294, 2804, 2800, 3638, 3641, 3756, 3754
786, 3638, 3641, 3756, 3754, 2793, 296, 2813, 2809
787, 2800, 2804, 303, 2802, 3754, 3756, 3757, 3755
788, 3754, 3756, 3757, 3755, 2809, 2813, 304, 2811
789, 248, 2793, 2809, 2806, 2788, 2794, 2810, 2807
790, 2788, 2794, 2810, 2807, 250, 1952, 1974, 1970
791, 2806, 2809, 2811, 256, 2807, 2810, 2812, 2808
792, 2807, 2810, 2812, 2808, 1970, 1974, 1977, 257
793, 2793, 296, 2813, 2809, 2794, 2798, 2814, 2810
794, 2794, 3668, 3762, 3758, 3664, 3669, 3763, 3759
795, 3664, 3669, 3763, 3759, 1952, 3670, 3764, 3760
796, 3758, 3762, 3765, 2810, 3759, 3763, 3766, 3761
797, 3759, 3763, 3766, 3761, 3760, 3764, 3767, 1974
798, 3668, 2798, 3768, 3762, 3669, 3674, 3769, 3763
799, 3669, 3674, 3769, 3763, 3670, 298, 3770, 3764
800, 3762, 3768, 2814, 3765, 3763, 3769, 3771, 3766
801, 3763, 3769, 3771, 3766, 3764, 3770, 1980, 3767
802, 2809, 2813, 304, 2811, 2810, 2814, 2815, 2812
803, 2810, 3765, 3776, 3772, 3761, 3766, 3777, 3773
804, 3761, 3766, 3777, 3773, 1974, 3767, 3778, 3774
805, 3772, 3776, 3779, 2812, 3773, 3777, 3780, 3775
806, 3773, 3777, 3780, 3775, 3774, 3778, 3781, 1977
807, 3765, 2814, 3782, 3776, 3766, 3771, 3783, 3777
808, 3766, 3771, 3783, 3777, 3767, 1980, 3784, 3778
809, 3776, 3782, 2815, 3779, 3777, 3783, 3785, 3780
810, 3777, 3783, 3785, 3780, 3778, 3784, 305, 3781
811, 250, 3714, 3790, 3786, 3710, 3715, 3791, 3787
812, 3710, 3715, 3791, 3787, 1945, 3716, 3792, 3788
813, 3786, 3790, 3793, 1970, 3787, 3791, 3794, 3789
814, 3787, 3791, 3794, 3789, 3788, 3792, 3795, 1971
815, 3714, 1952, 3760, 3790, 3715, 3719, 3796, 3791
816, 3715, 3719, 3796, 3791, 3716, 1953, 3797, 3792
817, 3790, 3760, 1974, 3793, 3791, 3796, 3798, 3794
818, 3791, 3796, 3798, 3794, 3792, 3797, 1975, 3795
819, 1945, 3716, 3792, 3788, 3722, 3725, 3802, 3799
820, 3722, 3725, 3802, 3799, 252, 3726, 3803, 3800
821, 3788, 3792, 3795, 1971, 3799, 3802, 3804, 3801
822, 3799, 3802, 3804, 3801, 3800, 3803, 3805, 1972
823, 3716, 1953, 3797, 3792, 3725, 3729, 3806, 3802
824, 3725, 3729, 3806, 3802, 3726, 1954, 3807, 3803
825, 3792, 3797, 1975, 3795, 3802, 3806, 3808, 3804
826, 3802, 3806, 3808, 3804, 3803, 3807, 1976, 3805
827, 1970, 3793, 3813, 3809, 3789, 3794, 3814, 3810
828, 3789, 3794, 3814, 3810, 1971, 3795, 3815, 3811
829, 3809, 3813, 3816, 257, 3810, 3814, 3817, 3812
830, 3810, 3814, 3817, 3812, 3811, 3815, 3818, 1973
831, 3793, 1974, 3774, 3813, 3794, 3798, 3819, 3814
832, 3794, 3798, 3819, 3814, 3795, 1975, 3820, 3815
833, 3813, 3774, 1977, 3816, 3814, 3819, 3821, 3817
834, 3814, 3819, 3821, 3817, 3815, 3820, 1978, 3818
835, 1971, 3795, 3815, 3811, 3801, 3804, 3825, 3822
836, 3801, 3804, 3825, 3822, 1972, 3805, 3826, 3823
837, 3811, 3815, 3818, 1973, 3822, 3825, 3827, 3824
838, 3822, 3825, 3827, 3824, 3823, 3826, 3828, 258
839, 3795, 1975, 3820, 3815, 3804, 3808, 3829, 3825
840, 3804, 3808, 3829, 3825, 3805, 1976, 3830, 3826
841, 3815, 3820, 1978, 3818, 3825, 3829, 3831, 3827
842, 3825, 3829, 3831, 3827, 3826, 3830, 1979, 3828
843, 1952, 298, 1980, 1974, 1953, 1959, 1981, 1975
844, 1953, 3747, 3832, 3797, 3729, 3748, 3833, 3806
845, 3729, 3748, 3833, 3806, 1954, 3749, 3834, 3807
846, 3797, 3832, 3835, 1975, 3806, 3833, 3836, 3808
847, 3806, 3833, 3836, 3808, 3807, 3834, 3837, 1976
848, 3747, 1959, 3838, 3832, 3748, 3753, 3839, 3833
849, 3748, 3753, 3839, 3833, 3749, 300, 3840, 3834
850, 3832, 3838, 1981, 3835, 3833, 3839, 3841, 3836
851, 3833, 3839, 3841, 3836, 3834, 3840, 1982, 3837
852, 1974, 1980, 305, 1977, 1975, 1981, 1983, 1978
853, 1975, 3835, 3842, 3820, 3808, 3836, 3843, 3829
854, 3808, 3836, 3843, 3829, 1976, 3837, 3844, 3830
855, 3820, 3842, 3845, 1978, 3829, 3843, 3846, 3831
856, 3829, 3843, 3846, 3831, 3830, 3844, 3847, 1979
857, 3835, 1981, 3848, 3842, 3836, 3841, 3849, 3843
858, 3836, 3841, 3849, 3843, 3837, 1982, 3850, 3844
859, 3842, 3848, 1983, 3845, 3843, 3849, 3851, 3846
860, 3843, 3849, 3851, 3846, 3844, 3850, 306, 3847
861, 259, 307, 308, 260, 261, 309, 310, 262
862, 261, 309, 310, 262, 263, 311, 312, 264
863, 260, 308, 313, 265, 262, 310, 314, 266
864, 262, 310, 314, 266, 264, 312, 315, 267
865, 265, 313, 316, 268, 266, 314, 317, 269
866, 266, 314, 317, 269, 267, 315, 318, 270
867, 268, 316, 299, 251, 269, 317, 319, 271
868, 269, 317, 319, 271, 270, 318, 320, 272
869, 251, 1948, 1951, 1944, 2816, 2820, 2822, 2817
870, 2816, 2820, 2822, 2817, 271, 2821, 2823, 2818
871, 1944, 1951, 1954, 252, 2817, 2822, 2824, 2819
872, 2817, 2822, 2824, 2819, 2818, 2823, 2825, 273
873, 1948, 299, 1958, 1951, 2820, 2826, 2827, 2822
874, 2820, 2826, 2827, 2822, 2821, 319, 2828, 2823
875, 1951, 1958, 300, 1954, 2822, 2827, 2829, 2824
876, 2822, 2827, 2829, 2824, 2823, 2828, 321, 2825
877, 271, 319, 321, 273, 272, 320, 322, 274
878, 252, 1954, 1976, 1972, 2819, 2824, 2833, 2830
879, 2819, 2824, 2833, 2830, 273, 2825, 2834, 2831
880, 1972, 1976, 1979, 258, 2830, 2833, 2835, 2832
881, 2830, 2833, 2835, 2832, 2831, 2834, 2836, 275
882, 1954, 300, 1982, 1976, 2824, 2829, 2837, 2833
883, 2824, 2829, 2837, 2833, 2825, 321, 2838, 2834
884, 1976, 1982, 306, 1979, 2833, 2837, 2839, 2835
885, 2833, 2837, 2839, 2835, 2834, 2838, 323, 2836
886, 273, 321, 323, 275, 274, 322, 324, 276
887, 258, 306, 325, 277, 275, 323, 326, 278
888, 275, 323, 326, 278, 276, 324, 327, 279
889, 277, 325, 328, 280, 278, 326, 329, 281
890, 278, 326, 329, 281, 279, 327, 330, 282
891, 280, 328, 331, 283, 281, 329, 332, 284
892, 281, 329, 332, 284, 282, 330, 333, 285
893, 283, 331, 334, 286, 284, 332, 335, 287
894, 284, 332, 335, 287, 285, 333, 336, 288
895, 289, 1984, 1987, 1937, 1936, 1985, 1988, 1938
896, 1936, 1985, 1988, 1938, 291, 1986, 1989, 1939
897, 1937, 1987, 1990, 290, 1938, 1988, 1991, 1940
898, 1938, 1988, 1991, 1940, 1939, 1989, 1992, 292
899, 1984, 337, 1451, 1987, 1985, 1450, 1452, 1988
900, 1985, 1450, 1452, 1988, 1986, 339, 1453, 1989
901, 1987, 1451, 338, 1990, 1988, 1452, 1454, 1991
902, 1988, 1452, 1454, 1991, 1989, 1453, 340, 1992
903, 291, 1986, 1989, 1939, 2781, 2840, 2842, 2782
904, 2781, 2840, 2842, 2782, 293, 2841, 2843, 2783
905, 1939, 1989, 1992, 292, 2782, 2842, 2844, 2784
906, 2782, 2842, 2844, 2784, 2783, 2843, 2845, 294
907, 1986, 339, 1453, 1989, 2840, 2023, 2024, 2842
908, 2840, 2023, 2024, 2842, 2841, 341, 2025, 2843
909, 1989, 1453, 340, 1992, 2842, 2024, 2026, 2844
910, 2842, 2024, 2026, 2844, 2843, 2025, 342, 2845
911, 293, 2841, 2843, 2783, 3639, 3852, 3853, 3640
912, 3639, 3852, 3853, 3640, 295, 2846, 2848, 2796
913, 2783, 2843, 2845, 294, 3640, 3853, 3854, 3641
914, 3640, 3853, 3854, 3641, 2796, 2848, 2850, 296
915, 2841, 341, 2025, 2843, 3852, 2903, 2904, 3853
916, 3852, 2903, 2904, 3853, 2846, 343, 2853, 2848
917, 2843, 2025, 342, 2845, 3853, 2904, 2905, 3854
918, 3853, 2904, 2905, 3854, 2848, 2853, 344, 2850
919, 295, 2846, 2848, 2796, 2795, 2847, 2849, 2797
920, 2795, 2847, 2849, 2797, 297, 1993, 1996, 1956
921, 2796, 2848, 2850, 296, 2797, 2849, 2851, 2798
922, 2797, 2849, 2851, 2798, 1956, 1996, 1999, 298
923, 2846, 343, 2853, 2848, 2847, 2852, 2854, 2849
924, 2847, 2852, 2854, 2849, 1993, 345, 2003, 1996
925, 2848, 2853, 344, 2850, 2849, 2854, 2855, 2851
926, 2849, 2854, 2855, 2851, 1996, 2003, 346, 1999
927, 297, 1993, 1996, 1956, 1955, 1994, 1997, 1957
928, 1955, 3855, 3858, 3740, 3739, 3856, 3859, 3741
929, 3739, 3856, 3859, 3741, 299, 3857, 3860, 3742
930, 3740, 3858, 3861, 1957, 3741, 3859, 3862, 3743
931, 3741, 3859, 3862, 3743, 3742, 3860, 3863, 1958
932, 3855, 1994, 3865, 3858, 3856, 3864, 3866, 3859
933, 3856, 3864, 3866, 3859, 3857, 1995, 3867, 3860
934, 3858, 3865, 1997, 3861, 3859, 3866, 3868, 3862
935, 3859, 3866, 3868, 3862, 3860, 3867, 1998, 3863
936, 1956, 1996, 1999, 298, 1957, 1997, 2000, 1959
937, 1957, 3861, 3869, 3750, 3743, 3862, 3870, 3751
938, 3743, 3862, 3870, 3751, 1958, 3863, 3871, 3752
939, 3750, 3869, 3872, 1959, 3751, 3870, 3873, 3753
940, 3751, 3870, 3873, 3753, 3752, 3871, 3874, 300
941, 3861, 1997, 3875, 3869, 3862, 3868, 3876, 3870
942, 3862, 3868, 3876, 3870, 3863, 1998, 3877, 3871
943, 3869, 3875, 2000, 3872, 3870, 3876, 3878, 3873
944, 3870, 3876, 3878, 3873, 3871, 3877, 2001, 3874
945, 1993, 345, 2003, 1996, 1994, 2002, 2004, 1997
946, 1994, 3879, 3882, 3865, 3864, 3880, 3883, 3866
947, 3864, 3880, 3883, 3866, 1995, 3881, 3884, 3867
948, 3865, 3882, 3885, 1997, 3866, 3883, 3886, 3868
949, 3866, 3883, 3886, 3868, 3867, 3884, 3887, 1998
950, 3879, 2002, 3889, 3882, 3880, 3888, 3890, 3883
951, 3880, 3888, 3890, 3883, 3881, 347, 3891, 3884
952, 3882, 3889, 2004, 3885, 3883, 3890, 3892, 3886
953, 3883, 3890, 3892, 3886, 3884, 3891, 2005, 3887
954, 1996, 2003, 346, 1999, 1997, 2004, 2006, 2000
955, 1997, 3885, 3893, 3875, 3868, 3886, 3894, 3876
956, 3868, 3886, 3894, 3876, 1998, 3887, 3895, 3877
957, 3875, 3893, 3896, 2000, 3876, 3894, 3897, 3878
958, 3876, 3894, 3897, 3878, 3877, 3895, 3898, 2001
959, 3885, 2004, 3899, 3893, 3886, 3892, 3900, 3894
960, 3886, 3892, 3900, 3894, 3887, 2005, 3901, 3895
961, 3893, 3899, 2006, 3896, 3894, 3900, 3902, 3897
962, 3894, 3900, 3902, 3897, 3895, 3901, 348, 3898
963, 290, 1990, 2007, 1966, 1940, 1991, 2008, 1967
964, 1940, 1991, 2008, 1967, 292, 1992, 2009, 1968
965, 1966, 2861, 2864, 2857, 2856, 2862, 2865, 2858
966, 2856, 2862, 2865, 2858, 1967, 2863, 2866, 2859
967, 2857, 2864, 2867, 301, 2858, 2865, 2868, 2860
968, 2858, 2865, 2868, 2860, 2859, 2866, 2869, 1969
969, 2861, 2007, 2871, 2864, 2862, 2870, 2872, 2865
970, 2862, 2870, 2872, 2865, 2863, 2008, 2873, 2866
971, 2864, 2871, 2010, 2867, 2865, 2872, 2874, 2868
972, 2865, 2872, 2874, 2868, 2866, 2873, 2011, 2869
973, 1967, 2008, 2011, 1969, 1968, 2009, 2012, 302
974, 1990, 338, 1464, 2007, 1991, 1454, 1465, 2008
975, 1991, 1454, 1465, 2008, 1992, 340, 1466, 2009
976, 2007, 1464, 349, 2010, 2008, 1465, 1467, 2011
977, 2008, 1465, 1467, 2011, 2009, 1466, 350, 2012
978, 292, 1992, 2009, 1968, 2784, 2844, 2875, 2803
979, 2784, 2844, 2875, 2803, 294, 2845, 2876, 2804
980, 1968, 2009, 2012, 302, 2803, 2875, 2877, 2805
981, 2803, 2875, 2877, 2805, 2804, 2876, 2878, 303
982, 1992, 340, 1466, 2009, 2844, 2026, 2051, 2875
983, 2844, 2026, 2051, 2875, 2845, 342, 2052, 2876
984, 2009, 1466, 350, 2012, 2875, 2051, 2053, 2877
985, 2875, 2051, 2053, 2877, 2876, 2052, 351, 2878
986, 294, 2845, 2876, 2804, 3641, 3854, 3903, 3756
987, 3641, 3854, 3903, 3756, 296, 2850, 2879, 2813
988, 2804, 2876, 2878, 303, 3756, 3903, 3904, 3757
989, 3756, 3903, 3904, 3757, 2813, 2879, 2881, 304
990, 2845, 342, 2052, 2876, 3854, 2905, 2922, 3903
991, 3854, 2905, 2922, 3903, 2850, 344, 2883, 2879
992, 2876, 2052, 351, 2878, 3903, 2922, 2923, 3904
993, 3903, 2922, 2923, 3904, 2879, 2883, 352, 2881
994, 296, 2850, 2879, 2813, 2798, 2851, 2880, 2814
995, 2798, 2851, 2880, 2814, 298, 1999, 2013, 1980
996, 2813, 2879, 2881, 304, 2814, 2880, 2882, 2815
997, 2814, 2880, 2882, 2815, 1980, 2013, 2016, 305
998, 2850, 344, 2883, 2879, 2851, 2855, 2884, 2880
999, 2851, 2855, 2884, 2880, 1999, 346, 2019, 2013
1000, 2879, 2883, 352, 2881, 2880, 2884, 2885, 2882
1001, 2880, 2884, 2885, 2882, 2013, 2019, 353, 2016
1002, 298, 1999, 2013, 1980, 1959, 2000, 2014, 1981
1003, 1959, 3872, 3905, 3838, 3753, 3873, 3906, 3839
1004, 3753, 3873, 3906, 3839, 300, 3874, 3907, 3840
1005, 3838, 3905, 3908, 1981, 3839, 3906, 3909, 3841
1006, 3839, 3906, 3909, 3841, 3840, 3907, 3910, 1982
1007, 3872, 2000, 3911, 3905, 3873, 3878, 3912, 3906
1008, 3873, 3878, 3912, 3906, 3874, 2001, 3913, 3907
1009, 3905, 3911, 2014, 3908, 3906, 3912, 3914, 3909
1010, 3906, 3912, 3914, 3909, 3907, 3913, 2015, 3910
1011, 1980, 2013, 2016, 305, 1981, 2014, 2017, 1983
1012, 1981, 3908, 3915, 3848, 3841, 3909, 3916, 3849
1013, 3841, 3909, 3916, 3849, 1982, 3910, 3917, 3850
1014, 3848, 3915, 3918, 1983, 3849, 3916, 3919, 3851
1015, 3849, 3916, 3919, 3851, 3850, 3917, 3920, 306
1016, 3908, 2014, 3921, 3915, 3909, 3914, 3922, 3916
1017, 3909, 3914, 3922, 3916, 3910, 2015, 3923, 3917
1018, 3915, 3921, 2017, 3918, 3916, 3922, 3924, 3919
1019, 3916, 3922, 3924, 3919, 3917, 3923, 2018, 3920
1020, 1999, 346, 2019, 2013, 2000, 2006, 2020, 2014
1021, 2000, 3896, 3925, 3911, 3878, 3897, 3926, 3912
1022, 3878, 3897, 3926, 3912, 2001, 3898, 3927, 3913
1023, 3911, 3925, 3928, 2014, 3912, 3926, 3929, 3914
1024, 3912, 3926, 3929, 3914, 3913, 3927, 3930, 2015
1025, 3896, 2006, 3931, 3925, 3897, 3902, 3932, 3926
1026, 3897, 3902, 3932, 3926, 3898, 348, 3933, 3927
1027, 3925, 3931, 2020, 3928, 3926, 3932, 3934, 3929
1028, 3926, 3932, 3934, 3929, 3927, 3933, 2021, 3930
1029, 2013, 2019, 353, 2016, 2014, 2020, 2022, 2017
1030, 2014, 3928, 3935, 3921, 3914, 3929, 3936, 3922
1031, 3914, 3929, 3936, 3922, 2015, 3930, 3937, 3923
1032, 3921, 3935, 3938, 2017, 3922, 3936, 3939, 3924
1033, 3922, 3936, 3939, 3924, 3923, 3937, 3940, 2018
1034, 3928, 2020, 3941, 3935, 3929, 3934, 3942, 3936
1035, 3929, 3934, 3942, 3936, 3930, 2021, 3943, 3937
1036, 3935, 3941, 2022, 3938, 3936, 3942, 3944, 3939
1037, 3936, 3942, 3944, 3939, 3937, 3943, 354, 3940
1038, 307, 355, 356, 308, 309, 357, 358, 310
1039, 309, 357, 358, 310, 311, 359, 360, 312
1040, 308, 356, 361, 313, 310, 358, 362, 314
1041, 310, 358, 362, 314, 312, 360, 363, 315
1042, 313, 361, 364, 316, 314, 362, 365, 317
1043, 314, 362, 365, 317, 315, 363, 366, 318
1044, 316, 364, 347, 299, 317, 365, 367, 319
1045, 317, 365, 367, 319, 318, 366, 368, 320
1046, 299, 1995, 1998, 1958, 2826, 2886, 2888, 2827
1047, 2826, 2886, 2888, 2827, 319, 2887, 2889, 2828
1048, 1958, 1998, 2001, 300, 2827, 2888, 2890, 2829
1049, 2827, 2888, 2890, 2829, 2828, 2889, 2891, 321
1050, 1995, 347, 2005, 1998, 2886, 2892, 2893, 2888
1051, 2886, 2892, 2893, 2888, 2887, 367, 2894, 2889
1052, 1998, 2005, 348, 2001, 2888, 2893, 2895, 2890
1053, 2888, 2893, 2895, 2890, 2889, 2894, 369, 2891
1054, 319, 367, 369, 321, 320, 368, 370, 322
1055, 300, 2001, 2015, 1982, 2829, 2890, 2896, 2837
1056, 2829, 2890, 2896, 2837, 321, 2891, 2897, 2838
1057, 1982, 2015, 2018, 306, 2837, 2896, 2898, 2839
1058, 2837, 2896, 2898, 2839, 2838, 2897, 2899, 323
1059, 2001, 348, 2021, 2015, 2890, 2895, 2900, 2896
1060, 2890, 2895, 2900, 2896, 2891, 369, 2901, 2897
1061, 2015, 2021, 354, 2018, 2896, 2900, 2902, 2898
1062, 2896, 2900, 2902, 2898, 2897, 2901, 371, 2899
1063, 321, 369, 371, 323, 322, 370, 372, 324
1064, 306, 354, 373, 325, 323, 371, 374, 326
1065, 323, 371, 374, 326, 324, 372, 375, 327
1066, 325, 373, 376, 328, 326, 374, 377, 329
1067, 326, 374, 377, 329, 327, 375, 378, 330
1068, 328, 376, 379, 331, 329, 377, 380, 332
1069, 329, 377, 380, 332, 330, 378, 381, 333
1070, 331, 379, 382, 334, 332, 380, 383, 335
1071, 332, 380, 383, 335, 333, 381, 384, 336
1072, 337, 1455, 1458, 1451, 1450, 1456, 1459, 1452
1073, 1450, 1456, 1459, 1452, 339, 1457, 1460, 1453
1074, 1451, 1458, 1461, 338, 1452, 1459, 1462, 1454
1075, 1452, 1459, 1462, 1454, 1453, 1460, 1463, 340
1076, 1455, 385, 1172, 1458, 1456, 1171, 1173, 1459
1077, 1456, 1171, 1173, 1459, 1457, 387, 1174, 1460
1078, 1458, 1172, 386, 1461, 1459, 1173, 1175, 1462
1079, 1459, 1173, 1175, 1462, 1460, 1174, 388, 1463
1080, 339, 1457, 1460, 1453, 2023, 2027, 2029, 2024
1081, 2023, 2027, 2029, 2024, 341, 2028, 2030, 2025
1082, 1453, 1460, 1463, 340, 2024, 2029, 2031, 2026
1083, 2024, 2029, 2031, 2026, 2025, 2030, 2032, 342
1084, 1457, 387, 1174, 1460, 2027, 2033, 2034, 2029
1085, 2027, 2033, 2034, 2029, 2028, 389, 2035, 2030
1086, 1460, 1174, 388, 1463, 2029, 2034, 2036, 2031
1087, 2029, 2034, 2036, 2031, 2030, 2035, 390, 2032
1088, 341, 2028, 2030, 2025, 2903, 2906, 2908, 2904
1089, 2903, 2906, 2908, 2904, 343, 2907, 2909, 2853
1090, 2025, 2030, 2032, 342, 2904, 2908, 2910, 2905
1091, 2904, 2908, 2910, 2905, 2853, 2909, 2911, 344
1092, 2028, 389, 2035, 2030, 2906, 2912, 2913, 2908
1093, 2906, 2912, 2913, 2908, 2907, 391, 2914, 2909
1094, 2030, 2035, 390, 2032, 2908, 2913, 2915, 2910
1095, 2908, 2913, 2915, 2910, 2909, 2914, 392, 2911
1096, 343, 2907, 2909, 2853, 2852, 2916, 2917, 2854
1097, 2852, 2916, 2917, 2854, 345, 2037, 2040, 2003
1098, 2853, 2909, 2911, 344, 2854, 2917, 2918, 2855
1099, 2854, 2917, 2918, 2855, 2003, 2040, 2043, 346
1100, 2907, 391, 2914, 2909, 2916, 2919, 2920, 2917
1101, 2916, 2919, 2920, 2917, 2037, 393, 2047, 2040
1102, 2909, 2914, 392, 2911, 2917, 2920, 2921, 2918
1103, 2917, 2920, 2921, 2918, 2040, 2047, 394, 2043
1104, 345, 2037, 2040, 2003, 2002, 2038, 2041, 2004
1105, 2002, 3945, 3948, 3889, 3888, 3946, 3949, 3890
1106, 3888, 3946, 3949, 3890, 347, 3947, 3950, 3891
1107, 3889, 3948, 3951, 2004, 3890, 3949, 3952, 3892
1108, 3890, 3949, 3952, 3892, 3891, 3950, 3953, 2005
1109, 3945, 2038, 3955, 3948, 3946, 3954, 3956, 3949
1110, 3946, 3954, 3956, 3949, 3947, 2039, 3957, 3950
1111, 3948, 3955, 2041, 3951, 3949, 3956, 3958, 3952
1112, 3949, 3956, 3958, 3952, 3950, 3957, 2042, 3953
1113, 2003, 2040, 2043, 346, 2004, 2041, 2044, 2006
1114, 2004, 3951, 3959, 3899, 3892, 3952, 3960, 3900
1115, 3892, 3952, 3960, 3900, 2005, 3953, 3961, 3901
1116, 3899, 3959, 3962, 2006, 3900, 3960, 3963, 3902
1117, 3900, 3960, 3963, 3902, 3901, 3961, 3964, 348
1118, 3951, 2041, 3965, 3959, 3952, 3958, 3966, 3960
1119, 3952, 3958, 3966, 3960, 3953, 2042, 3967, 3961
1120, 3959, 3965, 2044, 3962, 3960, 3966, 3968, 3963
1121, 3960, 3966, 3968, 3963, 3961, 3967, 2045, 3964
1122, 2037, 393, 2047, 2040, 2038, 2046, 2048, 2041
1123, 2038, 3969, 3972, 3955, 3954, 3970, 3973, 3956
1124, 3954, 3970, 3973, 3956, 2039, 3971, 3974, 3957
1125, 3955, 3972, 3975, 2041, 3956, 3973, 3976, 3958
1126, 3956, 3973, 3976, 3958, 3957, 3974, 3977, 2042
1127, 3969, 2046, 3979, 3972, 3970, 3978, 3980, 3973
1128, 3970, 3978, 3980, 3973, 3971, 395, 3981, 3974
1129, 3972, 3979, 2048, 3975, 3973, 3980, 3982, 3976
1130, 3973, 3980, 3982, 3976, 3974, 3981, 2049, 3977
1131, 2040, 2047, 394, 2043, 2041, 2048, 2050, 2044
1132, 2041, 3975, 3983, 3965, 3958, 3976, 3984, 3966
1133, 3958, 3976, 3984, 3966, 2042, 3977, 3985, 3967
1134, 3965, 3983, 3986, 2044, 3966, 3984, 3987, 3968
1135, 3966, 3984, 3987, 3968, 3967, 3985, 3988, 2045
1136, 3975, 2048, 3989, 3983, 3976, 3982, 3990, 3984
1137, 3976, 3982, 3990, 3984, 3977, 2049, 3991, 3985
1138, 3983, 3989, 2050, 3986, 3984, 3990, 3992, 3987
1139, 3984, 3990, 3992, 3987, 3985, 3991, 396, 3988
1140, 338, 1461, 1468, 1464, 1454, 1462, 1469, 1465
1141, 1454, 1462, 1469, 1465, 340, 1463, 1470, 1466
1142, 1464, 1468, 1471, 349, 1465, 1469, 1472, 1467
1143, 1465, 1469, 1472, 1467, 1466, 1470, 1473, 350
1144, 1461, 386, 1190, 1468, 1462, 1175, 1191, 1469
1145, 1462, 1175, 1191, 1469, 1463, 388, 1192, 1470
1146, 1468, 1190, 397, 1471, 1469, 1191, 1193, 1472
1147, 1469, 1191, 1193, 1472, 1470, 1192, 398, 1473
1148, 340, 1463, 1470, 1466, 2026, 2031, 2054, 2051
1149, 2026, 2031, 2054, 2051, 342, 2032, 2055, 2052
1150, 1466, 1470, 1473, 350, 2051, 2054, 2056, 2053
1151, 2051, 2054, 2056, 2053, 2052, 2055, 2057, 351
1152, 1463, 388, 1192, 1470, 2031, 2036, 2058, 2054
1153, 2031, 2036, 2058, 2054, 2032, 390, 2059, 2055
1154, 1470, 1192, 398, 1473, 2054, 2058, 2060, 2056
1155, 2054, 2058, 2060, 2056, 2055, 2059, 399, 2057
1156, 342, 2032, 2055, 2052, 2905, 2910, 2924, 2922
1157, 2905, 2910, 2924, 2922, 344, 2911, 2925, 2883
1158, 2052, 2055, 2057, 351, 2922, 2924, 2926, 2923
1159, 2922, 2924, 2926, 2923, 2883, 2925, 2927, 352
1160, 2032, 390, 2059, 2055, 2910, 2915, 2928, 2924
1161, 2910, 2915, 2928, 2924, 2911, 392, 2929, 2925
1162, 2055, 2059, 399, 2057, 2924, 2928, 2930, 2926
1163, 2924, 2928, 2930, 2926, 2925, 2929, 400, 2927
1164, 344, 2911, 2925, 2883, 2855, 2918, 2931, 2884
1165, 2855, 2918, 2931, 2884, 346, 2043, 2061, 2019
1166, 2883, 2925, 2927, 352, 2884, 2931, 2932, 2885
1167, 2884, 2931, 2932, 2885, 2019, 2061, 2064, 353
1168, 2911, 392, 2929, 2925, 2918, 2921, 2933, 2931
1169, 2918, 2921, 2933, 2931, 2043, 394, 2067, 2061
1170, 2925, 2929, 400, 2927, 2931, 2933, 2934, 2932
1171, 2931, 2933, 2934, 2932, 2061, 2067, 401, 2064
1172, 346, 2043, 2061, 2019, 2006, 2044, 2062, 2020
1173, 2006, 3962, 3993, 3931, 3902, 3963, 3994, 3932
1174, 3902, 3963, 3994, 3932, 348, 3964, 3995, 3933
1175, 3931, 3993, 3996, 2020, 3932, 3994, 3997, 3934
1176, 3932, 3994, 3997, 3934, 3933, 3995, 3998, 2021
1177, 3962, 2044, 3999, 3993, 3963, 3968, 4000, 3994
1178, 3963, 3968, 4000, 3994, 3964, 2045, 4001, 3995
1179, 3993, 3999, 2062, 3996, 3994, 4000, 4002, 3997
1180, 3994, 4000, 4002, 3997, 3995, 4001, 2063, 3998
1181, 2019, 2061, 2064, 353, 2020, 2062, 2065, 2022
1182, 2020, 3996, 4003, 3941, 3934, 3997, 4004, 3942
1183, 3934, 3997, 4004, 3942, 2021, 3998, 4005, 3943
1184, 3941, 4003, 4006, 2022, 3942, 4004, 4007, 3944
1185, 3942, 4004, 4007, 3944, 3943, 4005, 4008, 354
1186, 3996, 2062, 4009, 4003, 3997, 4002, 4010, 4004
1187, 3997, 4002, 4010, 4004, 3998, 2063, 4011, 4005
1188, 4003, 4009, 2065, 4006, 4004, 4010, 4012, 4007
1189, 4004, 4010, 4012, 4007, 4005, 4011, 2066, 4008
1190, 2043, 394, 2067, 2061, 2044, 2050, 2068, 2062
1191, 2044, 3986, 4013, 3999, 3968, 3987, 4014, 4000
1192, 3968, 3987, 4014, 4000, 2045, 3988, 4015, 4001
1193, 3999, 4013, 4016, 2062, 4000, 4014, 4017, 4002
1194, 4000, 4014, 4017, 4002, 4001, 4015, 4018, 2063
1195, 3986, 2050, 4019, 4013, 3987, 3992, 4020, 4014
1196, 3987, 3992, 4020, 4014, 3988, 396, 4021, 4015
1197, 4013, 4019, 2068, 4016, 4014, 4020, 4022, 4017
1198, 4014, 4020, 4022, 4017, 4015, 4021, 2069, 4018
1199, 2061, 2067, 401, 2064, 2062, 2068, 2070, 2065
1200, 2062, 4016, 4023, 4009, 4002, 4017, 4024, 4010
1201, 4002, 4017, 4024, 4010, 2063, 4018, 4025, 4011
1202, 4009, 4023, 4026, 2065, 4010, 4024, 4027, 4012
1203, 4010, 4024, 4027, 4012, 4011, 4025, 4028, 2066
1204, 4016, 2068, 4029, 4023, 4017, 4022, 4030, 4024
1205, 4017, 4022, 4030, 4024, 4018, 2069, 4031, 4025
1206, 4023, 4029, 2070, 4026, 4024, 4030, 4032, 4027
1207, 4024, 4030, 4032, 4027, 4025, 4031, 402, 4028
1208, 355, 403, 404, 356, 357, 405, 406, 358
1209, 357, 405, 406, 358, 359, 407, 408, 360
1210, 356, 404, 409, 361, 358, 406, 410, 362
1211, 358, 406, 410, 362, 360, 408, 411, 363
1212, 361, 409, 412, 364, 362, 410, 413, 365
1213, 362, 410, 413, 365, 363, 411, 414, 366
1214, 364, 412, 395, 347, 365, 413, 415, 367
1215, 365, 413, 415, 367, 366, 414, 416, 368
1216, 347, 2039, 2042, 2005, 2892, 2935, 2937, 2893
1217, 2892, 2935, 2937, 2893, 367, 2936, 2938, 2894
1218, 2005, 2042, 2045, 348, 2893, 2937, 2939, 2895
1219, 2893, 2937, 2939, 2895, 2894, 2938, 2940, 369
1220, 2039, 395, 2049, 2042, 2935, 2941, 2942, 2937
1221, 2935, 2941, 2942, 2937, 2936, 415, 2943, 2938
1222, 2042, 2049, 396, 2045, 2937, 2942, 2944, 2939
1223, 2937, 2942, 2944, 2939, 2938, 2943, 417, 2940
1224, 367, 415, 417, 369, 368, 416, 418, 370
1225, 348, 2045, 2063, 2021, 2895, 2939, 2945, 2900
1226, 2895, 2939, 2945, 2900, 369, 2940, 2946, 2901
1227, 2021, 2063, 2066, 354, 2900, 2945, 2947, 2902
1228, 2900, 2945, 2947, 2902, 2901, 2946, 2948, 371
1229, 2045, 396, 2069, 2063, 2939, 2944, 2949, 2945
1230, 2939, 2944, 2949, 2945, 2940, 417, 2950, 2946
1231, 2063, 2069, 402, 2066, 2945, 2949, 2951, 2947
1232, 2945, 2949, 2951, 2947, 2946, 2950, 419, 2948
1233, 369, 417, 419, 371, 370, 418, 420, 372
1234, 354, 402, 421, 373, 371, 419, 422, 374
1235, 371, 419, 422, 374, 372, 420, 423, 375
1236, 373, 421, 424, 376, 374, 422, 425, 377
1237, 374, 422, 425, 377, 375, 423, 426, 378
1238, 376, 424, 427, 379, 377, 425, 428, 380
1239, 377, 425, 428, 380, 378, 426, 429, 381
1240, 379, 427, 430, 382, 380, 428, 431, 383
1241, 380, 428, 431, 383, 381, 429, 432, 384
1242, 385, 1176, 1179, 1172, 1171, 1177, 1180, 1173
1243, 1171, 1177, 1180, 1173, 387, 1178, 1181, 1174
1244, 1172, 1179, 1182, 386, 1173, 1180, 1183, 1175
1245, 1173, 1180, 1183, 1175, 1174, 1181, 1184, 388
1246, 1176, 433, 1186, 1179, 1177, 1185, 1187, 1180
1247, 1177, 1185, 1187, 1180, 1178, 435, 1188, 1181
1248, 1179, 1186, 434, 1182, 1180, 1187, 1189, 1183
1249, 1180, 1187, 1189, 1183, 1181, 1188, 436, 1184
1250, 387, 1178, 1181, 1174, 2033, 2071, 2073, 2034
1251, 2033, 2071, 2073, 2034, 389, 2072, 2074, 2035
1252, 1174, 1181, 1184, 388, 2034, 2073, 2075, 2036
1253, 2034, 2073, 2075, 2036, 2035, 2074, 2076, 390
1254, 1178, 435, 1188, 1181, 2071, 2077, 2078, 2073
1255, 2071, 2077, 2078, 2073, 2072, 437, 2079, 2074
1256, 1181, 1188, 436, 1184, 2073, 2078, 1474, 2075
1257, 2073, 2078, 1474, 2075, 2074, 2079, 438, 2076
1258, 389, 2072, 2074, 2035, 2912, 2952, 2954, 2913
1259, 2912, 2952, 2954, 2913, 391, 2953, 2955, 2914
1260, 2035, 2074, 2076, 390, 2913, 2954, 2956, 2915
1261, 2913, 2954, 2956, 2915, 2914, 2955, 2957, 392
1262, 2072, 437, 2079, 2074, 2952, 2958, 2959, 2954
1263, 2952, 2958, 2959, 2954, 2953, 439, 2960, 2955
1264, 2074, 2079, 438, 2076, 2954, 2959, 2192, 2956
1265, 2954, 2959, 2192, 2956, 2955, 2960, 440, 2957
1266, 391, 2953, 2955, 2914, 2919, 2961, 2962, 2920
1267, 2919, 2961, 2962, 2920, 393, 2080, 2083, 2047
1268, 2914, 2955, 2957, 392, 2920, 2962, 2963, 2921
1269, 2920, 2962, 2963, 2921, 2047, 2083, 2086, 394
1270, 2953, 439, 2960, 2955, 2961, 2964, 2965, 2962
1271, 2961, 2964, 2965, 2962, 2080, 441, 2090, 2083
1272, 2955, 2960, 440, 2957, 2962, 2965, 2966, 2963
1273, 2962, 2965, 2966, 2963, 2083, 2090, 442, 2086
1274, 393, 2080, 2083, 2047, 2046, 2081, 2084, 2048
1275, 2046, 4033, 4036, 3979, 3978, 4034, 4037, 3980
1276, 3978, 4034, 4037, 3980, 395, 4035, 4038, 3981
1277, 3979, 4036, 4039, 2048, 3980, 4037, 4040, 3982
1278, 3980, 4037, 4040, 3982, 3981, 4038, 4041, 2049
1279, 4033, 2081, 4043, 4036, 4034, 4042, 4044, 4037
1280, 4034, 4042, 4044, 4037, 4035, 2082, 4045, 4038
1281, 4036, 4043, 2084, 4039, 4037, 4044, 4046, 4040
1282, 4037, 4044, 4046, 4040, 4038, 4045, 2085, 4041
1283, 2047, 2083, 2086, 394, 2048, 2084, 2087, 2050
1284, 2048, 4039, 4047, 3989, 3982, 4040, 4048, 3990
1285, 3982, 4040, 4048, 3990, 2049, 4041, 4049, 3991
1286, 3989, 4047, 4050, 2050, 3990, 4048, 4051, 3992
1287, 3990, 4048, 4051, 3992, 3991, 4049, 4052, 396
1288, 4039, 2084, 4053, 4047, 4040, 4046, 4054, 4048
1289, 4040, 4046, 4054, 4048, 4041, 2085, 4055, 4049
1290, 4047, 4053, 2087, 4050, 4048, 4054, 4056, 4051
1291, 4048, 4054, 4056, 4051, 4049, 4055, 2088, 4052
1292, 2080, 441, 2090, 2083, 2081, 2089, 2091, 2084
1293, 2081, 4057, 4060, 4043, 4042, 4058, 4061, 4044
1294, 4042, 4058, 4061, 4044, 2082, 4059, 4062, 4045
1295, 4043, 4060, 4063, 2084, 4044, 4061, 4064, 4046
1296, 4044, 4061, 4064, 4046, 4045, 4062, 4065, 2085
1297, 4057, 2089, 4067, 4060, 4058, 4066, 4068, 4061
1298, 4058, 4066, 4068, 4061, 4059, 443, 4069, 4062
1299, 4060, 4067, 2091, 4063, 4061, 4068, 4070, 4064
1300, 4061, 4068, 4070, 4064, 4062, 4069, 2092, 4065
1301, 2083, 2090, 442, 2086, 2084, 2091, 2093, 2087
1302, 2084, 4063, 4071, 4053, 4046, 4064, 4072, 4054
1303, 4046, 4064, 4072, 4054, 2085, 4065, 4073, 4055
1304, 4053, 4071, 4074, 2087, 4054, 4072, 4075, 4056
1305, 4054, 4072, 4075, 4056, 4055, 4073, 4076, 2088
1306, 4063, 2091, 4077, 4071, 4064, 4070, 4078, 4072
1307, 4064, 4070, 4078, 4072, 4065, 2092, 4079, 4073
1308, 4071, 4077, 2093, 4074, 4072, 4078, 4080, 4075
1309, 4072, 4078, 4080, 4075, 4073, 4079, 444, 4076
1310, 386, 2099, 2102, 2095, 2094, 2100, 2103, 2096
1311, 2094, 2100, 2103, 2096, 1175, 2101, 2104, 2097
1312, 2095, 2102, 2105, 1190, 2096, 2103, 2106, 2098
1313, 2096, 2103, 2106, 2098, 2097, 2104, 2107, 1191
1314, 2099, 1182, 2109, 2102, 2100, 2108, 2110, 2103
1315, 2100, 2108, 2110, 2103, 2101, 1183, 2111, 2104
1316, 2102, 2109, 1194, 2105, 2103, 2110, 2112, 2106
1317, 2103, 2110, 2112, 2106, 2104, 2111, 1195, 2107
1318, 1175, 1183, 1195, 1191, 388, 1184, 1196, 1192
1319, 1190, 2105, 2117, 2113, 2098, 2106, 2118, 2114
1320, 2098, 2106, 2118, 2114, 1191, 2107, 2119, 2115
1321, 2113, 2117, 2120, 397, 2114, 2118, 2121, 2116
1322, 2114, 2118, 2121, 2116, 2115, 2119, 2122, 1193
1323, 2105, 1194, 2123, 2117, 2106, 2112, 2124, 2118
1324, 2106, 2112, 2124, 2118, 2107, 1195, 2125, 2119
1325, 2117, 2123, 1197, 2120, 2118, 2124, 2126, 2121
1326, 2118, 2124, 2126, 2121, 2119, 2125, 1198, 2122
1327, 1191, 1195, 1198, 1193, 1192, 1196, 1199, 398
1328, 1182, 434, 1200, 1194, 1183, 1189, 1201, 1195
1329, 1183, 1189, 1201, 1195, 1184, 436, 1202, 1196
1330, 1194, 1200, 445, 1197, 1195, 1201, 1203, 1198
1331, 1195, 1201, 1203, 1198, 1196, 1202, 446, 1199
1332, 388, 1184, 1196, 1192, 2036, 2075, 2127, 2058
1333, 2036, 2075, 2127, 2058, 390, 2076, 2128, 2059
1334, 1192, 1196, 1199, 398, 2058, 2127, 2129, 2060
1335, 2058, 2127, 2129, 2060, 2059, 2128, 2130, 399
1336, 1184, 436, 1202, 1196, 2075, 1474, 1475, 2127
1337, 2075, 1474, 1475, 2127, 2076, 438, 1476, 2128
1338, 1196, 1202, 446, 1199, 2127, 1475, 1477, 2129
1339, 2127, 1475, 1477, 2129, 2128, 1476, 447, 2130
1340, 390, 2076, 2128, 2059, 2915, 2956, 2967, 2928
1341, 2915, 2956, 2967, 2928, 392, 2957, 2968, 2929
1342, 2059, 2128, 2130, 399, 2928, 2967, 2969, 2930
1343, 2928, 2967, 2969, 2930, 2929, 2968, 2970, 400
1344, 2076, 438, 1476, 2128, 2956, 2192, 2193, 2967
1345, 2956, 2192, 2193, 2967, 2957, 440, 2194, 2968
1346, 2128, 1476, 447, 2130, 2967, 2193, 2195, 2969
1347, 2967, 2193, 2195, 2969, 2968, 2194, 448, 2970
1348, 392, 2957, 2968, 2929, 2921, 2963, 2971, 2933
1349, 2921, 2963, 2971, 2933, 394, 2086, 2131, 2067
1350, 2929, 2968, 2970, 400, 2933, 2971, 2972, 2934
1351, 2933, 2971, 2972, 2934, 2067, 2131, 2134, 401
1352, 2957, 440, 2194, 2968, 2963, 2966, 2973, 2971
1353, 2963, 2966, 2973, 2971, 2086, 442, 2137, 2131
1354, 2968, 2194, 448, 2970, 2971, 2973, 2974, 2972
1355, 2971, 2973, 2974, 2972, 2131, 2137, 449, 2134
1356, 394, 2086, 2131, 2067, 2050, 2087, 2132, 2068
1357, 2050, 4050, 4081, 4019, 3992, 4051, 4082, 4020
1358, 3992, 4051, 4082, 4020, 396, 4052, 4083, 4021
1359, 4019, 4081, 4084, 2068, 4020, 4082, 4085, 4022
1360, 4020, 4082, 4085, 4022, 4021, 4083, 4086, 2069
1361, 4050, 2087, 4087, 4081, 4051, 4056, 4088, 4082
1362, 4051, 4056, 4088, 4082, 4052, 2088, 4089, 4083
1363, 4081, 4087, 2132, 4084, 4082, 4088, 4090, 4085
1364, 4082, 4088, 4090, 4085, 4083, 4089, 2133, 4086
1365, 2067, 2131, 2134, 401, 2068, 2132, 2135, 2070
1366, 2068, 4084, 4091, 4029, 4022, 4085, 4092, 4030
1367, 4022, 4085, 4092, 4030, 2069, 4086, 4093, 4031
1368, 4029, 4091, 4094, 2070, 4030, 4092, 4095, 4032
1369, 4030, 4092, 4095, 4032, 4031, 4093, 4096, 402
1370, 4084, 2132, 4097, 4091, 4085, 4090, 4098, 4092
1371, 4085, 4090, 4098, 4092, 4086, 2133, 4099, 4093
1372, 4091, 4097, 2135, 4094, 4092, 4098, 4100, 4095
1373, 4092, 4098, 4100, 4095, 4093, 4099, 2136, 4096
1374, 2086, 442, 2137, 2131, 2087, 2093, 2138, 2132
1375, 2087, 4074, 4101, 4087, 4056, 4075, 4102, 4088
1376, 4056, 4075, 4102, 4088, 2088, 4076, 4103, 4089
1377, 4087, 4101, 4104, 2132, 4088, 4102, 4105, 4090
1378, 4088, 4102, 4105, 4090, 4089, 4103, 4106, 2133
1379, 4074, 2093, 4107, 4101, 4075, 4080, 4108, 4102
1380, 4075, 4080, 4108, 4102, 4076, 444, 4109, 4103
1381, 4101, 4107, 2138, 4104, 4102, 4108, 4110, 4105
1382, 4102, 4108, 4110, 4105, 4103, 4109, 2139, 4106
1383, 2131, 2137, 449, 2134, 2132, 2138, 2140, 2135
1384, 2132, 4104, 4111, 4097, 4090, 4105, 4112, 4098
1385, 4090, 4105, 4112, 4098, 2133, 4106, 4113, 4099
1386, 4097, 4111, 4114, 2135, 4098, 4112, 4115, 4100
1387, 4098, 4112, 4115, 4100, 4099, 4113, 4116, 2136
1388, 4104, 2138, 4117, 4111, 4105, 4110, 4118, 4112
1389, 4105, 4110, 4118, 4112, 4106, 2139, 4119, 4113
1390, 4111, 4117, 2140, 4114, 4112, 4118, 4120, 4115
1391, 4112, 4118, 4120, 4115, 4113, 4119, 450, 4116
1392, 403, 451, 452, 404, 405, 453, 454, 406
1393, 405, 453, 454, 406, 407, 455, 456, 408
1394, 404, 452, 457, 409, 406, 454, 458, 410
1395, 406, 454, 458, 410, 408, 456, 459, 411
1396, 409, 457, 460, 412, 410, 458, 461, 413
1397, 410, 458, 461, 413, 411, 459, 462, 414
1398, 412, 460, 443, 395, 413, 461, 463, 415
1399, 413, 461, 463, 415, 414, 462, 464, 416
1400, 395, 2082, 2085, 2049, 2941, 2975, 2977, 2942
1401, 2941, 2975, 2977, 2942, 415, 2976, 2978, 2943
1402, 2049, 2085, 2088, 396, 2942, 2977, 2979, 2944
1403, 2942, 2977, 2979, 2944, 2943, 2978, 2980, 417
1404, 2082, 443, 2092, 2085, 2975, 2981, 2982, 2977
1405, 2975, 2981, 2982, 2977, 2976, 463, 2983, 2978
1406, 2085, 2092, 444, 2088, 2977, 2982, 2984, 2979
1407, 2977, 2982, 2984, 2979, 2978, 2983, 465, 2980
1408, 415, 463, 465, 417, 416, 464, 466, 418
1409, 396, 2088, 2133, 2069, 2944, 2979, 2985, 2949
1410, 2944, 2979, 2985, 2949, 417, 2980, 2986, 2950
1411, 2069, 2133, 2136, 402, 2949, 2985, 2987, 2951
1412, 2949, 2985, 2987, 2951, 2950, 2986, 2988, 419
1413, 2088, 444, 2139, 2133, 2979, 2984, 2989, 2985
1414, 2979, 2984, 2989, 2985, 2980, 465, 2990, 2986
1415, 2133, 2139, 450, 2136, 2985, 2989, 2991, 2987
1416, 2985, 2989, 2991, 2987, 2986, 2990, 467, 2988
1417, 417, 465, 467, 419, 418, 466, 468, 420
1418, 402, 450, 469, 421, 419, 467, 470, 422
1419, 419, 467, 470, 422, 420, 468, 471, 423
1420, 421, 469, 472, 424, 422, 470, 473, 425
1421, 422, 470, 473, 425, 423, 471, 474, 426
1422, 424, 472, 475, 427, 425, 473, 476, 428
1423, 425, 473, 476, 428, 426, 474, 477, 429
1424, 427, 475, 478, 430, 428, 476, 479, 431
1425, 428, 476, 479, 431, 429, 477, 480, 432
1426, 433, 2146, 2149, 2142, 2141, 2147, 2150, 2143
1427, 2141, 2147, 2150, 2143, 1185, 2148, 2151, 2144
1428, 2142, 2149, 2152, 1186, 2143, 2150, 2153, 2145
1429, 2143, 2150, 2153, 2145, 2144, 2151, 2154, 1187
1430, 2146, 1204, 2156, 2149, 2147, 2155, 2157, 2150
1431, 2147, 2155, 2157, 2150, 2148, 1205, 2158, 2151
1432, 2149, 2156, 1207, 2152, 2150, 2157, 2159, 2153
1433, 2150, 2157, 2159, 2153, 2151, 2158, 1208, 2154
1434, 1185, 1205, 1208, 1187, 435, 1206, 1209, 1188
1435, 1186, 2152, 2164, 2160, 2145, 2153, 2165, 2161
1436, 2145, 2153, 2165, 2161, 1187, 2154, 2166, 2162
1437, 2160, 2164, 2167, 434, 2161, 2165, 2168, 2163
1438, 2161, 2165, 2168, 2163, 2162, 2166, 2169, 1189
1439, 2152, 1207, 2170, 2164, 2153, 2159, 2171, 2165
1440, 2153, 2159, 2171, 2165, 2154, 1208, 2172, 2166
1441, 2164, 2170, 1210, 2167, 2165, 2171, 2173, 2168
1442, 2165, 2171, 2173, 2168, 2166, 2172, 1211, 2169
1443, 1187, 1208, 1211, 1189, 1188, 1209, 1212, 436
1444, 1204, 481, 914, 1207, 1205, 913, 915, 1208
1445, 1205, 913, 915, 1208, 1206, 483, 916, 1209
1446, 1207, 914, 482, 1210, 1208, 915, 917, 1211
1447, 1208, 915, 917, 1211, 1209, 916, 484, 1212
1448, 435, 1206, 1209, 1188, 2077, 2174, 2176, 2078
1449, 2077, 2174, 2176, 2078, 437, 2175, 2177, 2079
1450, 1188, 1209, 1212, 436, 2078, 2176, 1478, 1474
1451, 2078, 2176, 1478, 1474, 2079, 2177, 1479, 438
1452, 1206, 483, 916, 1209, 2174, 1488, 1489, 2176
1453, 2174, 1488, 1489, 2176, 2175, 485, 1490, 2177
1454, 1209, 916, 484, 1212, 2176, 1489, 1484, 1478
1455, 2176, 1489, 1484, 1478, 2177, 1490, 486, 1479
1456, 437, 2175, 2177, 2079, 2958, 2992, 2994, 2959
1457, 2958, 2992, 2994, 2959, 439, 2993, 2995, 2960
1458, 2079, 2177, 1479, 438, 2959, 2994, 2196, 2192
1459, 2959, 2994, 2196, 2192, 2960, 2995, 2197, 440
1460, 2175, 485, 1490, 2177, 2992, 2216, 2217, 2994
1461, 2992, 2216, 2217, 2994, 2993, 487, 2218, 2995
1462, 2177, 1490, 486, 1479, 2994, 2217, 2202, 2196
1463, 2994, 2217, 2202, 2196, 2995, 2218, 488, 2197
1464, 439, 2993, 2995, 2960, 2964, 2996, 2997, 2965
1465, 2964, 2996, 2997, 2965, 441, 2178, 2181, 2090
1466, 2960, 2995, 2197, 440, 2965, 2997, 2998, 2966
1467, 2965, 2997, 2998, 2966, 2090, 2181, 2184, 442
1468, 2993, 487, 2218, 2995, 2996, 2999, 3000, 2997
1469, 2996, 2999, 3000, 2997, 2178, 489, 2188, 2181
1470, 2995, 2218, 488, 2197, 2997, 3000, 3001, 2998
1471, 2997, 3000, 3001, 2998, 2181, 2188, 490, 2184
1472, 441, 2178, 2181, 2090, 2089, 2179, 2182, 2091
1473, 2089, 4121, 4124, 4067, 4066, 4122, 4125, 4068
1474, 4066, 4122, 4125, 4068, 443, 4123, 4126, 4069
1475, 4067, 4124, 4127, 2091, 4068, 4125, 4128, 4070
1476, 4068, 4125, 4128, 4070, 4069, 4126, 4129, 2092
1477, 4121, 2179, 4131, 4124, 4122, 4130, 4132, 4125
1478, 4122, 4130, 4132, 4125, 4123, 2180, 4133, 4126
1479, 4124, 4131, 2182, 4127, 4125, 4132, 4134, 4128
1480, 4125, 4132, 4134, 4128, 4126, 4133, 2183, 4129
1481, 2090, 2181, 2184, 442, 2091, 2182, 2185, 2093
1482, 2091, 4127, 4135, 4077, 4070, 4128, 4136, 4078
1483, 4070, 4128, 4136, 4078, 2092, 4129, 4137, 4079
1484, 4077, 4135, 4138, 2093, 4078, 4136, 4139, 4080
1485, 4078, 4136, 4139, 4080, 4079, 4137, 4140, 444
1486, 4127, 2182, 4141, 4135, 4128, 4134, 4142, 4136
1487, 4128, 4134, 4142, 4136, 4129, 2183, 4143, 4137
1488, 4135, 4141, 2185, 4138, 4136, 4142, 4144, 4139
1489, 4136, 4142, 4144, 4139, 4137, 4143, 2186, 4140
1490, 2178, 489, 2188, 2181, 2179, 2187, 2189, 2182
1491, 2179, 2187, 2189, 2182, 2180, 491, 2190, 2183
1492, 2181, 2188, 490, 2184, 2182, 2189, 2191, 2185
1493, 2182, 2189, 2191, 2185, 2183, 2190, 492, 2186
1494, 434, 1210, 1213, 1200, 1189, 1211, 1214, 1201
1495, 1189, 1211, 1214, 1201, 436, 1212, 1215, 1202
1496, 1200, 1213, 1216, 445, 1201, 1214, 1217, 1203
1497, 1201, 1214, 1217, 1203, 1202, 1215, 1218, 446
1498, 1210, 482, 932, 1213, 1211, 917, 933, 1214
1499, 1211, 917, 933, 1214, 1212, 484, 934, 1215
1500, 1213, 932, 493, 1216, 1214, 933, 935, 1217
1501, 1214, 933, 935, 1217, 1215, 934, 494, 1218
1502, 436, 1212, 1215, 1202, 1474, 1478, 1480, 1475
1503, 1474, 1478, 1480, 1475, 438, 1479, 1481, 1476
1504, 1202, 1215, 1218, 446, 1475, 1480, 1482, 1477
1505, 1475, 1480, 1482, 1477, 1476, 1481, 1483, 447
1506, 1212, 484, 934, 1215, 1478, 1484, 1485, 1480
1507, 1478, 1484, 1485, 1480, 1479, 486, 1486, 1481
1508, 1215, 934, 494, 1218, 1480, 1485, 1487, 1482
1509, 1480, 1485, 1487, 1482, 1481, 1486, 495, 1483
1510, 438, 1479, 1481, 1476, 2192, 2196, 2198, 2193
1511, 2192, 2196, 2198, 2193, 440, 2197, 2199, 2194
1512, 1476, 1481, 1483, 447, 2193, 2198, 2200, 2195
1513, 2193, 2198, 2200, 2195, 2194, 2199, 2201, 448
1514, 1479, 486, 1486, 1481, 2196, 2202, 2203, 2198
1515, 2196, 2202, 2203, 2198, 2197, 488, 2204, 2199
1516, 1481, 1486, 495, 1483, 2198, 2203, 2205, 2200
1517, 2198, 2203, 2205, 2200, 2199, 2204, 496, 2201
1518, 440, 2197, 2199, 2194, 2966, 2998, 3002, 2973
1519, 2966, 2998, 3002, 2973, 442, 2184, 2206, 2137
1520, 2194, 2199, 2201, 448, 2973, 3002, 3003, 2974
1521, 2973, 3002, 3003, 2974, 2137, 2206, 2209, 449
1522, 2197, 488, 2204, 2199, 2998, 3001, 3004, 3002
1523, 2998, 3001, 3004, 3002, 2184, 490, 2212, 2206
1524, 2199, 2204, 496, 2201, 3002, 3004, 3005, 3003
1525, 3002, 3004, 3005, 3003, 2206, 2212, 497, 2209
1526, 442, 2184, 2206, 2137, 2093, 2185, 2207, 2138
1527, 2093, 4138, 4145, 4107, 4080, 4139, 4146, 4108
1528, 4080, 4139, 4146, 4108, 444, 4140, 4147, 4109
1529, 4107, 4145, 4148, 2138, 4108, 4146, 4149, 4110
1530, 4108, 4146, 4149, 4110, 4109, 4147, 4150, 2139
1531, 4138, 2185, 4151, 4145, 4139, 4144, 4152, 4146
1532, 4139, 4144, 4152, 4146, 4140, 2186, 4153, 4147
1533, 4145, 4151, 2207, 4148, 4146, 4152, 4154, 4149
1534, 4146, 4152, 4154, 4149, 4147, 4153, 2208, 4150
1535, 2137, 2206, 2209, 449, 2138, 2207, 2210, 2140
1536, 2138, 4148, 4155, 4117, 4110, 4149, 4156, 4118
1537, 4110, 4149, 4156, 4118, 2139, 4150, 4157, 4119
1538, 4117, 4155, 4158, 2140, 4118, 4156, 4159, 4120
1539, 4118, 4156, 4159, 4120, 4119, 4157, 4160, 450
1540, 4148, 2207, 4161, 4155, 4149, 4154, 4162, 4156
1541, 4149, 4154, 4162, 4156, 4150, 2208, 4163, 4157
1542, 4155, 4161, 2210, 4158, 4156, 4162, 4164, 4159
1543, 4156, 4162, 4164, 4159, 4157, 4163, 2211, 4160
1544, 2184, 490, 2212, 2206, 2185, 2191, 2213, 2207
1545, 2185, 2191, 2213, 2207, 2186, 492, 2214, 2208
1546, 2206, 2212, 497, 2209, 2207, 2213, 2215, 2210
1547, 2207, 2213, 2215, 2210, 2208, 2214, 498, 2211
1548, 451, 499, 500, 452, 453, 501, 502, 454
1549, 453, 501, 502, 454, 455, 503, 504, 456
1550, 452, 500, 505, 457, 454, 502, 506, 458
1551, 454, 502, 506, 458, 456, 504, 507, 459
1552, 457, 505, 508, 460, 458, 506, 509, 461
1553, 458, 506, 509, 461, 459, 507, 510, 462
1554, 460, 508, 491, 443, 461, 509, 511, 463
1555, 461, 509, 511, 463, 462, 510, 512, 464
1556, 443, 2180, 2183, 2092, 2981, 3006, 3008, 2982
1557, 2981, 3006, 3008, 2982, 463, 3007, 3009, 2983
1558, 2092, 2183, 2186, 444, 2982, 3008, 3010, 2984
1559, 2982, 3008, 3010, 2984, 2983, 3009, 3011, 465
1560, 2180, 491, 2190, 2183, 3006, 2253, 2254, 3008
1561, 3006, 2253, 2254, 3008, 3007, 511, 2255, 3009
1562, 2183, 2190, 492, 2186, 3008, 2254, 2256, 3010
1563, 3008, 2254, 2256, 3010, 3009, 2255, 513, 3011
1564, 463, 511, 513, 465, 464, 512, 514, 466
1565, 444, 2186, 2208, 2139, 2984, 3010, 3012, 2989
1566, 2984, 3010, 3012, 2989, 465, 3011, 3013, 2990
1567, 2139, 2208, 2211, 450, 2989, 3012, 3014, 2991
1568, 2989, 3012, 3014, 2991, 2990, 3013, 3015, 467
1569, 2186, 492, 2214, 2208, 3010, 2256, 2267, 3012
1570, 3010, 2256, 2267, 3012, 3011, 513, 2268, 3013
1571, 2208, 2214, 498, 2211, 3012, 2267, 2269, 3014
1572, 3012, 2267, 2269, 3014, 3013, 2268, 515, 3015
1573, 465, 513, 515, 467, 466, 514, 516, 468
1574, 450, 498, 517, 469, 467, 515, 518, 470
1575, 467, 515, 518, 470, 468, 516, 519, 471
1576, 469, 517, 520, 472, 470, 518, 521, 473
1577, 470, 518, 521, 473, 471, 519, 522, 474
1578, 472, 520, 523, 475, 473, 521, 524, 476
1579, 473, 521, 524, 476, 474, 522, 525, 477
1580, 475, 523, 526, 478, 476, 524, 527, 479
1581, 476, 524, 527, 479, 477, 525, 528, 480
1582, 481, 918, 921, 914, 913, 919, 922, 915
1583, 913, 919, 922, 915, 483, 920, 923, 916
1584, 914, 921, 924, 482, 915, 922, 925, 917
1585, 915, 922, 925, 917, 916, 923, 926, 484
1586, 918, 529, 928, 921, 919, 927, 929, 922
1587, 919, 927, 929, 922, 920, 531, 930, 923
1588, 921, 928, 530, 924, 922, 929, 931, 925
1589, 922, 929, 931, 925, 923, 930, 532, 926
1590, 483, 920, 923, 916, 1488, 1491, 1493, 1489
1591, 1488, 1491, 1493, 1489, 485, 1492, 1494, 1490
1592, 916, 923, 926, 484, 1489, 1493, 1495, 1484
1593, 1489, 1493, 1495, 1484, 1490, 1494, 1496, 486
1594, 920, 531, 930, 923, 1491, 1219, 1220, 1493
1595, 1491, 1219, 1220, 1493, 1492, 533, 1221, 1494
1596, 923, 930, 532, 926, 1493, 1220, 1222, 1495
1597, 1493, 1220, 1222, 1495, 1494, 1221, 534, 1496
1598, 485, 1492, 1494, 1490, 2216, 2219, 2221, 2217
1599, 2216, 2219, 2221, 2217, 487, 2220, 2222, 2218
1600, 1490, 1494, 1496, 486, 2217, 2221, 2223, 2202
1601, 2217, 2221, 2223, 2202, 2218, 2222, 2224, 488
1602, 1492, 533, 1221, 1494, 2219, 1501, 1502, 2221
1603, 2219, 1501, 1502, 2221, 2220, 535, 1503, 2222
1604, 1494, 1221, 534, 1496, 2221, 1502, 1504, 2223
1605, 2221, 1502, 1504, 2223, 2222, 1503, 536, 2224
1606, 487, 2220, 2222, 2218, 2999, 3016, 3017, 3000
1607, 2999, 3016, 3017, 3000, 489, 2225, 2228, 2188
1608, 2218, 2222, 2224, 488, 3000, 3017, 3018, 3001
1609, 3000, 3017, 3018, 3001, 2188, 2228, 2231, 490
1610, 2220, 535, 1503, 2222, 3016, 2277, 2278, 3017
1611, 3016, 2277, 2278, 3017, 2225, 537, 2235, 2228
1612, 2222, 1503, 536, 2224, 3017, 2278, 2279, 3018
1613, 3017, 2278, 2279, 3018, 2228, 2235, 538, 2231
1614, 489, 2225, 2228, 2188, 2187, 2226, 2229, 2189
1615, 2187, 3024, 3027, 3020, 3019, 3025, 3028, 3021
1616, 3019, 3025, 3028, 3021, 491, 3026, 3029, 3022
1617, 3020, 3027, 3030, 2189, 3021, 3028, 3031, 3023
1618, 3021, 3028, 3031, 3023, 3022, 3029, 3032, 2190
1619, 3024, 2226, 3034, 3027, 3025, 3033, 3035, 3028
1620, 3025, 3033, 3035, 3028, 3026, 2227, 3036, 3029
1621, 3027, 3034, 2229, 3030, 3028, 3035, 3037, 3031
1622, 3028, 3035, 3037, 3031, 3029, 3036, 2230, 3032
1623, 2188, 2228, 2231, 490, 2189, 2229, 2232, 2191
1624, 2189, 3030, 3042, 3038, 3023, 3031, 3043, 3039
1625, 3023, 3031, 3043, 3039, 2190, 3032, 3044, 3040
1626, 3038, 3042, 3045, 2191, 3039, 3043, 3046, 3041
1627, 3039, 3043, 3046, 3041, 3040, 3044, 3047, 492
1628, 3030, 2229, 3048, 3042, 3031, 3037, 3049, 3043
1629, 3031, 3037, 3049, 3043, 3032, 2230, 3050, 3044
1630, 3042, 3048, 2232, 3045, 3043, 3049, 3051, 3046
1631, 3043, 3049, 3051, 3046, 3044, 3050, 2233, 3047
1632, 2225, 537, 2235, 2228, 2226, 2234, 2236, 2229
1633, 2226, 2234, 2236, 2229, 2227, 539, 2237, 2230
1634, 2228, 2235, 538, 2231, 2229, 2236, 2238, 2232
1635, 2229, 3052, 3055, 3048, 3037, 3053, 3056, 3049
1636, 3037, 3053, 3056, 3049, 2230, 3054, 3057, 3050
1637, 3048, 3055, 3058, 2232, 3049, 3056, 3059, 3051
1638, 3049, 3056, 3059, 3051, 3050, 3057, 3060, 2233
1639, 3052, 2236, 3062, 3055, 3053, 3061, 3063, 3056
1640, 3053, 3061, 3063, 3056, 3054, 2237, 3064, 3057
1641, 3055, 3062, 2238, 3058, 3056, 3063, 3065, 3059
1642, 3056, 3063, 3065, 3059, 3057, 3064, 540, 3060
1643, 482, 924, 936, 932, 917, 925, 937, 933
1644, 917, 925, 937, 933, 484, 926, 938, 934
1645, 932, 936, 939, 493, 933, 937, 940, 935
1646, 933, 937, 940, 935, 934, 938, 941, 494
1647, 924, 530, 942, 936, 925, 931, 943, 937
1648, 925, 931, 943, 937, 926, 532, 944, 938
1649, 936, 942, 541, 939, 937, 943, 945, 940
1650, 937, 943, 945, 940, 938, 944, 542, 941
1651, 484, 926, 938, 934, 1484, 1495, 1497, 1485
1652, 1484, 1495, 1497, 1485, 486, 1496, 1498, 1486
1653, 934, 938, 941, 494, 1485, 1497, 1499, 1487
1654, 1485, 1497, 1499, 1487, 1486, 1498, 1500, 495
1655, 926, 532, 944, 938, 1495, 1222, 1233, 1497
1656, 1495, 1222, 1233, 1497, 1496, 534, 1234, 1498
1657, 938, 944, 542, 941, 1497, 1233, 1235, 1499
1658, 1497, 1233, 1235, 1499, 1498, 1234, 543, 1500
1659, 486, 1496, 1498, 1486, 2202, 2223, 2239, 2203
1660, 2202, 2223, 2239, 2203, 488, 2224, 2240, 2204
1661, 1486, 1498, 1500, 495, 2203, 2239, 2241, 2205
1662, 2203, 2239, 2241, 2205, 2204, 2240, 2242, 496
1663, 1496, 534, 1234, 1498, 2223, 1504, 1515, 2239
1664, 2223, 1504, 1515, 2239, 2224, 536, 1516, 2240
1665, 1498, 1234, 543, 1500, 2239, 1515, 1517, 2241
1666, 2239, 1515, 1517, 2241, 2240, 1516, 544, 2242
1667, 488, 2224, 2240, 2204, 3001, 3018, 3066, 3004
1668, 3001, 3018, 3066, 3004, 490, 2231, 2243, 2212
1669, 2204, 2240, 2242, 496, 3004, 3066, 3067, 3005
1670, 3004, 3066, 3067, 3005, 2212, 2243, 2246, 497
1671, 2224, 536, 1516, 2240, 3018, 2279, 2300, 3066
1672, 3018, 2279, 2300, 3066, 2231, 538, 2249, 2243
1673, 2240, 1516, 544, 2242, 3066, 2300, 2301, 3067
1674, 3066, 2300, 2301, 3067, 2243, 2249, 545, 2246
1675, 490, 2231, 2243, 2212, 2191, 2232, 2244, 2213
1676, 2191, 3045, 3072, 3068, 3041, 3046, 3073, 3069
1677, 3041, 3046, 3073, 3069, 492, 3047, 3074, 3070
1678, 3068, 3072, 3075, 2213, 3069, 3073, 3076, 3071
1679, 3069, 3073, 3076, 3071, 3070, 3074, 3077, 2214
1680, 3045, 2232, 3078, 3072, 3046, 3051, 3079, 3073
1681, 3046, 3051, 3079, 3073, 3047, 2233, 3080, 3074
1682, 3072, 3078, 2244, 3075, 3073, 3079, 3081, 3076
1683, 3073, 3079, 3081, 3076, 3074, 3080, 2245, 3077
1684, 2212, 2243, 2246, 497, 2213, 2244, 2247, 2215
1685, 2213, 3075, 3086, 3082, 3071, 3076, 3087, 3083
1686, 3071, 3076, 3087, 3083, 2214, 3077, 3088, 3084
1687, 3082, 3086, 3089, 2215, 3083, 3087, 3090, 3085
1688, 3083, 3087, 3090, 3085, 3084, 3088, 3091, 498
1689, 3075, 2244, 3092, 3086, 3076, 3081, 3093, 3087
1690, 3076, 3081, 3093, 3087, 3077, 2245, 3094, 3088
1691, 3086, 3092, 2247, 3089, 3087, 3093, 3095, 3090
1692, 3087, 3093, 3095, 3090, 3088, 3094, 2248, 3091
1693, 2231, 538, 2249, 2243, 2232, 2238, 2250, 2244
1694, 2232, 3058, 3096, 3078, 3051, 3059, 3097, 3079
1695, 3051, 3059, 3097, 3079, 2233, 3060, 3098, 3080
1696, 3078, 3096, 3099, 2244, 3079, 3097, 3100, 3081
1697, 3079, 3097, 3100, 3081, 3080, 3098, 3101, 2245
1698, 3058, 2238, 3102, 3096, 3059, 3065, 3103, 3097
1699, 3059, 3065, 3103, 3097, 3060, 540, 3104, 3098
1700, 3096, 3102, 2250, 3099, 3097, 3103, 3105, 3100
1701, 3097, 3103, 3105, 3100, 3098, 3104, 2251, 3101
1702, 2243, 2249, 545, 2246, 2244, 2250, 2252, 2247
1703, 2244, 2250, 2252, 2247, 2245, 2251, 546, 2248
1704, 499, 547, 548, 500, 501, 549, 550, 502
1705, 501, 549, 550, 502, 503, 551, 552, 504
1706, 500, 548, 553, 505, 502, 550, 554, 506
1707, 502, 550, 554, 506, 504, 552, 555, 507
1708, 505, 553, 556, 508, 506, 554, 557, 509
1709, 506, 554, 557, 509, 507, 555, 558, 510
1710, 508, 556, 539, 491, 509, 557, 559, 511
1711, 509, 557, 559, 511, 510, 558, 560, 512
1712, 491, 2227, 2230, 2190, 2253, 2257, 2259, 2254
1713, 2253, 2257, 2259, 2254, 511, 2258, 2260, 2255
1714, 2190, 2230, 2233, 492, 2254, 2259, 2261, 2256
1715, 2254, 2259, 2261, 2256, 2255, 2260, 2262, 513
1716, 2227, 539, 2237, 2230, 2257, 2263, 2264, 2259
1717, 2257, 2263, 2264, 2259, 2258, 559, 2265, 2260
1718, 2230, 2237, 540, 2233, 2259, 2264, 2266, 2261
1719, 2259, 2264, 2266, 2261, 2260, 2265, 561, 2262
1720, 511, 559, 561, 513, 512, 560, 562, 514
1721, 492, 2233, 2245, 2214, 2256, 2261, 2270, 2267
1722, 2256, 2261, 2270, 2267, 513, 2262, 2271, 2268
1723, 2214, 2245, 2248, 498, 2267, 2270, 2272, 2269
1724, 2267, 2270, 2272, 2269, 2268, 2271, 2273, 515
1725, 2233, 540, 2251, 2245, 2261, 2266, 2274, 2270
1726, 2261, 2266, 2274, 2270, 2262, 561, 2275, 2271
1727, 2245, 2251, 546, 2248, 2270, 2274, 2276, 2272
1728, 2270, 2274, 2276, 2272, 2271, 2275, 563, 2273
1729, 513, 561, 563, 515, 514, 562, 564, 516
1730, 498, 546, 565, 517, 515, 563, 566, 518
1731, 515, 563, 566, 518, 516, 564, 567, 519
1732, 517, 565, 568, 520, 518, 566, 569, 521
1733, 518, 566, 569, 521, 519, 567, 570, 522
1734, 520, 568, 571, 523, 521, 569, 572, 524
1735, 521, 569, 572, 524, 522, 570, 573, 525
1736, 523, 571, 574, 526, 524, 572, 575, 527
1737, 524, 572, 575, 527, 525, 573, 576, 528
1738, 529, 946, 949, 928, 927, 947, 950, 929
1739, 927, 947, 950, 929, 531, 948, 951, 930
1740, 928, 949, 952, 530, 929, 950, 953, 931
1741, 929, 950, 953, 931, 930, 951, 954, 532
1742, 946, 577, 956, 949, 947, 955, 957, 950
1743, 947, 955, 957, 950, 948, 579, 958, 951
1744, 949, 956, 578, 952, 950, 957, 959, 953
1745, 950, 957, 959, 953, 951, 958, 580, 954
1746, 531, 948, 951, 930, 1219, 1223, 1225, 1220
1747, 1219, 1223, 1225, 1220, 533, 1224, 1226, 1221
1748, 930, 951, 954, 532, 1220, 1225, 1227, 1222
1749, 1220, 1225, 1227, 1222, 1221, 1226, 1228, 534
1750, 948, 579, 958, 951, 1223, 1229, 1230, 1225
1751, 1223, 1229, 1230, 1225, 1224, 581, 1231, 1226
1752, 951, 958, 580, 954, 1225, 1230, 1232, 1227
1753, 1225, 1230, 1232, 1227, 1226, 1231, 582, 1228
1754, 533, 1224, 1226, 1221, 1501, 1505, 1507, 1502
1755, 1501, 1505, 1507, 1502, 535, 1506, 1508, 1503
1756, 1221, 1226, 1228, 534, 1502, 1507, 1509, 1504
1757, 1502, 1507, 1509, 1504, 1503, 1508, 1510, 536
1758, 1224, 581, 1231, 1226, 1505, 1511, 1512, 1507
1759, 1505, 1511, 1512, 1507, 1506, 583, 1513, 1508
1760, 1226, 1231, 582, 1228, 1507, 1512, 1514, 1509
1761, 1507, 1512, 1514, 1509, 1508, 1513, 584, 1510
1762, 535, 1506, 1508, 1503, 2277, 2280, 2282, 2278
1763, 2277, 2280, 2282, 2278, 537, 2281, 2283, 2235
1764, 1503, 1508, 1510, 536, 2278, 2282, 2284, 2279
1765, 2278, 2282, 2284, 2279, 2235, 2283, 2285, 538
1766, 1506, 583, 1513, 1508, 2280, 2286, 2287, 2282
1767, 2280, 2286, 2287, 2282, 2281, 585, 2288, 2283
1768, 1508, 1513, 584, 1510, 2282, 2287, 2289, 2284
1769, 2282, 2287, 2289, 2284, 2283, 2288, 586, 2285
1770, 537, 2281, 2283, 2235, 2234, 2290, 2292, 2236
1771, 2234, 3110, 3113, 3107, 3106, 3111, 3114, 3108
1772, 3106, 3111, 3114, 3108, 539, 3112, 3115, 3109
1773, 3107, 3113, 3116, 2236, 3108, 3114, 3117, 3061
1774, 3108, 3114, 3117, 3061, 3109, 3115, 3118, 2237
1775, 3110, 2290, 3120, 3113, 3111, 3119, 3121, 3114
1776, 3111, 3119, 3121, 3114, 3112, 2291, 3122, 3115
1777, 3113, 3120, 2292, 3116, 3114, 3121, 3123, 3117
1778, 3114, 3121, 3123, 3117, 3115, 3122, 2293, 3118
1779, 2235, 2283, 2285, 538, 2236, 2292, 2294, 2238
1780, 2236, 3116, 3124, 3062, 3061, 3117, 3125, 3063
1781, 3061, 3117, 3125, 3063, 2237, 3118, 3126, 3064
1782, 3062, 3124, 3127, 2238, 3063, 3125, 3128, 3065
1783, 3063, 3125, 3128, 3065, 3064, 3126, 3129, 540
1784, 3116, 2292, 3130, 3124, 3117, 3123, 3131, 3125
1785, 3117, 3123, 3131, 3125, 3118, 2293, 3132, 3126
1786, 3124, 3130, 2294, 3127, 3125, 3131, 3133, 3128
1787, 3125, 3131, 3133, 3128, 3126, 3132, 2295, 3129
1788, 2281, 585, 2288, 2283, 2290, 2296, 2297, 2292
1789, 2290, 2296, 2297, 2292, 2291, 587, 2298, 2293
1790, 2283, 2288, 586, 2285, 2292, 2297, 2299, 2294
1791, 2292, 2297, 2299, 2294, 2293, 2298, 588, 2295
1792, 530, 952, 960, 942, 931, 953, 961, 943
1793, 931, 953, 961, 943, 532, 954, 962, 944
1794, 942, 960, 963, 541, 943, 961, 964, 945
1795, 943, 961, 964, 945, 944, 962, 965, 542
1796, 952, 578, 966, 960, 953, 959, 967, 961
1797, 953, 959, 967, 961, 954, 580, 968, 962
1798, 960, 966, 589, 963, 961, 967, 969, 964
1799, 961, 967, 969, 964, 962, 968, 590, 965
1800, 532, 954, 962, 944, 1222, 1227, 1236, 1233
1801, 1222, 1227, 1236, 1233, 534, 1228, 1237, 1234
1802, 944, 962, 965, 542, 1233, 1236, 1238, 1235
1803, 1233, 1236, 1238, 1235, 1234, 1237, 1239, 543
1804, 954, 580, 968, 962, 1227, 1232, 1240, 1236
1805, 1227, 1232, 1240, 1236, 1228, 582, 1241, 1237
1806, 962, 968, 590, 965, 1236, 1240, 1242, 1238
1807, 1236, 1240, 1242, 1238, 1237, 1241, 591, 1239
1808, 534, 1228, 1237, 1234, 1504, 1509, 1518, 1515
1809, 1504, 1509, 1518, 1515, 536, 1510, 1519, 1516
1810, 1234, 1237, 1239, 543, 1515, 1518, 1520, 1517
1811, 1515, 1518, 1520, 1517, 1516, 1519, 1521, 544
1812, 1228, 582, 1241, 1237, 1509, 1514, 1522, 1518
1813, 1509, 1514, 1522, 1518, 1510, 584, 1523, 1519
1814, 1237, 1241, 591, 1239, 1518, 1522, 1524, 1520
1815, 1518, 1522, 1524, 1520, 1519, 1523, 592, 1521
1816, 536, 1510, 1519, 1516, 2279, 2284, 2302, 2300
1817, 2279, 2284, 2302, 2300, 538, 2285, 2303, 2249
1818, 1516, 1519, 1521, 544, 2300, 2302, 2304, 2301
1819, 2300, 2302, 2304, 2301, 2249, 2303, 2305, 545
1820, 1510, 584, 1523, 1519, 2284, 2289, 2306, 2302
1821, 2284, 2289, 2306, 2302, 2285, 586, 2307, 2303
1822, 1519, 1523, 592, 1521, 2302, 2306, 2308, 2304
1823, 2302, 2306, 2308, 2304, 2303, 2307, 593, 2305
1824, 538, 2285, 2303, 2249, 2238, 2294, 2309, 2250
1825, 2238, 3127, 3134, 3102, 3065, 3128, 3135, 3103
1826, 3065, 3128, 3135, 3103, 540, 3129, 3136, 3104
1827, 3102, 3134, 3137, 2250, 3103, 3135, 3138, 3105
1828, 3103, 3135, 3138, 3105, 3104, 3136, 3139, 2251
1829, 3127, 2294, 3140, 3134, 3128, 3133, 3141, 3135
1830, 3128, 3133, 3141, 3135, 3129, 2295, 3142, 3136
1831, 3134, 3140, 2309, 3137, 3135, 3141, 3143, 3138
1832, 3135, 3141, 3143, 3138, 3136, 3142, 2310, 3139
1833, 2249, 2303, 2305, 545, 2250, 2309, 2311, 2252
1834, 2250, 3137, 3148, 3144, 3105, 3138, 3149, 3145
1835, 3105, 3138, 3149, 3145, 2251, 3139, 3150, 3146
1836, 3144, 3148, 3151, 2252, 3145, 3149, 3152, 3147
1837, 3145, 3149, 3152, 3147, 3146, 3150, 3153, 546
1838, 3137, 2309, 3154, 3148, 3138, 3143, 3155, 3149
1839, 3138, 3143, 3155, 3149, 3139, 2310, 3156, 3150
1840, 3148, 3154, 2311, 3151, 3149, 3155, 3157, 3152
1841, 3149, 3155, 3157, 3152, 3150, 3156, 2312, 3153
1842, 2285, 586, 2307, 2303, 2294, 2299, 2313, 2309
1843, 2294, 2299, 2313, 2309, 2295, 588, 2314, 2310
1844, 2303, 2307, 593, 2305, 2309, 2313, 2315, 2311
1845, 2309, 2313, 2315, 2311, 2310, 2314, 594, 2312
1846, 547, 595, 596, 548, 549, 597, 598, 550
1847, 549, 597, 598, 550, 551, 599, 600, 552
1848, 548, 596, 601, 553, 550, 598, 602, 554
1849, 550, 598, 602, 554, 552, 600, 603, 555
1850, 553, 601, 604, 556, 554, 602, 605, 557
1851, 554, 602, 605, 557, 555, 603, 606, 558
1852, 556, 604, 587, 539, 557, 605, 607, 559
1853, 557, 605, 607, 559, 558, 606, 608, 560
1854, 539, 2291, 2293, 2237, 2263, 2316, 2318, 2264
1855, 2263, 2316, 2318, 2264, 559, 2317, 2319, 2265
1856, 2237, 2293, 2295, 540, 2264, 2318, 2320, 2266
1857, 2264, 2318, 2320, 2266, 2265, 2319, 2321, 561
1858, 2291, 587, 2298, 2293, 2316, 2322, 2323, 2318
1859, 2316, 2322, 2323, 2318, 2317, 607, 2324, 2319
1860, 2293, 2298, 588, 2295, 2318, 2323, 2325, 2320
1861, 2318, 2323, 2325, 2320, 2319, 2324, 609, 2321
1862, 559, 607, 609, 561, 560, 608, 610, 562
1863, 540, 2295, 2310, 2251, 2266, 2320, 2326, 2274
1864, 2266, 2320, 2326, 2274, 561, 2321, 2327, 2275
1865, 2251, 2310, 2312, 546, 2274, 2326, 2328, 2276
1866, 2274, 2326, 2328, 2276, 2275, 2327, 2329, 563
1867, 2295, 588, 2314, 2310, 2320, 2325, 2330, 2326
1868, 2320, 2325, 2330, 2326, 2321, 609, 2331, 2327
1869, 2310, 2314, 594, 2312, 2326, 2330, 2332, 2328
1870, 2326, 2330, 2332, 2328, 2327, 2331, 611, 2329
1871, 561, 609, 611, 563, 562, 610, 612, 564
1872, 546, 594, 613, 565, 563, 611, 614, 566
1873, 563, 611, 614, 566, 564, 612, 615, 567
1874, 565, 613, 616, 568, 566, 614, 617, 569
1875, 566, 614, 617, 569, 567, 615, 618, 570
1876, 568, 616, 619, 571, 569, 617, 620, 572
1877, 569, 617, 620, 572, 570, 618, 621, 573
1878, 571, 619, 622, 574, 572, 620, 623, 575
1879, 572, 620, 623, 575, 573, 621, 624, 576
1880, 577, 970, 973, 956, 955, 971, 974, 957
1881, 955, 971, 974, 957, 579, 972, 975, 958
1882, 956, 973, 976, 578, 957, 974, 977, 959
1883, 957, 974, 977, 959, 958, 975, 978, 580
1884, 970, 625, 980, 973, 971, 979, 981, 974
1885, 971, 979, 981, 974, 972, 627, 982, 975
1886, 973, 980, 626, 976, 974, 981, 983, 977
1887, 974, 981, 983, 977, 975, 982, 628, 978
1888, 579, 972, 975, 958, 1229, 1243, 1245, 1230
1889, 1229, 1243, 1245, 1230, 581, 1244, 1246, 1231
1890, 958, 975, 978, 580, 1230, 1245, 1247, 1232
1891, 1230, 1245, 1247, 1232, 1231, 1246, 1248, 582
1892, 972, 627, 982, 975, 1243, 1249, 1250, 1245
1893, 1243, 1249, 1250, 1245, 1244, 629, 1251, 1246
1894, 975, 982, 628, 978, 1245, 1250, 1252, 1247
1895, 1245, 1250, 1252, 1247, 1246, 1251, 630, 1248
1896, 581, 1244, 1246, 1231, 1511, 1525, 1527, 1512
1897, 1511, 1525, 1527, 1512, 583, 1526, 1528, 1513
1898, 1231, 1246, 1248, 582, 1512, 1527, 1529, 1514
1899, 1512, 1527, 1529, 1514, 1513, 1528, 1530, 584
1900, 1244, 629, 1251, 1246, 1525, 1531, 1532, 1527
1901, 1525, 1531, 1532, 1527, 1526, 631, 1533, 1528
1902, 1246, 1251, 630, 1248, 1527, 1532, 1534, 1529
1903, 1527, 1532, 1534, 1529, 1528, 1533, 632, 1530
1904, 583, 1526, 1528, 1513, 2286, 2333, 2335, 2287
1905, 2286, 2333, 2335, 2287, 585, 2334, 2336, 2288
1906, 1513, 1528, 1530, 584, 2287, 2335, 2337, 2289
1907, 2287, 2335, 2337, 2289, 2288, 2336, 2338, 586
1908, 1526, 631, 1533, 1528, 2333, 2339, 2340, 2335
1909, 2333, 2339, 2340, 2335, 2334, 633, 1553, 2336
1910, 1528, 1533, 632, 1530, 2335, 2340, 2341, 2337
1911, 2335, 2340, 2341, 2337, 2336, 1553, 634, 2338
1912, 585, 2334, 2336, 2288, 2296, 2342, 2344, 2297
1913, 2296, 4170, 4173, 4166, 4165, 4171, 4174, 4167
1914, 4165, 4171, 4174, 4167, 587, 4172, 4175, 4168
1915, 4166, 4173, 4176, 2297, 4167, 4174, 4177, 4169
1916, 4167, 4174, 4177, 4169, 4168, 4175, 4178, 2298
1917, 4170, 2342, 4180, 4173, 4171, 4179, 4181, 4174
1918, 4171, 4179, 4181, 4174, 4172, 2343, 4182, 4175
1919, 4173, 4180, 2344, 4176, 4174, 4181, 4183, 4177
1920, 4174, 4181, 4183, 4177, 4175, 4182, 2345, 4178
1921, 2288, 2336, 2338, 586, 2297, 2344, 2346, 2299
1922, 2297, 4176, 4188, 4184, 4169, 4177, 4189, 4185
1923, 4169, 4177, 4189, 4185, 2298, 4178, 4190, 4186
1924, 4184, 4188, 4191, 2299, 4185, 4189, 4192, 4187
1925, 4185, 4189, 4192, 4187, 4186, 4190, 4193, 588
1926, 4176, 2344, 4194, 4188, 4177, 4183, 4195, 4189
1927, 4177, 4183, 4195, 4189, 4178, 2345, 4196, 4190
1928, 4188, 4194, 2346, 4191, 4189, 4195, 4197, 4192
1929, 4189, 4195, 4197, 4192, 4190, 4196, 2347, 4193
1930, 2334, 633, 1553, 2336, 2342, 1552, 1554, 2344
1931, 2342, 1552, 1554, 2344, 2343, 635, 1555, 2345
1932, 2336, 1553, 634, 2338, 2344, 1554, 1556, 2346
1933, 2344, 4198, 4201, 4194, 4183, 4199, 4202, 4195
1934, 4183, 4199, 4202, 4195, 2345, 4200, 4203, 4196
1935, 4194, 4201, 4204, 2346, 4195, 4202, 4205, 4197
1936, 4195, 4202, 4205, 4197, 4196, 4203, 4206, 2347
1937, 4198, 1554, 4208, 4201, 4199, 4207, 4209, 4202
1938, 4199, 4207, 4209, 4202, 4200, 1555, 4210, 4203
1939, 4201, 4208, 1556, 4204, 4202, 4209, 4211, 4205
1940, 4202, 4209, 4211, 4205, 4203, 4210, 636, 4206
1941, 578, 976, 984, 966, 959, 977, 985, 967
1942, 959, 977, 985, 967, 580, 978, 986, 968
1943, 966, 984, 987, 589, 967, 985, 988, 969
1944, 967, 985, 988, 969, 968, 986, 989, 590
1945, 976, 626, 990, 984, 977, 983, 991, 985
1946, 977, 983, 991, 985, 978, 628, 992, 986
1947, 984, 990, 637, 987, 985, 991, 993, 988
1948, 985, 991, 993, 988, 986, 992, 638, 989
1949, 580, 978, 986, 968, 1232, 1247, 1253, 1240
1950, 1232, 1247, 1253, 1240, 582, 1248, 1254, 1241
1951, 968, 986, 989, 590, 1240, 1253, 1255, 1242
1952, 1240, 1253, 1255, 1242, 1241, 1254, 1256, 591
1953, 978, 628, 992, 986, 1247, 1252, 1257, 1253
1954, 1247, 1252, 1257, 1253, 1248, 630, 1258, 1254
1955, 986, 992, 638, 989, 1253, 1257, 1259, 1255
1956, 1253, 1257, 1259, 1255, 1254, 1258, 639, 1256
1957, 582, 1248, 1254, 1241, 1514, 1529, 1535, 1522
1958, 1514, 1529, 1535, 1522, 584, 1530, 1536, 1523
1959, 1241, 1254, 1256, 591, 1522, 1535, 1537, 1524
1960, 1522, 1535, 1537, 1524, 1523, 1536, 1538, 592
1961, 1248, 630, 1258, 1254, 1529, 1534, 1539, 1535
1962, 1529, 1534, 1539, 1535, 1530, 632, 1540, 1536
1963, 1254, 1258, 639, 1256, 1535, 1539, 1541, 1537
1964, 1535, 1539, 1541, 1537, 1536, 1540, 640, 1538
1965, 584, 1530, 1536, 1523, 2289, 2337, 2348, 2306
1966, 2289, 2337, 2348, 2306, 586, 2338, 2349, 2307
1967, 1523, 1536, 1538, 592, 2306, 2348, 2350, 2308
1968, 2306, 2348, 2350, 2308, 2307, 2349, 2351, 593
1969, 1530, 632, 1540, 1536, 2337, 2341, 2352, 2348
1970, 2337, 2341, 2352, 2348, 2338, 634, 1573, 2349
1971, 1536, 1540, 640, 1538, 2348, 2352, 2353, 2350
1972, 2348, 2352, 2353, 2350, 2349, 1573, 641, 2351
1973, 586, 2338, 2349, 2307, 2299, 2346, 2354, 2313
1974, 2299, 4191, 4216, 4212, 4187, 4192, 4217, 4213
1975, 4187, 4192, 4217, 4213, 588, 4193, 4218, 4214
1976, 4212, 4216, 4219, 2313, 4213, 4217, 4220, 4215
1977, 4213, 4217, 4220, 4215, 4214, 4218, 4221, 2314
1978, 4191, 2346, 4222, 4216, 4192, 4197, 4223, 4217
1979, 4192, 4197, 4223, 4217, 4193, 2347, 4224, 4218
1980, 4216, 4222, 2354, 4219, 4217, 4223, 4225, 4220
1981, 4217, 4223, 4225, 4220, 4218, 4224, 2355, 4221
1982, 2307, 2349, 2351, 593, 2313, 2354, 2356, 2315
1983, 2313, 4219, 4230, 4226, 4215, 4220, 4231, 4227
1984, 4215, 4220, 4231, 4227, 2314, 4221, 4232, 4228
1985, 4226, 4230, 4233, 2315, 4227, 4231, 4234, 4229
1986, 4227, 4231, 4234, 4229, 4228, 4232, 4235, 594
1987, 4219, 2354, 4236, 4230, 4220, 4225, 4237, 4231
1988, 4220, 4225, 4237, 4231, 4221, 2355, 4238, 4232
1989, 4230, 4236, 2356, 4233, 4231, 4237, 4239, 4234
1990, 4231, 4237, 4239, 4234, 4232, 4238, 2357, 4235
1991, 2338, 634, 1573, 2349, 2346, 1556, 1574, 2354
1992, 2346, 4204, 4240, 4222, 4197, 4205, 4241, 4223
1993, 4197, 4205, 4241, 4223, 2347, 4206, 4242, 4224
1994, 4222, 4240, 4243, 2354, 4223, 4241, 4244, 4225
1995, 4223, 4241, 4244, 4225, 4224, 4242, 4245, 2355
1996, 4204, 1556, 4246, 4240, 4205, 4211, 4247, 4241
1997, 4205, 4211, 4247, 4241, 4206, 636, 4248, 4242
1998, 4240, 4246, 1574, 4243, 4241, 4247, 4249, 4244
1999, 4241, 4247, 4249, 4244, 4242, 4248, 1575, 4245
2000, 2349, 1573, 641, 2351, 2354, 1574, 1576, 2356
2001, 2354, 1574, 1576, 2356, 2355, 1575, 642, 2357
2002, 595, 643, 644, 596, 597, 645, 646, 598
2003, 597, 645, 646, 598, 599, 647, 648, 600
2004, 596, 644, 649, 601, 598, 646, 650, 602
2005, 598, 646, 650, 602, 600, 648, 651, 603
2006, 601, 649, 652, 604, 602, 650, 653, 605
2007, 602, 650, 653, 605, 603, 651, 654, 606
2008, 604, 652, 635, 587, 605, 653, 655, 607
2009, 605, 653, 655, 607, 606, 654, 656, 608
2010, 587, 2343, 2345, 2298, 2322, 2358, 2360, 2323
2011, 2322, 2358, 2360, 2323, 607, 2359, 2361, 2324
2012, 2298, 2345, 2347, 588, 2323, 2360, 2362, 2325
2013, 2323, 2360, 2362, 2325, 2324, 2361, 2363, 609
2014, 2343, 635, 1555, 2345, 2358, 2364, 2365, 2360
2015, 2358, 2364, 2365, 2360, 2359, 655, 2366, 2361
2016, 2345, 1555, 636, 2347, 2360, 2365, 2367, 2362
2017, 2360, 2365, 2367, 2362, 2361, 2366, 657, 2363
2018, 607, 655, 657, 609, 608, 656, 658, 610
2019, 588, 2347, 2355, 2314, 2325, 2362, 2368, 2330
2020, 2325, 2362, 2368, 2330, 609, 2363, 2369, 2331
2021, 2314, 2355, 2357, 594, 2330, 2368, 2370, 2332
2022, 2330, 2368, 2370, 2332, 2331, 2369, 2371, 611
2023, 2347, 636, 1575, 2355, 2362, 2367, 2372, 2368
2024, 2362, 2367, 2372, 2368, 2363, 657, 2373, 2369
2025, 2355, 1575, 642, 2357, 2368, 2372, 2374, 2370
2026, 2368, 2372, 2374, 2370, 2369, 2373, 659, 2371
2027, 609, 657, 659, 611, 610, 658, 660, 612
2028, 594, 642, 661, 613, 611, 659, 662, 614
2029, 611, 659, 662, 614, 612, 660, 663, 615
2030, 613, 661, 664, 616, 614, 662, 665, 617
2031, 614, 662, 665, 617, 615, 663, 666, 618
2032, 616, 664, 667, 619, 617, 665, 668, 620
2033, 617, 665, 668, 620, 618, 666, 669, 621
2034, 619, 667, 670, 622, 620, 668, 671, 623
2035, 620, 668, 671, 623, 621, 669, 672, 624
2036, 625, 994, 997, 980, 979, 995, 998, 981
2037, 979, 995, 998, 981, 627, 996, 999, 982
2038, 980, 4255, 4258, 4251, 4250, 4256, 4259, 4252
2039, 4250, 4256, 4259, 4252, 981, 4257, 4260, 4253
2040, 4251, 4258, 4261, 626, 4252, 4259, 4262, 4254
2041, 4252, 4259, 4262, 4254, 4253, 4260, 4263, 983
2042, 4255, 997, 4265, 4258, 4256, 4264, 4266, 4259
2043, 4256, 4264, 4266, 4259, 4257, 998, 4267, 4260
2044, 4258, 4265, 1000, 4261, 4259, 4266, 4268, 4262
2045, 4259, 4266, 4268, 4262, 4260, 4267, 1001, 4263
2046, 981, 998, 1001, 983, 982, 999, 1002, 628
2047, 994, 4273, 4276, 4270, 4269, 4274, 4277, 4271
2048, 4269, 4274, 4277, 4271, 995, 4275, 4278, 4272
2049, 4270, 4276, 4279, 997, 4271, 4277, 4280, 4264
2050, 4271, 4277, 4280, 4264, 4272, 4278, 4281, 998
2051, 4273, 673, 4283, 4276, 4274, 4282, 4284, 4277
2052, 4274, 4282, 4284, 4277, 4275, 1003, 4285, 4278
2053, 4276, 4283, 1004, 4279, 4277, 4284, 4286, 4280
2054, 4277, 4284, 4286, 4280, 4278, 4285, 1005, 4281
2055, 995, 1003, 1005, 998, 996, 675, 1006, 999
2056, 997, 4279, 4287, 4265, 4264, 4280, 4288, 4266
2057, 4264, 4280, 4288, 4266, 998, 4281, 4289, 4267
2058, 4265, 4287, 4290, 1000, 4266, 4288, 4291, 4268
2059, 4266, 4288, 4291, 4268, 4267, 4289, 4292, 1001
2060, 4279, 1004, 4293, 4287, 4280, 4286, 4294, 4288
2061, 4280, 4286, 4294, 4288, 4281, 1005, 4295, 4289
2062, 4287, 4293, 674, 4290, 4288, 4294, 4296, 4291
2063, 4288, 4294, 4296, 4291, 4289, 4295, 1007, 4292
2064, 998, 1005, 1007, 1001, 999, 1006, 676, 1002
2065, 627, 996, 999, 982, 1249, 1260, 1262, 1250
2066, 1249, 1260, 1262, 1250, 629, 1261, 1263, 1251
2067, 982, 999, 1002, 628, 1250, 1262, 1264, 1252
2068, 1250, 1262, 1264, 1252, 1251, 1263, 1265, 630
2069, 996, 675, 1006, 999, 1260, 1266, 1267, 1262
2070, 1260, 1266, 1267, 1262, 1261, 677, 1268, 1263
2071, 999, 1006, 676, 1002, 1262, 1267, 1269, 1264
2072, 1262, 1267, 1269, 1264, 1263, 1268, 678, 1265
2073, 629, 1261, 1263, 1251, 1531, 1542, 1544, 1532
2074, 1531, 1542, 1544, 1532, 631, 1543, 1545, 1533
2075, 1251, 1263, 1265, 630, 1532, 1544, 1546, 1534
2076, 1532, 1544, 1546, 1534, 1533, 1545, 1547, 632
2077, 1261, 677, 1268, 1263, 1542, 1548, 1549, 1544
2078, 1542, 1548, 1549, 1544, 1543, 679, 1550, 1545
2079, 1263, 1268, 678, 1265, 1544, 1549, 1551, 1546
2080, 1544, 1549, 1551, 1546, 1545, 1550, 680, 1547
2081, 631, 1543, 1545, 1533, 2339, 2375, 2376, 2340
2082, 2339, 2375, 2376, 2340, 633, 1557, 1560, 1553
2083, 1533, 1545, 1547, 632, 2340, 2376, 2377, 2341
2084, 2340, 2376, 2377, 2341, 1553, 1560, 1563, 634
2085, 1543, 679, 1550, 1545, 2375, 1593, 1594, 2376
2086, 2375, 1593, 1594, 2376, 1557, 681, 1288, 1560
2087, 1545, 1550, 680, 1547, 2376, 1594, 1595, 2377
2088, 2376, 1594, 1595, 2377, 1560, 1288, 682, 1563
2089, 633, 1557, 1560, 1553, 1552, 1558, 1561, 1554
2090, 1552, 4301, 4304, 4298, 4297, 4302, 4305, 4299
2091, 4297, 4302, 4305, 4299, 635, 4303, 4306, 4300
2092, 4298, 4304, 4307, 1554, 4299, 4305, 4308, 4207
2093, 4299, 4305, 4308, 4207, 4300, 4306, 4309, 1555
2094, 4301, 1558, 4311, 4304, 4302, 4310, 4312, 4305
2095, 4302, 4310, 4312, 4305, 4303, 1559, 4313, 4306
2096, 4304, 4311, 1561, 4307, 4305, 4312, 4314, 4308
2097, 4305, 4312, 4314, 4308, 4306, 4313, 1562, 4309
2098, 1553, 1560, 1563, 634, 1554, 1561, 1564, 1556
2099, 1554, 1561, 1564, 1556, 1555, 1562, 1565, 636
2100, 1557, 681, 1288, 1560, 1558, 1287, 1289, 1561
2101, 1558, 1287, 1289, 1561, 1559, 683, 1290, 1562
2102, 1560, 1288, 682, 1563, 1561, 1289, 1291, 1564
2103, 1561, 4319, 4322, 4315, 4314, 4320, 4323, 4316
2104, 4314, 4320, 4323, 4316, 1562, 4321, 4324, 4317
2105, 4315, 4322, 4325, 1564, 4316, 4323, 4326, 4318
2106, 4316, 4323, 4326, 4318, 4317, 4324, 4327, 1565
2107, 4319, 1289, 4329, 4322, 4320, 4328, 4330, 4323
2108, 4320, 4328, 4330, 4323, 4321, 1290, 4331, 4324
2109, 4322, 4329, 1291, 4325, 4323, 4330, 4332, 4326
2110, 4323, 4330, 4332, 4326, 4324, 4331, 684, 4327
2111, 626, 4261, 4337, 4333, 4254, 4262, 4338, 4334
2112, 4254, 4262, 4338, 4334, 983, 4263, 4339, 4335
2113, 4333, 4337, 4340, 990, 4334, 4338, 4341, 4336
2114, 4334, 4338, 4341, 4336, 4335, 4339, 4342, 991
2115, 4261, 1000, 4343, 4337, 4262, 4268, 4344, 4338
2116, 4262, 4268, 4344, 4338, 4263, 1001, 4345, 4339
2117, 4337, 4343, 1008, 4340, 4338, 4344, 4346, 4341
2118, 4338, 4344, 4346, 4341, 4339, 4345, 1009, 4342
2119, 983, 1001, 1009, 991, 628, 1002, 1010, 992
2120, 990, 4340, 4351, 4347, 4336, 4341, 4352, 4348
2121, 4336, 4341, 4352, 4348, 991, 4342, 4353, 4349
2122, 4347, 4351, 4354, 637, 4348, 4352, 4355, 4350
2123, 4348, 4352, 4355, 4350, 4349, 4353, 4356, 993
2124, 4340, 1008, 4357, 4351, 4341, 4346, 4358, 4352
2125, 4341, 4346, 4358, 4352, 4342, 1009, 4359, 4353
2126, 4351, 4357, 1011, 4354, 4352, 4358, 4360, 4355
2127, 4352, 4358, 4360, 4355, 4353, 4359, 1012, 4356
2128, 991, 1009, 1012, 993, 992, 1010, 1013, 638
2129, 1000, 4290, 4361, 4343, 4268, 4291, 4362, 4344
2130, 4268, 4291, 4362, 4344, 1001, 4292, 4363, 4345
2131, 4343, 4361, 4364, 1008, 4344, 4362, 4365, 4346
2132, 4344, 4362, 4365, 4346, 4345, 4363, 4366, 1009
2133, 4290, 674, 4367, 4361, 4291, 4296, 4368, 4362
2134, 4291, 4296, 4368, 4362, 4292, 1007, 4369, 4363
2135, 4361, 4367, 1014, 4364, 4362, 4368, 4370, 4365
2136, 4362, 4368, 4370, 4365, 4363, 4369, 1015, 4366
2137, 1001, 1007, 1015, 1009, 1002, 676, 1016, 1010
2138, 1008, 4364, 4371, 4357, 4346, 4365, 4372, 4358
2139, 4346, 4365, 4372, 4358, 1009, 4366, 4373, 4359
2140, 4357, 4371, 4374, 1011, 4358, 4372, 4375, 4360
2141, 4358, 4372, 4375, 4360, 4359, 4373, 4376, 1012
2142, 4364, 1014, 4377, 4371, 4365, 4370, 4378, 4372
2143, 4365, 4370, 4378, 4372, 4366, 1015, 4379, 4373
2144, 4371, 4377, 685, 4374, 4372, 4378, 4380, 4375
2145, 4372, 4378, 4380, 4375, 4373, 4379, 1017, 4376
2146, 1009, 1015, 1017, 1012, 1010, 1016, 686, 1013
2147, 628, 1002, 1010, 992, 1252, 1264, 1270, 1257
2148, 1252, 1264, 1270, 1257, 630, 1265, 1271, 1258
2149, 992, 1010, 1013, 638, 1257, 1270, 1272, 1259
2150, 1257, 1270, 1272, 1259, 1258, 1271, 1273, 639
2151, 1002, 676, 1016, 1010, 1264, 1269, 1274, 1270
2152, 1264, 1269, 1274, 1270, 1265, 678, 1275, 1271
2153, 1010, 1016, 686, 1013, 1270, 1274, 1276, 1272
2154, 1270, 1274, 1276, 1272, 1271, 1275, 687, 1273
2155, 630, 1265, 1271, 1258, 1534, 1546, 1566, 1539
2156, 1534, 1546, 1566, 1539, 632, 1547, 1567, 1540
2157, 1258, 1271, 1273, 639, 1539, 1566, 1568, 1541
2158, 1539, 1566, 1568, 1541, 1540, 1567, 1569, 640
2159, 1265, 678, 1275, 1271, 1546, 1551, 1570, 1566
2160, 1546, 1551, 1570, 1566, 1547, 680, 1571, 1567
2161, 1271, 1275, 687, 1273, 1566, 1570, 1572, 1568
2162, 1566, 1570, 1572, 1568, 1567, 1571, 688, 1569
2163, 632, 1547, 1567, 1540, 2341, 2377, 2378, 2352
2164, 2341, 2377, 2378, 2352, 634, 1563, 1577, 1573
2165, 1540, 1567, 1569, 640, 2352, 2378, 2379, 2353
2166, 2352, 2378, 2379, 2353, 1573, 1577, 1580, 641
2167, 1547, 680, 1571, 1567, 2377, 1595, 1609, 2378
2168, 2377, 1595, 1609, 2378, 1563, 682, 1313, 1577
2169, 1567, 1571, 688, 1569, 2378, 1609, 1610, 2379
2170, 2378, 1609, 1610, 2379, 1577, 1313, 689, 1580
2171, 634, 1563, 1577, 1573, 1556, 1564, 1578, 1574
2172, 1556, 1564, 1578, 1574, 636, 1565, 1579, 1575
2173, 1573, 1577, 1580, 641, 1574, 1578, 1581, 1576
2174, 1574, 4385, 4388, 4381, 4249, 4386, 4389, 4382
2175, 4249, 4386, 4389, 4382, 1575, 4387, 4390, 4383
2176, 4381, 4388, 4391, 1576, 4382, 4389, 4392, 4384
2177, 4382, 4389, 4392, 4384, 4383, 4390, 4393, 642
2178, 4385, 1578, 4395, 4388, 4386, 4394, 4396, 4389
2179, 4386, 4394, 4396, 4389, 4387, 1579, 4397, 4390
2180, 4388, 4395, 1581, 4391, 4389, 4396, 4398, 4392
2181, 4389, 4396, 4398, 4392, 4390, 4397, 1582, 4393
2182, 1563, 682, 1313, 1577, 1564, 1291, 1314, 1578
2183, 1564, 4325, 4402, 4399, 4318, 4326, 4403, 4400
2184, 4318, 4326, 4403, 4400, 1565, 4327, 4404, 4401
2185, 4399, 4402, 4405, 1578, 4400, 4403, 4406, 4394
2186, 4400, 4403, 4406, 4394, 4401, 4404, 4407, 1579
2187, 4325, 1291, 4408, 4402, 4326, 4332, 4409, 4403
2188, 4326, 4332, 4409, 4403, 4327, 684, 4410, 4404
2189, 4402, 4408, 1314, 4405, 4403, 4409, 4411, 4406
2190, 4403, 4409, 4411, 4406, 4404, 4410, 1315, 4407
2191, 1577, 1313, 689, 1580, 1578, 1314, 1316, 1581
2192, 1578, 1314, 1316, 1581, 1579, 1315, 690, 1582
2193, 643, 691, 692, 644, 645, 693, 694, 646
2194, 645, 693, 694, 646, 647, 695, 696, 648
2195, 644, 692, 697, 649, 646, 694, 698, 650
2196, 646, 694, 698, 650, 648, 696, 699, 651
2197, 649, 697, 700, 652, 650, 698, 701, 653
2198, 650, 698, 701, 653, 651, 699, 702, 654
2199, 652, 700, 683, 635, 653, 701, 703, 655
2200, 653, 701, 703, 655, 654, 702, 704, 656
2201, 635, 1559, 1562, 1555, 2364, 3158, 3160, 2365
2202, 2364, 3158, 3160, 2365, 655, 3159, 3161, 2366
2203, 1555, 1562, 1565, 636, 2365, 3160, 3162, 2367
2204, 2365, 3160, 3162, 2367, 2366, 3161, 3163, 657
2205, 1559, 683, 1290, 1562, 3158, 2380, 2381, 3160
2206, 3158, 2380, 2381, 3160, 3159, 703, 2382, 3161
2207, 1562, 1290, 684, 1565, 3160, 2381, 2383, 3162
2208, 3160, 2381, 2383, 3162, 3161, 2382, 705, 3163
2209, 655, 703, 705, 657, 656, 704, 706, 658
2210, 636, 1565, 1579, 1575, 2367, 3162, 3164, 2372
2211, 2367, 3162, 3164, 2372, 657, 3163, 3165, 2373
2212, 1575, 1579, 1582, 642, 2372, 3164, 3166, 2374
2213, 2372, 3164, 3166, 2374, 2373, 3165, 3167, 659
2214, 1565, 684, 1315, 1579, 3162, 2383, 2394, 3164
2215, 3162, 2383, 2394, 3164, 3163, 705, 2395, 3165
2216, 1579, 1315, 690, 1582, 3164, 2394, 2396, 3166
2217, 3164, 2394, 2396, 3166, 3165, 2395, 707, 3167
2218, 657, 705, 707, 659, 658, 706, 708, 660
2219, 642, 690, 709, 661, 659, 707, 710, 662
2220, 659, 707, 710, 662, 660, 708, 711, 663
2221, 661, 709, 712, 664, 662, 710, 713, 665
2222, 662, 710, 713, 665, 663, 711, 714, 666
2223, 664, 712, 715, 667, 665, 713, 716, 668
2224, 665, 713, 716, 668, 666, 714, 717, 669
2225, 667, 715, 718, 670, 668, 716, 719, 671
2226, 668, 716, 719, 671, 669, 717, 720, 672
2227, 673, 4412, 4415, 4283, 4282, 4413, 4416, 4284
2228, 4282, 4413, 4416, 4284, 1003, 4414, 4417, 4285
2229, 4283, 4415, 4418, 1004, 4284, 4416, 4419, 4286
2230, 4284, 4416, 4419, 4286, 4285, 4417, 4420, 1005
2231, 4412, 1018, 4422, 4415, 4413, 4421, 4423, 4416
2232, 4413, 4421, 4423, 4416, 4414, 1019, 4424, 4417
2233, 4415, 4422, 1021, 4418, 4416, 4423, 4425, 4419
2234, 4416, 4423, 4425, 4419, 4417, 4424, 1022, 4420
2235, 1003, 1019, 1022, 1005, 675, 1020, 1023, 1006
2236, 1004, 4418, 4426, 4293, 4286, 4419, 4427, 4294
2237, 4286, 4419, 4427, 4294, 1005, 4420, 4428, 4295
2238, 4293, 4426, 4429, 674, 4294, 4427, 4430, 4296
2239, 4294, 4427, 4430, 4296, 4295, 4428, 4431, 1007
2240, 4418, 1021, 4432, 4426, 4419, 4425, 4433, 4427
2241, 4419, 4425, 4433, 4427, 4420, 1022, 4434, 4428
2242, 4426, 4432, 1024, 4429, 4427, 4433, 4435, 4430
2243, 4427, 4433, 4435, 4430, 4428, 4434, 1025, 4431
2244, 1005, 1022, 1025, 1007, 1006, 1023, 1026, 676
2245, 1018, 4436, 4439, 4422, 4421, 4437, 4440, 4423
2246, 4421, 4437, 4440, 4423, 1019, 4438, 4441, 4424
2247, 4422, 4439, 4442, 1021, 4423, 4440, 4443, 4425
2248, 4423, 4440, 4443, 4425, 4424, 4441, 4444, 1022
2249, 4436, 721, 4446, 4439, 4437, 4445, 4447, 4440
2250, 4437, 4445, 4447, 4440, 4438, 1027, 4448, 4441
2251, 4439, 4446, 1028, 4442, 4440, 4447, 4449, 4443
2252, 4440, 4447, 4449, 4443, 4441, 4448, 1029, 4444
2253, 1019, 1027, 1029, 1022, 1020, 723, 1030, 1023
2254, 1021, 4442, 4450, 4432, 4425, 4443, 4451, 4433
2255, 4425, 4443, 4451, 4433, 1022, 4444, 4452, 4434
2256, 4432, 4450, 4453, 1024, 4433, 4451, 4454, 4435
2257, 4433, 4451, 4454, 4435, 4434, 4452, 4455, 1025
2258, 4442, 1028, 4456, 4450, 4443, 4449, 4457, 4451
2259, 4443, 4449, 4457, 4451, 4444, 1029, 4458, 4452
2260, 4450, 4456, 722, 4453, 4451, 4457, 4459, 4454
2261, 4451, 4457, 4459, 4454, 4452, 4458, 1031, 4455
2262, 1022, 1029, 1031, 1025, 1023, 1030, 724, 1026
2263, 675, 1020, 1023, 1006, 1266, 1277, 1279, 1267
2264, 1266, 1277, 1279, 1267, 677, 1278, 1280, 1268
2265, 1006, 1023, 1026, 676, 1267, 1279, 1281, 1269
2266, 1267, 1279, 1281, 1269, 1268, 1280, 1282, 678
2267, 1020, 723, 1030, 1023, 1277, 1283, 1284, 1279
2268, 1277, 1283, 1284, 1279, 1278, 725, 1285, 1280
2269, 1023, 1030, 724, 1026, 1279, 1284, 1286, 1281
2270, 1279, 1284, 1286, 1281, 1280, 1285, 726, 1282
2271, 677, 1278, 1280, 1268, 1548, 1583, 1585, 1549
2272, 1548, 1583, 1585, 1549, 679, 1584, 1586, 1550
2273, 1268, 1280, 1282, 678, 1549, 1585, 1587, 1551
2274, 1549, 1585, 1587, 1551, 1550, 1586, 1588, 680
2275, 1278, 725, 1285, 1280, 1583, 1589, 1590, 1585
2276, 1583, 1589, 1590, 1585, 1584, 727, 1591, 1586
2277, 1280, 1285, 726, 1282, 1585, 1590, 1592, 1587
2278, 1585, 1590, 1592, 1587, 1586, 1591, 728, 1588
2279, 679, 1584, 1586, 1550, 1593, 1596, 1597, 1594
2280, 1593, 1596, 1597, 1594, 681, 1292, 1295, 1288
2281, 1550, 1586, 1588, 680, 1594, 1597, 1598, 1595
2282, 1594, 1597, 1598, 1595, 1288, 1295, 1298, 682
2283, 1584, 727, 1591, 1586, 1596, 1599, 1600, 1597
2284, 1596, 1599, 1600, 1597, 1292, 729, 1302, 1295
2285, 1586, 1591, 728, 1588, 1597, 1600, 1601, 1598
2286, 1597, 1600, 1601, 1598, 1295, 1302, 730, 1298
2287, 681, 1292, 1295, 1288, 1287, 1293, 1296, 1289
2288, 1287, 4464, 4467, 4461, 4460, 4465, 4468, 4462
2289, 4460, 4465, 4468, 4462, 683, 4466, 4469, 4463
2290, 4461, 4467, 4470, 1289, 4462, 4468, 4471, 4328
2291, 4462, 4468, 4471, 4328, 4463, 4469, 4472, 1290
2292, 4464, 1293, 4474, 4467, 4465, 4473, 4475, 4468
2293, 4465, 4473, 4475, 4468, 4466, 1294, 4476, 4469
2294, 4467, 4474, 1296, 4470, 4468, 4475, 4477, 4471
2295, 4468, 4475, 4477, 4471, 4469, 4476, 1297, 4472
2296, 1288, 1295, 1298, 682, 1289, 1296, 1299, 1291
2297, 1289, 1296, 1299, 1291, 1290, 1297, 1300, 684
2298, 1292, 729, 1302, 1295, 1293, 1301, 1303, 1296
2299, 1293, 1301, 1303, 1296, 1294, 731, 1304, 1297
2300, 1295, 1302, 730, 1298, 1296, 1303, 1305, 1299
2301, 1296, 1303, 1305, 1299, 1297, 1304, 732, 1300
2302, 674, 4429, 4478, 4367, 4296, 4430, 4479, 4368
2303, 4296, 4430, 4479, 4368, 1007, 4431, 4480, 4369
2304, 4367, 4478, 4481, 1014, 4368, 4479, 4482, 4370
2305, 4368, 4479, 4482, 4370, 4369, 4480, 4483, 1015
2306, 4429, 1024, 4484, 4478, 4430, 4435, 4485, 4479
2307, 4430, 4435, 4485, 4479, 4431, 1025, 4486, 4480
2308, 4478, 4484, 1032, 4481, 4479, 4485, 4487, 4482
2309, 4479, 4485, 4487, 4482, 4480, 4486, 1033, 4483
2310, 1007, 1025, 1033, 1015, 676, 1026, 1034, 1016
2311, 1014, 4481, 4488, 4377, 4370, 4482, 4489, 4378
2312, 4370, 4482, 4489, 4378, 1015, 4483, 4490, 4379
2313, 4377, 4488, 4491, 685, 4378, 4489, 4492, 4380
2314, 4378, 4489, 4492, 4380, 4379, 4490, 4493, 1017
2315, 4481, 1032, 4494, 4488, 4482, 4487, 4495, 4489
2316, 4482, 4487, 4495, 4489, 4483, 1033, 4496, 4490
2317, 4488, 4494, 1035, 4491, 4489, 4495, 4497, 4492
2318, 4489, 4495, 4497, 4492, 4490, 4496, 1036, 4493
2319, 1015, 1033, 1036, 1017, 1016, 1034, 1037, 686
2320, 1024, 4453, 4498, 4484, 4435, 4454, 4499, 4485
2321, 4435, 4454, 4499, 4485, 1025, 4455, 4500, 4486
2322, 4484, 4498, 4501, 1032, 4485, 4499, 4502, 4487
2323, 4485, 4499, 4502, 4487, 4486, 4500, 4503, 1033
2324, 4453, 722, 4504, 4498, 4454, 4459, 4505, 4499
2325, 4454, 4459, 4505, 4499, 4455, 1031, 4506, 4500
2326, 4498, 4504, 1038, 4501, 4499, 4505, 3168, 4502
2327, 4499, 4505, 3168, 4502, 4500, 4506, 1039, 4503
2328, 1025, 1031, 1039, 1033, 1026, 724, 1040, 1034
2329, 1032, 4501, 4507, 4494, 4487, 4502, 4508, 4495
2330, 4487, 4502, 4508, 4495, 1033, 4503, 4509, 4496
2331, 4494, 4507, 4510, 1035, 4495, 4508, 4511, 4497
2332, 4495, 4508, 4511, 4497, 4496, 4509, 4512, 1036
2333, 4501, 1038, 3169, 4507, 4502, 3168, 3170, 4508
2334, 4502, 3168, 3170, 4508, 4503, 1039, 3171, 4509
2335, 4507, 3169, 733, 4510, 4508, 3170, 3172, 4511
2336, 4508, 3170, 3172, 4511, 4509, 3171, 1041, 4512
2337, 1033, 1039, 1041, 1036, 1034, 1040, 734, 1037
2338, 676, 1026, 1034, 1016, 1269, 1281, 1306, 1274
2339, 1269, 1281, 1306, 1274, 678, 1282, 1307, 1275
2340, 1016, 1034, 1037, 686, 1274, 1306, 1308, 1276
2341, 1274, 1306, 1308, 1276, 1275, 1307, 1309, 687
2342, 1026, 724, 1040, 1034, 1281, 1286, 1310, 1306
2343, 1281, 1286, 1310, 1306, 1282, 726, 1311, 1307
2344, 1034, 1040, 734, 1037, 1306, 1310, 1312, 1308
2345, 1306, 1310, 1312, 1308, 1307, 1311, 735, 1309
2346, 678, 1282, 1307, 1275, 1551, 1587, 1602, 1570
2347, 1551, 1587, 1602, 1570, 680, 1588, 1603, 1571
2348, 1275, 1307, 1309, 687, 1570, 1602, 1604, 1572
2349, 1570, 1602, 1604, 1572, 1571, 1603, 1605, 688
2350, 1282, 726, 1311, 1307, 1587, 1592, 1606, 1602
2351, 1587, 1592, 1606, 1602, 1588, 728, 1607, 1603
2352, 1307, 1311, 735, 1309, 1602, 1606, 1608, 1604
2353, 1602, 1606, 1608, 1604, 1603, 1607, 736, 1605
2354, 680, 1588, 1603, 1571, 1595, 1598, 1611, 1609
2355, 1595, 1598, 1611, 1609, 682, 1298, 1317, 1313
2356, 1571, 1603, 1605, 688, 1609, 1611, 1612, 1610
2357, 1609, 1611, 1612, 1610, 1313, 1317, 1320, 689
2358, 1588, 728, 1607, 1603, 1598, 1601, 1613, 1611
2359, 1598, 1601, 1613, 1611, 1298, 730, 1323, 1317
2360, 1603, 1607, 736, 1605, 1611, 1613, 1614, 1612
2361, 1611, 1613, 1614, 1612, 1317, 1323, 737, 1320
2362, 682, 1298, 1317, 1313, 1291, 1299, 1318, 1314
2363, 1291, 1299, 1318, 1314, 684, 1300, 1319, 1315
2364, 1313, 1317, 1320, 689, 1314, 1318, 1321, 1316
2365, 1314, 4517, 4520, 4513, 4411, 4518, 4521, 4514
2366, 4411, 4518, 4521, 4514, 1315, 4519, 4522, 4515
2367, 4513, 4520, 4523, 1316, 4514, 4521, 4524, 4516
2368, 4514, 4521, 4524, 4516, 4515, 4522, 4525, 690
2369, 4517, 1318, 4527, 4520, 4518, 4526, 4528, 4521
2370, 4518, 4526, 4528, 4521, 4519, 1319, 4529, 4522
2371, 4520, 4527, 1321, 4523, 4521, 4528, 4530, 4524
2372, 4521, 4528, 4530, 4524, 4522, 4529, 1322, 4525
2373, 1298, 730, 1323, 1317, 1299, 1305, 1324, 1318
2374, 1299, 1305, 1324, 1318, 1300, 732, 1325, 1319
2375, 1317, 1323, 737, 1320, 1318, 1324, 1326, 1321
2376, 1318, 1324, 1326, 1321, 1319, 1325, 738, 1322
2377, 691, 739, 740, 692, 693, 741, 742, 694
2378, 693, 741, 742, 694, 695, 743, 744, 696
2379, 692, 740, 745, 697, 694, 742, 746, 698
2380, 694, 742, 746, 698, 696, 744, 747, 699
2381, 697, 745, 748, 700, 698, 746, 749, 701
2382, 698, 746, 749, 701, 699, 747, 750, 702
2383, 700, 748, 731, 683, 701, 749, 751, 703
2384, 701, 749, 751, 703, 702, 750, 752, 704
2385, 683, 1294, 1297, 1290, 2380, 2384, 2386, 2381
2386, 2380, 2384, 2386, 2381, 703, 2385, 2387, 2382
2387, 1290, 1297, 1300, 684, 2381, 2386, 2388, 2383
2388, 2381, 2386, 2388, 2383, 2382, 2387, 2389, 705
2389, 1294, 731, 1304, 1297, 2384, 2390, 2391, 2386
2390, 2384, 2390, 2391, 2386, 2385, 751, 2392, 2387
2391, 1297, 1304, 732, 1300, 2386, 2391, 2393, 2388
2392, 2386, 2391, 2393, 2388, 2387, 2392, 753, 2389
2393, 703, 751, 753, 705, 704, 752, 754, 706
2394, 684, 1300, 1319, 1315, 2383, 2388, 2397, 2394
2395, 2383, 2388, 2397, 2394, 705, 2389, 2398, 2395
2396, 1315, 1319, 1322, 690, 2394, 2397, 2399, 2396
2397, 2394, 2397, 2399, 2396, 2395, 2398, 2400, 707
2398, 1300, 732, 1325, 1319, 2388, 2393, 2401, 2397
2399, 2388, 2393, 2401, 2397, 2389, 753, 2402, 2398
2400, 1319, 1325, 738, 1322, 2397, 2401, 2403, 2399
2401, 2397, 2401, 2403, 2399, 2398, 2402, 755, 2400
2402, 705, 753, 755, 707, 706, 754, 756, 708
2403, 690, 738, 757, 709, 707, 755, 758, 710
2404, 707, 755, 758, 710, 708, 756, 759, 711
2405, 709, 757, 760, 712, 710, 758, 761, 713
2406, 710, 758, 761, 713, 711, 759, 762, 714
2407, 712, 760, 763, 715, 713, 761, 764, 716
2408, 713, 761, 764, 716, 714, 762, 765, 717
2409, 715, 763, 766, 718, 716, 764, 767, 719
2410, 716, 764, 767, 719, 717, 765, 768, 720
2411, 721, 4531, 4534, 4446, 4445, 4532, 4535, 4447
2412, 4445, 4532, 4535, 4447, 1027, 4533, 4536, 4448
2413, 4446, 4534, 4537, 1028, 4447, 4535, 4538, 4449
2414, 4447, 4535, 4538, 4449, 4448, 4536, 4539, 1029
2415, 4531, 1042, 4541, 4534, 4532, 4540, 4542, 4535
2416, 4532, 4540, 4542, 4535, 4533, 1043, 4543, 4536
2417, 4534, 4541, 1045, 4537, 4535, 4542, 4544, 4538
2418, 4535, 4542, 4544, 4538, 4536, 4543, 1046, 4539
2419, 1027, 1043, 1046, 1029, 723, 1044, 1047, 1030
2420, 1028, 4537, 4545, 4456, 4449, 4538, 4546, 4457
2421, 4449, 4538, 4546, 4457, 1029, 4539, 4547, 4458
2422, 4456, 4545, 4548, 722, 4457, 4546, 4549, 4459
2423, 4457, 4546, 4549, 4459, 4458, 4547, 4550, 1031
2424, 4537, 1045, 4551, 4545, 4538, 4544, 4552, 4546
2425, 4538, 4544, 4552, 4546, 4539, 1046, 4553, 4547
2426, 4545, 4551, 1048, 4548, 4546, 4552, 4554, 4549
2427, 4546, 4552, 4554, 4549, 4547, 4553, 1049, 4550
2428, 1029, 1046, 1049, 1031, 1030, 1047, 1050, 724
2429, 1042, 4555, 4558, 4541, 4540, 4556, 4559, 4542
2430, 4540, 4556, 4559, 4542, 1043, 4557, 4560, 4543
2431, 4541, 4558, 4561, 1045, 4542, 4559, 4562, 4544
2432, 4542, 4559, 4562, 4544, 4543, 4560, 4563, 1046
2433, 4555, 769, 3188, 4558, 4556, 3187, 3189, 4559
2434, 4556, 3187, 3189, 4559, 4557, 1051, 3190, 4560
2435, 4558, 3188, 1052, 4561, 4559, 3189, 3191, 4562
2436, 4559, 3189, 3191, 4562, 4560, 3190, 1053, 4563
2437, 1043, 1051, 1053, 1046, 1044, 771, 1054, 1047
2438, 1045, 4561, 4564, 4551, 4544, 4562, 4565, 4552
2439, 4544, 4562, 4565, 4552, 1046, 4563, 4566, 4553
2440, 4551, 4564, 4567, 1048, 4552, 4565, 4568, 4554
2441, 4552, 4565, 4568, 4554, 4553, 4566, 4569, 1049
2442, 4561, 1052, 3206, 4564, 4562, 3191, 3207, 4565
2443, 4562, 3191, 3207, 4565, 4563, 1053, 3208, 4566
2444, 4564, 3206, 770, 4567, 4565, 3207, 3209, 4568
2445, 4565, 3207, 3209, 4568, 4566, 3208, 1055, 4569
2446, 1046, 1053, 1055, 1049, 1047, 1054, 772, 1050
2447, 723, 1044, 1047, 1030, 1283, 1327, 1329, 1284
2448, 1283, 1327, 1329, 1284, 725, 1328, 1330, 1285
2449, 1030, 1047, 1050, 724, 1284, 1329, 1331, 1286
2450, 1284, 1329, 1331, 1286, 1285, 1330, 1332, 726
2451, 1044, 771, 1054, 1047, 1327, 1333, 1334, 1329
2452, 1327, 1333, 1334, 1329, 1328, 773, 1335, 1330
2453, 1047, 1054, 772, 1050, 1329, 1334, 1336, 1331
2454, 1329, 1334, 1336, 1331, 1330, 1335, 774, 1332
2455, 725, 1328, 1330, 1285, 1589, 1615, 1617, 1590
2456, 1589, 1615, 1617, 1590, 727, 1616, 1618, 1591
2457, 1285, 1330, 1332, 726, 1590, 1617, 1619, 1592
2458, 1590, 1617, 1619, 1592, 1591, 1618, 1620, 728
2459, 1328, 773, 1335, 1330, 1615, 1621, 1622, 1617
2460, 1615, 1621, 1622, 1617, 1616, 775, 1623, 1618
2461, 1330, 1335, 774, 1332, 1617, 1622, 1624, 1619
2462, 1617, 1622, 1624, 1619, 1618, 1623, 776, 1620
2463, 727, 1616, 1618, 1591, 1599, 1625, 1626, 1600
2464, 1599, 1625, 1626, 1600, 729, 1337, 1340, 1302
2465, 1591, 1618, 1620, 728, 1600, 1626, 1627, 1601
2466, 1600, 1626, 1627, 1601, 1302, 1340, 1343, 730
2467, 1616, 775, 1623, 1618, 1625, 1628, 1629, 1626
2468, 1625, 1628, 1629, 1626, 1337, 777, 1347, 1340
2469, 1618, 1623, 776, 1620, 1626, 1629, 1630, 1627
2470, 1626, 1629, 1630, 1627, 1340, 1347, 778, 1343
2471, 729, 1337, 1340, 1302, 1301, 1338, 1341, 1303
2472, 1301, 1338, 1341, 1303, 731, 1339, 1342, 1304
2473, 1302, 1340, 1343, 730, 1303, 1341, 1344, 1305
2474, 1303, 1341, 1344, 1305, 1304, 1342, 1345, 732
2475, 1337, 777, 1347, 1340, 1338, 1346, 1348, 1341
2476, 1338, 1346, 1348, 1341, 1339, 779, 1349, 1342
2477, 1340, 1347, 778, 1343, 1341, 1348, 1350, 1344
2478, 1341, 1348, 1350, 1344, 1342, 1349, 780, 1345
2479, 722, 4548, 4570, 4504, 4459, 4549, 4571, 4505
2480, 4459, 4549, 4571, 4505, 1031, 4550, 4572, 4506
2481, 4504, 4570, 3173, 1038, 4505, 4571, 3174, 3168
2482, 4505, 4571, 3174, 3168, 4506, 4572, 3175, 1039
2483, 4548, 1048, 4573, 4570, 4549, 4554, 4574, 4571
2484, 4549, 4554, 4574, 4571, 4550, 1049, 4575, 4572
2485, 4570, 4573, 1056, 3173, 4571, 4574, 3182, 3174
2486, 4571, 4574, 3182, 3174, 4572, 4575, 1057, 3175
2487, 1031, 1049, 1057, 1039, 724, 1050, 1058, 1040
2488, 1038, 3173, 3176, 3169, 3168, 3174, 3177, 3170
2489, 3168, 3174, 3177, 3170, 1039, 3175, 3178, 3171
2490, 3169, 3176, 3179, 733, 3170, 3177, 3180, 3172
2491, 3170, 3177, 3180, 3172, 3171, 3178, 3181, 1041
2492, 3173, 1056, 3183, 3176, 3174, 3182, 3184, 3177
2493, 3174, 3182, 3184, 3177, 3175, 1057, 3185, 3178
2494, 3176, 3183, 1059, 3179, 3177, 3184, 3186, 3180
2495, 3177, 3184, 3186, 3180, 3178, 3185, 1060, 3181
2496, 1039, 1057, 1060, 1041, 1040, 1058, 1061, 734
2497, 1048, 4567, 4576, 4573, 4554, 4568, 4577, 4574
2498, 4554, 4568, 4577, 4574, 1049, 4569, 4578, 4575
2499, 4573, 4576, 4579, 1056, 4574, 4577, 4580, 3182
2500, 4574, 4577, 4580, 3182, 4575, 4578, 4581, 1057
2501, 4567, 770, 3235, 4576, 4568, 3209, 3236, 4577
2502, 4568, 3209, 3236, 4577, 4569, 1055, 3237, 4578
2503, 4576, 3235, 1062, 4579, 4577, 3236, 3238, 4580
2504, 4577, 3236, 3238, 4580, 4578, 3237, 1063, 4581
2505, 1049, 1055, 1063, 1057, 1050, 772, 1064, 1058
2506, 1056, 4579, 4582, 3183, 3182, 4580, 4583, 3184
2507, 3182, 4580, 4583, 3184, 1057, 4581, 4584, 3185
2508, 3183, 4582, 4585, 1059, 3184, 4583, 4586, 3186
2509, 3184, 4583, 4586, 3186, 3185, 4584, 4587, 1060
2510, 4579, 1062, 3249, 4582, 4580, 3238, 3250, 4583
2511, 4580, 3238, 3250, 4583, 4581, 1063, 3251, 4584
2512, 4582, 3249, 781, 4585, 4583, 3250, 3252, 4586
2513, 4583, 3250, 3252, 4586, 4584, 3251, 1065, 4587
2514, 1057, 1063, 1065, 1060, 1058, 1064, 782, 1061
2515, 724, 1050, 1058, 1040, 1286, 1331, 1351, 1310
2516, 1286, 1331, 1351, 1310, 726, 1332, 1352, 1311
2517, 1040, 1058, 1061, 734, 1310, 1351, 1353, 1312
2518, 1310, 1351, 1353, 1312, 1311, 1352, 1354, 735
2519, 1050, 772, 1064, 1058, 1331, 1336, 1355, 1351
2520, 1331, 1336, 1355, 1351, 1332, 774, 1356, 1352
2521, 1058, 1064, 782, 1061, 1351, 1355, 1357, 1353
2522, 1351, 1355, 1357, 1353, 1352, 1356, 783, 1354
2523, 726, 1332, 1352, 1311, 1592, 1619, 1631, 1606
2524, 1592, 1619, 1631, 1606, 728, 1620, 1632, 1607
2525, 1311, 1352, 1354, 735, 1606, 1631, 1633, 1608
2526, 1606, 1631, 1633, 1608, 1607, 1632, 1634, 736
2527, 1332, 774, 1356, 1352, 1619, 1624, 1635, 1631
2528, 1619, 1624, 1635, 1631, 1620, 776, 1636, 1632
2529, 1352, 1356, 783, 1354, 1631, 1635, 1637, 1633
2530, 1631, 1635, 1637, 1633, 1632, 1636, 784, 1634
2531, 728, 1620, 1632, 1607, 1601, 1627, 1638, 1613
2532, 1601, 1627, 1638, 1613, 730, 1343, 1358, 1323
2533, 1607, 1632, 1634, 736, 1613, 1638, 1639, 1614
2534, 1613, 1638, 1639, 1614, 1323, 1358, 1361, 737
2535, 1620, 776, 1636, 1632, 1627, 1630, 1640, 1638
2536, 1627, 1630, 1640, 1638, 1343, 778, 1364, 1358
2537, 1632, 1636, 784, 1634, 1638, 1640, 1641, 1639
2538, 1638, 1640, 1641, 1639, 1358, 1364, 785, 1361
2539, 730, 1343, 1358, 1323, 1305, 1344, 1359, 1324
2540, 1305, 1344, 1359, 1324, 732, 1345, 1360, 1325
2541, 1323, 1358, 1361, 737, 1324, 1359, 1362, 1326
2542, 1324, 1359, 1362, 1326, 1325, 1360, 1363, 738
2543, 1343, 778, 1364, 1358, 1344, 1350, 1365, 1359
2544, 1344, 1350, 1365, 1359, 1345, 780, 1366, 1360
2545, 1358, 1364, 785, 1361, 1359, 1365, 1367, 1362
2546, 1359, 1365, 1367, 1362, 1360, 1366, 786, 1363
2547, 739, 787, 788, 740, 741, 789, 790, 742
2548, 741, 789, 790, 742, 743, 791, 792, 744
2549, 740, 788, 793, 745, 742, 790, 794, 746
2550, 742, 790, 794, 746, 744, 792, 795, 747
2551, 745, 793, 796, 748, 746, 794, 797, 749
2552, 746, 794, 797, 749, 747, 795, 798, 750
2553, 748, 796, 779, 731, 749, 797, 799, 751
2554, 749, 797, 799, 751, 750, 798, 800, 752
2555, 731, 1339, 1342, 1304, 2390, 4588, 4590, 2391
2556, 2390, 4588, 4590, 2391, 751, 4589, 4591, 2392
2557, 1304, 1342, 1345, 732, 2391, 4590, 4592, 2393
2558, 2391, 4590, 4592, 2393, 2392, 4591, 4593, 753
2559, 1339, 779, 1349, 1342, 4588, 4594, 4595, 4590
2560, 4588, 4594, 4595, 4590, 4589, 799, 4596, 4591
2561, 1342, 1349, 780, 1345, 4590, 4595, 4597, 4592
2562, 4590, 4595, 4597, 4592, 4591, 4596, 801, 4593
2563, 751, 799, 801, 753, 752, 800, 802, 754
2564, 732, 1345, 1360, 1325, 2393, 4592, 4598, 2401
2565, 2393, 4592, 4598, 2401, 753, 4593, 4599, 2402
2566, 1325, 1360, 1363, 738, 2401, 4598, 4600, 2403
2567, 2401, 4598, 4600, 2403, 2402, 4599, 4601, 755
2568, 1345, 780, 1366, 1360, 4592, 4597, 4602, 4598
2569, 4592, 4597, 4602, 4598, 4593, 801, 4603, 4599
2570, 1360, 1366, 786, 1363, 4598, 4602, 4604, 4600
2571, 4598, 4602, 4604, 4600, 4599, 4603, 803, 4601
2572, 753, 801, 803, 755, 754, 802, 804, 756
2573, 738, 786, 805, 757, 755, 803, 806, 758
2574, 755, 803, 806, 758, 756, 804, 807, 759
2575, 757, 805, 808, 760, 758, 806, 809, 761
2576, 758, 806, 809, 761, 759, 807, 810, 762
2577, 760, 808, 811, 763, 761, 809, 812, 764
2578, 761, 809, 812, 764, 762, 810, 813, 765
2579, 763, 811, 814, 766, 764, 812, 815, 767
2580, 764, 812, 815, 767, 765, 813, 816, 768
2581, 769, 3192, 3195, 3188, 3187, 3193, 3196, 3189
2582, 3187, 3193, 3196, 3189, 1051, 3194, 3197, 3190
2583, 3188, 3195, 3198, 1052, 3189, 3196, 3199, 3191
2584, 3189, 3196, 3199, 3191, 3190, 3197, 3200, 1053
2585, 3192, 1066, 3202, 3195, 3193, 3201, 3203, 3196
2586, 3193, 3201, 3203, 3196, 3194, 1067, 3204, 3197
2587, 3195, 3202, 1069, 3198, 3196, 3203, 3205, 3199
2588, 3196, 3203, 3205, 3199, 3197, 3204, 1070, 3200
2589, 1051, 1067, 1070, 1053, 771, 1068, 1071, 1054
2590, 1052, 3198, 3210, 3206, 3191, 3199, 3211, 3207
2591, 3191, 3199, 3211, 3207, 1053, 3200, 3212, 3208
2592, 3206, 3210, 3213, 770, 3207, 3211, 3214, 3209
2593, 3207, 3211, 3214, 3209, 3208, 3212, 3215, 1055
2594, 3198, 1069, 3216, 3210, 3199, 3205, 3217, 3211
2595, 3199, 3205, 3217, 3211, 3200, 1070, 3218, 3212
2596, 3210, 3216, 1072, 3213, 3211, 3217, 3219, 3214
2597, 3211, 3217, 3219, 3214, 3212, 3218, 1073, 3215
2598, 1053, 1070, 1073, 1055, 1054, 1071, 1074, 772
2599, 1066, 3220, 3223, 3202, 3201, 3221, 3224, 3203
2600, 3201, 3221, 3224, 3203, 1067, 3222, 3225, 3204
2601, 3202, 3223, 3226, 1069, 3203, 3224, 3227, 3205
2602, 3203, 3224, 3227, 3205, 3204, 3225, 3228, 1070
2603, 3220, 817, 2405, 3223, 3221, 2404, 2406, 3224
2604, 3221, 2404, 2406, 3224, 3222, 1075, 2407, 3225
2605, 3223, 2405, 1076, 3226, 3224, 2406, 2408, 3227
2606, 3224, 2406, 2408, 3227, 3225, 2407, 1077, 3228
2607, 1067, 3222, 3225, 3204, 4605, 4609, 4611, 4606
2608, 4605, 4609, 4611, 4606, 1068, 4610, 4612, 4607
2609, 3204, 3225, 3228, 1070, 4606, 4611, 4613, 4608
2610, 4606, 4611, 4613, 4608, 4607, 4612, 4614, 1071
2611, 3222, 1075, 2407, 3225, 4609, 4615, 4616, 4611
2612, 4609, 4615, 4616, 4611, 4610, 819, 4617, 4612
2613, 3225, 2407, 1077, 3228, 4611, 4616, 4618, 4613
2614, 4611, 4616, 4618, 4613, 4612, 4617, 1078, 4614
2615, 1069, 3226, 3229, 3216, 3205, 3227, 3230, 3217
2616, 3205, 3227, 3230, 3217, 1070, 3228, 3231, 3218
2617, 3216, 3229, 3232, 1072, 3217, 3230, 3233, 3219
2618, 3217, 3230, 3233, 3219, 3218, 3231, 3234, 1073
2619, 3226, 1076, 2423, 3229, 3227, 2408, 2424, 3230
2620, 3227, 2408, 2424, 3230, 3228, 1077, 2425, 3231
2621, 3229, 2423, 818, 3232, 3230, 2424, 2426, 3233
2622, 3230, 2424, 2426, 3233, 3231, 2425, 1079, 3234
2623, 1070, 3228, 3231, 3218, 4608, 4613, 4622, 4619
2624, 4608, 4613, 4622, 4619, 1071, 4614, 4623, 4620
2625, 3218, 3231, 3234, 1073, 4619, 4622, 4624, 4621
2626, 4619, 4622, 4624, 4621, 4620, 4623, 4625, 1074
2627, 3228, 1077, 2425, 3231, 4613, 4618, 4626, 4622
2628, 4613, 4618, 4626, 4622, 4614, 1078, 4627, 4623
2629, 3231, 2425, 1079, 3234, 4622, 4626, 4628, 4624
2630, 4622, 4626, 4628, 4624, 4623, 4627, 820, 4625
2631, 771, 1068, 1071, 1054, 1333, 1368, 1370, 1334
2632, 1333, 1368, 1370, 1334, 773, 1369, 1371, 1335
2633, 1054, 1071, 1074, 772, 1334, 1370, 1372, 1336
2634, 1334, 1370, 1372, 1336, 1335, 1371, 1373, 774
2635, 1068, 819, 1078, 1071, 1368, 1374, 1375, 1370
2636, 1368, 1374, 1375, 1370, 1369, 821, 1376, 1371
2637, 1071, 1078, 820, 1074, 1370, 1375, 1377, 1372
2638, 1370, 1375, 1377, 1372, 1371, 1376, 822, 1373
2639, 773, 1369, 1371, 1335, 1621, 1642, 1644, 1622
2640, 1621, 1642, 1644, 1622, 775, 1643, 1645, 1623
2641, 1335, 1371, 1373, 774, 1622, 1644, 1646, 1624
2642, 1622, 1644, 1646, 1624, 1623, 1645, 1647, 776
2643, 1369, 821, 1376, 1371, 1642, 1648, 1649, 1644
2644, 1642, 1648, 1649, 1644, 1643, 823, 1650, 1645
2645, 1371, 1376, 822, 1373, 1644, 1649, 1651, 1646
2646, 1644, 1649, 1651, 1646, 1645, 1650, 824, 1647
2647, 775, 1643, 1645, 1623, 1628, 1652, 1653, 1629
2648, 1628, 1652, 1653, 1629, 777, 1378, 1381, 1347
2649, 1623, 1645, 1647, 776, 1629, 1653, 1654, 1630
2650, 1629, 1653, 1654, 1630, 1347, 1381, 1384, 778
2651, 1643, 823, 1650, 1645, 1652, 1655, 1656, 1653
2652, 1652, 1655, 1656, 1653, 1378, 825, 1388, 1381
2653, 1645, 1650, 824, 1647, 1653, 1656, 1657, 1654
2654, 1653, 1656, 1657, 1654, 1381, 1388, 826, 1384
2655, 777, 1378, 1381, 1347, 1346, 1379, 1382, 1348
2656, 1346, 1379, 1382, 1348, 779, 1380, 1383, 1349
2657, 1347, 1381, 1384, 778, 1348, 1382, 1385, 1350
2658, 1348, 1382, 1385, 1350, 1349, 1383, 1386, 780
2659, 1378, 825, 1388, 1381, 1379, 1387, 1389, 1382
2660, 1379, 1387, 1389, 1382, 1380, 827, 1390, 1383
2661, 1381, 1388, 826, 1384, 1382, 1389, 1391, 1385
2662, 1382, 1389, 1391, 1385, 1383, 1390, 828, 1386
2663, 770, 3213, 3239, 3235, 3209, 3214, 3240, 3236
2664, 3209, 3214, 3240, 3236, 1055, 3215, 3241, 3237
2665, 3235, 3239, 3242, 1062, 3236, 3240, 3243, 3238
2666, 3236, 3240, 3243, 3238, 3237, 3241, 3244, 1063
2667, 3213, 1072, 3245, 3239, 3214, 3219, 3246, 3240
2668, 3214, 3219, 3246, 3240, 3215, 1073, 3247, 3241
2669, 3239, 3245, 1080, 3242, 3240, 3246, 3248, 3243
2670, 3240, 3246, 3248, 3243, 3241, 3247, 1081, 3244
2671, 1055, 1073, 1081, 1063, 772, 1074, 1082, 1064
2672, 1062, 3242, 3253, 3249, 3238, 3243, 3254, 3250
2673, 3238, 3243, 3254, 3250, 1063, 3244, 3255, 3251
2674, 3249, 3253, 3256, 781, 3250, 3254, 3257, 3252
2675, 3250, 3254, 3257, 3252, 3251, 3255, 3258, 1065
2676, 3242, 1080, 3259, 3253, 3243, 3248, 3260, 3254
2677, 3243, 3248, 3260, 3254, 3244, 1081, 3261, 3255
2678, 3253, 3259, 1083, 3256, 3254, 3260, 3262, 3257
2679, 3254, 3260, 3262, 3257, 3255, 3261, 1084, 3258
2680, 1063, 1081, 1084, 1065, 1064, 1082, 1085, 782
2681, 1072, 3232, 3263, 3245, 3219, 3233, 3264, 3246
2682, 3219, 3233, 3264, 3246, 1073, 3234, 3265, 3247
2683, 3245, 3263, 3266, 1080, 3246, 3264, 3267, 3248
2684, 3246, 3264, 3267, 3248, 3247, 3265, 3268, 1081
2685, 3232, 818, 2461, 3263, 3233, 2426, 2462, 3264
2686, 3233, 2426, 2462, 3264, 3234, 1079, 2463, 3265
2687, 3263, 2461, 1086, 3266, 3264, 2462, 2464, 3267
2688, 3264, 2462, 2464, 3267, 3265, 2463, 1087, 3268
2689, 1073, 3234, 3265, 3247, 4621, 4624, 4632, 4629
2690, 4621, 4624, 4632, 4629, 1074, 4625, 4633, 4630
2691, 3247, 3265, 3268, 1081, 4629, 4632, 4634, 4631
2692, 4629, 4632, 4634, 4631, 4630, 4633, 4635, 1082
2693, 3234, 1079, 2463, 3265, 4624, 4628, 4636, 4632
2694, 4624, 4628, 4636, 4632, 4625, 820, 4637, 4633
2695, 3265, 2463, 1087, 3268, 4632, 4636, 4638, 4634
2696, 4632, 4636, 4638, 4634, 4633, 4637, 1088, 4635
2697, 1080, 3266, 3269, 3259, 3248, 3267, 3270, 3260
2698, 3248, 3267, 3270, 3260, 1081, 3268, 3271, 3261
2699, 3259, 3269, 3272, 1083, 3260, 3270, 3273, 3262
2700, 3260, 3270, 3273, 3262, 3261, 3271, 3274, 1084
2701, 3266, 1086, 2475, 3269, 3267, 2464, 2476, 3270
2702, 3267, 2464, 2476, 3270, 3268, 1087, 2477, 3271
2703, 3269, 2475, 829, 3272, 3270, 2476, 2478, 3273
2704, 3270, 2476, 2478, 3273, 3271, 2477, 1089, 3274
2705, 1081, 3268, 3271, 3261, 4631, 4634, 4642, 4639
2706, 4631, 4634, 4642, 4639, 1082, 4635, 4643, 4640
2707, 3261, 3271, 3274, 1084, 4639, 4642, 4644, 4641
2708, 4639, 4642, 4644, 4641, 4640, 4643, 4645, 1085
2709, 3268, 1087, 2477, 3271, 4634, 4638, 4646, 4642
2710, 4634, 4638, 4646, 4642, 4635, 1088, 4647, 4643
2711, 3271, 2477, 1089, 3274, 4642, 4646, 4648, 4644
2712, 4642, 4646, 4648, 4644, 4643, 4647, 830, 4645
2713, 772, 1074, 1082, 1064, 1336, 1372, 1392, 1355
2714, 1336, 1372, 1392, 1355, 774, 1373, 1393, 1356
2715, 1064, 1082, 1085, 782, 1355, 1392, 1394, 1357
2716, 1355, 1392, 1394, 1357, 1356, 1393, 1395, 783
2717, 1074, 820, 1088, 1082, 1372, 1377, 1396, 1392
2718, 1372, 1377, 1396, 1392, 1373, 822, 1397, 1393
2719, 1082, 1088, 830, 1085, 1392, 1396, 1398, 1394
2720, 1392, 1396, 1398, 1394, 1393, 1397, 831, 1395
2721, 774, 1373, 1393, 1356, 1624, 1646, 1658, 1635
2722, 1624, 1646, 1658, 1635, 776, 1647, 1659, 1636
2723, 1356, 1393, 1395, 783, 1635, 1658, 1660, 1637
2724, 1635, 1658, 1660, 1637, 1636, 1659, 1661, 784
2725, 1373, 822, 1397, 1393, 1646, 1651, 1662, 1658
2726, 1646, 1651, 1662, 1658, 1647, 824, 1663, 1659
2727, 1393, 1397, 831, 1395, 1658, 1662, 1664, 1660
2728, 1658, 1662, 1664, 1660, 1659, 1663, 832, 1661
2729, 776, 1647, 1659, 1636, 1630, 1654, 1665, 1640
2730, 1630, 1654, 1665, 1640, 778, 1384, 1399, 1364
2731, 1636, 1659, 1661, 784, 1640, 1665, 1666, 1641
2732, 1640, 1665, 1666, 1641, 1364, 1399, 1402, 785
2733, 1647, 824, 1663, 1659, 1654, 1657, 1667, 1665
2734, 1654, 1657, 1667, 1665, 1384, 826, 1405, 1399
2735, 1659, 1663, 832, 1661, 1665, 1667, 1668, 1666
2736, 1665, 1667, 1668, 1666, 1399, 1405, 833, 1402
2737, 778, 1384, 1399, 1364, 1350, 1385, 1400, 1365
2738, 1350, 1385, 1400, 1365, 780, 1386, 1401, 1366
2739, 1364, 1399, 1402, 785, 1365, 1400, 1403, 1367
2740, 1365, 1400, 1403, 1367, 1366, 1401, 1404, 786
2741, 1384, 826, 1405, 1399, 1385, 1391, 1406, 1400
2742, 1385, 1391, 1406, 1400, 1386, 828, 1407, 1401
2743, 1399, 1405, 833, 1402, 1400, 1406, 1408, 1403
2744, 1400, 1406, 1408, 1403, 1401, 1407, 834, 1404
2745, 787, 835, 836, 788, 789, 837, 838, 790
2746, 789, 837, 838, 790, 791, 839, 840, 792
2747, 788, 836, 841, 793, 790, 838, 842, 794
2748, 790, 838, 842, 794, 792, 840, 843, 795
2749, 793, 841, 844, 796, 794, 842, 845, 797
2750, 794, 842, 845, 797, 795, 843, 846, 798
2751, 796, 844, 827, 779, 797, 845, 847, 799
2752, 797, 845, 847, 799, 798, 846, 848, 800
2753, 779, 1380, 1383, 1349, 4594, 4649, 4651, 4595
2754, 4594, 4649, 4651, 4595, 799, 4650, 4652, 4596
2755, 1349, 1383, 1386, 780, 4595, 4651, 4653, 4597
2756, 4595, 4651, 4653, 4597, 4596, 4652, 4654, 801
2757, 1380, 827, 1390, 1383, 4649, 2513, 2541, 4651
2758, 4649, 2513, 2541, 4651, 4650, 847, 2542, 4652
2759, 1383, 1390, 828, 1386, 4651, 2541, 2543, 4653
2760, 4651, 2541, 2543, 4653, 4652, 2542, 849, 4654
2761, 799, 847, 849, 801, 800, 848, 850, 802
2762, 780, 1386, 1401, 1366, 4597, 4653, 4655, 4602
2763, 4597, 4653, 4655, 4602, 801, 4654, 4656, 4603
2764, 1366, 1401, 1404, 786, 4602, 4655, 4657, 4604
2765, 4602, 4655, 4657, 4604, 4603, 4656, 4658, 803
2766, 1386, 828, 1407, 1401, 4653, 2543, 2561, 4655
2767, 4653, 2543, 2561, 4655, 4654, 849, 2562, 4656
2768, 1401, 1407, 834, 1404, 4655, 2561, 2563, 4657
2769, 4655, 2561, 2563, 4657, 4656, 2562, 851, 4658
2770, 801, 849, 851, 803, 802, 850, 852, 804
2771, 786, 834, 853, 805, 803, 851, 854, 806
2772, 803, 851, 854, 806, 804, 852, 855, 807
2773, 805, 853, 856, 808, 806, 854, 857, 809
2774, 806, 854, 857, 809, 807, 855, 858, 810
2775, 808, 856, 859, 811, 809, 857, 860, 812
2776, 809, 857, 860, 812, 810, 858, 861, 813
2777, 811, 859, 862, 814, 812, 860, 863, 815
2778, 812, 860, 863, 815, 813, 861, 864, 816
2779, 817, 2409, 2412, 2405, 2404, 2410, 2413, 2406
2780, 2404, 2410, 2413, 2406, 1075, 2411, 2414, 2407
2781, 2405, 2412, 2415, 1076, 2406, 2413, 2416, 2408
2782, 2406, 2413, 2416, 2408, 2407, 2414, 2417, 1077
2783, 2409, 1090, 2419, 2412, 2410, 2418, 2420, 2413
2784, 2410, 2418, 2420, 2413, 2411, 1091, 2421, 2414
2785, 2412, 2419, 1093, 2415, 2413, 2420, 2422, 2416
2786, 2413, 2420, 2422, 2416, 2414, 2421, 1094, 2417
2787, 1075, 2411, 2414, 2407, 4615, 4659, 4661, 4616
2788, 4615, 4659, 4661, 4616, 819, 4660, 4662, 4617
2789, 2407, 2414, 2417, 1077, 4616, 4661, 4663, 4618
2790, 4616, 4661, 4663, 4618, 4617, 4662, 4664, 1078
2791, 2411, 1091, 2421, 2414, 4659, 3275, 3276, 4661
2792, 4659, 3275, 3276, 4661, 4660, 1092, 3277, 4662
2793, 2414, 2421, 1094, 2417, 4661, 3276, 3278, 4663
2794, 4661, 3276, 3278, 4663, 4662, 3277, 1095, 4664
2795, 1076, 2415, 2427, 2423, 2408, 2416, 2428, 2424
2796, 2408, 2416, 2428, 2424, 1077, 2417, 2429, 2425
2797, 2423, 2427, 2430, 818, 2424, 2428, 2431, 2426
2798, 2424, 2428, 2431, 2426, 2425, 2429, 2432, 1079
2799, 2415, 1093, 2433, 2427, 2416, 2422, 2434, 2428
2800, 2416, 2422, 2434, 2428, 2417, 1094, 2435, 2429
2801, 2427, 2433, 1096, 2430, 2428, 2434, 2436, 2431
2802, 2428, 2434, 2436, 2431, 2429, 2435, 1097, 2432
2803, 1077, 2417, 2429, 2425, 4618, 4663, 4665, 4626
2804, 4618, 4663, 4665, 4626, 1078, 4664, 4666, 4627
2805, 2425, 2429, 2432, 1079, 4626, 4665, 4667, 4628
2806, 4626, 4665, 4667, 4628, 4627, 4666, 4668, 820
2807, 2417, 1094, 2435, 2429, 4663, 3278, 3289, 4665
2808, 4663, 3278, 3289, 4665, 4664, 1095, 3290, 4666
2809, 2429, 2435, 1097, 2432, 4665, 3289, 3291, 4667
2810, 4665, 3289, 3291, 4667, 4666, 3290, 1098, 4668
2811, 1090, 2437, 2440, 2419, 2418, 2438, 2441, 2420
2812, 2418, 2438, 2441, 2420, 1091, 2439, 2442, 2421
2813, 2419, 2440, 2443, 1093, 2420, 2441, 2444, 2422
2814, 2420, 2441, 2444, 2422, 2421, 2442, 2445, 1094
2815, 2437, 865, 2447, 2440, 2438, 2446, 2448, 2441
2816, 2438, 2446, 2448, 2441, 2439, 1099, 2449, 2442
2817, 2440, 2447, 1100, 2443, 2441, 2448, 2450, 2444
2818, 2441, 2448, 2450, 2444, 2442, 2449, 1101, 2445
2819, 1091, 2439, 2442, 2421, 3275, 3279, 3281, 3276
2820, 3275, 3279, 3281, 3276, 1092, 3280, 3282, 3277
2821, 2421, 2442, 2445, 1094, 3276, 3281, 3283, 3278
2822, 3276, 3281, 3283, 3278, 3277, 3282, 3284, 1095
2823, 2439, 1099, 2449, 2442, 3279, 3285, 3286, 3281
2824, 3279, 3285, 3286, 3281, 3280, 867, 3287, 3282
2825, 2442, 2449, 1101, 2445, 3281, 3286, 3288, 3283
2826, 3281, 3286, 3288, 3283, 3282, 3287, 1102, 3284
2827, 1093, 2443, 2451, 2433, 2422, 2444, 2452, 2434
2828, 2422, 2444, 2452, 2434, 1094, 2445, 2453, 2435
2829, 2433, 2451, 2454, 1096, 2434, 2452, 2455, 2436
2830, 2434, 2452, 2455, 2436, 2435, 2453, 2456, 1097
2831, 2443, 1100, 2457, 2451, 2444, 2450, 2458, 2452
2832, 2444, 2450, 2458, 2452, 2445, 1101, 2459, 2453
2833, 2451, 2457, 866, 2454, 2452, 2458, 2460, 2455
2834, 2452, 2458, 2460, 2455, 2453, 2459, 1103, 2456
2835, 1094, 2445, 2453, 2435, 3278, 3283, 3292, 3289
2836, 3278, 3283, 3292, 3289, 1095, 3284, 3293, 3290
2837, 2435, 2453, 2456, 1097, 3289, 3292, 3294, 3291
2838, 3289, 3292, 3294, 3291, 3290, 3293, 3295, 1098
2839, 2445, 1101, 2459, 2453, 3283, 3288, 3296, 3292
2840, 3283, 3288, 3296, 3292, 3284, 1102, 3297, 3293
2841, 2453, 2459, 1103, 2456, 3292, 3296, 3298, 3294
2842, 3292, 3296, 3298, 3294, 3293, 3297, 868, 3295
2843, 819, 1092, 1095, 1078, 1374, 1409, 1411, 1375
2844, 1374, 1409, 1411, 1375, 821, 1410, 1412, 1376
2845, 1078, 1095, 1098, 820, 1375, 1411, 1413, 1377
2846, 1375, 1411, 1413, 1377, 1376, 1412, 1414, 822
2847, 1092, 3280, 3282, 3277, 4669, 4673, 4675, 4670
2848, 4669, 4673, 4675, 4670, 1409, 4674, 4676, 4671
2849, 3277, 3282, 3284, 1095, 4670, 4675, 4677, 4672
2850, 4670, 4675, 4677, 4672, 4671, 4676, 4678, 1411
2851, 3280, 867, 3287, 3282, 4673, 4679, 4680, 4675
2852, 4673, 4679, 4680, 4675, 4674, 1415, 4681, 4676
2853, 3282, 3287, 1102, 3284, 4675, 4680, 4682, 4677
2854, 4675, 4680, 4682, 4677, 4676, 4681, 1416, 4678
2855, 1409, 1415, 1416, 1411, 1410, 869, 1417, 1412
2856, 1095, 3284, 3293, 3290, 4672, 4677, 4686, 4683
2857, 4672, 4677, 4686, 4683, 1411, 4678, 4687, 4684
2858, 3290, 3293, 3295, 1098, 4683, 4686, 4688, 4685
2859, 4683, 4686, 4688, 4685, 4684, 4687, 4689, 1413
2860, 3284, 1102, 3297, 3293, 4677, 4682, 4690, 4686
2861, 4677, 4682, 4690, 4686, 4678, 1416, 4691, 4687
2862, 3293, 3297, 868, 3295, 4686, 4690, 4692, 4688
2863, 4686, 4690, 4692, 4688, 4687, 4691, 1418, 4689
2864, 1411, 1416, 1418, 1413, 1412, 1417, 870, 1414
2865, 821, 1410, 1412, 1376, 1648, 1669, 1671, 1649
2866, 1648, 1669, 1671, 1649, 823, 1670, 1672, 1650
2867, 1376, 1412, 1414, 822, 1649, 1671, 1673, 1651
2868, 1649, 1671, 1673, 1651, 1650, 1672, 1674, 824
2869, 1410, 869, 1417, 1412, 1669, 1675, 1676, 1671
2870, 1669, 1675, 1676, 1671, 1670, 871, 1677, 1672
2871, 1412, 1417, 870, 1414, 1671, 1676, 1678, 1673
2872, 1671, 1676, 1678, 1673, 1672, 1677, 872, 1674
2873, 823, 1670, 1672, 1650, 1655, 1679, 1680, 1656
2874, 1655, 1679, 1680, 1656, 825, 1419, 1422, 1388
2875, 1650, 1672, 1674, 824, 1656, 1680, 1681, 1657
2876, 1656, 1680, 1681, 1657, 1388, 1422, 1425, 826
2877, 1670, 871, 1677, 1672, 1679, 1682, 1683, 1680
2878, 1679, 1682, 1683, 1680, 1419, 873, 1429, 1422
2879, 1672, 1677, 872, 1674, 1680, 1683, 1684, 1681
2880, 1680, 1683, 1684, 1681, 1422, 1429, 874, 1425
2881, 825, 1419, 1422, 1388, 1387, 1420, 1423, 1389
2882, 1387, 1420, 1423, 1389, 827, 1421, 1424, 1390
2883, 1388, 1422, 1425, 826, 1389, 1423, 1426, 1391
2884, 1389, 1423, 1426, 1391, 1390, 1424, 1427, 828
2885, 1419, 873, 1429, 1422, 1420, 1428, 1430, 1423
2886, 1420, 4698, 4701, 4694, 4693, 4699, 4702, 4695
2887, 4693, 4699, 4702, 4695, 1421, 4700, 4703, 4696
2888, 4694, 4701, 4704, 1423, 4695, 4702, 4705, 4697
2889, 4695, 4702, 4705, 4697, 4696, 4703, 4706, 1424
2890, 4698, 1428, 4708, 4701, 4699, 4707, 4709, 4702
2891, 4699, 4707, 4709, 4702, 4700, 875, 4710, 4703
2892, 4701, 4708, 1430, 4704, 4702, 4709, 4711, 4705
2893, 4702, 4709, 4711, 4705, 4703, 4710, 1431, 4706
2894, 1422, 1429, 874, 1425, 1423, 1430, 1432, 1426
2895, 1423, 1430, 1432, 1426, 1424, 1431, 876, 1427
2896, 818, 2430, 2465, 2461, 2426, 2431, 2466, 2462
2897, 2426, 2431, 2466, 2462, 1079, 2432, 2467, 2463
2898, 2461, 2465, 2468, 1086, 2462, 2466, 2469, 2464
2899, 2462, 2466, 2469, 2464, 2463, 2467, 2470, 1087
2900, 2430, 1096, 2471, 2465, 2431, 2436, 2472, 2466
2901, 2431, 2436, 2472, 2466, 2432, 1097, 2473, 2467
2902, 2465, 2471, 1104, 2468, 2466, 2472, 2474, 2469
2903, 2466, 2472, 2474, 2469, 2467, 2473, 1105, 2470
2904, 1079, 2432, 2467, 2463, 4628, 4667, 4712, 4636
2905, 4628, 4667, 4712, 4636, 820, 4668, 4713, 4637
2906, 2463, 2467, 2470, 1087, 4636, 4712, 4714, 4638
2907, 4636, 4712, 4714, 4638, 4637, 4713, 4715, 1088
2908, 2432, 1097, 2473, 2467, 4667, 3291, 3299, 4712
2909, 4667, 3291, 3299, 4712, 4668, 1098, 3300, 4713
2910, 2467, 2473, 1105, 2470, 4712, 3299, 3301, 4714
2911, 4712, 3299, 3301, 4714, 4713, 3300, 1106, 4715
2912, 1086, 2468, 2479, 2475, 2464, 2469, 2480, 2476
2913, 2464, 2469, 2480, 2476, 1087, 2470, 2481, 2477
2914, 2475, 2479, 2482, 829, 2476, 2480, 2483, 2478
2915, 2476, 2480, 2483, 2478, 2477, 2481, 2484, 1089
2916, 2468, 1104, 2485, 2479, 2469, 2474, 2486, 2480
2917, 2469, 2474, 2486, 2480, 2470, 1105, 2487, 2481
2918, 2479, 2485, 1107, 2482, 2480, 2486, 2488, 2483
2919, 2480, 2486, 2488, 2483, 2481, 2487, 1108, 2484
2920, 1087, 2470, 2481, 2477, 4638, 4714, 4716, 4646
2921, 4638, 4714, 4716, 4646, 1088, 4715, 4717, 4647
2922, 2477, 2481, 2484, 1089, 4646, 4716, 4718, 4648
2923, 4646, 4716, 4718, 4648, 4647, 4717, 4719, 830
2924, 2470, 1105, 2487, 2481, 4714, 3301, 3309, 4716
2925, 4714, 3301, 3309, 4716, 4715, 1106, 3310, 4717
2926, 2481, 2487, 1108, 2484, 4716, 3309, 3311, 4718
2927, 4716, 3309, 3311, 4718, 4717, 3310, 1109, 4719
2928, 1096, 2454, 2489, 2471, 2436, 2455, 2490, 2472
2929, 2436, 2455, 2490, 2472, 1097, 2456, 2491, 2473
2930, 2471, 2489, 2492, 1104, 2472, 2490, 2493, 2474
2931, 2472, 2490, 2493, 2474, 2473, 2491, 2494, 1105
2932, 2454, 866, 2495, 2489, 2455, 2460, 2496, 2490
2933, 2455, 2460, 2496, 2490, 2456, 1103, 2497, 2491
2934, 2489, 2495, 1110, 2492, 2490, 2496, 2498, 2493
2935, 2490, 2496, 2498, 2493, 2491, 2497, 1111, 2494
2936, 1097, 2456, 2491, 2473, 3291, 3294, 3302, 3299
2937, 3291, 3294, 3302, 3299, 1098, 3295, 3303, 3300
2938, 2473, 2491, 2494, 1105, 3299, 3302, 3304, 3301
2939, 3299, 3302, 3304, 3301, 3300, 3303, 3305, 1106
2940, 2456, 1103, 2497, 2491, 3294, 3298, 3306, 3302
2941, 3294, 3298, 3306, 3302, 3295, 868, 3307, 3303
2942, 2491, 2497, 1111, 2494, 3302, 3306, 3308, 3304
2943, 3302, 3306, 3308, 3304, 3303, 3307, 1112, 3305
2944, 1104, 2492, 2499, 2485, 2474, 2493, 2500, 2486
2945, 2474, 2493, 2500, 2486, 1105, 2494, 2501, 2487
2946, 2485, 2499, 2502, 1107, 2486, 2500, 2503, 2488
2947, 2486, 2500, 2503, 2488, 2487, 2501, 2504, 1108
2948, 2492, 1110, 2505, 2499, 2493, 2498, 2506, 2500
2949, 2493, 2498, 2506, 2500, 2494, 1111, 2507, 2501
2950, 2499, 2505, 877, 2502, 2500, 2506, 2508, 2503
2951, 2500, 2506, 2508, 2503, 2501, 2507, 1113, 2504
2952, 1105, 2494, 2501, 2487, 3301, 3304, 3312, 3309
2953, 3301, 3304, 3312, 3309, 1106, 3305, 3313, 3310
2954, 2487, 2501, 2504, 1108, 3309, 3312, 3314, 3311
2955, 3309, 3312, 3314, 3311, 3310, 3313, 3315, 1109
2956, 2494, 1111, 2507, 2501, 3304, 3308, 3316, 3312
2957, 3304, 3308, 3316, 3312, 3305, 1112, 3317, 3313
2958, 2501, 2507, 1113, 2504, 3312, 3316, 3318, 3314
2959, 3312, 3316, 3318, 3314, 3313, 3317, 878, 3315
2960, 820, 1098, 1106, 1088, 1377, 1413, 1433, 1396
2961, 1377, 1413, 1433, 1396, 822, 1414, 1434, 1397
2962, 1088, 1106, 1109, 830, 1396, 1433, 1435, 1398
2963, 1396, 1433, 1435, 1398, 1397, 1434, 1436, 831
2964, 1098, 3295, 3303, 3300, 4685, 4688, 4723, 4720
2965, 4685, 4688, 4723, 4720, 1413, 4689, 4724, 4721
2966, 3300, 3303, 3305, 1106, 4720, 4723, 4725, 4722
2967, 4720, 4723, 4725, 4722, 4721, 4724, 4726, 1433
2968, 3295, 868, 3307, 3303, 4688, 4692, 4727, 4723
2969, 4688, 4692, 4727, 4723, 4689, 1418, 4728, 4724
2970, 3303, 3307, 1112, 3305, 4723, 4727, 4729, 4725
2971, 4723, 4727, 4729, 4725, 4724, 4728, 1437, 4726
2972, 1413, 1418, 1437, 1433, 1414, 870, 1438, 1434
2973, 1106, 3305, 3313, 3310, 4722, 4725, 4733, 4730
2974, 4722, 4725, 4733, 4730, 1433, 4726, 4734, 4731
2975, 3310, 3313, 3315, 1109, 4730, 4733, 4735, 4732
2976, 4730, 4733, 4735, 4732, 4731, 4734, 4736, 1435
2977, 3305, 1112, 3317, 3313, 4725, 4729, 4737, 4733
2978, 4725, 4729, 4737, 4733, 4726, 1437, 4738, 4734
2979, 3313, 3317, 878, 3315, 4733, 4737, 4739, 4735
2980, 4733, 4737, 4739, 4735, 4734, 4738, 1439, 4736
2981, 1433, 1437, 1439, 1435, 1434, 1438, 879, 1436
2982, 822, 1414, 1434, 1397, 1651, 1673, 1685, 1662
2983, 1651, 1673, 1685, 1662, 824, 1674, 1686, 1663
2984, 1397, 1434, 1436, 831, 1662, 1685, 1687, 1664
2985, 1662, 1685, 1687, 1664, 1663, 1686, 1688, 832
2986, 1414, 870, 1438, 1434, 1673, 1678, 1689, 1685
2987, 1673, 1678, 1689, 1685, 1674, 872, 1690, 1686
2988, 1434, 1438, 879, 1436, 1685, 1689, 1691, 1687
2989, 1685, 1689, 1691, 1687, 1686, 1690, 880, 1688
2990, 824, 1674, 1686, 1663, 1657, 1681, 1692, 1667
2991, 1657, 1681, 1692, 1667, 826, 1425, 1440, 1405
2992, 1663, 1686, 1688, 832, 1667, 1692, 1693, 1668
2993, 1667, 1692, 1693, 1668, 1405, 1440, 1443, 833
2994, 1674, 872, 1690, 1686, 1681, 1684, 1694, 1692
2995, 1681, 1684, 1694, 1692, 1425, 874, 1446, 1440
2996, 1686, 1690, 880, 1688, 1692, 1694, 1695, 1693
2997, 1692, 1694, 1695, 1693, 1440, 1446, 881, 1443
2998, 826, 1425, 1440, 1405, 1391, 1426, 1441, 1406
2999, 1391, 1426, 1441, 1406, 828, 1427, 1442, 1407
3000, 1405, 1440, 1443, 833, 1406, 1441, 1444, 1408
3001, 1406, 1441, 1444, 1408, 1407, 1442, 1445, 834
3002, 1425, 874, 1446, 1440, 1426, 1432, 1447, 1441
3003, 1426, 1432, 1447, 1441, 1427, 876, 1448, 1442
3004, 1440, 1446, 881, 1443, 1441, 1447, 1449, 1444
3005, 1441, 4745, 4748, 4741, 4740, 4746, 4749, 4742
3006, 4740, 4746, 4749, 4742, 1442, 4747, 4750, 4743
3007, 4741, 4748, 4751, 1444, 4742, 4749, 4752, 4744
3008, 4742, 4749, 4752, 4744, 4743, 4750, 4753, 1445
3009, 4745, 1447, 4755, 4748, 4746, 4754, 4756, 4749
3010, 4746, 4754, 4756, 4749, 4747, 1448, 4757, 4750
3011, 4748, 4755, 1449, 4751, 4749, 4756, 4758, 4752
3012, 4749, 4756, 4758, 4752, 4750, 4757, 882, 4753
3013, 835, 883, 884, 836, 837, 885, 886, 838
3014, 837, 885, 886, 838, 839, 887, 888, 840
3015, 836, 884, 889, 841, 838, 886, 890, 842
3016, 838, 886, 890, 842, 840, 888, 891, 843
3017, 841, 889, 892, 844, 842, 890, 893, 845
3018, 842, 890, 893, 845, 843, 891, 894, 846
3019, 844, 2514, 2517, 2510, 2509, 2515, 2518, 2511
3020, 2509, 2515, 2518, 2511, 845, 2516, 2519, 2512
3021, 2510, 2517, 1421, 827, 2511, 2518, 2520, 2513
3022, 2511, 2518, 2520, 2513, 2512, 2519, 2521, 847
3023, 2514, 892, 2523, 2517, 2515, 2522, 2524, 2518
3024, 2515, 2522, 2524, 2518, 2516, 893, 2525, 2519
3025, 2517, 2523, 875, 1421, 2518, 2524, 2526, 2520
3026, 2518, 2524, 2526, 2520, 2519, 2525, 895, 2521
3027, 845, 2516, 2519, 2512, 2527, 2531, 2533, 2528
3028, 2527, 2531, 2533, 2528, 846, 2532, 2534, 2529
3029, 2512, 2519, 2521, 847, 2528, 2533, 2535, 2530
3030, 2528, 2533, 2535, 2530, 2529, 2534, 2536, 848
3031, 2516, 893, 2525, 2519, 2531, 2537, 2538, 2533
3032, 2531, 2537, 2538, 2533, 2532, 894, 2539, 2534
3033, 2519, 2525, 895, 2521, 2533, 2538, 2540, 2535
3034, 2533, 2538, 2540, 2535, 2534, 2539, 896, 2536
3035, 827, 1421, 1424, 1390, 2513, 2520, 2544, 2541
3036, 2513, 2520, 2544, 2541, 847, 2521, 2545, 2542
3037, 1390, 1424, 1427, 828, 2541, 2544, 2546, 2543
3038, 2541, 2544, 2546, 2543, 2542, 2545, 2547, 849
3039, 1421, 875, 1431, 1424, 2520, 2526, 2548, 2544
3040, 2520, 2526, 2548, 2544, 2521, 895, 2549, 2545
3041, 1424, 1431, 876, 1427, 2544, 2548, 2550, 2546
3042, 2544, 2548, 2550, 2546, 2545, 2549, 897, 2547
3043, 847, 2521, 2545, 2542, 2530, 2535, 2554, 2551
3044, 2530, 2535, 2554, 2551, 848, 2536, 2555, 2552
3045, 2542, 2545, 2547, 849, 2551, 2554, 2556, 2553
3046, 2551, 2554, 2556, 2553, 2552, 2555, 2557, 850
3047, 2521, 895, 2549, 2545, 2535, 2540, 2558, 2554
3048, 2535, 2540, 2558, 2554, 2536, 896, 2559, 2555
3049, 2545, 2549, 897, 2547, 2554, 2558, 2560, 2556
3050, 2554, 2558, 2560, 2556, 2555, 2559, 898, 2557
3051, 828, 1427, 1442, 1407, 2543, 2546, 2564, 2561
3052, 2543, 2546, 2564, 2561, 849, 2547, 2565, 2562
3053, 1407, 1442, 1445, 834, 2561, 2564, 2566, 2563
3054, 2561, 2564, 2566, 2563, 2562, 2565, 2567, 851
3055, 1427, 876, 1448, 1442, 2546, 2550, 2568, 2564
3056, 2546, 2550, 2568, 2564, 2547, 897, 2569, 2565
3057, 1442, 1448, 882, 1445, 2564, 2568, 2570, 2566
3058, 2564, 2568, 2570, 2566, 2565, 2569, 899, 2567
3059, 849, 2547, 2565, 2562, 2553, 2556, 2574, 2571
3060, 2553, 2556, 2574, 2571, 850, 2557, 2575, 2572
3061, 2562, 2565, 2567, 851, 2571, 2574, 2576, 2573
3062, 2571, 2574, 2576, 2573, 2572, 2575, 2577, 852
3063, 2547, 897, 2569, 2565, 2556, 2560, 2578, 2574
3064, 2556, 2560, 2578, 2574, 2557, 898, 2579, 2575
3065, 2565, 2569, 899, 2567, 2574, 2578, 2580, 2576
3066, 2574, 2578, 2580, 2576, 2575, 2579, 900, 2577
3067, 834, 1445, 2585, 2581, 2563, 2566, 2586, 2582
3068, 2563, 2566, 2586, 2582, 851, 2567, 2587, 2583
3069, 2581, 2585, 2588, 853, 2582, 2586, 2589, 2584
3070, 2582, 2586, 2589, 2584, 2583, 2587, 2590, 854
3071, 1445, 882, 2591, 2585, 2566, 2570, 2592, 2586
3072, 2566, 2570, 2592, 2586, 2567, 899, 2593, 2587
3073, 2585, 2591, 901, 2588, 2586, 2592, 2594, 2589
3074, 2586, 2592, 2594, 2589, 2587, 2593, 902, 2590
3075, 851, 2567, 2587, 2583, 2573, 2576, 2598, 2595
3076, 2573, 2576, 2598, 2595, 852, 2577, 2599, 2596
3077, 2583, 2587, 2590, 854, 2595, 2598, 2600, 2597
3078, 2595, 2598, 2600, 2597, 2596, 2599, 2601, 855
3079, 2567, 899, 2593, 2587, 2576, 2580, 2602, 2598
3080, 2576, 2580, 2602, 2598, 2577, 900, 2603, 2599
3081, 2587, 2593, 902, 2590, 2598, 2602, 2604, 2600
3082, 2598, 2602, 2604, 2600, 2599, 2603, 903, 2601
3083, 853, 901, 904, 856, 854, 902, 905, 857
3084, 854, 902, 905, 857, 855, 903, 906, 858
3085, 856, 904, 907, 859, 857, 905, 908, 860
3086, 857, 905, 908, 860, 858, 906, 909, 861
3087, 859, 907, 910, 862, 860, 908, 911, 863
3088, 860, 908, 911, 863, 861, 909, 912, 864
*NSET, NSET=CLAMP
1, 4, 5, 8, 9, 12, 13, 16, 17, 20, 21, 24, 26, 28, 30, 32
34, 36, 37, 40, 41, 44, 45, 48, 50, 52, 54, 56, 58, 60, 62, 64
66, 68, 70, 72, 74, 76, 78, 80, 82, 84, 86, 88, 90, 92, 94, 96
1114, 1115, 1116, 1117, 1118, 1133, 1134, 1135, 1136, 1729, 1730, 1731, 1732, 1743, 1744, 1745
1746, 1785, 1786, 1787, 1795, 1796, 1797, 2605, 2606, 2607, 2608, 2618, 2619, 2620, 2621, 2628
2629, 2630, 2637, 2638, 2639, 3319, 3320, 3321, 3322, 3333, 3334, 3335
*NSET, NSET=TIP_TOP
887, 888, 891, 894, 896, 898, 900, 903, 906, 909, 912, 2539, 2559, 2579, 2603
*MATERIAL, NAME=STEEL
*ELASTIC
210000, 0.3
*SOLID SECTION, ELSET=EALL, MATERIAL=STEEL
*EQUATION
3
1294, 1, 1.0, 683, 1, -0.5, 731, 1, -0.5
*EQUATION
3
1294, 2, 1.0, 683, 2, -0.5, 731, 2, -0.5
*EQUATION
3
1294, 3, 1.0, 683, 3, -0.5, 731, 3, -0.5
*EQUATION
3
1322, 1, 1.0, 690, 1, -0.5, 738, 1, -0.5
*EQUATION
3
1322, 2, 1.0, 690, 2, -0.5, 738, 2, -0.5
*EQUATION
3
1322, 3, 1.0, 690, 3, -0.5, 738, 3, -0.5
*EQUATION
3
1339, 1, 1.0, 731, 1, -0.5, 779, 1, -0.5
*EQUATION
3
1339, 2, 1.0, 731, 2, -0.5, 779, 2, -0.5
*EQUATION
3
1339, 3, 1.0, 731, 3, -0.5, 779, 3, -0.5
*EQUATION
3
1363, 1, 1.0, 738, 1, -0.5, 786, 1, -0.5
*EQUATION
3
1363, 2, 1.0, 738, 2, -0.5, 786, 2, -0.5
*EQUATION
3
1363, 3, 1.0, 738, 3, -0.5, 786, 3, -0.5
*EQUATION
3
1380, 1, 1.0, 779, 1, -0.5, 827, 1, -0.5
*EQUATION
3
1380, 2, 1.0, 779, 2, -0.5, 827, 2, -0.5
*EQUATION
3
1380, 3, 1.0, 779, 3, -0.5, 827, 3, -0.5
*EQUATION
3
1404, 1, 1.0, 786, 1, -0.5, 834, 1, -0.5
*EQUATION
3
1404, 2, 1.0, 786, 2, -0.5, 834, 2, -0.5
*EQUATION
3
1404, 3, 1.0, 786, 3, -0.5, 834, 3, -0.5
*EQUATION
3
1559, 1, 1.0, 635, 1, -0.5, 683, 1, -0.5
*EQUATION
3
1559, 2, 1.0, 635, 2, -0.5, 683, 2, -0.5
*EQUATION
3
1559, 3, 1.0, 635, 3, -0.5, 683, 3, -0.5
*EQUATION
3
1582, 1, 1.0, 642, 1, -0.5, 690, 1, -0.5
*EQUATION
3
1582, 2, 1.0, 642, 2, -0.5, 690, 2, -0.5
*EQUATION
3
1582, 3, 1.0, 642, 3, -0.5, 690, 3, -0.5
*EQUATION
3
1696, 1, 1.0, 1119, 1, -0.5, 1120, 1, -0.5
*EQUATION
3
1696, 2, 1.0, 1119, 2, -0.5, 1120, 2, -0.5
*EQUATION
3
1696, 3, 1.0, 1119, 3, -0.5, 1120, 3, -0.5
*EQUATION
3
1697, 1, 1.0, 1119, 1, -0.5, 1122, 1, -0.5
*EQUATION
3
1697, 2, 1.0, 1119, 2, -0.5, 1122, 2, -0.5
*EQUATION
3
1697, 3, 1.0, 1119, 3, -0.5, 1122, 3, -0.5
*EQUATION
5
1698, 1, 1.0, 1119, 1, -0.25, 1122, 1, -0.25, 1123, 1, -0.25, 1120, 1, -0.25
*EQUATION
5
1698, 2, 1.0, 1119, 2, -0.25, 1122, 2, -0.25, 1123, 2, -0.25, 1120, 2, -0.25
*EQUATION
5
1698, 3, 1.0, 1119, 3, -0.25, 1122, 3, -0.25, 1123, 3, -0.25, 1120, 3, -0.25
*EQUATION
3
1699, 1, 1.0, 1120, 1, -0.5, 1123, 1, -0.5
*EQUATION
3
1699, 2, 1.0, 1120, 2, -0.5, 1123, 2, -0.5
*EQUATION
3
1699, 3, 1.0, 1120, 3, -0.5, 1123, 3, -0.5
*EQUATION
3
1700, 1, 1.0, 1122, 1, -0.5, 1123, 1, -0.5
*EQUATION
3
1700, 2, 1.0, 1122, 2, -0.5, 1123, 2, -0.5
*EQUATION
3
1700, 3, 1.0, 1122, 3, -0.5, 1123, 3, -0.5
*EQUATION
3
1703, 1, 1.0, 1120, 1, -0.5, 1128, 1, -0.5
*EQUATION
3
1703, 2, 1.0, 1120, 2, -0.5, 1128, 2, -0.5
*EQUATION
3
1703, 3, 1.0, 1120, 3, -0.5, 1128, 3, -0.5
*EQUATION
5
1706, 1, 1.0, 1120, 1, -0.25, 1128, 1, -0.25, 1130, 1, -0.25, 1123, 1, -0.25
*EQUATION
5
1706, 2, 1.0, 1120, 2, -0.25, 1128, 2, -0.25, 1130, 2, -0.25, 1123, 2, -0.25
*EQUATION
5
1706, 3, 1.0, 1120, 3, -0.25, 1128, 3, -0.25, 1130, 3, -0.25, 1123, 3, -0.25
*EQUATION
3
1709, 1, 1.0, 1123, 1, -0.5, 1130, 1, -0.5
*EQUATION
3
1709, 2, 1.0, 1123, 2, -0.5, 1130, 2, -0.5
*EQUATION
3
1709, 3, 1.0, 1123, 3, -0.5, 1130, 3, -0.5
*EQUATION
3
1710, 1, 1.0, 2, 1, -0.5, 1128, 1, -0.5
*EQUATION
3
1710, 2, 1.0, 2, 2, -0.5, 1128, 2, -0.5
*EQUATION
3
1710, 3, 1.0, 2, 3, -0.5, 1128, 3, -0.5
*EQUATION
3
1711, 1, 1.0, 2, 1, -0.5, 1129, 1, -0.5
*EQUATION
3
1711, 2, 1.0, 2, 2, -0.5, 1129, 2, -0.5
*EQUATION
3
1711, 3, 1.0, 2, 3, -0.5, 1129, 3, -0.5
*EQUATION
5
1712, 1, 1.0, 2, 1, -0.25, 1129, 1, -0.25, 1130, 1, -0.25, 1128, 1, -0.25
*EQUATION
5
1712, 2, 1.0, 2, 2, -0.25, 1129, 2, -0.25, 1130, 2, -0.25, 1128, 2, -0.25
*EQUATION
5
1712, 3, 1.0, 2, 3, -0.25, 1129, 3, -0.25, 1130, 3, -0.25, 1128, 3, -0.25
*EQUATION
3
1713, 1, 1.0, 1128, 1, -0.5, 1130, 1, -0.5
*EQUATION
3
1713, 2, 1.0, 1128, 2, -0.5, 1130, 2, -0.5
*EQUATION
3
1713, 3, 1.0, 1128, 3, -0.5, 1130, 3, -0.5
*EQUATION
3
1714, 1, 1.0, 1129, 1, -0.5, 1130, 1, -0.5
*EQUATION
3
1714, 2, 1.0, 1129, 2, -0.5, 1130, 2, -0.5
*EQUATION
3
1714, 3, 1.0, 1129, 3, -0.5, 1130, 3, -0.5
*EQUATION
3
1715, 1, 1.0, 1122, 1, -0.5, 1125, 1, -0.5
*EQUATION
3
1715, 2, 1.0, 1122, 2, -0.5, 1125, 2, -0.5
*EQUATION
3
1715, 3, 1.0, 1122, 3, -0.5, 1125, 3, -0.5
*EQUATION
5
1716, 1, 1.0, 1122, 1, -0.25, 1125, 1, -0.25, 1126, 1, -0.25, 1123, 1, -0.25
*EQUATION
5
1716, 2, 1.0, 1122, 2, -0.25, 1125, 2, -0.25, 1126, 2, -0.25, 1123, 2, -0.25
*EQUATION
5
1716, 3, 1.0, 1122, 3, -0.25, 1125, 3, -0.25, 1126, 3, -0.25, 1123, 3, -0.25
*EQUATION
3
1717, 1, 1.0, 1123, 1, -0.5, 1126, 1, -0.5
*EQUATION
3
1717, 2, 1.0, 1123, 2, -0.5, 1126, 2, -0.5
*EQUATION
3
1717, 3, 1.0, 1123, 3, -0.5, 1126, 3, -0.5
*EQUATION
3
1718, 1, 1.0, 1125, 1, -0.5, 1126, 1, -0.5
*EQUATION
3
1718, 2, 1.0, 1125, 2, -0.5, 1126, 2, -0.5
*EQUATION
3
1718, 3, 1.0, 1125, 3, -0.5, 1126, 3, -0.5
*EQUATION
5
1721, 1, 1.0, 1123, 1, -0.25, 1130, 1, -0.25, 1132, 1, -0.25, 1126, 1, -0.25
*EQUATION
5
1721, 2, 1.0, 1123, 2, -0.25, 1130, 2, -0.25, 1132, 2, -0.25, 1126, 2, -0.25
*EQUATION
5
1721, 3, 1.0, 1123, 3, -0.25, 1130, 3, -0.25, 1132, 3, -0.25, 1126, 3, -0.25
*EQUATION
3
1724, 1, 1.0, 1126, 1, -0.5, 1132, 1, -0.5
*EQUATION
3
1724, 2, 1.0, 1126, 2, -0.5, 1132, 2, -0.5
*EQUATION
3
1724, 3, 1.0, 1126, 3, -0.5, 1132, 3, -0.5
*EQUATION
3
1725, 1, 1.0, 3, 1, -0.5, 1129, 1, -0.5
*EQUATION
3
1725, 2, 1.0, 3, 2, -0.5, 1129, 2, -0.5
*EQUATION
3
1725, 3, 1.0, 3, 3, -0.5, 1129, 3, -0.5
*EQUATION
5
1726, 1, 1.0, 1129, 1, -0.25, 3, 1, -0.25, 1132, 1, -0.25, 1130, 1, -0.25
*EQUATION
5
1726, 2, 1.0, 1129, 2, -0.25, 3, 2, -0.25, 1132, 2, -0.25, 1130, 2, -0.25
*EQUATION
5
1726, 3, 1.0, 1129, 3, -0.25, 3, 3, -0.25, 1132, 3, -0.25, 1130, 3, -0.25
*EQUATION
3
1727, 1, 1.0, 1130, 1, -0.5, 1132, 1, -0.5
*EQUATION
3
1727, 2, 1.0, 1130, 2, -0.5, 1132, 2, -0.5
*EQUATION
3
1727, 3, 1.0, 1130, 3, -0.5, 1132, 3, -0.5
*EQUATION
3
1728, 1, 1.0, 3, 1, -0.5, 1132, 1, -0.5
*EQUATION
3
1728, 2, 1.0, 3, 2, -0.5, 1132, 2, -0.5
*EQUATION
3
1728, 3, 1.0, 3, 3, -0.5, 1132, 3, -0.5
*EQUATION
3
1757, 1, 1.0, 1125, 1, -0.5, 1137, 1, -0.5
*EQUATION
3
1757, 2, 1.0, 1125, 2, -0.5, 1137, 2, -0.5
*EQUATION
3
1757, 3, 1.0, 1125, 3, -0.5, 1137, 3, -0.5
*EQUATION
5
1758, 1, 1.0, 1125, 1, -0.25, 1137, 1, -0.25, 1138, 1, -0.25, 1126, 1, -0.25
*EQUATION
5
1758, 2, 1.0, 1125, 2, -0.25, 1137, 2, -0.25, 1138, 2, -0.25, 1126, 2, -0.25
*EQUATION
5
1758, 3, 1.0, 1125, 3, -0.25, 1137, 3, -0.25, 1138, 3, -0.25, 1126, 3, -0.25
*EQUATION
3
1759, 1, 1.0, 1126, 1, -0.5, 1138, 1, -0.5
*EQUATION
3
1759, 2, 1.0, 1126, 2, -0.5, 1138, 2, -0.5
*EQUATION
3
1759, 3, 1.0, 1126, 3, -0.5, 1138, 3, -0.5
*EQUATION
3
1760, 1, 1.0, 1137, 1, -0.5, 1138, 1, -0.5
*EQUATION
3
1760, 2, 1.0, 1137, 2, -0.5, 1138, 2, -0.5
*EQUATION
3
1760, 3, 1.0, 1137, 3, -0.5, 1138, 3, -0.5
*EQUATION
5
1763, 1, 1.0, 1126, 1, -0.25, 1132, 1, -0.25, 1144, 1, -0.25, 1138, 1, -0.25
*EQUATION
5
1763, 2, 1.0, 1126, 2, -0.25, 1132, 2, -0.25, 1144, 2, -0.25, 1138, 2, -0.25
*EQUATION
5
1763, 3, 1.0, 1126, 3, -0.25, 1132, 3, -0.25, 1144, 3, -0.25, 1138, 3, -0.25
*EQUATION
3
1766, 1, 1.0, 1138, 1, -0.5, 1144, 1, -0.5
*EQUATION
3
1766, 2, 1.0, 1138, 2, -0.5, 1144, 2, -0.5
*EQUATION
3
1766, 3, 1.0, 1138, 3, -0.5, 1144, 3, -0.5
*EQUATION
3
1767, 1, 1.0, 3, 1, -0.5, 1143, 1, -0.5
*EQUATION
3
1767, 2, 1.0, 3, 2, -0.5, 1143, 2, -0.5
*EQUATION
3
1767, 3, 1.0, 3, 3, -0.5, 1143, 3, -0.5
*EQUATION
5
1768, 1, 1.0, 3, 1, -0.25, 1143, 1, -0.25, 1144, 1, -0.25, 1132, 1, -0.25
*EQUATION
5
1768, 2, 1.0, 3, 2, -0.25, 1143, 2, -0.25, 1144, 2, -0.25, 1132, 2, -0.25
*EQUATION
5
1768, 3, 1.0, 3, 3, -0.25, 1143, 3, -0.25, 1144, 3, -0.25, 1132, 3, -0.25
*EQUATION
3
1769, 1, 1.0, 1132, 1, -0.5, 1144, 1, -0.5
*EQUATION
3
1769, 2, 1.0, 1132, 2, -0.5, 1144, 2, -0.5
*EQUATION
3
1769, 3, 1.0, 1132, 3, -0.5, 1144, 3, -0.5
*EQUATION
3
1770, 1, 1.0, 1143, 1, -0.5, 1144, 1, -0.5
*EQUATION
3
1770, 2, 1.0, 1143, 2, -0.5, 1144, 2, -0.5
*EQUATION
3
1770, 3, 1.0, 1143, 3, -0.5, 1144, 3, -0.5
*EQUATION
3
1771, 1, 1.0, 1137, 1, -0.5, 1140, 1, -0.5
*EQUATION
3
1771, 2, 1.0, 1137, 2, -0.5, 1140, 2, -0.5
*EQUATION
3
1771, 3, 1.0, 1137, 3, -0.5, 1140, 3, -0.5
*EQUATION
5
1772, 1, 1.0, 1137, 1, -0.25, 1140, 1, -0.25, 1141, 1, -0.25, 1138, 1, -0.25
*EQUATION
5
1772, 2, 1.0, 1137, 2, -0.25, 1140, 2, -0.25, 1141, 2, -0.25, 1138, 2, -0.25
*EQUATION
5
1772, 3, 1.0, 1137, 3, -0.25, 1140, 3, -0.25, 1141, 3, -0.25, 1138, 3, -0.25
*EQUATION
3
1773, 1, 1.0, 1138, 1, -0.5, 1141, 1, -0.5
*EQUATION
3
1773, 2, 1.0, 1138, 2, -0.5, 1141, 2, -0.5
*EQUATION
3
1773, 3, 1.0, 1138, 3, -0.5, 1141, 3, -0.5
*EQUATION
3
1774, 1, 1.0, 1140, 1, -0.5, 1141, 1, -0.5
*EQUATION
3
1774, 2, 1.0, 1140, 2, -0.5, 1141, 2, -0.5
*EQUATION
3
1774, 3, 1.0, 1140, 3, -0.5, 1141, 3, -0.5
*EQUATION
5
1777, 1, 1.0, 1138, 1, -0.25, 1144, 1, -0.25, 1146, 1, -0.25, 1141, 1, -0.25
*EQUATION
5
1777, 2, 1.0, 1138, 2, -0.25, 1144, 2, -0.25, 1146, 2, -0.25, 1141, 2, -0.25
*EQUATION
5
1777, 3, 1.0, 1138, 3, -0.25, 1144, 3, -0.25, 1146, 3, -0.25, 1141, 3, -0.25
*EQUATION
3
1780, 1, 1.0, 1141, 1, -0.5, 1146, 1, -0.5
*EQUATION
3
1780, 2, 1.0, 1141, 2, -0.5, 1146, 2, -0.5
*EQUATION
3
1780, 3, 1.0, 1141, 3, -0.5, 1146, 3, -0.5
*EQUATION
3
1781, 1, 1.0, 25, 1, -0.5, 1143, 1, -0.5
*EQUATION
3
1781, 2, 1.0, 25, 2, -0.5, 1143, 2, -0.5
*EQUATION
3
1781, 3, 1.0, 25, 3, -0.5, 1143, 3, -0.5
*EQUATION
5
1782, 1, 1.0, 1143, 1, -0.25, 25, 1, -0.25, 1146, 1, -0.25, 1144, 1, -0.25
*EQUATION
5
1782, 2, 1.0, 1143, 2, -0.25, 25, 2, -0.25, 1146, 2, -0.25, 1144, 2, -0.25
*EQUATION
5
1782, 3, 1.0, 1143, 3, -0.25, 25, 3, -0.25, 1146, 3, -0.25, 1144, 3, -0.25
*EQUATION
3
1783, 1, 1.0, 1144, 1, -0.5, 1146, 1, -0.5
*EQUATION
3
1783, 2, 1.0, 1144, 2, -0.5, 1146, 2, -0.5
*EQUATION
3
1783, 3, 1.0, 1144, 3, -0.5, 1146, 3, -0.5
*EQUATION
3
1784, 1, 1.0, 25, 1, -0.5, 1146, 1, -0.5
*EQUATION
3
1784, 2, 1.0, 25, 2, -0.5, 1146, 2, -0.5
*EQUATION
3
1784, 3, 1.0, 25, 3, -0.5, 1146, 3, -0.5
*EQUATION
3
1822, 1, 1.0, 22, 1, -0.5, 107, 1, -0.5
*EQUATION
3
1822, 2, 1.0, 22, 2, -0.5, 107, 2, -0.5
*EQUATION
3
1822, 3, 1.0, 22, 3, -0.5, 107, 3, -0.5
*EQUATION
3
1850, 1, 1.0, 35, 1, -0.5, 114, 1, -0.5
*EQUATION
3
1850, 2, 1.0, 35, 2, -0.5, 114, 2, -0.5
*EQUATION
3
1850, 3, 1.0, 35, 3, -0.5, 114, 3, -0.5
*EQUATION
3
1948, 1, 1.0, 251, 1, -0.5, 299, 1, -0.5
*EQUATION
3
1948, 2, 1.0, 251, 2, -0.5, 299, 2, -0.5
*EQUATION
3
1948, 3, 1.0, 251, 3, -0.5, 299, 3, -0.5
*EQUATION
3
1979, 1, 1.0, 258, 1, -0.5, 306, 1, -0.5
*EQUATION
3
1979, 2, 1.0, 258, 2, -0.5, 306, 2, -0.5
*EQUATION
3
1979, 3, 1.0, 258, 3, -0.5, 306, 3, -0.5
*EQUATION
3
1995, 1, 1.0, 299, 1, -0.5, 347, 1, -0.5
*EQUATION
3
1995, 2, 1.0, 299, 2, -0.5, 347, 2, -0.5
*EQUATION
3
1995, 3, 1.0, 299, 3, -0.5, 347, 3, -0.5
*EQUATION
3
2018, 1, 1.0, 306, 1, -0.5, 354, 1, -0.5
*EQUATION
3
2018, 2, 1.0, 306, 2, -0.5, 354, 2, -0.5
*EQUATION
3
2018, 3, 1.0, 306, 3, -0.5, 354, 3, -0.5
*EQUATION
3
2039, 1, 1.0, 347, 1, -0.5, 395, 1, -0.5
*EQUATION
3
2039, 2, 1.0, 347, 2, -0.5, 395, 2, -0.5
*EQUATION
3
2039, 3, 1.0, 347, 3, -0.5, 395, 3, -0.5
*EQUATION
3
2066, 1, 1.0, 354, 1, -0.5, 402, 1, -0.5
*EQUATION
3
2066, 2, 1.0, 354, 2, -0.5, 402, 2, -0.5
*EQUATION
3
2066, 3, 1.0, 354, 3, -0.5, 402, 3, -0.5
*EQUATION
3
2082, 1, 1.0, 395, 1, -0.5, 443, 1, -0.5
*EQUATION
3
2082, 2, 1.0, 395, 2, -0.5, 443, 2, -0.5
*EQUATION
3
2082, 3, 1.0, 395, 3, -0.5, 443, 3, -0.5
*EQUATION
3
2094, 1, 1.0, 386, 1, -0.5, 1175, 1, -0.5
*EQUATION
3
2094, 2, 1.0, 386, 2, -0.5, 1175, 2, -0.5
*EQUATION
3
2094, 3, 1.0, 386, 3, -0.5, 1175, 3, -0.5
*EQUATION
3
2095, 1, 1.0, 386, 1, -0.5, 1190, 1, -0.5
*EQUATION
3
2095, 2, 1.0, 386, 2, -0.5, 1190, 2, -0.5
*EQUATION
3
2095, 3, 1.0, 386, 3, -0.5, 1190, 3, -0.5
*EQUATION
5
2096, 1, 1.0, 386, 1, -0.25, 1190, 1, -0.25, 1191, 1, -0.25, 1175, 1, -0.25
*EQUATION
5
2096, 2, 1.0, 386, 2, -0.25, 1190, 2, -0.25, 1191, 2, -0.25, 1175, 2, -0.25
*EQUATION
5
2096, 3, 1.0, 386, 3, -0.25, 1190, 3, -0.25, 1191, 3, -0.25, 1175, 3, -0.25
*EQUATION
3
2097, 1, 1.0, 1175, 1, -0.5, 1191, 1, -0.5
*EQUATION
3
2097, 2, 1.0, 1175, 2, -0.5, 1191, 2, -0.5
*EQUATION
3
2097, 3, 1.0, 1175, 3, -0.5, 1191, 3, -0.5
*EQUATION
3
2098, 1, 1.0, 1190, 1, -0.5, 1191, 1, -0.5
*EQUATION
3
2098, 2, 1.0, 1190, 2, -0.5, 1191, 2, -0.5
*EQUATION
3
2098, 3, 1.0, 1190, 3, -0.5, 1191, 3, -0.5
*EQUATION
3
2099, 1, 1.0, 386, 1, -0.5, 1182, 1, -0.5
*EQUATION
3
2099, 2, 1.0, 386, 2, -0.5, 1182, 2, -0.5
*EQUATION
3
2099, 3, 1.0, 386, 3, -0.5, 1182, 3, -0.5
*EQUATION
5
2100, 1, 1.0, 386, 1, -0.25, 1182, 1, -0.25, 1183, 1, -0.25, 1175, 1, -0.25
*EQUATION
5
2100, 2, 1.0, 386, 2, -0.25, 1182, 2, -0.25, 1183, 2, -0.25, 1175, 2, -0.25
*EQUATION
5
2100, 3, 1.0, 386, 3, -0.25, 1182, 3, -0.25, 1183, 3, -0.25, 1175, 3, -0.25
*EQUATION
3
2101, 1, 1.0, 1175, 1, -0.5, 1183, 1, -0.5
*EQUATION
3
2101, 2, 1.0, 1175, 2, -0.5, 1183, 2, -0.5
*EQUATION
3
2101, 3, 1.0, 1175, 3, -0.5, 1183, 3, -0.5
*EQUATION
5
2104, 1, 1.0, 1175, 1, -0.25, 1183, 1, -0.25, 1195, 1, -0.25, 1191, 1, -0.25
*EQUATION
5
2104, 2, 1.0, 1175, 2, -0.25, 1183, 2, -0.25, 1195, 2, -0.25, 1191, 2, -0.25
*EQUATION
5
2104, 3, 1.0, 1175, 3, -0.25, 1183, 3, -0.25, 1195, 3, -0.25, 1191, 3, -0.25
*EQUATION
3
2107, 1, 1.0, 1191, 1, -0.5, 1195, 1, -0.5
*EQUATION
3
2107, 2, 1.0, 1191, 2, -0.5, 1195, 2, -0.5
*EQUATION
3
2107, 3, 1.0, 1191, 3, -0.5, 1195, 3, -0.5
*EQUATION
3
2108, 1, 1.0, 1182, 1, -0.5, 1183, 1, -0.5
*EQUATION
3
2108, 2, 1.0, 1182, 2, -0.5, 1183, 2, -0.5
*EQUATION
3
2108, 3, 1.0, 1182, 3, -0.5, 1183, 3, -0.5
*EQUATION
3
2109, 1, 1.0, 1182, 1, -0.5, 1194, 1, -0.5
*EQUATION
3
2109, 2, 1.0, 1182, 2, -0.5, 1194, 2, -0.5
*EQUATION
3
2109, 3, 1.0, 1182, 3, -0.5, 1194, 3, -0.5
*EQUATION
5
2110, 1, 1.0, 1182, 1, -0.25, 1194, 1, -0.25, 1195, 1, -0.25, 1183, 1, -0.25
*EQUATION
5
2110, 2, 1.0, 1182, 2, -0.25, 1194, 2, -0.25, 1195, 2, -0.25, 1183, 2, -0.25
*EQUATION
5
2110, 3, 1.0, 1182, 3, -0.25, 1194, 3, -0.25, 1195, 3, -0.25, 1183, 3, -0.25
*EQUATION
3
2111, 1, 1.0, 1183, 1, -0.5, 1195, 1, -0.5
*EQUATION
3
2111, 2, 1.0, 1183, 2, -0.5, 1195, 2, -0.5
*EQUATION
3
2111, 3, 1.0, 1183, 3, -0.5, 1195, 3, -0.5
*EQUATION
3
2112, 1, 1.0, 1194, 1, -0.5, 1195, 1, -0.5
*EQUATION
3
2112, 2, 1.0, 1194, 2, -0.5, 1195, 2, -0.5
*EQUATION
3
2112, 3, 1.0, 1194, 3, -0.5, 1195, 3, -0.5
*EQUATION
3
2113, 1, 1.0, 397, 1, -0.5, 1190, 1, -0.5
*EQUATION
3
2113, 2, 1.0, 397, 2, -0.5, 1190, 2, -0.5
*EQUATION
3
2113, 3, 1.0, 397, 3, -0.5, 1190, 3, -0.5
*EQUATION
5
2114, 1, 1.0, 1190, 1, -0.25, 397, 1, -0.25, 1193, 1, -0.25, 1191, 1, -0.25
*EQUATION
5
2114, 2, 1.0, 1190, 2, -0.25, 397, 2, -0.25, 1193, 2, -0.25, 1191, 2, -0.25
*EQUATION
5
2114, 3, 1.0, 1190, 3, -0.25, 397, 3, -0.25, 1193, 3, -0.25, 1191, 3, -0.25
*EQUATION
3
2115, 1, 1.0, 1191, 1, -0.5, 1193, 1, -0.5
*EQUATION
3
2115, 2, 1.0, 1191, 2, -0.5, 1193, 2, -0.5
*EQUATION
3
2115, 3, 1.0, 1191, 3, -0.5, 1193, 3, -0.5
*EQUATION
3
2116, 1, 1.0, 397, 1, -0.5, 1193, 1, -0.5
*EQUATION
3
2116, 2, 1.0, 397, 2, -0.5, 1193, 2, -0.5
*EQUATION
3
2116, 3, 1.0, 397, 3, -0.5, 1193, 3, -0.5
*EQUATION
5
2119, 1, 1.0, 1191, 1, -0.25, 1195, 1, -0.25, 1198, 1, -0.25, 1193, 1, -0.25
*EQUATION
5
2119, 2, 1.0, 1191, 2, -0.25, 1195, 2, -0.25, 1198, 2, -0.25, 1193, 2, -0.25
*EQUATION
5
2119, 3, 1.0, 1191, 3, -0.25, 1195, 3, -0.25, 1198, 3, -0.25, 1193, 3, -0.25
*EQUATION
3
2122, 1, 1.0, 1193, 1, -0.5, 1198, 1, -0.5
*EQUATION
3
2122, 2, 1.0, 1193, 2, -0.5, 1198, 2, -0.5
*EQUATION
3
2122, 3, 1.0, 1193, 3, -0.5, 1198, 3, -0.5
*EQUATION
3
2123, 1, 1.0, 1194, 1, -0.5, 1197, 1, -0.5
*EQUATION
3
2123, 2, 1.0, 1194, 2, -0.5, 1197, 2, -0.5
*EQUATION
3
2123, 3, 1.0, 1194, 3, -0.5, 1197, 3, -0.5
*EQUATION
5
2124, 1, 1.0, 1194, 1, -0.25, 1197, 1, -0.25, 1198, 1, -0.25, 1195, 1, -0.25
*EQUATION
5
2124, 2, 1.0, 1194, 2, -0.25, 1197, 2, -0.25, 1198, 2, -0.25, 1195, 2, -0.25
*EQUATION
5
2124, 3, 1.0, 1194, 3, -0.25, 1197, 3, -0.25, 1198, 3, -0.25, 1195, 3, -0.25
*EQUATION
3
2125, 1, 1.0, 1195, 1, -0.5, 1198, 1, -0.5
*EQUATION
3
2125, 2, 1.0, 1195, 2, -0.5, 1198, 2, -0.5
*EQUATION
3
2125, 3, 1.0, 1195, 3, -0.5, 1198, 3, -0.5
*EQUATION
3
2126, 1, 1.0, 1197, 1, -0.5, 1198, 1, -0.5
*EQUATION
3
2126, 2, 1.0, 1197, 2, -0.5, 1198, 2, -0.5
*EQUATION
3
2126, 3, 1.0, 1197, 3, -0.5, 1198, 3, -0.5
*EQUATION
3
2136, 1, 1.0, 402, 1, -0.5, 450, 1, -0.5
*EQUATION
3
2136, 2, 1.0, 402, 2, -0.5, 450, 2, -0.5
*EQUATION
3
2136, 3, 1.0, 402, 3, -0.5, 450, 3, -0.5
*EQUATION
3
2141, 1, 1.0, 433, 1, -0.5, 1185, 1, -0.5
*EQUATION
3
2141, 2, 1.0, 433, 2, -0.5, 1185, 2, -0.5
*EQUATION
3
2141, 3, 1.0, 433, 3, -0.5, 1185, 3, -0.5
*EQUATION
3
2142, 1, 1.0, 433, 1, -0.5, 1186, 1, -0.5
*EQUATION
3
2142, 2, 1.0, 433, 2, -0.5, 1186, 2, -0.5
*EQUATION
3
2142, 3, 1.0, 433, 3, -0.5, 1186, 3, -0.5
*EQUATION
5
2143, 1, 1.0, 433, 1, -0.25, 1186, 1, -0.25, 1187, 1, -0.25, 1185, 1, -0.25
*EQUATION
5
2143, 2, 1.0, 433, 2, -0.25, 1186, 2, -0.25, 1187, 2, -0.25, 1185, 2, -0.25
*EQUATION
5
2143, 3, 1.0, 433, 3, -0.25, 1186, 3, -0.25, 1187, 3, -0.25, 1185, 3, -0.25
*EQUATION
3
2144, 1, 1.0, 1185, 1, -0.5, 1187, 1, -0.5
*EQUATION
3
2144, 2, 1.0, 1185, 2, -0.5, 1187, 2, -0.5
*EQUATION
3
2144, 3, 1.0, 1185, 3, -0.5, 1187, 3, -0.5
*EQUATION
3
2145, 1, 1.0, 1186, 1, -0.5, 1187, 1, -0.5
*EQUATION
3
2145, 2, 1.0, 1186, 2, -0.5, 1187, 2, -0.5
*EQUATION
3
2145, 3, 1.0, 1186, 3, -0.5, 1187, 3, -0.5
*EQUATION
3
2148, 1, 1.0, 1185, 1, -0.5, 1205, 1, -0.5
*EQUATION
3
2148, 2, 1.0, 1185, 2, -0.5, 1205, 2, -0.5
*EQUATION
3
2148, 3, 1.0, 1185, 3, -0.5, 1205, 3, -0.5
*EQUATION
5
2151, 1, 1.0, 1185, 1, -0.25, 1205, 1, -0.25, 1208, 1, -0.25, 1187, 1, -0.25
*EQUATION
5
2151, 2, 1.0, 1185, 2, -0.25, 1205, 2, -0.25, 1208, 2, -0.25, 1187, 2, -0.25
*EQUATION
5
2151, 3, 1.0, 1185, 3, -0.25, 1205, 3, -0.25, 1208, 3, -0.25, 1187, 3, -0.25
*EQUATION
3
2154, 1, 1.0, 1187, 1, -0.5, 1208, 1, -0.5
*EQUATION
3
2154, 2, 1.0, 1187, 2, -0.5, 1208, 2, -0.5
*EQUATION
3
2154, 3, 1.0, 1187, 3, -0.5, 1208, 3, -0.5
*EQUATION
3
2155, 1, 1.0, 1204, 1, -0.5, 1205, 1, -0.5
*EQUATION
3
2155, 2, 1.0, 1204, 2, -0.5, 1205, 2, -0.5
*EQUATION
3
2155, 3, 1.0, 1204, 3, -0.5, 1205, 3, -0.5
*EQUATION
3
2156, 1, 1.0, 1204, 1, -0.5, 1207, 1, -0.5
*EQUATION
3
2156, 2, 1.0, 1204, 2, -0.5, 1207, 2, -0.5
*EQUATION
3
2156, 3, 1.0, 1204, 3, -0.5, 1207, 3, -0.5
*EQUATION
5
2157, 1, 1.0, 1204, 1, -0.25, 1207, 1, -0.25, 1208, 1, -0.25, 1205, 1, -0.25
*EQUATION
5
2157, 2, 1.0, 1204, 2, -0.25, 1207, 2, -0.25, 1208, 2, -0.25, 1205, 2, -0.25
*EQUATION
5
2157, 3, 1.0, 1204, 3, -0.25, 1207, 3, -0.25, 1208, 3, -0.25, 1205, 3, -0.25
*EQUATION
3
2158, 1, 1.0, 1205, 1, -0.5, 1208, 1, -0.5
*EQUATION
3
2158, 2, 1.0, 1205, 2, -0.5, 1208, 2, -0.5
*EQUATION
3
2158, 3, 1.0, 1205, 3, -0.5, 1208, 3, -0.5
*EQUATION
3
2159, 1, 1.0, 1207, 1, -0.5, 1208, 1, -0.5
*EQUATION
3
2159, 2, 1.0, 1207, 2, -0.5, 1208, 2, -0.5
*EQUATION
3
2159, 3, 1.0, 1207, 3, -0.5, 1208, 3, -0.5
*EQUATION
3
2160, 1, 1.0, 434, 1, -0.5, 1186, 1, -0.5
*EQUATION
3
2160, 2, 1.0, 434, 2, -0.5, 1186, 2, -0.5
*EQUATION
3
2160, 3, 1.0, 434, 3, -0.5, 1186, 3, -0.5
*EQUATION
5
2161, 1, 1.0, 1186, 1, -0.25, 434, 1, -0.25, 1189, 1, -0.25, 1187, 1, -0.25
*EQUATION
5
2161, 2, 1.0, 1186, 2, -0.25, 434, 2, -0.25, 1189, 2, -0.25, 1187, 2, -0.25
*EQUATION
5
2161, 3, 1.0, 1186, 3, -0.25, 434, 3, -0.25, 1189, 3, -0.25, 1187, 3, -0.25
*EQUATION
3
2162, 1, 1.0, 1187, 1, -0.5, 1189, 1, -0.5
*EQUATION
3
2162, 2, 1.0, 1187, 2, -0.5, 1189, 2, -0.5
*EQUATION
3
2162, 3, 1.0, 1187, 3, -0.5, 1189, 3, -0.5
*EQUATION
3
2163, 1, 1.0, 434, 1, -0.5, 1189, 1, -0.5
*EQUATION
3
2163, 2, 1.0, 434, 2, -0.5, 1189, 2, -0.5
*EQUATION
3
2163, 3, 1.0, 434, 3, -0.5, 1189, 3, -0.5
*EQUATION
5
2166, 1, 1.0, 1187, 1, -0.25, 1208, 1, -0.25, 1211, 1, -0.25, 1189, 1, -0.25
*EQUATION
5
2166, 2, 1.0, 1187, 2, -0.25, 1208, 2, -0.25, 1211, 2, -0.25, 1189, 2, -0.25
*EQUATION
5
2166, 3, 1.0, 1187, 3, -0.25, 1208, 3, -0.25, 1211, 3, -0.25, 1189, 3, -0.25
*EQUATION
3
2167, 1, 1.0, 434, 1, -0.5, 1210, 1, -0.5
*EQUATION
3
2167, 2, 1.0, 434, 2, -0.5, 1210, 2, -0.5
*EQUATION
3
2167, 3, 1.0, 434, 3, -0.5, 1210, 3, -0.5
*EQUATION
5
2168, 1, 1.0, 434, 1, -0.25, 1210, 1, -0.25, 1211, 1, -0.25, 1189, 1, -0.25
*EQUATION
5
2168, 2, 1.0, 434, 2, -0.25, 1210, 2, -0.25, 1211, 2, -0.25, 1189, 2, -0.25
*EQUATION
5
2168, 3, 1.0, 434, 3, -0.25, 1210, 3, -0.25, 1211, 3, -0.25, 1189, 3, -0.25
*EQUATION
3
2169, 1, 1.0, 1189, 1, -0.5, 1211, 1, -0.5
*EQUATION
3
2169, 2, 1.0, 1189, 2, -0.5, 1211, 2, -0.5
*EQUATION
3
2169, 3, 1.0, 1189, 3, -0.5, 1211, 3, -0.5
*EQUATION
3
2170, 1, 1.0, 1207, 1, -0.5, 1210, 1, -0.5
*EQUATION
3
2170, 2, 1.0, 1207, 2, -0.5, 1210, 2, -0.5
*EQUATION
3
2170, 3, 1.0, 1207, 3, -0.5, 1210, 3, -0.5
*EQUATION
5
2171, 1, 1.0, 1207, 1, -0.25, 1210, 1, -0.25, 1211, 1, -0.25, 1208, 1, -0.25
*EQUATION
5
2171, 2, 1.0, 1207, 2, -0.25, 1210, 2, -0.25, 1211, 2, -0.25, 1208, 2, -0.25
*EQUATION
5
2171, 3, 1.0, 1207, 3, -0.25, 1210, 3, -0.25, 1211, 3, -0.25, 1208, 3, -0.25
*EQUATION
3
2172, 1, 1.0, 1208, 1, -0.5, 1211, 1, -0.5
*EQUATION
3
2172, 2, 1.0, 1208, 2, -0.5, 1211, 2, -0.5
*EQUATION
3
2172, 3, 1.0, 1208, 3, -0.5, 1211, 3, -0.5
*EQUATION
3
2173, 1, 1.0, 1210, 1, -0.5, 1211, 1, -0.5
*EQUATION
3
2173, 2, 1.0, 1210, 2, -0.5, 1211, 2, -0.5
*EQUATION
3
2173, 3, 1.0, 1210, 3, -0.5, 1211, 3, -0.5
*EQUATION
3
2180, 1, 1.0, 443, 1, -0.5, 491, 1, -0.5
*EQUATION
3
2180, 2, 1.0, 443, 2, -0.5, 491, 2, -0.5
*EQUATION
3
2180, 3, 1.0, 443, 3, -0.5, 491, 3, -0.5
*EQUATION
3
2211, 1, 1.0, 450, 1, -0.5, 498, 1, -0.5
*EQUATION
3
2211, 2, 1.0, 450, 2, -0.5, 498, 2, -0.5
*EQUATION
3
2211, 3, 1.0, 450, 3, -0.5, 498, 3, -0.5
*EQUATION
3
2227, 1, 1.0, 491, 1, -0.5, 539, 1, -0.5
*EQUATION
3
2227, 2, 1.0, 491, 2, -0.5, 539, 2, -0.5
*EQUATION
3
2227, 3, 1.0, 491, 3, -0.5, 539, 3, -0.5
*EQUATION
3
2248, 1, 1.0, 498, 1, -0.5, 546, 1, -0.5
*EQUATION
3
2248, 2, 1.0, 498, 2, -0.5, 546, 2, -0.5
*EQUATION
3
2248, 3, 1.0, 498, 3, -0.5, 546, 3, -0.5
*EQUATION
3
2253, 1, 1.0, 491, 1, -0.5, 511, 1, -0.5
*EQUATION
3
2253, 2, 1.0, 491, 2, -0.5, 511, 2, -0.5
*EQUATION
3
2253, 3, 1.0, 491, 3, -0.5, 511, 3, -0.5
*EQUATION
3
2255, 1, 1.0, 511, 1, -0.5, 513, 1, -0.5
*EQUATION
3
2255, 2, 1.0, 511, 2, -0.5, 513, 2, -0.5
*EQUATION
3
2255, 3, 1.0, 511, 3, -0.5, 513, 3, -0.5
*EQUATION
5
2257, 1, 1.0, 491, 1, -0.25, 539, 1, -0.25, 559, 1, -0.25, 511, 1, -0.25
*EQUATION
5
2257, 2, 1.0, 491, 2, -0.25, 539, 2, -0.25, 559, 2, -0.25, 511, 2, -0.25
*EQUATION
5
2257, 3, 1.0, 491, 3, -0.25, 539, 3, -0.25, 559, 3, -0.25, 511, 3, -0.25
*EQUATION
3
2258, 1, 1.0, 511, 1, -0.5, 559, 1, -0.5
*EQUATION
3
2258, 2, 1.0, 511, 2, -0.5, 559, 2, -0.5
*EQUATION
3
2258, 3, 1.0, 511, 3, -0.5, 559, 3, -0.5
*EQUATION
5
2260, 1, 1.0, 511, 1, -0.25, 559, 1, -0.25, 561, 1, -0.25, 513, 1, -0.25
*EQUATION
5
2260, 2, 1.0, 511, 2, -0.25, 559, 2, -0.25, 561, 2, -0.25, 513, 2, -0.25
*EQUATION
5
2260, 3, 1.0, 511, 3, -0.25, 559, 3, -0.25, 561, 3, -0.25, 513, 3, -0.25
*EQUATION
3
2262, 1, 1.0, 513, 1, -0.5, 561, 1, -0.5
*EQUATION
3
2262, 2, 1.0, 513, 2, -0.5, 561, 2, -0.5
*EQUATION
3
2262, 3, 1.0, 513, 3, -0.5, 561, 3, -0.5
*EQUATION
3
2263, 1, 1.0, 539, 1, -0.5, 559, 1, -0.5
*EQUATION
3
2263, 2, 1.0, 539, 2, -0.5, 559, 2, -0.5
*EQUATION
3
2263, 3, 1.0, 539, 3, -0.5, 559, 3, -0.5
*EQUATION
3
2265, 1, 1.0, 559, 1, -0.5, 561, 1, -0.5
*EQUATION
3
2265, 2, 1.0, 559, 2, -0.5, 561, 2, -0.5
*EQUATION
3
2265, 3, 1.0, 559, 3, -0.5, 561, 3, -0.5
*EQUATION
3
2268, 1, 1.0, 513, 1, -0.5, 515, 1, -0.5
*EQUATION
3
2268, 2, 1.0, 513, 2, -0.5, 515, 2, -0.5
*EQUATION
3
2268, 3, 1.0, 513, 3, -0.5, 515, 3, -0.5
*EQUATION
3
2269, 1, 1.0, 498, 1, -0.5, 515, 1, -0.5
*EQUATION
3
2269, 2, 1.0, 498, 2, -0.5, 515, 2, -0.5
*EQUATION
3
2269, 3, 1.0, 498, 3, -0.5, 515, 3, -0.5
*EQUATION
5
2271, 1, 1.0, 513, 1, -0.25, 561, 1, -0.25, 563, 1, -0.25, 515, 1, -0.25
*EQUATION
5
2271, 2, 1.0, 513, 2, -0.25, 561, 2, -0.25, 563, 2, -0.25, 515, 2, -0.25
*EQUATION
5
2271, 3, 1.0, 513, 3, -0.25, 561, 3, -0.25, 563, 3, -0.25, 515, 3, -0.25
*EQUATION
5
2272, 1, 1.0, 498, 1, -0.25, 546, 1, -0.25, 563, 1, -0.25, 515, 1, -0.25
*EQUATION
5
2272, 2, 1.0, 498, 2, -0.25, 546, 2, -0.25, 563, 2, -0.25, 515, 2, -0.25
*EQUATION
5
2272, 3, 1.0, 498, 3, -0.25, 546, 3, -0.25, 563, 3, -0.25, 515, 3, -0.25
*EQUATION
3
2273, 1, 1.0, 515, 1, -0.5, 563, 1, -0.5
*EQUATION
3
2273, 2, 1.0, 515, 2, -0.5, 563, 2, -0.5
*EQUATION
3
2273, 3, 1.0, 515, 3, -0.5, 563, 3, -0.5
*EQUATION
3
2275, 1, 1.0, 561, 1, -0.5, 563, 1, -0.5
*EQUATION
3
2275, 2, 1.0, 561, 2, -0.5, 563, 2, -0.5
*EQUATION
3
2275, 3, 1.0, 561, 3, -0.5, 563, 3, -0.5
*EQUATION
3
2276, 1, 1.0, 546, 1, -0.5, 563, 1, -0.5
*EQUATION
3
2276, 2, 1.0, 546, 2, -0.5, 563, 2, -0.5
*EQUATION
3
2276, 3, 1.0, 546, 3, -0.5, 563, 3, -0.5
*EQUATION
3
2291, 1, 1.0, 539, 1, -0.5, 587, 1, -0.5
*EQUATION
3
2291, 2, 1.0, 539, 2, -0.5, 587, 2, -0.5
*EQUATION
3
2291, 3, 1.0, 539, 3, -0.5, 587, 3, -0.5
*EQUATION
3
2312, 1, 1.0, 546, 1, -0.5, 594, 1, -0.5
*EQUATION
3
2312, 2, 1.0, 546, 2, -0.5, 594, 2, -0.5
*EQUATION
3
2312, 3, 1.0, 546, 3, -0.5, 594, 3, -0.5
*EQUATION
5
2316, 1, 1.0, 539, 1, -0.25, 587, 1, -0.25, 607, 1, -0.25, 559, 1, -0.25
*EQUATION
5
2316, 2, 1.0, 539, 2, -0.25, 587, 2, -0.25, 607, 2, -0.25, 559, 2, -0.25
*EQUATION
5
2316, 3, 1.0, 539, 3, -0.25, 587, 3, -0.25, 607, 3, -0.25, 559, 3, -0.25
*EQUATION
3
2317, 1, 1.0, 559, 1, -0.5, 607, 1, -0.5
*EQUATION
3
2317, 2, 1.0, 559, 2, -0.5, 607, 2, -0.5
*EQUATION
3
2317, 3, 1.0, 559, 3, -0.5, 607, 3, -0.5
*EQUATION
5
2319, 1, 1.0, 559, 1, -0.25, 607, 1, -0.25, 609, 1, -0.25, 561, 1, -0.25
*EQUATION
5
2319, 2, 1.0, 559, 2, -0.25, 607, 2, -0.25, 609, 2, -0.25, 561, 2, -0.25
*EQUATION
5
2319, 3, 1.0, 559, 3, -0.25, 607, 3, -0.25, 609, 3, -0.25, 561, 3, -0.25
*EQUATION
3
2321, 1, 1.0, 561, 1, -0.5, 609, 1, -0.5
*EQUATION
3
2321, 2, 1.0, 561, 2, -0.5, 609, 2, -0.5
*EQUATION
3
2321, 3, 1.0, 561, 3, -0.5, 609, 3, -0.5
*EQUATION
3
2322, 1, 1.0, 587, 1, -0.5, 607, 1, -0.5
*EQUATION
3
2322, 2, 1.0, 587, 2, -0.5, 607, 2, -0.5
*EQUATION
3
2322, 3, 1.0, 587, 3, -0.5, 607, 3, -0.5
*EQUATION
3
2324, 1, 1.0, 607, 1, -0.5, 609, 1, -0.5
*EQUATION
3
2324, 2, 1.0, 607, 2, -0.5, 609, 2, -0.5
*EQUATION
3
2324, 3, 1.0, 607, 3, -0.5, 609, 3, -0.5
*EQUATION
5
2327, 1, 1.0, 561, 1, -0.25, 609, 1, -0.25, 611, 1, -0.25, 563, 1, -0.25
*EQUATION
5
2327, 2, 1.0, 561, 2, -0.25, 609, 2, -0.25, 611, 2, -0.25, 563, 2, -0.25
*EQUATION
5
2327, 3, 1.0, 561, 3, -0.25, 609, 3, -0.25, 611, 3, -0.25, 563, 3, -0.25
*EQUATION
5
2328, 1, 1.0, 546, 1, -0.25, 594, 1, -0.25, 611, 1, -0.25, 563, 1, -0.25
*EQUATION
5
2328, 2, 1.0, 546, 2, -0.25, 594, 2, -0.25, 611, 2, -0.25, 563, 2, -0.25
*EQUATION
5
2328, 3, 1.0, 546, 3, -0.25, 594, 3, -0.25, 611, 3, -0.25, 563, 3, -0.25
*EQUATION
3
2329, 1, 1.0, 563, 1, -0.5, 611, 1, -0.5
*EQUATION
3
2329, 2, 1.0, 563, 2, -0.5, 611, 2, -0.5
*EQUATION
3
2329, 3, 1.0, 563, 3, -0.5, 611, 3, -0.5
*EQUATION
3
2331, 1, 1.0, 609, 1, -0.5, 611, 1, -0.5
*EQUATION
3
2331, 2, 1.0, 609, 2, -0.5, 611, 2, -0.5
*EQUATION
3
2331, 3, 1.0, 609, 3, -0.5, 611, 3, -0.5
*EQUATION
3
2332, 1, 1.0, 594, 1, -0.5, 611, 1, -0.5
*EQUATION
3
2332, 2, 1.0, 594, 2, -0.5, 611, 2, -0.5
*EQUATION
3
2332, 3, 1.0, 594, 3, -0.5, 611, 3, -0.5
*EQUATION
3
2343, 1, 1.0, 587, 1, -0.5, 635, 1, -0.5
*EQUATION
3
2343, 2, 1.0, 587, 2, -0.5, 635, 2, -0.5
*EQUATION
3
2343, 3, 1.0, 587, 3, -0.5, 635, 3, -0.5
*EQUATION
3
2357, 1, 1.0, 594, 1, -0.5, 642, 1, -0.5
*EQUATION
3
2357, 2, 1.0, 594, 2, -0.5, 642, 2, -0.5
*EQUATION
3
2357, 3, 1.0, 594, 3, -0.5, 642, 3, -0.5
*EQUATION
5
2358, 1, 1.0, 587, 1, -0.25, 635, 1, -0.25, 655, 1, -0.25, 607, 1, -0.25
*EQUATION
5
2358, 2, 1.0, 587, 2, -0.25, 635, 2, -0.25, 655, 2, -0.25, 607, 2, -0.25
*EQUATION
5
2358, 3, 1.0, 587, 3, -0.25, 635, 3, -0.25, 655, 3, -0.25, 607, 3, -0.25
*EQUATION
3
2359, 1, 1.0, 607, 1, -0.5, 655, 1, -0.5
*EQUATION
3
2359, 2, 1.0, 607, 2, -0.5, 655, 2, -0.5
*EQUATION
3
2359, 3, 1.0, 607, 3, -0.5, 655, 3, -0.5
*EQUATION
5
2361, 1, 1.0, 607, 1, -0.25, 655, 1, -0.25, 657, 1, -0.25, 609, 1, -0.25
*EQUATION
5
2361, 2, 1.0, 607, 2, -0.25, 655, 2, -0.25, 657, 2, -0.25, 609, 2, -0.25
*EQUATION
5
2361, 3, 1.0, 607, 3, -0.25, 655, 3, -0.25, 657, 3, -0.25, 609, 3, -0.25
*EQUATION
3
2363, 1, 1.0, 609, 1, -0.5, 657, 1, -0.5
*EQUATION
3
2363, 2, 1.0, 609, 2, -0.5, 657, 2, -0.5
*EQUATION
3
2363, 3, 1.0, 609, 3, -0.5, 657, 3, -0.5
*EQUATION
3
2364, 1, 1.0, 635, 1, -0.5, 655, 1, -0.5
*EQUATION
3
2364, 2, 1.0, 635, 2, -0.5, 655, 2, -0.5
*EQUATION
3
2364, 3, 1.0, 635, 3, -0.5, 655, 3, -0.5
*EQUATION
3
2366, 1, 1.0, 655, 1, -0.5, 657, 1, -0.5
*EQUATION
3
2366, 2, 1.0, 655, 2, -0.5, 657, 2, -0.5
*EQUATION
3
2366, 3, 1.0, 655, 3, -0.5, 657, 3, -0.5
*EQUATION
5
2369, 1, 1.0, 609, 1, -0.25, 657, 1, -0.25, 659, 1, -0.25, 611, 1, -0.25
*EQUATION
5
2369, 2, 1.0, 609, 2, -0.25, 657, 2, -0.25, 659, 2, -0.25, 611, 2, -0.25
*EQUATION
5
2369, 3, 1.0, 609, 3, -0.25, 657, 3, -0.25, 659, 3, -0.25, 611, 3, -0.25
*EQUATION
5
2370, 1, 1.0, 594, 1, -0.25, 642, 1, -0.25, 659, 1, -0.25, 611, 1, -0.25
*EQUATION
5
2370, 2, 1.0, 594, 2, -0.25, 642, 2, -0.25, 659, 2, -0.25, 611, 2, -0.25
*EQUATION
5
2370, 3, 1.0, 594, 3, -0.25, 642, 3, -0.25, 659, 3, -0.25, 611, 3, -0.25
*EQUATION
3
2371, 1, 1.0, 611, 1, -0.5, 659, 1, -0.5
*EQUATION
3
2371, 2, 1.0, 611, 2, -0.5, 659, 2, -0.5
*EQUATION
3
2371, 3, 1.0, 611, 3, -0.5, 659, 3, -0.5
*EQUATION
3
2373, 1, 1.0, 657, 1, -0.5, 659, 1, -0.5
*EQUATION
3
2373, 2, 1.0, 657, 2, -0.5, 659, 2, -0.5
*EQUATION
3
2373, 3, 1.0, 657, 3, -0.5, 659, 3, -0.5
*EQUATION
3
2374, 1, 1.0, 642, 1, -0.5, 659, 1, -0.5
*EQUATION
3
2374, 2, 1.0, 642, 2, -0.5, 659, 2, -0.5
*EQUATION
3
2374, 3, 1.0, 642, 3, -0.5, 659, 3, -0.5
*EQUATION
3
2380, 1, 1.0, 683, 1, -0.5, 703, 1, -0.5
*EQUATION
3
2380, 2, 1.0, 683, 2, -0.5, 703, 2, -0.5
*EQUATION
3
2380, 3, 1.0, 683, 3, -0.5, 703, 3, -0.5
*EQUATION
3
2382, 1, 1.0, 703, 1, -0.5, 705, 1, -0.5
*EQUATION
3
2382, 2, 1.0, 703, 2, -0.5, 705, 2, -0.5
*EQUATION
3
2382, 3, 1.0, 703, 3, -0.5, 705, 3, -0.5
*EQUATION
5
2384, 1, 1.0, 683, 1, -0.25, 731, 1, -0.25, 751, 1, -0.25, 703, 1, -0.25
*EQUATION
5
2384, 2, 1.0, 683, 2, -0.25, 731, 2, -0.25, 751, 2, -0.25, 703, 2, -0.25
*EQUATION
5
2384, 3, 1.0, 683, 3, -0.25, 731, 3, -0.25, 751, 3, -0.25, 703, 3, -0.25
*EQUATION
3
2385, 1, 1.0, 703, 1, -0.5, 751, 1, -0.5
*EQUATION
3
2385, 2, 1.0, 703, 2, -0.5, 751, 2, -0.5
*EQUATION
3
2385, 3, 1.0, 703, 3, -0.5, 751, 3, -0.5
*EQUATION
5
2387, 1, 1.0, 703, 1, -0.25, 751, 1, -0.25, 753, 1, -0.25, 705, 1, -0.25
*EQUATION
5
2387, 2, 1.0, 703, 2, -0.25, 751, 2, -0.25, 753, 2, -0.25, 705, 2, -0.25
*EQUATION
5
2387, 3, 1.0, 703, 3, -0.25, 751, 3, -0.25, 753, 3, -0.25, 705, 3, -0.25
*EQUATION
3
2389, 1, 1.0, 705, 1, -0.5, 753, 1, -0.5
*EQUATION
3
2389, 2, 1.0, 705, 2, -0.5, 753, 2, -0.5
*EQUATION
3
2389, 3, 1.0, 705, 3, -0.5, 753, 3, -0.5
*EQUATION
3
2390, 1, 1.0, 731, 1, -0.5, 751, 1, -0.5
*EQUATION
3
2390, 2, 1.0, 731, 2, -0.5, 751, 2, -0.5
*EQUATION
3
2390, 3, 1.0, 731, 3, -0.5, 751, 3, -0.5
*EQUATION
3
2392, 1, 1.0, 751, 1, -0.5, 753, 1, -0.5
*EQUATION
3
2392, 2, 1.0, 751, 2, -0.5, 753, 2, -0.5
*EQUATION
3
2392, 3, 1.0, 751, 3, -0.5, 753, 3, -0.5
*EQUATION
3
2395, 1, 1.0, 705, 1, -0.5, 707, 1, -0.5
*EQUATION
3
2395, 2, 1.0, 705, 2, -0.5, 707, 2, -0.5
*EQUATION
3
2395, 3, 1.0, 705, 3, -0.5, 707, 3, -0.5
*EQUATION
3
2396, 1, 1.0, 690, 1, -0.5, 707, 1, -0.5
*EQUATION
3
2396, 2, 1.0, 690, 2, -0.5, 707, 2, -0.5
*EQUATION
3
2396, 3, 1.0, 690, 3, -0.5, 707, 3, -0.5
*EQUATION
5
2398, 1, 1.0, 705, 1, -0.25, 753, 1, -0.25, 755, 1, -0.25, 707, 1, -0.25
*EQUATION
5
2398, 2, 1.0, 705, 2, -0.25, 753, 2, -0.25, 755, 2, -0.25, 707, 2, -0.25
*EQUATION
5
2398, 3, 1.0, 705, 3, -0.25, 753, 3, -0.25, 755, 3, -0.25, 707, 3, -0.25
*EQUATION
5
2399, 1, 1.0, 690, 1, -0.25, 738, 1, -0.25, 755, 1, -0.25, 707, 1, -0.25
*EQUATION
5
2399, 2, 1.0, 690, 2, -0.25, 738, 2, -0.25, 755, 2, -0.25, 707, 2, -0.25
*EQUATION
5
2399, 3, 1.0, 690, 3, -0.25, 738, 3, -0.25, 755, 3, -0.25, 707, 3, -0.25
*EQUATION
3
2400, 1, 1.0, 707, 1, -0.5, 755, 1, -0.5
*EQUATION
3
2400, 2, 1.0, 707, 2, -0.5, 755, 2, -0.5
*EQUATION
3
2400, 3, 1.0, 707, 3, -0.5, 755, 3, -0.5
*EQUATION
3
2402, 1, 1.0, 753, 1, -0.5, 755, 1, -0.5
*EQUATION
3
2402, 2, 1.0, 753, 2, -0.5, 755, 2, -0.5
*EQUATION
3
2402, 3, 1.0, 753, 3, -0.5, 755, 3, -0.5
*EQUATION
3
2403, 1, 1.0, 738, 1, -0.5, 755, 1, -0.5
*EQUATION
3
2403, 2, 1.0, 738, 2, -0.5, 755, 2, -0.5
*EQUATION
3
2403, 3, 1.0, 738, 3, -0.5, 755, 3, -0.5
*EQUATION
3
2509, 1, 1.0, 844, 1, -0.5, 845, 1, -0.5
*EQUATION
3
2509, 2, 1.0, 844, 2, -0.5, 845, 2, -0.5
*EQUATION
3
2509, 3, 1.0, 844, 3, -0.5, 845, 3, -0.5
*EQUATION
3
2510, 1, 1.0, 827, 1, -0.5, 844, 1, -0.5
*EQUATION
3
2510, 2, 1.0, 827, 2, -0.5, 844, 2, -0.5
*EQUATION
3
2510, 3, 1.0, 827, 3, -0.5, 844, 3, -0.5
*EQUATION
5
2511, 1, 1.0, 844, 1, -0.25, 827, 1, -0.25, 847, 1, -0.25, 845, 1, -0.25
*EQUATION
5
2511, 2, 1.0, 844, 2, -0.25, 827, 2, -0.25, 847, 2, -0.25, 845, 2, -0.25
*EQUATION
5
2511, 3, 1.0, 844, 3, -0.25, 827, 3, -0.25, 847, 3, -0.25, 845, 3, -0.25
*EQUATION
3
2512, 1, 1.0, 845, 1, -0.5, 847, 1, -0.5
*EQUATION
3
2512, 2, 1.0, 845, 2, -0.5, 847, 2, -0.5
*EQUATION
3
2512, 3, 1.0, 845, 3, -0.5, 847, 3, -0.5
*EQUATION
3
2513, 1, 1.0, 827, 1, -0.5, 847, 1, -0.5
*EQUATION
3
2513, 2, 1.0, 827, 2, -0.5, 847, 2, -0.5
*EQUATION
3
2513, 3, 1.0, 827, 3, -0.5, 847, 3, -0.5
*EQUATION
3
2514, 1, 1.0, 844, 1, -0.5, 892, 1, -0.5
*EQUATION
3
2514, 2, 1.0, 844, 2, -0.5, 892, 2, -0.5
*EQUATION
3
2514, 3, 1.0, 844, 3, -0.5, 892, 3, -0.5
*EQUATION
5
2515, 1, 1.0, 844, 1, -0.25, 892, 1, -0.25, 893, 1, -0.25, 845, 1, -0.25
*EQUATION
5
2515, 2, 1.0, 844, 2, -0.25, 892, 2, -0.25, 893, 2, -0.25, 845, 2, -0.25
*EQUATION
5
2515, 3, 1.0, 844, 3, -0.25, 892, 3, -0.25, 893, 3, -0.25, 845, 3, -0.25
*EQUATION
3
2516, 1, 1.0, 845, 1, -0.5, 893, 1, -0.5
*EQUATION
3
2516, 2, 1.0, 845, 2, -0.5, 893, 2, -0.5
*EQUATION
3
2516, 3, 1.0, 845, 3, -0.5, 893, 3, -0.5
*EQUATION
3
2522, 1, 1.0, 892, 1, -0.5, 893, 1, -0.5
*EQUATION
3
2522, 2, 1.0, 892, 2, -0.5, 893, 2, -0.5
*EQUATION
3
2522, 3, 1.0, 892, 3, -0.5, 893, 3, -0.5
*EQUATION
3
2527, 1, 1.0, 845, 1, -0.5, 846, 1, -0.5
*EQUATION
3
2527, 2, 1.0, 845, 2, -0.5, 846, 2, -0.5
*EQUATION
3
2527, 3, 1.0, 845, 3, -0.5, 846, 3, -0.5
*EQUATION
5
2528, 1, 1.0, 845, 1, -0.25, 847, 1, -0.25, 848, 1, -0.25, 846, 1, -0.25
*EQUATION
5
2528, 2, 1.0, 845, 2, -0.25, 847, 2, -0.25, 848, 2, -0.25, 846, 2, -0.25
*EQUATION
5
2528, 3, 1.0, 845, 3, -0.25, 847, 3, -0.25, 848, 3, -0.25, 846, 3, -0.25
*EQUATION
3
2529, 1, 1.0, 846, 1, -0.5, 848, 1, -0.5
*EQUATION
3
2529, 2, 1.0, 846, 2, -0.5, 848, 2, -0.5
*EQUATION
3
2529, 3, 1.0, 846, 3, -0.5, 848, 3, -0.5
*EQUATION
3
2530, 1, 1.0, 847, 1, -0.5, 848, 1, -0.5
*EQUATION
3
2530, 2, 1.0, 847, 2, -0.5, 848, 2, -0.5
*EQUATION
3
2530, 3, 1.0, 847, 3, -0.5, 848, 3, -0.5
*EQUATION
5
2531, 1, 1.0, 845, 1, -0.25, 893, 1, -0.25, 894, 1, -0.25, 846, 1, -0.25
*EQUATION
5
2531, 2, 1.0, 845, 2, -0.25, 893, 2, -0.25, 894, 2, -0.25, 846, 2, -0.25
*EQUATION
5
2531, 3, 1.0, 845, 3, -0.25, 893, 3, -0.25, 894, 3, -0.25, 846, 3, -0.25
*EQUATION
3
2532, 1, 1.0, 846, 1, -0.5, 894, 1, -0.5
*EQUATION
3
2532, 2, 1.0, 846, 2, -0.5, 894, 2, -0.5
*EQUATION
3
2532, 3, 1.0, 846, 3, -0.5, 894, 3, -0.5
*EQUATION
3
2537, 1, 1.0, 893, 1, -0.5, 894, 1, -0.5
*EQUATION
3
2537, 2, 1.0, 893, 2, -0.5, 894, 2, -0.5
*EQUATION
3
2537, 3, 1.0, 893, 3, -0.5, 894, 3, -0.5
*EQUATION
3
2542, 1, 1.0, 847, 1, -0.5, 849, 1, -0.5
*EQUATION
3
2542, 2, 1.0, 847, 2, -0.5, 849, 2, -0.5
*EQUATION
3
2542, 3, 1.0, 847, 3, -0.5, 849, 3, -0.5
*EQUATION
5
2551, 1, 1.0, 847, 1, -0.25, 849, 1, -0.25, 850, 1, -0.25, 848, 1, -0.25
*EQUATION
5
2551, 2, 1.0, 847, 2, -0.25, 849, 2, -0.25, 850, 2, -0.25, 848, 2, -0.25
*EQUATION
5
2551, 3, 1.0, 847, 3, -0.25, 849, 3, -0.25, 850, 3, -0.25, 848, 3, -0.25
*EQUATION
3
2552, 1, 1.0, 848, 1, -0.5, 850, 1, -0.5
*EQUATION
3
2552, 2, 1.0, 848, 2, -0.5, 850, 2, -0.5
*EQUATION
3
2552, 3, 1.0, 848, 3, -0.5, 850, 3, -0.5
*EQUATION
3
2553, 1, 1.0, 849, 1, -0.5, 850, 1, -0.5
*EQUATION
3
2553, 2, 1.0, 849, 2, -0.5, 850, 2, -0.5
*EQUATION
3
2553, 3, 1.0, 849, 3, -0.5, 850, 3, -0.5
*EQUATION
3
2562, 1, 1.0, 849, 1, -0.5, 851, 1, -0.5
*EQUATION
3
2562, 2, 1.0, 849, 2, -0.5, 851, 2, -0.5
*EQUATION
3
2562, 3, 1.0, 849, 3, -0.5, 851, 3, -0.5
*EQUATION
3
2563, 1, 1.0, 834, 1, -0.5, 851, 1, -0.5
*EQUATION
3
2563, 2, 1.0, 834, 2, -0.5, 851, 2, -0.5
*EQUATION
3
2563, 3, 1.0, 834, 3, -0.5, 851, 3, -0.5
*EQUATION
5
2571, 1, 1.0, 849, 1, -0.25, 851, 1, -0.25, 852, 1, -0.25, 850, 1, -0.25
*EQUATION
5
2571, 2, 1.0, 849, 2, -0.25, 851, 2, -0.25, 852, 2, -0.25, 850, 2, -0.25
*EQUATION
5
2571, 3, 1.0, 849, 3, -0.25, 851, 3, -0.25, 852, 3, -0.25, 850, 3, -0.25
*EQUATION
3
2572, 1, 1.0, 850, 1, -0.5, 852, 1, -0.5
*EQUATION
3
2572, 2, 1.0, 850, 2, -0.5, 852, 2, -0.5
*EQUATION
3
2572, 3, 1.0, 850, 3, -0.5, 852, 3, -0.5
*EQUATION
3
2573, 1, 1.0, 851, 1, -0.5, 852, 1, -0.5
*EQUATION
3
2573, 2, 1.0, 851, 2, -0.5, 852, 2, -0.5
*EQUATION
3
2573, 3, 1.0, 851, 3, -0.5, 852, 3, -0.5
*EQUATION
3
2581, 1, 1.0, 834, 1, -0.5, 853, 1, -0.5
*EQUATION
3
2581, 2, 1.0, 834, 2, -0.5, 853, 2, -0.5
*EQUATION
3
2581, 3, 1.0, 834, 3, -0.5, 853, 3, -0.5
*EQUATION
5
2582, 1, 1.0, 834, 1, -0.25, 853, 1, -0.25, 854, 1, -0.25, 851, 1, -0.25
*EQUATION
5
2582, 2, 1.0, 834, 2, -0.25, 853, 2, -0.25, 854, 2, -0.25, 851, 2, -0.25
*EQUATION
5
2582, 3, 1.0, 834, 3, -0.25, 853, 3, -0.25, 854, 3, -0.25, 851, 3, -0.25
*EQUATION
3
2583, 1, 1.0, 851, 1, -0.5, 854, 1, -0.5
*EQUATION
3
2583, 2, 1.0, 851, 2, -0.5, 854, 2, -0.5
*EQUATION
3
2583, 3, 1.0, 851, 3, -0.5, 854, 3, -0.5
*EQUATION
3
2584, 1, 1.0, 853, 1, -0.5, 854, 1, -0.5
*EQUATION
3
2584, 2, 1.0, 853, 2, -0.5, 854, 2, -0.5
*EQUATION
3
2584, 3, 1.0, 853, 3, -0.5, 854, 3, -0.5
*EQUATION
3
2588, 1, 1.0, 853, 1, -0.5, 901, 1, -0.5
*EQUATION
3
2588, 2, 1.0, 853, 2, -0.5, 901, 2, -0.5
*EQUATION
3
2588, 3, 1.0, 853, 3, -0.5, 901, 3, -0.5
*EQUATION
5
2589, 1, 1.0, 853, 1, -0.25, 901, 1, -0.25, 902, 1, -0.25, 854, 1, -0.25
*EQUATION
5
2589, 2, 1.0, 853, 2, -0.25, 901, 2, -0.25, 902, 2, -0.25, 854, 2, -0.25
*EQUATION
5
2589, 3, 1.0, 853, 3, -0.25, 901, 3, -0.25, 902, 3, -0.25, 854, 3, -0.25
*EQUATION
3
2590, 1, 1.0, 854, 1, -0.5, 902, 1, -0.5
*EQUATION
3
2590, 2, 1.0, 854, 2, -0.5, 902, 2, -0.5
*EQUATION
3
2590, 3, 1.0, 854, 3, -0.5, 902, 3, -0.5
*EQUATION
3
2594, 1, 1.0, 901, 1, -0.5, 902, 1, -0.5
*EQUATION
3
2594, 2, 1.0, 901, 2, -0.5, 902, 2, -0.5
*EQUATION
3
2594, 3, 1.0, 901, 3, -0.5, 902, 3, -0.5
*EQUATION
5
2595, 1, 1.0, 851, 1, -0.25, 854, 1, -0.25, 855, 1, -0.25, 852, 1, -0.25
*EQUATION
5
2595, 2, 1.0, 851, 2, -0.25, 854, 2, -0.25, 855, 2, -0.25, 852, 2, -0.25
*EQUATION
5
2595, 3, 1.0, 851, 3, -0.25, 854, 3, -0.25, 855, 3, -0.25, 852, 3, -0.25
*EQUATION
3
2596, 1, 1.0, 852, 1, -0.5, 855, 1, -0.5
*EQUATION
3
2596, 2, 1.0, 852, 2, -0.5, 855, 2, -0.5
*EQUATION
3
2596, 3, 1.0, 852, 3, -0.5, 855, 3, -0.5
*EQUATION
3
2597, 1, 1.0, 854, 1, -0.5, 855, 1, -0.5
*EQUATION
3
2597, 2, 1.0, 854, 2, -0.5, 855, 2, -0.5
*EQUATION
3
2597, 3, 1.0, 854, 3, -0.5, 855, 3, -0.5
*EQUATION
5
2600, 1, 1.0, 854, 1, -0.25, 902, 1, -0.25, 903, 1, -0.25, 855, 1, -0.25
*EQUATION
5
2600, 2, 1.0, 854, 2, -0.25, 902, 2, -0.25, 903, 2, -0.25, 855, 2, -0.25
*EQUATION
5
2600, 3, 1.0, 854, 3, -0.25, 902, 3, -0.25, 903, 3, -0.25, 855, 3, -0.25
*EQUATION
3
2601, 1, 1.0, 855, 1, -0.5, 903, 1, -0.5
*EQUATION
3
2601, 2, 1.0, 855, 2, -0.5, 903, 2, -0.5
*EQUATION
3
2601, 3, 1.0, 855, 3, -0.5, 903, 3, -0.5
*EQUATION
3
2604, 1, 1.0, 902, 1, -0.5, 903, 1, -0.5
*EQUATION
3
2604, 2, 1.0, 902, 2, -0.5, 903, 2, -0.5
*EQUATION
3
2604, 3, 1.0, 902, 3, -0.5, 903, 3, -0.5
*EQUATION
3
2623, 1, 1.0, 21, 1, -0.5, 22, 1, -0.5
*EQUATION
3
2623, 2, 1.0, 21, 2, -0.5, 22, 2, -0.5
*EQUATION
3
2623, 3, 1.0, 21, 3, -0.5, 22, 3, -0.5
*EQUATION
3
2643, 1, 1.0, 35, 1, -0.5, 36, 1, -0.5
*EQUATION
3
2643, 2, 1.0, 35, 2, -0.5, 36, 2, -0.5
*EQUATION
3
2643, 3, 1.0, 35, 3, -0.5, 36, 3, -0.5
*EQUATION
3
2673, 1, 1.0, 107, 1, -0.5, 155, 1, -0.5
*EQUATION
3
2673, 2, 1.0, 107, 2, -0.5, 155, 2, -0.5
*EQUATION
3
2673, 3, 1.0, 107, 3, -0.5, 155, 3, -0.5
*EQUATION
3
2697, 1, 1.0, 114, 1, -0.5, 162, 1, -0.5
*EQUATION
3
2697, 2, 1.0, 114, 2, -0.5, 162, 2, -0.5
*EQUATION
3
2697, 3, 1.0, 114, 3, -0.5, 162, 3, -0.5
*EQUATION
3
2714, 1, 1.0, 155, 1, -0.5, 203, 1, -0.5
*EQUATION
3
2714, 2, 1.0, 155, 2, -0.5, 203, 2, -0.5
*EQUATION
3
2714, 3, 1.0, 155, 3, -0.5, 203, 3, -0.5
*EQUATION
3
2738, 1, 1.0, 162, 1, -0.5, 210, 1, -0.5
*EQUATION
3
2738, 2, 1.0, 162, 2, -0.5, 210, 2, -0.5
*EQUATION
3
2738, 3, 1.0, 162, 3, -0.5, 210, 3, -0.5
*EQUATION
3
2755, 1, 1.0, 203, 1, -0.5, 251, 1, -0.5
*EQUATION
3
2755, 2, 1.0, 203, 2, -0.5, 251, 2, -0.5
*EQUATION
3
2755, 3, 1.0, 203, 3, -0.5, 251, 3, -0.5
*EQUATION
3
2774, 1, 1.0, 210, 1, -0.5, 258, 1, -0.5
*EQUATION
3
2774, 2, 1.0, 210, 2, -0.5, 258, 2, -0.5
*EQUATION
3
2774, 3, 1.0, 210, 3, -0.5, 258, 3, -0.5
*EQUATION
3
2816, 1, 1.0, 251, 1, -0.5, 271, 1, -0.5
*EQUATION
3
2816, 2, 1.0, 251, 2, -0.5, 271, 2, -0.5
*EQUATION
3
2816, 3, 1.0, 251, 3, -0.5, 271, 3, -0.5
*EQUATION
3
2818, 1, 1.0, 271, 1, -0.5, 273, 1, -0.5
*EQUATION
3
2818, 2, 1.0, 271, 2, -0.5, 273, 2, -0.5
*EQUATION
3
2818, 3, 1.0, 271, 3, -0.5, 273, 3, -0.5
*EQUATION
5
2820, 1, 1.0, 251, 1, -0.25, 299, 1, -0.25, 319, 1, -0.25, 271, 1, -0.25
*EQUATION
5
2820, 2, 1.0, 251, 2, -0.25, 299, 2, -0.25, 319, 2, -0.25, 271, 2, -0.25
*EQUATION
5
2820, 3, 1.0, 251, 3, -0.25, 299, 3, -0.25, 319, 3, -0.25, 271, 3, -0.25
*EQUATION
3
2821, 1, 1.0, 271, 1, -0.5, 319, 1, -0.5
*EQUATION
3
2821, 2, 1.0, 271, 2, -0.5, 319, 2, -0.5
*EQUATION
3
2821, 3, 1.0, 271, 3, -0.5, 319, 3, -0.5
*EQUATION
5
2823, 1, 1.0, 271, 1, -0.25, 319, 1, -0.25, 321, 1, -0.25, 273, 1, -0.25
*EQUATION
5
2823, 2, 1.0, 271, 2, -0.25, 319, 2, -0.25, 321, 2, -0.25, 273, 2, -0.25
*EQUATION
5
2823, 3, 1.0, 271, 3, -0.25, 319, 3, -0.25, 321, 3, -0.25, 273, 3, -0.25
*EQUATION
3
2825, 1, 1.0, 273, 1, -0.5, 321, 1, -0.5
*EQUATION
3
2825, 2, 1.0, 273, 2, -0.5, 321, 2, -0.5
*EQUATION
3
2825, 3, 1.0, 273, 3, -0.5, 321, 3, -0.5
*EQUATION
3
2826, 1, 1.0, 299, 1, -0.5, 319, 1, -0.5
*EQUATION
3
2826, 2, 1.0, 299, 2, -0.5, 319, 2, -0.5
*EQUATION
3
2826, 3, 1.0, 299, 3, -0.5, 319, 3, -0.5
*EQUATION
3
2828, 1, 1.0, 319, 1, -0.5, 321, 1, -0.5
*EQUATION
3
2828, 2, 1.0, 319, 2, -0.5, 321, 2, -0.5
*EQUATION
3
2828, 3, 1.0, 319, 3, -0.5, 321, 3, -0.5
*EQUATION
3
2831, 1, 1.0, 273, 1, -0.5, 275, 1, -0.5
*EQUATION
3
2831, 2, 1.0, 273, 2, -0.5, 275, 2, -0.5
*EQUATION
3
2831, 3, 1.0, 273, 3, -0.5, 275, 3, -0.5
*EQUATION
3
2832, 1, 1.0, 258, 1, -0.5, 275, 1, -0.5
*EQUATION
3
2832, 2, 1.0, 258, 2, -0.5, 275, 2, -0.5
*EQUATION
3
2832, 3, 1.0, 258, 3, -0.5, 275, 3, -0.5
*EQUATION
5
2834, 1, 1.0, 273, 1, -0.25, 321, 1, -0.25, 323, 1, -0.25, 275, 1, -0.25
*EQUATION
5
2834, 2, 1.0, 273, 2, -0.25, 321, 2, -0.25, 323, 2, -0.25, 275, 2, -0.25
*EQUATION
5
2834, 3, 1.0, 273, 3, -0.25, 321, 3, -0.25, 323, 3, -0.25, 275, 3, -0.25
*EQUATION
5
2835, 1, 1.0, 258, 1, -0.25, 306, 1, -0.25, 323, 1, -0.25, 275, 1, -0.25
*EQUATION
5
2835, 2, 1.0, 258, 2, -0.25, 306, 2, -0.25, 323, 2, -0.25, 275, 2, -0.25
*EQUATION
5
2835, 3, 1.0, 258, 3, -0.25, 306, 3, -0.25, 323, 3, -0.25, 275, 3, -0.25
*EQUATION
3
2836, 1, 1.0, 275, 1, -0.5, 323, 1, -0.5
*EQUATION
3
2836, 2, 1.0, 275, 2, -0.5, 323, 2, -0.5
*EQUATION
3
2836, 3, 1.0, 275, 3, -0.5, 323, 3, -0.5
*EQUATION
3
2838, 1, 1.0, 321, 1, -0.5, 323, 1, -0.5
*EQUATION
3
2838, 2, 1.0, 321, 2, -0.5, 323, 2, -0.5
*EQUATION
3
2838, 3, 1.0, 321, 3, -0.5, 323, 3, -0.5
*EQUATION
3
2839, 1, 1.0, 306, 1, -0.5, 323, 1, -0.5
*EQUATION
3
2839, 2, 1.0, 306, 2, -0.5, 323, 2, -0.5
*EQUATION
3
2839, 3, 1.0, 306, 3, -0.5, 323, 3, -0.5
*EQUATION
3
2856, 1, 1.0, 1966, 1, -0.5, 1967, 1, -0.5
*EQUATION
3
2856, 2, 1.0, 1966, 2, -0.5, 1967, 2, -0.5
*EQUATION
3
2856, 3, 1.0, 1966, 3, -0.5, 1967, 3, -0.5
*EQUATION
3
2857, 1, 1.0, 301, 1, -0.5, 1966, 1, -0.5
*EQUATION
3
2857, 2, 1.0, 301, 2, -0.5, 1966, 2, -0.5
*EQUATION
3
2857, 3, 1.0, 301, 3, -0.5, 1966, 3, -0.5
*EQUATION
5
2858, 1, 1.0, 1966, 1, -0.25, 301, 1, -0.25, 1969, 1, -0.25, 1967, 1, -0.25
*EQUATION
5
2858, 2, 1.0, 1966, 2, -0.25, 301, 2, -0.25, 1969, 2, -0.25, 1967, 2, -0.25
*EQUATION
5
2858, 3, 1.0, 1966, 3, -0.25, 301, 3, -0.25, 1969, 3, -0.25, 1967, 3, -0.25
*EQUATION
3
2859, 1, 1.0, 1967, 1, -0.5, 1969, 1, -0.5
*EQUATION
3
2859, 2, 1.0, 1967, 2, -0.5, 1969, 2, -0.5
*EQUATION
3
2859, 3, 1.0, 1967, 3, -0.5, 1969, 3, -0.5
*EQUATION
3
2860, 1, 1.0, 301, 1, -0.5, 1969, 1, -0.5
*EQUATION
3
2860, 2, 1.0, 301, 2, -0.5, 1969, 2, -0.5
*EQUATION
3
2860, 3, 1.0, 301, 3, -0.5, 1969, 3, -0.5
*EQUATION
3
2861, 1, 1.0, 1966, 1, -0.5, 2007, 1, -0.5
*EQUATION
3
2861, 2, 1.0, 1966, 2, -0.5, 2007, 2, -0.5
*EQUATION
3
2861, 3, 1.0, 1966, 3, -0.5, 2007, 3, -0.5
*EQUATION
5
2862, 1, 1.0, 1966, 1, -0.25, 2007, 1, -0.25, 2008, 1, -0.25, 1967, 1, -0.25
*EQUATION
5
2862, 2, 1.0, 1966, 2, -0.25, 2007, 2, -0.25, 2008, 2, -0.25, 1967, 2, -0.25
*EQUATION
5
2862, 3, 1.0, 1966, 3, -0.25, 2007, 3, -0.25, 2008, 3, -0.25, 1967, 3, -0.25
*EQUATION
3
2863, 1, 1.0, 1967, 1, -0.5, 2008, 1, -0.5
*EQUATION
3
2863, 2, 1.0, 1967, 2, -0.5, 2008, 2, -0.5
*EQUATION
3
2863, 3, 1.0, 1967, 3, -0.5, 2008, 3, -0.5
*EQUATION
5
2866, 1, 1.0, 1967, 1, -0.25, 2008, 1, -0.25, 2011, 1, -0.25, 1969, 1, -0.25
*EQUATION
5
2866, 2, 1.0, 1967, 2, -0.25, 2008, 2, -0.25, 2011, 2, -0.25, 1969, 2, -0.25
*EQUATION
5
2866, 3, 1.0, 1967, 3, -0.25, 2008, 3, -0.25, 2011, 3, -0.25, 1969, 3, -0.25
*EQUATION
3
2869, 1, 1.0, 1969, 1, -0.5, 2011, 1, -0.5
*EQUATION
3
2869, 2, 1.0, 1969, 2, -0.5, 2011, 2, -0.5
*EQUATION
3
2869, 3, 1.0, 1969, 3, -0.5, 2011, 3, -0.5
*EQUATION
3
2870, 1, 1.0, 2007, 1, -0.5, 2008, 1, -0.5
*EQUATION
3
2870, 2, 1.0, 2007, 2, -0.5, 2008, 2, -0.5
*EQUATION
3
2870, 3, 1.0, 2007, 3, -0.5, 2008, 3, -0.5
*EQUATION
3
2871, 1, 1.0, 2007, 1, -0.5, 2010, 1, -0.5
*EQUATION
3
2871, 2, 1.0, 2007, 2, -0.5, 2010, 2, -0.5
*EQUATION
3
2871, 3, 1.0, 2007, 3, -0.5, 2010, 3, -0.5
*EQUATION
5
2872, 1, 1.0, 2007, 1, -0.25, 2010, 1, -0.25, 2011, 1, -0.25, 2008, 1, -0.25
*EQUATION
5
2872, 2, 1.0, 2007, 2, -0.25, 2010, 2, -0.25, 2011, 2, -0.25, 2008, 2, -0.25
*EQUATION
5
2872, 3, 1.0, 2007, 3, -0.25, 2010, 3, -0.25, 2011, 3, -0.25, 2008, 3, -0.25
*EQUATION
3
2873, 1, 1.0, 2008, 1, -0.5, 2011, 1, -0.5
*EQUATION
3
2873, 2, 1.0, 2008, 2, -0.5, 2011, 2, -0.5
*EQUATION
3
2873, 3, 1.0, 2008, 3, -0.5, 2011, 3, -0.5
*EQUATION
3
2874, 1, 1.0, 2010, 1, -0.5, 2011, 1, -0.5
*EQUATION
3
2874, 2, 1.0, 2010, 2, -0.5, 2011, 2, -0.5
*EQUATION
3
2874, 3, 1.0, 2010, 3, -0.5, 2011, 3, -0.5
*EQUATION
5
2886, 1, 1.0, 299, 1, -0.25, 347, 1, -0.25, 367, 1, -0.25, 319, 1, -0.25
*EQUATION
5
2886, 2, 1.0, 299, 2, -0.25, 347, 2, -0.25, 367, 2, -0.25, 319, 2, -0.25
*EQUATION
5
2886, 3, 1.0, 299, 3, -0.25, 347, 3, -0.25, 367, 3, -0.25, 319, 3, -0.25
*EQUATION
3
2887, 1, 1.0, 319, 1, -0.5, 367, 1, -0.5
*EQUATION
3
2887, 2, 1.0, 319, 2, -0.5, 367, 2, -0.5
*EQUATION
3
2887, 3, 1.0, 319, 3, -0.5, 367, 3, -0.5
*EQUATION
5
2889, 1, 1.0, 319, 1, -0.25, 367, 1, -0.25, 369, 1, -0.25, 321, 1, -0.25
*EQUATION
5
2889, 2, 1.0, 319, 2, -0.25, 367, 2, -0.25, 369, 2, -0.25, 321, 2, -0.25
*EQUATION
5
2889, 3, 1.0, 319, 3, -0.25, 367, 3, -0.25, 369, 3, -0.25, 321, 3, -0.25
*EQUATION
3
2891, 1, 1.0, 321, 1, -0.5, 369, 1, -0.5
*EQUATION
3
2891, 2, 1.0, 321, 2, -0.5, 369, 2, -0.5
*EQUATION
3
2891, 3, 1.0, 321, 3, -0.5, 369, 3, -0.5
*EQUATION
3
2892, 1, 1.0, 347, 1, -0.5, 367, 1, -0.5
*EQUATION
3
2892, 2, 1.0, 347, 2, -0.5, 367, 2, -0.5
*EQUATION
3
2892, 3, 1.0, 347, 3, -0.5, 367, 3, -0.5
*EQUATION
3
2894, 1, 1.0, 367, 1, -0.5, 369, 1, -0.5
*EQUATION
3
2894, 2, 1.0, 367, 2, -0.5, 369, 2, -0.5
*EQUATION
3
2894, 3, 1.0, 367, 3, -0.5, 369, 3, -0.5
*EQUATION
5
2897, 1, 1.0, 321, 1, -0.25, 369, 1, -0.25, 371, 1, -0.25, 323, 1, -0.25
*EQUATION
5
2897, 2, 1.0, 321, 2, -0.25, 369, 2, -0.25, 371, 2, -0.25, 323, 2, -0.25
*EQUATION
5
2897, 3, 1.0, 321, 3, -0.25, 369, 3, -0.25, 371, 3, -0.25, 323, 3, -0.25
*EQUATION
5
2898, 1, 1.0, 306, 1, -0.25, 354, 1, -0.25, 371, 1, -0.25, 323, 1, -0.25
*EQUATION
5
2898, 2, 1.0, 306, 2, -0.25, 354, 2, -0.25, 371, 2, -0.25, 323, 2, -0.25
*EQUATION
5
2898, 3, 1.0, 306, 3, -0.25, 354, 3, -0.25, 371, 3, -0.25, 323, 3, -0.25
*EQUATION
3
2899, 1, 1.0, 323, 1, -0.5, 371, 1, -0.5
*EQUATION
3
2899, 2, 1.0, 323, 2, -0.5, 371, 2, -0.5
*EQUATION
3
2899, 3, 1.0, 323, 3, -0.5, 371, 3, -0.5
*EQUATION
3
2901, 1, 1.0, 369, 1, -0.5, 371, 1, -0.5
*EQUATION
3
2901, 2, 1.0, 369, 2, -0.5, 371, 2, -0.5
*EQUATION
3
2901, 3, 1.0, 369, 3, -0.5, 371, 3, -0.5
*EQUATION
3
2902, 1, 1.0, 354, 1, -0.5, 371, 1, -0.5
*EQUATION
3
2902, 2, 1.0, 354, 2, -0.5, 371, 2, -0.5
*EQUATION
3
2902, 3, 1.0, 354, 3, -0.5, 371, 3, -0.5
*EQUATION
5
2935, 1, 1.0, 347, 1, -0.25, 395, 1, -0.25, 415, 1, -0.25, 367, 1, -0.25
*EQUATION
5
2935, 2, 1.0, 347, 2, -0.25, 395, 2, -0.25, 415, 2, -0.25, 367, 2, -0.25
*EQUATION
5
2935, 3, 1.0, 347, 3, -0.25, 395, 3, -0.25, 415, 3, -0.25, 367, 3, -0.25
*EQUATION
3
2936, 1, 1.0, 367, 1, -0.5, 415, 1, -0.5
*EQUATION
3
2936, 2, 1.0, 367, 2, -0.5, 415, 2, -0.5
*EQUATION
3
2936, 3, 1.0, 367, 3, -0.5, 415, 3, -0.5
*EQUATION
5
2938, 1, 1.0, 367, 1, -0.25, 415, 1, -0.25, 417, 1, -0.25, 369, 1, -0.25
*EQUATION
5
2938, 2, 1.0, 367, 2, -0.25, 415, 2, -0.25, 417, 2, -0.25, 369, 2, -0.25
*EQUATION
5
2938, 3, 1.0, 367, 3, -0.25, 415, 3, -0.25, 417, 3, -0.25, 369, 3, -0.25
*EQUATION
3
2940, 1, 1.0, 369, 1, -0.5, 417, 1, -0.5
*EQUATION
3
2940, 2, 1.0, 369, 2, -0.5, 417, 2, -0.5
*EQUATION
3
2940, 3, 1.0, 369, 3, -0.5, 417, 3, -0.5
*EQUATION
3
2941, 1, 1.0, 395, 1, -0.5, 415, 1, -0.5
*EQUATION
3
2941, 2, 1.0, 395, 2, -0.5, 415, 2, -0.5
*EQUATION
3
2941, 3, 1.0, 395, 3, -0.5, 415, 3, -0.5
*EQUATION
3
2943, 1, 1.0, 415, 1, -0.5, 417, 1, -0.5
*EQUATION
3
2943, 2, 1.0, 415, 2, -0.5, 417, 2, -0.5
*EQUATION
3
2943, 3, 1.0, 415, 3, -0.5, 417, 3, -0.5
*EQUATION
5
2946, 1, 1.0, 369, 1, -0.25, 417, 1, -0.25, 419, 1, -0.25, 371, 1, -0.25
*EQUATION
5
2946, 2, 1.0, 369, 2, -0.25, 417, 2, -0.25, 419, 2, -0.25, 371, 2, -0.25
*EQUATION
5
2946, 3, 1.0, 369, 3, -0.25, 417, 3, -0.25, 419, 3, -0.25, 371, 3, -0.25
*EQUATION
5
2947, 1, 1.0, 354, 1, -0.25, 402, 1, -0.25, 419, 1, -0.25, 371, 1, -0.25
*EQUATION
5
2947, 2, 1.0, 354, 2, -0.25, 402, 2, -0.25, 419, 2, -0.25, 371, 2, -0.25
*EQUATION
5
2947, 3, 1.0, 354, 3, -0.25, 402, 3, -0.25, 419, 3, -0.25, 371, 3, -0.25
*EQUATION
3
2948, 1, 1.0, 371, 1, -0.5, 419, 1, -0.5
*EQUATION
3
2948, 2, 1.0, 371, 2, -0.5, 419, 2, -0.5
*EQUATION
3
2948, 3, 1.0, 371, 3, -0.5, 419, 3, -0.5
*EQUATION
3
2950, 1, 1.0, 417, 1, -0.5, 419, 1, -0.5
*EQUATION
3
2950, 2, 1.0, 417, 2, -0.5, 419, 2, -0.5
*EQUATION
3
2950, 3, 1.0, 417, 3, -0.5, 419, 3, -0.5
*EQUATION
3
2951, 1, 1.0, 402, 1, -0.5, 419, 1, -0.5
*EQUATION
3
2951, 2, 1.0, 402, 2, -0.5, 419, 2, -0.5
*EQUATION
3
2951, 3, 1.0, 402, 3, -0.5, 419, 3, -0.5
*EQUATION
5
2975, 1, 1.0, 395, 1, -0.25, 443, 1, -0.25, 463, 1, -0.25, 415, 1, -0.25
*EQUATION
5
2975, 2, 1.0, 395, 2, -0.25, 443, 2, -0.25, 463, 2, -0.25, 415, 2, -0.25
*EQUATION
5
2975, 3, 1.0, 395, 3, -0.25, 443, 3, -0.25, 463, 3, -0.25, 415, 3, -0.25
*EQUATION
3
2976, 1, 1.0, 415, 1, -0.5, 463, 1, -0.5
*EQUATION
3
2976, 2, 1.0, 415, 2, -0.5, 463, 2, -0.5
*EQUATION
3
2976, 3, 1.0, 415, 3, -0.5, 463, 3, -0.5
*EQUATION
5
2978, 1, 1.0, 415, 1, -0.25, 463, 1, -0.25, 465, 1, -0.25, 417, 1, -0.25
*EQUATION
5
2978, 2, 1.0, 415, 2, -0.25, 463, 2, -0.25, 465, 2, -0.25, 417, 2, -0.25
*EQUATION
5
2978, 3, 1.0, 415, 3, -0.25, 463, 3, -0.25, 465, 3, -0.25, 417, 3, -0.25
*EQUATION
3
2980, 1, 1.0, 417, 1, -0.5, 465, 1, -0.5
*EQUATION
3
2980, 2, 1.0, 417, 2, -0.5, 465, 2, -0.5
*EQUATION
3
2980, 3, 1.0, 417, 3, -0.5, 465, 3, -0.5
*EQUATION
3
2981, 1, 1.0, 443, 1, -0.5, 463, 1, -0.5
*EQUATION
3
2981, 2, 1.0, 443, 2, -0.5, 463, 2, -0.5
*EQUATION
3
2981, 3, 1.0, 443, 3, -0.5, 463, 3, -0.5
*EQUATION
3
2983, 1, 1.0, 463, 1, -0.5, 465, 1, -0.5
*EQUATION
3
2983, 2, 1.0, 463, 2, -0.5, 465, 2, -0.5
*EQUATION
3
2983, 3, 1.0, 463, 3, -0.5, 465, 3, -0.5
*EQUATION
5
2986, 1, 1.0, 417, 1, -0.25, 465, 1, -0.25, 467, 1, -0.25, 419, 1, -0.25
*EQUATION
5
2986, 2, 1.0, 417, 2, -0.25, 465, 2, -0.25, 467, 2, -0.25, 419, 2, -0.25
*EQUATION
5
2986, 3, 1.0, 417, 3, -0.25, 465, 3, -0.25, 467, 3, -0.25, 419, 3, -0.25
*EQUATION
5
2987, 1, 1.0, 402, 1, -0.25, 450, 1, -0.25, 467, 1, -0.25, 419, 1, -0.25
*EQUATION
5
2987, 2, 1.0, 402, 2, -0.25, 450, 2, -0.25, 467, 2, -0.25, 419, 2, -0.25
*EQUATION
5
2987, 3, 1.0, 402, 3, -0.25, 450, 3, -0.25, 467, 3, -0.25, 419, 3, -0.25
*EQUATION
3
2988, 1, 1.0, 419, 1, -0.5, 467, 1, -0.5
*EQUATION
3
2988, 2, 1.0, 419, 2, -0.5, 467, 2, -0.5
*EQUATION
3
2988, 3, 1.0, 419, 3, -0.5, 467, 3, -0.5
*EQUATION
3
2990, 1, 1.0, 465, 1, -0.5, 467, 1, -0.5
*EQUATION
3
2990, 2, 1.0, 465, 2, -0.5, 467, 2, -0.5
*EQUATION
3
2990, 3, 1.0, 465, 3, -0.5, 467, 3, -0.5
*EQUATION
3
2991, 1, 1.0, 450, 1, -0.5, 467, 1, -0.5
*EQUATION
3
2991, 2, 1.0, 450, 2, -0.5, 467, 2, -0.5
*EQUATION
3
2991, 3, 1.0, 450, 3, -0.5, 467, 3, -0.5
*EQUATION
5
3006, 1, 1.0, 443, 1, -0.25, 491, 1, -0.25, 511, 1, -0.25, 463, 1, -0.25
*EQUATION
5
3006, 2, 1.0, 443, 2, -0.25, 491, 2, -0.25, 511, 2, -0.25, 463, 2, -0.25
*EQUATION
5
3006, 3, 1.0, 443, 3, -0.25, 491, 3, -0.25, 511, 3, -0.25, 463, 3, -0.25
*EQUATION
3
3007, 1, 1.0, 463, 1, -0.5, 511, 1, -0.5
*EQUATION
3
3007, 2, 1.0, 463, 2, -0.5, 511, 2, -0.5
*EQUATION
3
3007, 3, 1.0, 463, 3, -0.5, 511, 3, -0.5
*EQUATION
5
3009, 1, 1.0, 463, 1, -0.25, 511, 1, -0.25, 513, 1, -0.25, 465, 1, -0.25
*EQUATION
5
3009, 2, 1.0, 463, 2, -0.25, 511, 2, -0.25, 513, 2, -0.25, 465, 2, -0.25
*EQUATION
5
3009, 3, 1.0, 463, 3, -0.25, 511, 3, -0.25, 513, 3, -0.25, 465, 3, -0.25
*EQUATION
3
3011, 1, 1.0, 465, 1, -0.5, 513, 1, -0.5
*EQUATION
3
3011, 2, 1.0, 465, 2, -0.5, 513, 2, -0.5
*EQUATION
3
3011, 3, 1.0, 465, 3, -0.5, 513, 3, -0.5
*EQUATION
5
3013, 1, 1.0, 465, 1, -0.25, 513, 1, -0.25, 515, 1, -0.25, 467, 1, -0.25
*EQUATION
5
3013, 2, 1.0, 465, 2, -0.25, 513, 2, -0.25, 515, 2, -0.25, 467, 2, -0.25
*EQUATION
5
3013, 3, 1.0, 465, 3, -0.25, 513, 3, -0.25, 515, 3, -0.25, 467, 3, -0.25
*EQUATION
5
3014, 1, 1.0, 450, 1, -0.25, 498, 1, -0.25, 515, 1, -0.25, 467, 1, -0.25
*EQUATION
5
3014, 2, 1.0, 450, 2, -0.25, 498, 2, -0.25, 515, 2, -0.25, 467, 2, -0.25
*EQUATION
5
3014, 3, 1.0, 450, 3, -0.25, 498, 3, -0.25, 515, 3, -0.25, 467, 3, -0.25
*EQUATION
3
3015, 1, 1.0, 467, 1, -0.5, 515, 1, -0.5
*EQUATION
3
3015, 2, 1.0, 467, 2, -0.5, 515, 2, -0.5
*EQUATION
3
3015, 3, 1.0, 467, 3, -0.5, 515, 3, -0.5
*EQUATION
3
3019, 1, 1.0, 491, 1, -0.5, 2187, 1, -0.5
*EQUATION
3
3019, 2, 1.0, 491, 2, -0.5, 2187, 2, -0.5
*EQUATION
3
3019, 3, 1.0, 491, 3, -0.5, 2187, 3, -0.5
*EQUATION
3
3020, 1, 1.0, 2187, 1, -0.5, 2189, 1, -0.5
*EQUATION
3
3020, 2, 1.0, 2187, 2, -0.5, 2189, 2, -0.5
*EQUATION
3
3020, 3, 1.0, 2187, 3, -0.5, 2189, 3, -0.5
*EQUATION
5
3021, 1, 1.0, 2187, 1, -0.25, 2189, 1, -0.25, 2190, 1, -0.25, 491, 1, -0.25
*EQUATION
5
3021, 2, 1.0, 2187, 2, -0.25, 2189, 2, -0.25, 2190, 2, -0.25, 491, 2, -0.25
*EQUATION
5
3021, 3, 1.0, 2187, 3, -0.25, 2189, 3, -0.25, 2190, 3, -0.25, 491, 3, -0.25
*EQUATION
3
3022, 1, 1.0, 491, 1, -0.5, 2190, 1, -0.5
*EQUATION
3
3022, 2, 1.0, 491, 2, -0.5, 2190, 2, -0.5
*EQUATION
3
3022, 3, 1.0, 491, 3, -0.5, 2190, 3, -0.5
*EQUATION
3
3023, 1, 1.0, 2189, 1, -0.5, 2190, 1, -0.5
*EQUATION
3
3023, 2, 1.0, 2189, 2, -0.5, 2190, 2, -0.5
*EQUATION
3
3023, 3, 1.0, 2189, 3, -0.5, 2190, 3, -0.5
*EQUATION
3
3024, 1, 1.0, 2187, 1, -0.5, 2226, 1, -0.5
*EQUATION
3
3024, 2, 1.0, 2187, 2, -0.5, 2226, 2, -0.5
*EQUATION
3
3024, 3, 1.0, 2187, 3, -0.5, 2226, 3, -0.5
*EQUATION
3
3026, 1, 1.0, 491, 1, -0.5, 2227, 1, -0.5
*EQUATION
3
3026, 2, 1.0, 491, 2, -0.5, 2227, 2, -0.5
*EQUATION
3
3026, 3, 1.0, 491, 3, -0.5, 2227, 3, -0.5
*EQUATION
5
3027, 1, 1.0, 2187, 1, -0.25, 2226, 1, -0.25, 2229, 1, -0.25, 2189, 1, -0.25
*EQUATION
5
3027, 2, 1.0, 2187, 2, -0.25, 2226, 2, -0.25, 2229, 2, -0.25, 2189, 2, -0.25
*EQUATION
5
3027, 3, 1.0, 2187, 3, -0.25, 2226, 3, -0.25, 2229, 3, -0.25, 2189, 3, -0.25
*EQUATION
5
3029, 1, 1.0, 491, 1, -0.25, 2227, 1, -0.25, 2230, 1, -0.25, 2190, 1, -0.25
*EQUATION
5
3029, 2, 1.0, 491, 2, -0.25, 2227, 2, -0.25, 2230, 2, -0.25, 2190, 2, -0.25
*EQUATION
5
3029, 3, 1.0, 491, 3, -0.25, 2227, 3, -0.25, 2230, 3, -0.25, 2190, 3, -0.25
*EQUATION
3
3030, 1, 1.0, 2189, 1, -0.5, 2229, 1, -0.5
*EQUATION
3
3030, 2, 1.0, 2189, 2, -0.5, 2229, 2, -0.5
*EQUATION
3
3030, 3, 1.0, 2189, 3, -0.5, 2229, 3, -0.5
*EQUATION
3
3032, 1, 1.0, 2190, 1, -0.5, 2230, 1, -0.5
*EQUATION
3
3032, 2, 1.0, 2190, 2, -0.5, 2230, 2, -0.5
*EQUATION
3
3032, 3, 1.0, 2190, 3, -0.5, 2230, 3, -0.5
*EQUATION
3
3033, 1, 1.0, 2226, 1, -0.5, 2227, 1, -0.5
*EQUATION
3
3033, 2, 1.0, 2226, 2, -0.5, 2227, 2, -0.5
*EQUATION
3
3033, 3, 1.0, 2226, 3, -0.5, 2227, 3, -0.5
*EQUATION
3
3034, 1, 1.0, 2226, 1, -0.5, 2229, 1, -0.5
*EQUATION
3
3034, 2, 1.0, 2226, 2, -0.5, 2229, 2, -0.5
*EQUATION
3
3034, 3, 1.0, 2226, 3, -0.5, 2229, 3, -0.5
*EQUATION
5
3035, 1, 1.0, 2226, 1, -0.25, 2229, 1, -0.25, 2230, 1, -0.25, 2227, 1, -0.25
*EQUATION
5
3035, 2, 1.0, 2226, 2, -0.25, 2229, 2, -0.25, 2230, 2, -0.25, 2227, 2, -0.25
*EQUATION
5
3035, 3, 1.0, 2226, 3, -0.25, 2229, 3, -0.25, 2230, 3, -0.25, 2227, 3, -0.25
*EQUATION
3
3036, 1, 1.0, 2227, 1, -0.5, 2230, 1, -0.5
*EQUATION
3
3036, 2, 1.0, 2227, 2, -0.5, 2230, 2, -0.5
*EQUATION
3
3036, 3, 1.0, 2227, 3, -0.5, 2230, 3, -0.5
*EQUATION
3
3037, 1, 1.0, 2229, 1, -0.5, 2230, 1, -0.5
*EQUATION
3
3037, 2, 1.0, 2229, 2, -0.5, 2230, 2, -0.5
*EQUATION
3
3037, 3, 1.0, 2229, 3, -0.5, 2230, 3, -0.5
*EQUATION
3
3038, 1, 1.0, 2189, 1, -0.5, 2191, 1, -0.5
*EQUATION
3
3038, 2, 1.0, 2189, 2, -0.5, 2191, 2, -0.5
*EQUATION
3
3038, 3, 1.0, 2189, 3, -0.5, 2191, 3, -0.5
*EQUATION
5
3039, 1, 1.0, 2189, 1, -0.25, 2191, 1, -0.25, 492, 1, -0.25, 2190, 1, -0.25
*EQUATION
5
3039, 2, 1.0, 2189, 2, -0.25, 2191, 2, -0.25, 492, 2, -0.25, 2190, 2, -0.25
*EQUATION
5
3039, 3, 1.0, 2189, 3, -0.25, 2191, 3, -0.25, 492, 3, -0.25, 2190, 3, -0.25
*EQUATION
3
3040, 1, 1.0, 492, 1, -0.5, 2190, 1, -0.5
*EQUATION
3
3040, 2, 1.0, 492, 2, -0.5, 2190, 2, -0.5
*EQUATION
3
3040, 3, 1.0, 492, 3, -0.5, 2190, 3, -0.5
*EQUATION
3
3041, 1, 1.0, 492, 1, -0.5, 2191, 1, -0.5
*EQUATION
3
3041, 2, 1.0, 492, 2, -0.5, 2191, 2, -0.5
*EQUATION
3
3041, 3, 1.0, 492, 3, -0.5, 2191, 3, -0.5
*EQUATION
5
3042, 1, 1.0, 2189, 1, -0.25, 2229, 1, -0.25, 2232, 1, -0.25, 2191, 1, -0.25
*EQUATION
5
3042, 2, 1.0, 2189, 2, -0.25, 2229, 2, -0.25, 2232, 2, -0.25, 2191, 2, -0.25
*EQUATION
5
3042, 3, 1.0, 2189, 3, -0.25, 2229, 3, -0.25, 2232, 3, -0.25, 2191, 3, -0.25
*EQUATION
5
3044, 1, 1.0, 2190, 1, -0.25, 2230, 1, -0.25, 2233, 1, -0.25, 492, 1, -0.25
*EQUATION
5
3044, 2, 1.0, 2190, 2, -0.25, 2230, 2, -0.25, 2233, 2, -0.25, 492, 2, -0.25
*EQUATION
5
3044, 3, 1.0, 2190, 3, -0.25, 2230, 3, -0.25, 2233, 3, -0.25, 492, 3, -0.25
*EQUATION
3
3045, 1, 1.0, 2191, 1, -0.5, 2232, 1, -0.5
*EQUATION
3
3045, 2, 1.0, 2191, 2, -0.5, 2232, 2, -0.5
*EQUATION
3
3045, 3, 1.0, 2191, 3, -0.5, 2232, 3, -0.5
*EQUATION
3
3047, 1, 1.0, 492, 1, -0.5, 2233, 1, -0.5
*EQUATION
3
3047, 2, 1.0, 492, 2, -0.5, 2233, 2, -0.5
*EQUATION
3
3047, 3, 1.0, 492, 3, -0.5, 2233, 3, -0.5
*EQUATION
3
3048, 1, 1.0, 2229, 1, -0.5, 2232, 1, -0.5
*EQUATION
3
3048, 2, 1.0, 2229, 2, -0.5, 2232, 2, -0.5
*EQUATION
3
3048, 3, 1.0, 2229, 3, -0.5, 2232, 3, -0.5
*EQUATION
3
3050, 1, 1.0, 2230, 1, -0.5, 2233, 1, -0.5
*EQUATION
3
3050, 2, 1.0, 2230, 2, -0.5, 2233, 2, -0.5
*EQUATION
3
3050, 3, 1.0, 2230, 3, -0.5, 2233, 3, -0.5
*EQUATION
3
3052, 1, 1.0, 2229, 1, -0.5, 2236, 1, -0.5
*EQUATION
3
3052, 2, 1.0, 2229, 2, -0.5, 2236, 2, -0.5
*EQUATION
3
3052, 3, 1.0, 2229, 3, -0.5, 2236, 3, -0.5
*EQUATION
5
3053, 1, 1.0, 2229, 1, -0.25, 2236, 1, -0.25, 2237, 1, -0.25, 2230, 1, -0.25
*EQUATION
5
3053, 2, 1.0, 2229, 2, -0.25, 2236, 2, -0.25, 2237, 2, -0.25, 2230, 2, -0.25
*EQUATION
5
3053, 3, 1.0, 2229, 3, -0.25, 2236, 3, -0.25, 2237, 3, -0.25, 2230, 3, -0.25
*EQUATION
3
3054, 1, 1.0, 2230, 1, -0.5, 2237, 1, -0.5
*EQUATION
3
3054, 2, 1.0, 2230, 2, -0.5, 2237, 2, -0.5
*EQUATION
3
3054, 3, 1.0, 2230, 3, -0.5, 2237, 3, -0.5
*EQUATION
5
3055, 1, 1.0, 2229, 1, -0.25, 2236, 1, -0.25, 2238, 1, -0.25, 2232, 1, -0.25
*EQUATION
5
3055, 2, 1.0, 2229, 2, -0.25, 2236, 2, -0.25, 2238, 2, -0.25, 2232, 2, -0.25
*EQUATION
5
3055, 3, 1.0, 2229, 3, -0.25, 2236, 3, -0.25, 2238, 3, -0.25, 2232, 3, -0.25
*EQUATION
5
3057, 1, 1.0, 2230, 1, -0.25, 2237, 1, -0.25, 540, 1, -0.25, 2233, 1, -0.25
*EQUATION
5
3057, 2, 1.0, 2230, 2, -0.25, 2237, 2, -0.25, 540, 2, -0.25, 2233, 2, -0.25
*EQUATION
5
3057, 3, 1.0, 2230, 3, -0.25, 2237, 3, -0.25, 540, 3, -0.25, 2233, 3, -0.25
*EQUATION
3
3058, 1, 1.0, 2232, 1, -0.5, 2238, 1, -0.5
*EQUATION
3
3058, 2, 1.0, 2232, 2, -0.5, 2238, 2, -0.5
*EQUATION
3
3058, 3, 1.0, 2232, 3, -0.5, 2238, 3, -0.5
*EQUATION
3
3060, 1, 1.0, 540, 1, -0.5, 2233, 1, -0.5
*EQUATION
3
3060, 2, 1.0, 540, 2, -0.5, 2233, 2, -0.5
*EQUATION
3
3060, 3, 1.0, 540, 3, -0.5, 2233, 3, -0.5
*EQUATION
3
3061, 1, 1.0, 2236, 1, -0.5, 2237, 1, -0.5
*EQUATION
3
3061, 2, 1.0, 2236, 2, -0.5, 2237, 2, -0.5
*EQUATION
3
3061, 3, 1.0, 2236, 3, -0.5, 2237, 3, -0.5
*EQUATION
3
3062, 1, 1.0, 2236, 1, -0.5, 2238, 1, -0.5
*EQUATION
3
3062, 2, 1.0, 2236, 2, -0.5, 2238, 2, -0.5
*EQUATION
3
3062, 3, 1.0, 2236, 3, -0.5, 2238, 3, -0.5
*EQUATION
3
3064, 1, 1.0, 540, 1, -0.5, 2237, 1, -0.5
*EQUATION
3
3064, 2, 1.0, 540, 2, -0.5, 2237, 2, -0.5
*EQUATION
3
3064, 3, 1.0, 540, 3, -0.5, 2237, 3, -0.5
*EQUATION
3
3068, 1, 1.0, 2191, 1, -0.5, 2213, 1, -0.5
*EQUATION
3
3068, 2, 1.0, 2191, 2, -0.5, 2213, 2, -0.5
*EQUATION
3
3068, 3, 1.0, 2191, 3, -0.5, 2213, 3, -0.5
*EQUATION
5
3069, 1, 1.0, 2191, 1, -0.25, 2213, 1, -0.25, 2214, 1, -0.25, 492, 1, -0.25
*EQUATION
5
3069, 2, 1.0, 2191, 2, -0.25, 2213, 2, -0.25, 2214, 2, -0.25, 492, 2, -0.25
*EQUATION
5
3069, 3, 1.0, 2191, 3, -0.25, 2213, 3, -0.25, 2214, 3, -0.25, 492, 3, -0.25
*EQUATION
3
3070, 1, 1.0, 492, 1, -0.5, 2214, 1, -0.5
*EQUATION
3
3070, 2, 1.0, 492, 2, -0.5, 2214, 2, -0.5
*EQUATION
3
3070, 3, 1.0, 492, 3, -0.5, 2214, 3, -0.5
*EQUATION
3
3071, 1, 1.0, 2213, 1, -0.5, 2214, 1, -0.5
*EQUATION
3
3071, 2, 1.0, 2213, 2, -0.5, 2214, 2, -0.5
*EQUATION
3
3071, 3, 1.0, 2213, 3, -0.5, 2214, 3, -0.5
*EQUATION
5
3072, 1, 1.0, 2191, 1, -0.25, 2232, 1, -0.25, 2244, 1, -0.25, 2213, 1, -0.25
*EQUATION
5
3072, 2, 1.0, 2191, 2, -0.25, 2232, 2, -0.25, 2244, 2, -0.25, 2213, 2, -0.25
*EQUATION
5
3072, 3, 1.0, 2191, 3, -0.25, 2232, 3, -0.25, 2244, 3, -0.25, 2213, 3, -0.25
*EQUATION
5
3074, 1, 1.0, 492, 1, -0.25, 2233, 1, -0.25, 2245, 1, -0.25, 2214, 1, -0.25
*EQUATION
5
3074, 2, 1.0, 492, 2, -0.25, 2233, 2, -0.25, 2245, 2, -0.25, 2214, 2, -0.25
*EQUATION
5
3074, 3, 1.0, 492, 3, -0.25, 2233, 3, -0.25, 2245, 3, -0.25, 2214, 3, -0.25
*EQUATION
3
3075, 1, 1.0, 2213, 1, -0.5, 2244, 1, -0.5
*EQUATION
3
3075, 2, 1.0, 2213, 2, -0.5, 2244, 2, -0.5
*EQUATION
3
3075, 3, 1.0, 2213, 3, -0.5, 2244, 3, -0.5
*EQUATION
3
3077, 1, 1.0, 2214, 1, -0.5, 2245, 1, -0.5
*EQUATION
3
3077, 2, 1.0, 2214, 2, -0.5, 2245, 2, -0.5
*EQUATION
3
3077, 3, 1.0, 2214, 3, -0.5, 2245, 3, -0.5
*EQUATION
3
3078, 1, 1.0, 2232, 1, -0.5, 2244, 1, -0.5
*EQUATION
3
3078, 2, 1.0, 2232, 2, -0.5, 2244, 2, -0.5
*EQUATION
3
3078, 3, 1.0, 2232, 3, -0.5, 2244, 3, -0.5
*EQUATION
3
3080, 1, 1.0, 2233, 1, -0.5, 2245, 1, -0.5
*EQUATION
3
3080, 2, 1.0, 2233, 2, -0.5, 2245, 2, -0.5
*EQUATION
3
3080, 3, 1.0, 2233, 3, -0.5, 2245, 3, -0.5
*EQUATION
3
3081, 1, 1.0, 2244, 1, -0.5, 2245, 1, -0.5
*EQUATION
3
3081, 2, 1.0, 2244, 2, -0.5, 2245, 2, -0.5
*EQUATION
3
3081, 3, 1.0, 2244, 3, -0.5, 2245, 3, -0.5
*EQUATION
3
3082, 1, 1.0, 2213, 1, -0.5, 2215, 1, -0.5
*EQUATION
3
3082, 2, 1.0, 2213, 2, -0.5, 2215, 2, -0.5
*EQUATION
3
3082, 3, 1.0, 2213, 3, -0.5, 2215, 3, -0.5
*EQUATION
5
3083, 1, 1.0, 2213, 1, -0.25, 2215, 1, -0.25, 498, 1, -0.25, 2214, 1, -0.25
*EQUATION
5
3083, 2, 1.0, 2213, 2, -0.25, 2215, 2, -0.25, 498, 2, -0.25, 2214, 2, -0.25
*EQUATION
5
3083, 3, 1.0, 2213, 3, -0.25, 2215, 3, -0.25, 498, 3, -0.25, 2214, 3, -0.25
*EQUATION
3
3084, 1, 1.0, 498, 1, -0.5, 2214, 1, -0.5
*EQUATION
3
3084, 2, 1.0, 498, 2, -0.5, 2214, 2, -0.5
*EQUATION
3
3084, 3, 1.0, 498, 3, -0.5, 2214, 3, -0.5
*EQUATION
3
3085, 1, 1.0, 498, 1, -0.5, 2215, 1, -0.5
*EQUATION
3
3085, 2, 1.0, 498, 2, -0.5, 2215, 2, -0.5
*EQUATION
3
3085, 3, 1.0, 498, 3, -0.5, 2215, 3, -0.5
*EQUATION
5
3086, 1, 1.0, 2213, 1, -0.25, 2244, 1, -0.25, 2247, 1, -0.25, 2215, 1, -0.25
*EQUATION
5
3086, 2, 1.0, 2213, 2, -0.25, 2244, 2, -0.25, 2247, 2, -0.25, 2215, 2, -0.25
*EQUATION
5
3086, 3, 1.0, 2213, 3, -0.25, 2244, 3, -0.25, 2247, 3, -0.25, 2215, 3, -0.25
*EQUATION
5
3088, 1, 1.0, 2214, 1, -0.25, 2245, 1, -0.25, 2248, 1, -0.25, 498, 1, -0.25
*EQUATION
5
3088, 2, 1.0, 2214, 2, -0.25, 2245, 2, -0.25, 2248, 2, -0.25, 498, 2, -0.25
*EQUATION
5
3088, 3, 1.0, 2214, 3, -0.25, 2245, 3, -0.25, 2248, 3, -0.25, 498, 3, -0.25
*EQUATION
3
3089, 1, 1.0, 2215, 1, -0.5, 2247, 1, -0.5
*EQUATION
3
3089, 2, 1.0, 2215, 2, -0.5, 2247, 2, -0.5
*EQUATION
3
3089, 3, 1.0, 2215, 3, -0.5, 2247, 3, -0.5
*EQUATION
3
3091, 1, 1.0, 498, 1, -0.5, 2248, 1, -0.5
*EQUATION
3
3091, 2, 1.0, 498, 2, -0.5, 2248, 2, -0.5
*EQUATION
3
3091, 3, 1.0, 498, 3, -0.5, 2248, 3, -0.5
*EQUATION
3
3092, 1, 1.0, 2244, 1, -0.5, 2247, 1, -0.5
*EQUATION
3
3092, 2, 1.0, 2244, 2, -0.5, 2247, 2, -0.5
*EQUATION
3
3092, 3, 1.0, 2244, 3, -0.5, 2247, 3, -0.5
*EQUATION
5
3093, 1, 1.0, 2244, 1, -0.25, 2247, 1, -0.25, 2248, 1, -0.25, 2245, 1, -0.25
*EQUATION
5
3093, 2, 1.0, 2244, 2, -0.25, 2247, 2, -0.25, 2248, 2, -0.25, 2245, 2, -0.25
*EQUATION
5
3093, 3, 1.0, 2244, 3, -0.25, 2247, 3, -0.25, 2248, 3, -0.25, 2245, 3, -0.25
*EQUATION
3
3094, 1, 1.0, 2245, 1, -0.5, 2248, 1, -0.5
*EQUATION
3
3094, 2, 1.0, 2245, 2, -0.5, 2248, 2, -0.5
*EQUATION
3
3094, 3, 1.0, 2245, 3, -0.5, 2248, 3, -0.5
*EQUATION
3
3095, 1, 1.0, 2247, 1, -0.5, 2248, 1, -0.5
*EQUATION
3
3095, 2, 1.0, 2247, 2, -0.5, 2248, 2, -0.5
*EQUATION
3
3095, 3, 1.0, 2247, 3, -0.5, 2248, 3, -0.5
*EQUATION
5
3096, 1, 1.0, 2232, 1, -0.25, 2238, 1, -0.25, 2250, 1, -0.25, 2244, 1, -0.25
*EQUATION
5
3096, 2, 1.0, 2232, 2, -0.25, 2238, 2, -0.25, 2250, 2, -0.25, 2244, 2, -0.25
*EQUATION
5
3096, 3, 1.0, 2232, 3, -0.25, 2238, 3, -0.25, 2250, 3, -0.25, 2244, 3, -0.25
*EQUATION
5
3098, 1, 1.0, 2233, 1, -0.25, 540, 1, -0.25, 2251, 1, -0.25, 2245, 1, -0.25
*EQUATION
5
3098, 2, 1.0, 2233, 2, -0.25, 540, 2, -0.25, 2251, 2, -0.25, 2245, 2, -0.25
*EQUATION
5
3098, 3, 1.0, 2233, 3, -0.25, 540, 3, -0.25, 2251, 3, -0.25, 2245, 3, -0.25
*EQUATION
3
3099, 1, 1.0, 2244, 1, -0.5, 2250, 1, -0.5
*EQUATION
3
3099, 2, 1.0, 2244, 2, -0.5, 2250, 2, -0.5
*EQUATION
3
3099, 3, 1.0, 2244, 3, -0.5, 2250, 3, -0.5
*EQUATION
5
3100, 1, 1.0, 2244, 1, -0.25, 2250, 1, -0.25, 2251, 1, -0.25, 2245, 1, -0.25
*EQUATION
5
3100, 2, 1.0, 2244, 2, -0.25, 2250, 2, -0.25, 2251, 2, -0.25, 2245, 2, -0.25
*EQUATION
5
3100, 3, 1.0, 2244, 3, -0.25, 2250, 3, -0.25, 2251, 3, -0.25, 2245, 3, -0.25
*EQUATION
3
3101, 1, 1.0, 2245, 1, -0.5, 2251, 1, -0.5
*EQUATION
3
3101, 2, 1.0, 2245, 2, -0.5, 2251, 2, -0.5
*EQUATION
3
3101, 3, 1.0, 2245, 3, -0.5, 2251, 3, -0.5
*EQUATION
3
3102, 1, 1.0, 2238, 1, -0.5, 2250, 1, -0.5
*EQUATION
3
3102, 2, 1.0, 2238, 2, -0.5, 2250, 2, -0.5
*EQUATION
3
3102, 3, 1.0, 2238, 3, -0.5, 2250, 3, -0.5
*EQUATION
3
3104, 1, 1.0, 540, 1, -0.5, 2251, 1, -0.5
*EQUATION
3
3104, 2, 1.0, 540, 2, -0.5, 2251, 2, -0.5
*EQUATION
3
3104, 3, 1.0, 540, 3, -0.5, 2251, 3, -0.5
*EQUATION
3
3105, 1, 1.0, 2250, 1, -0.5, 2251, 1, -0.5
*EQUATION
3
3105, 2, 1.0, 2250, 2, -0.5, 2251, 2, -0.5
*EQUATION
3
3105, 3, 1.0, 2250, 3, -0.5, 2251, 3, -0.5
*EQUATION
3
3106, 1, 1.0, 539, 1, -0.5, 2234, 1, -0.5
*EQUATION
3
3106, 2, 1.0, 539, 2, -0.5, 2234, 2, -0.5
*EQUATION
3
3106, 3, 1.0, 539, 3, -0.5, 2234, 3, -0.5
*EQUATION
3
3107, 1, 1.0, 2234, 1, -0.5, 2236, 1, -0.5
*EQUATION
3
3107, 2, 1.0, 2234, 2, -0.5, 2236, 2, -0.5
*EQUATION
3
3107, 3, 1.0, 2234, 3, -0.5, 2236, 3, -0.5
*EQUATION
5
3108, 1, 1.0, 2234, 1, -0.25, 2236, 1, -0.25, 2237, 1, -0.25, 539, 1, -0.25
*EQUATION
5
3108, 2, 1.0, 2234, 2, -0.25, 2236, 2, -0.25, 2237, 2, -0.25, 539, 2, -0.25
*EQUATION
5
3108, 3, 1.0, 2234, 3, -0.25, 2236, 3, -0.25, 2237, 3, -0.25, 539, 3, -0.25
*EQUATION
3
3109, 1, 1.0, 539, 1, -0.5, 2237, 1, -0.5
*EQUATION
3
3109, 2, 1.0, 539, 2, -0.5, 2237, 2, -0.5
*EQUATION
3
3109, 3, 1.0, 539, 3, -0.5, 2237, 3, -0.5
*EQUATION
3
3110, 1, 1.0, 2234, 1, -0.5, 2290, 1, -0.5
*EQUATION
3
3110, 2, 1.0, 2234, 2, -0.5, 2290, 2, -0.5
*EQUATION
3
3110, 3, 1.0, 2234, 3, -0.5, 2290, 3, -0.5
*EQUATION
3
3112, 1, 1.0, 539, 1, -0.5, 2291, 1, -0.5
*EQUATION
3
3112, 2, 1.0, 539, 2, -0.5, 2291, 2, -0.5
*EQUATION
3
3112, 3, 1.0, 539, 3, -0.5, 2291, 3, -0.5
*EQUATION
5
3113, 1, 1.0, 2234, 1, -0.25, 2290, 1, -0.25, 2292, 1, -0.25, 2236, 1, -0.25
*EQUATION
5
3113, 2, 1.0, 2234, 2, -0.25, 2290, 2, -0.25, 2292, 2, -0.25, 2236, 2, -0.25
*EQUATION
5
3113, 3, 1.0, 2234, 3, -0.25, 2290, 3, -0.25, 2292, 3, -0.25, 2236, 3, -0.25
*EQUATION
5
3115, 1, 1.0, 539, 1, -0.25, 2291, 1, -0.25, 2293, 1, -0.25, 2237, 1, -0.25
*EQUATION
5
3115, 2, 1.0, 539, 2, -0.25, 2291, 2, -0.25, 2293, 2, -0.25, 2237, 2, -0.25
*EQUATION
5
3115, 3, 1.0, 539, 3, -0.25, 2291, 3, -0.25, 2293, 3, -0.25, 2237, 3, -0.25
*EQUATION
3
3116, 1, 1.0, 2236, 1, -0.5, 2292, 1, -0.5
*EQUATION
3
3116, 2, 1.0, 2236, 2, -0.5, 2292, 2, -0.5
*EQUATION
3
3116, 3, 1.0, 2236, 3, -0.5, 2292, 3, -0.5
*EQUATION
3
3118, 1, 1.0, 2237, 1, -0.5, 2293, 1, -0.5
*EQUATION
3
3118, 2, 1.0, 2237, 2, -0.5, 2293, 2, -0.5
*EQUATION
3
3118, 3, 1.0, 2237, 3, -0.5, 2293, 3, -0.5
*EQUATION
3
3119, 1, 1.0, 2290, 1, -0.5, 2291, 1, -0.5
*EQUATION
3
3119, 2, 1.0, 2290, 2, -0.5, 2291, 2, -0.5
*EQUATION
3
3119, 3, 1.0, 2290, 3, -0.5, 2291, 3, -0.5
*EQUATION
3
3120, 1, 1.0, 2290, 1, -0.5, 2292, 1, -0.5
*EQUATION
3
3120, 2, 1.0, 2290, 2, -0.5, 2292, 2, -0.5
*EQUATION
3
3120, 3, 1.0, 2290, 3, -0.5, 2292, 3, -0.5
*EQUATION
5
3121, 1, 1.0, 2290, 1, -0.25, 2292, 1, -0.25, 2293, 1, -0.25, 2291, 1, -0.25
*EQUATION
5
3121, 2, 1.0, 2290, 2, -0.25, 2292, 2, -0.25, 2293, 2, -0.25, 2291, 2, -0.25
*EQUATION
5
3121, 3, 1.0, 2290, 3, -0.25, 2292, 3, -0.25, 2293, 3, -0.25, 2291, 3, -0.25
*EQUATION
3
3122, 1, 1.0, 2291, 1, -0.5, 2293, 1, -0.5
*EQUATION
3
3122, 2, 1.0, 2291, 2, -0.5, 2293, 2, -0.5
*EQUATION
3
3122, 3, 1.0, 2291, 3, -0.5, 2293, 3, -0.5
*EQUATION
3
3123, 1, 1.0, 2292, 1, -0.5, 2293, 1, -0.5
*EQUATION
3
3123, 2, 1.0, 2292, 2, -0.5, 2293, 2, -0.5
*EQUATION
3
3123, 3, 1.0, 2292, 3, -0.5, 2293, 3, -0.5
*EQUATION
5
3124, 1, 1.0, 2236, 1, -0.25, 2292, 1, -0.25, 2294, 1, -0.25, 2238, 1, -0.25
*EQUATION
5
3124, 2, 1.0, 2236, 2, -0.25, 2292, 2, -0.25, 2294, 2, -0.25, 2238, 2, -0.25
*EQUATION
5
3124, 3, 1.0, 2236, 3, -0.25, 2292, 3, -0.25, 2294, 3, -0.25, 2238, 3, -0.25
*EQUATION
5
3126, 1, 1.0, 2237, 1, -0.25, 2293, 1, -0.25, 2295, 1, -0.25, 540, 1, -0.25
*EQUATION
5
3126, 2, 1.0, 2237, 2, -0.25, 2293, 2, -0.25, 2295, 2, -0.25, 540, 2, -0.25
*EQUATION
5
3126, 3, 1.0, 2237, 3, -0.25, 2293, 3, -0.25, 2295, 3, -0.25, 540, 3, -0.25
*EQUATION
3
3127, 1, 1.0, 2238, 1, -0.5, 2294, 1, -0.5
*EQUATION
3
3127, 2, 1.0, 2238, 2, -0.5, 2294, 2, -0.5
*EQUATION
3
3127, 3, 1.0, 2238, 3, -0.5, 2294, 3, -0.5
*EQUATION
3
3129, 1, 1.0, 540, 1, -0.5, 2295, 1, -0.5
*EQUATION
3
3129, 2, 1.0, 540, 2, -0.5, 2295, 2, -0.5
*EQUATION
3
3129, 3, 1.0, 540, 3, -0.5, 2295, 3, -0.5
*EQUATION
3
3130, 1, 1.0, 2292, 1, -0.5, 2294, 1, -0.5
*EQUATION
3
3130, 2, 1.0, 2292, 2, -0.5, 2294, 2, -0.5
*EQUATION
3
3130, 3, 1.0, 2292, 3, -0.5, 2294, 3, -0.5
*EQUATION
5
3131, 1, 1.0, 2292, 1, -0.25, 2294, 1, -0.25, 2295, 1, -0.25, 2293, 1, -0.25
*EQUATION
5
3131, 2, 1.0, 2292, 2, -0.25, 2294, 2, -0.25, 2295, 2, -0.25, 2293, 2, -0.25
*EQUATION
5
3131, 3, 1.0, 2292, 3, -0.25, 2294, 3, -0.25, 2295, 3, -0.25, 2293, 3, -0.25
*EQUATION
3
3132, 1, 1.0, 2293, 1, -0.5, 2295, 1, -0.5
*EQUATION
3
3132, 2, 1.0, 2293, 2, -0.5, 2295, 2, -0.5
*EQUATION
3
3132, 3, 1.0, 2293, 3, -0.5, 2295, 3, -0.5
*EQUATION
3
3133, 1, 1.0, 2294, 1, -0.5, 2295, 1, -0.5
*EQUATION
3
3133, 2, 1.0, 2294, 2, -0.5, 2295, 2, -0.5
*EQUATION
3
3133, 3, 1.0, 2294, 3, -0.5, 2295, 3, -0.5
*EQUATION
5
3134, 1, 1.0, 2238, 1, -0.25, 2294, 1, -0.25, 2309, 1, -0.25, 2250, 1, -0.25
*EQUATION
5
3134, 2, 1.0, 2238, 2, -0.25, 2294, 2, -0.25, 2309, 2, -0.25, 2250, 2, -0.25
*EQUATION
5
3134, 3, 1.0, 2238, 3, -0.25, 2294, 3, -0.25, 2309, 3, -0.25, 2250, 3, -0.25
*EQUATION
5
3136, 1, 1.0, 540, 1, -0.25, 2295, 1, -0.25, 2310, 1, -0.25, 2251, 1, -0.25
*EQUATION
5
3136, 2, 1.0, 540, 2, -0.25, 2295, 2, -0.25, 2310, 2, -0.25, 2251, 2, -0.25
*EQUATION
5
3136, 3, 1.0, 540, 3, -0.25, 2295, 3, -0.25, 2310, 3, -0.25, 2251, 3, -0.25
*EQUATION
3
3137, 1, 1.0, 2250, 1, -0.5, 2309, 1, -0.5
*EQUATION
3
3137, 2, 1.0, 2250, 2, -0.5, 2309, 2, -0.5
*EQUATION
3
3137, 3, 1.0, 2250, 3, -0.5, 2309, 3, -0.5
*EQUATION
3
3139, 1, 1.0, 2251, 1, -0.5, 2310, 1, -0.5
*EQUATION
3
3139, 2, 1.0, 2251, 2, -0.5, 2310, 2, -0.5
*EQUATION
3
3139, 3, 1.0, 2251, 3, -0.5, 2310, 3, -0.5
*EQUATION
3
3140, 1, 1.0, 2294, 1, -0.5, 2309, 1, -0.5
*EQUATION
3
3140, 2, 1.0, 2294, 2, -0.5, 2309, 2, -0.5
*EQUATION
3
3140, 3, 1.0, 2294, 3, -0.5, 2309, 3, -0.5
*EQUATION
5
3141, 1, 1.0, 2294, 1, -0.25, 2309, 1, -0.25, 2310, 1, -0.25, 2295, 1, -0.25
*EQUATION
5
3141, 2, 1.0, 2294, 2, -0.25, 2309, 2, -0.25, 2310, 2, -0.25, 2295, 2, -0.25
*EQUATION
5
3141, 3, 1.0, 2294, 3, -0.25, 2309, 3, -0.25, 2310, 3, -0.25, 2295, 3, -0.25
*EQUATION
3
3142, 1, 1.0, 2295, 1, -0.5, 2310, 1, -0.5
*EQUATION
3
3142, 2, 1.0, 2295, 2, -0.5, 2310, 2, -0.5
*EQUATION
3
3142, 3, 1.0, 2295, 3, -0.5, 2310, 3, -0.5
*EQUATION
3
3143, 1, 1.0, 2309, 1, -0.5, 2310, 1, -0.5
*EQUATION
3
3143, 2, 1.0, 2309, 2, -0.5, 2310, 2, -0.5
*EQUATION
3
3143, 3, 1.0, 2309, 3, -0.5, 2310, 3, -0.5
*EQUATION
3
3144, 1, 1.0, 2250, 1, -0.5, 2252, 1, -0.5
*EQUATION
3
3144, 2, 1.0, 2250, 2, -0.5, 2252, 2, -0.5
*EQUATION
3
3144, 3, 1.0, 2250, 3, -0.5, 2252, 3, -0.5
*EQUATION
5
3145, 1, 1.0, 2250, 1, -0.25, 2252, 1, -0.25, 546, 1, -0.25, 2251, 1, -0.25
*EQUATION
5
3145, 2, 1.0, 2250, 2, -0.25, 2252, 2, -0.25, 546, 2, -0.25, 2251, 2, -0.25
*EQUATION
5
3145, 3, 1.0, 2250, 3, -0.25, 2252, 3, -0.25, 546, 3, -0.25, 2251, 3, -0.25
*EQUATION
3
3146, 1, 1.0, 546, 1, -0.5, 2251, 1, -0.5
*EQUATION
3
3146, 2, 1.0, 546, 2, -0.5, 2251, 2, -0.5
*EQUATION
3
3146, 3, 1.0, 546, 3, -0.5, 2251, 3, -0.5
*EQUATION
3
3147, 1, 1.0, 546, 1, -0.5, 2252, 1, -0.5
*EQUATION
3
3147, 2, 1.0, 546, 2, -0.5, 2252, 2, -0.5
*EQUATION
3
3147, 3, 1.0, 546, 3, -0.5, 2252, 3, -0.5
*EQUATION
5
3148, 1, 1.0, 2250, 1, -0.25, 2309, 1, -0.25, 2311, 1, -0.25, 2252, 1, -0.25
*EQUATION
5
3148, 2, 1.0, 2250, 2, -0.25, 2309, 2, -0.25, 2311, 2, -0.25, 2252, 2, -0.25
*EQUATION
5
3148, 3, 1.0, 2250, 3, -0.25, 2309, 3, -0.25, 2311, 3, -0.25, 2252, 3, -0.25
*EQUATION
5
3150, 1, 1.0, 2251, 1, -0.25, 2310, 1, -0.25, 2312, 1, -0.25, 546, 1, -0.25
*EQUATION
5
3150, 2, 1.0, 2251, 2, -0.25, 2310, 2, -0.25, 2312, 2, -0.25, 546, 2, -0.25
*EQUATION
5
3150, 3, 1.0, 2251, 3, -0.25, 2310, 3, -0.25, 2312, 3, -0.25, 546, 3, -0.25
*EQUATION
3
3151, 1, 1.0, 2252, 1, -0.5, 2311, 1, -0.5
*EQUATION
3
3151, 2, 1.0, 2252, 2, -0.5, 2311, 2, -0.5
*EQUATION
3
3151, 3, 1.0, 2252, 3, -0.5, 2311, 3, -0.5
*EQUATION
3
3153, 1, 1.0, 546, 1, -0.5, 2312, 1, -0.5
*EQUATION
3
3153, 2, 1.0, 546, 2, -0.5, 2312, 2, -0.5
*EQUATION
3
3153, 3, 1.0, 546, 3, -0.5, 2312, 3, -0.5
*EQUATION
3
3154, 1, 1.0, 2309, 1, -0.5, 2311, 1, -0.5
*EQUATION
3
3154, 2, 1.0, 2309, 2, -0.5, 2311, 2, -0.5
*EQUATION
3
3154, 3, 1.0, 2309, 3, -0.5, 2311, 3, -0.5
*EQUATION
5
3155, 1, 1.0, 2309, 1, -0.25, 2311, 1, -0.25, 2312, 1, -0.25, 2310, 1, -0.25
*EQUATION
5
3155, 2, 1.0, 2309, 2, -0.25, 2311, 2, -0.25, 2312, 2, -0.25, 2310, 2, -0.25
*EQUATION
5
3155, 3, 1.0, 2309, 3, -0.25, 2311, 3, -0.25, 2312, 3, -0.25, 2310, 3, -0.25
*EQUATION
3
3156, 1, 1.0, 2310, 1, -0.5, 2312, 1, -0.5
*EQUATION
3
3156, 2, 1.0, 2310, 2, -0.5, 2312, 2, -0.5
*EQUATION
3
3156, 3, 1.0, 2310, 3, -0.5, 2312, 3, -0.5
*EQUATION
3
3157, 1, 1.0, 2311, 1, -0.5, 2312, 1, -0.5
*EQUATION
3
3157, 2, 1.0, 2311, 2, -0.5, 2312, 2, -0.5
*EQUATION
3
3157, 3, 1.0, 2311, 3, -0.5, 2312, 3, -0.5
*EQUATION
5
3158, 1, 1.0, 635, 1, -0.25, 683, 1, -0.25, 703, 1, -0.25, 655, 1, -0.25
*EQUATION
5
3158, 2, 1.0, 635, 2, -0.25, 683, 2, -0.25, 703, 2, -0.25, 655, 2, -0.25
*EQUATION
5
3158, 3, 1.0, 635, 3, -0.25, 683, 3, -0.25, 703, 3, -0.25, 655, 3, -0.25
*EQUATION
3
3159, 1, 1.0, 655, 1, -0.5, 703, 1, -0.5
*EQUATION
3
3159, 2, 1.0, 655, 2, -0.5, 703, 2, -0.5
*EQUATION
3
3159, 3, 1.0, 655, 3, -0.5, 703, 3, -0.5
*EQUATION
5
3161, 1, 1.0, 655, 1, -0.25, 703, 1, -0.25, 705, 1, -0.25, 657, 1, -0.25
*EQUATION
5
3161, 2, 1.0, 655, 2, -0.25, 703, 2, -0.25, 705, 2, -0.25, 657, 2, -0.25
*EQUATION
5
3161, 3, 1.0, 655, 3, -0.25, 703, 3, -0.25, 705, 3, -0.25, 657, 3, -0.25
*EQUATION
3
3163, 1, 1.0, 657, 1, -0.5, 705, 1, -0.5
*EQUATION
3
3163, 2, 1.0, 657, 2, -0.5, 705, 2, -0.5
*EQUATION
3
3163, 3, 1.0, 657, 3, -0.5, 705, 3, -0.5
*EQUATION
5
3165, 1, 1.0, 657, 1, -0.25, 705, 1, -0.25, 707, 1, -0.25, 659, 1, -0.25
*EQUATION
5
3165, 2, 1.0, 657, 2, -0.25, 705, 2, -0.25, 707, 2, -0.25, 659, 2, -0.25
*EQUATION
5
3165, 3, 1.0, 657, 3, -0.25, 705, 3, -0.25, 707, 3, -0.25, 659, 3, -0.25
*EQUATION
5
3166, 1, 1.0, 642, 1, -0.25, 690, 1, -0.25, 707, 1, -0.25, 659, 1, -0.25
*EQUATION
5
3166, 2, 1.0, 642, 2, -0.25, 690, 2, -0.25, 707, 2, -0.25, 659, 2, -0.25
*EQUATION
5
3166, 3, 1.0, 642, 3, -0.25, 690, 3, -0.25, 707, 3, -0.25, 659, 3, -0.25
*EQUATION
3
3167, 1, 1.0, 659, 1, -0.5, 707, 1, -0.5
*EQUATION
3
3167, 2, 1.0, 659, 2, -0.5, 707, 2, -0.5
*EQUATION
3
3167, 3, 1.0, 659, 3, -0.5, 707, 3, -0.5
*EQUATION
3
3171, 1, 1.0, 1039, 1, -0.5, 1041, 1, -0.5
*EQUATION
3
3171, 2, 1.0, 1039, 2, -0.5, 1041, 2, -0.5
*EQUATION
3
3171, 3, 1.0, 1039, 3, -0.5, 1041, 3, -0.5
*EQUATION
3
3175, 1, 1.0, 1039, 1, -0.5, 1057, 1, -0.5
*EQUATION
3
3175, 2, 1.0, 1039, 2, -0.5, 1057, 2, -0.5
*EQUATION
3
3175, 3, 1.0, 1039, 3, -0.5, 1057, 3, -0.5
*EQUATION
5
3178, 1, 1.0, 1039, 1, -0.25, 1057, 1, -0.25, 1060, 1, -0.25, 1041, 1, -0.25
*EQUATION
5
3178, 2, 1.0, 1039, 2, -0.25, 1057, 2, -0.25, 1060, 2, -0.25, 1041, 2, -0.25
*EQUATION
5
3178, 3, 1.0, 1039, 3, -0.25, 1057, 3, -0.25, 1060, 3, -0.25, 1041, 3, -0.25
*EQUATION
3
3181, 1, 1.0, 1041, 1, -0.5, 1060, 1, -0.5
*EQUATION
3
3181, 2, 1.0, 1041, 2, -0.5, 1060, 2, -0.5
*EQUATION
3
3181, 3, 1.0, 1041, 3, -0.5, 1060, 3, -0.5
*EQUATION
3
3185, 1, 1.0, 1057, 1, -0.5, 1060, 1, -0.5
*EQUATION
3
3185, 2, 1.0, 1057, 2, -0.5, 1060, 2, -0.5
*EQUATION
3
3185, 3, 1.0, 1057, 3, -0.5, 1060, 3, -0.5
*EQUATION
3
3190, 1, 1.0, 1051, 1, -0.5, 1053, 1, -0.5
*EQUATION
3
3190, 2, 1.0, 1051, 2, -0.5, 1053, 2, -0.5
*EQUATION
3
3190, 3, 1.0, 1051, 3, -0.5, 1053, 3, -0.5
*EQUATION
3
3194, 1, 1.0, 1051, 1, -0.5, 1067, 1, -0.5
*EQUATION
3
3194, 2, 1.0, 1051, 2, -0.5, 1067, 2, -0.5
*EQUATION
3
3194, 3, 1.0, 1051, 3, -0.5, 1067, 3, -0.5
*EQUATION
5
3197, 1, 1.0, 1051, 1, -0.25, 1067, 1, -0.25, 1070, 1, -0.25, 1053, 1, -0.25
*EQUATION
5
3197, 2, 1.0, 1051, 2, -0.25, 1067, 2, -0.25, 1070, 2, -0.25, 1053, 2, -0.25
*EQUATION
5
3197, 3, 1.0, 1051, 3, -0.25, 1067, 3, -0.25, 1070, 3, -0.25, 1053, 3, -0.25
*EQUATION
3
3200, 1, 1.0, 1053, 1, -0.5, 1070, 1, -0.5
*EQUATION
3
3200, 2, 1.0, 1053, 2, -0.5, 1070, 2, -0.5
*EQUATION
3
3200, 3, 1.0, 1053, 3, -0.5, 1070, 3, -0.5
*EQUATION
3
3204, 1, 1.0, 1067, 1, -0.5, 1070, 1, -0.5
*EQUATION
3
3204, 2, 1.0, 1067, 2, -0.5, 1070, 2, -0.5
*EQUATION
3
3204, 3, 1.0, 1067, 3, -0.5, 1070, 3, -0.5
*EQUATION
3
3208, 1, 1.0, 1053, 1, -0.5, 1055, 1, -0.5
*EQUATION
3
3208, 2, 1.0, 1053, 2, -0.5, 1055, 2, -0.5
*EQUATION
3
3208, 3, 1.0, 1053, 3, -0.5, 1055, 3, -0.5
*EQUATION
5
3212, 1, 1.0, 1053, 1, -0.25, 1070, 1, -0.25, 1073, 1, -0.25, 1055, 1, -0.25
*EQUATION
5
3212, 2, 1.0, 1053, 2, -0.25, 1070, 2, -0.25, 1073, 2, -0.25, 1055, 2, -0.25
*EQUATION
5
3212, 3, 1.0, 1053, 3, -0.25, 1070, 3, -0.25, 1073, 3, -0.25, 1055, 3, -0.25
*EQUATION
3
3215, 1, 1.0, 1055, 1, -0.5, 1073, 1, -0.5
*EQUATION
3
3215, 2, 1.0, 1055, 2, -0.5, 1073, 2, -0.5
*EQUATION
3
3215, 3, 1.0, 1055, 3, -0.5, 1073, 3, -0.5
*EQUATION
3
3218, 1, 1.0, 1070, 1, -0.5, 1073, 1, -0.5
*EQUATION
3
3218, 2, 1.0, 1070, 2, -0.5, 1073, 2, -0.5
*EQUATION
3
3218, 3, 1.0, 1070, 3, -0.5, 1073, 3, -0.5
*EQUATION
3
3237, 1, 1.0, 1055, 1, -0.5, 1063, 1, -0.5
*EQUATION
3
3237, 2, 1.0, 1055, 2, -0.5, 1063, 2, -0.5
*EQUATION
3
3237, 3, 1.0, 1055, 3, -0.5, 1063, 3, -0.5
*EQUATION
5
3241, 1, 1.0, 1055, 1, -0.25, 1073, 1, -0.25, 1081, 1, -0.25, 1063, 1, -0.25
*EQUATION
5
3241, 2, 1.0, 1055, 2, -0.25, 1073, 2, -0.25, 1081, 2, -0.25, 1063, 2, -0.25
*EQUATION
5
3241, 3, 1.0, 1055, 3, -0.25, 1073, 3, -0.25, 1081, 3, -0.25, 1063, 3, -0.25
*EQUATION
3
3244, 1, 1.0, 1063, 1, -0.5, 1081, 1, -0.5
*EQUATION
3
3244, 2, 1.0, 1063, 2, -0.5, 1081, 2, -0.5
*EQUATION
3
3244, 3, 1.0, 1063, 3, -0.5, 1081, 3, -0.5
*EQUATION
3
3247, 1, 1.0, 1073, 1, -0.5, 1081, 1, -0.5
*EQUATION
3
3247, 2, 1.0, 1073, 2, -0.5, 1081, 2, -0.5
*EQUATION
3
3247, 3, 1.0, 1073, 3, -0.5, 1081, 3, -0.5
*EQUATION
3
3251, 1, 1.0, 1063, 1, -0.5, 1065, 1, -0.5
*EQUATION
3
3251, 2, 1.0, 1063, 2, -0.5, 1065, 2, -0.5
*EQUATION
3
3251, 3, 1.0, 1063, 3, -0.5, 1065, 3, -0.5
*EQUATION
5
3255, 1, 1.0, 1063, 1, -0.25, 1081, 1, -0.25, 1084, 1, -0.25, 1065, 1, -0.25
*EQUATION
5
3255, 2, 1.0, 1063, 2, -0.25, 1081, 2, -0.25, 1084, 2, -0.25, 1065, 2, -0.25
*EQUATION
5
3255, 3, 1.0, 1063, 3, -0.25, 1081, 3, -0.25, 1084, 3, -0.25, 1065, 3, -0.25
*EQUATION
3
3258, 1, 1.0, 1065, 1, -0.5, 1084, 1, -0.5
*EQUATION
3
3258, 2, 1.0, 1065, 2, -0.5, 1084, 2, -0.5
*EQUATION
3
3258, 3, 1.0, 1065, 3, -0.5, 1084, 3, -0.5
*EQUATION
3
3261, 1, 1.0, 1081, 1, -0.5, 1084, 1, -0.5
*EQUATION
3
3261, 2, 1.0, 1081, 2, -0.5, 1084, 2, -0.5
*EQUATION
3
3261, 3, 1.0, 1081, 3, -0.5, 1084, 3, -0.5
*EQUATION
3
3277, 1, 1.0, 1092, 1, -0.5, 1095, 1, -0.5
*EQUATION
3
3277, 2, 1.0, 1092, 2, -0.5, 1095, 2, -0.5
*EQUATION
3
3277, 3, 1.0, 1092, 3, -0.5, 1095, 3, -0.5
*EQUATION
3
3290, 1, 1.0, 1095, 1, -0.5, 1098, 1, -0.5
*EQUATION
3
3290, 2, 1.0, 1095, 2, -0.5, 1098, 2, -0.5
*EQUATION
3
3290, 3, 1.0, 1095, 3, -0.5, 1098, 3, -0.5
*EQUATION
3
3300, 1, 1.0, 1098, 1, -0.5, 1106, 1, -0.5
*EQUATION
3
3300, 2, 1.0, 1098, 2, -0.5, 1106, 2, -0.5
*EQUATION
3
3300, 3, 1.0, 1098, 3, -0.5, 1106, 3, -0.5
*EQUATION
3
3310, 1, 1.0, 1106, 1, -0.5, 1109, 1, -0.5
*EQUATION
3
3310, 2, 1.0, 1106, 2, -0.5, 1109, 2, -0.5
*EQUATION
3
3310, 3, 1.0, 1106, 3, -0.5, 1109, 3, -0.5
*EQUATION
5
3323, 1, 1.0, 21, 1, -0.25, 22, 1, -0.25, 61, 1, -0.25, 62, 1, -0.25
*EQUATION
5
3323, 2, 1.0, 21, 2, -0.25, 22, 2, -0.25, 61, 2, -0.25, 62, 2, -0.25
*EQUATION
5
3323, 3, 1.0, 21, 3, -0.25, 22, 3, -0.25, 61, 3, -0.25, 62, 3, -0.25
*EQUATION
3
3324, 1, 1.0, 61, 1, -0.5, 62, 1, -0.5
*EQUATION
3
3324, 2, 1.0, 61, 2, -0.5, 62, 2, -0.5
*EQUATION
3
3324, 3, 1.0, 61, 3, -0.5, 62, 3, -0.5
*EQUATION
5
3326, 1, 1.0, 62, 1, -0.25, 61, 1, -0.25, 65, 1, -0.25, 66, 1, -0.25
*EQUATION
5
3326, 2, 1.0, 62, 2, -0.25, 61, 2, -0.25, 65, 2, -0.25, 66, 2, -0.25
*EQUATION
5
3326, 3, 1.0, 62, 3, -0.25, 61, 3, -0.25, 65, 3, -0.25, 66, 3, -0.25
*EQUATION
3
3328, 1, 1.0, 65, 1, -0.5, 66, 1, -0.5
*EQUATION
3
3328, 2, 1.0, 65, 2, -0.5, 66, 2, -0.5
*EQUATION
3
3328, 3, 1.0, 65, 3, -0.5, 66, 3, -0.5
*EQUATION
3
3329, 1, 1.0, 22, 1, -0.5, 61, 1, -0.5
*EQUATION
3
3329, 2, 1.0, 22, 2, -0.5, 61, 2, -0.5
*EQUATION
3
3329, 3, 1.0, 22, 3, -0.5, 61, 3, -0.5
*EQUATION
3
3331, 1, 1.0, 61, 1, -0.5, 65, 1, -0.5
*EQUATION
3
3331, 2, 1.0, 61, 2, -0.5, 65, 2, -0.5
*EQUATION
3
3331, 3, 1.0, 61, 3, -0.5, 65, 3, -0.5
*EQUATION
5
3337, 1, 1.0, 66, 1, -0.25, 65, 1, -0.25, 69, 1, -0.25, 70, 1, -0.25
*EQUATION
5
3337, 2, 1.0, 66, 2, -0.25, 65, 2, -0.25, 69, 2, -0.25, 70, 2, -0.25
*EQUATION
5
3337, 3, 1.0, 66, 3, -0.25, 65, 3, -0.25, 69, 3, -0.25, 70, 3, -0.25
*EQUATION
5
3338, 1, 1.0, 36, 1, -0.25, 35, 1, -0.25, 69, 1, -0.25, 70, 1, -0.25
*EQUATION
5
3338, 2, 1.0, 36, 2, -0.25, 35, 2, -0.25, 69, 2, -0.25, 70, 2, -0.25
*EQUATION
5
3338, 3, 1.0, 36, 3, -0.25, 35, 3, -0.25, 69, 3, -0.25, 70, 3, -0.25
*EQUATION
3
3339, 1, 1.0, 69, 1, -0.5, 70, 1, -0.5
*EQUATION
3
3339, 2, 1.0, 69, 2, -0.5, 70, 2, -0.5
*EQUATION
3
3339, 3, 1.0, 69, 3, -0.5, 70, 3, -0.5
*EQUATION
3
3341, 1, 1.0, 65, 1, -0.5, 69, 1, -0.5
*EQUATION
3
3341, 2, 1.0, 65, 2, -0.5, 69, 2, -0.5
*EQUATION
3
3341, 3, 1.0, 65, 3, -0.5, 69, 3, -0.5
*EQUATION
3
3342, 1, 1.0, 35, 1, -0.5, 69, 1, -0.5
*EQUATION
3
3342, 2, 1.0, 35, 2, -0.5, 69, 2, -0.5
*EQUATION
3
3342, 3, 1.0, 35, 3, -0.5, 69, 3, -0.5
*EQUATION
3
3353, 1, 1.0, 38, 1, -0.5, 42, 1, -0.5
*EQUATION
3
3353, 2, 1.0, 38, 2, -0.5, 42, 2, -0.5
*EQUATION
3
3353, 3, 1.0, 38, 3, -0.5, 42, 3, -0.5
*EQUATION
3
3354, 1, 1.0, 38, 1, -0.5, 39, 1, -0.5
*EQUATION
3
3354, 2, 1.0, 38, 2, -0.5, 39, 2, -0.5
*EQUATION
3
3354, 3, 1.0, 38, 3, -0.5, 39, 3, -0.5
*EQUATION
5
3355, 1, 1.0, 38, 1, -0.25, 39, 1, -0.25, 43, 1, -0.25, 42, 1, -0.25
*EQUATION
5
3355, 2, 1.0, 38, 2, -0.25, 39, 2, -0.25, 43, 2, -0.25, 42, 2, -0.25
*EQUATION
5
3355, 3, 1.0, 38, 3, -0.25, 39, 3, -0.25, 43, 3, -0.25, 42, 3, -0.25
*EQUATION
3
3356, 1, 1.0, 42, 1, -0.5, 43, 1, -0.5
*EQUATION
3
3356, 2, 1.0, 42, 2, -0.5, 43, 2, -0.5
*EQUATION
3
3356, 3, 1.0, 42, 3, -0.5, 43, 3, -0.5
*EQUATION
3
3357, 1, 1.0, 39, 1, -0.5, 43, 1, -0.5
*EQUATION
3
3357, 2, 1.0, 39, 2, -0.5, 43, 2, -0.5
*EQUATION
3
3357, 3, 1.0, 39, 3, -0.5, 43, 3, -0.5
*EQUATION
3
3364, 1, 1.0, 39, 1, -0.5, 116, 1, -0.5
*EQUATION
3
3364, 2, 1.0, 39, 2, -0.5, 116, 2, -0.5
*EQUATION
3
3364, 3, 1.0, 39, 3, -0.5, 116, 3, -0.5
*EQUATION
5
3365, 1, 1.0, 39, 1, -0.25, 116, 1, -0.25, 118, 1, -0.25, 43, 1, -0.25
*EQUATION
5
3365, 2, 1.0, 39, 2, -0.25, 116, 2, -0.25, 118, 2, -0.25, 43, 2, -0.25
*EQUATION
5
3365, 3, 1.0, 39, 3, -0.25, 116, 3, -0.25, 118, 3, -0.25, 43, 3, -0.25
*EQUATION
3
3366, 1, 1.0, 43, 1, -0.5, 118, 1, -0.5
*EQUATION
3
3366, 2, 1.0, 43, 2, -0.5, 118, 2, -0.5
*EQUATION
3
3366, 3, 1.0, 43, 3, -0.5, 118, 3, -0.5
*EQUATION
3
3367, 1, 1.0, 115, 1, -0.5, 117, 1, -0.5
*EQUATION
3
3367, 2, 1.0, 115, 2, -0.5, 117, 2, -0.5
*EQUATION
3
3367, 3, 1.0, 115, 3, -0.5, 117, 3, -0.5
*EQUATION
3
3368, 1, 1.0, 115, 1, -0.5, 116, 1, -0.5
*EQUATION
3
3368, 2, 1.0, 115, 2, -0.5, 116, 2, -0.5
*EQUATION
3
3368, 3, 1.0, 115, 3, -0.5, 116, 3, -0.5
*EQUATION
5
3369, 1, 1.0, 115, 1, -0.25, 116, 1, -0.25, 118, 1, -0.25, 117, 1, -0.25
*EQUATION
5
3369, 2, 1.0, 115, 2, -0.25, 116, 2, -0.25, 118, 2, -0.25, 117, 2, -0.25
*EQUATION
5
3369, 3, 1.0, 115, 3, -0.25, 116, 3, -0.25, 118, 3, -0.25, 117, 3, -0.25
*EQUATION
3
3370, 1, 1.0, 117, 1, -0.5, 118, 1, -0.5
*EQUATION
3
3370, 2, 1.0, 117, 2, -0.5, 118, 2, -0.5
*EQUATION
3
3370, 3, 1.0, 117, 3, -0.5, 118, 3, -0.5
*EQUATION
3
3371, 1, 1.0, 116, 1, -0.5, 118, 1, -0.5
*EQUATION
3
3371, 2, 1.0, 116, 2, -0.5, 118, 2, -0.5
*EQUATION
3
3371, 3, 1.0, 116, 3, -0.5, 118, 3, -0.5
*EQUATION
3
3372, 1, 1.0, 42, 1, -0.5, 46, 1, -0.5
*EQUATION
3
3372, 2, 1.0, 42, 2, -0.5, 46, 2, -0.5
*EQUATION
3
3372, 3, 1.0, 42, 3, -0.5, 46, 3, -0.5
*EQUATION
5
3373, 1, 1.0, 42, 1, -0.25, 43, 1, -0.25, 47, 1, -0.25, 46, 1, -0.25
*EQUATION
5
3373, 2, 1.0, 42, 2, -0.25, 43, 2, -0.25, 47, 2, -0.25, 46, 2, -0.25
*EQUATION
5
3373, 3, 1.0, 42, 3, -0.25, 43, 3, -0.25, 47, 3, -0.25, 46, 3, -0.25
*EQUATION
3
3374, 1, 1.0, 46, 1, -0.5, 47, 1, -0.5
*EQUATION
3
3374, 2, 1.0, 46, 2, -0.5, 47, 2, -0.5
*EQUATION
3
3374, 3, 1.0, 46, 3, -0.5, 47, 3, -0.5
*EQUATION
3
3375, 1, 1.0, 43, 1, -0.5, 47, 1, -0.5
*EQUATION
3
3375, 2, 1.0, 43, 2, -0.5, 47, 2, -0.5
*EQUATION
3
3375, 3, 1.0, 43, 3, -0.5, 47, 3, -0.5
*EQUATION
3
3382, 1, 1.0, 117, 1, -0.5, 119, 1, -0.5
*EQUATION
3
3382, 2, 1.0, 117, 2, -0.5, 119, 2, -0.5
*EQUATION
3
3382, 3, 1.0, 117, 3, -0.5, 119, 3, -0.5
*EQUATION
5
3383, 1, 1.0, 117, 1, -0.25, 118, 1, -0.25, 120, 1, -0.25, 119, 1, -0.25
*EQUATION
5
3383, 2, 1.0, 117, 2, -0.25, 118, 2, -0.25, 120, 2, -0.25, 119, 2, -0.25
*EQUATION
5
3383, 3, 1.0, 117, 3, -0.25, 118, 3, -0.25, 120, 3, -0.25, 119, 3, -0.25
*EQUATION
3
3384, 1, 1.0, 119, 1, -0.5, 120, 1, -0.5
*EQUATION
3
3384, 2, 1.0, 119, 2, -0.5, 120, 2, -0.5
*EQUATION
3
3384, 3, 1.0, 119, 3, -0.5, 120, 3, -0.5
*EQUATION
3
3385, 1, 1.0, 118, 1, -0.5, 120, 1, -0.5
*EQUATION
3
3385, 2, 1.0, 118, 2, -0.5, 120, 2, -0.5
*EQUATION
3
3385, 3, 1.0, 118, 3, -0.5, 120, 3, -0.5
*EQUATION
3
3386, 1, 1.0, 43, 1, -0.5, 51, 1, -0.5
*EQUATION
3
3386, 2, 1.0, 43, 2, -0.5, 51, 2, -0.5
*EQUATION
3
3386, 3, 1.0, 43, 3, -0.5, 51, 3, -0.5
*EQUATION
5
3387, 1, 1.0, 43, 1, -0.25, 51, 1, -0.25, 53, 1, -0.25, 47, 1, -0.25
*EQUATION
5
3387, 2, 1.0, 43, 2, -0.25, 51, 2, -0.25, 53, 2, -0.25, 47, 2, -0.25
*EQUATION
5
3387, 3, 1.0, 43, 3, -0.25, 51, 3, -0.25, 53, 3, -0.25, 47, 3, -0.25
*EQUATION
3
3388, 1, 1.0, 47, 1, -0.5, 53, 1, -0.5
*EQUATION
3
3388, 2, 1.0, 47, 2, -0.5, 53, 2, -0.5
*EQUATION
3
3388, 3, 1.0, 47, 3, -0.5, 53, 3, -0.5
*EQUATION
3
3389, 1, 1.0, 51, 1, -0.5, 53, 1, -0.5
*EQUATION
3
3389, 2, 1.0, 51, 2, -0.5, 53, 2, -0.5
*EQUATION
3
3389, 3, 1.0, 51, 3, -0.5, 53, 3, -0.5
*EQUATION
5
3390, 1, 1.0, 43, 1, -0.25, 118, 1, -0.25, 122, 1, -0.25, 51, 1, -0.25
*EQUATION
5
3390, 2, 1.0, 43, 2, -0.25, 118, 2, -0.25, 122, 2, -0.25, 51, 2, -0.25
*EQUATION
5
3390, 3, 1.0, 43, 3, -0.25, 118, 3, -0.25, 122, 3, -0.25, 51, 3, -0.25
*EQUATION
3
3393, 1, 1.0, 51, 1, -0.5, 122, 1, -0.5
*EQUATION
3
3393, 2, 1.0, 51, 2, -0.5, 122, 2, -0.5
*EQUATION
3
3393, 3, 1.0, 51, 3, -0.5, 122, 3, -0.5
*EQUATION
3
3396, 1, 1.0, 118, 1, -0.5, 122, 1, -0.5
*EQUATION
3
3396, 2, 1.0, 118, 2, -0.5, 122, 2, -0.5
*EQUATION
3
3396, 3, 1.0, 118, 3, -0.5, 122, 3, -0.5
*EQUATION
5
3397, 1, 1.0, 118, 1, -0.25, 122, 1, -0.25, 123, 1, -0.25, 120, 1, -0.25
*EQUATION
5
3397, 2, 1.0, 118, 2, -0.25, 122, 2, -0.25, 123, 2, -0.25, 120, 2, -0.25
*EQUATION
5
3397, 3, 1.0, 118, 3, -0.25, 122, 3, -0.25, 123, 3, -0.25, 120, 3, -0.25
*EQUATION
3
3398, 1, 1.0, 120, 1, -0.5, 123, 1, -0.5
*EQUATION
3
3398, 2, 1.0, 120, 2, -0.5, 123, 2, -0.5
*EQUATION
3
3398, 3, 1.0, 120, 3, -0.5, 123, 3, -0.5
*EQUATION
3
3399, 1, 1.0, 122, 1, -0.5, 123, 1, -0.5
*EQUATION
3
3399, 2, 1.0, 122, 2, -0.5, 123, 2, -0.5
*EQUATION
3
3399, 3, 1.0, 122, 3, -0.5, 123, 3, -0.5
*EQUATION
3
3400, 1, 1.0, 51, 1, -0.5, 57, 1, -0.5
*EQUATION
3
3400, 2, 1.0, 51, 2, -0.5, 57, 2, -0.5
*EQUATION
3
3400, 3, 1.0, 51, 3, -0.5, 57, 3, -0.5
*EQUATION
5
3401, 1, 1.0, 51, 1, -0.25, 57, 1, -0.25, 59, 1, -0.25, 53, 1, -0.25
*EQUATION
5
3401, 2, 1.0, 51, 2, -0.25, 57, 2, -0.25, 59, 2, -0.25, 53, 2, -0.25
*EQUATION
5
3401, 3, 1.0, 51, 3, -0.25, 57, 3, -0.25, 59, 3, -0.25, 53, 3, -0.25
*EQUATION
3
3402, 1, 1.0, 53, 1, -0.5, 59, 1, -0.5
*EQUATION
3
3402, 2, 1.0, 53, 2, -0.5, 59, 2, -0.5
*EQUATION
3
3402, 3, 1.0, 53, 3, -0.5, 59, 3, -0.5
*EQUATION
3
3403, 1, 1.0, 57, 1, -0.5, 59, 1, -0.5
*EQUATION
3
3403, 2, 1.0, 57, 2, -0.5, 59, 2, -0.5
*EQUATION
3
3403, 3, 1.0, 57, 3, -0.5, 59, 3, -0.5
*EQUATION
5
3404, 1, 1.0, 51, 1, -0.25, 122, 1, -0.25, 125, 1, -0.25, 57, 1, -0.25
*EQUATION
5
3404, 2, 1.0, 51, 2, -0.25, 122, 2, -0.25, 125, 2, -0.25, 57, 2, -0.25
*EQUATION
5
3404, 3, 1.0, 51, 3, -0.25, 122, 3, -0.25, 125, 3, -0.25, 57, 3, -0.25
*EQUATION
3
3407, 1, 1.0, 57, 1, -0.5, 125, 1, -0.5
*EQUATION
3
3407, 2, 1.0, 57, 2, -0.5, 125, 2, -0.5
*EQUATION
3
3407, 3, 1.0, 57, 3, -0.5, 125, 3, -0.5
*EQUATION
3
3410, 1, 1.0, 122, 1, -0.5, 125, 1, -0.5
*EQUATION
3
3410, 2, 1.0, 122, 2, -0.5, 125, 2, -0.5
*EQUATION
3
3410, 3, 1.0, 122, 3, -0.5, 125, 3, -0.5
*EQUATION
5
3411, 1, 1.0, 122, 1, -0.25, 125, 1, -0.25, 126, 1, -0.25, 123, 1, -0.25
*EQUATION
5
3411, 2, 1.0, 122, 2, -0.25, 125, 2, -0.25, 126, 2, -0.25, 123, 2, -0.25
*EQUATION
5
3411, 3, 1.0, 122, 3, -0.25, 125, 3, -0.25, 126, 3, -0.25, 123, 3, -0.25
*EQUATION
3
3412, 1, 1.0, 123, 1, -0.5, 126, 1, -0.5
*EQUATION
3
3412, 2, 1.0, 123, 2, -0.5, 126, 2, -0.5
*EQUATION
3
3412, 3, 1.0, 123, 3, -0.5, 126, 3, -0.5
*EQUATION
3
3413, 1, 1.0, 125, 1, -0.5, 126, 1, -0.5
*EQUATION
3
3413, 2, 1.0, 125, 2, -0.5, 126, 2, -0.5
*EQUATION
3
3413, 3, 1.0, 125, 3, -0.5, 126, 3, -0.5
*EQUATION
3
3414, 1, 1.0, 57, 1, -0.5, 61, 1, -0.5
*EQUATION
3
3414, 2, 1.0, 57, 2, -0.5, 61, 2, -0.5
*EQUATION
3
3414, 3, 1.0, 57, 3, -0.5, 61, 3, -0.5
*EQUATION
5
3415, 1, 1.0, 57, 1, -0.25, 61, 1, -0.25, 63, 1, -0.25, 59, 1, -0.25
*EQUATION
5
3415, 2, 1.0, 57, 2, -0.25, 61, 2, -0.25, 63, 2, -0.25, 59, 2, -0.25
*EQUATION
5
3415, 3, 1.0, 57, 3, -0.25, 61, 3, -0.25, 63, 3, -0.25, 59, 3, -0.25
*EQUATION
3
3416, 1, 1.0, 59, 1, -0.5, 63, 1, -0.5
*EQUATION
3
3416, 2, 1.0, 59, 2, -0.5, 63, 2, -0.5
*EQUATION
3
3416, 3, 1.0, 59, 3, -0.5, 63, 3, -0.5
*EQUATION
3
3417, 1, 1.0, 61, 1, -0.5, 63, 1, -0.5
*EQUATION
3
3417, 2, 1.0, 61, 2, -0.5, 63, 2, -0.5
*EQUATION
3
3417, 3, 1.0, 61, 3, -0.5, 63, 3, -0.5
*EQUATION
5
3418, 1, 1.0, 57, 1, -0.25, 125, 1, -0.25, 127, 1, -0.25, 61, 1, -0.25
*EQUATION
5
3418, 2, 1.0, 57, 2, -0.25, 125, 2, -0.25, 127, 2, -0.25, 61, 2, -0.25
*EQUATION
5
3418, 3, 1.0, 57, 3, -0.25, 125, 3, -0.25, 127, 3, -0.25, 61, 3, -0.25
*EQUATION
3
3421, 1, 1.0, 61, 1, -0.5, 127, 1, -0.5
*EQUATION
3
3421, 2, 1.0, 61, 2, -0.5, 127, 2, -0.5
*EQUATION
3
3421, 3, 1.0, 61, 3, -0.5, 127, 3, -0.5
*EQUATION
5
3422, 1, 1.0, 61, 1, -0.25, 127, 1, -0.25, 128, 1, -0.25, 63, 1, -0.25
*EQUATION
5
3422, 2, 1.0, 61, 2, -0.25, 127, 2, -0.25, 128, 2, -0.25, 63, 2, -0.25
*EQUATION
5
3422, 3, 1.0, 61, 3, -0.25, 127, 3, -0.25, 128, 3, -0.25, 63, 3, -0.25
*EQUATION
3
3423, 1, 1.0, 63, 1, -0.5, 128, 1, -0.5
*EQUATION
3
3423, 2, 1.0, 63, 2, -0.5, 128, 2, -0.5
*EQUATION
3
3423, 3, 1.0, 63, 3, -0.5, 128, 3, -0.5
*EQUATION
3
3424, 1, 1.0, 125, 1, -0.5, 127, 1, -0.5
*EQUATION
3
3424, 2, 1.0, 125, 2, -0.5, 127, 2, -0.5
*EQUATION
3
3424, 3, 1.0, 125, 3, -0.5, 127, 3, -0.5
*EQUATION
5
3425, 1, 1.0, 125, 1, -0.25, 127, 1, -0.25, 128, 1, -0.25, 126, 1, -0.25
*EQUATION
5
3425, 2, 1.0, 125, 2, -0.25, 127, 2, -0.25, 128, 2, -0.25, 126, 2, -0.25
*EQUATION
5
3425, 3, 1.0, 125, 3, -0.25, 127, 3, -0.25, 128, 3, -0.25, 126, 3, -0.25
*EQUATION
3
3426, 1, 1.0, 126, 1, -0.5, 128, 1, -0.5
*EQUATION
3
3426, 2, 1.0, 126, 2, -0.5, 128, 2, -0.5
*EQUATION
3
3426, 3, 1.0, 126, 3, -0.5, 128, 3, -0.5
*EQUATION
3
3427, 1, 1.0, 127, 1, -0.5, 128, 1, -0.5
*EQUATION
3
3427, 2, 1.0, 127, 2, -0.5, 128, 2, -0.5
*EQUATION
3
3427, 3, 1.0, 127, 3, -0.5, 128, 3, -0.5
*EQUATION
5
3428, 1, 1.0, 22, 1, -0.25, 107, 1, -0.25, 127, 1, -0.25, 61, 1, -0.25
*EQUATION
5
3428, 2, 1.0, 22, 2, -0.25, 107, 2, -0.25, 127, 2, -0.25, 61, 2, -0.25
*EQUATION
5
3428, 3, 1.0, 22, 3, -0.25, 107, 3, -0.25, 127, 3, -0.25, 61, 3, -0.25
*EQUATION
5
3430, 1, 1.0, 61, 1, -0.25, 127, 1, -0.25, 129, 1, -0.25, 65, 1, -0.25
*EQUATION
5
3430, 2, 1.0, 61, 2, -0.25, 127, 2, -0.25, 129, 2, -0.25, 65, 2, -0.25
*EQUATION
5
3430, 3, 1.0, 61, 3, -0.25, 127, 3, -0.25, 129, 3, -0.25, 65, 3, -0.25
*EQUATION
3
3432, 1, 1.0, 65, 1, -0.5, 129, 1, -0.5
*EQUATION
3
3432, 2, 1.0, 65, 2, -0.5, 129, 2, -0.5
*EQUATION
3
3432, 3, 1.0, 65, 3, -0.5, 129, 3, -0.5
*EQUATION
3
3433, 1, 1.0, 107, 1, -0.5, 127, 1, -0.5
*EQUATION
3
3433, 2, 1.0, 107, 2, -0.5, 127, 2, -0.5
*EQUATION
3
3433, 3, 1.0, 107, 3, -0.5, 127, 3, -0.5
*EQUATION
3
3435, 1, 1.0, 127, 1, -0.5, 129, 1, -0.5
*EQUATION
3
3435, 2, 1.0, 127, 2, -0.5, 129, 2, -0.5
*EQUATION
3
3435, 3, 1.0, 127, 3, -0.5, 129, 3, -0.5
*EQUATION
5
3438, 1, 1.0, 65, 1, -0.25, 129, 1, -0.25, 131, 1, -0.25, 69, 1, -0.25
*EQUATION
5
3438, 2, 1.0, 65, 2, -0.25, 129, 2, -0.25, 131, 2, -0.25, 69, 2, -0.25
*EQUATION
5
3438, 3, 1.0, 65, 3, -0.25, 129, 3, -0.25, 131, 3, -0.25, 69, 3, -0.25
*EQUATION
5
3439, 1, 1.0, 35, 1, -0.25, 114, 1, -0.25, 131, 1, -0.25, 69, 1, -0.25
*EQUATION
5
3439, 2, 1.0, 35, 2, -0.25, 114, 2, -0.25, 131, 2, -0.25, 69, 2, -0.25
*EQUATION
5
3439, 3, 1.0, 35, 3, -0.25, 114, 3, -0.25, 131, 3, -0.25, 69, 3, -0.25
*EQUATION
3
3440, 1, 1.0, 69, 1, -0.5, 131, 1, -0.5
*EQUATION
3
3440, 2, 1.0, 69, 2, -0.5, 131, 2, -0.5
*EQUATION
3
3440, 3, 1.0, 69, 3, -0.5, 131, 3, -0.5
*EQUATION
3
3442, 1, 1.0, 129, 1, -0.5, 131, 1, -0.5
*EQUATION
3
3442, 2, 1.0, 129, 2, -0.5, 131, 2, -0.5
*EQUATION
3
3442, 3, 1.0, 129, 3, -0.5, 131, 3, -0.5
*EQUATION
3
3443, 1, 1.0, 114, 1, -0.5, 131, 1, -0.5
*EQUATION
3
3443, 2, 1.0, 114, 2, -0.5, 131, 2, -0.5
*EQUATION
3
3443, 3, 1.0, 114, 3, -0.5, 131, 3, -0.5
*EQUATION
3
3444, 1, 1.0, 69, 1, -0.5, 71, 1, -0.5
*EQUATION
3
3444, 2, 1.0, 69, 2, -0.5, 71, 2, -0.5
*EQUATION
3
3444, 3, 1.0, 69, 3, -0.5, 71, 3, -0.5
*EQUATION
3
3445, 1, 1.0, 69, 1, -0.5, 75, 1, -0.5
*EQUATION
3
3445, 2, 1.0, 69, 2, -0.5, 75, 2, -0.5
*EQUATION
3
3445, 3, 1.0, 69, 3, -0.5, 75, 3, -0.5
*EQUATION
5
3446, 1, 1.0, 69, 1, -0.25, 75, 1, -0.25, 77, 1, -0.25, 71, 1, -0.25
*EQUATION
5
3446, 2, 1.0, 69, 2, -0.25, 75, 2, -0.25, 77, 2, -0.25, 71, 2, -0.25
*EQUATION
5
3446, 3, 1.0, 69, 3, -0.25, 75, 3, -0.25, 77, 3, -0.25, 71, 3, -0.25
*EQUATION
3
3447, 1, 1.0, 71, 1, -0.5, 77, 1, -0.5
*EQUATION
3
3447, 2, 1.0, 71, 2, -0.5, 77, 2, -0.5
*EQUATION
3
3447, 3, 1.0, 71, 3, -0.5, 77, 3, -0.5
*EQUATION
3
3448, 1, 1.0, 75, 1, -0.5, 77, 1, -0.5
*EQUATION
3
3448, 2, 1.0, 75, 2, -0.5, 77, 2, -0.5
*EQUATION
3
3448, 3, 1.0, 75, 3, -0.5, 77, 3, -0.5
*EQUATION
5
3449, 1, 1.0, 69, 1, -0.25, 131, 1, -0.25, 132, 1, -0.25, 71, 1, -0.25
*EQUATION
5
3449, 2, 1.0, 69, 2, -0.25, 131, 2, -0.25, 132, 2, -0.25, 71, 2, -0.25
*EQUATION
5
3449, 3, 1.0, 69, 3, -0.25, 131, 3, -0.25, 132, 3, -0.25, 71, 3, -0.25
*EQUATION
3
3450, 1, 1.0, 71, 1, -0.5, 132, 1, -0.5
*EQUATION
3
3450, 2, 1.0, 71, 2, -0.5, 132, 2, -0.5
*EQUATION
3
3450, 3, 1.0, 71, 3, -0.5, 132, 3, -0.5
*EQUATION
5
3451, 1, 1.0, 69, 1, -0.25, 131, 1, -0.25, 134, 1, -0.25, 75, 1, -0.25
*EQUATION
5
3451, 2, 1.0, 69, 2, -0.25, 131, 2, -0.25, 134, 2, -0.25, 75, 2, -0.25
*EQUATION
5
3451, 3, 1.0, 69, 3, -0.25, 131, 3, -0.25, 134, 3, -0.25, 75, 3, -0.25
*EQUATION
3
3454, 1, 1.0, 75, 1, -0.5, 134, 1, -0.5
*EQUATION
3
3454, 2, 1.0, 75, 2, -0.5, 134, 2, -0.5
*EQUATION
3
3454, 3, 1.0, 75, 3, -0.5, 134, 3, -0.5
*EQUATION
3
3457, 1, 1.0, 131, 1, -0.5, 132, 1, -0.5
*EQUATION
3
3457, 2, 1.0, 131, 2, -0.5, 132, 2, -0.5
*EQUATION
3
3457, 3, 1.0, 131, 3, -0.5, 132, 3, -0.5
*EQUATION
3
3458, 1, 1.0, 131, 1, -0.5, 134, 1, -0.5
*EQUATION
3
3458, 2, 1.0, 131, 2, -0.5, 134, 2, -0.5
*EQUATION
3
3458, 3, 1.0, 131, 3, -0.5, 134, 3, -0.5
*EQUATION
5
3459, 1, 1.0, 131, 1, -0.25, 134, 1, -0.25, 135, 1, -0.25, 132, 1, -0.25
*EQUATION
5
3459, 2, 1.0, 131, 2, -0.25, 134, 2, -0.25, 135, 2, -0.25, 132, 2, -0.25
*EQUATION
5
3459, 3, 1.0, 131, 3, -0.25, 134, 3, -0.25, 135, 3, -0.25, 132, 3, -0.25
*EQUATION
3
3460, 1, 1.0, 132, 1, -0.5, 135, 1, -0.5
*EQUATION
3
3460, 2, 1.0, 132, 2, -0.5, 135, 2, -0.5
*EQUATION
3
3460, 3, 1.0, 132, 3, -0.5, 135, 3, -0.5
*EQUATION
3
3461, 1, 1.0, 134, 1, -0.5, 135, 1, -0.5
*EQUATION
3
3461, 2, 1.0, 134, 2, -0.5, 135, 2, -0.5
*EQUATION
3
3461, 3, 1.0, 134, 3, -0.5, 135, 3, -0.5
*EQUATION
3
3462, 1, 1.0, 75, 1, -0.5, 81, 1, -0.5
*EQUATION
3
3462, 2, 1.0, 75, 2, -0.5, 81, 2, -0.5
*EQUATION
3
3462, 3, 1.0, 75, 3, -0.5, 81, 3, -0.5
*EQUATION
5
3463, 1, 1.0, 75, 1, -0.25, 81, 1, -0.25, 83, 1, -0.25, 77, 1, -0.25
*EQUATION
5
3463, 2, 1.0, 75, 2, -0.25, 81, 2, -0.25, 83, 2, -0.25, 77, 2, -0.25
*EQUATION
5
3463, 3, 1.0, 75, 3, -0.25, 81, 3, -0.25, 83, 3, -0.25, 77, 3, -0.25
*EQUATION
3
3464, 1, 1.0, 77, 1, -0.5, 83, 1, -0.5
*EQUATION
3
3464, 2, 1.0, 77, 2, -0.5, 83, 2, -0.5
*EQUATION
3
3464, 3, 1.0, 77, 3, -0.5, 83, 3, -0.5
*EQUATION
3
3465, 1, 1.0, 81, 1, -0.5, 83, 1, -0.5
*EQUATION
3
3465, 2, 1.0, 81, 2, -0.5, 83, 2, -0.5
*EQUATION
3
3465, 3, 1.0, 81, 3, -0.5, 83, 3, -0.5
*EQUATION
5
3466, 1, 1.0, 75, 1, -0.25, 134, 1, -0.25, 137, 1, -0.25, 81, 1, -0.25
*EQUATION
5
3466, 2, 1.0, 75, 2, -0.25, 134, 2, -0.25, 137, 2, -0.25, 81, 2, -0.25
*EQUATION
5
3466, 3, 1.0, 75, 3, -0.25, 134, 3, -0.25, 137, 3, -0.25, 81, 3, -0.25
*EQUATION
3
3469, 1, 1.0, 81, 1, -0.5, 137, 1, -0.5
*EQUATION
3
3469, 2, 1.0, 81, 2, -0.5, 137, 2, -0.5
*EQUATION
3
3469, 3, 1.0, 81, 3, -0.5, 137, 3, -0.5
*EQUATION
3
3472, 1, 1.0, 134, 1, -0.5, 137, 1, -0.5
*EQUATION
3
3472, 2, 1.0, 134, 2, -0.5, 137, 2, -0.5
*EQUATION
3
3472, 3, 1.0, 134, 3, -0.5, 137, 3, -0.5
*EQUATION
5
3473, 1, 1.0, 134, 1, -0.25, 137, 1, -0.25, 138, 1, -0.25, 135, 1, -0.25
*EQUATION
5
3473, 2, 1.0, 134, 2, -0.25, 137, 2, -0.25, 138, 2, -0.25, 135, 2, -0.25
*EQUATION
5
3473, 3, 1.0, 134, 3, -0.25, 137, 3, -0.25, 138, 3, -0.25, 135, 3, -0.25
*EQUATION
3
3474, 1, 1.0, 135, 1, -0.5, 138, 1, -0.5
*EQUATION
3
3474, 2, 1.0, 135, 2, -0.5, 138, 2, -0.5
*EQUATION
3
3474, 3, 1.0, 135, 3, -0.5, 138, 3, -0.5
*EQUATION
3
3475, 1, 1.0, 137, 1, -0.5, 138, 1, -0.5
*EQUATION
3
3475, 2, 1.0, 137, 2, -0.5, 138, 2, -0.5
*EQUATION
3
3475, 3, 1.0, 137, 3, -0.5, 138, 3, -0.5
*EQUATION
3
3476, 1, 1.0, 81, 1, -0.5, 87, 1, -0.5
*EQUATION
3
3476, 2, 1.0, 81, 2, -0.5, 87, 2, -0.5
*EQUATION
3
3476, 3, 1.0, 81, 3, -0.5, 87, 3, -0.5
*EQUATION
5
3477, 1, 1.0, 81, 1, -0.25, 87, 1, -0.25, 89, 1, -0.25, 83, 1, -0.25
*EQUATION
5
3477, 2, 1.0, 81, 2, -0.25, 87, 2, -0.25, 89, 2, -0.25, 83, 2, -0.25
*EQUATION
5
3477, 3, 1.0, 81, 3, -0.25, 87, 3, -0.25, 89, 3, -0.25, 83, 3, -0.25
*EQUATION
3
3478, 1, 1.0, 83, 1, -0.5, 89, 1, -0.5
*EQUATION
3
3478, 2, 1.0, 83, 2, -0.5, 89, 2, -0.5
*EQUATION
3
3478, 3, 1.0, 83, 3, -0.5, 89, 3, -0.5
*EQUATION
3
3479, 1, 1.0, 87, 1, -0.5, 89, 1, -0.5
*EQUATION
3
3479, 2, 1.0, 87, 2, -0.5, 89, 2, -0.5
*EQUATION
3
3479, 3, 1.0, 87, 3, -0.5, 89, 3, -0.5
*EQUATION
5
3480, 1, 1.0, 81, 1, -0.25, 137, 1, -0.25, 140, 1, -0.25, 87, 1, -0.25
*EQUATION
5
3480, 2, 1.0, 81, 2, -0.25, 137, 2, -0.25, 140, 2, -0.25, 87, 2, -0.25
*EQUATION
5
3480, 3, 1.0, 81, 3, -0.25, 137, 3, -0.25, 140, 3, -0.25, 87, 3, -0.25
*EQUATION
3
3483, 1, 1.0, 87, 1, -0.5, 140, 1, -0.5
*EQUATION
3
3483, 2, 1.0, 87, 2, -0.5, 140, 2, -0.5
*EQUATION
3
3483, 3, 1.0, 87, 3, -0.5, 140, 3, -0.5
*EQUATION
3
3486, 1, 1.0, 137, 1, -0.5, 140, 1, -0.5
*EQUATION
3
3486, 2, 1.0, 137, 2, -0.5, 140, 2, -0.5
*EQUATION
3
3486, 3, 1.0, 137, 3, -0.5, 140, 3, -0.5
*EQUATION
5
3487, 1, 1.0, 137, 1, -0.25, 140, 1, -0.25, 141, 1, -0.25, 138, 1, -0.25
*EQUATION
5
3487, 2, 1.0, 137, 2, -0.25, 140, 2, -0.25, 141, 2, -0.25, 138, 2, -0.25
*EQUATION
5
3487, 3, 1.0, 137, 3, -0.25, 140, 3, -0.25, 141, 3, -0.25, 138, 3, -0.25
*EQUATION
3
3488, 1, 1.0, 138, 1, -0.5, 141, 1, -0.5
*EQUATION
3
3488, 2, 1.0, 138, 2, -0.5, 141, 2, -0.5
*EQUATION
3
3488, 3, 1.0, 138, 3, -0.5, 141, 3, -0.5
*EQUATION
3
3489, 1, 1.0, 140, 1, -0.5, 141, 1, -0.5
*EQUATION
3
3489, 2, 1.0, 140, 2, -0.5, 141, 2, -0.5
*EQUATION
3
3489, 3, 1.0, 140, 3, -0.5, 141, 3, -0.5
*EQUATION
3
3490, 1, 1.0, 85, 1, -0.5, 87, 1, -0.5
*EQUATION
3
3490, 2, 1.0, 85, 2, -0.5, 87, 2, -0.5
*EQUATION
3
3490, 3, 1.0, 85, 3, -0.5, 87, 3, -0.5
*EQUATION
3
3491, 1, 1.0, 85, 1, -0.5, 91, 1, -0.5
*EQUATION
3
3491, 2, 1.0, 85, 2, -0.5, 91, 2, -0.5
*EQUATION
3
3491, 3, 1.0, 85, 3, -0.5, 91, 3, -0.5
*EQUATION
5
3492, 1, 1.0, 85, 1, -0.25, 91, 1, -0.25, 93, 1, -0.25, 87, 1, -0.25
*EQUATION
5
3492, 2, 1.0, 85, 2, -0.25, 91, 2, -0.25, 93, 2, -0.25, 87, 2, -0.25
*EQUATION
5
3492, 3, 1.0, 85, 3, -0.25, 91, 3, -0.25, 93, 3, -0.25, 87, 3, -0.25
*EQUATION
3
3493, 1, 1.0, 87, 1, -0.5, 93, 1, -0.5
*EQUATION
3
3493, 2, 1.0, 87, 2, -0.5, 93, 2, -0.5
*EQUATION
3
3493, 3, 1.0, 87, 3, -0.5, 93, 3, -0.5
*EQUATION
3
3494, 1, 1.0, 91, 1, -0.5, 93, 1, -0.5
*EQUATION
3
3494, 2, 1.0, 91, 2, -0.5, 93, 2, -0.5
*EQUATION
3
3494, 3, 1.0, 91, 3, -0.5, 93, 3, -0.5
*EQUATION
3
3495, 1, 1.0, 85, 1, -0.5, 139, 1, -0.5
*EQUATION
3
3495, 2, 1.0, 85, 2, -0.5, 139, 2, -0.5
*EQUATION
3
3495, 3, 1.0, 85, 3, -0.5, 139, 3, -0.5
*EQUATION
5
3496, 1, 1.0, 85, 1, -0.25, 139, 1, -0.25, 140, 1, -0.25, 87, 1, -0.25
*EQUATION
5
3496, 2, 1.0, 85, 2, -0.25, 139, 2, -0.25, 140, 2, -0.25, 87, 2, -0.25
*EQUATION
5
3496, 3, 1.0, 85, 3, -0.25, 139, 3, -0.25, 140, 3, -0.25, 87, 3, -0.25
*EQUATION
3
3503, 1, 1.0, 139, 1, -0.5, 140, 1, -0.5
*EQUATION
3
3503, 2, 1.0, 139, 2, -0.5, 140, 2, -0.5
*EQUATION
3
3503, 3, 1.0, 139, 3, -0.5, 140, 3, -0.5
*EQUATION
3
3504, 1, 1.0, 139, 1, -0.5, 142, 1, -0.5
*EQUATION
3
3504, 2, 1.0, 139, 2, -0.5, 142, 2, -0.5
*EQUATION
3
3504, 3, 1.0, 139, 3, -0.5, 142, 3, -0.5
*EQUATION
5
3505, 1, 1.0, 139, 1, -0.25, 142, 1, -0.25, 143, 1, -0.25, 140, 1, -0.25
*EQUATION
5
3505, 2, 1.0, 139, 2, -0.25, 142, 2, -0.25, 143, 2, -0.25, 140, 2, -0.25
*EQUATION
5
3505, 3, 1.0, 139, 3, -0.25, 142, 3, -0.25, 143, 3, -0.25, 140, 3, -0.25
*EQUATION
3
3506, 1, 1.0, 140, 1, -0.5, 143, 1, -0.5
*EQUATION
3
3506, 2, 1.0, 140, 2, -0.5, 143, 2, -0.5
*EQUATION
3
3506, 3, 1.0, 140, 3, -0.5, 143, 3, -0.5
*EQUATION
3
3507, 1, 1.0, 142, 1, -0.5, 143, 1, -0.5
*EQUATION
3
3507, 2, 1.0, 142, 2, -0.5, 143, 2, -0.5
*EQUATION
3
3507, 3, 1.0, 142, 3, -0.5, 143, 3, -0.5
*EQUATION
5
3508, 1, 1.0, 87, 1, -0.25, 93, 1, -0.25, 95, 1, -0.25, 89, 1, -0.25
*EQUATION
5
3508, 2, 1.0, 87, 2, -0.25, 93, 2, -0.25, 95, 2, -0.25, 89, 2, -0.25
*EQUATION
5
3508, 3, 1.0, 87, 3, -0.25, 93, 3, -0.25, 95, 3, -0.25, 89, 3, -0.25
*EQUATION
3
3509, 1, 1.0, 89, 1, -0.5, 95, 1, -0.5
*EQUATION
3
3509, 2, 1.0, 89, 2, -0.5, 95, 2, -0.5
*EQUATION
3
3509, 3, 1.0, 89, 3, -0.5, 95, 3, -0.5
*EQUATION
3
3510, 1, 1.0, 93, 1, -0.5, 95, 1, -0.5
*EQUATION
3
3510, 2, 1.0, 93, 2, -0.5, 95, 2, -0.5
*EQUATION
3
3510, 3, 1.0, 93, 3, -0.5, 95, 3, -0.5
*EQUATION
5
3515, 1, 1.0, 140, 1, -0.25, 143, 1, -0.25, 144, 1, -0.25, 141, 1, -0.25
*EQUATION
5
3515, 2, 1.0, 140, 2, -0.25, 143, 2, -0.25, 144, 2, -0.25, 141, 2, -0.25
*EQUATION
5
3515, 3, 1.0, 140, 3, -0.25, 143, 3, -0.25, 144, 3, -0.25, 141, 3, -0.25
*EQUATION
3
3516, 1, 1.0, 141, 1, -0.5, 144, 1, -0.5
*EQUATION
3
3516, 2, 1.0, 141, 2, -0.5, 144, 2, -0.5
*EQUATION
3
3516, 3, 1.0, 141, 3, -0.5, 144, 3, -0.5
*EQUATION
3
3517, 1, 1.0, 143, 1, -0.5, 144, 1, -0.5
*EQUATION
3
3517, 2, 1.0, 143, 2, -0.5, 144, 2, -0.5
*EQUATION
3
3517, 3, 1.0, 143, 3, -0.5, 144, 3, -0.5
*EQUATION
5
3545, 1, 1.0, 107, 1, -0.25, 155, 1, -0.25, 175, 1, -0.25, 127, 1, -0.25
*EQUATION
5
3545, 2, 1.0, 107, 2, -0.25, 155, 2, -0.25, 175, 2, -0.25, 127, 2, -0.25
*EQUATION
5
3545, 3, 1.0, 107, 3, -0.25, 155, 3, -0.25, 175, 3, -0.25, 127, 3, -0.25
*EQUATION
3
3546, 1, 1.0, 127, 1, -0.5, 175, 1, -0.5
*EQUATION
3
3546, 2, 1.0, 127, 2, -0.5, 175, 2, -0.5
*EQUATION
3
3546, 3, 1.0, 127, 3, -0.5, 175, 3, -0.5
*EQUATION
5
3548, 1, 1.0, 127, 1, -0.25, 175, 1, -0.25, 177, 1, -0.25, 129, 1, -0.25
*EQUATION
5
3548, 2, 1.0, 127, 2, -0.25, 175, 2, -0.25, 177, 2, -0.25, 129, 2, -0.25
*EQUATION
5
3548, 3, 1.0, 127, 3, -0.25, 175, 3, -0.25, 177, 3, -0.25, 129, 3, -0.25
*EQUATION
3
3550, 1, 1.0, 129, 1, -0.5, 177, 1, -0.5
*EQUATION
3
3550, 2, 1.0, 129, 2, -0.5, 177, 2, -0.5
*EQUATION
3
3550, 3, 1.0, 129, 3, -0.5, 177, 3, -0.5
*EQUATION
3
3551, 1, 1.0, 155, 1, -0.5, 175, 1, -0.5
*EQUATION
3
3551, 2, 1.0, 155, 2, -0.5, 175, 2, -0.5
*EQUATION
3
3551, 3, 1.0, 155, 3, -0.5, 175, 3, -0.5
*EQUATION
3
3553, 1, 1.0, 175, 1, -0.5, 177, 1, -0.5
*EQUATION
3
3553, 2, 1.0, 175, 2, -0.5, 177, 2, -0.5
*EQUATION
3
3553, 3, 1.0, 175, 3, -0.5, 177, 3, -0.5
*EQUATION
5
3556, 1, 1.0, 129, 1, -0.25, 177, 1, -0.25, 179, 1, -0.25, 131, 1, -0.25
*EQUATION
5
3556, 2, 1.0, 129, 2, -0.25, 177, 2, -0.25, 179, 2, -0.25, 131, 2, -0.25
*EQUATION
5
3556, 3, 1.0, 129, 3, -0.25, 177, 3, -0.25, 179, 3, -0.25, 131, 3, -0.25
*EQUATION
5
3557, 1, 1.0, 114, 1, -0.25, 162, 1, -0.25, 179, 1, -0.25, 131, 1, -0.25
*EQUATION
5
3557, 2, 1.0, 114, 2, -0.25, 162, 2, -0.25, 179, 2, -0.25, 131, 2, -0.25
*EQUATION
5
3557, 3, 1.0, 114, 3, -0.25, 162, 3, -0.25, 179, 3, -0.25, 131, 3, -0.25
*EQUATION
3
3558, 1, 1.0, 131, 1, -0.5, 179, 1, -0.5
*EQUATION
3
3558, 2, 1.0, 131, 2, -0.5, 179, 2, -0.5
*EQUATION
3
3558, 3, 1.0, 131, 3, -0.5, 179, 3, -0.5
*EQUATION
3
3560, 1, 1.0, 177, 1, -0.5, 179, 1, -0.5
*EQUATION
3
3560, 2, 1.0, 177, 2, -0.5, 179, 2, -0.5
*EQUATION
3
3560, 3, 1.0, 177, 3, -0.5, 179, 3, -0.5
*EQUATION
3
3561, 1, 1.0, 162, 1, -0.5, 179, 1, -0.5
*EQUATION
3
3561, 2, 1.0, 162, 2, -0.5, 179, 2, -0.5
*EQUATION
3
3561, 3, 1.0, 162, 3, -0.5, 179, 3, -0.5
*EQUATION
5
3589, 1, 1.0, 155, 1, -0.25, 203, 1, -0.25, 223, 1, -0.25, 175, 1, -0.25
*EQUATION
5
3589, 2, 1.0, 155, 2, -0.25, 203, 2, -0.25, 223, 2, -0.25, 175, 2, -0.25
*EQUATION
5
3589, 3, 1.0, 155, 3, -0.25, 203, 3, -0.25, 223, 3, -0.25, 175, 3, -0.25
*EQUATION
3
3590, 1, 1.0, 175, 1, -0.5, 223, 1, -0.5
*EQUATION
3
3590, 2, 1.0, 175, 2, -0.5, 223, 2, -0.5
*EQUATION
3
3590, 3, 1.0, 175, 3, -0.5, 223, 3, -0.5
*EQUATION
5
3592, 1, 1.0, 175, 1, -0.25, 223, 1, -0.25, 225, 1, -0.25, 177, 1, -0.25
*EQUATION
5
3592, 2, 1.0, 175, 2, -0.25, 223, 2, -0.25, 225, 2, -0.25, 177, 2, -0.25
*EQUATION
5
3592, 3, 1.0, 175, 3, -0.25, 223, 3, -0.25, 225, 3, -0.25, 177, 3, -0.25
*EQUATION
3
3594, 1, 1.0, 177, 1, -0.5, 225, 1, -0.5
*EQUATION
3
3594, 2, 1.0, 177, 2, -0.5, 225, 2, -0.5
*EQUATION
3
3594, 3, 1.0, 177, 3, -0.5, 225, 3, -0.5
*EQUATION
3
3595, 1, 1.0, 203, 1, -0.5, 223, 1, -0.5
*EQUATION
3
3595, 2, 1.0, 203, 2, -0.5, 223, 2, -0.5
*EQUATION
3
3595, 3, 1.0, 203, 3, -0.5, 223, 3, -0.5
*EQUATION
3
3597, 1, 1.0, 223, 1, -0.5, 225, 1, -0.5
*EQUATION
3
3597, 2, 1.0, 223, 2, -0.5, 225, 2, -0.5
*EQUATION
3
3597, 3, 1.0, 223, 3, -0.5, 225, 3, -0.5
*EQUATION
5
3600, 1, 1.0, 177, 1, -0.25, 225, 1, -0.25, 227, 1, -0.25, 179, 1, -0.25
*EQUATION
5
3600, 2, 1.0, 177, 2, -0.25, 225, 2, -0.25, 227, 2, -0.25, 179, 2, -0.25
*EQUATION
5
3600, 3, 1.0, 177, 3, -0.25, 225, 3, -0.25, 227, 3, -0.25, 179, 3, -0.25
*EQUATION
5
3601, 1, 1.0, 162, 1, -0.25, 210, 1, -0.25, 227, 1, -0.25, 179, 1, -0.25
*EQUATION
5
3601, 2, 1.0, 162, 2, -0.25, 210, 2, -0.25, 227, 2, -0.25, 179, 2, -0.25
*EQUATION
5
3601, 3, 1.0, 162, 3, -0.25, 210, 3, -0.25, 227, 3, -0.25, 179, 3, -0.25
*EQUATION
3
3602, 1, 1.0, 179, 1, -0.5, 227, 1, -0.5
*EQUATION
3
3602, 2, 1.0, 179, 2, -0.5, 227, 2, -0.5
*EQUATION
3
3602, 3, 1.0, 179, 3, -0.5, 227, 3, -0.5
*EQUATION
3
3604, 1, 1.0, 225, 1, -0.5, 227, 1, -0.5
*EQUATION
3
3604, 2, 1.0, 225, 2, -0.5, 227, 2, -0.5
*EQUATION
3
3604, 3, 1.0, 225, 3, -0.5, 227, 3, -0.5
*EQUATION
3
3605, 1, 1.0, 210, 1, -0.5, 227, 1, -0.5
*EQUATION
3
3605, 2, 1.0, 210, 2, -0.5, 227, 2, -0.5
*EQUATION
3
3605, 3, 1.0, 210, 3, -0.5, 227, 3, -0.5
*EQUATION
5
3626, 1, 1.0, 203, 1, -0.25, 251, 1, -0.25, 271, 1, -0.25, 223, 1, -0.25
*EQUATION
5
3626, 2, 1.0, 203, 2, -0.25, 251, 2, -0.25, 271, 2, -0.25, 223, 2, -0.25
*EQUATION
5
3626, 3, 1.0, 203, 3, -0.25, 251, 3, -0.25, 271, 3, -0.25, 223, 3, -0.25
*EQUATION
3
3627, 1, 1.0, 223, 1, -0.5, 271, 1, -0.5
*EQUATION
3
3627, 2, 1.0, 223, 2, -0.5, 271, 2, -0.5
*EQUATION
3
3627, 3, 1.0, 223, 3, -0.5, 271, 3, -0.5
*EQUATION
5
3629, 1, 1.0, 223, 1, -0.25, 271, 1, -0.25, 273, 1, -0.25, 225, 1, -0.25
*EQUATION
5
3629, 2, 1.0, 223, 2, -0.25, 271, 2, -0.25, 273, 2, -0.25, 225, 2, -0.25
*EQUATION
5
3629, 3, 1.0, 223, 3, -0.25, 271, 3, -0.25, 273, 3, -0.25, 225, 3, -0.25
*EQUATION
3
3631, 1, 1.0, 225, 1, -0.5, 273, 1, -0.5
*EQUATION
3
3631, 2, 1.0, 225, 2, -0.5, 273, 2, -0.5
*EQUATION
3
3631, 3, 1.0, 225, 3, -0.5, 273, 3, -0.5
*EQUATION
5
3633, 1, 1.0, 225, 1, -0.25, 273, 1, -0.25, 275, 1, -0.25, 227, 1, -0.25
*EQUATION
5
3633, 2, 1.0, 225, 2, -0.25, 273, 2, -0.25, 275, 2, -0.25, 227, 2, -0.25
*EQUATION
5
3633, 3, 1.0, 225, 3, -0.25, 273, 3, -0.25, 275, 3, -0.25, 227, 3, -0.25
*EQUATION
5
3634, 1, 1.0, 210, 1, -0.25, 258, 1, -0.25, 275, 1, -0.25, 227, 1, -0.25
*EQUATION
5
3634, 2, 1.0, 210, 2, -0.25, 258, 2, -0.25, 275, 2, -0.25, 227, 2, -0.25
*EQUATION
5
3634, 3, 1.0, 210, 3, -0.25, 258, 3, -0.25, 275, 3, -0.25, 227, 3, -0.25
*EQUATION
3
3635, 1, 1.0, 227, 1, -0.5, 275, 1, -0.5
*EQUATION
3
3635, 2, 1.0, 227, 2, -0.5, 275, 2, -0.5
*EQUATION
3
3635, 3, 1.0, 227, 3, -0.5, 275, 3, -0.5
*EQUATION
3
3642, 1, 1.0, 1946, 1, -0.5, 2790, 1, -0.5
*EQUATION
3
3642, 2, 1.0, 1946, 2, -0.5, 2790, 2, -0.5
*EQUATION
3
3642, 3, 1.0, 1946, 3, -0.5, 2790, 3, -0.5
*EQUATION
3
3643, 1, 1.0, 2790, 1, -0.5, 2792, 1, -0.5
*EQUATION
3
3643, 2, 1.0, 2790, 2, -0.5, 2792, 2, -0.5
*EQUATION
3
3643, 3, 1.0, 2790, 3, -0.5, 2792, 3, -0.5
*EQUATION
5
3644, 1, 1.0, 2790, 1, -0.25, 2792, 1, -0.25, 1949, 1, -0.25, 1946, 1, -0.25
*EQUATION
5
3644, 2, 1.0, 2790, 2, -0.25, 2792, 2, -0.25, 1949, 2, -0.25, 1946, 2, -0.25
*EQUATION
5
3644, 3, 1.0, 2790, 3, -0.25, 2792, 3, -0.25, 1949, 3, -0.25, 1946, 3, -0.25
*EQUATION
3
3645, 1, 1.0, 1946, 1, -0.5, 1949, 1, -0.5
*EQUATION
3
3645, 2, 1.0, 1946, 2, -0.5, 1949, 2, -0.5
*EQUATION
3
3645, 3, 1.0, 1946, 3, -0.5, 1949, 3, -0.5
*EQUATION
3
3646, 1, 1.0, 1949, 1, -0.5, 2792, 1, -0.5
*EQUATION
3
3646, 2, 1.0, 1949, 2, -0.5, 2792, 2, -0.5
*EQUATION
3
3646, 3, 1.0, 1949, 3, -0.5, 2792, 3, -0.5
*EQUATION
3
3647, 1, 1.0, 2790, 1, -0.5, 2795, 1, -0.5
*EQUATION
3
3647, 2, 1.0, 2790, 2, -0.5, 2795, 2, -0.5
*EQUATION
3
3647, 3, 1.0, 2790, 3, -0.5, 2795, 3, -0.5
*EQUATION
3
3649, 1, 1.0, 297, 1, -0.5, 1946, 1, -0.5
*EQUATION
3
3649, 2, 1.0, 297, 2, -0.5, 1946, 2, -0.5
*EQUATION
3
3649, 3, 1.0, 297, 3, -0.5, 1946, 3, -0.5
*EQUATION
5
3650, 1, 1.0, 2790, 1, -0.25, 2795, 1, -0.25, 2797, 1, -0.25, 2792, 1, -0.25
*EQUATION
5
3650, 2, 1.0, 2790, 2, -0.25, 2795, 2, -0.25, 2797, 2, -0.25, 2792, 2, -0.25
*EQUATION
5
3650, 3, 1.0, 2790, 3, -0.25, 2795, 3, -0.25, 2797, 3, -0.25, 2792, 3, -0.25
*EQUATION
5
3652, 1, 1.0, 1946, 1, -0.25, 297, 1, -0.25, 1956, 1, -0.25, 1949, 1, -0.25
*EQUATION
5
3652, 2, 1.0, 1946, 2, -0.25, 297, 2, -0.25, 1956, 2, -0.25, 1949, 2, -0.25
*EQUATION
5
3652, 3, 1.0, 1946, 3, -0.25, 297, 3, -0.25, 1956, 3, -0.25, 1949, 3, -0.25
*EQUATION
3
3653, 1, 1.0, 2792, 1, -0.5, 2797, 1, -0.5
*EQUATION
3
3653, 2, 1.0, 2792, 2, -0.5, 2797, 2, -0.5
*EQUATION
3
3653, 3, 1.0, 2792, 3, -0.5, 2797, 3, -0.5
*EQUATION
3
3655, 1, 1.0, 1949, 1, -0.5, 1956, 1, -0.5
*EQUATION
3
3655, 2, 1.0, 1949, 2, -0.5, 1956, 2, -0.5
*EQUATION
3
3655, 3, 1.0, 1949, 3, -0.5, 1956, 3, -0.5
*EQUATION
3
3656, 1, 1.0, 297, 1, -0.5, 2795, 1, -0.5
*EQUATION
3
3656, 2, 1.0, 297, 2, -0.5, 2795, 2, -0.5
*EQUATION
3
3656, 3, 1.0, 297, 3, -0.5, 2795, 3, -0.5
*EQUATION
3
3657, 1, 1.0, 2795, 1, -0.5, 2797, 1, -0.5
*EQUATION
3
3657, 2, 1.0, 2795, 2, -0.5, 2797, 2, -0.5
*EQUATION
3
3657, 3, 1.0, 2795, 3, -0.5, 2797, 3, -0.5
*EQUATION
5
3658, 1, 1.0, 2795, 1, -0.25, 2797, 1, -0.25, 1956, 1, -0.25, 297, 1, -0.25
*EQUATION
5
3658, 2, 1.0, 2795, 2, -0.25, 2797, 2, -0.25, 1956, 2, -0.25, 297, 2, -0.25
*EQUATION
5
3658, 3, 1.0, 2795, 3, -0.25, 2797, 3, -0.25, 1956, 3, -0.25, 297, 3, -0.25
*EQUATION
3
3659, 1, 1.0, 297, 1, -0.5, 1956, 1, -0.5
*EQUATION
3
3659, 2, 1.0, 297, 2, -0.5, 1956, 2, -0.5
*EQUATION
3
3659, 3, 1.0, 297, 3, -0.5, 1956, 3, -0.5
*EQUATION
3
3660, 1, 1.0, 1956, 1, -0.5, 2797, 1, -0.5
*EQUATION
3
3660, 2, 1.0, 1956, 2, -0.5, 2797, 2, -0.5
*EQUATION
3
3660, 3, 1.0, 1956, 3, -0.5, 2797, 3, -0.5
*EQUATION
3
3661, 1, 1.0, 2792, 1, -0.5, 2794, 1, -0.5
*EQUATION
3
3661, 2, 1.0, 2792, 2, -0.5, 2794, 2, -0.5
*EQUATION
3
3661, 3, 1.0, 2792, 3, -0.5, 2794, 3, -0.5
*EQUATION
5
3662, 1, 1.0, 2792, 1, -0.25, 2794, 1, -0.25, 1952, 1, -0.25, 1949, 1, -0.25
*EQUATION
5
3662, 2, 1.0, 2792, 2, -0.25, 2794, 2, -0.25, 1952, 2, -0.25, 1949, 2, -0.25
*EQUATION
5
3662, 3, 1.0, 2792, 3, -0.25, 2794, 3, -0.25, 1952, 3, -0.25, 1949, 3, -0.25
*EQUATION
3
3663, 1, 1.0, 1949, 1, -0.5, 1952, 1, -0.5
*EQUATION
3
3663, 2, 1.0, 1949, 2, -0.5, 1952, 2, -0.5
*EQUATION
3
3663, 3, 1.0, 1949, 3, -0.5, 1952, 3, -0.5
*EQUATION
3
3664, 1, 1.0, 1952, 1, -0.5, 2794, 1, -0.5
*EQUATION
3
3664, 2, 1.0, 1952, 2, -0.5, 2794, 2, -0.5
*EQUATION
3
3664, 3, 1.0, 1952, 3, -0.5, 2794, 3, -0.5
*EQUATION
5
3665, 1, 1.0, 2792, 1, -0.25, 2797, 1, -0.25, 2798, 1, -0.25, 2794, 1, -0.25
*EQUATION
5
3665, 2, 1.0, 2792, 2, -0.25, 2797, 2, -0.25, 2798, 2, -0.25, 2794, 2, -0.25
*EQUATION
5
3665, 3, 1.0, 2792, 3, -0.25, 2797, 3, -0.25, 2798, 3, -0.25, 2794, 3, -0.25
*EQUATION
5
3667, 1, 1.0, 1949, 1, -0.25, 1956, 1, -0.25, 298, 1, -0.25, 1952, 1, -0.25
*EQUATION
5
3667, 2, 1.0, 1949, 2, -0.25, 1956, 2, -0.25, 298, 2, -0.25, 1952, 2, -0.25
*EQUATION
5
3667, 3, 1.0, 1949, 3, -0.25, 1956, 3, -0.25, 298, 3, -0.25, 1952, 3, -0.25
*EQUATION
3
3668, 1, 1.0, 2794, 1, -0.5, 2798, 1, -0.5
*EQUATION
3
3668, 2, 1.0, 2794, 2, -0.5, 2798, 2, -0.5
*EQUATION
3
3668, 3, 1.0, 2794, 3, -0.5, 2798, 3, -0.5
*EQUATION
3
3670, 1, 1.0, 298, 1, -0.5, 1952, 1, -0.5
*EQUATION
3
3670, 2, 1.0, 298, 2, -0.5, 1952, 2, -0.5
*EQUATION
3
3670, 3, 1.0, 298, 3, -0.5, 1952, 3, -0.5
*EQUATION
3
3671, 1, 1.0, 2797, 1, -0.5, 2798, 1, -0.5
*EQUATION
3
3671, 2, 1.0, 2797, 2, -0.5, 2798, 2, -0.5
*EQUATION
3
3671, 3, 1.0, 2797, 3, -0.5, 2798, 3, -0.5
*EQUATION
5
3672, 1, 1.0, 2797, 1, -0.25, 2798, 1, -0.25, 298, 1, -0.25, 1956, 1, -0.25
*EQUATION
5
3672, 2, 1.0, 2797, 2, -0.25, 2798, 2, -0.25, 298, 2, -0.25, 1956, 2, -0.25
*EQUATION
5
3672, 3, 1.0, 2797, 3, -0.25, 2798, 3, -0.25, 298, 3, -0.25, 1956, 3, -0.25
*EQUATION
3
3673, 1, 1.0, 298, 1, -0.5, 1956, 1, -0.5
*EQUATION
3
3673, 2, 1.0, 298, 2, -0.5, 1956, 2, -0.5
*EQUATION
3
3673, 3, 1.0, 298, 3, -0.5, 1956, 3, -0.5
*EQUATION
3
3674, 1, 1.0, 298, 1, -0.5, 2798, 1, -0.5
*EQUATION
3
3674, 2, 1.0, 298, 2, -0.5, 2798, 2, -0.5
*EQUATION
3
3674, 3, 1.0, 298, 3, -0.5, 2798, 3, -0.5
*EQUATION
3
3675, 1, 1.0, 249, 1, -0.5, 1941, 1, -0.5
*EQUATION
3
3675, 2, 1.0, 249, 2, -0.5, 1941, 2, -0.5
*EQUATION
3
3675, 3, 1.0, 249, 3, -0.5, 1941, 3, -0.5
*EQUATION
3
3676, 1, 1.0, 249, 1, -0.5, 1942, 1, -0.5
*EQUATION
3
3676, 2, 1.0, 249, 2, -0.5, 1942, 2, -0.5
*EQUATION
3
3676, 3, 1.0, 249, 3, -0.5, 1942, 3, -0.5
*EQUATION
5
3677, 1, 1.0, 249, 1, -0.25, 1942, 1, -0.25, 1943, 1, -0.25, 1941, 1, -0.25
*EQUATION
5
3677, 2, 1.0, 249, 2, -0.25, 1942, 2, -0.25, 1943, 2, -0.25, 1941, 2, -0.25
*EQUATION
5
3677, 3, 1.0, 249, 3, -0.25, 1942, 3, -0.25, 1943, 3, -0.25, 1941, 3, -0.25
*EQUATION
3
3678, 1, 1.0, 1941, 1, -0.5, 1943, 1, -0.5
*EQUATION
3
3678, 2, 1.0, 1941, 2, -0.5, 1943, 2, -0.5
*EQUATION
3
3678, 3, 1.0, 1941, 3, -0.5, 1943, 3, -0.5
*EQUATION
3
3679, 1, 1.0, 1942, 1, -0.5, 1943, 1, -0.5
*EQUATION
3
3679, 2, 1.0, 1942, 2, -0.5, 1943, 2, -0.5
*EQUATION
3
3679, 3, 1.0, 1942, 3, -0.5, 1943, 3, -0.5
*EQUATION
3
3680, 1, 1.0, 249, 1, -0.5, 1946, 1, -0.5
*EQUATION
3
3680, 2, 1.0, 249, 2, -0.5, 1946, 2, -0.5
*EQUATION
3
3680, 3, 1.0, 249, 3, -0.5, 1946, 3, -0.5
*EQUATION
5
3683, 1, 1.0, 249, 1, -0.25, 1946, 1, -0.25, 1949, 1, -0.25, 1942, 1, -0.25
*EQUATION
5
3683, 2, 1.0, 249, 2, -0.25, 1946, 2, -0.25, 1949, 2, -0.25, 1942, 2, -0.25
*EQUATION
5
3683, 3, 1.0, 249, 3, -0.25, 1946, 3, -0.25, 1949, 3, -0.25, 1942, 3, -0.25
*EQUATION
3
3686, 1, 1.0, 1942, 1, -0.5, 1949, 1, -0.5
*EQUATION
3
3686, 2, 1.0, 1942, 2, -0.5, 1949, 2, -0.5
*EQUATION
3
3686, 3, 1.0, 1942, 3, -0.5, 1949, 3, -0.5
*EQUATION
3
3689, 1, 1.0, 1946, 1, -0.5, 1947, 1, -0.5
*EQUATION
3
3689, 2, 1.0, 1946, 2, -0.5, 1947, 2, -0.5
*EQUATION
3
3689, 3, 1.0, 1946, 3, -0.5, 1947, 3, -0.5
*EQUATION
5
3690, 1, 1.0, 1946, 1, -0.25, 1949, 1, -0.25, 1950, 1, -0.25, 1947, 1, -0.25
*EQUATION
5
3690, 2, 1.0, 1946, 2, -0.25, 1949, 2, -0.25, 1950, 2, -0.25, 1947, 2, -0.25
*EQUATION
5
3690, 3, 1.0, 1946, 3, -0.25, 1949, 3, -0.25, 1950, 3, -0.25, 1947, 3, -0.25
*EQUATION
3
3691, 1, 1.0, 1947, 1, -0.5, 1950, 1, -0.5
*EQUATION
3
3691, 2, 1.0, 1947, 2, -0.5, 1950, 2, -0.5
*EQUATION
3
3691, 3, 1.0, 1947, 3, -0.5, 1950, 3, -0.5
*EQUATION
3
3692, 1, 1.0, 1949, 1, -0.5, 1950, 1, -0.5
*EQUATION
3
3692, 2, 1.0, 1949, 2, -0.5, 1950, 2, -0.5
*EQUATION
3
3692, 3, 1.0, 1949, 3, -0.5, 1950, 3, -0.5
*EQUATION
3
3693, 1, 1.0, 251, 1, -0.5, 1941, 1, -0.5
*EQUATION
3
3693, 2, 1.0, 251, 2, -0.5, 1941, 2, -0.5
*EQUATION
3
3693, 3, 1.0, 251, 3, -0.5, 1941, 3, -0.5
*EQUATION
5
3694, 1, 1.0, 1941, 1, -0.25, 1943, 1, -0.25, 1944, 1, -0.25, 251, 1, -0.25
*EQUATION
5
3694, 2, 1.0, 1941, 2, -0.25, 1943, 2, -0.25, 1944, 2, -0.25, 251, 2, -0.25
*EQUATION
5
3694, 3, 1.0, 1941, 3, -0.25, 1943, 3, -0.25, 1944, 3, -0.25, 251, 3, -0.25
*EQUATION
3
3695, 1, 1.0, 251, 1, -0.5, 1944, 1, -0.5
*EQUATION
3
3695, 2, 1.0, 251, 2, -0.5, 1944, 2, -0.5
*EQUATION
3
3695, 3, 1.0, 251, 3, -0.5, 1944, 3, -0.5
*EQUATION
3
3696, 1, 1.0, 1943, 1, -0.5, 1944, 1, -0.5
*EQUATION
3
3696, 2, 1.0, 1943, 2, -0.5, 1944, 2, -0.5
*EQUATION
3
3696, 3, 1.0, 1943, 3, -0.5, 1944, 3, -0.5
*EQUATION
3
3698, 1, 1.0, 251, 1, -0.5, 1948, 1, -0.5
*EQUATION
3
3698, 2, 1.0, 251, 2, -0.5, 1948, 2, -0.5
*EQUATION
3
3698, 3, 1.0, 251, 3, -0.5, 1948, 3, -0.5
*EQUATION
5
3700, 1, 1.0, 251, 1, -0.25, 1948, 1, -0.25, 1951, 1, -0.25, 1944, 1, -0.25
*EQUATION
5
3700, 2, 1.0, 251, 2, -0.25, 1948, 2, -0.25, 1951, 2, -0.25, 1944, 2, -0.25
*EQUATION
5
3700, 3, 1.0, 251, 3, -0.25, 1948, 3, -0.25, 1951, 3, -0.25, 1944, 3, -0.25
*EQUATION
3
3702, 1, 1.0, 1944, 1, -0.5, 1951, 1, -0.5
*EQUATION
3
3702, 2, 1.0, 1944, 2, -0.5, 1951, 2, -0.5
*EQUATION
3
3702, 3, 1.0, 1944, 3, -0.5, 1951, 3, -0.5
*EQUATION
3
3705, 1, 1.0, 1948, 1, -0.5, 1951, 1, -0.5
*EQUATION
3
3705, 2, 1.0, 1948, 2, -0.5, 1951, 2, -0.5
*EQUATION
3
3705, 3, 1.0, 1948, 3, -0.5, 1951, 3, -0.5
*EQUATION
3
3707, 1, 1.0, 250, 1, -0.5, 1942, 1, -0.5
*EQUATION
3
3707, 2, 1.0, 250, 2, -0.5, 1942, 2, -0.5
*EQUATION
3
3707, 3, 1.0, 250, 3, -0.5, 1942, 3, -0.5
*EQUATION
5
3708, 1, 1.0, 1942, 1, -0.25, 250, 1, -0.25, 1945, 1, -0.25, 1943, 1, -0.25
*EQUATION
5
3708, 2, 1.0, 1942, 2, -0.25, 250, 2, -0.25, 1945, 2, -0.25, 1943, 2, -0.25
*EQUATION
5
3708, 3, 1.0, 1942, 3, -0.25, 250, 3, -0.25, 1945, 3, -0.25, 1943, 3, -0.25
*EQUATION
3
3709, 1, 1.0, 1943, 1, -0.5, 1945, 1, -0.5
*EQUATION
3
3709, 2, 1.0, 1943, 2, -0.5, 1945, 2, -0.5
*EQUATION
3
3709, 3, 1.0, 1943, 3, -0.5, 1945, 3, -0.5
*EQUATION
3
3710, 1, 1.0, 250, 1, -0.5, 1945, 1, -0.5
*EQUATION
3
3710, 2, 1.0, 250, 2, -0.5, 1945, 2, -0.5
*EQUATION
3
3710, 3, 1.0, 250, 3, -0.5, 1945, 3, -0.5
*EQUATION
5
3711, 1, 1.0, 1942, 1, -0.25, 1949, 1, -0.25, 1952, 1, -0.25, 250, 1, -0.25
*EQUATION
5
3711, 2, 1.0, 1942, 2, -0.25, 1949, 2, -0.25, 1952, 2, -0.25, 250, 2, -0.25
*EQUATION
5
3711, 3, 1.0, 1942, 3, -0.25, 1949, 3, -0.25, 1952, 3, -0.25, 250, 3, -0.25
*EQUATION
3
3714, 1, 1.0, 250, 1, -0.5, 1952, 1, -0.5
*EQUATION
3
3714, 2, 1.0, 250, 2, -0.5, 1952, 2, -0.5
*EQUATION
3
3714, 3, 1.0, 250, 3, -0.5, 1952, 3, -0.5
*EQUATION
5
3717, 1, 1.0, 1949, 1, -0.25, 1952, 1, -0.25, 1953, 1, -0.25, 1950, 1, -0.25
*EQUATION
5
3717, 2, 1.0, 1949, 2, -0.25, 1952, 2, -0.25, 1953, 2, -0.25, 1950, 2, -0.25
*EQUATION
5
3717, 3, 1.0, 1949, 3, -0.25, 1952, 3, -0.25, 1953, 3, -0.25, 1950, 3, -0.25
*EQUATION
3
3718, 1, 1.0, 1950, 1, -0.5, 1953, 1, -0.5
*EQUATION
3
3718, 2, 1.0, 1950, 2, -0.5, 1953, 2, -0.5
*EQUATION
3
3718, 3, 1.0, 1950, 3, -0.5, 1953, 3, -0.5
*EQUATION
3
3719, 1, 1.0, 1952, 1, -0.5, 1953, 1, -0.5
*EQUATION
3
3719, 2, 1.0, 1952, 2, -0.5, 1953, 2, -0.5
*EQUATION
3
3719, 3, 1.0, 1952, 3, -0.5, 1953, 3, -0.5
*EQUATION
5
3720, 1, 1.0, 1943, 1, -0.25, 1945, 1, -0.25, 252, 1, -0.25, 1944, 1, -0.25
*EQUATION
5
3720, 2, 1.0, 1943, 2, -0.25, 1945, 2, -0.25, 252, 2, -0.25, 1944, 2, -0.25
*EQUATION
5
3720, 3, 1.0, 1943, 3, -0.25, 1945, 3, -0.25, 252, 3, -0.25, 1944, 3, -0.25
*EQUATION
3
3721, 1, 1.0, 252, 1, -0.5, 1944, 1, -0.5
*EQUATION
3
3721, 2, 1.0, 252, 2, -0.5, 1944, 2, -0.5
*EQUATION
3
3721, 3, 1.0, 252, 3, -0.5, 1944, 3, -0.5
*EQUATION
3
3722, 1, 1.0, 252, 1, -0.5, 1945, 1, -0.5
*EQUATION
3
3722, 2, 1.0, 252, 2, -0.5, 1945, 2, -0.5
*EQUATION
3
3722, 3, 1.0, 252, 3, -0.5, 1945, 3, -0.5
*EQUATION
5
3724, 1, 1.0, 1944, 1, -0.25, 1951, 1, -0.25, 1954, 1, -0.25, 252, 1, -0.25
*EQUATION
5
3724, 2, 1.0, 1944, 2, -0.25, 1951, 2, -0.25, 1954, 2, -0.25, 252, 2, -0.25
*EQUATION
5
3724, 3, 1.0, 1944, 3, -0.25, 1951, 3, -0.25, 1954, 3, -0.25, 252, 3, -0.25
*EQUATION
3
3726, 1, 1.0, 252, 1, -0.5, 1954, 1, -0.5
*EQUATION
3
3726, 2, 1.0, 252, 2, -0.5, 1954, 2, -0.5
*EQUATION
3
3726, 3, 1.0, 252, 3, -0.5, 1954, 3, -0.5
*EQUATION
3
3728, 1, 1.0, 1951, 1, -0.5, 1954, 1, -0.5
*EQUATION
3
3728, 2, 1.0, 1951, 2, -0.5, 1954, 2, -0.5
*EQUATION
3
3728, 3, 1.0, 1951, 3, -0.5, 1954, 3, -0.5
*EQUATION
3
3730, 1, 1.0, 1947, 1, -0.5, 1955, 1, -0.5
*EQUATION
3
3730, 2, 1.0, 1947, 2, -0.5, 1955, 2, -0.5
*EQUATION
3
3730, 3, 1.0, 1947, 3, -0.5, 1955, 3, -0.5
*EQUATION
3
3732, 1, 1.0, 299, 1, -0.5, 1948, 1, -0.5
*EQUATION
3
3732, 2, 1.0, 299, 2, -0.5, 1948, 2, -0.5
*EQUATION
3
3732, 3, 1.0, 299, 3, -0.5, 1948, 3, -0.5
*EQUATION
5
3733, 1, 1.0, 1947, 1, -0.25, 1955, 1, -0.25, 1957, 1, -0.25, 1950, 1, -0.25
*EQUATION
5
3733, 2, 1.0, 1947, 2, -0.25, 1955, 2, -0.25, 1957, 2, -0.25, 1950, 2, -0.25
*EQUATION
5
3733, 3, 1.0, 1947, 3, -0.25, 1955, 3, -0.25, 1957, 3, -0.25, 1950, 3, -0.25
*EQUATION
5
3735, 1, 1.0, 1948, 1, -0.25, 299, 1, -0.25, 1958, 1, -0.25, 1951, 1, -0.25
*EQUATION
5
3735, 2, 1.0, 1948, 2, -0.25, 299, 2, -0.25, 1958, 2, -0.25, 1951, 2, -0.25
*EQUATION
5
3735, 3, 1.0, 1948, 3, -0.25, 299, 3, -0.25, 1958, 3, -0.25, 1951, 3, -0.25
*EQUATION
3
3736, 1, 1.0, 1950, 1, -0.5, 1957, 1, -0.5
*EQUATION
3
3736, 2, 1.0, 1950, 2, -0.5, 1957, 2, -0.5
*EQUATION
3
3736, 3, 1.0, 1950, 3, -0.5, 1957, 3, -0.5
*EQUATION
3
3738, 1, 1.0, 1951, 1, -0.5, 1958, 1, -0.5
*EQUATION
3
3738, 2, 1.0, 1951, 2, -0.5, 1958, 2, -0.5
*EQUATION
3
3738, 3, 1.0, 1951, 3, -0.5, 1958, 3, -0.5
*EQUATION
3
3740, 1, 1.0, 1955, 1, -0.5, 1957, 1, -0.5
*EQUATION
3
3740, 2, 1.0, 1955, 2, -0.5, 1957, 2, -0.5
*EQUATION
3
3740, 3, 1.0, 1955, 3, -0.5, 1957, 3, -0.5
*EQUATION
3
3742, 1, 1.0, 299, 1, -0.5, 1958, 1, -0.5
*EQUATION
3
3742, 2, 1.0, 299, 2, -0.5, 1958, 2, -0.5
*EQUATION
3
3742, 3, 1.0, 299, 3, -0.5, 1958, 3, -0.5
*EQUATION
5
3744, 1, 1.0, 1950, 1, -0.25, 1957, 1, -0.25, 1959, 1, -0.25, 1953, 1, -0.25
*EQUATION
5
3744, 2, 1.0, 1950, 2, -0.25, 1957, 2, -0.25, 1959, 2, -0.25, 1953, 2, -0.25
*EQUATION
5
3744, 3, 1.0, 1950, 3, -0.25, 1957, 3, -0.25, 1959, 3, -0.25, 1953, 3, -0.25
*EQUATION
5
3746, 1, 1.0, 1951, 1, -0.25, 1958, 1, -0.25, 300, 1, -0.25, 1954, 1, -0.25
*EQUATION
5
3746, 2, 1.0, 1951, 2, -0.25, 1958, 2, -0.25, 300, 2, -0.25, 1954, 2, -0.25
*EQUATION
5
3746, 3, 1.0, 1951, 3, -0.25, 1958, 3, -0.25, 300, 3, -0.25, 1954, 3, -0.25
*EQUATION
3
3747, 1, 1.0, 1953, 1, -0.5, 1959, 1, -0.5
*EQUATION
3
3747, 2, 1.0, 1953, 2, -0.5, 1959, 2, -0.5
*EQUATION
3
3747, 3, 1.0, 1953, 3, -0.5, 1959, 3, -0.5
*EQUATION
3
3749, 1, 1.0, 300, 1, -0.5, 1954, 1, -0.5
*EQUATION
3
3749, 2, 1.0, 300, 2, -0.5, 1954, 2, -0.5
*EQUATION
3
3749, 3, 1.0, 300, 3, -0.5, 1954, 3, -0.5
*EQUATION
3
3750, 1, 1.0, 1957, 1, -0.5, 1959, 1, -0.5
*EQUATION
3
3750, 2, 1.0, 1957, 2, -0.5, 1959, 2, -0.5
*EQUATION
3
3750, 3, 1.0, 1957, 3, -0.5, 1959, 3, -0.5
*EQUATION
3
3752, 1, 1.0, 300, 1, -0.5, 1958, 1, -0.5
*EQUATION
3
3752, 2, 1.0, 300, 2, -0.5, 1958, 2, -0.5
*EQUATION
3
3752, 3, 1.0, 300, 3, -0.5, 1958, 3, -0.5
*EQUATION
3
3758, 1, 1.0, 2794, 1, -0.5, 2810, 1, -0.5
*EQUATION
3
3758, 2, 1.0, 2794, 2, -0.5, 2810, 2, -0.5
*EQUATION
3
3758, 3, 1.0, 2794, 3, -0.5, 2810, 3, -0.5
*EQUATION
5
3759, 1, 1.0, 2794, 1, -0.25, 2810, 1, -0.25, 1974, 1, -0.25, 1952, 1, -0.25
*EQUATION
5
3759, 2, 1.0, 2794, 2, -0.25, 2810, 2, -0.25, 1974, 2, -0.25, 1952, 2, -0.25
*EQUATION
5
3759, 3, 1.0, 2794, 3, -0.25, 2810, 3, -0.25, 1974, 3, -0.25, 1952, 3, -0.25
*EQUATION
3
3760, 1, 1.0, 1952, 1, -0.5, 1974, 1, -0.5
*EQUATION
3
3760, 2, 1.0, 1952, 2, -0.5, 1974, 2, -0.5
*EQUATION
3
3760, 3, 1.0, 1952, 3, -0.5, 1974, 3, -0.5
*EQUATION
3
3761, 1, 1.0, 1974, 1, -0.5, 2810, 1, -0.5
*EQUATION
3
3761, 2, 1.0, 1974, 2, -0.5, 2810, 2, -0.5
*EQUATION
3
3761, 3, 1.0, 1974, 3, -0.5, 2810, 3, -0.5
*EQUATION
5
3762, 1, 1.0, 2794, 1, -0.25, 2798, 1, -0.25, 2814, 1, -0.25, 2810, 1, -0.25
*EQUATION
5
3762, 2, 1.0, 2794, 2, -0.25, 2798, 2, -0.25, 2814, 2, -0.25, 2810, 2, -0.25
*EQUATION
5
3762, 3, 1.0, 2794, 3, -0.25, 2798, 3, -0.25, 2814, 3, -0.25, 2810, 3, -0.25
*EQUATION
5
3764, 1, 1.0, 1952, 1, -0.25, 298, 1, -0.25, 1980, 1, -0.25, 1974, 1, -0.25
*EQUATION
5
3764, 2, 1.0, 1952, 2, -0.25, 298, 2, -0.25, 1980, 2, -0.25, 1974, 2, -0.25
*EQUATION
5
3764, 3, 1.0, 1952, 3, -0.25, 298, 3, -0.25, 1980, 3, -0.25, 1974, 3, -0.25
*EQUATION
3
3765, 1, 1.0, 2810, 1, -0.5, 2814, 1, -0.5
*EQUATION
3
3765, 2, 1.0, 2810, 2, -0.5, 2814, 2, -0.5
*EQUATION
3
3765, 3, 1.0, 2810, 3, -0.5, 2814, 3, -0.5
*EQUATION
3
3767, 1, 1.0, 1974, 1, -0.5, 1980, 1, -0.5
*EQUATION
3
3767, 2, 1.0, 1974, 2, -0.5, 1980, 2, -0.5
*EQUATION
3
3767, 3, 1.0, 1974, 3, -0.5, 1980, 3, -0.5
*EQUATION
3
3768, 1, 1.0, 2798, 1, -0.5, 2814, 1, -0.5
*EQUATION
3
3768, 2, 1.0, 2798, 2, -0.5, 2814, 2, -0.5
*EQUATION
3
3768, 3, 1.0, 2798, 3, -0.5, 2814, 3, -0.5
*EQUATION
5
3769, 1, 1.0, 2798, 1, -0.25, 2814, 1, -0.25, 1980, 1, -0.25, 298, 1, -0.25
*EQUATION
5
3769, 2, 1.0, 2798, 2, -0.25, 2814, 2, -0.25, 1980, 2, -0.25, 298, 2, -0.25
*EQUATION
5
3769, 3, 1.0, 2798, 3, -0.25, 2814, 3, -0.25, 1980, 3, -0.25, 298, 3, -0.25
*EQUATION
3
3770, 1, 1.0, 298, 1, -0.5, 1980, 1, -0.5
*EQUATION
3
3770, 2, 1.0, 298, 2, -0.5, 1980, 2, -0.5
*EQUATION
3
3770, 3, 1.0, 298, 3, -0.5, 1980, 3, -0.5
*EQUATION
3
3771, 1, 1.0, 1980, 1, -0.5, 2814, 1, -0.5
*EQUATION
3
3771, 2, 1.0, 1980, 2, -0.5, 2814, 2, -0.5
*EQUATION
3
3771, 3, 1.0, 1980, 3, -0.5, 2814, 3, -0.5
*EQUATION
3
3772, 1, 1.0, 2810, 1, -0.5, 2812, 1, -0.5
*EQUATION
3
3772, 2, 1.0, 2810, 2, -0.5, 2812, 2, -0.5
*EQUATION
3
3772, 3, 1.0, 2810, 3, -0.5, 2812, 3, -0.5
*EQUATION
5
3773, 1, 1.0, 2810, 1, -0.25, 2812, 1, -0.25, 1977, 1, -0.25, 1974, 1, -0.25
*EQUATION
5
3773, 2, 1.0, 2810, 2, -0.25, 2812, 2, -0.25, 1977, 2, -0.25, 1974, 2, -0.25
*EQUATION
5
3773, 3, 1.0, 2810, 3, -0.25, 2812, 3, -0.25, 1977, 3, -0.25, 1974, 3, -0.25
*EQUATION
3
3774, 1, 1.0, 1974, 1, -0.5, 1977, 1, -0.5
*EQUATION
3
3774, 2, 1.0, 1974, 2, -0.5, 1977, 2, -0.5
*EQUATION
3
3774, 3, 1.0, 1974, 3, -0.5, 1977, 3, -0.5
*EQUATION
3
3775, 1, 1.0, 1977, 1, -0.5, 2812, 1, -0.5
*EQUATION
3
3775, 2, 1.0, 1977, 2, -0.5, 2812, 2, -0.5
*EQUATION
3
3775, 3, 1.0, 1977, 3, -0.5, 2812, 3, -0.5
*EQUATION
5
3776, 1, 1.0, 2810, 1, -0.25, 2814, 1, -0.25, 2815, 1, -0.25, 2812, 1, -0.25
*EQUATION
5
3776, 2, 1.0, 2810, 2, -0.25, 2814, 2, -0.25, 2815, 2, -0.25, 2812, 2, -0.25
*EQUATION
5
3776, 3, 1.0, 2810, 3, -0.25, 2814, 3, -0.25, 2815, 3, -0.25, 2812, 3, -0.25
*EQUATION
5
3778, 1, 1.0, 1974, 1, -0.25, 1980, 1, -0.25, 305, 1, -0.25, 1977, 1, -0.25
*EQUATION
5
3778, 2, 1.0, 1974, 2, -0.25, 1980, 2, -0.25, 305, 2, -0.25, 1977, 2, -0.25
*EQUATION
5
3778, 3, 1.0, 1974, 3, -0.25, 1980, 3, -0.25, 305, 3, -0.25, 1977, 3, -0.25
*EQUATION
3
3779, 1, 1.0, 2812, 1, -0.5, 2815, 1, -0.5
*EQUATION
3
3779, 2, 1.0, 2812, 2, -0.5, 2815, 2, -0.5
*EQUATION
3
3779, 3, 1.0, 2812, 3, -0.5, 2815, 3, -0.5
*EQUATION
3
3781, 1, 1.0, 305, 1, -0.5, 1977, 1, -0.5
*EQUATION
3
3781, 2, 1.0, 305, 2, -0.5, 1977, 2, -0.5
*EQUATION
3
3781, 3, 1.0, 305, 3, -0.5, 1977, 3, -0.5
*EQUATION
3
3782, 1, 1.0, 2814, 1, -0.5, 2815, 1, -0.5
*EQUATION
3
3782, 2, 1.0, 2814, 2, -0.5, 2815, 2, -0.5
*EQUATION
3
3782, 3, 1.0, 2814, 3, -0.5, 2815, 3, -0.5
*EQUATION
5
3783, 1, 1.0, 2814, 1, -0.25, 2815, 1, -0.25, 305, 1, -0.25, 1980, 1, -0.25
*EQUATION
5
3783, 2, 1.0, 2814, 2, -0.25, 2815, 2, -0.25, 305, 2, -0.25, 1980, 2, -0.25
*EQUATION
5
3783, 3, 1.0, 2814, 3, -0.25, 2815, 3, -0.25, 305, 3, -0.25, 1980, 3, -0.25
*EQUATION
3
3784, 1, 1.0, 305, 1, -0.5, 1980, 1, -0.5
*EQUATION
3
3784, 2, 1.0, 305, 2, -0.5, 1980, 2, -0.5
*EQUATION
3
3784, 3, 1.0, 305, 3, -0.5, 1980, 3, -0.5
*EQUATION
3
3785, 1, 1.0, 305, 1, -0.5, 2815, 1, -0.5
*EQUATION
3
3785, 2, 1.0, 305, 2, -0.5, 2815, 2, -0.5
*EQUATION
3
3785, 3, 1.0, 305, 3, -0.5, 2815, 3, -0.5
*EQUATION
3
3786, 1, 1.0, 250, 1, -0.5, 1970, 1, -0.5
*EQUATION
3
3786, 2, 1.0, 250, 2, -0.5, 1970, 2, -0.5
*EQUATION
3
3786, 3, 1.0, 250, 3, -0.5, 1970, 3, -0.5
*EQUATION
5
3787, 1, 1.0, 250, 1, -0.25, 1970, 1, -0.25, 1971, 1, -0.25, 1945, 1, -0.25
*EQUATION
5
3787, 2, 1.0, 250, 2, -0.25, 1970, 2, -0.25, 1971, 2, -0.25, 1945, 2, -0.25
*EQUATION
5
3787, 3, 1.0, 250, 3, -0.25, 1970, 3, -0.25, 1971, 3, -0.25, 1945, 3, -0.25
*EQUATION
3
3788, 1, 1.0, 1945, 1, -0.5, 1971, 1, -0.5
*EQUATION
3
3788, 2, 1.0, 1945, 2, -0.5, 1971, 2, -0.5
*EQUATION
3
3788, 3, 1.0, 1945, 3, -0.5, 1971, 3, -0.5
*EQUATION
3
3789, 1, 1.0, 1970, 1, -0.5, 1971, 1, -0.5
*EQUATION
3
3789, 2, 1.0, 1970, 2, -0.5, 1971, 2, -0.5
*EQUATION
3
3789, 3, 1.0, 1970, 3, -0.5, 1971, 3, -0.5
*EQUATION
5
3790, 1, 1.0, 250, 1, -0.25, 1952, 1, -0.25, 1974, 1, -0.25, 1970, 1, -0.25
*EQUATION
5
3790, 2, 1.0, 250, 2, -0.25, 1952, 2, -0.25, 1974, 2, -0.25, 1970, 2, -0.25
*EQUATION
5
3790, 3, 1.0, 250, 3, -0.25, 1952, 3, -0.25, 1974, 3, -0.25, 1970, 3, -0.25
*EQUATION
3
3793, 1, 1.0, 1970, 1, -0.5, 1974, 1, -0.5
*EQUATION
3
3793, 2, 1.0, 1970, 2, -0.5, 1974, 2, -0.5
*EQUATION
3
3793, 3, 1.0, 1970, 3, -0.5, 1974, 3, -0.5
*EQUATION
5
3796, 1, 1.0, 1952, 1, -0.25, 1974, 1, -0.25, 1975, 1, -0.25, 1953, 1, -0.25
*EQUATION
5
3796, 2, 1.0, 1952, 2, -0.25, 1974, 2, -0.25, 1975, 2, -0.25, 1953, 2, -0.25
*EQUATION
5
3796, 3, 1.0, 1952, 3, -0.25, 1974, 3, -0.25, 1975, 3, -0.25, 1953, 3, -0.25
*EQUATION
3
3797, 1, 1.0, 1953, 1, -0.5, 1975, 1, -0.5
*EQUATION
3
3797, 2, 1.0, 1953, 2, -0.5, 1975, 2, -0.5
*EQUATION
3
3797, 3, 1.0, 1953, 3, -0.5, 1975, 3, -0.5
*EQUATION
3
3798, 1, 1.0, 1974, 1, -0.5, 1975, 1, -0.5
*EQUATION
3
3798, 2, 1.0, 1974, 2, -0.5, 1975, 2, -0.5
*EQUATION
3
3798, 3, 1.0, 1974, 3, -0.5, 1975, 3, -0.5
*EQUATION
5
3799, 1, 1.0, 1945, 1, -0.25, 1971, 1, -0.25, 1972, 1, -0.25, 252, 1, -0.25
*EQUATION
5
3799, 2, 1.0, 1945, 2, -0.25, 1971, 2, -0.25, 1972, 2, -0.25, 252, 2, -0.25
*EQUATION
5
3799, 3, 1.0, 1945, 3, -0.25, 1971, 3, -0.25, 1972, 3, -0.25, 252, 3, -0.25
*EQUATION
3
3800, 1, 1.0, 252, 1, -0.5, 1972, 1, -0.5
*EQUATION
3
3800, 2, 1.0, 252, 2, -0.5, 1972, 2, -0.5
*EQUATION
3
3800, 3, 1.0, 252, 3, -0.5, 1972, 3, -0.5
*EQUATION
3
3801, 1, 1.0, 1971, 1, -0.5, 1972, 1, -0.5
*EQUATION
3
3801, 2, 1.0, 1971, 2, -0.5, 1972, 2, -0.5
*EQUATION
3
3801, 3, 1.0, 1971, 3, -0.5, 1972, 3, -0.5
*EQUATION
5
3803, 1, 1.0, 252, 1, -0.25, 1954, 1, -0.25, 1976, 1, -0.25, 1972, 1, -0.25
*EQUATION
5
3803, 2, 1.0, 252, 2, -0.25, 1954, 2, -0.25, 1976, 2, -0.25, 1972, 2, -0.25
*EQUATION
5
3803, 3, 1.0, 252, 3, -0.25, 1954, 3, -0.25, 1976, 3, -0.25, 1972, 3, -0.25
*EQUATION
3
3805, 1, 1.0, 1972, 1, -0.5, 1976, 1, -0.5
*EQUATION
3
3805, 2, 1.0, 1972, 2, -0.5, 1976, 2, -0.5
*EQUATION
3
3805, 3, 1.0, 1972, 3, -0.5, 1976, 3, -0.5
*EQUATION
3
3807, 1, 1.0, 1954, 1, -0.5, 1976, 1, -0.5
*EQUATION
3
3807, 2, 1.0, 1954, 2, -0.5, 1976, 2, -0.5
*EQUATION
3
3807, 3, 1.0, 1954, 3, -0.5, 1976, 3, -0.5
*EQUATION
3
3809, 1, 1.0, 257, 1, -0.5, 1970, 1, -0.5
*EQUATION
3
3809, 2, 1.0, 257, 2, -0.5, 1970, 2, -0.5
*EQUATION
3
3809, 3, 1.0, 257, 3, -0.5, 1970, 3, -0.5
*EQUATION
5
3810, 1, 1.0, 1970, 1, -0.25, 257, 1, -0.25, 1973, 1, -0.25, 1971, 1, -0.25
*EQUATION
5
3810, 2, 1.0, 1970, 2, -0.25, 257, 2, -0.25, 1973, 2, -0.25, 1971, 2, -0.25
*EQUATION
5
3810, 3, 1.0, 1970, 3, -0.25, 257, 3, -0.25, 1973, 3, -0.25, 1971, 3, -0.25
*EQUATION
3
3811, 1, 1.0, 1971, 1, -0.5, 1973, 1, -0.5
*EQUATION
3
3811, 2, 1.0, 1971, 2, -0.5, 1973, 2, -0.5
*EQUATION
3
3811, 3, 1.0, 1971, 3, -0.5, 1973, 3, -0.5
*EQUATION
3
3812, 1, 1.0, 257, 1, -0.5, 1973, 1, -0.5
*EQUATION
3
3812, 2, 1.0, 257, 2, -0.5, 1973, 2, -0.5
*EQUATION
3
3812, 3, 1.0, 257, 3, -0.5, 1973, 3, -0.5
*EQUATION
5
3813, 1, 1.0, 1970, 1, -0.25, 1974, 1, -0.25, 1977, 1, -0.25, 257, 1, -0.25
*EQUATION
5
3813, 2, 1.0, 1970, 2, -0.25, 1974, 2, -0.25, 1977, 2, -0.25, 257, 2, -0.25
*EQUATION
5
3813, 3, 1.0, 1970, 3, -0.25, 1974, 3, -0.25, 1977, 3, -0.25, 257, 3, -0.25
*EQUATION
3
3816, 1, 1.0, 257, 1, -0.5, 1977, 1, -0.5
*EQUATION
3
3816, 2, 1.0, 257, 2, -0.5, 1977, 2, -0.5
*EQUATION
3
3816, 3, 1.0, 257, 3, -0.5, 1977, 3, -0.5
*EQUATION
5
3819, 1, 1.0, 1974, 1, -0.25, 1977, 1, -0.25, 1978, 1, -0.25, 1975, 1, -0.25
*EQUATION
5
3819, 2, 1.0, 1974, 2, -0.25, 1977, 2, -0.25, 1978, 2, -0.25, 1975, 2, -0.25
*EQUATION
5
3819, 3, 1.0, 1974, 3, -0.25, 1977, 3, -0.25, 1978, 3, -0.25, 1975, 3, -0.25
*EQUATION
3
3820, 1, 1.0, 1975, 1, -0.5, 1978, 1, -0.5
*EQUATION
3
3820, 2, 1.0, 1975, 2, -0.5, 1978, 2, -0.5
*EQUATION
3
3820, 3, 1.0, 1975, 3, -0.5, 1978, 3, -0.5
*EQUATION
3
3821, 1, 1.0, 1977, 1, -0.5, 1978, 1, -0.5
*EQUATION
3
3821, 2, 1.0, 1977, 2, -0.5, 1978, 2, -0.5
*EQUATION
3
3821, 3, 1.0, 1977, 3, -0.5, 1978, 3, -0.5
*EQUATION
5
3822, 1, 1.0, 1971, 1, -0.25, 1973, 1, -0.25, 258, 1, -0.25, 1972, 1, -0.25
*EQUATION
5
3822, 2, 1.0, 1971, 2, -0.25, 1973, 2, -0.25, 258, 2, -0.25, 1972, 2, -0.25
*EQUATION
5
3822, 3, 1.0, 1971, 3, -0.25, 1973, 3, -0.25, 258, 3, -0.25, 1972, 3, -0.25
*EQUATION
3
3823, 1, 1.0, 258, 1, -0.5, 1972, 1, -0.5
*EQUATION
3
3823, 2, 1.0, 258, 2, -0.5, 1972, 2, -0.5
*EQUATION
3
3823, 3, 1.0, 258, 3, -0.5, 1972, 3, -0.5
*EQUATION
3
3824, 1, 1.0, 258, 1, -0.5, 1973, 1, -0.5
*EQUATION
3
3824, 2, 1.0, 258, 2, -0.5, 1973, 2, -0.5
*EQUATION
3
3824, 3, 1.0, 258, 3, -0.5, 1973, 3, -0.5
*EQUATION
5
3826, 1, 1.0, 1972, 1, -0.25, 1976, 1, -0.25, 1979, 1, -0.25, 258, 1, -0.25
*EQUATION
5
3826, 2, 1.0, 1972, 2, -0.25, 1976, 2, -0.25, 1979, 2, -0.25, 258, 2, -0.25
*EQUATION
5
3826, 3, 1.0, 1972, 3, -0.25, 1976, 3, -0.25, 1979, 3, -0.25, 258, 3, -0.25
*EQUATION
3
3828, 1, 1.0, 258, 1, -0.5, 1979, 1, -0.5
*EQUATION
3
3828, 2, 1.0, 258, 2, -0.5, 1979, 2, -0.5
*EQUATION
3
3828, 3, 1.0, 258, 3, -0.5, 1979, 3, -0.5
*EQUATION
3
3830, 1, 1.0, 1976, 1, -0.5, 1979, 1, -0.5
*EQUATION
3
3830, 2, 1.0, 1976, 2, -0.5, 1979, 2, -0.5
*EQUATION
3
3830, 3, 1.0, 1976, 3, -0.5, 1979, 3, -0.5
*EQUATION
5
3832, 1, 1.0, 1953, 1, -0.25, 1959, 1, -0.25, 1981, 1, -0.25, 1975, 1, -0.25
*EQUATION
5
3832, 2, 1.0, 1953, 2, -0.25, 1959, 2, -0.25, 1981, 2, -0.25, 1975, 2, -0.25
*EQUATION
5
3832, 3, 1.0, 1953, 3, -0.25, 1959, 3, -0.25, 1981, 3, -0.25, 1975, 3, -0.25
*EQUATION
5
3834, 1, 1.0, 1954, 1, -0.25, 300, 1, -0.25, 1982, 1, -0.25, 1976, 1, -0.25
*EQUATION
5
3834, 2, 1.0, 1954, 2, -0.25, 300, 2, -0.25, 1982, 2, -0.25, 1976, 2, -0.25
*EQUATION
5
3834, 3, 1.0, 1954, 3, -0.25, 300, 3, -0.25, 1982, 3, -0.25, 1976, 3, -0.25
*EQUATION
3
3835, 1, 1.0, 1975, 1, -0.5, 1981, 1, -0.5
*EQUATION
3
3835, 2, 1.0, 1975, 2, -0.5, 1981, 2, -0.5
*EQUATION
3
3835, 3, 1.0, 1975, 3, -0.5, 1981, 3, -0.5
*EQUATION
3
3837, 1, 1.0, 1976, 1, -0.5, 1982, 1, -0.5
*EQUATION
3
3837, 2, 1.0, 1976, 2, -0.5, 1982, 2, -0.5
*EQUATION
3
3837, 3, 1.0, 1976, 3, -0.5, 1982, 3, -0.5
*EQUATION
3
3838, 1, 1.0, 1959, 1, -0.5, 1981, 1, -0.5
*EQUATION
3
3838, 2, 1.0, 1959, 2, -0.5, 1981, 2, -0.5
*EQUATION
3
3838, 3, 1.0, 1959, 3, -0.5, 1981, 3, -0.5
*EQUATION
3
3840, 1, 1.0, 300, 1, -0.5, 1982, 1, -0.5
*EQUATION
3
3840, 2, 1.0, 300, 2, -0.5, 1982, 2, -0.5
*EQUATION
3
3840, 3, 1.0, 300, 3, -0.5, 1982, 3, -0.5
*EQUATION
5
3842, 1, 1.0, 1975, 1, -0.25, 1981, 1, -0.25, 1983, 1, -0.25, 1978, 1, -0.25
*EQUATION
5
3842, 2, 1.0, 1975, 2, -0.25, 1981, 2, -0.25, 1983, 2, -0.25, 1978, 2, -0.25
*EQUATION
5
3842, 3, 1.0, 1975, 3, -0.25, 1981, 3, -0.25, 1983, 3, -0.25, 1978, 3, -0.25
*EQUATION
5
3844, 1, 1.0, 1976, 1, -0.25, 1982, 1, -0.25, 306, 1, -0.25, 1979, 1, -0.25
*EQUATION
5
3844, 2, 1.0, 1976, 2, -0.25, 1982, 2, -0.25, 306, 2, -0.25, 1979, 2, -0.25
*EQUATION
5
3844, 3, 1.0, 1976, 3, -0.25, 1982, 3, -0.25, 306, 3, -0.25, 1979, 3, -0.25
*EQUATION
3
3845, 1, 1.0, 1978, 1, -0.5, 1983, 1, -0.5
*EQUATION
3
3845, 2, 1.0, 1978, 2, -0.5, 1983, 2, -0.5
*EQUATION
3
3845, 3, 1.0, 1978, 3, -0.5, 1983, 3, -0.5
*EQUATION
3
3847, 1, 1.0, 306, 1, -0.5, 1979, 1, -0.5
*EQUATION
3
3847, 2, 1.0, 306, 2, -0.5, 1979, 2, -0.5
*EQUATION
3
3847, 3, 1.0, 306, 3, -0.5, 1979, 3, -0.5
*EQUATION
3
3848, 1, 1.0, 1981, 1, -0.5, 1983, 1, -0.5
*EQUATION
3
3848, 2, 1.0, 1981, 2, -0.5, 1983, 2, -0.5
*EQUATION
3
3848, 3, 1.0, 1981, 3, -0.5, 1983, 3, -0.5
*EQUATION
3
3850, 1, 1.0, 306, 1, -0.5, 1982, 1, -0.5
*EQUATION
3
3850, 2, 1.0, 306, 2, -0.5, 1982, 2, -0.5
*EQUATION
3
3850, 3, 1.0, 306, 3, -0.5, 1982, 3, -0.5
*EQUATION
3
3855, 1, 1.0, 1955, 1, -0.5, 1994, 1, -0.5
*EQUATION
3
3855, 2, 1.0, 1955, 2, -0.5, 1994, 2, -0.5
*EQUATION
3
3855, 3, 1.0, 1955, 3, -0.5, 1994, 3, -0.5
*EQUATION
3
3857, 1, 1.0, 299, 1, -0.5, 1995, 1, -0.5
*EQUATION
3
3857, 2, 1.0, 299, 2, -0.5, 1995, 2, -0.5
*EQUATION
3
3857, 3, 1.0, 299, 3, -0.5, 1995, 3, -0.5
*EQUATION
5
3858, 1, 1.0, 1955, 1, -0.25, 1994, 1, -0.25, 1997, 1, -0.25, 1957, 1, -0.25
*EQUATION
5
3858, 2, 1.0, 1955, 2, -0.25, 1994, 2, -0.25, 1997, 2, -0.25, 1957, 2, -0.25
*EQUATION
5
3858, 3, 1.0, 1955, 3, -0.25, 1994, 3, -0.25, 1997, 3, -0.25, 1957, 3, -0.25
*EQUATION
5
3860, 1, 1.0, 299, 1, -0.25, 1995, 1, -0.25, 1998, 1, -0.25, 1958, 1, -0.25
*EQUATION
5
3860, 2, 1.0, 299, 2, -0.25, 1995, 2, -0.25, 1998, 2, -0.25, 1958, 2, -0.25
*EQUATION
5
3860, 3, 1.0, 299, 3, -0.25, 1995, 3, -0.25, 1998, 3, -0.25, 1958, 3, -0.25
*EQUATION
3
3861, 1, 1.0, 1957, 1, -0.5, 1997, 1, -0.5
*EQUATION
3
3861, 2, 1.0, 1957, 2, -0.5, 1997, 2, -0.5
*EQUATION
3
3861, 3, 1.0, 1957, 3, -0.5, 1997, 3, -0.5
*EQUATION
3
3863, 1, 1.0, 1958, 1, -0.5, 1998, 1, -0.5
*EQUATION
3
3863, 2, 1.0, 1958, 2, -0.5, 1998, 2, -0.5
*EQUATION
3
3863, 3, 1.0, 1958, 3, -0.5, 1998, 3, -0.5
*EQUATION
3
3865, 1, 1.0, 1994, 1, -0.5, 1997, 1, -0.5
*EQUATION
3
3865, 2, 1.0, 1994, 2, -0.5, 1997, 2, -0.5
*EQUATION
3
3865, 3, 1.0, 1994, 3, -0.5, 1997, 3, -0.5
*EQUATION
3
3867, 1, 1.0, 1995, 1, -0.5, 1998, 1, -0.5
*EQUATION
3
3867, 2, 1.0, 1995, 2, -0.5, 1998, 2, -0.5
*EQUATION
3
3867, 3, 1.0, 1995, 3, -0.5, 1998, 3, -0.5
*EQUATION
5
3869, 1, 1.0, 1957, 1, -0.25, 1997, 1, -0.25, 2000, 1, -0.25, 1959, 1, -0.25
*EQUATION
5
3869, 2, 1.0, 1957, 2, -0.25, 1997, 2, -0.25, 2000, 2, -0.25, 1959, 2, -0.25
*EQUATION
5
3869, 3, 1.0, 1957, 3, -0.25, 1997, 3, -0.25, 2000, 3, -0.25, 1959, 3, -0.25
*EQUATION
5
3871, 1, 1.0, 1958, 1, -0.25, 1998, 1, -0.25, 2001, 1, -0.25, 300, 1, -0.25
*EQUATION
5
3871, 2, 1.0, 1958, 2, -0.25, 1998, 2, -0.25, 2001, 2, -0.25, 300, 2, -0.25
*EQUATION
5
3871, 3, 1.0, 1958, 3, -0.25, 1998, 3, -0.25, 2001, 3, -0.25, 300, 3, -0.25
*EQUATION
3
3872, 1, 1.0, 1959, 1, -0.5, 2000, 1, -0.5
*EQUATION
3
3872, 2, 1.0, 1959, 2, -0.5, 2000, 2, -0.5
*EQUATION
3
3872, 3, 1.0, 1959, 3, -0.5, 2000, 3, -0.5
*EQUATION
3
3874, 1, 1.0, 300, 1, -0.5, 2001, 1, -0.5
*EQUATION
3
3874, 2, 1.0, 300, 2, -0.5, 2001, 2, -0.5
*EQUATION
3
3874, 3, 1.0, 300, 3, -0.5, 2001, 3, -0.5
*EQUATION
3
3875, 1, 1.0, 1997, 1, -0.5, 2000, 1, -0.5
*EQUATION
3
3875, 2, 1.0, 1997, 2, -0.5, 2000, 2, -0.5
*EQUATION
3
3875, 3, 1.0, 1997, 3, -0.5, 2000, 3, -0.5
*EQUATION
3
3877, 1, 1.0, 1998, 1, -0.5, 2001, 1, -0.5
*EQUATION
3
3877, 2, 1.0, 1998, 2, -0.5, 2001, 2, -0.5
*EQUATION
3
3877, 3, 1.0, 1998, 3, -0.5, 2001, 3, -0.5
*EQUATION
3
3879, 1, 1.0, 1994, 1, -0.5, 2002, 1, -0.5
*EQUATION
3
3879, 2, 1.0, 1994, 2, -0.5, 2002, 2, -0.5
*EQUATION
3
3879, 3, 1.0, 1994, 3, -0.5, 2002, 3, -0.5
*EQUATION
3
3881, 1, 1.0, 347, 1, -0.5, 1995, 1, -0.5
*EQUATION
3
3881, 2, 1.0, 347, 2, -0.5, 1995, 2, -0.5
*EQUATION
3
3881, 3, 1.0, 347, 3, -0.5, 1995, 3, -0.5
*EQUATION
5
3882, 1, 1.0, 1994, 1, -0.25, 2002, 1, -0.25, 2004, 1, -0.25, 1997, 1, -0.25
*EQUATION
5
3882, 2, 1.0, 1994, 2, -0.25, 2002, 2, -0.25, 2004, 2, -0.25, 1997, 2, -0.25
*EQUATION
5
3882, 3, 1.0, 1994, 3, -0.25, 2002, 3, -0.25, 2004, 3, -0.25, 1997, 3, -0.25
*EQUATION
5
3884, 1, 1.0, 1995, 1, -0.25, 347, 1, -0.25, 2005, 1, -0.25, 1998, 1, -0.25
*EQUATION
5
3884, 2, 1.0, 1995, 2, -0.25, 347, 2, -0.25, 2005, 2, -0.25, 1998, 2, -0.25
*EQUATION
5
3884, 3, 1.0, 1995, 3, -0.25, 347, 3, -0.25, 2005, 3, -0.25, 1998, 3, -0.25
*EQUATION
3
3885, 1, 1.0, 1997, 1, -0.5, 2004, 1, -0.5
*EQUATION
3
3885, 2, 1.0, 1997, 2, -0.5, 2004, 2, -0.5
*EQUATION
3
3885, 3, 1.0, 1997, 3, -0.5, 2004, 3, -0.5
*EQUATION
3
3887, 1, 1.0, 1998, 1, -0.5, 2005, 1, -0.5
*EQUATION
3
3887, 2, 1.0, 1998, 2, -0.5, 2005, 2, -0.5
*EQUATION
3
3887, 3, 1.0, 1998, 3, -0.5, 2005, 3, -0.5
*EQUATION
3
3889, 1, 1.0, 2002, 1, -0.5, 2004, 1, -0.5
*EQUATION
3
3889, 2, 1.0, 2002, 2, -0.5, 2004, 2, -0.5
*EQUATION
3
3889, 3, 1.0, 2002, 3, -0.5, 2004, 3, -0.5
*EQUATION
3
3891, 1, 1.0, 347, 1, -0.5, 2005, 1, -0.5
*EQUATION
3
3891, 2, 1.0, 347, 2, -0.5, 2005, 2, -0.5
*EQUATION
3
3891, 3, 1.0, 347, 3, -0.5, 2005, 3, -0.5
*EQUATION
5
3893, 1, 1.0, 1997, 1, -0.25, 2004, 1, -0.25, 2006, 1, -0.25, 2000, 1, -0.25
*EQUATION
5
3893, 2, 1.0, 1997, 2, -0.25, 2004, 2, -0.25, 2006, 2, -0.25, 2000, 2, -0.25
*EQUATION
5
3893, 3, 1.0, 1997, 3, -0.25, 2004, 3, -0.25, 2006, 3, -0.25, 2000, 3, -0.25
*EQUATION
5
3895, 1, 1.0, 1998, 1, -0.25, 2005, 1, -0.25, 348, 1, -0.25, 2001, 1, -0.25
*EQUATION
5
3895, 2, 1.0, 1998, 2, -0.25, 2005, 2, -0.25, 348, 2, -0.25, 2001, 2, -0.25
*EQUATION
5
3895, 3, 1.0, 1998, 3, -0.25, 2005, 3, -0.25, 348, 3, -0.25, 2001, 3, -0.25
*EQUATION
3
3896, 1, 1.0, 2000, 1, -0.5, 2006, 1, -0.5
*EQUATION
3
3896, 2, 1.0, 2000, 2, -0.5, 2006, 2, -0.5
*EQUATION
3
3896, 3, 1.0, 2000, 3, -0.5, 2006, 3, -0.5
*EQUATION
3
3898, 1, 1.0, 348, 1, -0.5, 2001, 1, -0.5
*EQUATION
3
3898, 2, 1.0, 348, 2, -0.5, 2001, 2, -0.5
*EQUATION
3
3898, 3, 1.0, 348, 3, -0.5, 2001, 3, -0.5
*EQUATION
3
3899, 1, 1.0, 2004, 1, -0.5, 2006, 1, -0.5
*EQUATION
3
3899, 2, 1.0, 2004, 2, -0.5, 2006, 2, -0.5
*EQUATION
3
3899, 3, 1.0, 2004, 3, -0.5, 2006, 3, -0.5
*EQUATION
3
3901, 1, 1.0, 348, 1, -0.5, 2005, 1, -0.5
*EQUATION
3
3901, 2, 1.0, 348, 2, -0.5, 2005, 2, -0.5
*EQUATION
3
3901, 3, 1.0, 348, 3, -0.5, 2005, 3, -0.5
*EQUATION
5
3905, 1, 1.0, 1959, 1, -0.25, 2000, 1, -0.25, 2014, 1, -0.25, 1981, 1, -0.25
*EQUATION
5
3905, 2, 1.0, 1959, 2, -0.25, 2000, 2, -0.25, 2014, 2, -0.25, 1981, 2, -0.25
*EQUATION
5
3905, 3, 1.0, 1959, 3, -0.25, 2000, 3, -0.25, 2014, 3, -0.25, 1981, 3, -0.25
*EQUATION
5
3907, 1, 1.0, 300, 1, -0.25, 2001, 1, -0.25, 2015, 1, -0.25, 1982, 1, -0.25
*EQUATION
5
3907, 2, 1.0, 300, 2, -0.25, 2001, 2, -0.25, 2015, 2, -0.25, 1982, 2, -0.25
*EQUATION
5
3907, 3, 1.0, 300, 3, -0.25, 2001, 3, -0.25, 2015, 3, -0.25, 1982, 3, -0.25
*EQUATION
3
3908, 1, 1.0, 1981, 1, -0.5, 2014, 1, -0.5
*EQUATION
3
3908, 2, 1.0, 1981, 2, -0.5, 2014, 2, -0.5
*EQUATION
3
3908, 3, 1.0, 1981, 3, -0.5, 2014, 3, -0.5
*EQUATION
3
3910, 1, 1.0, 1982, 1, -0.5, 2015, 1, -0.5
*EQUATION
3
3910, 2, 1.0, 1982, 2, -0.5, 2015, 2, -0.5
*EQUATION
3
3910, 3, 1.0, 1982, 3, -0.5, 2015, 3, -0.5
*EQUATION
3
3911, 1, 1.0, 2000, 1, -0.5, 2014, 1, -0.5
*EQUATION
3
3911, 2, 1.0, 2000, 2, -0.5, 2014, 2, -0.5
*EQUATION
3
3911, 3, 1.0, 2000, 3, -0.5, 2014, 3, -0.5
*EQUATION
3
3913, 1, 1.0, 2001, 1, -0.5, 2015, 1, -0.5
*EQUATION
3
3913, 2, 1.0, 2001, 2, -0.5, 2015, 2, -0.5
*EQUATION
3
3913, 3, 1.0, 2001, 3, -0.5, 2015, 3, -0.5
*EQUATION
5
3915, 1, 1.0, 1981, 1, -0.25, 2014, 1, -0.25, 2017, 1, -0.25, 1983, 1, -0.25
*EQUATION
5
3915, 2, 1.0, 1981, 2, -0.25, 2014, 2, -0.25, 2017, 2, -0.25, 1983, 2, -0.25
*EQUATION
5
3915, 3, 1.0, 1981, 3, -0.25, 2014, 3, -0.25, 2017, 3, -0.25, 1983, 3, -0.25
*EQUATION
5
3917, 1, 1.0, 1982, 1, -0.25, 2015, 1, -0.25, 2018, 1, -0.25, 306, 1, -0.25
*EQUATION
5
3917, 2, 1.0, 1982, 2, -0.25, 2015, 2, -0.25, 2018, 2, -0.25, 306, 2, -0.25
*EQUATION
5
3917, 3, 1.0, 1982, 3, -0.25, 2015, 3, -0.25, 2018, 3, -0.25, 306, 3, -0.25
*EQUATION
3
3918, 1, 1.0, 1983, 1, -0.5, 2017, 1, -0.5
*EQUATION
3
3918, 2, 1.0, 1983, 2, -0.5, 2017, 2, -0.5
*EQUATION
3
3918, 3, 1.0, 1983, 3, -0.5, 2017, 3, -0.5
*EQUATION
3
3920, 1, 1.0, 306, 1, -0.5, 2018, 1, -0.5
*EQUATION
3
3920, 2, 1.0, 306, 2, -0.5, 2018, 2, -0.5
*EQUATION
3
3920, 3, 1.0, 306, 3, -0.5, 2018, 3, -0.5
*EQUATION
3
3921, 1, 1.0, 2014, 1, -0.5, 2017, 1, -0.5
*EQUATION
3
3921, 2, 1.0, 2014, 2, -0.5, 2017, 2, -0.5
*EQUATION
3
3921, 3, 1.0, 2014, 3, -0.5, 2017, 3, -0.5
*EQUATION
3
3923, 1, 1.0, 2015, 1, -0.5, 2018, 1, -0.5
*EQUATION
3
3923, 2, 1.0, 2015, 2, -0.5, 2018, 2, -0.5
*EQUATION
3
3923, 3, 1.0, 2015, 3, -0.5, 2018, 3, -0.5
*EQUATION
5
3925, 1, 1.0, 2000, 1, -0.25, 2006, 1, -0.25, 2020, 1, -0.25, 2014, 1, -0.25
*EQUATION
5
3925, 2, 1.0, 2000, 2, -0.25, 2006, 2, -0.25, 2020, 2, -0.25, 2014, 2, -0.25
*EQUATION
5
3925, 3, 1.0, 2000, 3, -0.25, 2006, 3, -0.25, 2020, 3, -0.25, 2014, 3, -0.25
*EQUATION
5
3927, 1, 1.0, 2001, 1, -0.25, 348, 1, -0.25, 2021, 1, -0.25, 2015, 1, -0.25
*EQUATION
5
3927, 2, 1.0, 2001, 2, -0.25, 348, 2, -0.25, 2021, 2, -0.25, 2015, 2, -0.25
*EQUATION
5
3927, 3, 1.0, 2001, 3, -0.25, 348, 3, -0.25, 2021, 3, -0.25, 2015, 3, -0.25
*EQUATION
3
3928, 1, 1.0, 2014, 1, -0.5, 2020, 1, -0.5
*EQUATION
3
3928, 2, 1.0, 2014, 2, -0.5, 2020, 2, -0.5
*EQUATION
3
3928, 3, 1.0, 2014, 3, -0.5, 2020, 3, -0.5
*EQUATION
3
3930, 1, 1.0, 2015, 1, -0.5, 2021, 1, -0.5
*EQUATION
3
3930, 2, 1.0, 2015, 2, -0.5, 2021, 2, -0.5
*EQUATION
3
3930, 3, 1.0, 2015, 3, -0.5, 2021, 3, -0.5
*EQUATION
3
3931, 1, 1.0, 2006, 1, -0.5, 2020, 1, -0.5
*EQUATION
3
3931, 2, 1.0, 2006, 2, -0.5, 2020, 2, -0.5
*EQUATION
3
3931, 3, 1.0, 2006, 3, -0.5, 2020, 3, -0.5
*EQUATION
3
3933, 1, 1.0, 348, 1, -0.5, 2021, 1, -0.5
*EQUATION
3
3933, 2, 1.0, 348, 2, -0.5, 2021, 2, -0.5
*EQUATION
3
3933, 3, 1.0, 348, 3, -0.5, 2021, 3, -0.5
*EQUATION
5
3935, 1, 1.0, 2014, 1, -0.25, 2020, 1, -0.25, 2022, 1, -0.25, 2017, 1, -0.25
*EQUATION
5
3935, 2, 1.0, 2014, 2, -0.25, 2020, 2, -0.25, 2022, 2, -0.25, 2017, 2, -0.25
*EQUATION
5
3935, 3, 1.0, 2014, 3, -0.25, 2020, 3, -0.25, 2022, 3, -0.25, 2017, 3, -0.25
*EQUATION
5
3937, 1, 1.0, 2015, 1, -0.25, 2021, 1, -0.25, 354, 1, -0.25, 2018, 1, -0.25
*EQUATION
5
3937, 2, 1.0, 2015, 2, -0.25, 2021, 2, -0.25, 354, 2, -0.25, 2018, 2, -0.25
*EQUATION
5
3937, 3, 1.0, 2015, 3, -0.25, 2021, 3, -0.25, 354, 3, -0.25, 2018, 3, -0.25
*EQUATION
3
3938, 1, 1.0, 2017, 1, -0.5, 2022, 1, -0.5
*EQUATION
3
3938, 2, 1.0, 2017, 2, -0.5, 2022, 2, -0.5
*EQUATION
3
3938, 3, 1.0, 2017, 3, -0.5, 2022, 3, -0.5
*EQUATION
3
3940, 1, 1.0, 354, 1, -0.5, 2018, 1, -0.5
*EQUATION
3
3940, 2, 1.0, 354, 2, -0.5, 2018, 2, -0.5
*EQUATION
3
3940, 3, 1.0, 354, 3, -0.5, 2018, 3, -0.5
*EQUATION
3
3941, 1, 1.0, 2020, 1, -0.5, 2022, 1, -0.5
*EQUATION
3
3941, 2, 1.0, 2020, 2, -0.5, 2022, 2, -0.5
*EQUATION
3
3941, 3, 1.0, 2020, 3, -0.5, 2022, 3, -0.5
*EQUATION
3
3943, 1, 1.0, 354, 1, -0.5, 2021, 1, -0.5
*EQUATION
3
3943, 2, 1.0, 354, 2, -0.5, 2021, 2, -0.5
*EQUATION
3
3943, 3, 1.0, 354, 3, -0.5, 2021, 3, -0.5
*EQUATION
3
3945, 1, 1.0, 2002, 1, -0.5, 2038, 1, -0.5
*EQUATION
3
3945, 2, 1.0, 2002, 2, -0.5, 2038, 2, -0.5
*EQUATION
3
3945, 3, 1.0, 2002, 3, -0.5, 2038, 3, -0.5
*EQUATION
3
3947, 1, 1.0, 347, 1, -0.5, 2039, 1, -0.5
*EQUATION
3
3947, 2, 1.0, 347, 2, -0.5, 2039, 2, -0.5
*EQUATION
3
3947, 3, 1.0, 347, 3, -0.5, 2039, 3, -0.5
*EQUATION
5
3948, 1, 1.0, 2002, 1, -0.25, 2038, 1, -0.25, 2041, 1, -0.25, 2004, 1, -0.25
*EQUATION
5
3948, 2, 1.0, 2002, 2, -0.25, 2038, 2, -0.25, 2041, 2, -0.25, 2004, 2, -0.25
*EQUATION
5
3948, 3, 1.0, 2002, 3, -0.25, 2038, 3, -0.25, 2041, 3, -0.25, 2004, 3, -0.25
*EQUATION
5
3950, 1, 1.0, 347, 1, -0.25, 2039, 1, -0.25, 2042, 1, -0.25, 2005, 1, -0.25
*EQUATION
5
3950, 2, 1.0, 347, 2, -0.25, 2039, 2, -0.25, 2042, 2, -0.25, 2005, 2, -0.25
*EQUATION
5
3950, 3, 1.0, 347, 3, -0.25, 2039, 3, -0.25, 2042, 3, -0.25, 2005, 3, -0.25
*EQUATION
3
3951, 1, 1.0, 2004, 1, -0.5, 2041, 1, -0.5
*EQUATION
3
3951, 2, 1.0, 2004, 2, -0.5, 2041, 2, -0.5
*EQUATION
3
3951, 3, 1.0, 2004, 3, -0.5, 2041, 3, -0.5
*EQUATION
3
3953, 1, 1.0, 2005, 1, -0.5, 2042, 1, -0.5
*EQUATION
3
3953, 2, 1.0, 2005, 2, -0.5, 2042, 2, -0.5
*EQUATION
3
3953, 3, 1.0, 2005, 3, -0.5, 2042, 3, -0.5
*EQUATION
3
3955, 1, 1.0, 2038, 1, -0.5, 2041, 1, -0.5
*EQUATION
3
3955, 2, 1.0, 2038, 2, -0.5, 2041, 2, -0.5
*EQUATION
3
3955, 3, 1.0, 2038, 3, -0.5, 2041, 3, -0.5
*EQUATION
3
3957, 1, 1.0, 2039, 1, -0.5, 2042, 1, -0.5
*EQUATION
3
3957, 2, 1.0, 2039, 2, -0.5, 2042, 2, -0.5
*EQUATION
3
3957, 3, 1.0, 2039, 3, -0.5, 2042, 3, -0.5
*EQUATION
5
3959, 1, 1.0, 2004, 1, -0.25, 2041, 1, -0.25, 2044, 1, -0.25, 2006, 1, -0.25
*EQUATION
5
3959, 2, 1.0, 2004, 2, -0.25, 2041, 2, -0.25, 2044, 2, -0.25, 2006, 2, -0.25
*EQUATION
5
3959, 3, 1.0, 2004, 3, -0.25, 2041, 3, -0.25, 2044, 3, -0.25, 2006, 3, -0.25
*EQUATION
5
3961, 1, 1.0, 2005, 1, -0.25, 2042, 1, -0.25, 2045, 1, -0.25, 348, 1, -0.25
*EQUATION
5
3961, 2, 1.0, 2005, 2, -0.25, 2042, 2, -0.25, 2045, 2, -0.25, 348, 2, -0.25
*EQUATION
5
3961, 3, 1.0, 2005, 3, -0.25, 2042, 3, -0.25, 2045, 3, -0.25, 348, 3, -0.25
*EQUATION
3
3962, 1, 1.0, 2006, 1, -0.5, 2044, 1, -0.5
*EQUATION
3
3962, 2, 1.0, 2006, 2, -0.5, 2044, 2, -0.5
*EQUATION
3
3962, 3, 1.0, 2006, 3, -0.5, 2044, 3, -0.5
*EQUATION
3
3964, 1, 1.0, 348, 1, -0.5, 2045, 1, -0.5
*EQUATION
3
3964, 2, 1.0, 348, 2, -0.5, 2045, 2, -0.5
*EQUATION
3
3964, 3, 1.0, 348, 3, -0.5, 2045, 3, -0.5
*EQUATION
3
3965, 1, 1.0, 2041, 1, -0.5, 2044, 1, -0.5
*EQUATION
3
3965, 2, 1.0, 2041, 2, -0.5, 2044, 2, -0.5
*EQUATION
3
3965, 3, 1.0, 2041, 3, -0.5, 2044, 3, -0.5
*EQUATION
3
3967, 1, 1.0, 2042, 1, -0.5, 2045, 1, -0.5
*EQUATION
3
3967, 2, 1.0, 2042, 2, -0.5, 2045, 2, -0.5
*EQUATION
3
3967, 3, 1.0, 2042, 3, -0.5, 2045, 3, -0.5
*EQUATION
3
3969, 1, 1.0, 2038, 1, -0.5, 2046, 1, -0.5
*EQUATION
3
3969, 2, 1.0, 2038, 2, -0.5, 2046, 2, -0.5
*EQUATION
3
3969, 3, 1.0, 2038, 3, -0.5, 2046, 3, -0.5
*EQUATION
3
3971, 1, 1.0, 395, 1, -0.5, 2039, 1, -0.5
*EQUATION
3
3971, 2, 1.0, 395, 2, -0.5, 2039, 2, -0.5
*EQUATION
3
3971, 3, 1.0, 395, 3, -0.5, 2039, 3, -0.5
*EQUATION
5
3972, 1, 1.0, 2038, 1, -0.25, 2046, 1, -0.25, 2048, 1, -0.25, 2041, 1, -0.25
*EQUATION
5
3972, 2, 1.0, 2038, 2, -0.25, 2046, 2, -0.25, 2048, 2, -0.25, 2041, 2, -0.25
*EQUATION
5
3972, 3, 1.0, 2038, 3, -0.25, 2046, 3, -0.25, 2048, 3, -0.25, 2041, 3, -0.25
*EQUATION
5
3974, 1, 1.0, 2039, 1, -0.25, 395, 1, -0.25, 2049, 1, -0.25, 2042, 1, -0.25
*EQUATION
5
3974, 2, 1.0, 2039, 2, -0.25, 395, 2, -0.25, 2049, 2, -0.25, 2042, 2, -0.25
*EQUATION
5
3974, 3, 1.0, 2039, 3, -0.25, 395, 3, -0.25, 2049, 3, -0.25, 2042, 3, -0.25
*EQUATION
3
3975, 1, 1.0, 2041, 1, -0.5, 2048, 1, -0.5
*EQUATION
3
3975, 2, 1.0, 2041, 2, -0.5, 2048, 2, -0.5
*EQUATION
3
3975, 3, 1.0, 2041, 3, -0.5, 2048, 3, -0.5
*EQUATION
3
3977, 1, 1.0, 2042, 1, -0.5, 2049, 1, -0.5
*EQUATION
3
3977, 2, 1.0, 2042, 2, -0.5, 2049, 2, -0.5
*EQUATION
3
3977, 3, 1.0, 2042, 3, -0.5, 2049, 3, -0.5
*EQUATION
3
3979, 1, 1.0, 2046, 1, -0.5, 2048, 1, -0.5
*EQUATION
3
3979, 2, 1.0, 2046, 2, -0.5, 2048, 2, -0.5
*EQUATION
3
3979, 3, 1.0, 2046, 3, -0.5, 2048, 3, -0.5
*EQUATION
3
3981, 1, 1.0, 395, 1, -0.5, 2049, 1, -0.5
*EQUATION
3
3981, 2, 1.0, 395, 2, -0.5, 2049, 2, -0.5
*EQUATION
3
3981, 3, 1.0, 395, 3, -0.5, 2049, 3, -0.5
*EQUATION
5
3983, 1, 1.0, 2041, 1, -0.25, 2048, 1, -0.25, 2050, 1, -0.25, 2044, 1, -0.25
*EQUATION
5
3983, 2, 1.0, 2041, 2, -0.25, 2048, 2, -0.25, 2050, 2, -0.25, 2044, 2, -0.25
*EQUATION
5
3983, 3, 1.0, 2041, 3, -0.25, 2048, 3, -0.25, 2050, 3, -0.25, 2044, 3, -0.25
*EQUATION
5
3985, 1, 1.0, 2042, 1, -0.25, 2049, 1, -0.25, 396, 1, -0.25, 2045, 1, -0.25
*EQUATION
5
3985, 2, 1.0, 2042, 2, -0.25, 2049, 2, -0.25, 396, 2, -0.25, 2045, 2, -0.25
*EQUATION
5
3985, 3, 1.0, 2042, 3, -0.25, 2049, 3, -0.25, 396, 3, -0.25, 2045, 3, -0.25
*EQUATION
3
3986, 1, 1.0, 2044, 1, -0.5, 2050, 1, -0.5
*EQUATION
3
3986, 2, 1.0, 2044, 2, -0.5, 2050, 2, -0.5
*EQUATION
3
3986, 3, 1.0, 2044, 3, -0.5, 2050, 3, -0.5
*EQUATION
3
3988, 1, 1.0, 396, 1, -0.5, 2045, 1, -0.5
*EQUATION
3
3988, 2, 1.0, 396, 2, -0.5, 2045, 2, -0.5
*EQUATION
3
3988, 3, 1.0, 396, 3, -0.5, 2045, 3, -0.5
*EQUATION
3
3989, 1, 1.0, 2048, 1, -0.5, 2050, 1, -0.5
*EQUATION
3
3989, 2, 1.0, 2048, 2, -0.5, 2050, 2, -0.5
*EQUATION
3
3989, 3, 1.0, 2048, 3, -0.5, 2050, 3, -0.5
*EQUATION
3
3991, 1, 1.0, 396, 1, -0.5, 2049, 1, -0.5
*EQUATION
3
3991, 2, 1.0, 396, 2, -0.5, 2049, 2, -0.5
*EQUATION
3
3991, 3, 1.0, 396, 3, -0.5, 2049, 3, -0.5
*EQUATION
5
3993, 1, 1.0, 2006, 1, -0.25, 2044, 1, -0.25, 2062, 1, -0.25, 2020, 1, -0.25
*EQUATION
5
3993, 2, 1.0, 2006, 2, -0.25, 2044, 2, -0.25, 2062, 2, -0.25, 2020, 2, -0.25
*EQUATION
5
3993, 3, 1.0, 2006, 3, -0.25, 2044, 3, -0.25, 2062, 3, -0.25, 2020, 3, -0.25
*EQUATION
5
3995, 1, 1.0, 348, 1, -0.25, 2045, 1, -0.25, 2063, 1, -0.25, 2021, 1, -0.25
*EQUATION
5
3995, 2, 1.0, 348, 2, -0.25, 2045, 2, -0.25, 2063, 2, -0.25, 2021, 2, -0.25
*EQUATION
5
3995, 3, 1.0, 348, 3, -0.25, 2045, 3, -0.25, 2063, 3, -0.25, 2021, 3, -0.25
*EQUATION
3
3996, 1, 1.0, 2020, 1, -0.5, 2062, 1, -0.5
*EQUATION
3
3996, 2, 1.0, 2020, 2, -0.5, 2062, 2, -0.5
*EQUATION
3
3996, 3, 1.0, 2020, 3, -0.5, 2062, 3, -0.5
*EQUATION
3
3998, 1, 1.0, 2021, 1, -0.5, 2063, 1, -0.5
*EQUATION
3
3998, 2, 1.0, 2021, 2, -0.5, 2063, 2, -0.5
*EQUATION
3
3998, 3, 1.0, 2021, 3, -0.5, 2063, 3, -0.5
*EQUATION
3
3999, 1, 1.0, 2044, 1, -0.5, 2062, 1, -0.5
*EQUATION
3
3999, 2, 1.0, 2044, 2, -0.5, 2062, 2, -0.5
*EQUATION
3
3999, 3, 1.0, 2044, 3, -0.5, 2062, 3, -0.5
*EQUATION
3
4001, 1, 1.0, 2045, 1, -0.5, 2063, 1, -0.5
*EQUATION
3
4001, 2, 1.0, 2045, 2, -0.5, 2063, 2, -0.5
*EQUATION
3
4001, 3, 1.0, 2045, 3, -0.5, 2063, 3, -0.5
*EQUATION
5
4003, 1, 1.0, 2020, 1, -0.25, 2062, 1, -0.25, 2065, 1, -0.25, 2022, 1, -0.25
*EQUATION
5
4003, 2, 1.0, 2020, 2, -0.25, 2062, 2, -0.25, 2065, 2, -0.25, 2022, 2, -0.25
*EQUATION
5
4003, 3, 1.0, 2020, 3, -0.25, 2062, 3, -0.25, 2065, 3, -0.25, 2022, 3, -0.25
*EQUATION
5
4005, 1, 1.0, 2021, 1, -0.25, 2063, 1, -0.25, 2066, 1, -0.25, 354, 1, -0.25
*EQUATION
5
4005, 2, 1.0, 2021, 2, -0.25, 2063, 2, -0.25, 2066, 2, -0.25, 354, 2, -0.25
*EQUATION
5
4005, 3, 1.0, 2021, 3, -0.25, 2063, 3, -0.25, 2066, 3, -0.25, 354, 3, -0.25
*EQUATION
3
4006, 1, 1.0, 2022, 1, -0.5, 2065, 1, -0.5
*EQUATION
3
4006, 2, 1.0, 2022, 2, -0.5, 2065, 2, -0.5
*EQUATION
3
4006, 3, 1.0, 2022, 3, -0.5, 2065, 3, -0.5
*EQUATION
3
4008, 1, 1.0, 354, 1, -0.5, 2066, 1, -0.5
*EQUATION
3
4008, 2, 1.0, 354, 2, -0.5, 2066, 2, -0.5
*EQUATION
3
4008, 3, 1.0, 354, 3, -0.5, 2066, 3, -0.5
*EQUATION
3
4009, 1, 1.0, 2062, 1, -0.5, 2065, 1, -0.5
*EQUATION
3
4009, 2, 1.0, 2062, 2, -0.5, 2065, 2, -0.5
*EQUATION
3
4009, 3, 1.0, 2062, 3, -0.5, 2065, 3, -0.5
*EQUATION
3
4011, 1, 1.0, 2063, 1, -0.5, 2066, 1, -0.5
*EQUATION
3
4011, 2, 1.0, 2063, 2, -0.5, 2066, 2, -0.5
*EQUATION
3
4011, 3, 1.0, 2063, 3, -0.5, 2066, 3, -0.5
*EQUATION
5
4013, 1, 1.0, 2044, 1, -0.25, 2050, 1, -0.25, 2068, 1, -0.25, 2062, 1, -0.25
*EQUATION
5
4013, 2, 1.0, 2044, 2, -0.25, 2050, 2, -0.25, 2068, 2, -0.25, 2062, 2, -0.25
*EQUATION
5
4013, 3, 1.0, 2044, 3, -0.25, 2050, 3, -0.25, 2068, 3, -0.25, 2062, 3, -0.25
*EQUATION
5
4015, 1, 1.0, 2045, 1, -0.25, 396, 1, -0.25, 2069, 1, -0.25, 2063, 1, -0.25
*EQUATION
5
4015, 2, 1.0, 2045, 2, -0.25, 396, 2, -0.25, 2069, 2, -0.25, 2063, 2, -0.25
*EQUATION
5
4015, 3, 1.0, 2045, 3, -0.25, 396, 3, -0.25, 2069, 3, -0.25, 2063, 3, -0.25
*EQUATION
3
4016, 1, 1.0, 2062, 1, -0.5, 2068, 1, -0.5
*EQUATION
3
4016, 2, 1.0, 2062, 2, -0.5, 2068, 2, -0.5
*EQUATION
3
4016, 3, 1.0, 2062, 3, -0.5, 2068, 3, -0.5
*EQUATION
3
4018, 1, 1.0, 2063, 1, -0.5, 2069, 1, -0.5
*EQUATION
3
4018, 2, 1.0, 2063, 2, -0.5, 2069, 2, -0.5
*EQUATION
3
4018, 3, 1.0, 2063, 3, -0.5, 2069, 3, -0.5
*EQUATION
3
4019, 1, 1.0, 2050, 1, -0.5, 2068, 1, -0.5
*EQUATION
3
4019, 2, 1.0, 2050, 2, -0.5, 2068, 2, -0.5
*EQUATION
3
4019, 3, 1.0, 2050, 3, -0.5, 2068, 3, -0.5
*EQUATION
3
4021, 1, 1.0, 396, 1, -0.5, 2069, 1, -0.5
*EQUATION
3
4021, 2, 1.0, 396, 2, -0.5, 2069, 2, -0.5
*EQUATION
3
4021, 3, 1.0, 396, 3, -0.5, 2069, 3, -0.5
*EQUATION
5
4023, 1, 1.0, 2062, 1, -0.25, 2068, 1, -0.25, 2070, 1, -0.25, 2065, 1, -0.25
*EQUATION
5
4023, 2, 1.0, 2062, 2, -0.25, 2068, 2, -0.25, 2070, 2, -0.25, 2065, 2, -0.25
*EQUATION
5
4023, 3, 1.0, 2062, 3, -0.25, 2068, 3, -0.25, 2070, 3, -0.25, 2065, 3, -0.25
*EQUATION
5
4025, 1, 1.0, 2063, 1, -0.25, 2069, 1, -0.25, 402, 1, -0.25, 2066, 1, -0.25
*EQUATION
5
4025, 2, 1.0, 2063, 2, -0.25, 2069, 2, -0.25, 402, 2, -0.25, 2066, 2, -0.25
*EQUATION
5
4025, 3, 1.0, 2063, 3, -0.25, 2069, 3, -0.25, 402, 3, -0.25, 2066, 3, -0.25
*EQUATION
3
4026, 1, 1.0, 2065, 1, -0.5, 2070, 1, -0.5
*EQUATION
3
4026, 2, 1.0, 2065, 2, -0.5, 2070, 2, -0.5
*EQUATION
3
4026, 3, 1.0, 2065, 3, -0.5, 2070, 3, -0.5
*EQUATION
3
4028, 1, 1.0, 402, 1, -0.5, 2066, 1, -0.5
*EQUATION
3
4028, 2, 1.0, 402, 2, -0.5, 2066, 2, -0.5
*EQUATION
3
4028, 3, 1.0, 402, 3, -0.5, 2066, 3, -0.5
*EQUATION
3
4029, 1, 1.0, 2068, 1, -0.5, 2070, 1, -0.5
*EQUATION
3
4029, 2, 1.0, 2068, 2, -0.5, 2070, 2, -0.5
*EQUATION
3
4029, 3, 1.0, 2068, 3, -0.5, 2070, 3, -0.5
*EQUATION
3
4031, 1, 1.0, 402, 1, -0.5, 2069, 1, -0.5
*EQUATION
3
4031, 2, 1.0, 402, 2, -0.5, 2069, 2, -0.5
*EQUATION
3
4031, 3, 1.0, 402, 3, -0.5, 2069, 3, -0.5
*EQUATION
3
4033, 1, 1.0, 2046, 1, -0.5, 2081, 1, -0.5
*EQUATION
3
4033, 2, 1.0, 2046, 2, -0.5, 2081, 2, -0.5
*EQUATION
3
4033, 3, 1.0, 2046, 3, -0.5, 2081, 3, -0.5
*EQUATION
3
4035, 1, 1.0, 395, 1, -0.5, 2082, 1, -0.5
*EQUATION
3
4035, 2, 1.0, 395, 2, -0.5, 2082, 2, -0.5
*EQUATION
3
4035, 3, 1.0, 395, 3, -0.5, 2082, 3, -0.5
*EQUATION
5
4036, 1, 1.0, 2046, 1, -0.25, 2081, 1, -0.25, 2084, 1, -0.25, 2048, 1, -0.25
*EQUATION
5
4036, 2, 1.0, 2046, 2, -0.25, 2081, 2, -0.25, 2084, 2, -0.25, 2048, 2, -0.25
*EQUATION
5
4036, 3, 1.0, 2046, 3, -0.25, 2081, 3, -0.25, 2084, 3, -0.25, 2048, 3, -0.25
*EQUATION
5
4038, 1, 1.0, 395, 1, -0.25, 2082, 1, -0.25, 2085, 1, -0.25, 2049, 1, -0.25
*EQUATION
5
4038, 2, 1.0, 395, 2, -0.25, 2082, 2, -0.25, 2085, 2, -0.25, 2049, 2, -0.25
*EQUATION
5
4038, 3, 1.0, 395, 3, -0.25, 2082, 3, -0.25, 2085, 3, -0.25, 2049, 3, -0.25
*EQUATION
3
4039, 1, 1.0, 2048, 1, -0.5, 2084, 1, -0.5
*EQUATION
3
4039, 2, 1.0, 2048, 2, -0.5, 2084, 2, -0.5
*EQUATION
3
4039, 3, 1.0, 2048, 3, -0.5, 2084, 3, -0.5
*EQUATION
3
4041, 1, 1.0, 2049, 1, -0.5, 2085, 1, -0.5
*EQUATION
3
4041, 2, 1.0, 2049, 2, -0.5, 2085, 2, -0.5
*EQUATION
3
4041, 3, 1.0, 2049, 3, -0.5, 2085, 3, -0.5
*EQUATION
3
4043, 1, 1.0, 2081, 1, -0.5, 2084, 1, -0.5
*EQUATION
3
4043, 2, 1.0, 2081, 2, -0.5, 2084, 2, -0.5
*EQUATION
3
4043, 3, 1.0, 2081, 3, -0.5, 2084, 3, -0.5
*EQUATION
3
4045, 1, 1.0, 2082, 1, -0.5, 2085, 1, -0.5
*EQUATION
3
4045, 2, 1.0, 2082, 2, -0.5, 2085, 2, -0.5
*EQUATION
3
4045, 3, 1.0, 2082, 3, -0.5, 2085, 3, -0.5
*EQUATION
5
4047, 1, 1.0, 2048, 1, -0.25, 2084, 1, -0.25, 2087, 1, -0.25, 2050, 1, -0.25
*EQUATION
5
4047, 2, 1.0, 2048, 2, -0.25, 2084, 2, -0.25, 2087, 2, -0.25, 2050, 2, -0.25
*EQUATION
5
4047, 3, 1.0, 2048, 3, -0.25, 2084, 3, -0.25, 2087, 3, -0.25, 2050, 3, -0.25
*EQUATION
5
4049, 1, 1.0, 2049, 1, -0.25, 2085, 1, -0.25, 2088, 1, -0.25, 396, 1, -0.25
*EQUATION
5
4049, 2, 1.0, 2049, 2, -0.25, 2085, 2, -0.25, 2088, 2, -0.25, 396, 2, -0.25
*EQUATION
5
4049, 3, 1.0, 2049, 3, -0.25, 2085, 3, -0.25, 2088, 3, -0.25, 396, 3, -0.25
*EQUATION
3
4050, 1, 1.0, 2050, 1, -0.5, 2087, 1, -0.5
*EQUATION
3
4050, 2, 1.0, 2050, 2, -0.5, 2087, 2, -0.5
*EQUATION
3
4050, 3, 1.0, 2050, 3, -0.5, 2087, 3, -0.5
*EQUATION
3
4052, 1, 1.0, 396, 1, -0.5, 2088, 1, -0.5
*EQUATION
3
4052, 2, 1.0, 396, 2, -0.5, 2088, 2, -0.5
*EQUATION
3
4052, 3, 1.0, 396, 3, -0.5, 2088, 3, -0.5
*EQUATION
3
4053, 1, 1.0, 2084, 1, -0.5, 2087, 1, -0.5
*EQUATION
3
4053, 2, 1.0, 2084, 2, -0.5, 2087, 2, -0.5
*EQUATION
3
4053, 3, 1.0, 2084, 3, -0.5, 2087, 3, -0.5
*EQUATION
3
4055, 1, 1.0, 2085, 1, -0.5, 2088, 1, -0.5
*EQUATION
3
4055, 2, 1.0, 2085, 2, -0.5, 2088, 2, -0.5
*EQUATION
3
4055, 3, 1.0, 2085, 3, -0.5, 2088, 3, -0.5
*EQUATION
3
4057, 1, 1.0, 2081, 1, -0.5, 2089, 1, -0.5
*EQUATION
3
4057, 2, 1.0, 2081, 2, -0.5, 2089, 2, -0.5
*EQUATION
3
4057, 3, 1.0, 2081, 3, -0.5, 2089, 3, -0.5
*EQUATION
3
4059, 1, 1.0, 443, 1, -0.5, 2082, 1, -0.5
*EQUATION
3
4059, 2, 1.0, 443, 2, -0.5, 2082, 2, -0.5
*EQUATION
3
4059, 3, 1.0, 443, 3, -0.5, 2082, 3, -0.5
*EQUATION
5
4060, 1, 1.0, 2081, 1, -0.25, 2089, 1, -0.25, 2091, 1, -0.25, 2084, 1, -0.25
*EQUATION
5
4060, 2, 1.0, 2081, 2, -0.25, 2089, 2, -0.25, 2091, 2, -0.25, 2084, 2, -0.25
*EQUATION
5
4060, 3, 1.0, 2081, 3, -0.25, 2089, 3, -0.25, 2091, 3, -0.25, 2084, 3, -0.25
*EQUATION
5
4062, 1, 1.0, 2082, 1, -0.25, 443, 1, -0.25, 2092, 1, -0.25, 2085, 1, -0.25
*EQUATION
5
4062, 2, 1.0, 2082, 2, -0.25, 443, 2, -0.25, 2092, 2, -0.25, 2085, 2, -0.25
*EQUATION
5
4062, 3, 1.0, 2082, 3, -0.25, 443, 3, -0.25, 2092, 3, -0.25, 2085, 3, -0.25
*EQUATION
3
4063, 1, 1.0, 2084, 1, -0.5, 2091, 1, -0.5
*EQUATION
3
4063, 2, 1.0, 2084, 2, -0.5, 2091, 2, -0.5
*EQUATION
3
4063, 3, 1.0, 2084, 3, -0.5, 2091, 3, -0.5
*EQUATION
3
4065, 1, 1.0, 2085, 1, -0.5, 2092, 1, -0.5
*EQUATION
3
4065, 2, 1.0, 2085, 2, -0.5, 2092, 2, -0.5
*EQUATION
3
4065, 3, 1.0, 2085, 3, -0.5, 2092, 3, -0.5
*EQUATION
3
4067, 1, 1.0, 2089, 1, -0.5, 2091, 1, -0.5
*EQUATION
3
4067, 2, 1.0, 2089, 2, -0.5, 2091, 2, -0.5
*EQUATION
3
4067, 3, 1.0, 2089, 3, -0.5, 2091, 3, -0.5
*EQUATION
3
4069, 1, 1.0, 443, 1, -0.5, 2092, 1, -0.5
*EQUATION
3
4069, 2, 1.0, 443, 2, -0.5, 2092, 2, -0.5
*EQUATION
3
4069, 3, 1.0, 443, 3, -0.5, 2092, 3, -0.5
*EQUATION
5
4071, 1, 1.0, 2084, 1, -0.25, 2091, 1, -0.25, 2093, 1, -0.25, 2087, 1, -0.25
*EQUATION
5
4071, 2, 1.0, 2084, 2, -0.25, 2091, 2, -0.25, 2093, 2, -0.25, 2087, 2, -0.25
*EQUATION
5
4071, 3, 1.0, 2084, 3, -0.25, 2091, 3, -0.25, 2093, 3, -0.25, 2087, 3, -0.25
*EQUATION
5
4073, 1, 1.0, 2085, 1, -0.25, 2092, 1, -0.25, 444, 1, -0.25, 2088, 1, -0.25
*EQUATION
5
4073, 2, 1.0, 2085, 2, -0.25, 2092, 2, -0.25, 444, 2, -0.25, 2088, 2, -0.25
*EQUATION
5
4073, 3, 1.0, 2085, 3, -0.25, 2092, 3, -0.25, 444, 3, -0.25, 2088, 3, -0.25
*EQUATION
3
4074, 1, 1.0, 2087, 1, -0.5, 2093, 1, -0.5
*EQUATION
3
4074, 2, 1.0, 2087, 2, -0.5, 2093, 2, -0.5
*EQUATION
3
4074, 3, 1.0, 2087, 3, -0.5, 2093, 3, -0.5
*EQUATION
3
4076, 1, 1.0, 444, 1, -0.5, 2088, 1, -0.5
*EQUATION
3
4076, 2, 1.0, 444, 2, -0.5, 2088, 2, -0.5
*EQUATION
3
4076, 3, 1.0, 444, 3, -0.5, 2088, 3, -0.5
*EQUATION
3
4077, 1, 1.0, 2091, 1, -0.5, 2093, 1, -0.5
*EQUATION
3
4077, 2, 1.0, 2091, 2, -0.5, 2093, 2, -0.5
*EQUATION
3
4077, 3, 1.0, 2091, 3, -0.5, 2093, 3, -0.5
*EQUATION
3
4079, 1, 1.0, 444, 1, -0.5, 2092, 1, -0.5
*EQUATION
3
4079, 2, 1.0, 444, 2, -0.5, 2092, 2, -0.5
*EQUATION
3
4079, 3, 1.0, 444, 3, -0.5, 2092, 3, -0.5
*EQUATION
5
4081, 1, 1.0, 2050, 1, -0.25, 2087, 1, -0.25, 2132, 1, -0.25, 2068, 1, -0.25
*EQUATION
5
4081, 2, 1.0, 2050, 2, -0.25, 2087, 2, -0.25, 2132, 2, -0.25, 2068, 2, -0.25
*EQUATION
5
4081, 3, 1.0, 2050, 3, -0.25, 2087, 3, -0.25, 2132, 3, -0.25, 2068, 3, -0.25
*EQUATION
5
4083, 1, 1.0, 396, 1, -0.25, 2088, 1, -0.25, 2133, 1, -0.25, 2069, 1, -0.25
*EQUATION
5
4083, 2, 1.0, 396, 2, -0.25, 2088, 2, -0.25, 2133, 2, -0.25, 2069, 2, -0.25
*EQUATION
5
4083, 3, 1.0, 396, 3, -0.25, 2088, 3, -0.25, 2133, 3, -0.25, 2069, 3, -0.25
*EQUATION
3
4084, 1, 1.0, 2068, 1, -0.5, 2132, 1, -0.5
*EQUATION
3
4084, 2, 1.0, 2068, 2, -0.5, 2132, 2, -0.5
*EQUATION
3
4084, 3, 1.0, 2068, 3, -0.5, 2132, 3, -0.5
*EQUATION
3
4086, 1, 1.0, 2069, 1, -0.5, 2133, 1, -0.5
*EQUATION
3
4086, 2, 1.0, 2069, 2, -0.5, 2133, 2, -0.5
*EQUATION
3
4086, 3, 1.0, 2069, 3, -0.5, 2133, 3, -0.5
*EQUATION
3
4087, 1, 1.0, 2087, 1, -0.5, 2132, 1, -0.5
*EQUATION
3
4087, 2, 1.0, 2087, 2, -0.5, 2132, 2, -0.5
*EQUATION
3
4087, 3, 1.0, 2087, 3, -0.5, 2132, 3, -0.5
*EQUATION
3
4089, 1, 1.0, 2088, 1, -0.5, 2133, 1, -0.5
*EQUATION
3
4089, 2, 1.0, 2088, 2, -0.5, 2133, 2, -0.5
*EQUATION
3
4089, 3, 1.0, 2088, 3, -0.5, 2133, 3, -0.5
*EQUATION
5
4091, 1, 1.0, 2068, 1, -0.25, 2132, 1, -0.25, 2135, 1, -0.25, 2070, 1, -0.25
*EQUATION
5
4091, 2, 1.0, 2068, 2, -0.25, 2132, 2, -0.25, 2135, 2, -0.25, 2070, 2, -0.25
*EQUATION
5
4091, 3, 1.0, 2068, 3, -0.25, 2132, 3, -0.25, 2135, 3, -0.25, 2070, 3, -0.25
*EQUATION
5
4093, 1, 1.0, 2069, 1, -0.25, 2133, 1, -0.25, 2136, 1, -0.25, 402, 1, -0.25
*EQUATION
5
4093, 2, 1.0, 2069, 2, -0.25, 2133, 2, -0.25, 2136, 2, -0.25, 402, 2, -0.25
*EQUATION
5
4093, 3, 1.0, 2069, 3, -0.25, 2133, 3, -0.25, 2136, 3, -0.25, 402, 3, -0.25
*EQUATION
3
4094, 1, 1.0, 2070, 1, -0.5, 2135, 1, -0.5
*EQUATION
3
4094, 2, 1.0, 2070, 2, -0.5, 2135, 2, -0.5
*EQUATION
3
4094, 3, 1.0, 2070, 3, -0.5, 2135, 3, -0.5
*EQUATION
3
4096, 1, 1.0, 402, 1, -0.5, 2136, 1, -0.5
*EQUATION
3
4096, 2, 1.0, 402, 2, -0.5, 2136, 2, -0.5
*EQUATION
3
4096, 3, 1.0, 402, 3, -0.5, 2136, 3, -0.5
*EQUATION
3
4097, 1, 1.0, 2132, 1, -0.5, 2135, 1, -0.5
*EQUATION
3
4097, 2, 1.0, 2132, 2, -0.5, 2135, 2, -0.5
*EQUATION
3
4097, 3, 1.0, 2132, 3, -0.5, 2135, 3, -0.5
*EQUATION
3
4099, 1, 1.0, 2133, 1, -0.5, 2136, 1, -0.5
*EQUATION
3
4099, 2, 1.0, 2133, 2, -0.5, 2136, 2, -0.5
*EQUATION
3
4099, 3, 1.0, 2133, 3, -0.5, 2136, 3, -0.5
*EQUATION
5
4101, 1, 1.0, 2087, 1, -0.25, 2093, 1, -0.25, 2138, 1, -0.25, 2132, 1, -0.25
*EQUATION
5
4101, 2, 1.0, 2087, 2, -0.25, 2093, 2, -0.25, 2138, 2, -0.25, 2132, 2, -0.25
*EQUATION
5
4101, 3, 1.0, 2087, 3, -0.25, 2093, 3, -0.25, 2138, 3, -0.25, 2132, 3, -0.25
*EQUATION
5
4103, 1, 1.0, 2088, 1, -0.25, 444, 1, -0.25, 2139, 1, -0.25, 2133, 1, -0.25
*EQUATION
5
4103, 2, 1.0, 2088, 2, -0.25, 444, 2, -0.25, 2139, 2, -0.25, 2133, 2, -0.25
*EQUATION
5
4103, 3, 1.0, 2088, 3, -0.25, 444, 3, -0.25, 2139, 3, -0.25, 2133, 3, -0.25
*EQUATION
3
4104, 1, 1.0, 2132, 1, -0.5, 2138, 1, -0.5
*EQUATION
3
4104, 2, 1.0, 2132, 2, -0.5, 2138, 2, -0.5
*EQUATION
3
4104, 3, 1.0, 2132, 3, -0.5, 2138, 3, -0.5
*EQUATION
3
4106, 1, 1.0, 2133, 1, -0.5, 2139, 1, -0.5
*EQUATION
3
4106, 2, 1.0, 2133, 2, -0.5, 2139, 2, -0.5
*EQUATION
3
4106, 3, 1.0, 2133, 3, -0.5, 2139, 3, -0.5
*EQUATION
3
4107, 1, 1.0, 2093, 1, -0.5, 2138, 1, -0.5
*EQUATION
3
4107, 2, 1.0, 2093, 2, -0.5, 2138, 2, -0.5
*EQUATION
3
4107, 3, 1.0, 2093, 3, -0.5, 2138, 3, -0.5
*EQUATION
3
4109, 1, 1.0, 444, 1, -0.5, 2139, 1, -0.5
*EQUATION
3
4109, 2, 1.0, 444, 2, -0.5, 2139, 2, -0.5
*EQUATION
3
4109, 3, 1.0, 444, 3, -0.5, 2139, 3, -0.5
*EQUATION
5
4111, 1, 1.0, 2132, 1, -0.25, 2138, 1, -0.25, 2140, 1, -0.25, 2135, 1, -0.25
*EQUATION
5
4111, 2, 1.0, 2132, 2, -0.25, 2138, 2, -0.25, 2140, 2, -0.25, 2135, 2, -0.25
*EQUATION
5
4111, 3, 1.0, 2132, 3, -0.25, 2138, 3, -0.25, 2140, 3, -0.25, 2135, 3, -0.25
*EQUATION
5
4113, 1, 1.0, 2133, 1, -0.25, 2139, 1, -0.25, 450, 1, -0.25, 2136, 1, -0.25
*EQUATION
5
4113, 2, 1.0, 2133, 2, -0.25, 2139, 2, -0.25, 450, 2, -0.25, 2136, 2, -0.25
*EQUATION
5
4113, 3, 1.0, 2133, 3, -0.25, 2139, 3, -0.25, 450, 3, -0.25, 2136, 3, -0.25
*EQUATION
3
4114, 1, 1.0, 2135, 1, -0.5, 2140, 1, -0.5
*EQUATION
3
4114, 2, 1.0, 2135, 2, -0.5, 2140, 2, -0.5
*EQUATION
3
4114, 3, 1.0, 2135, 3, -0.5, 2140, 3, -0.5
*EQUATION
3
4116, 1, 1.0, 450, 1, -0.5, 2136, 1, -0.5
*EQUATION
3
4116, 2, 1.0, 450, 2, -0.5, 2136, 2, -0.5
*EQUATION
3
4116, 3, 1.0, 450, 3, -0.5, 2136, 3, -0.5
*EQUATION
3
4117, 1, 1.0, 2138, 1, -0.5, 2140, 1, -0.5
*EQUATION
3
4117, 2, 1.0, 2138, 2, -0.5, 2140, 2, -0.5
*EQUATION
3
4117, 3, 1.0, 2138, 3, -0.5, 2140, 3, -0.5
*EQUATION
3
4119, 1, 1.0, 450, 1, -0.5, 2139, 1, -0.5
*EQUATION
3
4119, 2, 1.0, 450, 2, -0.5, 2139, 2, -0.5
*EQUATION
3
4119, 3, 1.0, 450, 3, -0.5, 2139, 3, -0.5
*EQUATION
3
4121, 1, 1.0, 2089, 1, -0.5, 2179, 1, -0.5
*EQUATION
3
4121, 2, 1.0, 2089, 2, -0.5, 2179, 2, -0.5
*EQUATION
3
4121, 3, 1.0, 2089, 3, -0.5, 2179, 3, -0.5
*EQUATION
3
4123, 1, 1.0, 443, 1, -0.5, 2180, 1, -0.5
*EQUATION
3
4123, 2, 1.0, 443, 2, -0.5, 2180, 2, -0.5
*EQUATION
3
4123, 3, 1.0, 443, 3, -0.5, 2180, 3, -0.5
*EQUATION
5
4124, 1, 1.0, 2089, 1, -0.25, 2179, 1, -0.25, 2182, 1, -0.25, 2091, 1, -0.25
*EQUATION
5
4124, 2, 1.0, 2089, 2, -0.25, 2179, 2, -0.25, 2182, 2, -0.25, 2091, 2, -0.25
*EQUATION
5
4124, 3, 1.0, 2089, 3, -0.25, 2179, 3, -0.25, 2182, 3, -0.25, 2091, 3, -0.25
*EQUATION
5
4126, 1, 1.0, 443, 1, -0.25, 2180, 1, -0.25, 2183, 1, -0.25, 2092, 1, -0.25
*EQUATION
5
4126, 2, 1.0, 443, 2, -0.25, 2180, 2, -0.25, 2183, 2, -0.25, 2092, 2, -0.25
*EQUATION
5
4126, 3, 1.0, 443, 3, -0.25, 2180, 3, -0.25, 2183, 3, -0.25, 2092, 3, -0.25
*EQUATION
3
4127, 1, 1.0, 2091, 1, -0.5, 2182, 1, -0.5
*EQUATION
3
4127, 2, 1.0, 2091, 2, -0.5, 2182, 2, -0.5
*EQUATION
3
4127, 3, 1.0, 2091, 3, -0.5, 2182, 3, -0.5
*EQUATION
3
4129, 1, 1.0, 2092, 1, -0.5, 2183, 1, -0.5
*EQUATION
3
4129, 2, 1.0, 2092, 2, -0.5, 2183, 2, -0.5
*EQUATION
3
4129, 3, 1.0, 2092, 3, -0.5, 2183, 3, -0.5
*EQUATION
3
4130, 1, 1.0, 2179, 1, -0.5, 2180, 1, -0.5
*EQUATION
3
4130, 2, 1.0, 2179, 2, -0.5, 2180, 2, -0.5
*EQUATION
3
4130, 3, 1.0, 2179, 3, -0.5, 2180, 3, -0.5
*EQUATION
3
4131, 1, 1.0, 2179, 1, -0.5, 2182, 1, -0.5
*EQUATION
3
4131, 2, 1.0, 2179, 2, -0.5, 2182, 2, -0.5
*EQUATION
3
4131, 3, 1.0, 2179, 3, -0.5, 2182, 3, -0.5
*EQUATION
5
4132, 1, 1.0, 2179, 1, -0.25, 2182, 1, -0.25, 2183, 1, -0.25, 2180, 1, -0.25
*EQUATION
5
4132, 2, 1.0, 2179, 2, -0.25, 2182, 2, -0.25, 2183, 2, -0.25, 2180, 2, -0.25
*EQUATION
5
4132, 3, 1.0, 2179, 3, -0.25, 2182, 3, -0.25, 2183, 3, -0.25, 2180, 3, -0.25
*EQUATION
3
4133, 1, 1.0, 2180, 1, -0.5, 2183, 1, -0.5
*EQUATION
3
4133, 2, 1.0, 2180, 2, -0.5, 2183, 2, -0.5
*EQUATION
3
4133, 3, 1.0, 2180, 3, -0.5, 2183, 3, -0.5
*EQUATION
3
4134, 1, 1.0, 2182, 1, -0.5, 2183, 1, -0.5
*EQUATION
3
4134, 2, 1.0, 2182, 2, -0.5, 2183, 2, -0.5
*EQUATION
3
4134, 3, 1.0, 2182, 3, -0.5, 2183, 3, -0.5
*EQUATION
5
4135, 1, 1.0, 2091, 1, -0.25, 2182, 1, -0.25, 2185, 1, -0.25, 2093, 1, -0.25
*EQUATION
5
4135, 2, 1.0, 2091, 2, -0.25, 2182, 2, -0.25, 2185, 2, -0.25, 2093, 2, -0.25
*EQUATION
5
4135, 3, 1.0, 2091, 3, -0.25, 2182, 3, -0.25, 2185, 3, -0.25, 2093, 3, -0.25
*EQUATION
5
4137, 1, 1.0, 2092, 1, -0.25, 2183, 1, -0.25, 2186, 1, -0.25, 444, 1, -0.25
*EQUATION
5
4137, 2, 1.0, 2092, 2, -0.25, 2183, 2, -0.25, 2186, 2, -0.25, 444, 2, -0.25
*EQUATION
5
4137, 3, 1.0, 2092, 3, -0.25, 2183, 3, -0.25, 2186, 3, -0.25, 444, 3, -0.25
*EQUATION
3
4138, 1, 1.0, 2093, 1, -0.5, 2185, 1, -0.5
*EQUATION
3
4138, 2, 1.0, 2093, 2, -0.5, 2185, 2, -0.5
*EQUATION
3
4138, 3, 1.0, 2093, 3, -0.5, 2185, 3, -0.5
*EQUATION
3
4140, 1, 1.0, 444, 1, -0.5, 2186, 1, -0.5
*EQUATION
3
4140, 2, 1.0, 444, 2, -0.5, 2186, 2, -0.5
*EQUATION
3
4140, 3, 1.0, 444, 3, -0.5, 2186, 3, -0.5
*EQUATION
3
4141, 1, 1.0, 2182, 1, -0.5, 2185, 1, -0.5
*EQUATION
3
4141, 2, 1.0, 2182, 2, -0.5, 2185, 2, -0.5
*EQUATION
3
4141, 3, 1.0, 2182, 3, -0.5, 2185, 3, -0.5
*EQUATION
5
4142, 1, 1.0, 2182, 1, -0.25, 2185, 1, -0.25, 2186, 1, -0.25, 2183, 1, -0.25
*EQUATION
5
4142, 2, 1.0, 2182, 2, -0.25, 2185, 2, -0.25, 2186, 2, -0.25, 2183, 2, -0.25
*EQUATION
5
4142, 3, 1.0, 2182, 3, -0.25, 2185, 3, -0.25, 2186, 3, -0.25, 2183, 3, -0.25
*EQUATION
3
4143, 1, 1.0, 2183, 1, -0.5, 2186, 1, -0.5
*EQUATION
3
4143, 2, 1.0, 2183, 2, -0.5, 2186, 2, -0.5
*EQUATION
3
4143, 3, 1.0, 2183, 3, -0.5, 2186, 3, -0.5
*EQUATION
3
4144, 1, 1.0, 2185, 1, -0.5, 2186, 1, -0.5
*EQUATION
3
4144, 2, 1.0, 2185, 2, -0.5, 2186, 2, -0.5
*EQUATION
3
4144, 3, 1.0, 2185, 3, -0.5, 2186, 3, -0.5
*EQUATION
5
4145, 1, 1.0, 2093, 1, -0.25, 2185, 1, -0.25, 2207, 1, -0.25, 2138, 1, -0.25
*EQUATION
5
4145, 2, 1.0, 2093, 2, -0.25, 2185, 2, -0.25, 2207, 2, -0.25, 2138, 2, -0.25
*EQUATION
5
4145, 3, 1.0, 2093, 3, -0.25, 2185, 3, -0.25, 2207, 3, -0.25, 2138, 3, -0.25
*EQUATION
5
4147, 1, 1.0, 444, 1, -0.25, 2186, 1, -0.25, 2208, 1, -0.25, 2139, 1, -0.25
*EQUATION
5
4147, 2, 1.0, 444, 2, -0.25, 2186, 2, -0.25, 2208, 2, -0.25, 2139, 2, -0.25
*EQUATION
5
4147, 3, 1.0, 444, 3, -0.25, 2186, 3, -0.25, 2208, 3, -0.25, 2139, 3, -0.25
*EQUATION
3
4148, 1, 1.0, 2138, 1, -0.5, 2207, 1, -0.5
*EQUATION
3
4148, 2, 1.0, 2138, 2, -0.5, 2207, 2, -0.5
*EQUATION
3
4148, 3, 1.0, 2138, 3, -0.5, 2207, 3, -0.5
*EQUATION
3
4150, 1, 1.0, 2139, 1, -0.5, 2208, 1, -0.5
*EQUATION
3
4150, 2, 1.0, 2139, 2, -0.5, 2208, 2, -0.5
*EQUATION
3
4150, 3, 1.0, 2139, 3, -0.5, 2208, 3, -0.5
*EQUATION
3
4151, 1, 1.0, 2185, 1, -0.5, 2207, 1, -0.5
*EQUATION
3
4151, 2, 1.0, 2185, 2, -0.5, 2207, 2, -0.5
*EQUATION
3
4151, 3, 1.0, 2185, 3, -0.5, 2207, 3, -0.5
*EQUATION
5
4152, 1, 1.0, 2185, 1, -0.25, 2207, 1, -0.25, 2208, 1, -0.25, 2186, 1, -0.25
*EQUATION
5
4152, 2, 1.0, 2185, 2, -0.25, 2207, 2, -0.25, 2208, 2, -0.25, 2186, 2, -0.25
*EQUATION
5
4152, 3, 1.0, 2185, 3, -0.25, 2207, 3, -0.25, 2208, 3, -0.25, 2186, 3, -0.25
*EQUATION
3
4153, 1, 1.0, 2186, 1, -0.5, 2208, 1, -0.5
*EQUATION
3
4153, 2, 1.0, 2186, 2, -0.5, 2208, 2, -0.5
*EQUATION
3
4153, 3, 1.0, 2186, 3, -0.5, 2208, 3, -0.5
*EQUATION
3
4154, 1, 1.0, 2207, 1, -0.5, 2208, 1, -0.5
*EQUATION
3
4154, 2, 1.0, 2207, 2, -0.5, 2208, 2, -0.5
*EQUATION
3
4154, 3, 1.0, 2207, 3, -0.5, 2208, 3, -0.5
*EQUATION
5
4155, 1, 1.0, 2138, 1, -0.25, 2207, 1, -0.25, 2210, 1, -0.25, 2140, 1, -0.25
*EQUATION
5
4155, 2, 1.0, 2138, 2, -0.25, 2207, 2, -0.25, 2210, 2, -0.25, 2140, 2, -0.25
*EQUATION
5
4155, 3, 1.0, 2138, 3, -0.25, 2207, 3, -0.25, 2210, 3, -0.25, 2140, 3, -0.25
*EQUATION
5
4157, 1, 1.0, 2139, 1, -0.25, 2208, 1, -0.25, 2211, 1, -0.25, 450, 1, -0.25
*EQUATION
5
4157, 2, 1.0, 2139, 2, -0.25, 2208, 2, -0.25, 2211, 2, -0.25, 450, 2, -0.25
*EQUATION
5
4157, 3, 1.0, 2139, 3, -0.25, 2208, 3, -0.25, 2211, 3, -0.25, 450, 3, -0.25
*EQUATION
3
4158, 1, 1.0, 2140, 1, -0.5, 2210, 1, -0.5
*EQUATION
3
4158, 2, 1.0, 2140, 2, -0.5, 2210, 2, -0.5
*EQUATION
3
4158, 3, 1.0, 2140, 3, -0.5, 2210, 3, -0.5
*EQUATION
3
4160, 1, 1.0, 450, 1, -0.5, 2211, 1, -0.5
*EQUATION
3
4160, 2, 1.0, 450, 2, -0.5, 2211, 2, -0.5
*EQUATION
3
4160, 3, 1.0, 450, 3, -0.5, 2211, 3, -0.5
*EQUATION
3
4161, 1, 1.0, 2207, 1, -0.5, 2210, 1, -0.5
*EQUATION
3
4161, 2, 1.0, 2207, 2, -0.5, 2210, 2, -0.5
*EQUATION
3
4161, 3, 1.0, 2207, 3, -0.5, 2210, 3, -0.5
*EQUATION
5
4162, 1, 1.0, 2207, 1, -0.25, 2210, 1, -0.25, 2211, 1, -0.25, 2208, 1, -0.25
*EQUATION
5
4162, 2, 1.0, 2207, 2, -0.25, 2210, 2, -0.25, 2211, 2, -0.25, 2208, 2, -0.25
*EQUATION
5
4162, 3, 1.0, 2207, 3, -0.25, 2210, 3, -0.25, 2211, 3, -0.25, 2208, 3, -0.25
*EQUATION
3
4163, 1, 1.0, 2208, 1, -0.5, 2211, 1, -0.5
*EQUATION
3
4163, 2, 1.0, 2208, 2, -0.5, 2211, 2, -0.5
*EQUATION
3
4163, 3, 1.0, 2208, 3, -0.5, 2211, 3, -0.5
*EQUATION
3
4164, 1, 1.0, 2210, 1, -0.5, 2211, 1, -0.5
*EQUATION
3
4164, 2, 1.0, 2210, 2, -0.5, 2211, 2, -0.5
*EQUATION
3
4164, 3, 1.0, 2210, 3, -0.5, 2211, 3, -0.5
*EQUATION
3
4165, 1, 1.0, 587, 1, -0.5, 2296, 1, -0.5
*EQUATION
3
4165, 2, 1.0, 587, 2, -0.5, 2296, 2, -0.5
*EQUATION
3
4165, 3, 1.0, 587, 3, -0.5, 2296, 3, -0.5
*EQUATION
3
4166, 1, 1.0, 2296, 1, -0.5, 2297, 1, -0.5
*EQUATION
3
4166, 2, 1.0, 2296, 2, -0.5, 2297, 2, -0.5
*EQUATION
3
4166, 3, 1.0, 2296, 3, -0.5, 2297, 3, -0.5
*EQUATION
5
4167, 1, 1.0, 2296, 1, -0.25, 2297, 1, -0.25, 2298, 1, -0.25, 587, 1, -0.25
*EQUATION
5
4167, 2, 1.0, 2296, 2, -0.25, 2297, 2, -0.25, 2298, 2, -0.25, 587, 2, -0.25
*EQUATION
5
4167, 3, 1.0, 2296, 3, -0.25, 2297, 3, -0.25, 2298, 3, -0.25, 587, 3, -0.25
*EQUATION
3
4168, 1, 1.0, 587, 1, -0.5, 2298, 1, -0.5
*EQUATION
3
4168, 2, 1.0, 587, 2, -0.5, 2298, 2, -0.5
*EQUATION
3
4168, 3, 1.0, 587, 3, -0.5, 2298, 3, -0.5
*EQUATION
3
4169, 1, 1.0, 2297, 1, -0.5, 2298, 1, -0.5
*EQUATION
3
4169, 2, 1.0, 2297, 2, -0.5, 2298, 2, -0.5
*EQUATION
3
4169, 3, 1.0, 2297, 3, -0.5, 2298, 3, -0.5
*EQUATION
3
4170, 1, 1.0, 2296, 1, -0.5, 2342, 1, -0.5
*EQUATION
3
4170, 2, 1.0, 2296, 2, -0.5, 2342, 2, -0.5
*EQUATION
3
4170, 3, 1.0, 2296, 3, -0.5, 2342, 3, -0.5
*EQUATION
3
4172, 1, 1.0, 587, 1, -0.5, 2343, 1, -0.5
*EQUATION
3
4172, 2, 1.0, 587, 2, -0.5, 2343, 2, -0.5
*EQUATION
3
4172, 3, 1.0, 587, 3, -0.5, 2343, 3, -0.5
*EQUATION
5
4173, 1, 1.0, 2296, 1, -0.25, 2342, 1, -0.25, 2344, 1, -0.25, 2297, 1, -0.25
*EQUATION
5
4173, 2, 1.0, 2296, 2, -0.25, 2342, 2, -0.25, 2344, 2, -0.25, 2297, 2, -0.25
*EQUATION
5
4173, 3, 1.0, 2296, 3, -0.25, 2342, 3, -0.25, 2344, 3, -0.25, 2297, 3, -0.25
*EQUATION
5
4175, 1, 1.0, 587, 1, -0.25, 2343, 1, -0.25, 2345, 1, -0.25, 2298, 1, -0.25
*EQUATION
5
4175, 2, 1.0, 587, 2, -0.25, 2343, 2, -0.25, 2345, 2, -0.25, 2298, 2, -0.25
*EQUATION
5
4175, 3, 1.0, 587, 3, -0.25, 2343, 3, -0.25, 2345, 3, -0.25, 2298, 3, -0.25
*EQUATION
3
4176, 1, 1.0, 2297, 1, -0.5, 2344, 1, -0.5
*EQUATION
3
4176, 2, 1.0, 2297, 2, -0.5, 2344, 2, -0.5
*EQUATION
3
4176, 3, 1.0, 2297, 3, -0.5, 2344, 3, -0.5
*EQUATION
3
4178, 1, 1.0, 2298, 1, -0.5, 2345, 1, -0.5
*EQUATION
3
4178, 2, 1.0, 2298, 2, -0.5, 2345, 2, -0.5
*EQUATION
3
4178, 3, 1.0, 2298, 3, -0.5, 2345, 3, -0.5
*EQUATION
3
4179, 1, 1.0, 2342, 1, -0.5, 2343, 1, -0.5
*EQUATION
3
4179, 2, 1.0, 2342, 2, -0.5, 2343, 2, -0.5
*EQUATION
3
4179, 3, 1.0, 2342, 3, -0.5, 2343, 3, -0.5
*EQUATION
3
4180, 1, 1.0, 2342, 1, -0.5, 2344, 1, -0.5
*EQUATION
3
4180, 2, 1.0, 2342, 2, -0.5, 2344, 2, -0.5
*EQUATION
3
4180, 3, 1.0, 2342, 3, -0.5, 2344, 3, -0.5
*EQUATION
5
4181, 1, 1.0, 2342, 1, -0.25, 2344, 1, -0.25, 2345, 1, -0.25, 2343, 1, -0.25
*EQUATION
5
4181, 2, 1.0, 2342, 2, -0.25, 2344, 2, -0.25, 2345, 2, -0.25, 2343, 2, -0.25
*EQUATION
5
4181, 3, 1.0, 2342, 3, -0.25, 2344, 3, -0.25, 2345, 3, -0.25, 2343, 3, -0.25
*EQUATION
3
4182, 1, 1.0, 2343, 1, -0.5, 2345, 1, -0.5
*EQUATION
3
4182, 2, 1.0, 2343, 2, -0.5, 2345, 2, -0.5
*EQUATION
3
4182, 3, 1.0, 2343, 3, -0.5, 2345, 3, -0.5
*EQUATION
3
4183, 1, 1.0, 2344, 1, -0.5, 2345, 1, -0.5
*EQUATION
3
4183, 2, 1.0, 2344, 2, -0.5, 2345, 2, -0.5
*EQUATION
3
4183, 3, 1.0, 2344, 3, -0.5, 2345, 3, -0.5
*EQUATION
3
4184, 1, 1.0, 2297, 1, -0.5, 2299, 1, -0.5
*EQUATION
3
4184, 2, 1.0, 2297, 2, -0.5, 2299, 2, -0.5
*EQUATION
3
4184, 3, 1.0, 2297, 3, -0.5, 2299, 3, -0.5
*EQUATION
5
4185, 1, 1.0, 2297, 1, -0.25, 2299, 1, -0.25, 588, 1, -0.25, 2298, 1, -0.25
*EQUATION
5
4185, 2, 1.0, 2297, 2, -0.25, 2299, 2, -0.25, 588, 2, -0.25, 2298, 2, -0.25
*EQUATION
5
4185, 3, 1.0, 2297, 3, -0.25, 2299, 3, -0.25, 588, 3, -0.25, 2298, 3, -0.25
*EQUATION
3
4186, 1, 1.0, 588, 1, -0.5, 2298, 1, -0.5
*EQUATION
3
4186, 2, 1.0, 588, 2, -0.5, 2298, 2, -0.5
*EQUATION
3
4186, 3, 1.0, 588, 3, -0.5, 2298, 3, -0.5
*EQUATION
3
4187, 1, 1.0, 588, 1, -0.5, 2299, 1, -0.5
*EQUATION
3
4187, 2, 1.0, 588, 2, -0.5, 2299, 2, -0.5
*EQUATION
3
4187, 3, 1.0, 588, 3, -0.5, 2299, 3, -0.5
*EQUATION
5
4188, 1, 1.0, 2297, 1, -0.25, 2344, 1, -0.25, 2346, 1, -0.25, 2299, 1, -0.25
*EQUATION
5
4188, 2, 1.0, 2297, 2, -0.25, 2344, 2, -0.25, 2346, 2, -0.25, 2299, 2, -0.25
*EQUATION
5
4188, 3, 1.0, 2297, 3, -0.25, 2344, 3, -0.25, 2346, 3, -0.25, 2299, 3, -0.25
*EQUATION
5
4190, 1, 1.0, 2298, 1, -0.25, 2345, 1, -0.25, 2347, 1, -0.25, 588, 1, -0.25
*EQUATION
5
4190, 2, 1.0, 2298, 2, -0.25, 2345, 2, -0.25, 2347, 2, -0.25, 588, 2, -0.25
*EQUATION
5
4190, 3, 1.0, 2298, 3, -0.25, 2345, 3, -0.25, 2347, 3, -0.25, 588, 3, -0.25
*EQUATION
3
4191, 1, 1.0, 2299, 1, -0.5, 2346, 1, -0.5
*EQUATION
3
4191, 2, 1.0, 2299, 2, -0.5, 2346, 2, -0.5
*EQUATION
3
4191, 3, 1.0, 2299, 3, -0.5, 2346, 3, -0.5
*EQUATION
3
4193, 1, 1.0, 588, 1, -0.5, 2347, 1, -0.5
*EQUATION
3
4193, 2, 1.0, 588, 2, -0.5, 2347, 2, -0.5
*EQUATION
3
4193, 3, 1.0, 588, 3, -0.5, 2347, 3, -0.5
*EQUATION
3
4194, 1, 1.0, 2344, 1, -0.5, 2346, 1, -0.5
*EQUATION
3
4194, 2, 1.0, 2344, 2, -0.5, 2346, 2, -0.5
*EQUATION
3
4194, 3, 1.0, 2344, 3, -0.5, 2346, 3, -0.5
*EQUATION
3
4196, 1, 1.0, 2345, 1, -0.5, 2347, 1, -0.5
*EQUATION
3
4196, 2, 1.0, 2345, 2, -0.5, 2347, 2, -0.5
*EQUATION
3
4196, 3, 1.0, 2345, 3, -0.5, 2347, 3, -0.5
*EQUATION
3
4198, 1, 1.0, 1554, 1, -0.5, 2344, 1, -0.5
*EQUATION
3
4198, 2, 1.0, 1554, 2, -0.5, 2344, 2, -0.5
*EQUATION
3
4198, 3, 1.0, 1554, 3, -0.5, 2344, 3, -0.5
*EQUATION
5
4199, 1, 1.0, 2344, 1, -0.25, 1554, 1, -0.25, 1555, 1, -0.25, 2345, 1, -0.25
*EQUATION
5
4199, 2, 1.0, 2344, 2, -0.25, 1554, 2, -0.25, 1555, 2, -0.25, 2345, 2, -0.25
*EQUATION
5
4199, 3, 1.0, 2344, 3, -0.25, 1554, 3, -0.25, 1555, 3, -0.25, 2345, 3, -0.25
*EQUATION
3
4200, 1, 1.0, 1555, 1, -0.5, 2345, 1, -0.5
*EQUATION
3
4200, 2, 1.0, 1555, 2, -0.5, 2345, 2, -0.5
*EQUATION
3
4200, 3, 1.0, 1555, 3, -0.5, 2345, 3, -0.5
*EQUATION
5
4201, 1, 1.0, 2344, 1, -0.25, 1554, 1, -0.25, 1556, 1, -0.25, 2346, 1, -0.25
*EQUATION
5
4201, 2, 1.0, 2344, 2, -0.25, 1554, 2, -0.25, 1556, 2, -0.25, 2346, 2, -0.25
*EQUATION
5
4201, 3, 1.0, 2344, 3, -0.25, 1554, 3, -0.25, 1556, 3, -0.25, 2346, 3, -0.25
*EQUATION
5
4203, 1, 1.0, 2345, 1, -0.25, 1555, 1, -0.25, 636, 1, -0.25, 2347, 1, -0.25
*EQUATION
5
4203, 2, 1.0, 2345, 2, -0.25, 1555, 2, -0.25, 636, 2, -0.25, 2347, 2, -0.25
*EQUATION
5
4203, 3, 1.0, 2345, 3, -0.25, 1555, 3, -0.25, 636, 3, -0.25, 2347, 3, -0.25
*EQUATION
3
4204, 1, 1.0, 1556, 1, -0.5, 2346, 1, -0.5
*EQUATION
3
4204, 2, 1.0, 1556, 2, -0.5, 2346, 2, -0.5
*EQUATION
3
4204, 3, 1.0, 1556, 3, -0.5, 2346, 3, -0.5
*EQUATION
3
4206, 1, 1.0, 636, 1, -0.5, 2347, 1, -0.5
*EQUATION
3
4206, 2, 1.0, 636, 2, -0.5, 2347, 2, -0.5
*EQUATION
3
4206, 3, 1.0, 636, 3, -0.5, 2347, 3, -0.5
*EQUATION
3
4207, 1, 1.0, 1554, 1, -0.5, 1555, 1, -0.5
*EQUATION
3
4207, 2, 1.0, 1554, 2, -0.5, 1555, 2, -0.5
*EQUATION
3
4207, 3, 1.0, 1554, 3, -0.5, 1555, 3, -0.5
*EQUATION
3
4208, 1, 1.0, 1554, 1, -0.5, 1556, 1, -0.5
*EQUATION
3
4208, 2, 1.0, 1554, 2, -0.5, 1556, 2, -0.5
*EQUATION
3
4208, 3, 1.0, 1554, 3, -0.5, 1556, 3, -0.5
*EQUATION
5
4209, 1, 1.0, 1554, 1, -0.25, 1556, 1, -0.25, 636, 1, -0.25, 1555, 1, -0.25
*EQUATION
5
4209, 2, 1.0, 1554, 2, -0.25, 1556, 2, -0.25, 636, 2, -0.25, 1555, 2, -0.25
*EQUATION
5
4209, 3, 1.0, 1554, 3, -0.25, 1556, 3, -0.25, 636, 3, -0.25, 1555, 3, -0.25
*EQUATION
3
4210, 1, 1.0, 636, 1, -0.5, 1555, 1, -0.5
*EQUATION
3
4210, 2, 1.0, 636, 2, -0.5, 1555, 2, -0.5
*EQUATION
3
4210, 3, 1.0, 636, 3, -0.5, 1555, 3, -0.5
*EQUATION
3
4211, 1, 1.0, 636, 1, -0.5, 1556, 1, -0.5
*EQUATION
3
4211, 2, 1.0, 636, 2, -0.5, 1556, 2, -0.5
*EQUATION
3
4211, 3, 1.0, 636, 3, -0.5, 1556, 3, -0.5
*EQUATION
3
4212, 1, 1.0, 2299, 1, -0.5, 2313, 1, -0.5
*EQUATION
3
4212, 2, 1.0, 2299, 2, -0.5, 2313, 2, -0.5
*EQUATION
3
4212, 3, 1.0, 2299, 3, -0.5, 2313, 3, -0.5
*EQUATION
5
4213, 1, 1.0, 2299, 1, -0.25, 2313, 1, -0.25, 2314, 1, -0.25, 588, 1, -0.25
*EQUATION
5
4213, 2, 1.0, 2299, 2, -0.25, 2313, 2, -0.25, 2314, 2, -0.25, 588, 2, -0.25
*EQUATION
5
4213, 3, 1.0, 2299, 3, -0.25, 2313, 3, -0.25, 2314, 3, -0.25, 588, 3, -0.25
*EQUATION
3
4214, 1, 1.0, 588, 1, -0.5, 2314, 1, -0.5
*EQUATION
3
4214, 2, 1.0, 588, 2, -0.5, 2314, 2, -0.5
*EQUATION
3
4214, 3, 1.0, 588, 3, -0.5, 2314, 3, -0.5
*EQUATION
3
4215, 1, 1.0, 2313, 1, -0.5, 2314, 1, -0.5
*EQUATION
3
4215, 2, 1.0, 2313, 2, -0.5, 2314, 2, -0.5
*EQUATION
3
4215, 3, 1.0, 2313, 3, -0.5, 2314, 3, -0.5
*EQUATION
5
4216, 1, 1.0, 2299, 1, -0.25, 2346, 1, -0.25, 2354, 1, -0.25, 2313, 1, -0.25
*EQUATION
5
4216, 2, 1.0, 2299, 2, -0.25, 2346, 2, -0.25, 2354, 2, -0.25, 2313, 2, -0.25
*EQUATION
5
4216, 3, 1.0, 2299, 3, -0.25, 2346, 3, -0.25, 2354, 3, -0.25, 2313, 3, -0.25
*EQUATION
5
4218, 1, 1.0, 588, 1, -0.25, 2347, 1, -0.25, 2355, 1, -0.25, 2314, 1, -0.25
*EQUATION
5
4218, 2, 1.0, 588, 2, -0.25, 2347, 2, -0.25, 2355, 2, -0.25, 2314, 2, -0.25
*EQUATION
5
4218, 3, 1.0, 588, 3, -0.25, 2347, 3, -0.25, 2355, 3, -0.25, 2314, 3, -0.25
*EQUATION
3
4219, 1, 1.0, 2313, 1, -0.5, 2354, 1, -0.5
*EQUATION
3
4219, 2, 1.0, 2313, 2, -0.5, 2354, 2, -0.5
*EQUATION
3
4219, 3, 1.0, 2313, 3, -0.5, 2354, 3, -0.5
*EQUATION
3
4221, 1, 1.0, 2314, 1, -0.5, 2355, 1, -0.5
*EQUATION
3
4221, 2, 1.0, 2314, 2, -0.5, 2355, 2, -0.5
*EQUATION
3
4221, 3, 1.0, 2314, 3, -0.5, 2355, 3, -0.5
*EQUATION
3
4222, 1, 1.0, 2346, 1, -0.5, 2354, 1, -0.5
*EQUATION
3
4222, 2, 1.0, 2346, 2, -0.5, 2354, 2, -0.5
*EQUATION
3
4222, 3, 1.0, 2346, 3, -0.5, 2354, 3, -0.5
*EQUATION
3
4224, 1, 1.0, 2347, 1, -0.5, 2355, 1, -0.5
*EQUATION
3
4224, 2, 1.0, 2347, 2, -0.5, 2355, 2, -0.5
*EQUATION
3
4224, 3, 1.0, 2347, 3, -0.5, 2355, 3, -0.5
*EQUATION
3
4225, 1, 1.0, 2354, 1, -0.5, 2355, 1, -0.5
*EQUATION
3
4225, 2, 1.0, 2354, 2, -0.5, 2355, 2, -0.5
*EQUATION
3
4225, 3, 1.0, 2354, 3, -0.5, 2355, 3, -0.5
*EQUATION
3
4226, 1, 1.0, 2313, 1, -0.5, 2315, 1, -0.5
*EQUATION
3
4226, 2, 1.0, 2313, 2, -0.5, 2315, 2, -0.5
*EQUATION
3
4226, 3, 1.0, 2313, 3, -0.5, 2315, 3, -0.5
*EQUATION
5
4227, 1, 1.0, 2313, 1, -0.25, 2315, 1, -0.25, 594, 1, -0.25, 2314, 1, -0.25
*EQUATION
5
4227, 2, 1.0, 2313, 2, -0.25, 2315, 2, -0.25, 594, 2, -0.25, 2314, 2, -0.25
*EQUATION
5
4227, 3, 1.0, 2313, 3, -0.25, 2315, 3, -0.25, 594, 3, -0.25, 2314, 3, -0.25
*EQUATION
3
4228, 1, 1.0, 594, 1, -0.5, 2314, 1, -0.5
*EQUATION
3
4228, 2, 1.0, 594, 2, -0.5, 2314, 2, -0.5
*EQUATION
3
4228, 3, 1.0, 594, 3, -0.5, 2314, 3, -0.5
*EQUATION
3
4229, 1, 1.0, 594, 1, -0.5, 2315, 1, -0.5
*EQUATION
3
4229, 2, 1.0, 594, 2, -0.5, 2315, 2, -0.5
*EQUATION
3
4229, 3, 1.0, 594, 3, -0.5, 2315, 3, -0.5
*EQUATION
5
4230, 1, 1.0, 2313, 1, -0.25, 2354, 1, -0.25, 2356, 1, -0.25, 2315, 1, -0.25
*EQUATION
5
4230, 2, 1.0, 2313, 2, -0.25, 2354, 2, -0.25, 2356, 2, -0.25, 2315, 2, -0.25
*EQUATION
5
4230, 3, 1.0, 2313, 3, -0.25, 2354, 3, -0.25, 2356, 3, -0.25, 2315, 3, -0.25
*EQUATION
5
4232, 1, 1.0, 2314, 1, -0.25, 2355, 1, -0.25, 2357, 1, -0.25, 594, 1, -0.25
*EQUATION
5
4232, 2, 1.0, 2314, 2, -0.25, 2355, 2, -0.25, 2357, 2, -0.25, 594, 2, -0.25
*EQUATION
5
4232, 3, 1.0, 2314, 3, -0.25, 2355, 3, -0.25, 2357, 3, -0.25, 594, 3, -0.25
*EQUATION
3
4233, 1, 1.0, 2315, 1, -0.5, 2356, 1, -0.5
*EQUATION
3
4233, 2, 1.0, 2315, 2, -0.5, 2356, 2, -0.5
*EQUATION
3
4233, 3, 1.0, 2315, 3, -0.5, 2356, 3, -0.5
*EQUATION
3
4235, 1, 1.0, 594, 1, -0.5, 2357, 1, -0.5
*EQUATION
3
4235, 2, 1.0, 594, 2, -0.5, 2357, 2, -0.5
*EQUATION
3
4235, 3, 1.0, 594, 3, -0.5, 2357, 3, -0.5
*EQUATION
3
4236, 1, 1.0, 2354, 1, -0.5, 2356, 1, -0.5
*EQUATION
3
4236, 2, 1.0, 2354, 2, -0.5, 2356, 2, -0.5
*EQUATION
3
4236, 3, 1.0, 2354, 3, -0.5, 2356, 3, -0.5
*EQUATION
5
4237, 1, 1.0, 2354, 1, -0.25, 2356, 1, -0.25, 2357, 1, -0.25, 2355, 1, -0.25
*EQUATION
5
4237, 2, 1.0, 2354, 2, -0.25, 2356, 2, -0.25, 2357, 2, -0.25, 2355, 2, -0.25
*EQUATION
5
4237, 3, 1.0, 2354, 3, -0.25, 2356, 3, -0.25, 2357, 3, -0.25, 2355, 3, -0.25
*EQUATION
3
4238, 1, 1.0, 2355, 1, -0.5, 2357, 1, -0.5
*EQUATION
3
4238, 2, 1.0, 2355, 2, -0.5, 2357, 2, -0.5
*EQUATION
3
4238, 3, 1.0, 2355, 3, -0.5, 2357, 3, -0.5
*EQUATION
3
4239, 1, 1.0, 2356, 1, -0.5, 2357, 1, -0.5
*EQUATION
3
4239, 2, 1.0, 2356, 2, -0.5, 2357, 2, -0.5
*EQUATION
3
4239, 3, 1.0, 2356, 3, -0.5, 2357, 3, -0.5
*EQUATION
5
4240, 1, 1.0, 2346, 1, -0.25, 1556, 1, -0.25, 1574, 1, -0.25, 2354, 1, -0.25
*EQUATION
5
4240, 2, 1.0, 2346, 2, -0.25, 1556, 2, -0.25, 1574, 2, -0.25, 2354, 2, -0.25
*EQUATION
5
4240, 3, 1.0, 2346, 3, -0.25, 1556, 3, -0.25, 1574, 3, -0.25, 2354, 3, -0.25
*EQUATION
5
4242, 1, 1.0, 2347, 1, -0.25, 636, 1, -0.25, 1575, 1, -0.25, 2355, 1, -0.25
*EQUATION
5
4242, 2, 1.0, 2347, 2, -0.25, 636, 2, -0.25, 1575, 2, -0.25, 2355, 2, -0.25
*EQUATION
5
4242, 3, 1.0, 2347, 3, -0.25, 636, 3, -0.25, 1575, 3, -0.25, 2355, 3, -0.25
*EQUATION
3
4243, 1, 1.0, 1574, 1, -0.5, 2354, 1, -0.5
*EQUATION
3
4243, 2, 1.0, 1574, 2, -0.5, 2354, 2, -0.5
*EQUATION
3
4243, 3, 1.0, 1574, 3, -0.5, 2354, 3, -0.5
*EQUATION
5
4244, 1, 1.0, 2354, 1, -0.25, 1574, 1, -0.25, 1575, 1, -0.25, 2355, 1, -0.25
*EQUATION
5
4244, 2, 1.0, 2354, 2, -0.25, 1574, 2, -0.25, 1575, 2, -0.25, 2355, 2, -0.25
*EQUATION
5
4244, 3, 1.0, 2354, 3, -0.25, 1574, 3, -0.25, 1575, 3, -0.25, 2355, 3, -0.25
*EQUATION
3
4245, 1, 1.0, 1575, 1, -0.5, 2355, 1, -0.5
*EQUATION
3
4245, 2, 1.0, 1575, 2, -0.5, 2355, 2, -0.5
*EQUATION
3
4245, 3, 1.0, 1575, 3, -0.5, 2355, 3, -0.5
*EQUATION
3
4246, 1, 1.0, 1556, 1, -0.5, 1574, 1, -0.5
*EQUATION
3
4246, 2, 1.0, 1556, 2, -0.5, 1574, 2, -0.5
*EQUATION
3
4246, 3, 1.0, 1556, 3, -0.5, 1574, 3, -0.5
*EQUATION
5
4247, 1, 1.0, 1556, 1, -0.25, 1574, 1, -0.25, 1575, 1, -0.25, 636, 1, -0.25
*EQUATION
5
4247, 2, 1.0, 1556, 2, -0.25, 1574, 2, -0.25, 1575, 2, -0.25, 636, 2, -0.25
*EQUATION
5
4247, 3, 1.0, 1556, 3, -0.25, 1574, 3, -0.25, 1575, 3, -0.25, 636, 3, -0.25
*EQUATION
3
4248, 1, 1.0, 636, 1, -0.5, 1575, 1, -0.5
*EQUATION
3
4248, 2, 1.0, 636, 2, -0.5, 1575, 2, -0.5
*EQUATION
3
4248, 3, 1.0, 636, 3, -0.5, 1575, 3, -0.5
*EQUATION
3
4249, 1, 1.0, 1574, 1, -0.5, 1575, 1, -0.5
*EQUATION
3
4249, 2, 1.0, 1574, 2, -0.5, 1575, 2, -0.5
*EQUATION
3
4249, 3, 1.0, 1574, 3, -0.5, 1575, 3, -0.5
*EQUATION
3
4250, 1, 1.0, 980, 1, -0.5, 981, 1, -0.5
*EQUATION
3
4250, 2, 1.0, 980, 2, -0.5, 981, 2, -0.5
*EQUATION
3
4250, 3, 1.0, 980, 3, -0.5, 981, 3, -0.5
*EQUATION
3
4251, 1, 1.0, 626, 1, -0.5, 980, 1, -0.5
*EQUATION
3
4251, 2, 1.0, 626, 2, -0.5, 980, 2, -0.5
*EQUATION
3
4251, 3, 1.0, 626, 3, -0.5, 980, 3, -0.5
*EQUATION
5
4252, 1, 1.0, 980, 1, -0.25, 626, 1, -0.25, 983, 1, -0.25, 981, 1, -0.25
*EQUATION
5
4252, 2, 1.0, 980, 2, -0.25, 626, 2, -0.25, 983, 2, -0.25, 981, 2, -0.25
*EQUATION
5
4252, 3, 1.0, 980, 3, -0.25, 626, 3, -0.25, 983, 3, -0.25, 981, 3, -0.25
*EQUATION
3
4253, 1, 1.0, 981, 1, -0.5, 983, 1, -0.5
*EQUATION
3
4253, 2, 1.0, 981, 2, -0.5, 983, 2, -0.5
*EQUATION
3
4253, 3, 1.0, 981, 3, -0.5, 983, 3, -0.5
*EQUATION
3
4254, 1, 1.0, 626, 1, -0.5, 983, 1, -0.5
*EQUATION
3
4254, 2, 1.0, 626, 2, -0.5, 983, 2, -0.5
*EQUATION
3
4254, 3, 1.0, 626, 3, -0.5, 983, 3, -0.5
*EQUATION
3
4255, 1, 1.0, 980, 1, -0.5, 997, 1, -0.5
*EQUATION
3
4255, 2, 1.0, 980, 2, -0.5, 997, 2, -0.5
*EQUATION
3
4255, 3, 1.0, 980, 3, -0.5, 997, 3, -0.5
*EQUATION
5
4256, 1, 1.0, 980, 1, -0.25, 997, 1, -0.25, 998, 1, -0.25, 981, 1, -0.25
*EQUATION
5
4256, 2, 1.0, 980, 2, -0.25, 997, 2, -0.25, 998, 2, -0.25, 981, 2, -0.25
*EQUATION
5
4256, 3, 1.0, 980, 3, -0.25, 997, 3, -0.25, 998, 3, -0.25, 981, 3, -0.25
*EQUATION
3
4257, 1, 1.0, 981, 1, -0.5, 998, 1, -0.5
*EQUATION
3
4257, 2, 1.0, 981, 2, -0.5, 998, 2, -0.5
*EQUATION
3
4257, 3, 1.0, 981, 3, -0.5, 998, 3, -0.5
*EQUATION
5
4260, 1, 1.0, 981, 1, -0.25, 998, 1, -0.25, 1001, 1, -0.25, 983, 1, -0.25
*EQUATION
5
4260, 2, 1.0, 981, 2, -0.25, 998, 2, -0.25, 1001, 2, -0.25, 983, 2, -0.25
*EQUATION
5
4260, 3, 1.0, 981, 3, -0.25, 998, 3, -0.25, 1001, 3, -0.25, 983, 3, -0.25
*EQUATION
3
4263, 1, 1.0, 983, 1, -0.5, 1001, 1, -0.5
*EQUATION
3
4263, 2, 1.0, 983, 2, -0.5, 1001, 2, -0.5
*EQUATION
3
4263, 3, 1.0, 983, 3, -0.5, 1001, 3, -0.5
*EQUATION
3
4264, 1, 1.0, 997, 1, -0.5, 998, 1, -0.5
*EQUATION
3
4264, 2, 1.0, 997, 2, -0.5, 998, 2, -0.5
*EQUATION
3
4264, 3, 1.0, 997, 3, -0.5, 998, 3, -0.5
*EQUATION
3
4267, 1, 1.0, 998, 1, -0.5, 1001, 1, -0.5
*EQUATION
3
4267, 2, 1.0, 998, 2, -0.5, 1001, 2, -0.5
*EQUATION
3
4267, 3, 1.0, 998, 3, -0.5, 1001, 3, -0.5
*EQUATION
3
4269, 1, 1.0, 994, 1, -0.5, 995, 1, -0.5
*EQUATION
3
4269, 2, 1.0, 994, 2, -0.5, 995, 2, -0.5
*EQUATION
3
4269, 3, 1.0, 994, 3, -0.5, 995, 3, -0.5
*EQUATION
3
4270, 1, 1.0, 994, 1, -0.5, 997, 1, -0.5
*EQUATION
3
4270, 2, 1.0, 994, 2, -0.5, 997, 2, -0.5
*EQUATION
3
4270, 3, 1.0, 994, 3, -0.5, 997, 3, -0.5
*EQUATION
5
4271, 1, 1.0, 994, 1, -0.25, 997, 1, -0.25, 998, 1, -0.25, 995, 1, -0.25
*EQUATION
5
4271, 2, 1.0, 994, 2, -0.25, 997, 2, -0.25, 998, 2, -0.25, 995, 2, -0.25
*EQUATION
5
4271, 3, 1.0, 994, 3, -0.25, 997, 3, -0.25, 998, 3, -0.25, 995, 3, -0.25
*EQUATION
3
4272, 1, 1.0, 995, 1, -0.5, 998, 1, -0.5
*EQUATION
3
4272, 2, 1.0, 995, 2, -0.5, 998, 2, -0.5
*EQUATION
3
4272, 3, 1.0, 995, 3, -0.5, 998, 3, -0.5
*EQUATION
3
4275, 1, 1.0, 995, 1, -0.5, 1003, 1, -0.5
*EQUATION
3
4275, 2, 1.0, 995, 2, -0.5, 1003, 2, -0.5
*EQUATION
3
4275, 3, 1.0, 995, 3, -0.5, 1003, 3, -0.5
*EQUATION
5
4278, 1, 1.0, 995, 1, -0.25, 1003, 1, -0.25, 1005, 1, -0.25, 998, 1, -0.25
*EQUATION
5
4278, 2, 1.0, 995, 2, -0.25, 1003, 2, -0.25, 1005, 2, -0.25, 998, 2, -0.25
*EQUATION
5
4278, 3, 1.0, 995, 3, -0.25, 1003, 3, -0.25, 1005, 3, -0.25, 998, 3, -0.25
*EQUATION
3
4281, 1, 1.0, 998, 1, -0.5, 1005, 1, -0.5
*EQUATION
3
4281, 2, 1.0, 998, 2, -0.5, 1005, 2, -0.5
*EQUATION
3
4281, 3, 1.0, 998, 3, -0.5, 1005, 3, -0.5
*EQUATION
3
4285, 1, 1.0, 1003, 1, -0.5, 1005, 1, -0.5
*EQUATION
3
4285, 2, 1.0, 1003, 2, -0.5, 1005, 2, -0.5
*EQUATION
3
4285, 3, 1.0, 1003, 3, -0.5, 1005, 3, -0.5
*EQUATION
5
4289, 1, 1.0, 998, 1, -0.25, 1005, 1, -0.25, 1007, 1, -0.25, 1001, 1, -0.25
*EQUATION
5
4289, 2, 1.0, 998, 2, -0.25, 1005, 2, -0.25, 1007, 2, -0.25, 1001, 2, -0.25
*EQUATION
5
4289, 3, 1.0, 998, 3, -0.25, 1005, 3, -0.25, 1007, 3, -0.25, 1001, 3, -0.25
*EQUATION
3
4292, 1, 1.0, 1001, 1, -0.5, 1007, 1, -0.5
*EQUATION
3
4292, 2, 1.0, 1001, 2, -0.5, 1007, 2, -0.5
*EQUATION
3
4292, 3, 1.0, 1001, 3, -0.5, 1007, 3, -0.5
*EQUATION
3
4295, 1, 1.0, 1005, 1, -0.5, 1007, 1, -0.5
*EQUATION
3
4295, 2, 1.0, 1005, 2, -0.5, 1007, 2, -0.5
*EQUATION
3
4295, 3, 1.0, 1005, 3, -0.5, 1007, 3, -0.5
*EQUATION
3
4297, 1, 1.0, 635, 1, -0.5, 1552, 1, -0.5
*EQUATION
3
4297, 2, 1.0, 635, 2, -0.5, 1552, 2, -0.5
*EQUATION
3
4297, 3, 1.0, 635, 3, -0.5, 1552, 3, -0.5
*EQUATION
3
4298, 1, 1.0, 1552, 1, -0.5, 1554, 1, -0.5
*EQUATION
3
4298, 2, 1.0, 1552, 2, -0.5, 1554, 2, -0.5
*EQUATION
3
4298, 3, 1.0, 1552, 3, -0.5, 1554, 3, -0.5
*EQUATION
5
4299, 1, 1.0, 1552, 1, -0.25, 1554, 1, -0.25, 1555, 1, -0.25, 635, 1, -0.25
*EQUATION
5
4299, 2, 1.0, 1552, 2, -0.25, 1554, 2, -0.25, 1555, 2, -0.25, 635, 2, -0.25
*EQUATION
5
4299, 3, 1.0, 1552, 3, -0.25, 1554, 3, -0.25, 1555, 3, -0.25, 635, 3, -0.25
*EQUATION
3
4300, 1, 1.0, 635, 1, -0.5, 1555, 1, -0.5
*EQUATION
3
4300, 2, 1.0, 635, 2, -0.5, 1555, 2, -0.5
*EQUATION
3
4300, 3, 1.0, 635, 3, -0.5, 1555, 3, -0.5
*EQUATION
3
4301, 1, 1.0, 1552, 1, -0.5, 1558, 1, -0.5
*EQUATION
3
4301, 2, 1.0, 1552, 2, -0.5, 1558, 2, -0.5
*EQUATION
3
4301, 3, 1.0, 1552, 3, -0.5, 1558, 3, -0.5
*EQUATION
3
4303, 1, 1.0, 635, 1, -0.5, 1559, 1, -0.5
*EQUATION
3
4303, 2, 1.0, 635, 2, -0.5, 1559, 2, -0.5
*EQUATION
3
4303, 3, 1.0, 635, 3, -0.5, 1559, 3, -0.5
*EQUATION
5
4304, 1, 1.0, 1552, 1, -0.25, 1558, 1, -0.25, 1561, 1, -0.25, 1554, 1, -0.25
*EQUATION
5
4304, 2, 1.0, 1552, 2, -0.25, 1558, 2, -0.25, 1561, 2, -0.25, 1554, 2, -0.25
*EQUATION
5
4304, 3, 1.0, 1552, 3, -0.25, 1558, 3, -0.25, 1561, 3, -0.25, 1554, 3, -0.25
*EQUATION
5
4306, 1, 1.0, 635, 1, -0.25, 1559, 1, -0.25, 1562, 1, -0.25, 1555, 1, -0.25
*EQUATION
5
4306, 2, 1.0, 635, 2, -0.25, 1559, 2, -0.25, 1562, 2, -0.25, 1555, 2, -0.25
*EQUATION
5
4306, 3, 1.0, 635, 3, -0.25, 1559, 3, -0.25, 1562, 3, -0.25, 1555, 3, -0.25
*EQUATION
3
4307, 1, 1.0, 1554, 1, -0.5, 1561, 1, -0.5
*EQUATION
3
4307, 2, 1.0, 1554, 2, -0.5, 1561, 2, -0.5
*EQUATION
3
4307, 3, 1.0, 1554, 3, -0.5, 1561, 3, -0.5
*EQUATION
5
4308, 1, 1.0, 1554, 1, -0.25, 1561, 1, -0.25, 1562, 1, -0.25, 1555, 1, -0.25
*EQUATION
5
4308, 2, 1.0, 1554, 2, -0.25, 1561, 2, -0.25, 1562, 2, -0.25, 1555, 2, -0.25
*EQUATION
5
4308, 3, 1.0, 1554, 3, -0.25, 1561, 3, -0.25, 1562, 3, -0.25, 1555, 3, -0.25
*EQUATION
3
4309, 1, 1.0, 1555, 1, -0.5, 1562, 1, -0.5
*EQUATION
3
4309, 2, 1.0, 1555, 2, -0.5, 1562, 2, -0.5
*EQUATION
3
4309, 3, 1.0, 1555, 3, -0.5, 1562, 3, -0.5
*EQUATION
3
4310, 1, 1.0, 1558, 1, -0.5, 1559, 1, -0.5
*EQUATION
3
4310, 2, 1.0, 1558, 2, -0.5, 1559, 2, -0.5
*EQUATION
3
4310, 3, 1.0, 1558, 3, -0.5, 1559, 3, -0.5
*EQUATION
3
4311, 1, 1.0, 1558, 1, -0.5, 1561, 1, -0.5
*EQUATION
3
4311, 2, 1.0, 1558, 2, -0.5, 1561, 2, -0.5
*EQUATION
3
4311, 3, 1.0, 1558, 3, -0.5, 1561, 3, -0.5
*EQUATION
5
4312, 1, 1.0, 1558, 1, -0.25, 1561, 1, -0.25, 1562, 1, -0.25, 1559, 1, -0.25
*EQUATION
5
4312, 2, 1.0, 1558, 2, -0.25, 1561, 2, -0.25, 1562, 2, -0.25, 1559, 2, -0.25
*EQUATION
5
4312, 3, 1.0, 1558, 3, -0.25, 1561, 3, -0.25, 1562, 3, -0.25, 1559, 3, -0.25
*EQUATION
3
4313, 1, 1.0, 1559, 1, -0.5, 1562, 1, -0.5
*EQUATION
3
4313, 2, 1.0, 1559, 2, -0.5, 1562, 2, -0.5
*EQUATION
3
4313, 3, 1.0, 1559, 3, -0.5, 1562, 3, -0.5
*EQUATION
3
4314, 1, 1.0, 1561, 1, -0.5, 1562, 1, -0.5
*EQUATION
3
4314, 2, 1.0, 1561, 2, -0.5, 1562, 2, -0.5
*EQUATION
3
4314, 3, 1.0, 1561, 3, -0.5, 1562, 3, -0.5
*EQUATION
3
4315, 1, 1.0, 1561, 1, -0.5, 1564, 1, -0.5
*EQUATION
3
4315, 2, 1.0, 1561, 2, -0.5, 1564, 2, -0.5
*EQUATION
3
4315, 3, 1.0, 1561, 3, -0.5, 1564, 3, -0.5
*EQUATION
5
4316, 1, 1.0, 1561, 1, -0.25, 1564, 1, -0.25, 1565, 1, -0.25, 1562, 1, -0.25
*EQUATION
5
4316, 2, 1.0, 1561, 2, -0.25, 1564, 2, -0.25, 1565, 2, -0.25, 1562, 2, -0.25
*EQUATION
5
4316, 3, 1.0, 1561, 3, -0.25, 1564, 3, -0.25, 1565, 3, -0.25, 1562, 3, -0.25
*EQUATION
3
4317, 1, 1.0, 1562, 1, -0.5, 1565, 1, -0.5
*EQUATION
3
4317, 2, 1.0, 1562, 2, -0.5, 1565, 2, -0.5
*EQUATION
3
4317, 3, 1.0, 1562, 3, -0.5, 1565, 3, -0.5
*EQUATION
3
4318, 1, 1.0, 1564, 1, -0.5, 1565, 1, -0.5
*EQUATION
3
4318, 2, 1.0, 1564, 2, -0.5, 1565, 2, -0.5
*EQUATION
3
4318, 3, 1.0, 1564, 3, -0.5, 1565, 3, -0.5
*EQUATION
3
4319, 1, 1.0, 1289, 1, -0.5, 1561, 1, -0.5
*EQUATION
3
4319, 2, 1.0, 1289, 2, -0.5, 1561, 2, -0.5
*EQUATION
3
4319, 3, 1.0, 1289, 3, -0.5, 1561, 3, -0.5
*EQUATION
5
4320, 1, 1.0, 1561, 1, -0.25, 1289, 1, -0.25, 1290, 1, -0.25, 1562, 1, -0.25
*EQUATION
5
4320, 2, 1.0, 1561, 2, -0.25, 1289, 2, -0.25, 1290, 2, -0.25, 1562, 2, -0.25
*EQUATION
5
4320, 3, 1.0, 1561, 3, -0.25, 1289, 3, -0.25, 1290, 3, -0.25, 1562, 3, -0.25
*EQUATION
3
4321, 1, 1.0, 1290, 1, -0.5, 1562, 1, -0.5
*EQUATION
3
4321, 2, 1.0, 1290, 2, -0.5, 1562, 2, -0.5
*EQUATION
3
4321, 3, 1.0, 1290, 3, -0.5, 1562, 3, -0.5
*EQUATION
5
4322, 1, 1.0, 1561, 1, -0.25, 1289, 1, -0.25, 1291, 1, -0.25, 1564, 1, -0.25
*EQUATION
5
4322, 2, 1.0, 1561, 2, -0.25, 1289, 2, -0.25, 1291, 2, -0.25, 1564, 2, -0.25
*EQUATION
5
4322, 3, 1.0, 1561, 3, -0.25, 1289, 3, -0.25, 1291, 3, -0.25, 1564, 3, -0.25
*EQUATION
5
4324, 1, 1.0, 1562, 1, -0.25, 1290, 1, -0.25, 684, 1, -0.25, 1565, 1, -0.25
*EQUATION
5
4324, 2, 1.0, 1562, 2, -0.25, 1290, 2, -0.25, 684, 2, -0.25, 1565, 2, -0.25
*EQUATION
5
4324, 3, 1.0, 1562, 3, -0.25, 1290, 3, -0.25, 684, 3, -0.25, 1565, 3, -0.25
*EQUATION
3
4325, 1, 1.0, 1291, 1, -0.5, 1564, 1, -0.5
*EQUATION
3
4325, 2, 1.0, 1291, 2, -0.5, 1564, 2, -0.5
*EQUATION
3
4325, 3, 1.0, 1291, 3, -0.5, 1564, 3, -0.5
*EQUATION
3
4327, 1, 1.0, 684, 1, -0.5, 1565, 1, -0.5
*EQUATION
3
4327, 2, 1.0, 684, 2, -0.5, 1565, 2, -0.5
*EQUATION
3
4327, 3, 1.0, 684, 3, -0.5, 1565, 3, -0.5
*EQUATION
3
4328, 1, 1.0, 1289, 1, -0.5, 1290, 1, -0.5
*EQUATION
3
4328, 2, 1.0, 1289, 2, -0.5, 1290, 2, -0.5
*EQUATION
3
4328, 3, 1.0, 1289, 3, -0.5, 1290, 3, -0.5
*EQUATION
3
4329, 1, 1.0, 1289, 1, -0.5, 1291, 1, -0.5
*EQUATION
3
4329, 2, 1.0, 1289, 2, -0.5, 1291, 2, -0.5
*EQUATION
3
4329, 3, 1.0, 1289, 3, -0.5, 1291, 3, -0.5
*EQUATION
5
4330, 1, 1.0, 1289, 1, -0.25, 1291, 1, -0.25, 684, 1, -0.25, 1290, 1, -0.25
*EQUATION
5
4330, 2, 1.0, 1289, 2, -0.25, 1291, 2, -0.25, 684, 2, -0.25, 1290, 2, -0.25
*EQUATION
5
4330, 3, 1.0, 1289, 3, -0.25, 1291, 3, -0.25, 684, 3, -0.25, 1290, 3, -0.25
*EQUATION
3
4331, 1, 1.0, 684, 1, -0.5, 1290, 1, -0.5
*EQUATION
3
4331, 2, 1.0, 684, 2, -0.5, 1290, 2, -0.5
*EQUATION
3
4331, 3, 1.0, 684, 3, -0.5, 1290, 3, -0.5
*EQUATION
3
4332, 1, 1.0, 684, 1, -0.5, 1291, 1, -0.5
*EQUATION
3
4332, 2, 1.0, 684, 2, -0.5, 1291, 2, -0.5
*EQUATION
3
4332, 3, 1.0, 684, 3, -0.5, 1291, 3, -0.5
*EQUATION
3
4333, 1, 1.0, 626, 1, -0.5, 990, 1, -0.5
*EQUATION
3
4333, 2, 1.0, 626, 2, -0.5, 990, 2, -0.5
*EQUATION
3
4333, 3, 1.0, 626, 3, -0.5, 990, 3, -0.5
*EQUATION
5
4334, 1, 1.0, 626, 1, -0.25, 990, 1, -0.25, 991, 1, -0.25, 983, 1, -0.25
*EQUATION
5
4334, 2, 1.0, 626, 2, -0.25, 990, 2, -0.25, 991, 2, -0.25, 983, 2, -0.25
*EQUATION
5
4334, 3, 1.0, 626, 3, -0.25, 990, 3, -0.25, 991, 3, -0.25, 983, 3, -0.25
*EQUATION
3
4335, 1, 1.0, 983, 1, -0.5, 991, 1, -0.5
*EQUATION
3
4335, 2, 1.0, 983, 2, -0.5, 991, 2, -0.5
*EQUATION
3
4335, 3, 1.0, 983, 3, -0.5, 991, 3, -0.5
*EQUATION
3
4336, 1, 1.0, 990, 1, -0.5, 991, 1, -0.5
*EQUATION
3
4336, 2, 1.0, 990, 2, -0.5, 991, 2, -0.5
*EQUATION
3
4336, 3, 1.0, 990, 3, -0.5, 991, 3, -0.5
*EQUATION
5
4339, 1, 1.0, 983, 1, -0.25, 1001, 1, -0.25, 1009, 1, -0.25, 991, 1, -0.25
*EQUATION
5
4339, 2, 1.0, 983, 2, -0.25, 1001, 2, -0.25, 1009, 2, -0.25, 991, 2, -0.25
*EQUATION
5
4339, 3, 1.0, 983, 3, -0.25, 1001, 3, -0.25, 1009, 3, -0.25, 991, 3, -0.25
*EQUATION
3
4342, 1, 1.0, 991, 1, -0.5, 1009, 1, -0.5
*EQUATION
3
4342, 2, 1.0, 991, 2, -0.5, 1009, 2, -0.5
*EQUATION
3
4342, 3, 1.0, 991, 3, -0.5, 1009, 3, -0.5
*EQUATION
3
4345, 1, 1.0, 1001, 1, -0.5, 1009, 1, -0.5
*EQUATION
3
4345, 2, 1.0, 1001, 2, -0.5, 1009, 2, -0.5
*EQUATION
3
4345, 3, 1.0, 1001, 3, -0.5, 1009, 3, -0.5
*EQUATION
3
4347, 1, 1.0, 637, 1, -0.5, 990, 1, -0.5
*EQUATION
3
4347, 2, 1.0, 637, 2, -0.5, 990, 2, -0.5
*EQUATION
3
4347, 3, 1.0, 637, 3, -0.5, 990, 3, -0.5
*EQUATION
5
4348, 1, 1.0, 990, 1, -0.25, 637, 1, -0.25, 993, 1, -0.25, 991, 1, -0.25
*EQUATION
5
4348, 2, 1.0, 990, 2, -0.25, 637, 2, -0.25, 993, 2, -0.25, 991, 2, -0.25
*EQUATION
5
4348, 3, 1.0, 990, 3, -0.25, 637, 3, -0.25, 993, 3, -0.25, 991, 3, -0.25
*EQUATION
3
4349, 1, 1.0, 991, 1, -0.5, 993, 1, -0.5
*EQUATION
3
4349, 2, 1.0, 991, 2, -0.5, 993, 2, -0.5
*EQUATION
3
4349, 3, 1.0, 991, 3, -0.5, 993, 3, -0.5
*EQUATION
3
4350, 1, 1.0, 637, 1, -0.5, 993, 1, -0.5
*EQUATION
3
4350, 2, 1.0, 637, 2, -0.5, 993, 2, -0.5
*EQUATION
3
4350, 3, 1.0, 637, 3, -0.5, 993, 3, -0.5
*EQUATION
5
4353, 1, 1.0, 991, 1, -0.25, 1009, 1, -0.25, 1012, 1, -0.25, 993, 1, -0.25
*EQUATION
5
4353, 2, 1.0, 991, 2, -0.25, 1009, 2, -0.25, 1012, 2, -0.25, 993, 2, -0.25
*EQUATION
5
4353, 3, 1.0, 991, 3, -0.25, 1009, 3, -0.25, 1012, 3, -0.25, 993, 3, -0.25
*EQUATION
3
4356, 1, 1.0, 993, 1, -0.5, 1012, 1, -0.5
*EQUATION
3
4356, 2, 1.0, 993, 2, -0.5, 1012, 2, -0.5
*EQUATION
3
4356, 3, 1.0, 993, 3, -0.5, 1012, 3, -0.5
*EQUATION
3
4359, 1, 1.0, 1009, 1, -0.5, 1012, 1, -0.5
*EQUATION
3
4359, 2, 1.0, 1009, 2, -0.5, 1012, 2, -0.5
*EQUATION
3
4359, 3, 1.0, 1009, 3, -0.5, 1012, 3, -0.5
*EQUATION
5
4363, 1, 1.0, 1001, 1, -0.25, 1007, 1, -0.25, 1015, 1, -0.25, 1009, 1, -0.25
*EQUATION
5
4363, 2, 1.0, 1001, 2, -0.25, 1007, 2, -0.25, 1015, 2, -0.25, 1009, 2, -0.25
*EQUATION
5
4363, 3, 1.0, 1001, 3, -0.25, 1007, 3, -0.25, 1015, 3, -0.25, 1009, 3, -0.25
*EQUATION
3
4366, 1, 1.0, 1009, 1, -0.5, 1015, 1, -0.5
*EQUATION
3
4366, 2, 1.0, 1009, 2, -0.5, 1015, 2, -0.5
*EQUATION
3
4366, 3, 1.0, 1009, 3, -0.5, 1015, 3, -0.5
*EQUATION
3
4369, 1, 1.0, 1007, 1, -0.5, 1015, 1, -0.5
*EQUATION
3
4369, 2, 1.0, 1007, 2, -0.5, 1015, 2, -0.5
*EQUATION
3
4369, 3, 1.0, 1007, 3, -0.5, 1015, 3, -0.5
*EQUATION
5
4373, 1, 1.0, 1009, 1, -0.25, 1015, 1, -0.25, 1017, 1, -0.25, 1012, 1, -0.25
*EQUATION
5
4373, 2, 1.0, 1009, 2, -0.25, 1015, 2, -0.25, 1017, 2, -0.25, 1012, 2, -0.25
*EQUATION
5
4373, 3, 1.0, 1009, 3, -0.25, 1015, 3, -0.25, 1017, 3, -0.25, 1012, 3, -0.25
*EQUATION
3
4376, 1, 1.0, 1012, 1, -0.5, 1017, 1, -0.5
*EQUATION
3
4376, 2, 1.0, 1012, 2, -0.5, 1017, 2, -0.5
*EQUATION
3
4376, 3, 1.0, 1012, 3, -0.5, 1017, 3, -0.5
*EQUATION
3
4379, 1, 1.0, 1015, 1, -0.5, 1017, 1, -0.5
*EQUATION
3
4379, 2, 1.0, 1015, 2, -0.5, 1017, 2, -0.5
*EQUATION
3
4379, 3, 1.0, 1015, 3, -0.5, 1017, 3, -0.5
*EQUATION
3
4381, 1, 1.0, 1574, 1, -0.5, 1576, 1, -0.5
*EQUATION
3
4381, 2, 1.0, 1574, 2, -0.5, 1576, 2, -0.5
*EQUATION
3
4381, 3, 1.0, 1574, 3, -0.5, 1576, 3, -0.5
*EQUATION
5
4382, 1, 1.0, 1574, 1, -0.25, 1576, 1, -0.25, 642, 1, -0.25, 1575, 1, -0.25
*EQUATION
5
4382, 2, 1.0, 1574, 2, -0.25, 1576, 2, -0.25, 642, 2, -0.25, 1575, 2, -0.25
*EQUATION
5
4382, 3, 1.0, 1574, 3, -0.25, 1576, 3, -0.25, 642, 3, -0.25, 1575, 3, -0.25
*EQUATION
3
4383, 1, 1.0, 642, 1, -0.5, 1575, 1, -0.5
*EQUATION
3
4383, 2, 1.0, 642, 2, -0.5, 1575, 2, -0.5
*EQUATION
3
4383, 3, 1.0, 642, 3, -0.5, 1575, 3, -0.5
*EQUATION
3
4384, 1, 1.0, 642, 1, -0.5, 1576, 1, -0.5
*EQUATION
3
4384, 2, 1.0, 642, 2, -0.5, 1576, 2, -0.5
*EQUATION
3
4384, 3, 1.0, 642, 3, -0.5, 1576, 3, -0.5
*EQUATION
3
4385, 1, 1.0, 1574, 1, -0.5, 1578, 1, -0.5
*EQUATION
3
4385, 2, 1.0, 1574, 2, -0.5, 1578, 2, -0.5
*EQUATION
3
4385, 3, 1.0, 1574, 3, -0.5, 1578, 3, -0.5
*EQUATION
5
4386, 1, 1.0, 1574, 1, -0.25, 1578, 1, -0.25, 1579, 1, -0.25, 1575, 1, -0.25
*EQUATION
5
4386, 2, 1.0, 1574, 2, -0.25, 1578, 2, -0.25, 1579, 2, -0.25, 1575, 2, -0.25
*EQUATION
5
4386, 3, 1.0, 1574, 3, -0.25, 1578, 3, -0.25, 1579, 3, -0.25, 1575, 3, -0.25
*EQUATION
3
4387, 1, 1.0, 1575, 1, -0.5, 1579, 1, -0.5
*EQUATION
3
4387, 2, 1.0, 1575, 2, -0.5, 1579, 2, -0.5
*EQUATION
3
4387, 3, 1.0, 1575, 3, -0.5, 1579, 3, -0.5
*EQUATION
5
4388, 1, 1.0, 1574, 1, -0.25, 1578, 1, -0.25, 1581, 1, -0.25, 1576, 1, -0.25
*EQUATION
5
4388, 2, 1.0, 1574, 2, -0.25, 1578, 2, -0.25, 1581, 2, -0.25, 1576, 2, -0.25
*EQUATION
5
4388, 3, 1.0, 1574, 3, -0.25, 1578, 3, -0.25, 1581, 3, -0.25, 1576, 3, -0.25
*EQUATION
5
4390, 1, 1.0, 1575, 1, -0.25, 1579, 1, -0.25, 1582, 1, -0.25, 642, 1, -0.25
*EQUATION
5
4390, 2, 1.0, 1575, 2, -0.25, 1579, 2, -0.25, 1582, 2, -0.25, 642, 2, -0.25
*EQUATION
5
4390, 3, 1.0, 1575, 3, -0.25, 1579, 3, -0.25, 1582, 3, -0.25, 642, 3, -0.25
*EQUATION
3
4391, 1, 1.0, 1576, 1, -0.5, 1581, 1, -0.5
*EQUATION
3
4391, 2, 1.0, 1576, 2, -0.5, 1581, 2, -0.5
*EQUATION
3
4391, 3, 1.0, 1576, 3, -0.5, 1581, 3, -0.5
*EQUATION
3
4393, 1, 1.0, 642, 1, -0.5, 1582, 1, -0.5
*EQUATION
3
4393, 2, 1.0, 642, 2, -0.5, 1582, 2, -0.5
*EQUATION
3
4393, 3, 1.0, 642, 3, -0.5, 1582, 3, -0.5
*EQUATION
3
4394, 1, 1.0, 1578, 1, -0.5, 1579, 1, -0.5
*EQUATION
3
4394, 2, 1.0, 1578, 2, -0.5, 1579, 2, -0.5
*EQUATION
3
4394, 3, 1.0, 1578, 3, -0.5, 1579, 3, -0.5
*EQUATION
3
4395, 1, 1.0, 1578, 1, -0.5, 1581, 1, -0.5
*EQUATION
3
4395, 2, 1.0, 1578, 2, -0.5, 1581, 2, -0.5
*EQUATION
3
4395, 3, 1.0, 1578, 3, -0.5, 1581, 3, -0.5
*EQUATION
5
4396, 1, 1.0, 1578, 1, -0.25, 1581, 1, -0.25, 1582, 1, -0.25, 1579, 1, -0.25
*EQUATION
5
4396, 2, 1.0, 1578, 2, -0.25, 1581, 2, -0.25, 1582, 2, -0.25, 1579, 2, -0.25
*EQUATION
5
4396, 3, 1.0, 1578, 3, -0.25, 1581, 3, -0.25, 1582, 3, -0.25, 1579, 3, -0.25
*EQUATION
3
4397, 1, 1.0, 1579, 1, -0.5, 1582, 1, -0.5
*EQUATION
3
4397, 2, 1.0, 1579, 2, -0.5, 1582, 2, -0.5
*EQUATION
3
4397, 3, 1.0, 1579, 3, -0.5, 1582, 3, -0.5
*EQUATION
3
4398, 1, 1.0, 1581, 1, -0.5, 1582, 1, -0.5
*EQUATION
3
4398, 2, 1.0, 1581, 2, -0.5, 1582, 2, -0.5
*EQUATION
3
4398, 3, 1.0, 1581, 3, -0.5, 1582, 3, -0.5
*EQUATION
3
4399, 1, 1.0, 1564, 1, -0.5, 1578, 1, -0.5
*EQUATION
3
4399, 2, 1.0, 1564, 2, -0.5, 1578, 2, -0.5
*EQUATION
3
4399, 3, 1.0, 1564, 3, -0.5, 1578, 3, -0.5
*EQUATION
5
4400, 1, 1.0, 1564, 1, -0.25, 1578, 1, -0.25, 1579, 1, -0.25, 1565, 1, -0.25
*EQUATION
5
4400, 2, 1.0, 1564, 2, -0.25, 1578, 2, -0.25, 1579, 2, -0.25, 1565, 2, -0.25
*EQUATION
5
4400, 3, 1.0, 1564, 3, -0.25, 1578, 3, -0.25, 1579, 3, -0.25, 1565, 3, -0.25
*EQUATION
3
4401, 1, 1.0, 1565, 1, -0.5, 1579, 1, -0.5
*EQUATION
3
4401, 2, 1.0, 1565, 2, -0.5, 1579, 2, -0.5
*EQUATION
3
4401, 3, 1.0, 1565, 3, -0.5, 1579, 3, -0.5
*EQUATION
5
4402, 1, 1.0, 1564, 1, -0.25, 1291, 1, -0.25, 1314, 1, -0.25, 1578, 1, -0.25
*EQUATION
5
4402, 2, 1.0, 1564, 2, -0.25, 1291, 2, -0.25, 1314, 2, -0.25, 1578, 2, -0.25
*EQUATION
5
4402, 3, 1.0, 1564, 3, -0.25, 1291, 3, -0.25, 1314, 3, -0.25, 1578, 3, -0.25
*EQUATION
5
4404, 1, 1.0, 1565, 1, -0.25, 684, 1, -0.25, 1315, 1, -0.25, 1579, 1, -0.25
*EQUATION
5
4404, 2, 1.0, 1565, 2, -0.25, 684, 2, -0.25, 1315, 2, -0.25, 1579, 2, -0.25
*EQUATION
5
4404, 3, 1.0, 1565, 3, -0.25, 684, 3, -0.25, 1315, 3, -0.25, 1579, 3, -0.25
*EQUATION
3
4405, 1, 1.0, 1314, 1, -0.5, 1578, 1, -0.5
*EQUATION
3
4405, 2, 1.0, 1314, 2, -0.5, 1578, 2, -0.5
*EQUATION
3
4405, 3, 1.0, 1314, 3, -0.5, 1578, 3, -0.5
*EQUATION
5
4406, 1, 1.0, 1578, 1, -0.25, 1314, 1, -0.25, 1315, 1, -0.25, 1579, 1, -0.25
*EQUATION
5
4406, 2, 1.0, 1578, 2, -0.25, 1314, 2, -0.25, 1315, 2, -0.25, 1579, 2, -0.25
*EQUATION
5
4406, 3, 1.0, 1578, 3, -0.25, 1314, 3, -0.25, 1315, 3, -0.25, 1579, 3, -0.25
*EQUATION
3
4407, 1, 1.0, 1315, 1, -0.5, 1579, 1, -0.5
*EQUATION
3
4407, 2, 1.0, 1315, 2, -0.5, 1579, 2, -0.5
*EQUATION
3
4407, 3, 1.0, 1315, 3, -0.5, 1579, 3, -0.5
*EQUATION
3
4408, 1, 1.0, 1291, 1, -0.5, 1314, 1, -0.5
*EQUATION
3
4408, 2, 1.0, 1291, 2, -0.5, 1314, 2, -0.5
*EQUATION
3
4408, 3, 1.0, 1291, 3, -0.5, 1314, 3, -0.5
*EQUATION
5
4409, 1, 1.0, 1291, 1, -0.25, 1314, 1, -0.25, 1315, 1, -0.25, 684, 1, -0.25
*EQUATION
5
4409, 2, 1.0, 1291, 2, -0.25, 1314, 2, -0.25, 1315, 2, -0.25, 684, 2, -0.25
*EQUATION
5
4409, 3, 1.0, 1291, 3, -0.25, 1314, 3, -0.25, 1315, 3, -0.25, 684, 3, -0.25
*EQUATION
3
4410, 1, 1.0, 684, 1, -0.5, 1315, 1, -0.5
*EQUATION
3
4410, 2, 1.0, 684, 2, -0.5, 1315, 2, -0.5
*EQUATION
3
4410, 3, 1.0, 684, 3, -0.5, 1315, 3, -0.5
*EQUATION
3
4411, 1, 1.0, 1314, 1, -0.5, 1315, 1, -0.5
*EQUATION
3
4411, 2, 1.0, 1314, 2, -0.5, 1315, 2, -0.5
*EQUATION
3
4411, 3, 1.0, 1314, 3, -0.5, 1315, 3, -0.5
*EQUATION
3
4414, 1, 1.0, 1003, 1, -0.5, 1019, 1, -0.5
*EQUATION
3
4414, 2, 1.0, 1003, 2, -0.5, 1019, 2, -0.5
*EQUATION
3
4414, 3, 1.0, 1003, 3, -0.5, 1019, 3, -0.5
*EQUATION
5
4417, 1, 1.0, 1003, 1, -0.25, 1019, 1, -0.25, 1022, 1, -0.25, 1005, 1, -0.25
*EQUATION
5
4417, 2, 1.0, 1003, 2, -0.25, 1019, 2, -0.25, 1022, 2, -0.25, 1005, 2, -0.25
*EQUATION
5
4417, 3, 1.0, 1003, 3, -0.25, 1019, 3, -0.25, 1022, 3, -0.25, 1005, 3, -0.25
*EQUATION
3
4420, 1, 1.0, 1005, 1, -0.5, 1022, 1, -0.5
*EQUATION
3
4420, 2, 1.0, 1005, 2, -0.5, 1022, 2, -0.5
*EQUATION
3
4420, 3, 1.0, 1005, 3, -0.5, 1022, 3, -0.5
*EQUATION
3
4424, 1, 1.0, 1019, 1, -0.5, 1022, 1, -0.5
*EQUATION
3
4424, 2, 1.0, 1019, 2, -0.5, 1022, 2, -0.5
*EQUATION
3
4424, 3, 1.0, 1019, 3, -0.5, 1022, 3, -0.5
*EQUATION
5
4428, 1, 1.0, 1005, 1, -0.25, 1022, 1, -0.25, 1025, 1, -0.25, 1007, 1, -0.25
*EQUATION
5
4428, 2, 1.0, 1005, 2, -0.25, 1022, 2, -0.25, 1025, 2, -0.25, 1007, 2, -0.25
*EQUATION
5
4428, 3, 1.0, 1005, 3, -0.25, 1022, 3, -0.25, 1025, 3, -0.25, 1007, 3, -0.25
*EQUATION
3
4431, 1, 1.0, 1007, 1, -0.5, 1025, 1, -0.5
*EQUATION
3
4431, 2, 1.0, 1007, 2, -0.5, 1025, 2, -0.5
*EQUATION
3
4431, 3, 1.0, 1007, 3, -0.5, 1025, 3, -0.5
*EQUATION
3
4434, 1, 1.0, 1022, 1, -0.5, 1025, 1, -0.5
*EQUATION
3
4434, 2, 1.0, 1022, 2, -0.5, 1025, 2, -0.5
*EQUATION
3
4434, 3, 1.0, 1022, 3, -0.5, 1025, 3, -0.5
*EQUATION
3
4438, 1, 1.0, 1019, 1, -0.5, 1027, 1, -0.5
*EQUATION
3
4438, 2, 1.0, 1019, 2, -0.5, 1027, 2, -0.5
*EQUATION
3
4438, 3, 1.0, 1019, 3, -0.5, 1027, 3, -0.5
*EQUATION
5
4441, 1, 1.0, 1019, 1, -0.25, 1027, 1, -0.25, 1029, 1, -0.25, 1022, 1, -0.25
*EQUATION
5
4441, 2, 1.0, 1019, 2, -0.25, 1027, 2, -0.25, 1029, 2, -0.25, 1022, 2, -0.25
*EQUATION
5
4441, 3, 1.0, 1019, 3, -0.25, 1027, 3, -0.25, 1029, 3, -0.25, 1022, 3, -0.25
*EQUATION
3
4444, 1, 1.0, 1022, 1, -0.5, 1029, 1, -0.5
*EQUATION
3
4444, 2, 1.0, 1022, 2, -0.5, 1029, 2, -0.5
*EQUATION
3
4444, 3, 1.0, 1022, 3, -0.5, 1029, 3, -0.5
*EQUATION
3
4448, 1, 1.0, 1027, 1, -0.5, 1029, 1, -0.5
*EQUATION
3
4448, 2, 1.0, 1027, 2, -0.5, 1029, 2, -0.5
*EQUATION
3
4448, 3, 1.0, 1027, 3, -0.5, 1029, 3, -0.5
*EQUATION
5
4452, 1, 1.0, 1022, 1, -0.25, 1029, 1, -0.25, 1031, 1, -0.25, 1025, 1, -0.25
*EQUATION
5
4452, 2, 1.0, 1022, 2, -0.25, 1029, 2, -0.25, 1031, 2, -0.25, 1025, 2, -0.25
*EQUATION
5
4452, 3, 1.0, 1022, 3, -0.25, 1029, 3, -0.25, 1031, 3, -0.25, 1025, 3, -0.25
*EQUATION
3
4455, 1, 1.0, 1025, 1, -0.5, 1031, 1, -0.5
*EQUATION
3
4455, 2, 1.0, 1025, 2, -0.5, 1031, 2, -0.5
*EQUATION
3
4455, 3, 1.0, 1025, 3, -0.5, 1031, 3, -0.5
*EQUATION
3
4458, 1, 1.0, 1029, 1, -0.5, 1031, 1, -0.5
*EQUATION
3
4458, 2, 1.0, 1029, 2, -0.5, 1031, 2, -0.5
*EQUATION
3
4458, 3, 1.0, 1029, 3, -0.5, 1031, 3, -0.5
*EQUATION
3
4460, 1, 1.0, 683, 1, -0.5, 1287, 1, -0.5
*EQUATION
3
4460, 2, 1.0, 683, 2, -0.5, 1287, 2, -0.5
*EQUATION
3
4460, 3, 1.0, 683, 3, -0.5, 1287, 3, -0.5
*EQUATION
3
4461, 1, 1.0, 1287, 1, -0.5, 1289, 1, -0.5
*EQUATION
3
4461, 2, 1.0, 1287, 2, -0.5, 1289, 2, -0.5
*EQUATION
3
4461, 3, 1.0, 1287, 3, -0.5, 1289, 3, -0.5
*EQUATION
5
4462, 1, 1.0, 1287, 1, -0.25, 1289, 1, -0.25, 1290, 1, -0.25, 683, 1, -0.25
*EQUATION
5
4462, 2, 1.0, 1287, 2, -0.25, 1289, 2, -0.25, 1290, 2, -0.25, 683, 2, -0.25
*EQUATION
5
4462, 3, 1.0, 1287, 3, -0.25, 1289, 3, -0.25, 1290, 3, -0.25, 683, 3, -0.25
*EQUATION
3
4463, 1, 1.0, 683, 1, -0.5, 1290, 1, -0.5
*EQUATION
3
4463, 2, 1.0, 683, 2, -0.5, 1290, 2, -0.5
*EQUATION
3
4463, 3, 1.0, 683, 3, -0.5, 1290, 3, -0.5
*EQUATION
3
4464, 1, 1.0, 1287, 1, -0.5, 1293, 1, -0.5
*EQUATION
3
4464, 2, 1.0, 1287, 2, -0.5, 1293, 2, -0.5
*EQUATION
3
4464, 3, 1.0, 1287, 3, -0.5, 1293, 3, -0.5
*EQUATION
3
4466, 1, 1.0, 683, 1, -0.5, 1294, 1, -0.5
*EQUATION
3
4466, 2, 1.0, 683, 2, -0.5, 1294, 2, -0.5
*EQUATION
3
4466, 3, 1.0, 683, 3, -0.5, 1294, 3, -0.5
*EQUATION
5
4467, 1, 1.0, 1287, 1, -0.25, 1293, 1, -0.25, 1296, 1, -0.25, 1289, 1, -0.25
*EQUATION
5
4467, 2, 1.0, 1287, 2, -0.25, 1293, 2, -0.25, 1296, 2, -0.25, 1289, 2, -0.25
*EQUATION
5
4467, 3, 1.0, 1287, 3, -0.25, 1293, 3, -0.25, 1296, 3, -0.25, 1289, 3, -0.25
*EQUATION
5
4469, 1, 1.0, 683, 1, -0.25, 1294, 1, -0.25, 1297, 1, -0.25, 1290, 1, -0.25
*EQUATION
5
4469, 2, 1.0, 683, 2, -0.25, 1294, 2, -0.25, 1297, 2, -0.25, 1290, 2, -0.25
*EQUATION
5
4469, 3, 1.0, 683, 3, -0.25, 1294, 3, -0.25, 1297, 3, -0.25, 1290, 3, -0.25
*EQUATION
3
4470, 1, 1.0, 1289, 1, -0.5, 1296, 1, -0.5
*EQUATION
3
4470, 2, 1.0, 1289, 2, -0.5, 1296, 2, -0.5
*EQUATION
3
4470, 3, 1.0, 1289, 3, -0.5, 1296, 3, -0.5
*EQUATION
5
4471, 1, 1.0, 1289, 1, -0.25, 1296, 1, -0.25, 1297, 1, -0.25, 1290, 1, -0.25
*EQUATION
5
4471, 2, 1.0, 1289, 2, -0.25, 1296, 2, -0.25, 1297, 2, -0.25, 1290, 2, -0.25
*EQUATION
5
4471, 3, 1.0, 1289, 3, -0.25, 1296, 3, -0.25, 1297, 3, -0.25, 1290, 3, -0.25
*EQUATION
3
4472, 1, 1.0, 1290, 1, -0.5, 1297, 1, -0.5
*EQUATION
3
4472, 2, 1.0, 1290, 2, -0.5, 1297, 2, -0.5
*EQUATION
3
4472, 3, 1.0, 1290, 3, -0.5, 1297, 3, -0.5
*EQUATION
3
4473, 1, 1.0, 1293, 1, -0.5, 1294, 1, -0.5
*EQUATION
3
4473, 2, 1.0, 1293, 2, -0.5, 1294, 2, -0.5
*EQUATION
3
4473, 3, 1.0, 1293, 3, -0.5, 1294, 3, -0.5
*EQUATION
3
4474, 1, 1.0, 1293, 1, -0.5, 1296, 1, -0.5
*EQUATION
3
4474, 2, 1.0, 1293, 2, -0.5, 1296, 2, -0.5
*EQUATION
3
4474, 3, 1.0, 1293, 3, -0.5, 1296, 3, -0.5
*EQUATION
5
4475, 1, 1.0, 1293, 1, -0.25, 1296, 1, -0.25, 1297, 1, -0.25, 1294, 1, -0.25
*EQUATION
5
4475, 2, 1.0, 1293, 2, -0.25, 1296, 2, -0.25, 1297, 2, -0.25, 1294, 2, -0.25
*EQUATION
5
4475, 3, 1.0, 1293, 3, -0.25, 1296, 3, -0.25, 1297, 3, -0.25, 1294, 3, -0.25
*EQUATION
3
4476, 1, 1.0, 1294, 1, -0.5, 1297, 1, -0.5
*EQUATION
3
4476, 2, 1.0, 1294, 2, -0.5, 1297, 2, -0.5
*EQUATION
3
4476, 3, 1.0, 1294, 3, -0.5, 1297, 3, -0.5
*EQUATION
3
4477, 1, 1.0, 1296, 1, -0.5, 1297, 1, -0.5
*EQUATION
3
4477, 2, 1.0, 1296, 2, -0.5, 1297, 2, -0.5
*EQUATION
3
4477, 3, 1.0, 1296, 3, -0.5, 1297, 3, -0.5
*EQUATION
5
4480, 1, 1.0, 1007, 1, -0.25, 1025, 1, -0.25, 1033, 1, -0.25, 1015, 1, -0.25
*EQUATION
5
4480, 2, 1.0, 1007, 2, -0.25, 1025, 2, -0.25, 1033, 2, -0.25, 1015, 2, -0.25
*EQUATION
5
4480, 3, 1.0, 1007, 3, -0.25, 1025, 3, -0.25, 1033, 3, -0.25, 1015, 3, -0.25
*EQUATION
3
4483, 1, 1.0, 1015, 1, -0.5, 1033, 1, -0.5
*EQUATION
3
4483, 2, 1.0, 1015, 2, -0.5, 1033, 2, -0.5
*EQUATION
3
4483, 3, 1.0, 1015, 3, -0.5, 1033, 3, -0.5
*EQUATION
3
4486, 1, 1.0, 1025, 1, -0.5, 1033, 1, -0.5
*EQUATION
3
4486, 2, 1.0, 1025, 2, -0.5, 1033, 2, -0.5
*EQUATION
3
4486, 3, 1.0, 1025, 3, -0.5, 1033, 3, -0.5
*EQUATION
5
4490, 1, 1.0, 1015, 1, -0.25, 1033, 1, -0.25, 1036, 1, -0.25, 1017, 1, -0.25
*EQUATION
5
4490, 2, 1.0, 1015, 2, -0.25, 1033, 2, -0.25, 1036, 2, -0.25, 1017, 2, -0.25
*EQUATION
5
4490, 3, 1.0, 1015, 3, -0.25, 1033, 3, -0.25, 1036, 3, -0.25, 1017, 3, -0.25
*EQUATION
3
4493, 1, 1.0, 1017, 1, -0.5, 1036, 1, -0.5
*EQUATION
3
4493, 2, 1.0, 1017, 2, -0.5, 1036, 2, -0.5
*EQUATION
3
4493, 3, 1.0, 1017, 3, -0.5, 1036, 3, -0.5
*EQUATION
3
4496, 1, 1.0, 1033, 1, -0.5, 1036, 1, -0.5
*EQUATION
3
4496, 2, 1.0, 1033, 2, -0.5, 1036, 2, -0.5
*EQUATION
3
4496, 3, 1.0, 1033, 3, -0.5, 1036, 3, -0.5
*EQUATION
5
4500, 1, 1.0, 1025, 1, -0.25, 1031, 1, -0.25, 1039, 1, -0.25, 1033, 1, -0.25
*EQUATION
5
4500, 2, 1.0, 1025, 2, -0.25, 1031, 2, -0.25, 1039, 2, -0.25, 1033, 2, -0.25
*EQUATION
5
4500, 3, 1.0, 1025, 3, -0.25, 1031, 3, -0.25, 1039, 3, -0.25, 1033, 3, -0.25
*EQUATION
3
4503, 1, 1.0, 1033, 1, -0.5, 1039, 1, -0.5
*EQUATION
3
4503, 2, 1.0, 1033, 2, -0.5, 1039, 2, -0.5
*EQUATION
3
4503, 3, 1.0, 1033, 3, -0.5, 1039, 3, -0.5
*EQUATION
3
4506, 1, 1.0, 1031, 1, -0.5, 1039, 1, -0.5
*EQUATION
3
4506, 2, 1.0, 1031, 2, -0.5, 1039, 2, -0.5
*EQUATION
3
4506, 3, 1.0, 1031, 3, -0.5, 1039, 3, -0.5
*EQUATION
5
4509, 1, 1.0, 1033, 1, -0.25, 1039, 1, -0.25, 1041, 1, -0.25, 1036, 1, -0.25
*EQUATION
5
4509, 2, 1.0, 1033, 2, -0.25, 1039, 2, -0.25, 1041, 2, -0.25, 1036, 2, -0.25
*EQUATION
5
4509, 3, 1.0, 1033, 3, -0.25, 1039, 3, -0.25, 1041, 3, -0.25, 1036, 3, -0.25
*EQUATION
3
4512, 1, 1.0, 1036, 1, -0.5, 1041, 1, -0.5
*EQUATION
3
4512, 2, 1.0, 1036, 2, -0.5, 1041, 2, -0.5
*EQUATION
3
4512, 3, 1.0, 1036, 3, -0.5, 1041, 3, -0.5
*EQUATION
3
4513, 1, 1.0, 1314, 1, -0.5, 1316, 1, -0.5
*EQUATION
3
4513, 2, 1.0, 1314, 2, -0.5, 1316, 2, -0.5
*EQUATION
3
4513, 3, 1.0, 1314, 3, -0.5, 1316, 3, -0.5
*EQUATION
5
4514, 1, 1.0, 1314, 1, -0.25, 1316, 1, -0.25, 690, 1, -0.25, 1315, 1, -0.25
*EQUATION
5
4514, 2, 1.0, 1314, 2, -0.25, 1316, 2, -0.25, 690, 2, -0.25, 1315, 2, -0.25
*EQUATION
5
4514, 3, 1.0, 1314, 3, -0.25, 1316, 3, -0.25, 690, 3, -0.25, 1315, 3, -0.25
*EQUATION
3
4515, 1, 1.0, 690, 1, -0.5, 1315, 1, -0.5
*EQUATION
3
4515, 2, 1.0, 690, 2, -0.5, 1315, 2, -0.5
*EQUATION
3
4515, 3, 1.0, 690, 3, -0.5, 1315, 3, -0.5
*EQUATION
3
4516, 1, 1.0, 690, 1, -0.5, 1316, 1, -0.5
*EQUATION
3
4516, 2, 1.0, 690, 2, -0.5, 1316, 2, -0.5
*EQUATION
3
4516, 3, 1.0, 690, 3, -0.5, 1316, 3, -0.5
*EQUATION
3
4517, 1, 1.0, 1314, 1, -0.5, 1318, 1, -0.5
*EQUATION
3
4517, 2, 1.0, 1314, 2, -0.5, 1318, 2, -0.5
*EQUATION
3
4517, 3, 1.0, 1314, 3, -0.5, 1318, 3, -0.5
*EQUATION
5
4518, 1, 1.0, 1314, 1, -0.25, 1318, 1, -0.25, 1319, 1, -0.25, 1315, 1, -0.25
*EQUATION
5
4518, 2, 1.0, 1314, 2, -0.25, 1318, 2, -0.25, 1319, 2, -0.25, 1315, 2, -0.25
*EQUATION
5
4518, 3, 1.0, 1314, 3, -0.25, 1318, 3, -0.25, 1319, 3, -0.25, 1315, 3, -0.25
*EQUATION
3
4519, 1, 1.0, 1315, 1, -0.5, 1319, 1, -0.5
*EQUATION
3
4519, 2, 1.0, 1315, 2, -0.5, 1319, 2, -0.5
*EQUATION
3
4519, 3, 1.0, 1315, 3, -0.5, 1319, 3, -0.5
*EQUATION
5
4520, 1, 1.0, 1314, 1, -0.25, 1318, 1, -0.25, 1321, 1, -0.25, 1316, 1, -0.25
*EQUATION
5
4520, 2, 1.0, 1314, 2, -0.25, 1318, 2, -0.25, 1321, 2, -0.25, 1316, 2, -0.25
*EQUATION
5
4520, 3, 1.0, 1314, 3, -0.25, 1318, 3, -0.25, 1321, 3, -0.25, 1316, 3, -0.25
*EQUATION
5
4522, 1, 1.0, 1315, 1, -0.25, 1319, 1, -0.25, 1322, 1, -0.25, 690, 1, -0.25
*EQUATION
5
4522, 2, 1.0, 1315, 2, -0.25, 1319, 2, -0.25, 1322, 2, -0.25, 690, 2, -0.25
*EQUATION
5
4522, 3, 1.0, 1315, 3, -0.25, 1319, 3, -0.25, 1322, 3, -0.25, 690, 3, -0.25
*EQUATION
3
4523, 1, 1.0, 1316, 1, -0.5, 1321, 1, -0.5
*EQUATION
3
4523, 2, 1.0, 1316, 2, -0.5, 1321, 2, -0.5
*EQUATION
3
4523, 3, 1.0, 1316, 3, -0.5, 1321, 3, -0.5
*EQUATION
3
4525, 1, 1.0, 690, 1, -0.5, 1322, 1, -0.5
*EQUATION
3
4525, 2, 1.0, 690, 2, -0.5, 1322, 2, -0.5
*EQUATION
3
4525, 3, 1.0, 690, 3, -0.5, 1322, 3, -0.5
*EQUATION
3
4526, 1, 1.0, 1318, 1, -0.5, 1319, 1, -0.5
*EQUATION
3
4526, 2, 1.0, 1318, 2, -0.5, 1319, 2, -0.5
*EQUATION
3
4526, 3, 1.0, 1318, 3, -0.5, 1319, 3, -0.5
*EQUATION
3
4527, 1, 1.0, 1318, 1, -0.5, 1321, 1, -0.5
*EQUATION
3
4527, 2, 1.0, 1318, 2, -0.5, 1321, 2, -0.5
*EQUATION
3
4527, 3, 1.0, 1318, 3, -0.5, 1321, 3, -0.5
*EQUATION
5
4528, 1, 1.0, 1318, 1, -0.25, 1321, 1, -0.25, 1322, 1, -0.25, 1319, 1, -0.25
*EQUATION
5
4528, 2, 1.0, 1318, 2, -0.25, 1321, 2, -0.25, 1322, 2, -0.25, 1319, 2, -0.25
*EQUATION
5
4528, 3, 1.0, 1318, 3, -0.25, 1321, 3, -0.25, 1322, 3, -0.25, 1319, 3, -0.25
*EQUATION
3
4529, 1, 1.0, 1319, 1, -0.5, 1322, 1, -0.5
*EQUATION
3
4529, 2, 1.0, 1319, 2, -0.5, 1322, 2, -0.5
*EQUATION
3
4529, 3, 1.0, 1319, 3, -0.5, 1322, 3, -0.5
*EQUATION
3
4530, 1, 1.0, 1321, 1, -0.5, 1322, 1, -0.5
*EQUATION
3
4530, 2, 1.0, 1321, 2, -0.5, 1322, 2, -0.5
*EQUATION
3
4530, 3, 1.0, 1321, 3, -0.5, 1322, 3, -0.5
*EQUATION
3
4533, 1, 1.0, 1027, 1, -0.5, 1043, 1, -0.5
*EQUATION
3
4533, 2, 1.0, 1027, 2, -0.5, 1043, 2, -0.5
*EQUATION
3
4533, 3, 1.0, 1027, 3, -0.5, 1043, 3, -0.5
*EQUATION
5
4536, 1, 1.0, 1027, 1, -0.25, 1043, 1, -0.25, 1046, 1, -0.25, 1029, 1, -0.25
*EQUATION
5
4536, 2, 1.0, 1027, 2, -0.25, 1043, 2, -0.25, 1046, 2, -0.25, 1029, 2, -0.25
*EQUATION
5
4536, 3, 1.0, 1027, 3, -0.25, 1043, 3, -0.25, 1046, 3, -0.25, 1029, 3, -0.25
*EQUATION
3
4539, 1, 1.0, 1029, 1, -0.5, 1046, 1, -0.5
*EQUATION
3
4539, 2, 1.0, 1029, 2, -0.5, 1046, 2, -0.5
*EQUATION
3
4539, 3, 1.0, 1029, 3, -0.5, 1046, 3, -0.5
*EQUATION
3
4543, 1, 1.0, 1043, 1, -0.5, 1046, 1, -0.5
*EQUATION
3
4543, 2, 1.0, 1043, 2, -0.5, 1046, 2, -0.5
*EQUATION
3
4543, 3, 1.0, 1043, 3, -0.5, 1046, 3, -0.5
*EQUATION
5
4547, 1, 1.0, 1029, 1, -0.25, 1046, 1, -0.25, 1049, 1, -0.25, 1031, 1, -0.25
*EQUATION
5
4547, 2, 1.0, 1029, 2, -0.25, 1046, 2, -0.25, 1049, 2, -0.25, 1031, 2, -0.25
*EQUATION
5
4547, 3, 1.0, 1029, 3, -0.25, 1046, 3, -0.25, 1049, 3, -0.25, 1031, 3, -0.25
*EQUATION
3
4550, 1, 1.0, 1031, 1, -0.5, 1049, 1, -0.5
*EQUATION
3
4550, 2, 1.0, 1031, 2, -0.5, 1049, 2, -0.5
*EQUATION
3
4550, 3, 1.0, 1031, 3, -0.5, 1049, 3, -0.5
*EQUATION
3
4553, 1, 1.0, 1046, 1, -0.5, 1049, 1, -0.5
*EQUATION
3
4553, 2, 1.0, 1046, 2, -0.5, 1049, 2, -0.5
*EQUATION
3
4553, 3, 1.0, 1046, 3, -0.5, 1049, 3, -0.5
*EQUATION
3
4557, 1, 1.0, 1043, 1, -0.5, 1051, 1, -0.5
*EQUATION
3
4557, 2, 1.0, 1043, 2, -0.5, 1051, 2, -0.5
*EQUATION
3
4557, 3, 1.0, 1043, 3, -0.5, 1051, 3, -0.5
*EQUATION
5
4560, 1, 1.0, 1043, 1, -0.25, 1051, 1, -0.25, 1053, 1, -0.25, 1046, 1, -0.25
*EQUATION
5
4560, 2, 1.0, 1043, 2, -0.25, 1051, 2, -0.25, 1053, 2, -0.25, 1046, 2, -0.25
*EQUATION
5
4560, 3, 1.0, 1043, 3, -0.25, 1051, 3, -0.25, 1053, 3, -0.25, 1046, 3, -0.25
*EQUATION
3
4563, 1, 1.0, 1046, 1, -0.5, 1053, 1, -0.5
*EQUATION
3
4563, 2, 1.0, 1046, 2, -0.5, 1053, 2, -0.5
*EQUATION
3
4563, 3, 1.0, 1046, 3, -0.5, 1053, 3, -0.5
*EQUATION
5
4566, 1, 1.0, 1046, 1, -0.25, 1053, 1, -0.25, 1055, 1, -0.25, 1049, 1, -0.25
*EQUATION
5
4566, 2, 1.0, 1046, 2, -0.25, 1053, 2, -0.25, 1055, 2, -0.25, 1049, 2, -0.25
*EQUATION
5
4566, 3, 1.0, 1046, 3, -0.25, 1053, 3, -0.25, 1055, 3, -0.25, 1049, 3, -0.25
*EQUATION
3
4569, 1, 1.0, 1049, 1, -0.5, 1055, 1, -0.5
*EQUATION
3
4569, 2, 1.0, 1049, 2, -0.5, 1055, 2, -0.5
*EQUATION
3
4569, 3, 1.0, 1049, 3, -0.5, 1055, 3, -0.5
*EQUATION
5
4572, 1, 1.0, 1031, 1, -0.25, 1049, 1, -0.25, 1057, 1, -0.25, 1039, 1, -0.25
*EQUATION
5
4572, 2, 1.0, 1031, 2, -0.25, 1049, 2, -0.25, 1057, 2, -0.25, 1039, 2, -0.25
*EQUATION
5
4572, 3, 1.0, 1031, 3, -0.25, 1049, 3, -0.25, 1057, 3, -0.25, 1039, 3, -0.25
*EQUATION
3
4575, 1, 1.0, 1049, 1, -0.5, 1057, 1, -0.5
*EQUATION
3
4575, 2, 1.0, 1049, 2, -0.5, 1057, 2, -0.5
*EQUATION
3
4575, 3, 1.0, 1049, 3, -0.5, 1057, 3, -0.5
*EQUATION
5
4578, 1, 1.0, 1049, 1, -0.25, 1055, 1, -0.25, 1063, 1, -0.25, 1057, 1, -0.25
*EQUATION
5
4578, 2, 1.0, 1049, 2, -0.25, 1055, 2, -0.25, 1063, 2, -0.25, 1057, 2, -0.25
*EQUATION
5
4578, 3, 1.0, 1049, 3, -0.25, 1055, 3, -0.25, 1063, 3, -0.25, 1057, 3, -0.25
*EQUATION
3
4581, 1, 1.0, 1057, 1, -0.5, 1063, 1, -0.5
*EQUATION
3
4581, 2, 1.0, 1057, 2, -0.5, 1063, 2, -0.5
*EQUATION
3
4581, 3, 1.0, 1057, 3, -0.5, 1063, 3, -0.5
*EQUATION
5
4584, 1, 1.0, 1057, 1, -0.25, 1063, 1, -0.25, 1065, 1, -0.25, 1060, 1, -0.25
*EQUATION
5
4584, 2, 1.0, 1057, 2, -0.25, 1063, 2, -0.25, 1065, 2, -0.25, 1060, 2, -0.25
*EQUATION
5
4584, 3, 1.0, 1057, 3, -0.25, 1063, 3, -0.25, 1065, 3, -0.25, 1060, 3, -0.25
*EQUATION
3
4587, 1, 1.0, 1060, 1, -0.5, 1065, 1, -0.5
*EQUATION
3
4587, 2, 1.0, 1060, 2, -0.5, 1065, 2, -0.5
*EQUATION
3
4587, 3, 1.0, 1060, 3, -0.5, 1065, 3, -0.5
*EQUATION
5
4588, 1, 1.0, 731, 1, -0.25, 779, 1, -0.25, 799, 1, -0.25, 751, 1, -0.25
*EQUATION
5
4588, 2, 1.0, 731, 2, -0.25, 779, 2, -0.25, 799, 2, -0.25, 751, 2, -0.25
*EQUATION
5
4588, 3, 1.0, 731, 3, -0.25, 779, 3, -0.25, 799, 3, -0.25, 751, 3, -0.25
*EQUATION
3
4589, 1, 1.0, 751, 1, -0.5, 799, 1, -0.5
*EQUATION
3
4589, 2, 1.0, 751, 2, -0.5, 799, 2, -0.5
*EQUATION
3
4589, 3, 1.0, 751, 3, -0.5, 799, 3, -0.5
*EQUATION
5
4591, 1, 1.0, 751, 1, -0.25, 799, 1, -0.25, 801, 1, -0.25, 753, 1, -0.25
*EQUATION
5
4591, 2, 1.0, 751, 2, -0.25, 799, 2, -0.25, 801, 2, -0.25, 753, 2, -0.25
*EQUATION
5
4591, 3, 1.0, 751, 3, -0.25, 799, 3, -0.25, 801, 3, -0.25, 753, 3, -0.25
*EQUATION
3
4593, 1, 1.0, 753, 1, -0.5, 801, 1, -0.5
*EQUATION
3
4593, 2, 1.0, 753, 2, -0.5, 801, 2, -0.5
*EQUATION
3
4593, 3, 1.0, 753, 3, -0.5, 801, 3, -0.5
*EQUATION
3
4594, 1, 1.0, 779, 1, -0.5, 799, 1, -0.5
*EQUATION
3
4594, 2, 1.0, 779, 2, -0.5, 799, 2, -0.5
*EQUATION
3
4594, 3, 1.0, 779, 3, -0.5, 799, 3, -0.5
*EQUATION
3
4596, 1, 1.0, 799, 1, -0.5, 801, 1, -0.5
*EQUATION
3
4596, 2, 1.0, 799, 2, -0.5, 801, 2, -0.5
*EQUATION
3
4596, 3, 1.0, 799, 3, -0.5, 801, 3, -0.5
*EQUATION
5
4599, 1, 1.0, 753, 1, -0.25, 801, 1, -0.25, 803, 1, -0.25, 755, 1, -0.25
*EQUATION
5
4599, 2, 1.0, 753, 2, -0.25, 801, 2, -0.25, 803, 2, -0.25, 755, 2, -0.25
*EQUATION
5
4599, 3, 1.0, 753, 3, -0.25, 801, 3, -0.25, 803, 3, -0.25, 755, 3, -0.25
*EQUATION
5
4600, 1, 1.0, 738, 1, -0.25, 786, 1, -0.25, 803, 1, -0.25, 755, 1, -0.25
*EQUATION
5
4600, 2, 1.0, 738, 2, -0.25, 786, 2, -0.25, 803, 2, -0.25, 755, 2, -0.25
*EQUATION
5
4600, 3, 1.0, 738, 3, -0.25, 786, 3, -0.25, 803, 3, -0.25, 755, 3, -0.25
*EQUATION
3
4601, 1, 1.0, 755, 1, -0.5, 803, 1, -0.5
*EQUATION
3
4601, 2, 1.0, 755, 2, -0.5, 803, 2, -0.5
*EQUATION
3
4601, 3, 1.0, 755, 3, -0.5, 803, 3, -0.5
*EQUATION
3
4603, 1, 1.0, 801, 1, -0.5, 803, 1, -0.5
*EQUATION
3
4603, 2, 1.0, 801, 2, -0.5, 803, 2, -0.5
*EQUATION
3
4603, 3, 1.0, 801, 3, -0.5, 803, 3, -0.5
*EQUATION
3
4604, 1, 1.0, 786, 1, -0.5, 803, 1, -0.5
*EQUATION
3
4604, 2, 1.0, 786, 2, -0.5, 803, 2, -0.5
*EQUATION
3
4604, 3, 1.0, 786, 3, -0.5, 803, 3, -0.5
*EQUATION
3
4605, 1, 1.0, 1067, 1, -0.5, 1068, 1, -0.5
*EQUATION
3
4605, 2, 1.0, 1067, 2, -0.5, 1068, 2, -0.5
*EQUATION
3
4605, 3, 1.0, 1067, 3, -0.5, 1068, 3, -0.5
*EQUATION
5
4606, 1, 1.0, 1067, 1, -0.25, 1070, 1, -0.25, 1071, 1, -0.25, 1068, 1, -0.25
*EQUATION
5
4606, 2, 1.0, 1067, 2, -0.25, 1070, 2, -0.25, 1071, 2, -0.25, 1068, 2, -0.25
*EQUATION
5
4606, 3, 1.0, 1067, 3, -0.25, 1070, 3, -0.25, 1071, 3, -0.25, 1068, 3, -0.25
*EQUATION
3
4607, 1, 1.0, 1068, 1, -0.5, 1071, 1, -0.5
*EQUATION
3
4607, 2, 1.0, 1068, 2, -0.5, 1071, 2, -0.5
*EQUATION
3
4607, 3, 1.0, 1068, 3, -0.5, 1071, 3, -0.5
*EQUATION
3
4608, 1, 1.0, 1070, 1, -0.5, 1071, 1, -0.5
*EQUATION
3
4608, 2, 1.0, 1070, 2, -0.5, 1071, 2, -0.5
*EQUATION
3
4608, 3, 1.0, 1070, 3, -0.5, 1071, 3, -0.5
*EQUATION
3
4610, 1, 1.0, 819, 1, -0.5, 1068, 1, -0.5
*EQUATION
3
4610, 2, 1.0, 819, 2, -0.5, 1068, 2, -0.5
*EQUATION
3
4610, 3, 1.0, 819, 3, -0.5, 1068, 3, -0.5
*EQUATION
5
4612, 1, 1.0, 1068, 1, -0.25, 819, 1, -0.25, 1078, 1, -0.25, 1071, 1, -0.25
*EQUATION
5
4612, 2, 1.0, 1068, 2, -0.25, 819, 2, -0.25, 1078, 2, -0.25, 1071, 2, -0.25
*EQUATION
5
4612, 3, 1.0, 1068, 3, -0.25, 819, 3, -0.25, 1078, 3, -0.25, 1071, 3, -0.25
*EQUATION
3
4614, 1, 1.0, 1071, 1, -0.5, 1078, 1, -0.5
*EQUATION
3
4614, 2, 1.0, 1071, 2, -0.5, 1078, 2, -0.5
*EQUATION
3
4614, 3, 1.0, 1071, 3, -0.5, 1078, 3, -0.5
*EQUATION
3
4617, 1, 1.0, 819, 1, -0.5, 1078, 1, -0.5
*EQUATION
3
4617, 2, 1.0, 819, 2, -0.5, 1078, 2, -0.5
*EQUATION
3
4617, 3, 1.0, 819, 3, -0.5, 1078, 3, -0.5
*EQUATION
5
4619, 1, 1.0, 1070, 1, -0.25, 1073, 1, -0.25, 1074, 1, -0.25, 1071, 1, -0.25
*EQUATION
5
4619, 2, 1.0, 1070, 2, -0.25, 1073, 2, -0.25, 1074, 2, -0.25, 1071, 2, -0.25
*EQUATION
5
4619, 3, 1.0, 1070, 3, -0.25, 1073, 3, -0.25, 1074, 3, -0.25, 1071, 3, -0.25
*EQUATION
3
4620, 1, 1.0, 1071, 1, -0.5, 1074, 1, -0.5
*EQUATION
3
4620, 2, 1.0, 1071, 2, -0.5, 1074, 2, -0.5
*EQUATION
3
4620, 3, 1.0, 1071, 3, -0.5, 1074, 3, -0.5
*EQUATION
3
4621, 1, 1.0, 1073, 1, -0.5, 1074, 1, -0.5
*EQUATION
3
4621, 2, 1.0, 1073, 2, -0.5, 1074, 2, -0.5
*EQUATION
3
4621, 3, 1.0, 1073, 3, -0.5, 1074, 3, -0.5
*EQUATION
5
4623, 1, 1.0, 1071, 1, -0.25, 1078, 1, -0.25, 820, 1, -0.25, 1074, 1, -0.25
*EQUATION
5
4623, 2, 1.0, 1071, 2, -0.25, 1078, 2, -0.25, 820, 2, -0.25, 1074, 2, -0.25
*EQUATION
5
4623, 3, 1.0, 1071, 3, -0.25, 1078, 3, -0.25, 820, 3, -0.25, 1074, 3, -0.25
*EQUATION
3
4625, 1, 1.0, 820, 1, -0.5, 1074, 1, -0.5
*EQUATION
3
4625, 2, 1.0, 820, 2, -0.5, 1074, 2, -0.5
*EQUATION
3
4625, 3, 1.0, 820, 3, -0.5, 1074, 3, -0.5
*EQUATION
3
4627, 1, 1.0, 820, 1, -0.5, 1078, 1, -0.5
*EQUATION
3
4627, 2, 1.0, 820, 2, -0.5, 1078, 2, -0.5
*EQUATION
3
4627, 3, 1.0, 820, 3, -0.5, 1078, 3, -0.5
*EQUATION
5
4629, 1, 1.0, 1073, 1, -0.25, 1081, 1, -0.25, 1082, 1, -0.25, 1074, 1, -0.25
*EQUATION
5
4629, 2, 1.0, 1073, 2, -0.25, 1081, 2, -0.25, 1082, 2, -0.25, 1074, 2, -0.25
*EQUATION
5
4629, 3, 1.0, 1073, 3, -0.25, 1081, 3, -0.25, 1082, 3, -0.25, 1074, 3, -0.25
*EQUATION
3
4630, 1, 1.0, 1074, 1, -0.5, 1082, 1, -0.5
*EQUATION
3
4630, 2, 1.0, 1074, 2, -0.5, 1082, 2, -0.5
*EQUATION
3
4630, 3, 1.0, 1074, 3, -0.5, 1082, 3, -0.5
*EQUATION
3
4631, 1, 1.0, 1081, 1, -0.5, 1082, 1, -0.5
*EQUATION
3
4631, 2, 1.0, 1081, 2, -0.5, 1082, 2, -0.5
*EQUATION
3
4631, 3, 1.0, 1081, 3, -0.5, 1082, 3, -0.5
*EQUATION
5
4633, 1, 1.0, 1074, 1, -0.25, 820, 1, -0.25, 1088, 1, -0.25, 1082, 1, -0.25
*EQUATION
5
4633, 2, 1.0, 1074, 2, -0.25, 820, 2, -0.25, 1088, 2, -0.25, 1082, 2, -0.25
*EQUATION
5
4633, 3, 1.0, 1074, 3, -0.25, 820, 3, -0.25, 1088, 3, -0.25, 1082, 3, -0.25
*EQUATION
3
4635, 1, 1.0, 1082, 1, -0.5, 1088, 1, -0.5
*EQUATION
3
4635, 2, 1.0, 1082, 2, -0.5, 1088, 2, -0.5
*EQUATION
3
4635, 3, 1.0, 1082, 3, -0.5, 1088, 3, -0.5
*EQUATION
3
4637, 1, 1.0, 820, 1, -0.5, 1088, 1, -0.5
*EQUATION
3
4637, 2, 1.0, 820, 2, -0.5, 1088, 2, -0.5
*EQUATION
3
4637, 3, 1.0, 820, 3, -0.5, 1088, 3, -0.5
*EQUATION
5
4639, 1, 1.0, 1081, 1, -0.25, 1084, 1, -0.25, 1085, 1, -0.25, 1082, 1, -0.25
*EQUATION
5
4639, 2, 1.0, 1081, 2, -0.25, 1084, 2, -0.25, 1085, 2, -0.25, 1082, 2, -0.25
*EQUATION
5
4639, 3, 1.0, 1081, 3, -0.25, 1084, 3, -0.25, 1085, 3, -0.25, 1082, 3, -0.25
*EQUATION
3
4640, 1, 1.0, 1082, 1, -0.5, 1085, 1, -0.5
*EQUATION
3
4640, 2, 1.0, 1082, 2, -0.5, 1085, 2, -0.5
*EQUATION
3
4640, 3, 1.0, 1082, 3, -0.5, 1085, 3, -0.5
*EQUATION
3
4641, 1, 1.0, 1084, 1, -0.5, 1085, 1, -0.5
*EQUATION
3
4641, 2, 1.0, 1084, 2, -0.5, 1085, 2, -0.5
*EQUATION
3
4641, 3, 1.0, 1084, 3, -0.5, 1085, 3, -0.5
*EQUATION
5
4643, 1, 1.0, 1082, 1, -0.25, 1088, 1, -0.25, 830, 1, -0.25, 1085, 1, -0.25
*EQUATION
5
4643, 2, 1.0, 1082, 2, -0.25, 1088, 2, -0.25, 830, 2, -0.25, 1085, 2, -0.25
*EQUATION
5
4643, 3, 1.0, 1082, 3, -0.25, 1088, 3, -0.25, 830, 3, -0.25, 1085, 3, -0.25
*EQUATION
3
4645, 1, 1.0, 830, 1, -0.5, 1085, 1, -0.5
*EQUATION
3
4645, 2, 1.0, 830, 2, -0.5, 1085, 2, -0.5
*EQUATION
3
4645, 3, 1.0, 830, 3, -0.5, 1085, 3, -0.5
*EQUATION
3
4647, 1, 1.0, 830, 1, -0.5, 1088, 1, -0.5
*EQUATION
3
4647, 2, 1.0, 830, 2, -0.5, 1088, 2, -0.5
*EQUATION
3
4647, 3, 1.0, 830, 3, -0.5, 1088, 3, -0.5
*EQUATION
5
4649, 1, 1.0, 779, 1, -0.25, 827, 1, -0.25, 847, 1, -0.25, 799, 1, -0.25
*EQUATION
5
4649, 2, 1.0, 779, 2, -0.25, 827, 2, -0.25, 847, 2, -0.25, 799, 2, -0.25
*EQUATION
5
4649, 3, 1.0, 779, 3, -0.25, 827, 3, -0.25, 847, 3, -0.25, 799, 3, -0.25
*EQUATION
3
4650, 1, 1.0, 799, 1, -0.5, 847, 1, -0.5
*EQUATION
3
4650, 2, 1.0, 799, 2, -0.5, 847, 2, -0.5
*EQUATION
3
4650, 3, 1.0, 799, 3, -0.5, 847, 3, -0.5
*EQUATION
5
4652, 1, 1.0, 799, 1, -0.25, 847, 1, -0.25, 849, 1, -0.25, 801, 1, -0.25
*EQUATION
5
4652, 2, 1.0, 799, 2, -0.25, 847, 2, -0.25, 849, 2, -0.25, 801, 2, -0.25
*EQUATION
5
4652, 3, 1.0, 799, 3, -0.25, 847, 3, -0.25, 849, 3, -0.25, 801, 3, -0.25
*EQUATION
3
4654, 1, 1.0, 801, 1, -0.5, 849, 1, -0.5
*EQUATION
3
4654, 2, 1.0, 801, 2, -0.5, 849, 2, -0.5
*EQUATION
3
4654, 3, 1.0, 801, 3, -0.5, 849, 3, -0.5
*EQUATION
5
4656, 1, 1.0, 801, 1, -0.25, 849, 1, -0.25, 851, 1, -0.25, 803, 1, -0.25
*EQUATION
5
4656, 2, 1.0, 801, 2, -0.25, 849, 2, -0.25, 851, 2, -0.25, 803, 2, -0.25
*EQUATION
5
4656, 3, 1.0, 801, 3, -0.25, 849, 3, -0.25, 851, 3, -0.25, 803, 3, -0.25
*EQUATION
5
4657, 1, 1.0, 786, 1, -0.25, 834, 1, -0.25, 851, 1, -0.25, 803, 1, -0.25
*EQUATION
5
4657, 2, 1.0, 786, 2, -0.25, 834, 2, -0.25, 851, 2, -0.25, 803, 2, -0.25
*EQUATION
5
4657, 3, 1.0, 786, 3, -0.25, 834, 3, -0.25, 851, 3, -0.25, 803, 3, -0.25
*EQUATION
3
4658, 1, 1.0, 803, 1, -0.5, 851, 1, -0.5
*EQUATION
3
4658, 2, 1.0, 803, 2, -0.5, 851, 2, -0.5
*EQUATION
3
4658, 3, 1.0, 803, 3, -0.5, 851, 3, -0.5
*EQUATION
3
4660, 1, 1.0, 819, 1, -0.5, 1092, 1, -0.5
*EQUATION
3
4660, 2, 1.0, 819, 2, -0.5, 1092, 2, -0.5
*EQUATION
3
4660, 3, 1.0, 819, 3, -0.5, 1092, 3, -0.5
*EQUATION
5
4662, 1, 1.0, 819, 1, -0.25, 1092, 1, -0.25, 1095, 1, -0.25, 1078, 1, -0.25
*EQUATION
5
4662, 2, 1.0, 819, 2, -0.25, 1092, 2, -0.25, 1095, 2, -0.25, 1078, 2, -0.25
*EQUATION
5
4662, 3, 1.0, 819, 3, -0.25, 1092, 3, -0.25, 1095, 3, -0.25, 1078, 3, -0.25
*EQUATION
3
4664, 1, 1.0, 1078, 1, -0.5, 1095, 1, -0.5
*EQUATION
3
4664, 2, 1.0, 1078, 2, -0.5, 1095, 2, -0.5
*EQUATION
3
4664, 3, 1.0, 1078, 3, -0.5, 1095, 3, -0.5
*EQUATION
5
4666, 1, 1.0, 1078, 1, -0.25, 1095, 1, -0.25, 1098, 1, -0.25, 820, 1, -0.25
*EQUATION
5
4666, 2, 1.0, 1078, 2, -0.25, 1095, 2, -0.25, 1098, 2, -0.25, 820, 2, -0.25
*EQUATION
5
4666, 3, 1.0, 1078, 3, -0.25, 1095, 3, -0.25, 1098, 3, -0.25, 820, 3, -0.25
*EQUATION
3
4668, 1, 1.0, 820, 1, -0.5, 1098, 1, -0.5
*EQUATION
3
4668, 2, 1.0, 820, 2, -0.5, 1098, 2, -0.5
*EQUATION
3
4668, 3, 1.0, 820, 3, -0.5, 1098, 3, -0.5
*EQUATION
3
4669, 1, 1.0, 1092, 1, -0.5, 1409, 1, -0.5
*EQUATION
3
4669, 2, 1.0, 1092, 2, -0.5, 1409, 2, -0.5
*EQUATION
3
4669, 3, 1.0, 1092, 3, -0.5, 1409, 3, -0.5
*EQUATION
5
4670, 1, 1.0, 1092, 1, -0.25, 1095, 1, -0.25, 1411, 1, -0.25, 1409, 1, -0.25
*EQUATION
5
4670, 2, 1.0, 1092, 2, -0.25, 1095, 2, -0.25, 1411, 2, -0.25, 1409, 2, -0.25
*EQUATION
5
4670, 3, 1.0, 1092, 3, -0.25, 1095, 3, -0.25, 1411, 3, -0.25, 1409, 3, -0.25
*EQUATION
3
4671, 1, 1.0, 1409, 1, -0.5, 1411, 1, -0.5
*EQUATION
3
4671, 2, 1.0, 1409, 2, -0.5, 1411, 2, -0.5
*EQUATION
3
4671, 3, 1.0, 1409, 3, -0.5, 1411, 3, -0.5
*EQUATION
3
4672, 1, 1.0, 1095, 1, -0.5, 1411, 1, -0.5
*EQUATION
3
4672, 2, 1.0, 1095, 2, -0.5, 1411, 2, -0.5
*EQUATION
3
4672, 3, 1.0, 1095, 3, -0.5, 1411, 3, -0.5
*EQUATION
3
4674, 1, 1.0, 1409, 1, -0.5, 1415, 1, -0.5
*EQUATION
3
4674, 2, 1.0, 1409, 2, -0.5, 1415, 2, -0.5
*EQUATION
3
4674, 3, 1.0, 1409, 3, -0.5, 1415, 3, -0.5
*EQUATION
5
4676, 1, 1.0, 1409, 1, -0.25, 1415, 1, -0.25, 1416, 1, -0.25, 1411, 1, -0.25
*EQUATION
5
4676, 2, 1.0, 1409, 2, -0.25, 1415, 2, -0.25, 1416, 2, -0.25, 1411, 2, -0.25
*EQUATION
5
4676, 3, 1.0, 1409, 3, -0.25, 1415, 3, -0.25, 1416, 3, -0.25, 1411, 3, -0.25
*EQUATION
3
4678, 1, 1.0, 1411, 1, -0.5, 1416, 1, -0.5
*EQUATION
3
4678, 2, 1.0, 1411, 2, -0.5, 1416, 2, -0.5
*EQUATION
3
4678, 3, 1.0, 1411, 3, -0.5, 1416, 3, -0.5
*EQUATION
3
4681, 1, 1.0, 1415, 1, -0.5, 1416, 1, -0.5
*EQUATION
3
4681, 2, 1.0, 1415, 2, -0.5, 1416, 2, -0.5
*EQUATION
3
4681, 3, 1.0, 1415, 3, -0.5, 1416, 3, -0.5
*EQUATION
5
4683, 1, 1.0, 1095, 1, -0.25, 1098, 1, -0.25, 1413, 1, -0.25, 1411, 1, -0.25
*EQUATION
5
4683, 2, 1.0, 1095, 2, -0.25, 1098, 2, -0.25, 1413, 2, -0.25, 1411, 2, -0.25
*EQUATION
5
4683, 3, 1.0, 1095, 3, -0.25, 1098, 3, -0.25, 1413, 3, -0.25, 1411, 3, -0.25
*EQUATION
3
4684, 1, 1.0, 1411, 1, -0.5, 1413, 1, -0.5
*EQUATION
3
4684, 2, 1.0, 1411, 2, -0.5, 1413, 2, -0.5
*EQUATION
3
4684, 3, 1.0, 1411, 3, -0.5, 1413, 3, -0.5
*EQUATION
3
4685, 1, 1.0, 1098, 1, -0.5, 1413, 1, -0.5
*EQUATION
3
4685, 2, 1.0, 1098, 2, -0.5, 1413, 2, -0.5
*EQUATION
3
4685, 3, 1.0, 1098, 3, -0.5, 1413, 3, -0.5
*EQUATION
5
4687, 1, 1.0, 1411, 1, -0.25, 1416, 1, -0.25, 1418, 1, -0.25, 1413, 1, -0.25
*EQUATION
5
4687, 2, 1.0, 1411, 2, -0.25, 1416, 2, -0.25, 1418, 2, -0.25, 1413, 2, -0.25
*EQUATION
5
4687, 3, 1.0, 1411, 3, -0.25, 1416, 3, -0.25, 1418, 3, -0.25, 1413, 3, -0.25
*EQUATION
3
4689, 1, 1.0, 1413, 1, -0.5, 1418, 1, -0.5
*EQUATION
3
4689, 2, 1.0, 1413, 2, -0.5, 1418, 2, -0.5
*EQUATION
3
4689, 3, 1.0, 1413, 3, -0.5, 1418, 3, -0.5
*EQUATION
3
4691, 1, 1.0, 1416, 1, -0.5, 1418, 1, -0.5
*EQUATION
3
4691, 2, 1.0, 1416, 2, -0.5, 1418, 2, -0.5
*EQUATION
3
4691, 3, 1.0, 1416, 3, -0.5, 1418, 3, -0.5
*EQUATION
3
4693, 1, 1.0, 1420, 1, -0.5, 1421, 1, -0.5
*EQUATION
3
4693, 2, 1.0, 1420, 2, -0.5, 1421, 2, -0.5
*EQUATION
3
4693, 3, 1.0, 1420, 3, -0.5, 1421, 3, -0.5
*EQUATION
3
4694, 1, 1.0, 1420, 1, -0.5, 1423, 1, -0.5
*EQUATION
3
4694, 2, 1.0, 1420, 2, -0.5, 1423, 2, -0.5
*EQUATION
3
4694, 3, 1.0, 1420, 3, -0.5, 1423, 3, -0.5
*EQUATION
5
4695, 1, 1.0, 1420, 1, -0.25, 1423, 1, -0.25, 1424, 1, -0.25, 1421, 1, -0.25
*EQUATION
5
4695, 2, 1.0, 1420, 2, -0.25, 1423, 2, -0.25, 1424, 2, -0.25, 1421, 2, -0.25
*EQUATION
5
4695, 3, 1.0, 1420, 3, -0.25, 1423, 3, -0.25, 1424, 3, -0.25, 1421, 3, -0.25
*EQUATION
3
4696, 1, 1.0, 1421, 1, -0.5, 1424, 1, -0.5
*EQUATION
3
4696, 2, 1.0, 1421, 2, -0.5, 1424, 2, -0.5
*EQUATION
3
4696, 3, 1.0, 1421, 3, -0.5, 1424, 3, -0.5
*EQUATION
3
4697, 1, 1.0, 1423, 1, -0.5, 1424, 1, -0.5
*EQUATION
3
4697, 2, 1.0, 1423, 2, -0.5, 1424, 2, -0.5
*EQUATION
3
4697, 3, 1.0, 1423, 3, -0.5, 1424, 3, -0.5
*EQUATION
3
4698, 1, 1.0, 1420, 1, -0.5, 1428, 1, -0.5
*EQUATION
3
4698, 2, 1.0, 1420, 2, -0.5, 1428, 2, -0.5
*EQUATION
3
4698, 3, 1.0, 1420, 3, -0.5, 1428, 3, -0.5
*EQUATION
3
4700, 1, 1.0, 875, 1, -0.5, 1421, 1, -0.5
*EQUATION
3
4700, 2, 1.0, 875, 2, -0.5, 1421, 2, -0.5
*EQUATION
3
4700, 3, 1.0, 875, 3, -0.5, 1421, 3, -0.5
*EQUATION
5
4701, 1, 1.0, 1420, 1, -0.25, 1428, 1, -0.25, 1430, 1, -0.25, 1423, 1, -0.25
*EQUATION
5
4701, 2, 1.0, 1420, 2, -0.25, 1428, 2, -0.25, 1430, 2, -0.25, 1423, 2, -0.25
*EQUATION
5
4701, 3, 1.0, 1420, 3, -0.25, 1428, 3, -0.25, 1430, 3, -0.25, 1423, 3, -0.25
*EQUATION
5
4703, 1, 1.0, 1421, 1, -0.25, 875, 1, -0.25, 1431, 1, -0.25, 1424, 1, -0.25
*EQUATION
5
4703, 2, 1.0, 1421, 2, -0.25, 875, 2, -0.25, 1431, 2, -0.25, 1424, 2, -0.25
*EQUATION
5
4703, 3, 1.0, 1421, 3, -0.25, 875, 3, -0.25, 1431, 3, -0.25, 1424, 3, -0.25
*EQUATION
3
4704, 1, 1.0, 1423, 1, -0.5, 1430, 1, -0.5
*EQUATION
3
4704, 2, 1.0, 1423, 2, -0.5, 1430, 2, -0.5
*EQUATION
3
4704, 3, 1.0, 1423, 3, -0.5, 1430, 3, -0.5
*EQUATION
5
4705, 1, 1.0, 1423, 1, -0.25, 1430, 1, -0.25, 1431, 1, -0.25, 1424, 1, -0.25
*EQUATION
5
4705, 2, 1.0, 1423, 2, -0.25, 1430, 2, -0.25, 1431, 2, -0.25, 1424, 2, -0.25
*EQUATION
5
4705, 3, 1.0, 1423, 3, -0.25, 1430, 3, -0.25, 1431, 3, -0.25, 1424, 3, -0.25
*EQUATION
3
4706, 1, 1.0, 1424, 1, -0.5, 1431, 1, -0.5
*EQUATION
3
4706, 2, 1.0, 1424, 2, -0.5, 1431, 2, -0.5
*EQUATION
3
4706, 3, 1.0, 1424, 3, -0.5, 1431, 3, -0.5
*EQUATION
3
4708, 1, 1.0, 1428, 1, -0.5, 1430, 1, -0.5
*EQUATION
3
4708, 2, 1.0, 1428, 2, -0.5, 1430, 2, -0.5
*EQUATION
3
4708, 3, 1.0, 1428, 3, -0.5, 1430, 3, -0.5
*EQUATION
3
4710, 1, 1.0, 875, 1, -0.5, 1431, 1, -0.5
*EQUATION
3
4710, 2, 1.0, 875, 2, -0.5, 1431, 2, -0.5
*EQUATION
3
4710, 3, 1.0, 875, 3, -0.5, 1431, 3, -0.5
*EQUATION
3
4711, 1, 1.0, 1430, 1, -0.5, 1431, 1, -0.5
*EQUATION
3
4711, 2, 1.0, 1430, 2, -0.5, 1431, 2, -0.5
*EQUATION
3
4711, 3, 1.0, 1430, 3, -0.5, 1431, 3, -0.5
*EQUATION
5
4713, 1, 1.0, 820, 1, -0.25, 1098, 1, -0.25, 1106, 1, -0.25, 1088, 1, -0.25
*EQUATION
5
4713, 2, 1.0, 820, 2, -0.25, 1098, 2, -0.25, 1106, 2, -0.25, 1088, 2, -0.25
*EQUATION
5
4713, 3, 1.0, 820, 3, -0.25, 1098, 3, -0.25, 1106, 3, -0.25, 1088, 3, -0.25
*EQUATION
3
4715, 1, 1.0, 1088, 1, -0.5, 1106, 1, -0.5
*EQUATION
3
4715, 2, 1.0, 1088, 2, -0.5, 1106, 2, -0.5
*EQUATION
3
4715, 3, 1.0, 1088, 3, -0.5, 1106, 3, -0.5
*EQUATION
5
4717, 1, 1.0, 1088, 1, -0.25, 1106, 1, -0.25, 1109, 1, -0.25, 830, 1, -0.25
*EQUATION
5
4717, 2, 1.0, 1088, 2, -0.25, 1106, 2, -0.25, 1109, 2, -0.25, 830, 2, -0.25
*EQUATION
5
4717, 3, 1.0, 1088, 3, -0.25, 1106, 3, -0.25, 1109, 3, -0.25, 830, 3, -0.25
*EQUATION
3
4719, 1, 1.0, 830, 1, -0.5, 1109, 1, -0.5
*EQUATION
3
4719, 2, 1.0, 830, 2, -0.5, 1109, 2, -0.5
*EQUATION
3
4719, 3, 1.0, 830, 3, -0.5, 1109, 3, -0.5
*EQUATION
5
4720, 1, 1.0, 1098, 1, -0.25, 1106, 1, -0.25, 1433, 1, -0.25, 1413, 1, -0.25
*EQUATION
5
4720, 2, 1.0, 1098, 2, -0.25, 1106, 2, -0.25, 1433, 2, -0.25, 1413, 2, -0.25
*EQUATION
5
4720, 3, 1.0, 1098, 3, -0.25, 1106, 3, -0.25, 1433, 3, -0.25, 1413, 3, -0.25
*EQUATION
3
4721, 1, 1.0, 1413, 1, -0.5, 1433, 1, -0.5
*EQUATION
3
4721, 2, 1.0, 1413, 2, -0.5, 1433, 2, -0.5
*EQUATION
3
4721, 3, 1.0, 1413, 3, -0.5, 1433, 3, -0.5
*EQUATION
3
4722, 1, 1.0, 1106, 1, -0.5, 1433, 1, -0.5
*EQUATION
3
4722, 2, 1.0, 1106, 2, -0.5, 1433, 2, -0.5
*EQUATION
3
4722, 3, 1.0, 1106, 3, -0.5, 1433, 3, -0.5
*EQUATION
5
4724, 1, 1.0, 1413, 1, -0.25, 1418, 1, -0.25, 1437, 1, -0.25, 1433, 1, -0.25
*EQUATION
5
4724, 2, 1.0, 1413, 2, -0.25, 1418, 2, -0.25, 1437, 2, -0.25, 1433, 2, -0.25
*EQUATION
5
4724, 3, 1.0, 1413, 3, -0.25, 1418, 3, -0.25, 1437, 3, -0.25, 1433, 3, -0.25
*EQUATION
3
4726, 1, 1.0, 1433, 1, -0.5, 1437, 1, -0.5
*EQUATION
3
4726, 2, 1.0, 1433, 2, -0.5, 1437, 2, -0.5
*EQUATION
3
4726, 3, 1.0, 1433, 3, -0.5, 1437, 3, -0.5
*EQUATION
3
4728, 1, 1.0, 1418, 1, -0.5, 1437, 1, -0.5
*EQUATION
3
4728, 2, 1.0, 1418, 2, -0.5, 1437, 2, -0.5
*EQUATION
3
4728, 3, 1.0, 1418, 3, -0.5, 1437, 3, -0.5
*EQUATION
5
4730, 1, 1.0, 1106, 1, -0.25, 1109, 1, -0.25, 1435, 1, -0.25, 1433, 1, -0.25
*EQUATION
5
4730, 2, 1.0, 1106, 2, -0.25, 1109, 2, -0.25, 1435, 2, -0.25, 1433, 2, -0.25
*EQUATION
5
4730, 3, 1.0, 1106, 3, -0.25, 1109, 3, -0.25, 1435, 3, -0.25, 1433, 3, -0.25
*EQUATION
3
4731, 1, 1.0, 1433, 1, -0.5, 1435, 1, -0.5
*EQUATION
3
4731, 2, 1.0, 1433, 2, -0.5, 1435, 2, -0.5
*EQUATION
3
4731, 3, 1.0, 1433, 3, -0.5, 1435, 3, -0.5
*EQUATION
3
4732, 1, 1.0, 1109, 1, -0.5, 1435, 1, -0.5
*EQUATION
3
4732, 2, 1.0, 1109, 2, -0.5, 1435, 2, -0.5
*EQUATION
3
4732, 3, 1.0, 1109, 3, -0.5, 1435, 3, -0.5
*EQUATION
5
4734, 1, 1.0, 1433, 1, -0.25, 1437, 1, -0.25, 1439, 1, -0.25, 1435, 1, -0.25
*EQUATION
5
4734, 2, 1.0, 1433, 2, -0.25, 1437, 2, -0.25, 1439, 2, -0.25, 1435, 2, -0.25
*EQUATION
5
4734, 3, 1.0, 1433, 3, -0.25, 1437, 3, -0.25, 1439, 3, -0.25, 1435, 3, -0.25
*EQUATION
3
4736, 1, 1.0, 1435, 1, -0.5, 1439, 1, -0.5
*EQUATION
3
4736, 2, 1.0, 1435, 2, -0.5, 1439, 2, -0.5
*EQUATION
3
4736, 3, 1.0, 1435, 3, -0.5, 1439, 3, -0.5
*EQUATION
3
4738, 1, 1.0, 1437, 1, -0.5, 1439, 1, -0.5
*EQUATION
3
4738, 2, 1.0, 1437, 2, -0.5, 1439, 2, -0.5
*EQUATION
3
4738, 3, 1.0, 1437, 3, -0.5, 1439, 3, -0.5
*EQUATION
3
4740, 1, 1.0, 1441, 1, -0.5, 1442, 1, -0.5
*EQUATION
3
4740, 2, 1.0, 1441, 2, -0.5, 1442, 2, -0.5
*EQUATION
3
4740, 3, 1.0, 1441, 3, -0.5, 1442, 3, -0.5
*EQUATION
3
4741, 1, 1.0, 1441, 1, -0.5, 1444, 1, -0.5
*EQUATION
3
4741, 2, 1.0, 1441, 2, -0.5, 1444, 2, -0.5
*EQUATION
3
4741, 3, 1.0, 1441, 3, -0.5, 1444, 3, -0.5
*EQUATION
5
4742, 1, 1.0, 1441, 1, -0.25, 1444, 1, -0.25, 1445, 1, -0.25, 1442, 1, -0.25
*EQUATION
5
4742, 2, 1.0, 1441, 2, -0.25, 1444, 2, -0.25, 1445, 2, -0.25, 1442, 2, -0.25
*EQUATION
5
4742, 3, 1.0, 1441, 3, -0.25, 1444, 3, -0.25, 1445, 3, -0.25, 1442, 3, -0.25
*EQUATION
3
4743, 1, 1.0, 1442, 1, -0.5, 1445, 1, -0.5
*EQUATION
3
4743, 2, 1.0, 1442, 2, -0.5, 1445, 2, -0.5
*EQUATION
3
4743, 3, 1.0, 1442, 3, -0.5, 1445, 3, -0.5
*EQUATION
3
4744, 1, 1.0, 1444, 1, -0.5, 1445, 1, -0.5
*EQUATION
3
4744, 2, 1.0, 1444, 2, -0.5, 1445, 2, -0.5
*EQUATION
3
4744, 3, 1.0, 1444, 3, -0.5, 1445, 3, -0.5
*EQUATION
3
4745, 1, 1.0, 1441, 1, -0.5, 1447, 1, -0.5
*EQUATION
3
4745, 2, 1.0, 1441, 2, -0.5, 1447, 2, -0.5
*EQUATION
3
4745, 3, 1.0, 1441, 3, -0.5, 1447, 3, -0.5
*EQUATION
5
4746, 1, 1.0, 1441, 1, -0.25, 1447, 1, -0.25, 1448, 1, -0.25, 1442, 1, -0.25
*EQUATION
5
4746, 2, 1.0, 1441, 2, -0.25, 1447, 2, -0.25, 1448, 2, -0.25, 1442, 2, -0.25
*EQUATION
5
4746, 3, 1.0, 1441, 3, -0.25, 1447, 3, -0.25, 1448, 3, -0.25, 1442, 3, -0.25
*EQUATION
3
4747, 1, 1.0, 1442, 1, -0.5, 1448, 1, -0.5
*EQUATION
3
4747, 2, 1.0, 1442, 2, -0.5, 1448, 2, -0.5
*EQUATION
3
4747, 3, 1.0, 1442, 3, -0.5, 1448, 3, -0.5
*EQUATION
5
4748, 1, 1.0, 1441, 1, -0.25, 1447, 1, -0.25, 1449, 1, -0.25, 1444, 1, -0.25
*EQUATION
5
4748, 2, 1.0, 1441, 2, -0.25, 1447, 2, -0.25, 1449, 2, -0.25, 1444, 2, -0.25
*EQUATION
5
4748, 3, 1.0, 1441, 3, -0.25, 1447, 3, -0.25, 1449, 3, -0.25, 1444, 3, -0.25
*EQUATION
5
4750, 1, 1.0, 1442, 1, -0.25, 1448, 1, -0.25, 882, 1, -0.25, 1445, 1, -0.25
*EQUATION
5
4750, 2, 1.0, 1442, 2, -0.25, 1448, 2, -0.25, 882, 2, -0.25, 1445, 2, -0.25
*EQUATION
5
4750, 3, 1.0, 1442, 3, -0.25, 1448, 3, -0.25, 882, 3, -0.25, 1445, 3, -0.25
*EQUATION
3
4751, 1, 1.0, 1444, 1, -0.5, 1449, 1, -0.5
*EQUATION
3
4751, 2, 1.0, 1444, 2, -0.5, 1449, 2, -0.5
*EQUATION
3
4751, 3, 1.0, 1444, 3, -0.5, 1449, 3, -0.5
*EQUATION
3
4753, 1, 1.0, 882, 1, -0.5, 1445, 1, -0.5
*EQUATION
3
4753, 2, 1.0, 882, 2, -0.5, 1445, 2, -0.5
*EQUATION
3
4753, 3, 1.0, 882, 3, -0.5, 1445, 3, -0.5
*EQUATION
3
4754, 1, 1.0, 1447, 1, -0.5, 1448, 1, -0.5
*EQUATION
3
4754, 2, 1.0, 1447, 2, -0.5, 1448, 2, -0.5
*EQUATION
3
4754, 3, 1.0, 1447, 3, -0.5, 1448, 3, -0.5
*EQUATION
3
4755, 1, 1.0, 1447, 1, -0.5, 1449, 1, -0.5
*EQUATION
3
4755, 2, 1.0, 1447, 2, -0.5, 1449, 2, -0.5
*EQUATION
3
4755, 3, 1.0, 1447, 3, -0.5, 1449, 3, -0.5
*EQUATION
3
4757, 1, 1.0, 882, 1, -0.5, 1448, 1, -0.5
*EQUATION
3
4757, 2, 1.0, 882, 2, -0.5, 1448, 2, -0.5
*EQUATION
3
4757, 3, 1.0, 882, 3, -0.5, 1448, 3, -0.5
*BOUNDARY
CLAMP, 1, 3, 0.0
*STEP
*STATIC
*CLOAD
887, 3, -333.333333333
888, 3, -333.333333333
891, 3, -333.333333333
894, 3, -333.333333333
896, 3, -333.333333333
898, 3, -333.333333333
900, 3, -333.333333333
903, 3, -333.333333333
906, 3, -333.333333333
909, 3, -333.333333333
912, 3, -333.333333333
2539, 3, -333.333333333
2559, 3, -333.333333333
2579, 3, -333.333333333
2603, 3, -333.333333333
*NODE FILE
U
*EL FILE
S, ENER
*NODE PRINT, NSET=TIP_TOP
U
*NODE PRINT, NSET=CLAMP
RF
*EL PRINT, ELSET=EALL
ELSE
*ENERGY PRINT
*END STEP
