*HEADING
T10 S-LIN hanging 8-split zz cycle 1
units: mm, N, s, MPa. Material is illustrative steel, not a coupon card.
E=210000.0 nu=0.3. load -5000.0 N on TIP_TOP.
*NODE, NSET=NALL
1, 0, -10, 0
2, 111.111111111, -10, 4.44444444444
3, 111.111111111, 0, 4.44444444444
4, 0, 0, 0
5, 0, -10, 36
6, 111.111111111, -10, 39.5555555556
7, 111.111111111, 0, 39.5555555556
8, 0, 0, 36
9, 0, -10, 72
10, 111.111111111, -10, 74.6666666667
11, 111.111111111, 0, 74.6666666667
12, 0, 0, 72
13, 0, -10, 108
14, 111.111111111, -10, 109.777777778
15, 111.111111111, 0, 109.777777778
16, 0, 0, 108
17, 0, -10, 144
18, 111.111111111, -10, 144.888888889
19, 111.111111111, 0, 144.888888889
20, 0, 0, 144
21, 0, -10, 180
22, 111.111111111, -10, 180
23, 111.111111111, 0, 180
24, 0, 0, 180
25, 111.111111111, 10, 4.44444444444
26, 0, 10, 0
27, 111.111111111, 10, 39.5555555556
28, 0, 10, 36
29, 111.111111111, 10, 74.6666666667
30, 0, 10, 72
31, 111.111111111, 10, 109.777777778
32, 0, 10, 108
33, 111.111111111, 10, 144.888888889
34, 0, 10, 144
35, 111.111111111, 10, 180
36, 0, 10, 180
37, 0, -70, 180
38, 111.111111111, -75.2777777778, 180
39, 111.111111111, -58.9583333333, 180
40, 0, -55, 180
41, 0, -70, 190
42, 111.111111111, -75.2777777778, 190
43, 111.111111111, -58.9583333333, 190
44, 0, -55, 190
45, 0, -70, 200
46, 111.111111111, -75.2777777778, 200
47, 111.111111111, -58.9583333333, 200
48, 0, -55, 200
49, 111.111111111, -42.6388888889, 180
50, 0, -40, 180
51, 111.111111111, -42.6388888889, 190
52, 0, -40, 190
53, 111.111111111, -42.6388888889, 200
54, 0, -40, 200
55, 111.111111111, -26.3194444444, 180
56, 0, -25, 180
57, 111.111111111, -26.3194444444, 190
58, 0, -25, 190
59, 111.111111111, -26.3194444444, 200
60, 0, -25, 200
61, 111.111111111, -10, 190
62, 0, -10, 190
63, 111.111111111, -10, 200
64, 0, -10, 200
65, 111.111111111, 0, 190
66, 0, 0, 190
67, 111.111111111, 0, 200
68, 0, 0, 200
69, 111.111111111, 10, 190
70, 0, 10, 190
71, 111.111111111, 10, 200
72, 0, 10, 200
73, 111.111111111, 49.7222222222, 180
74, 0, 51.25, 180
75, 111.111111111, 49.7222222222, 190
76, 0, 51.25, 190
77, 111.111111111, 49.7222222222, 200
78, 0, 51.25, 200
79, 111.111111111, 89.4444444444, 180
80, 0, 92.5, 180
81, 111.111111111, 89.4444444444, 190
82, 0, 92.5, 190
83, 111.111111111, 89.4444444444, 200
84, 0, 92.5, 200
85, 111.111111111, 129.166666667, 180
86, 0, 133.75, 180
87, 111.111111111, 129.166666667, 190
88, 0, 133.75, 190
89, 111.111111111, 129.166666667, 200
90, 0, 133.75, 200
91, 111.111111111, 168.888888889, 180
92, 0, 175, 180
93, 111.111111111, 168.888888889, 190
94, 0, 175, 190
95, 111.111111111, 168.888888889, 200
96, 0, 175, 200
97, 222.222222222, -10, 8.88888888889
98, 222.222222222, 0, 8.88888888889
99, 222.222222222, -10, 43.1111111111
100, 222.222222222, 0, 43.1111111111
101, 222.222222222, -10, 77.3333333333
102, 222.222222222, 0, 77.3333333333
103, 222.222222222, -10, 111.555555556
104, 222.222222222, 0, 111.555555556
105, 222.222222222, -10, 145.777777778
106, 222.222222222, 0, 145.777777778
107, 222.222222222, -10, 180
108, 222.222222222, 0, 180
109, 222.222222222, 10, 8.88888888889
110, 222.222222222, 10, 43.1111111111
111, 222.222222222, 10, 77.3333333333
112, 222.222222222, 10, 111.555555556
113, 222.222222222, 10, 145.777777778
114, 222.222222222, 10, 180
115, 222.222222222, -80.5555555556, 180
116, 222.222222222, -62.9166666667, 180
117, 222.222222222, -80.5555555556, 190
118, 222.222222222, -62.9166666667, 190
119, 222.222222222, -80.5555555556, 200
120, 222.222222222, -62.9166666667, 200
121, 222.222222222, -45.2777777778, 180
122, 222.222222222, -45.2777777778, 190
123, 222.222222222, -45.2777777778, 200
124, 222.222222222, -27.6388888889, 180
125, 222.222222222, -27.6388888889, 190
126, 222.222222222, -27.6388888889, 200
127, 222.222222222, -10, 190
128, 222.222222222, -10, 200
129, 222.222222222, 0, 190
130, 222.222222222, 0, 200
131, 222.222222222, 10, 190
132, 222.222222222, 10, 200
133, 222.222222222, 48.1944444444, 180
134, 222.222222222, 48.1944444444, 190
135, 222.222222222, 48.1944444444, 200
136, 222.222222222, 86.3888888889, 180
137, 222.222222222, 86.3888888889, 190
138, 222.222222222, 86.3888888889, 200
139, 222.222222222, 124.583333333, 180
140, 222.222222222, 124.583333333, 190
141, 222.222222222, 124.583333333, 200
142, 222.222222222, 162.777777778, 180
143, 222.222222222, 162.777777778, 190
144, 222.222222222, 162.777777778, 200
145, 333.333333333, -10, 13.3333333333
146, 333.333333333, 0, 13.3333333333
147, 333.333333333, -10, 46.6666666667
148, 333.333333333, 0, 46.6666666667
149, 333.333333333, -10, 80
150, 333.333333333, 0, 80
151, 333.333333333, -10, 113.333333333
152, 333.333333333, 0, 113.333333333
153, 333.333333333, -10, 146.666666667
154, 333.333333333, 0, 146.666666667
155, 333.333333333, -10, 180
156, 333.333333333, 0, 180
157, 333.333333333, 10, 13.3333333333
158, 333.333333333, 10, 46.6666666667
159, 333.333333333, 10, 80
160, 333.333333333, 10, 113.333333333
161, 333.333333333, 10, 146.666666667
162, 333.333333333, 10, 180
163, 333.333333333, -85.8333333333, 180
164, 333.333333333, -66.875, 180
165, 333.333333333, -85.8333333333, 190
166, 333.333333333, -66.875, 190
167, 333.333333333, -85.8333333333, 200
168, 333.333333333, -66.875, 200
169, 333.333333333, -47.9166666667, 180
170, 333.333333333, -47.9166666667, 190
171, 333.333333333, -47.9166666667, 200
172, 333.333333333, -28.9583333333, 180
173, 333.333333333, -28.9583333333, 190
174, 333.333333333, -28.9583333333, 200
175, 333.333333333, -10, 190
176, 333.333333333, -10, 200
177, 333.333333333, 0, 190
178, 333.333333333, 0, 200
179, 333.333333333, 10, 190
180, 333.333333333, 10, 200
181, 333.333333333, 46.6666666667, 180
182, 333.333333333, 46.6666666667, 190
183, 333.333333333, 46.6666666667, 200
184, 333.333333333, 83.3333333333, 180
185, 333.333333333, 83.3333333333, 190
186, 333.333333333, 83.3333333333, 200
187, 333.333333333, 120, 180
188, 333.333333333, 120, 190
189, 333.333333333, 120, 200
190, 333.333333333, 156.666666667, 180
191, 333.333333333, 156.666666667, 190
192, 333.333333333, 156.666666667, 200
193, 444.444444444, -10, 17.7777777778
194, 444.444444444, 0, 17.7777777778
195, 444.444444444, -10, 50.2222222222
196, 444.444444444, 0, 50.2222222222
197, 444.444444444, -10, 82.6666666667
198, 444.444444444, 0, 82.6666666667
199, 444.444444444, -10, 115.111111111
200, 444.444444444, 0, 115.111111111
201, 444.444444444, -10, 147.555555556
202, 444.444444444, 0, 147.555555556
203, 444.444444444, -10, 180
204, 444.444444444, 0, 180
205, 444.444444444, 10, 17.7777777778
206, 444.444444444, 10, 50.2222222222
207, 444.444444444, 10, 82.6666666667
208, 444.444444444, 10, 115.111111111
209, 444.444444444, 10, 147.555555556
210, 444.444444444, 10, 180
211, 444.444444444, -91.1111111111, 180
212, 444.444444444, -70.8333333333, 180
213, 444.444444444, -91.1111111111, 190
214, 444.444444444, -70.8333333333, 190
215, 444.444444444, -91.1111111111, 200
216, 444.444444444, -70.8333333333, 200
217, 444.444444444, -50.5555555556, 180
218, 444.444444444, -50.5555555556, 190
219, 444.444444444, -50.5555555556, 200
220, 444.444444444, -30.2777777778, 180
221, 444.444444444, -30.2777777778, 190
222, 444.444444444, -30.2777777778, 200
223, 444.444444444, -10, 190
224, 444.444444444, -10, 200
225, 444.444444444, 0, 190
226, 444.444444444, 0, 200
227, 444.444444444, 10, 190
228, 444.444444444, 10, 200
229, 444.444444444, 45.1388888889, 180
230, 444.444444444, 45.1388888889, 190
231, 444.444444444, 45.1388888889, 200
232, 444.444444444, 80.2777777778, 180
233, 444.444444444, 80.2777777778, 190
234, 444.444444444, 80.2777777778, 200
235, 444.444444444, 115.416666667, 180
236, 444.444444444, 115.416666667, 190
237, 444.444444444, 115.416666667, 200
238, 444.444444444, 150.555555556, 180
239, 444.444444444, 150.555555556, 190
240, 444.444444444, 150.555555556, 200
241, 555.555555556, -10, 22.2222222222
242, 555.555555556, 0, 22.2222222222
243, 555.555555556, -10, 53.7777777778
244, 555.555555556, 0, 53.7777777778
245, 555.555555556, -10, 85.3333333333
246, 555.555555556, 0, 85.3333333333
247, 555.555555556, -10, 116.888888889
248, 555.555555556, 0, 116.888888889
249, 555.555555556, -10, 148.444444444
250, 555.555555556, 0, 148.444444444
251, 555.555555556, -10, 180
252, 555.555555556, 0, 180
253, 555.555555556, 10, 22.2222222222
254, 555.555555556, 10, 53.7777777778
255, 555.555555556, 10, 85.3333333333
256, 555.555555556, 10, 116.888888889
257, 555.555555556, 10, 148.444444444
258, 555.555555556, 10, 180
259, 555.555555556, -96.3888888889, 180
260, 555.555555556, -74.7916666667, 180
261, 555.555555556, -96.3888888889, 190
262, 555.555555556, -74.7916666667, 190
263, 555.555555556, -96.3888888889, 200
264, 555.555555556, -74.7916666667, 200
265, 555.555555556, -53.1944444444, 180
266, 555.555555556, -53.1944444444, 190
267, 555.555555556, -53.1944444444, 200
268, 555.555555556, -31.5972222222, 180
269, 555.555555556, -31.5972222222, 190
270, 555.555555556, -31.5972222222, 200
271, 555.555555556, -10, 190
272, 555.555555556, -10, 200
273, 555.555555556, 0, 190
274, 555.555555556, 0, 200
275, 555.555555556, 10, 190
276, 555.555555556, 10, 200
277, 555.555555556, 43.6111111111, 180
278, 555.555555556, 43.6111111111, 190
279, 555.555555556, 43.6111111111, 200
280, 555.555555556, 77.2222222222, 180
281, 555.555555556, 77.2222222222, 190
282, 555.555555556, 77.2222222222, 200
283, 555.555555556, 110.833333333, 180
284, 555.555555556, 110.833333333, 190
285, 555.555555556, 110.833333333, 200
286, 555.555555556, 144.444444444, 180
287, 555.555555556, 144.444444444, 190
288, 555.555555556, 144.444444444, 200
289, 666.666666667, -10, 26.6666666667
290, 666.666666667, 0, 26.6666666667
291, 666.666666667, -10, 57.3333333333
292, 666.666666667, 0, 57.3333333333
293, 666.666666667, -10, 88
294, 666.666666667, 0, 88
295, 666.666666667, -10, 118.666666667
296, 666.666666667, 0, 118.666666667
297, 666.666666667, -10, 149.333333333
298, 666.666666667, 0, 149.333333333
299, 666.666666667, -10, 180
300, 666.666666667, 0, 180
301, 666.666666667, 10, 26.6666666667
302, 666.666666667, 10, 57.3333333333
303, 666.666666667, 10, 88
304, 666.666666667, 10, 118.666666667
305, 666.666666667, 10, 149.333333333
306, 666.666666667, 10, 180
307, 666.666666667, -101.666666667, 180
308, 666.666666667, -78.75, 180
309, 666.666666667, -101.666666667, 190
310, 666.666666667, -78.75, 190
311, 666.666666667, -101.666666667, 200
312, 666.666666667, -78.75, 200
313, 666.666666667, -55.8333333333, 180
314, 666.666666667, -55.8333333333, 190
315, 666.666666667, -55.8333333333, 200
316, 666.666666667, -32.9166666667, 180
317, 666.666666667, -32.9166666667, 190
318, 666.666666667, -32.9166666667, 200
319, 666.666666667, -10, 190
320, 666.666666667, -10, 200
321, 666.666666667, 0, 190
322, 666.666666667, 0, 200
323, 666.666666667, 10, 190
324, 666.666666667, 10, 200
325, 666.666666667, 42.0833333333, 180
326, 666.666666667, 42.0833333333, 190
327, 666.666666667, 42.0833333333, 200
328, 666.666666667, 74.1666666667, 180
329, 666.666666667, 74.1666666667, 190
330, 666.666666667, 74.1666666667, 200
331, 666.666666667, 106.25, 180
332, 666.666666667, 106.25, 190
333, 666.666666667, 106.25, 200
334, 666.666666667, 138.333333333, 180
335, 666.666666667, 138.333333333, 190
336, 666.666666667, 138.333333333, 200
337, 777.777777778, -10, 31.1111111111
338, 777.777777778, 0, 31.1111111111
339, 777.777777778, -10, 60.8888888889
340, 777.777777778, 0, 60.8888888889
341, 777.777777778, -10, 90.6666666667
342, 777.777777778, 0, 90.6666666667
343, 777.777777778, -10, 120.444444444
344, 777.777777778, 0, 120.444444444
345, 777.777777778, -10, 150.222222222
346, 777.777777778, 0, 150.222222222
347, 777.777777778, -10, 180
348, 777.777777778, 0, 180
349, 777.777777778, 10, 31.1111111111
350, 777.777777778, 10, 60.8888888889
351, 777.777777778, 10, 90.6666666667
352, 777.777777778, 10, 120.444444444
353, 777.777777778, 10, 150.222222222
354, 777.777777778, 10, 180
355, 777.777777778, -106.944444444, 180
356, 777.777777778, -82.7083333333, 180
357, 777.777777778, -106.944444444, 190
358, 777.777777778, -82.7083333333, 190
359, 777.777777778, -106.944444444, 200
360, 777.777777778, -82.7083333333, 200
361, 777.777777778, -58.4722222222, 180
362, 777.777777778, -58.4722222222, 190
363, 777.777777778, -58.4722222222, 200
364, 777.777777778, -34.2361111111, 180
365, 777.777777778, -34.2361111111, 190
366, 777.777777778, -34.2361111111, 200
367, 777.777777778, -10, 190
368, 777.777777778, -10, 200
369, 777.777777778, 0, 190
370, 777.777777778, 0, 200
371, 777.777777778, 10, 190
372, 777.777777778, 10, 200
373, 777.777777778, 40.5555555556, 180
374, 777.777777778, 40.5555555556, 190
375, 777.777777778, 40.5555555556, 200
376, 777.777777778, 71.1111111111, 180
377, 777.777777778, 71.1111111111, 190
378, 777.777777778, 71.1111111111, 200
379, 777.777777778, 101.666666667, 180
380, 777.777777778, 101.666666667, 190
381, 777.777777778, 101.666666667, 200
382, 777.777777778, 132.222222222, 180
383, 777.777777778, 132.222222222, 190
384, 777.777777778, 132.222222222, 200
385, 888.888888889, -10, 35.5555555556
386, 888.888888889, 0, 35.5555555556
387, 888.888888889, -10, 64.4444444444
388, 888.888888889, 0, 64.4444444444
389, 888.888888889, -10, 93.3333333333
390, 888.888888889, 0, 93.3333333333
391, 888.888888889, -10, 122.222222222
392, 888.888888889, 0, 122.222222222
393, 888.888888889, -10, 151.111111111
394, 888.888888889, 0, 151.111111111
395, 888.888888889, -10, 180
396, 888.888888889, 0, 180
397, 888.888888889, 10, 35.5555555556
398, 888.888888889, 10, 64.4444444444
399, 888.888888889, 10, 93.3333333333
400, 888.888888889, 10, 122.222222222
401, 888.888888889, 10, 151.111111111
402, 888.888888889, 10, 180
403, 888.888888889, -112.222222222, 180
404, 888.888888889, -86.6666666667, 180
405, 888.888888889, -112.222222222, 190
406, 888.888888889, -86.6666666667, 190
407, 888.888888889, -112.222222222, 200
408, 888.888888889, -86.6666666667, 200
409, 888.888888889, -61.1111111111, 180
410, 888.888888889, -61.1111111111, 190
411, 888.888888889, -61.1111111111, 200
412, 888.888888889, -35.5555555556, 180
413, 888.888888889, -35.5555555556, 190
414, 888.888888889, -35.5555555556, 200
415, 888.888888889, -10, 190
416, 888.888888889, -10, 200
417, 888.888888889, 0, 190
418, 888.888888889, 0, 200
419, 888.888888889, 10, 190
420, 888.888888889, 10, 200
421, 888.888888889, 39.0277777778, 180
422, 888.888888889, 39.0277777778, 190
423, 888.888888889, 39.0277777778, 200
424, 888.888888889, 68.0555555556, 180
425, 888.888888889, 68.0555555556, 190
426, 888.888888889, 68.0555555556, 200
427, 888.888888889, 97.0833333333, 180
428, 888.888888889, 97.0833333333, 190
429, 888.888888889, 97.0833333333, 200
430, 888.888888889, 126.111111111, 180
431, 888.888888889, 126.111111111, 190
432, 888.888888889, 126.111111111, 200
433, 1000, -10, 40
434, 1000, 0, 40
435, 1000, -10, 68
436, 1000, 0, 68
437, 1000, -10, 96
438, 1000, 0, 96
439, 1000, -10, 124
440, 1000, 0, 124
441, 1000, -10, 152
442, 1000, 0, 152
443, 1000, -10, 180
444, 1000, 0, 180
445, 1000, 10, 40
446, 1000, 10, 68
447, 1000, 10, 96
448, 1000, 10, 124
449, 1000, 10, 152
450, 1000, 10, 180
451, 1000, -117.5, 180
452, 1000, -90.625, 180
453, 1000, -117.5, 190
454, 1000, -90.625, 190
455, 1000, -117.5, 200
456, 1000, -90.625, 200
457, 1000, -63.75, 180
458, 1000, -63.75, 190
459, 1000, -63.75, 200
460, 1000, -36.875, 180
461, 1000, -36.875, 190
462, 1000, -36.875, 200
463, 1000, -10, 190
464, 1000, -10, 200
465, 1000, 0, 190
466, 1000, 0, 200
467, 1000, 10, 190
468, 1000, 10, 200
469, 1000, 37.5, 180
470, 1000, 37.5, 190
471, 1000, 37.5, 200
472, 1000, 65, 180
473, 1000, 65, 190
474, 1000, 65, 200
475, 1000, 92.5, 180
476, 1000, 92.5, 190
477, 1000, 92.5, 200
478, 1000, 120, 180
479, 1000, 120, 190
480, 1000, 120, 200
481, 1111.11111111, -10, 44.4444444444
482, 1111.11111111, 0, 44.4444444444
483, 1111.11111111, -10, 71.5555555556
484, 1111.11111111, 0, 71.5555555556
485, 1111.11111111, -10, 98.6666666667
486, 1111.11111111, 0, 98.6666666667
487, 1111.11111111, -10, 125.777777778
488, 1111.11111111, 0, 125.777777778
489, 1111.11111111, -10, 152.888888889
490, 1111.11111111, 0, 152.888888889
491, 1111.11111111, -10, 180
492, 1111.11111111, 0, 180
493, 1111.11111111, 10, 44.4444444444
494, 1111.11111111, 10, 71.5555555556
495, 1111.11111111, 10, 98.6666666667
496, 1111.11111111, 10, 125.777777778
497, 1111.11111111, 10, 152.888888889
498, 1111.11111111, 10, 180
499, 1111.11111111, -122.777777778, 180
500, 1111.11111111, -94.5833333333, 180
501, 1111.11111111, -122.777777778, 190
502, 1111.11111111, -94.5833333333, 190
503, 1111.11111111, -122.777777778, 200
504, 1111.11111111, -94.5833333333, 200
505, 1111.11111111, -66.3888888889, 180
506, 1111.11111111, -66.3888888889, 190
507, 1111.11111111, -66.3888888889, 200
508, 1111.11111111, -38.1944444444, 180
509, 1111.11111111, -38.1944444444, 190
510, 1111.11111111, -38.1944444444, 200
511, 1111.11111111, -10, 190
512, 1111.11111111, -10, 200
513, 1111.11111111, 0, 190
514, 1111.11111111, 0, 200
515, 1111.11111111, 10, 190
516, 1111.11111111, 10, 200
517, 1111.11111111, 35.9722222222, 180
518, 1111.11111111, 35.9722222222, 190
519, 1111.11111111, 35.9722222222, 200
520, 1111.11111111, 61.9444444444, 180
521, 1111.11111111, 61.9444444444, 190
522, 1111.11111111, 61.9444444444, 200
523, 1111.11111111, 87.9166666667, 180
524, 1111.11111111, 87.9166666667, 190
525, 1111.11111111, 87.9166666667, 200
526, 1111.11111111, 113.888888889, 180
527, 1111.11111111, 113.888888889, 190
528, 1111.11111111, 113.888888889, 200
529, 1222.22222222, -10, 48.8888888889
530, 1222.22222222, 0, 48.8888888889
531, 1222.22222222, -10, 75.1111111111
532, 1222.22222222, 0, 75.1111111111
533, 1222.22222222, -10, 101.333333333
534, 1222.22222222, 0, 101.333333333
535, 1222.22222222, -10, 127.555555556
536, 1222.22222222, 0, 127.555555556
537, 1222.22222222, -10, 153.777777778
538, 1222.22222222, 0, 153.777777778
539, 1222.22222222, -10, 180
540, 1222.22222222, 0, 180
541, 1222.22222222, 10, 48.8888888889
542, 1222.22222222, 10, 75.1111111111
543, 1222.22222222, 10, 101.333333333
544, 1222.22222222, 10, 127.555555556
545, 1222.22222222, 10, 153.777777778
546, 1222.22222222, 10, 180
547, 1222.22222222, -128.055555556, 180
548, 1222.22222222, -98.5416666667, 180
549, 1222.22222222, -128.055555556, 190
550, 1222.22222222, -98.5416666667, 190
551, 1222.22222222, -128.055555556, 200
552, 1222.22222222, -98.5416666667, 200
553, 1222.22222222, -69.0277777778, 180
554, 1222.22222222, -69.0277777778, 190
555, 1222.22222222, -69.0277777778, 200
556, 1222.22222222, -39.5138888889, 180
557, 1222.22222222, -39.5138888889, 190
558, 1222.22222222, -39.5138888889, 200
559, 1222.22222222, -10, 190
560, 1222.22222222, -10, 200
561, 1222.22222222, 0, 190
562, 1222.22222222, 0, 200
563, 1222.22222222, 10, 190
564, 1222.22222222, 10, 200
565, 1222.22222222, 34.4444444444, 180
566, 1222.22222222, 34.4444444444, 190
567, 1222.22222222, 34.4444444444, 200
568, 1222.22222222, 58.8888888889, 180
569, 1222.22222222, 58.8888888889, 190
570, 1222.22222222, 58.8888888889, 200
571, 1222.22222222, 83.3333333333, 180
572, 1222.22222222, 83.3333333333, 190
573, 1222.22222222, 83.3333333333, 200
574, 1222.22222222, 107.777777778, 180
575, 1222.22222222, 107.777777778, 190
576, 1222.22222222, 107.777777778, 200
577, 1333.33333333, -10, 53.3333333333
578, 1333.33333333, 0, 53.3333333333
579, 1333.33333333, -10, 78.6666666667
580, 1333.33333333, 0, 78.6666666667
581, 1333.33333333, -10, 104
582, 1333.33333333, 0, 104
583, 1333.33333333, -10, 129.333333333
584, 1333.33333333, 0, 129.333333333
585, 1333.33333333, -10, 154.666666667
586, 1333.33333333, 0, 154.666666667
587, 1333.33333333, -10, 180
588, 1333.33333333, 0, 180
589, 1333.33333333, 10, 53.3333333333
590, 1333.33333333, 10, 78.6666666667
591, 1333.33333333, 10, 104
592, 1333.33333333, 10, 129.333333333
593, 1333.33333333, 10, 154.666666667
594, 1333.33333333, 10, 180
595, 1333.33333333, -133.333333333, 180
596, 1333.33333333, -102.5, 180
597, 1333.33333333, -133.333333333, 190
598, 1333.33333333, -102.5, 190
599, 1333.33333333, -133.333333333, 200
600, 1333.33333333, -102.5, 200
601, 1333.33333333, -71.6666666667, 180
602, 1333.33333333, -71.6666666667, 190
603, 1333.33333333, -71.6666666667, 200
604, 1333.33333333, -40.8333333333, 180
605, 1333.33333333, -40.8333333333, 190
606, 1333.33333333, -40.8333333333, 200
607, 1333.33333333, -10, 190
608, 1333.33333333, -10, 200
609, 1333.33333333, 0, 190
610, 1333.33333333, 0, 200
611, 1333.33333333, 10, 190
612, 1333.33333333, 10, 200
613, 1333.33333333, 32.9166666667, 180
614, 1333.33333333, 32.9166666667, 190
615, 1333.33333333, 32.9166666667, 200
616, 1333.33333333, 55.8333333333, 180
617, 1333.33333333, 55.8333333333, 190
618, 1333.33333333, 55.8333333333, 200
619, 1333.33333333, 78.75, 180
620, 1333.33333333, 78.75, 190
621, 1333.33333333, 78.75, 200
622, 1333.33333333, 101.666666667, 180
623, 1333.33333333, 101.666666667, 190
624, 1333.33333333, 101.666666667, 200
625, 1444.44444444, -10, 57.7777777778
626, 1444.44444444, 0, 57.7777777778
627, 1444.44444444, -10, 82.2222222222
628, 1444.44444444, 0, 82.2222222222
629, 1444.44444444, -10, 106.666666667
630, 1444.44444444, 0, 106.666666667
631, 1444.44444444, -10, 131.111111111
632, 1444.44444444, 0, 131.111111111
633, 1444.44444444, -10, 155.555555556
634, 1444.44444444, 0, 155.555555556
635, 1444.44444444, -10, 180
636, 1444.44444444, 0, 180
637, 1444.44444444, 10, 57.7777777778
638, 1444.44444444, 10, 82.2222222222
639, 1444.44444444, 10, 106.666666667
640, 1444.44444444, 10, 131.111111111
641, 1444.44444444, 10, 155.555555556
642, 1444.44444444, 10, 180
643, 1444.44444444, -138.611111111, 180
644, 1444.44444444, -106.458333333, 180
645, 1444.44444444, -138.611111111, 190
646, 1444.44444444, -106.458333333, 190
647, 1444.44444444, -138.611111111, 200
648, 1444.44444444, -106.458333333, 200
649, 1444.44444444, -74.3055555556, 180
650, 1444.44444444, -74.3055555556, 190
651, 1444.44444444, -74.3055555556, 200
652, 1444.44444444, -42.1527777778, 180
653, 1444.44444444, -42.1527777778, 190
654, 1444.44444444, -42.1527777778, 200
655, 1444.44444444, -10, 190
656, 1444.44444444, -10, 200
657, 1444.44444444, 0, 190
658, 1444.44444444, 0, 200
659, 1444.44444444, 10, 190
660, 1444.44444444, 10, 200
661, 1444.44444444, 31.3888888889, 180
662, 1444.44444444, 31.3888888889, 190
663, 1444.44444444, 31.3888888889, 200
664, 1444.44444444, 52.7777777778, 180
665, 1444.44444444, 52.7777777778, 190
666, 1444.44444444, 52.7777777778, 200
667, 1444.44444444, 74.1666666667, 180
668, 1444.44444444, 74.1666666667, 190
669, 1444.44444444, 74.1666666667, 200
670, 1444.44444444, 95.5555555556, 180
671, 1444.44444444, 95.5555555556, 190
672, 1444.44444444, 95.5555555556, 200
673, 1555.55555556, -10, 62.2222222222
674, 1555.55555556, 0, 62.2222222222
675, 1555.55555556, -10, 85.7777777778
676, 1555.55555556, 0, 85.7777777778
677, 1555.55555556, -10, 109.333333333
678, 1555.55555556, 0, 109.333333333
679, 1555.55555556, -10, 132.888888889
680, 1555.55555556, 0, 132.888888889
681, 1555.55555556, -10, 156.444444444
682, 1555.55555556, 0, 156.444444444
683, 1555.55555556, -10, 180
684, 1555.55555556, 0, 180
685, 1555.55555556, 10, 62.2222222222
686, 1555.55555556, 10, 85.7777777778
687, 1555.55555556, 10, 109.333333333
688, 1555.55555556, 10, 132.888888889
689, 1555.55555556, 10, 156.444444444
690, 1555.55555556, 10, 180
691, 1555.55555556, -143.888888889, 180
692, 1555.55555556, -110.416666667, 180
693, 1555.55555556, -143.888888889, 190
694, 1555.55555556, -110.416666667, 190
695, 1555.55555556, -143.888888889, 200
696, 1555.55555556, -110.416666667, 200
697, 1555.55555556, -76.9444444444, 180
698, 1555.55555556, -76.9444444444, 190
699, 1555.55555556, -76.9444444444, 200
700, 1555.55555556, -43.4722222222, 180
701, 1555.55555556, -43.4722222222, 190
702, 1555.55555556, -43.4722222222, 200
703, 1555.55555556, -10, 190
704, 1555.55555556, -10, 200
705, 1555.55555556, 0, 190
706, 1555.55555556, 0, 200
707, 1555.55555556, 10, 190
708, 1555.55555556, 10, 200
709, 1555.55555556, 29.8611111111, 180
710, 1555.55555556, 29.8611111111, 190
711, 1555.55555556, 29.8611111111, 200
712, 1555.55555556, 49.7222222222, 180
713, 1555.55555556, 49.7222222222, 190
714, 1555.55555556, 49.7222222222, 200
715, 1555.55555556, 69.5833333333, 180
716, 1555.55555556, 69.5833333333, 190
717, 1555.55555556, 69.5833333333, 200
718, 1555.55555556, 89.4444444444, 180
719, 1555.55555556, 89.4444444444, 190
720, 1555.55555556, 89.4444444444, 200
721, 1666.66666667, -10, 66.6666666667
722, 1666.66666667, 0, 66.6666666667
723, 1666.66666667, -10, 89.3333333333
724, 1666.66666667, 0, 89.3333333333
725, 1666.66666667, -10, 112
726, 1666.66666667, 0, 112
727, 1666.66666667, -10, 134.666666667
728, 1666.66666667, 0, 134.666666667
729, 1666.66666667, -10, 157.333333333
730, 1666.66666667, 0, 157.333333333
731, 1666.66666667, -10, 180
732, 1666.66666667, 0, 180
733, 1666.66666667, 10, 66.6666666667
734, 1666.66666667, 10, 89.3333333333
735, 1666.66666667, 10, 112
736, 1666.66666667, 10, 134.666666667
737, 1666.66666667, 10, 157.333333333
738, 1666.66666667, 10, 180
739, 1666.66666667, -149.166666667, 180
740, 1666.66666667, -114.375, 180
741, 1666.66666667, -149.166666667, 190
742, 1666.66666667, -114.375, 190
743, 1666.66666667, -149.166666667, 200
744, 1666.66666667, -114.375, 200
745, 1666.66666667, -79.5833333333, 180
746, 1666.66666667, -79.5833333333, 190
747, 1666.66666667, -79.5833333333, 200
748, 1666.66666667, -44.7916666667, 180
749, 1666.66666667, -44.7916666667, 190
750, 1666.66666667, -44.7916666667, 200
751, 1666.66666667, -10, 190
752, 1666.66666667, -10, 200
753, 1666.66666667, 0, 190
754, 1666.66666667, 0, 200
755, 1666.66666667, 10, 190
756, 1666.66666667, 10, 200
757, 1666.66666667, 28.3333333333, 180
758, 1666.66666667, 28.3333333333, 190
759, 1666.66666667, 28.3333333333, 200
760, 1666.66666667, 46.6666666667, 180
761, 1666.66666667, 46.6666666667, 190
762, 1666.66666667, 46.6666666667, 200
763, 1666.66666667, 65, 180
764, 1666.66666667, 65, 190
765, 1666.66666667, 65, 200
766, 1666.66666667, 83.3333333333, 180
767, 1666.66666667, 83.3333333333, 190
768, 1666.66666667, 83.3333333333, 200
769, 1777.77777778, -10, 71.1111111111
770, 1777.77777778, 0, 71.1111111111
771, 1777.77777778, -10, 92.8888888889
772, 1777.77777778, 0, 92.8888888889
773, 1777.77777778, -10, 114.666666667
774, 1777.77777778, 0, 114.666666667
775, 1777.77777778, -10, 136.444444444
776, 1777.77777778, 0, 136.444444444
777, 1777.77777778, -10, 158.222222222
778, 1777.77777778, 0, 158.222222222
779, 1777.77777778, -10, 180
780, 1777.77777778, 0, 180
781, 1777.77777778, 10, 71.1111111111
782, 1777.77777778, 10, 92.8888888889
783, 1777.77777778, 10, 114.666666667
784, 1777.77777778, 10, 136.444444444
785, 1777.77777778, 10, 158.222222222
786, 1777.77777778, 10, 180
787, 1777.77777778, -154.444444444, 180
788, 1777.77777778, -118.333333333, 180
789, 1777.77777778, -154.444444444, 190
790, 1777.77777778, -118.333333333, 190
791, 1777.77777778, -154.444444444, 200
792, 1777.77777778, -118.333333333, 200
793, 1777.77777778, -82.2222222222, 180
794, 1777.77777778, -82.2222222222, 190
795, 1777.77777778, -82.2222222222, 200
796, 1777.77777778, -46.1111111111, 180
797, 1777.77777778, -46.1111111111, 190
798, 1777.77777778, -46.1111111111, 200
799, 1777.77777778, -10, 190
800, 1777.77777778, -10, 200
801, 1777.77777778, 0, 190
802, 1777.77777778, 0, 200
803, 1777.77777778, 10, 190
804, 1777.77777778, 10, 200
805, 1777.77777778, 26.8055555556, 180
806, 1777.77777778, 26.8055555556, 190
807, 1777.77777778, 26.8055555556, 200
808, 1777.77777778, 43.6111111111, 180
809, 1777.77777778, 43.6111111111, 190
810, 1777.77777778, 43.6111111111, 200
811, 1777.77777778, 60.4166666667, 180
812, 1777.77777778, 60.4166666667, 190
813, 1777.77777778, 60.4166666667, 200
814, 1777.77777778, 77.2222222222, 180
815, 1777.77777778, 77.2222222222, 190
816, 1777.77777778, 77.2222222222, 200
817, 1888.88888889, -10, 75.5555555556
818, 1888.88888889, 0, 75.5555555556
819, 1888.88888889, -10, 96.4444444444
820, 1888.88888889, 0, 96.4444444444
821, 1888.88888889, -10, 117.333333333
822, 1888.88888889, 0, 117.333333333
823, 1888.88888889, -10, 138.222222222
824, 1888.88888889, 0, 138.222222222
825, 1888.88888889, -10, 159.111111111
826, 1888.88888889, 0, 159.111111111
827, 1888.88888889, -10, 180
828, 1888.88888889, 0, 180
829, 1888.88888889, 10, 75.5555555556
830, 1888.88888889, 10, 96.4444444444
831, 1888.88888889, 10, 117.333333333
832, 1888.88888889, 10, 138.222222222
833, 1888.88888889, 10, 159.111111111
834, 1888.88888889, 10, 180
835, 1888.88888889, -159.722222222, 180
836, 1888.88888889, -122.291666667, 180
837, 1888.88888889, -159.722222222, 190
838, 1888.88888889, -122.291666667, 190
839, 1888.88888889, -159.722222222, 200
840, 1888.88888889, -122.291666667, 200
841, 1888.88888889, -84.8611111111, 180
842, 1888.88888889, -84.8611111111, 190
843, 1888.88888889, -84.8611111111, 200
844, 1888.88888889, -47.4305555556, 180
845, 1888.88888889, -47.4305555556, 190
846, 1888.88888889, -47.4305555556, 200
847, 1888.88888889, -10, 190
848, 1888.88888889, -10, 200
849, 1888.88888889, 0, 190
850, 1888.88888889, 0, 200
851, 1888.88888889, 10, 190
852, 1888.88888889, 10, 200
853, 1888.88888889, 25.2777777778, 180
854, 1888.88888889, 25.2777777778, 190
855, 1888.88888889, 25.2777777778, 200
856, 1888.88888889, 40.5555555556, 180
857, 1888.88888889, 40.5555555556, 190
858, 1888.88888889, 40.5555555556, 200
859, 1888.88888889, 55.8333333333, 180
860, 1888.88888889, 55.8333333333, 190
861, 1888.88888889, 55.8333333333, 200
862, 1888.88888889, 71.1111111111, 180
863, 1888.88888889, 71.1111111111, 190
864, 1888.88888889, 71.1111111111, 200
865, 2000, -10, 80
866, 2000, 0, 80
867, 2000, -10, 100
868, 2000, 0, 100
869, 2000, -10, 120
870, 2000, 0, 120
871, 2000, -10, 140
872, 2000, 0, 140
873, 2000, -10, 160
874, 2000, 0, 160
875, 2000, -10, 180
876, 2000, 0, 180
877, 2000, 10, 80
878, 2000, 10, 100
879, 2000, 10, 120
880, 2000, 10, 140
881, 2000, 10, 160
882, 2000, 10, 180
883, 2000, -165, 180
884, 2000, -126.25, 180
885, 2000, -165, 190
886, 2000, -126.25, 190
887, 2000, -165, 200
888, 2000, -126.25, 200
889, 2000, -87.5, 180
890, 2000, -87.5, 190
891, 2000, -87.5, 200
892, 2000, -48.75, 180
893, 2000, -48.75, 190
894, 2000, -48.75, 200
895, 2000, -10, 190
896, 2000, -10, 200
897, 2000, 0, 190
898, 2000, 0, 200
899, 2000, 10, 190
900, 2000, 10, 200
901, 2000, 23.75, 180
902, 2000, 23.75, 190
903, 2000, 23.75, 200
904, 2000, 37.5, 180
905, 2000, 37.5, 190
906, 2000, 37.5, 200
907, 2000, 51.25, 180
908, 2000, 51.25, 190
909, 2000, 51.25, 200
910, 2000, 65, 180
911, 2000, 65, 190
912, 2000, 65, 200
913, 0, -10, 18
914, 0, -5, 0
915, 0, -5, 18
916, 0, -5, 36
917, 0, 0, 18
918, 55.5555555556, -10, 2.22222222222
919, 55.5555555556, -10, 20
920, 55.5555555556, -10, 37.7777777778
921, 55.5555555556, -5, 2.22222222222
922, 55.5555555556, -5, 20
923, 55.5555555556, -5, 37.7777777778
924, 55.5555555556, 0, 2.22222222222
925, 55.5555555556, 0, 20
926, 55.5555555556, 0, 37.7777777778
927, 111.111111111, -10, 22
928, 111.111111111, -5, 4.44444444444
929, 111.111111111, -5, 22
930, 111.111111111, -5, 39.5555555556
931, 111.111111111, 0, 22
932, 0, 5, 0
933, 0, 5, 18
934, 0, 5, 36
935, 0, 10, 18
936, 55.5555555556, 5, 2.22222222222
937, 55.5555555556, 5, 20
938, 55.5555555556, 5, 37.7777777778
939, 55.5555555556, 10, 2.22222222222
940, 55.5555555556, 10, 20
941, 55.5555555556, 10, 37.7777777778
942, 111.111111111, 5, 4.44444444444
943, 111.111111111, 5, 22
944, 111.111111111, 5, 39.5555555556
945, 111.111111111, 10, 22
946, 166.666666667, -10, 6.66666666667
947, 166.666666667, -10, 24
948, 166.666666667, -10, 41.3333333333
949, 166.666666667, -5, 6.66666666667
950, 166.666666667, -5, 24
951, 166.666666667, -5, 41.3333333333
952, 166.666666667, 0, 6.66666666667
953, 166.666666667, 0, 24
954, 166.666666667, 0, 41.3333333333
955, 222.222222222, -10, 26
956, 222.222222222, -5, 8.88888888889
957, 222.222222222, -5, 26
958, 222.222222222, -5, 43.1111111111
959, 222.222222222, 0, 26
960, 166.666666667, 5, 6.66666666667
961, 166.666666667, 5, 24
962, 166.666666667, 5, 41.3333333333
963, 166.666666667, 10, 6.66666666667
964, 166.666666667, 10, 24
965, 166.666666667, 10, 41.3333333333
966, 222.222222222, 5, 8.88888888889
967, 222.222222222, 5, 26
968, 222.222222222, 5, 43.1111111111
969, 222.222222222, 10, 26
970, 333.333333333, 0, 30
971, 333.333333333, 5, 13.3333333333
972, 333.333333333, 5, 30
973, 333.333333333, 5, 46.6666666667
974, 333.333333333, 10, 30
975, 388.888888889, 0, 15.5555555556
976, 388.888888889, 0, 32
977, 388.888888889, 0, 48.4444444444
978, 388.888888889, 5, 15.5555555556
979, 388.888888889, 5, 32
980, 388.888888889, 5, 48.4444444444
981, 388.888888889, 10, 15.5555555556
982, 388.888888889, 10, 32
983, 388.888888889, 10, 48.4444444444
984, 444.444444444, 0, 34
985, 444.444444444, 5, 17.7777777778
986, 444.444444444, 5, 34
987, 444.444444444, 5, 50.2222222222
988, 444.444444444, 10, 34
989, 888.888888889, -10, 50
990, 888.888888889, -5, 35.5555555556
991, 888.888888889, -5, 50
992, 888.888888889, -5, 64.4444444444
993, 888.888888889, 0, 50
994, 944.444444444, -10, 37.7777777778
995, 944.444444444, -10, 52
996, 944.444444444, -10, 66.2222222222
997, 944.444444444, -5, 37.7777777778
998, 944.444444444, -5, 52
999, 944.444444444, -5, 66.2222222222
1000, 944.444444444, 0, 37.7777777778
1001, 944.444444444, 0, 52
1002, 944.444444444, 0, 66.2222222222
1003, 1000, -10, 54
1004, 1000, -5, 40
1005, 1000, -5, 54
1006, 1000, -5, 68
1007, 1000, 0, 54
1008, 888.888888889, 5, 35.5555555556
1009, 888.888888889, 5, 50
1010, 888.888888889, 5, 64.4444444444
1011, 888.888888889, 10, 50
1012, 944.444444444, 5, 37.7777777778
1013, 944.444444444, 5, 52
1014, 944.444444444, 5, 66.2222222222
1015, 944.444444444, 10, 37.7777777778
1016, 944.444444444, 10, 52
1017, 944.444444444, 10, 66.2222222222
1018, 1000, 5, 40
1019, 1000, 5, 54
1020, 1000, 5, 68
1021, 1000, 10, 54
1022, 1055.55555556, -10, 42.2222222222
1023, 1055.55555556, -10, 56
1024, 1055.55555556, -10, 69.7777777778
1025, 1055.55555556, -5, 42.2222222222
1026, 1055.55555556, -5, 56
1027, 1055.55555556, -5, 69.7777777778
1028, 1055.55555556, 0, 42.2222222222
1029, 1055.55555556, 0, 56
1030, 1055.55555556, 0, 69.7777777778
1031, 1111.11111111, -10, 58
1032, 1111.11111111, -5, 44.4444444444
1033, 1111.11111111, -5, 58
1034, 1111.11111111, -5, 71.5555555556
1035, 1111.11111111, 0, 58
1036, 1055.55555556, 5, 42.2222222222
1037, 1055.55555556, 5, 56
1038, 1055.55555556, 5, 69.7777777778
1039, 1055.55555556, 10, 42.2222222222
1040, 1055.55555556, 10, 56
1041, 1055.55555556, 10, 69.7777777778
1042, 1111.11111111, 5, 44.4444444444
1043, 1111.11111111, 5, 58
1044, 1111.11111111, 5, 71.5555555556
1045, 1111.11111111, 10, 58
1046, 1166.66666667, -10, 46.6666666667
1047, 1166.66666667, -10, 60
1048, 1166.66666667, -10, 73.3333333333
1049, 1166.66666667, -5, 46.6666666667
1050, 1166.66666667, -5, 60
1051, 1166.66666667, -5, 73.3333333333
1052, 1166.66666667, 0, 46.6666666667
1053, 1166.66666667, 0, 60
1054, 1166.66666667, 0, 73.3333333333
1055, 1222.22222222, -10, 62
1056, 1222.22222222, -5, 48.8888888889
1057, 1222.22222222, -5, 62
1058, 1222.22222222, -5, 75.1111111111
1059, 1222.22222222, 0, 62
1060, 1166.66666667, 5, 46.6666666667
1061, 1166.66666667, 5, 60
1062, 1166.66666667, 5, 73.3333333333
1063, 1166.66666667, 10, 46.6666666667
1064, 1166.66666667, 10, 60
1065, 1166.66666667, 10, 73.3333333333
1066, 1222.22222222, 5, 48.8888888889
1067, 1222.22222222, 5, 62
1068, 1222.22222222, 5, 75.1111111111
1069, 1222.22222222, 10, 62
1070, 1111.11111111, -122.777777778, 185
1071, 1111.11111111, -108.680555556, 180
1072, 1111.11111111, -108.680555556, 185
1073, 1111.11111111, -108.680555556, 190
1074, 1111.11111111, -94.5833333333, 185
1075, 1166.66666667, -125.416666667, 180
1076, 1166.66666667, -125.416666667, 185
1077, 1166.66666667, -125.416666667, 190
1078, 1166.66666667, -110.989583333, 180
1079, 1166.66666667, -110.989583333, 185
1080, 1166.66666667, -110.989583333, 190
1081, 1166.66666667, -96.5625, 180
1082, 1166.66666667, -96.5625, 185
1083, 1166.66666667, -96.5625, 190
1084, 1222.22222222, -128.055555556, 185
1085, 1222.22222222, -113.298611111, 180
1086, 1222.22222222, -113.298611111, 185
1087, 1222.22222222, -113.298611111, 190
1088, 1222.22222222, -98.5416666667, 185
1089, 1111.11111111, -122.777777778, 195
1090, 1111.11111111, -108.680555556, 195
1091, 1111.11111111, -108.680555556, 200
1092, 1111.11111111, -94.5833333333, 195
1093, 1166.66666667, -125.416666667, 195
1094, 1166.66666667, -125.416666667, 200
1095, 1166.66666667, -110.989583333, 195
1096, 1166.66666667, -110.989583333, 200
1097, 1166.66666667, -96.5625, 195
1098, 1166.66666667, -96.5625, 200
1099, 1222.22222222, -128.055555556, 195
1100, 1222.22222222, -113.298611111, 195
1101, 1222.22222222, -113.298611111, 200
1102, 1222.22222222, -98.5416666667, 195
1103, 1277.77777778, -10, 51.1111111111
1104, 1277.77777778, -10, 64
1105, 1277.77777778, -10, 76.8888888889
1106, 1277.77777778, -5, 51.1111111111
1107, 1277.77777778, -5, 64
1108, 1277.77777778, -5, 76.8888888889
1109, 1277.77777778, 0, 51.1111111111
1110, 1277.77777778, 0, 64
1111, 1277.77777778, 0, 76.8888888889
1112, 1333.33333333, -10, 66
1113, 1333.33333333, -5, 53.3333333333
1114, 1333.33333333, -5, 66
1115, 1333.33333333, -5, 78.6666666667
1116, 1333.33333333, 0, 66
1117, 1277.77777778, 5, 51.1111111111
1118, 1277.77777778, 5, 64
1119, 1277.77777778, 5, 76.8888888889
1120, 1277.77777778, 10, 51.1111111111
1121, 1277.77777778, 10, 64
1122, 1277.77777778, 10, 76.8888888889
1123, 1333.33333333, 5, 53.3333333333
1124, 1333.33333333, 5, 66
1125, 1333.33333333, 5, 78.6666666667
1126, 1333.33333333, 10, 66
1127, 1277.77777778, -130.694444444, 180
1128, 1277.77777778, -130.694444444, 185
1129, 1277.77777778, -130.694444444, 190
1130, 1277.77777778, -115.607638889, 180
1131, 1277.77777778, -115.607638889, 185
1132, 1277.77777778, -115.607638889, 190
1133, 1277.77777778, -100.520833333, 180
1134, 1277.77777778, -100.520833333, 185
1135, 1277.77777778, -100.520833333, 190
1136, 1333.33333333, -133.333333333, 185
1137, 1333.33333333, -117.916666667, 180
1138, 1333.33333333, -117.916666667, 185
1139, 1333.33333333, -117.916666667, 190
1140, 1333.33333333, -102.5, 185
1141, 1277.77777778, -130.694444444, 195
1142, 1277.77777778, -130.694444444, 200
1143, 1277.77777778, -115.607638889, 195
1144, 1277.77777778, -115.607638889, 200
1145, 1277.77777778, -100.520833333, 195
1146, 1277.77777778, -100.520833333, 200
1147, 1333.33333333, -133.333333333, 195
1148, 1333.33333333, -117.916666667, 195
1149, 1333.33333333, -117.916666667, 200
1150, 1333.33333333, -102.5, 195
1151, 1222.22222222, 83.3333333333, 185
1152, 1222.22222222, 95.5555555556, 180
1153, 1222.22222222, 95.5555555556, 185
1154, 1222.22222222, 95.5555555556, 190
1155, 1222.22222222, 107.777777778, 185
1156, 1277.77777778, 81.0416666667, 180
1157, 1277.77777778, 81.0416666667, 185
1158, 1277.77777778, 81.0416666667, 190
1159, 1277.77777778, 92.8819444444, 180
1160, 1277.77777778, 92.8819444444, 185
1161, 1277.77777778, 92.8819444444, 190
1162, 1277.77777778, 104.722222222, 180
1163, 1277.77777778, 104.722222222, 185
1164, 1277.77777778, 104.722222222, 190
1165, 1333.33333333, 78.75, 185
1166, 1333.33333333, 90.2083333333, 180
1167, 1333.33333333, 90.2083333333, 185
1168, 1333.33333333, 90.2083333333, 190
1169, 1333.33333333, 101.666666667, 185
1170, 1222.22222222, 83.3333333333, 195
1171, 1222.22222222, 95.5555555556, 195
1172, 1222.22222222, 95.5555555556, 200
1173, 1222.22222222, 107.777777778, 195
1174, 1277.77777778, 81.0416666667, 195
1175, 1277.77777778, 81.0416666667, 200
1176, 1277.77777778, 92.8819444444, 195
1177, 1277.77777778, 92.8819444444, 200
1178, 1277.77777778, 104.722222222, 195
1179, 1277.77777778, 104.722222222, 200
1180, 1333.33333333, 78.75, 195
1181, 1333.33333333, 90.2083333333, 195
1182, 1333.33333333, 90.2083333333, 200
1183, 1333.33333333, 101.666666667, 195
1184, 1388.88888889, -10, 55.5555555556
1185, 1388.88888889, -10, 68
1186, 1388.88888889, -10, 80.4444444444
1187, 1388.88888889, -5, 55.5555555556
1188, 1388.88888889, -5, 68
1189, 1388.88888889, -5, 80.4444444444
1190, 1388.88888889, 0, 55.5555555556
1191, 1388.88888889, 0, 68
1192, 1388.88888889, 0, 80.4444444444
1193, 1444.44444444, -10, 70
1194, 1444.44444444, -5, 57.7777777778
1195, 1444.44444444, -5, 70
1196, 1444.44444444, -5, 82.2222222222
1197, 1444.44444444, 0, 70
1198, 1388.88888889, 5, 55.5555555556
1199, 1388.88888889, 5, 68
1200, 1388.88888889, 5, 80.4444444444
1201, 1388.88888889, 10, 55.5555555556
1202, 1388.88888889, 10, 68
1203, 1388.88888889, 10, 80.4444444444
1204, 1444.44444444, 5, 57.7777777778
1205, 1444.44444444, 5, 70
1206, 1444.44444444, 5, 82.2222222222
1207, 1444.44444444, 10, 70
1208, 1388.88888889, -135.972222222, 180
1209, 1388.88888889, -135.972222222, 185
1210, 1388.88888889, -135.972222222, 190
1211, 1388.88888889, -120.225694444, 180
1212, 1388.88888889, -120.225694444, 185
1213, 1388.88888889, -120.225694444, 190
1214, 1388.88888889, -104.479166667, 180
1215, 1388.88888889, -104.479166667, 185
1216, 1388.88888889, -104.479166667, 190
1217, 1444.44444444, -138.611111111, 185
1218, 1444.44444444, -122.534722222, 180
1219, 1444.44444444, -122.534722222, 185
1220, 1444.44444444, -122.534722222, 190
1221, 1444.44444444, -106.458333333, 185
1222, 1388.88888889, -135.972222222, 195
1223, 1388.88888889, -135.972222222, 200
1224, 1388.88888889, -120.225694444, 195
1225, 1388.88888889, -120.225694444, 200
1226, 1388.88888889, -104.479166667, 195
1227, 1388.88888889, -104.479166667, 200
1228, 1444.44444444, -138.611111111, 195
1229, 1444.44444444, -122.534722222, 195
1230, 1444.44444444, -122.534722222, 200
1231, 1444.44444444, -106.458333333, 195
1232, 1388.88888889, 76.4583333333, 180
1233, 1388.88888889, 76.4583333333, 185
1234, 1388.88888889, 76.4583333333, 190
1235, 1388.88888889, 87.5347222222, 180
1236, 1388.88888889, 87.5347222222, 185
1237, 1388.88888889, 87.5347222222, 190
1238, 1388.88888889, 98.6111111111, 180
1239, 1388.88888889, 98.6111111111, 185
1240, 1388.88888889, 98.6111111111, 190
1241, 1444.44444444, 74.1666666667, 185
1242, 1444.44444444, 84.8611111111, 180
1243, 1444.44444444, 84.8611111111, 185
1244, 1444.44444444, 84.8611111111, 190
1245, 1444.44444444, 95.5555555556, 185
1246, 1388.88888889, 76.4583333333, 195
1247, 1388.88888889, 76.4583333333, 200
1248, 1388.88888889, 87.5347222222, 195
1249, 1388.88888889, 87.5347222222, 200
1250, 1388.88888889, 98.6111111111, 195
1251, 1388.88888889, 98.6111111111, 200
1252, 1444.44444444, 74.1666666667, 195
1253, 1444.44444444, 84.8611111111, 195
1254, 1444.44444444, 84.8611111111, 200
1255, 1444.44444444, 95.5555555556, 195
1256, 1500, -10, 60
1257, 1500, -10, 72
1258, 1500, -10, 84
1259, 1500, -5, 60
1260, 1500, -5, 72
1261, 1500, -5, 84
1262, 1500, 0, 60
1263, 1500, 0, 72
1264, 1500, 0, 84
1265, 1555.55555556, -10, 74
1266, 1555.55555556, -5, 62.2222222222
1267, 1555.55555556, -5, 74
1268, 1555.55555556, -5, 85.7777777778
1269, 1555.55555556, 0, 74
1270, 1500, 5, 60
1271, 1500, 5, 72
1272, 1500, 5, 84
1273, 1500, 10, 60
1274, 1500, 10, 72
1275, 1500, 10, 84
1276, 1555.55555556, 5, 62.2222222222
1277, 1555.55555556, 5, 74
1278, 1555.55555556, 5, 85.7777777778
1279, 1555.55555556, 10, 74
1280, 1500, -141.25, 180
1281, 1500, -141.25, 185
1282, 1500, -141.25, 190
1283, 1500, -124.84375, 180
1284, 1500, -124.84375, 185
1285, 1500, -124.84375, 190
1286, 1500, -108.4375, 180
1287, 1500, -108.4375, 185
1288, 1500, -108.4375, 190
1289, 1555.55555556, -143.888888889, 185
1290, 1555.55555556, -127.152777778, 180
1291, 1555.55555556, -127.152777778, 185
1292, 1555.55555556, -127.152777778, 190
1293, 1555.55555556, -110.416666667, 185
1294, 1500, -141.25, 195
1295, 1500, -141.25, 200
1296, 1500, -124.84375, 195
1297, 1500, -124.84375, 200
1298, 1500, -108.4375, 195
1299, 1500, -108.4375, 200
1300, 1555.55555556, -143.888888889, 195
1301, 1555.55555556, -127.152777778, 195
1302, 1555.55555556, -127.152777778, 200
1303, 1555.55555556, -110.416666667, 195
1304, 1500, 71.875, 180
1305, 1500, 71.875, 185
1306, 1500, 71.875, 190
1307, 1500, 82.1875, 180
1308, 1500, 82.1875, 185
1309, 1500, 82.1875, 190
1310, 1500, 92.5, 180
1311, 1500, 92.5, 185
1312, 1500, 92.5, 190
1313, 1555.55555556, 69.5833333333, 185
1314, 1555.55555556, 79.5138888889, 180
1315, 1555.55555556, 79.5138888889, 185
1316, 1555.55555556, 79.5138888889, 190
1317, 1555.55555556, 89.4444444444, 185
1318, 1500, 71.875, 195
1319, 1500, 71.875, 200
1320, 1500, 82.1875, 195
1321, 1500, 82.1875, 200
1322, 1500, 92.5, 195
1323, 1500, 92.5, 200
1324, 1555.55555556, 69.5833333333, 195
1325, 1555.55555556, 79.5138888889, 195
1326, 1555.55555556, 79.5138888889, 200
1327, 1555.55555556, 89.4444444444, 195
1328, 1611.11111111, -10, 64.4444444444
1329, 1611.11111111, -10, 76
1330, 1611.11111111, -10, 87.5555555556
1331, 1611.11111111, -5, 64.4444444444
1332, 1611.11111111, -5, 76
1333, 1611.11111111, -5, 87.5555555556
1334, 1611.11111111, 0, 64.4444444444
1335, 1611.11111111, 0, 76
1336, 1611.11111111, 0, 87.5555555556
1337, 1666.66666667, -10, 78
1338, 1666.66666667, -5, 66.6666666667
1339, 1666.66666667, -5, 78
1340, 1666.66666667, -5, 89.3333333333
1341, 1666.66666667, 0, 78
1342, 1555.55555556, -10, 168.222222222
1343, 1555.55555556, -5, 156.444444444
1344, 1555.55555556, -5, 168.222222222
1345, 1555.55555556, -5, 180
1346, 1555.55555556, 0, 168.222222222
1347, 1611.11111111, -10, 156.888888889
1348, 1611.11111111, -10, 168.444444444
1349, 1611.11111111, -10, 180
1350, 1611.11111111, -5, 156.888888889
1351, 1611.11111111, -5, 168.444444444
1352, 1611.11111111, -5, 180
1353, 1611.11111111, 0, 156.888888889
1354, 1611.11111111, 0, 168.444444444
1355, 1611.11111111, 0, 180
1356, 1666.66666667, -10, 168.666666667
1357, 1666.66666667, -5, 157.333333333
1358, 1666.66666667, -5, 168.666666667
1359, 1666.66666667, -5, 180
1360, 1666.66666667, 0, 168.666666667
1361, 1611.11111111, 5, 64.4444444444
1362, 1611.11111111, 5, 76
1363, 1611.11111111, 5, 87.5555555556
1364, 1611.11111111, 10, 64.4444444444
1365, 1611.11111111, 10, 76
1366, 1611.11111111, 10, 87.5555555556
1367, 1666.66666667, 5, 66.6666666667
1368, 1666.66666667, 5, 78
1369, 1666.66666667, 5, 89.3333333333
1370, 1666.66666667, 10, 78
1371, 1611.11111111, -146.527777778, 180
1372, 1611.11111111, -146.527777778, 185
1373, 1611.11111111, -146.527777778, 190
1374, 1611.11111111, -129.461805556, 180
1375, 1611.11111111, -129.461805556, 185
1376, 1611.11111111, -129.461805556, 190
1377, 1611.11111111, -112.395833333, 180
1378, 1611.11111111, -112.395833333, 185
1379, 1611.11111111, -112.395833333, 190
1380, 1666.66666667, -149.166666667, 185
1381, 1666.66666667, -131.770833333, 180
1382, 1666.66666667, -131.770833333, 185
1383, 1666.66666667, -131.770833333, 190
1384, 1666.66666667, -114.375, 185
1385, 1611.11111111, -146.527777778, 195
1386, 1611.11111111, -146.527777778, 200
1387, 1611.11111111, -129.461805556, 195
1388, 1611.11111111, -129.461805556, 200
1389, 1611.11111111, -112.395833333, 195
1390, 1611.11111111, -112.395833333, 200
1391, 1666.66666667, -149.166666667, 195
1392, 1666.66666667, -131.770833333, 195
1393, 1666.66666667, -131.770833333, 200
1394, 1666.66666667, -114.375, 195
1395, 1611.11111111, 67.2916666667, 180
1396, 1611.11111111, 67.2916666667, 185
1397, 1611.11111111, 67.2916666667, 190
1398, 1611.11111111, 76.8402777778, 180
1399, 1611.11111111, 76.8402777778, 185
1400, 1611.11111111, 76.8402777778, 190
1401, 1611.11111111, 86.3888888889, 180
1402, 1611.11111111, 86.3888888889, 185
1403, 1611.11111111, 86.3888888889, 190
1404, 1666.66666667, 65, 185
1405, 1666.66666667, 74.1666666667, 180
1406, 1666.66666667, 74.1666666667, 185
1407, 1666.66666667, 74.1666666667, 190
1408, 1666.66666667, 83.3333333333, 185
1409, 1611.11111111, 67.2916666667, 195
1410, 1611.11111111, 67.2916666667, 200
1411, 1611.11111111, 76.8402777778, 195
1412, 1611.11111111, 76.8402777778, 200
1413, 1611.11111111, 86.3888888889, 195
1414, 1611.11111111, 86.3888888889, 200
1415, 1666.66666667, 65, 195
1416, 1666.66666667, 74.1666666667, 195
1417, 1666.66666667, 74.1666666667, 200
1418, 1666.66666667, 83.3333333333, 195
1419, 1722.22222222, -10, 68.8888888889
1420, 1722.22222222, -10, 80
1421, 1722.22222222, -10, 91.1111111111
1422, 1722.22222222, -5, 68.8888888889
1423, 1722.22222222, -5, 80
1424, 1722.22222222, -5, 91.1111111111
1425, 1722.22222222, 0, 68.8888888889
1426, 1722.22222222, 0, 80
1427, 1722.22222222, 0, 91.1111111111
1428, 1777.77777778, -10, 82
1429, 1777.77777778, -5, 71.1111111111
1430, 1777.77777778, -5, 82
1431, 1777.77777778, -5, 92.8888888889
1432, 1777.77777778, 0, 82
1433, 1722.22222222, -10, 157.777777778
1434, 1722.22222222, -10, 168.888888889
1435, 1722.22222222, -10, 180
1436, 1722.22222222, -5, 157.777777778
1437, 1722.22222222, -5, 168.888888889
1438, 1722.22222222, -5, 180
1439, 1722.22222222, 0, 157.777777778
1440, 1722.22222222, 0, 168.888888889
1441, 1722.22222222, 0, 180
1442, 1777.77777778, -10, 169.111111111
1443, 1777.77777778, -5, 158.222222222
1444, 1777.77777778, -5, 169.111111111
1445, 1777.77777778, -5, 180
1446, 1777.77777778, 0, 169.111111111
1447, 1722.22222222, 5, 68.8888888889
1448, 1722.22222222, 5, 80
1449, 1722.22222222, 5, 91.1111111111
1450, 1722.22222222, 10, 68.8888888889
1451, 1722.22222222, 10, 80
1452, 1722.22222222, 10, 91.1111111111
1453, 1777.77777778, 5, 71.1111111111
1454, 1777.77777778, 5, 82
1455, 1777.77777778, 5, 92.8888888889
1456, 1777.77777778, 10, 82
1457, 1722.22222222, -151.805555556, 180
1458, 1722.22222222, -151.805555556, 185
1459, 1722.22222222, -151.805555556, 190
1460, 1722.22222222, -134.079861111, 180
1461, 1722.22222222, -134.079861111, 185
1462, 1722.22222222, -134.079861111, 190
1463, 1722.22222222, -116.354166667, 180
1464, 1722.22222222, -116.354166667, 185
1465, 1722.22222222, -116.354166667, 190
1466, 1777.77777778, -154.444444444, 185
1467, 1777.77777778, -136.388888889, 180
1468, 1777.77777778, -136.388888889, 185
1469, 1777.77777778, -136.388888889, 190
1470, 1777.77777778, -118.333333333, 185
1471, 1722.22222222, -151.805555556, 195
1472, 1722.22222222, -151.805555556, 200
1473, 1722.22222222, -134.079861111, 195
1474, 1722.22222222, -134.079861111, 200
1475, 1722.22222222, -116.354166667, 195
1476, 1722.22222222, -116.354166667, 200
1477, 1777.77777778, -154.444444444, 195
1478, 1777.77777778, -136.388888889, 195
1479, 1777.77777778, -136.388888889, 200
1480, 1777.77777778, -118.333333333, 195
1481, 1666.66666667, 10, 195
1482, 1666.66666667, 19.1666666667, 190
1483, 1666.66666667, 19.1666666667, 195
1484, 1666.66666667, 19.1666666667, 200
1485, 1666.66666667, 28.3333333333, 195
1486, 1722.22222222, 10, 190
1487, 1722.22222222, 10, 195
1488, 1722.22222222, 10, 200
1489, 1722.22222222, 18.7847222222, 190
1490, 1722.22222222, 18.7847222222, 195
1491, 1722.22222222, 18.7847222222, 200
1492, 1722.22222222, 27.5694444444, 190
1493, 1722.22222222, 27.5694444444, 195
1494, 1722.22222222, 27.5694444444, 200
1495, 1777.77777778, 10, 195
1496, 1777.77777778, 18.4027777778, 190
1497, 1777.77777778, 18.4027777778, 195
1498, 1777.77777778, 18.4027777778, 200
1499, 1777.77777778, 26.8055555556, 195
1500, 1722.22222222, 62.7083333333, 180
1501, 1722.22222222, 62.7083333333, 185
1502, 1722.22222222, 62.7083333333, 190
1503, 1722.22222222, 71.4930555556, 180
1504, 1722.22222222, 71.4930555556, 185
1505, 1722.22222222, 71.4930555556, 190
1506, 1722.22222222, 80.2777777778, 180
1507, 1722.22222222, 80.2777777778, 185
1508, 1722.22222222, 80.2777777778, 190
1509, 1777.77777778, 60.4166666667, 185
1510, 1777.77777778, 68.8194444444, 180
1511, 1777.77777778, 68.8194444444, 185
1512, 1777.77777778, 68.8194444444, 190
1513, 1777.77777778, 77.2222222222, 185
1514, 1722.22222222, 62.7083333333, 195
1515, 1722.22222222, 62.7083333333, 200
1516, 1722.22222222, 71.4930555556, 195
1517, 1722.22222222, 71.4930555556, 200
1518, 1722.22222222, 80.2777777778, 195
1519, 1722.22222222, 80.2777777778, 200
1520, 1777.77777778, 60.4166666667, 195
1521, 1777.77777778, 68.8194444444, 195
1522, 1777.77777778, 68.8194444444, 200
1523, 1777.77777778, 77.2222222222, 195
1524, 1833.33333333, -10, 73.3333333333
1525, 1833.33333333, -10, 84
1526, 1833.33333333, -10, 94.6666666667
1527, 1833.33333333, -5, 73.3333333333
1528, 1833.33333333, -5, 84
1529, 1833.33333333, -5, 94.6666666667
1530, 1833.33333333, 0, 73.3333333333
1531, 1833.33333333, 0, 84
1532, 1833.33333333, 0, 94.6666666667
1533, 1888.88888889, -10, 86
1534, 1888.88888889, -5, 75.5555555556
1535, 1888.88888889, -5, 86
1536, 1888.88888889, -5, 96.4444444444
1537, 1888.88888889, 0, 86
1538, 1833.33333333, -10, 158.666666667
1539, 1833.33333333, -10, 169.333333333
1540, 1833.33333333, -10, 180
1541, 1833.33333333, -5, 158.666666667
1542, 1833.33333333, -5, 169.333333333
1543, 1833.33333333, -5, 180
1544, 1833.33333333, 0, 158.666666667
1545, 1833.33333333, 0, 169.333333333
1546, 1833.33333333, 0, 180
1547, 1888.88888889, -10, 169.555555556
1548, 1888.88888889, -5, 159.111111111
1549, 1888.88888889, -5, 169.555555556
1550, 1888.88888889, -5, 180
1551, 1888.88888889, 0, 169.555555556
1552, 1833.33333333, 5, 73.3333333333
1553, 1833.33333333, 5, 84
1554, 1833.33333333, 5, 94.6666666667
1555, 1833.33333333, 10, 73.3333333333
1556, 1833.33333333, 10, 84
1557, 1833.33333333, 10, 94.6666666667
1558, 1888.88888889, 5, 75.5555555556
1559, 1888.88888889, 5, 86
1560, 1888.88888889, 5, 96.4444444444
1561, 1888.88888889, 10, 86
1562, 1833.33333333, -157.083333333, 180
1563, 1833.33333333, -157.083333333, 185
1564, 1833.33333333, -157.083333333, 190
1565, 1833.33333333, -138.697916667, 180
1566, 1833.33333333, -138.697916667, 185
1567, 1833.33333333, -138.697916667, 190
1568, 1833.33333333, -120.3125, 180
1569, 1833.33333333, -120.3125, 185
1570, 1833.33333333, -120.3125, 190
1571, 1888.88888889, -159.722222222, 185
1572, 1888.88888889, -141.006944444, 180
1573, 1888.88888889, -141.006944444, 185
1574, 1888.88888889, -141.006944444, 190
1575, 1888.88888889, -122.291666667, 185
1576, 1833.33333333, -157.083333333, 195
1577, 1833.33333333, -157.083333333, 200
1578, 1833.33333333, -138.697916667, 195
1579, 1833.33333333, -138.697916667, 200
1580, 1833.33333333, -120.3125, 195
1581, 1833.33333333, -120.3125, 200
1582, 1888.88888889, -159.722222222, 195
1583, 1888.88888889, -141.006944444, 195
1584, 1888.88888889, -141.006944444, 200
1585, 1888.88888889, -122.291666667, 195
1586, 1833.33333333, 10, 190
1587, 1833.33333333, 10, 195
1588, 1833.33333333, 10, 200
1589, 1833.33333333, 18.0208333333, 190
1590, 1833.33333333, 18.0208333333, 195
1591, 1833.33333333, 18.0208333333, 200
1592, 1833.33333333, 26.0416666667, 190
1593, 1833.33333333, 26.0416666667, 195
1594, 1833.33333333, 26.0416666667, 200
1595, 1888.88888889, 10, 195
1596, 1888.88888889, 17.6388888889, 190
1597, 1888.88888889, 17.6388888889, 195
1598, 1888.88888889, 17.6388888889, 200
1599, 1888.88888889, 25.2777777778, 195
1600, 1833.33333333, 58.125, 180
1601, 1833.33333333, 58.125, 185
1602, 1833.33333333, 58.125, 190
1603, 1833.33333333, 66.1458333333, 180
1604, 1833.33333333, 66.1458333333, 185
1605, 1833.33333333, 66.1458333333, 190
1606, 1833.33333333, 74.1666666667, 180
1607, 1833.33333333, 74.1666666667, 185
1608, 1833.33333333, 74.1666666667, 190
1609, 1888.88888889, 55.8333333333, 185
1610, 1888.88888889, 63.4722222222, 180
1611, 1888.88888889, 63.4722222222, 185
1612, 1888.88888889, 63.4722222222, 190
1613, 1888.88888889, 71.1111111111, 185
1614, 1833.33333333, 58.125, 195
1615, 1833.33333333, 58.125, 200
1616, 1833.33333333, 66.1458333333, 195
1617, 1833.33333333, 66.1458333333, 200
1618, 1833.33333333, 74.1666666667, 195
1619, 1833.33333333, 74.1666666667, 200
1620, 1888.88888889, 55.8333333333, 195
1621, 1888.88888889, 63.4722222222, 195
1622, 1888.88888889, 63.4722222222, 200
1623, 1888.88888889, 71.1111111111, 195
1624, 1944.44444444, -10, 77.7777777778
1625, 1944.44444444, -10, 88
1626, 1944.44444444, -10, 98.2222222222
1627, 1944.44444444, -5, 77.7777777778
1628, 1944.44444444, -5, 88
1629, 1944.44444444, -5, 98.2222222222
1630, 1944.44444444, 0, 77.7777777778
1631, 1944.44444444, 0, 88
1632, 1944.44444444, 0, 98.2222222222
1633, 2000, -10, 90
1634, 2000, -5, 80
1635, 2000, -5, 90
1636, 2000, -5, 100
1637, 2000, 0, 90
1638, 1944.44444444, -10, 159.555555556
1639, 1944.44444444, -10, 169.777777778
1640, 1944.44444444, -10, 180
1641, 1944.44444444, -5, 159.555555556
1642, 1944.44444444, -5, 169.777777778
1643, 1944.44444444, -5, 180
1644, 1944.44444444, 0, 159.555555556
1645, 1944.44444444, 0, 169.777777778
1646, 1944.44444444, 0, 180
1647, 2000, -10, 170
1648, 2000, -5, 160
1649, 2000, -5, 170
1650, 2000, -5, 180
1651, 2000, 0, 170
1652, 1944.44444444, 5, 77.7777777778
1653, 1944.44444444, 5, 88
1654, 1944.44444444, 5, 98.2222222222
1655, 1944.44444444, 10, 77.7777777778
1656, 1944.44444444, 10, 88
1657, 1944.44444444, 10, 98.2222222222
1658, 2000, 5, 80
1659, 2000, 5, 90
1660, 2000, 5, 100
1661, 2000, 10, 90
1662, 1888.88888889, 5, 159.111111111
1663, 1888.88888889, 5, 169.555555556
1664, 1888.88888889, 5, 180
1665, 1888.88888889, 10, 169.555555556
1666, 1944.44444444, 5, 159.555555556
1667, 1944.44444444, 5, 169.777777778
1668, 1944.44444444, 5, 180
1669, 1944.44444444, 10, 159.555555556
1670, 1944.44444444, 10, 169.777777778
1671, 1944.44444444, 10, 180
1672, 2000, 5, 160
1673, 2000, 5, 170
1674, 2000, 5, 180
1675, 2000, 10, 170
1676, 1944.44444444, -162.361111111, 180
1677, 1944.44444444, -162.361111111, 185
1678, 1944.44444444, -162.361111111, 190
1679, 1944.44444444, -143.315972222, 180
1680, 1944.44444444, -143.315972222, 185
1681, 1944.44444444, -143.315972222, 190
1682, 1944.44444444, -124.270833333, 180
1683, 1944.44444444, -124.270833333, 185
1684, 1944.44444444, -124.270833333, 190
1685, 2000, -165, 185
1686, 2000, -145.625, 180
1687, 2000, -145.625, 185
1688, 2000, -145.625, 190
1689, 2000, -126.25, 185
1690, 1944.44444444, -162.361111111, 195
1691, 1944.44444444, -162.361111111, 200
1692, 1944.44444444, -143.315972222, 195
1693, 1944.44444444, -143.315972222, 200
1694, 1944.44444444, -124.270833333, 195
1695, 1944.44444444, -124.270833333, 200
1696, 2000, -165, 195
1697, 2000, -145.625, 195
1698, 2000, -145.625, 200
1699, 2000, -126.25, 195
1700, 1888.88888889, -47.4305555556, 185
1701, 1888.88888889, -28.7152777778, 180
1702, 1888.88888889, -28.7152777778, 185
1703, 1888.88888889, -28.7152777778, 190
1704, 1888.88888889, -10, 185
1705, 1944.44444444, -48.0902777778, 180
1706, 1944.44444444, -48.0902777778, 185
1707, 1944.44444444, -48.0902777778, 190
1708, 1944.44444444, -29.0451388889, 180
1709, 1944.44444444, -29.0451388889, 185
1710, 1944.44444444, -29.0451388889, 190
1711, 1944.44444444, -10, 185
1712, 1944.44444444, -10, 190
1713, 2000, -48.75, 185
1714, 2000, -29.375, 180
1715, 2000, -29.375, 185
1716, 2000, -29.375, 190
1717, 2000, -10, 185
1718, 1888.88888889, -47.4305555556, 195
1719, 1888.88888889, -28.7152777778, 195
1720, 1888.88888889, -28.7152777778, 200
1721, 1888.88888889, -10, 195
1722, 1944.44444444, -48.0902777778, 195
1723, 1944.44444444, -48.0902777778, 200
1724, 1944.44444444, -29.0451388889, 195
1725, 1944.44444444, -29.0451388889, 200
1726, 1944.44444444, -10, 195
1727, 1944.44444444, -10, 200
1728, 2000, -48.75, 195
1729, 2000, -29.375, 195
1730, 2000, -29.375, 200
1731, 2000, -10, 195
1732, 1944.44444444, 53.5416666667, 180
1733, 1944.44444444, 53.5416666667, 185
1734, 1944.44444444, 53.5416666667, 190
1735, 1944.44444444, 60.7986111111, 180
1736, 1944.44444444, 60.7986111111, 185
1737, 1944.44444444, 60.7986111111, 190
1738, 1944.44444444, 68.0555555556, 180
1739, 1944.44444444, 68.0555555556, 185
1740, 1944.44444444, 68.0555555556, 190
1741, 2000, 51.25, 185
1742, 2000, 58.125, 180
1743, 2000, 58.125, 185
1744, 2000, 58.125, 190
1745, 2000, 65, 185
1746, 1944.44444444, 53.5416666667, 195
1747, 1944.44444444, 53.5416666667, 200
1748, 1944.44444444, 60.7986111111, 195
1749, 1944.44444444, 60.7986111111, 200
1750, 1944.44444444, 68.0555555556, 195
1751, 1944.44444444, 68.0555555556, 200
1752, 2000, 51.25, 195
1753, 2000, 58.125, 195
1754, 2000, 58.125, 200
1755, 2000, 65, 195
*ELEMENT, TYPE=C3D8, ELSET=EALL
1, 1, 918, 921, 914, 913, 919, 922, 915
2, 913, 919, 922, 915, 5, 920, 923, 916
3, 914, 921, 924, 4, 915, 922, 925, 917
4, 915, 922, 925, 917, 916, 923, 926, 8
5, 918, 2, 928, 921, 919, 927, 929, 922
6, 919, 927, 929, 922, 920, 6, 930, 923
7, 921, 928, 3, 924, 922, 929, 931, 925
8, 922, 929, 931, 925, 923, 930, 7, 926
9, 5, 6, 7, 8, 9, 10, 11, 12
10, 9, 10, 11, 12, 13, 14, 15, 16
11, 13, 14, 15, 16, 17, 18, 19, 20
12, 17, 18, 19, 20, 21, 22, 23, 24
13, 4, 924, 936, 932, 917, 925, 937, 933
14, 917, 925, 937, 933, 8, 926, 938, 934
15, 932, 936, 939, 26, 933, 937, 940, 935
16, 933, 937, 940, 935, 934, 938, 941, 28
17, 924, 3, 942, 936, 925, 931, 943, 937
18, 925, 931, 943, 937, 926, 7, 944, 938
19, 936, 942, 25, 939, 937, 943, 945, 940
20, 937, 943, 945, 940, 938, 944, 27, 941
21, 8, 7, 27, 28, 12, 11, 29, 30
22, 12, 11, 29, 30, 16, 15, 31, 32
23, 16, 15, 31, 32, 20, 19, 33, 34
24, 20, 19, 33, 34, 24, 23, 35, 36
25, 37, 38, 39, 40, 41, 42, 43, 44
26, 41, 42, 43, 44, 45, 46, 47, 48
27, 40, 39, 49, 50, 44, 43, 51, 52
28, 44, 43, 51, 52, 48, 47, 53, 54
29, 50, 49, 55, 56, 52, 51, 57, 58
30, 52, 51, 57, 58, 54, 53, 59, 60
31, 56, 55, 22, 21, 58, 57, 61, 62
32, 58, 57, 61, 62, 60, 59, 63, 64
33, 21, 22, 23, 24, 62, 61, 65, 66
34, 62, 61, 65, 66, 64, 63, 67, 68
35, 24, 23, 35, 36, 66, 65, 69, 70
36, 66, 65, 69, 70, 68, 67, 71, 72
37, 36, 35, 73, 74, 70, 69, 75, 76
38, 70, 69, 75, 76, 72, 71, 77, 78
39, 74, 73, 79, 80, 76, 75, 81, 82
40, 76, 75, 81, 82, 78, 77, 83, 84
41, 80, 79, 85, 86, 82, 81, 87, 88
42, 82, 81, 87, 88, 84, 83, 89, 90
43, 86, 85, 91, 92, 88, 87, 93, 94
44, 88, 87, 93, 94, 90, 89, 95, 96
45, 2, 946, 949, 928, 927, 947, 950, 929
46, 927, 947, 950, 929, 6, 948, 951, 930
47, 928, 949, 952, 3, 929, 950, 953, 931
48, 929, 950, 953, 931, 930, 951, 954, 7
49, 946, 97, 956, 949, 947, 955, 957, 950
50, 947, 955, 957, 950, 948, 99, 958, 951
51, 949, 956, 98, 952, 950, 957, 959, 953
52, 950, 957, 959, 953, 951, 958, 100, 954
53, 6, 99, 100, 7, 10, 101, 102, 11
54, 10, 101, 102, 11, 14, 103, 104, 15
55, 14, 103, 104, 15, 18, 105, 106, 19
56, 18, 105, 106, 19, 22, 107, 108, 23
57, 3, 952, 960, 942, 931, 953, 961, 943
58, 931, 953, 961, 943, 7, 954, 962, 944
59, 942, 960, 963, 25, 943, 961, 964, 945
60, 943, 961, 964, 945, 944, 962, 965, 27
61, 952, 98, 966, 960, 953, 959, 967, 961
62, 953, 959, 967, 961, 954, 100, 968, 962
63, 960, 966, 109, 963, 961, 967, 969, 964
64, 961, 967, 969, 964, 962, 968, 110, 965
65, 7, 100, 110, 27, 11, 102, 111, 29
66, 11, 102, 111, 29, 15, 104, 112, 31
67, 15, 104, 112, 31, 19, 106, 113, 33
68, 19, 106, 113, 33, 23, 108, 114, 35
69, 38, 115, 116, 39, 42, 117, 118, 43
70, 42, 117, 118, 43, 46, 119, 120, 47
71, 39, 116, 121, 49, 43, 118, 122, 51
72, 43, 118, 122, 51, 47, 120, 123, 53
73, 49, 121, 124, 55, 51, 122, 125, 57
74, 51, 122, 125, 57, 53, 123, 126, 59
75, 55, 124, 107, 22, 57, 125, 127, 61
76, 57, 125, 127, 61, 59, 126, 128, 63
77, 22, 107, 108, 23, 61, 127, 129, 65
78, 61, 127, 129, 65, 63, 128, 130, 67
79, 23, 108, 114, 35, 65, 129, 131, 69
80, 65, 129, 131, 69, 67, 130, 132, 71
81, 35, 114, 133, 73, 69, 131, 134, 75
82, 69, 131, 134, 75, 71, 132, 135, 77
83, 73, 133, 136, 79, 75, 134, 137, 81
84, 75, 134, 137, 81, 77, 135, 138, 83
85, 79, 136, 139, 85, 81, 137, 140, 87
86, 81, 137, 140, 87, 83, 138, 141, 89
87, 85, 139, 142, 91, 87, 140, 143, 93
88, 87, 140, 143, 93, 89, 141, 144, 95
89, 97, 145, 146, 98, 99, 147, 148, 100
90, 99, 147, 148, 100, 101, 149, 150, 102
91, 101, 149, 150, 102, 103, 151, 152, 104
92, 103, 151, 152, 104, 105, 153, 154, 106
93, 105, 153, 154, 106, 107, 155, 156, 108
94, 98, 146, 157, 109, 100, 148, 158, 110
95, 100, 148, 158, 110, 102, 150, 159, 111
96, 102, 150, 159, 111, 104, 152, 160, 112
97, 104, 152, 160, 112, 106, 154, 161, 113
98, 106, 154, 161, 113, 108, 156, 162, 114
99, 115, 163, 164, 116, 117, 165, 166, 118
100, 117, 165, 166, 118, 119, 167, 168, 120
101, 116, 164, 169, 121, 118, 166, 170, 122
102, 118, 166, 170, 122, 120, 168, 171, 123
103, 121, 169, 172, 124, 122, 170, 173, 125
104, 122, 170, 173, 125, 123, 171, 174, 126
105, 124, 172, 155, 107, 125, 173, 175, 127
106, 125, 173, 175, 127, 126, 174, 176, 128
107, 107, 155, 156, 108, 127, 175, 177, 129
108, 127, 175, 177, 129, 128, 176, 178, 130
109, 108, 156, 162, 114, 129, 177, 179, 131
110, 129, 177, 179, 131, 130, 178, 180, 132
111, 114, 162, 181, 133, 131, 179, 182, 134
112, 131, 179, 182, 134, 132, 180, 183, 135
113, 133, 181, 184, 136, 134, 182, 185, 137
114, 134, 182, 185, 137, 135, 183, 186, 138
115, 136, 184, 187, 139, 137, 185, 188, 140
116, 137, 185, 188, 140, 138, 186, 189, 141
117, 139, 187, 190, 142, 140, 188, 191, 143
118, 140, 188, 191, 143, 141, 189, 192, 144
119, 145, 193, 194, 146, 147, 195, 196, 148
120, 147, 195, 196, 148, 149, 197, 198, 150
121, 149, 197, 198, 150, 151, 199, 200, 152
122, 151, 199, 200, 152, 153, 201, 202, 154
123, 153, 201, 202, 154, 155, 203, 204, 156
124, 146, 975, 978, 971, 970, 976, 979, 972
125, 970, 976, 979, 972, 148, 977, 980, 973
126, 971, 978, 981, 157, 972, 979, 982, 974
127, 972, 979, 982, 974, 973, 980, 983, 158
128, 975, 194, 985, 978, 976, 984, 986, 979
129, 976, 984, 986, 979, 977, 196, 987, 980
130, 978, 985, 205, 981, 979, 986, 988, 982
131, 979, 986, 988, 982, 980, 987, 206, 983
132, 148, 196, 206, 158, 150, 198, 207, 159
133, 150, 198, 207, 159, 152, 200, 208, 160
134, 152, 200, 208, 160, 154, 202, 209, 161
135, 154, 202, 209, 161, 156, 204, 210, 162
136, 163, 211, 212, 164, 165, 213, 214, 166
137, 165, 213, 214, 166, 167, 215, 216, 168
138, 164, 212, 217, 169, 166, 214, 218, 170
139, 166, 214, 218, 170, 168, 216, 219, 171
140, 169, 217, 220, 172, 170, 218, 221, 173
141, 170, 218, 221, 173, 171, 219, 222, 174
142, 172, 220, 203, 155, 173, 221, 223, 175
143, 173, 221, 223, 175, 174, 222, 224, 176
144, 155, 203, 204, 156, 175, 223, 225, 177
145, 175, 223, 225, 177, 176, 224, 226, 178
146, 156, 204, 210, 162, 177, 225, 227, 179
147, 177, 225, 227, 179, 178, 226, 228, 180
148, 162, 210, 229, 181, 179, 227, 230, 182
149, 179, 227, 230, 182, 180, 228, 231, 183
150, 181, 229, 232, 184, 182, 230, 233, 185
151, 182, 230, 233, 185, 183, 231, 234, 186
152, 184, 232, 235, 187, 185, 233, 236, 188
153, 185, 233, 236, 188, 186, 234, 237, 189
154, 187, 235, 238, 190, 188, 236, 239, 191
155, 188, 236, 239, 191, 189, 237, 240, 192
156, 193, 241, 242, 194, 195, 243, 244, 196
157, 195, 243, 244, 196, 197, 245, 246, 198
158, 197, 245, 246, 198, 199, 247, 248, 200
159, 199, 247, 248, 200, 201, 249, 250, 202
160, 201, 249, 250, 202, 203, 251, 252, 204
161, 194, 242, 253, 205, 196, 244, 254, 206
162, 196, 244, 254, 206, 198, 246, 255, 207
163, 198, 246, 255, 207, 200, 248, 256, 208
164, 200, 248, 256, 208, 202, 250, 257, 209
165, 202, 250, 257, 209, 204, 252, 258, 210
166, 211, 259, 260, 212, 213, 261, 262, 214
167, 213, 261, 262, 214, 215, 263, 264, 216
168, 212, 260, 265, 217, 214, 262, 266, 218
169, 214, 262, 266, 218, 216, 264, 267, 219
170, 217, 265, 268, 220, 218, 266, 269, 221
171, 218, 266, 269, 221, 219, 267, 270, 222
172, 220, 268, 251, 203, 221, 269, 271, 223
173, 221, 269, 271, 223, 222, 270, 272, 224
174, 203, 251, 252, 204, 223, 271, 273, 225
175, 223, 271, 273, 225, 224, 272, 274, 226
176, 204, 252, 258, 210, 225, 273, 275, 227
177, 225, 273, 275, 227, 226, 274, 276, 228
178, 210, 258, 277, 229, 227, 275, 278, 230
179, 227, 275, 278, 230, 228, 276, 279, 231
180, 229, 277, 280, 232, 230, 278, 281, 233
181, 230, 278, 281, 233, 231, 279, 282, 234
182, 232, 280, 283, 235, 233, 281, 284, 236
183, 233, 281, 284, 236, 234, 282, 285, 237
184, 235, 283, 286, 238, 236, 284, 287, 239
185, 236, 284, 287, 239, 237, 285, 288, 240
186, 241, 289, 290, 242, 243, 291, 292, 244
187, 243, 291, 292, 244, 245, 293, 294, 246
188, 245, 293, 294, 246, 247, 295, 296, 248
189, 247, 295, 296, 248, 249, 297, 298, 250
190, 249, 297, 298, 250, 251, 299, 300, 252
191, 242, 290, 301, 253, 244, 292, 302, 254
192, 244, 292, 302, 254, 246, 294, 303, 255
193, 246, 294, 303, 255, 248, 296, 304, 256
194, 248, 296, 304, 256, 250, 298, 305, 257
195, 250, 298, 305, 257, 252, 300, 306, 258
196, 259, 307, 308, 260, 261, 309, 310, 262
197, 261, 309, 310, 262, 263, 311, 312, 264
198, 260, 308, 313, 265, 262, 310, 314, 266
199, 262, 310, 314, 266, 264, 312, 315, 267
200, 265, 313, 316, 268, 266, 314, 317, 269
201, 266, 314, 317, 269, 267, 315, 318, 270
202, 268, 316, 299, 251, 269, 317, 319, 271
203, 269, 317, 319, 271, 270, 318, 320, 272
204, 251, 299, 300, 252, 271, 319, 321, 273
205, 271, 319, 321, 273, 272, 320, 322, 274
206, 252, 300, 306, 258, 273, 321, 323, 275
207, 273, 321, 323, 275, 274, 322, 324, 276
208, 258, 306, 325, 277, 275, 323, 326, 278
209, 275, 323, 326, 278, 276, 324, 327, 279
210, 277, 325, 328, 280, 278, 326, 329, 281
211, 278, 326, 329, 281, 279, 327, 330, 282
212, 280, 328, 331, 283, 281, 329, 332, 284
213, 281, 329, 332, 284, 282, 330, 333, 285
214, 283, 331, 334, 286, 284, 332, 335, 287
215, 284, 332, 335, 287, 285, 333, 336, 288
216, 289, 337, 338, 290, 291, 339, 340, 292
217, 291, 339, 340, 292, 293, 341, 342, 294
218, 293, 341, 342, 294, 295, 343, 344, 296
219, 295, 343, 344, 296, 297, 345, 346, 298
220, 297, 345, 346, 298, 299, 347, 348, 300
221, 290, 338, 349, 301, 292, 340, 350, 302
222, 292, 340, 350, 302, 294, 342, 351, 303
223, 294, 342, 351, 303, 296, 344, 352, 304
224, 296, 344, 352, 304, 298, 346, 353, 305
225, 298, 346, 353, 305, 300, 348, 354, 306
226, 307, 355, 356, 308, 309, 357, 358, 310
227, 309, 357, 358, 310, 311, 359, 360, 312
228, 308, 356, 361, 313, 310, 358, 362, 314
229, 310, 358, 362, 314, 312, 360, 363, 315
230, 313, 361, 364, 316, 314, 362, 365, 317
231, 314, 362, 365, 317, 315, 363, 366, 318
232, 316, 364, 347, 299, 317, 365, 367, 319
233, 317, 365, 367, 319, 318, 366, 368, 320
234, 299, 347, 348, 300, 319, 367, 369, 321
235, 319, 367, 369, 321, 320, 368, 370, 322
236, 300, 348, 354, 306, 321, 369, 371, 323
237, 321, 369, 371, 323, 322, 370, 372, 324
238, 306, 354, 373, 325, 323, 371, 374, 326
239, 323, 371, 374, 326, 324, 372, 375, 327
240, 325, 373, 376, 328, 326, 374, 377, 329
241, 326, 374, 377, 329, 327, 375, 378, 330
242, 328, 376, 379, 331, 329, 377, 380, 332
243, 329, 377, 380, 332, 330, 378, 381, 333
244, 331, 379, 382, 334, 332, 380, 383, 335
245, 332, 380, 383, 335, 333, 381, 384, 336
246, 337, 385, 386, 338, 339, 387, 388, 340
247, 339, 387, 388, 340, 341, 389, 390, 342
248, 341, 389, 390, 342, 343, 391, 392, 344
249, 343, 391, 392, 344, 345, 393, 394, 346
250, 345, 393, 394, 346, 347, 395, 396, 348
251, 338, 386, 397, 349, 340, 388, 398, 350
252, 340, 388, 398, 350, 342, 390, 399, 351
253, 342, 390, 399, 351, 344, 392, 400, 352
254, 344, 392, 400, 352, 346, 394, 401, 353
255, 346, 394, 401, 353, 348, 396, 402, 354
256, 355, 403, 404, 356, 357, 405, 406, 358
257, 357, 405, 406, 358, 359, 407, 408, 360
258, 356, 404, 409, 361, 358, 406, 410, 362
259, 358, 406, 410, 362, 360, 408, 411, 363
260, 361, 409, 412, 364, 362, 410, 413, 365
261, 362, 410, 413, 365, 363, 411, 414, 366
262, 364, 412, 395, 347, 365, 413, 415, 367
263, 365, 413, 415, 367, 366, 414, 416, 368
264, 347, 395, 396, 348, 367, 415, 417, 369
265, 367, 415, 417, 369, 368, 416, 418, 370
266, 348, 396, 402, 354, 369, 417, 419, 371
267, 369, 417, 419, 371, 370, 418, 420, 372
268, 354, 402, 421, 373, 371, 419, 422, 374
269, 371, 419, 422, 374, 372, 420, 423, 375
270, 373, 421, 424, 376, 374, 422, 425, 377
271, 374, 422, 425, 377, 375, 423, 426, 378
272, 376, 424, 427, 379, 377, 425, 428, 380
273, 377, 425, 428, 380, 378, 426, 429, 381
274, 379, 427, 430, 382, 380, 428, 431, 383
275, 380, 428, 431, 383, 381, 429, 432, 384
276, 385, 994, 997, 990, 989, 995, 998, 991
277, 989, 995, 998, 991, 387, 996, 999, 992
278, 990, 997, 1000, 386, 991, 998, 1001, 993
279, 991, 998, 1001, 993, 992, 999, 1002, 388
280, 994, 433, 1004, 997, 995, 1003, 1005, 998
281, 995, 1003, 1005, 998, 996, 435, 1006, 999
282, 997, 1004, 434, 1000, 998, 1005, 1007, 1001
283, 998, 1005, 1007, 1001, 999, 1006, 436, 1002
284, 387, 435, 436, 388, 389, 437, 438, 390
285, 389, 437, 438, 390, 391, 439, 440, 392
286, 391, 439, 440, 392, 393, 441, 442, 394
287, 393, 441, 442, 394, 395, 443, 444, 396
288, 386, 1000, 1012, 1008, 993, 1001, 1013, 1009
289, 993, 1001, 1013, 1009, 388, 1002, 1014, 1010
290, 1008, 1012, 1015, 397, 1009, 1013, 1016, 1011
291, 1009, 1013, 1016, 1011, 1010, 1014, 1017, 398
292, 1000, 434, 1018, 1012, 1001, 1007, 1019, 1013
293, 1001, 1007, 1019, 1013, 1002, 436, 1020, 1014
294, 1012, 1018, 445, 1015, 1013, 1019, 1021, 1016
295, 1013, 1019, 1021, 1016, 1014, 1020, 446, 1017
296, 388, 436, 446, 398, 390, 438, 447, 399
297, 390, 438, 447, 399, 392, 440, 448, 400
298, 392, 440, 448, 400, 394, 442, 449, 401
299, 394, 442, 449, 401, 396, 444, 450, 402
300, 403, 451, 452, 404, 405, 453, 454, 406
301, 405, 453, 454, 406, 407, 455, 456, 408
302, 404, 452, 457, 409, 406, 454, 458, 410
303, 406, 454, 458, 410, 408, 456, 459, 411
304, 409, 457, 460, 412, 410, 458, 461, 413
305, 410, 458, 461, 413, 411, 459, 462, 414
306, 412, 460, 443, 395, 413, 461, 463, 415
307, 413, 461, 463, 415, 414, 462, 464, 416
308, 395, 443, 444, 396, 415, 463, 465, 417
309, 415, 463, 465, 417, 416, 464, 466, 418
310, 396, 444, 450, 402, 417, 465, 467, 419
311, 417, 465, 467, 419, 418, 466, 468, 420
312, 402, 450, 469, 421, 419, 467, 470, 422
313, 419, 467, 470, 422, 420, 468, 471, 423
314, 421, 469, 472, 424, 422, 470, 473, 425
315, 422, 470, 473, 425, 423, 471, 474, 426
316, 424, 472, 475, 427, 425, 473, 476, 428
317, 425, 473, 476, 428, 426, 474, 477, 429
318, 427, 475, 478, 430, 428, 476, 479, 431
319, 428, 476, 479, 431, 429, 477, 480, 432
320, 433, 1022, 1025, 1004, 1003, 1023, 1026, 1005
321, 1003, 1023, 1026, 1005, 435, 1024, 1027, 1006
322, 1004, 1025, 1028, 434, 1005, 1026, 1029, 1007
323, 1005, 1026, 1029, 1007, 1006, 1027, 1030, 436
324, 1022, 481, 1032, 1025, 1023, 1031, 1033, 1026
325, 1023, 1031, 1033, 1026, 1024, 483, 1034, 1027
326, 1025, 1032, 482, 1028, 1026, 1033, 1035, 1029
327, 1026, 1033, 1035, 1029, 1027, 1034, 484, 1030
328, 435, 483, 484, 436, 437, 485, 486, 438
329, 437, 485, 486, 438, 439, 487, 488, 440
330, 439, 487, 488, 440, 441, 489, 490, 442
331, 441, 489, 490, 442, 443, 491, 492, 444
332, 434, 1028, 1036, 1018, 1007, 1029, 1037, 1019
333, 1007, 1029, 1037, 1019, 436, 1030, 1038, 1020
334, 1018, 1036, 1039, 445, 1019, 1037, 1040, 1021
335, 1019, 1037, 1040, 1021, 1020, 1038, 1041, 446
336, 1028, 482, 1042, 1036, 1029, 1035, 1043, 1037
337, 1029, 1035, 1043, 1037, 1030, 484, 1044, 1038
338, 1036, 1042, 493, 1039, 1037, 1043, 1045, 1040
339, 1037, 1043, 1045, 1040, 1038, 1044, 494, 1041
340, 436, 484, 494, 446, 438, 486, 495, 447
341, 438, 486, 495, 447, 440, 488, 496, 448
342, 440, 488, 496, 448, 442, 490, 497, 449
343, 442, 490, 497, 449, 444, 492, 498, 450
344, 451, 499, 500, 452, 453, 501, 502, 454
345, 453, 501, 502, 454, 455, 503, 504, 456
346, 452, 500, 505, 457, 454, 502, 506, 458
347, 454, 502, 506, 458, 456, 504, 507, 459
348, 457, 505, 508, 460, 458, 506, 509, 461
349, 458, 506, 509, 461, 459, 507, 510, 462
350, 460, 508, 491, 443, 461, 509, 511, 463
351, 461, 509, 511, 463, 462, 510, 512, 464
352, 443, 491, 492, 444, 463, 511, 513, 465
353, 463, 511, 513, 465, 464, 512, 514, 466
354, 444, 492, 498, 450, 465, 513, 515, 467
355, 465, 513, 515, 467, 466, 514, 516, 468
356, 450, 498, 517, 469, 467, 515, 518, 470
357, 467, 515, 518, 470, 468, 516, 519, 471
358, 469, 517, 520, 472, 470, 518, 521, 473
359, 470, 518, 521, 473, 471, 519, 522, 474
360, 472, 520, 523, 475, 473, 521, 524, 476
361, 473, 521, 524, 476, 474, 522, 525, 477
362, 475, 523, 526, 478, 476, 524, 527, 479
363, 476, 524, 527, 479, 477, 525, 528, 480
364, 481, 1046, 1049, 1032, 1031, 1047, 1050, 1033
365, 1031, 1047, 1050, 1033, 483, 1048, 1051, 1034
366, 1032, 1049, 1052, 482, 1033, 1050, 1053, 1035
367, 1033, 1050, 1053, 1035, 1034, 1051, 1054, 484
368, 1046, 529, 1056, 1049, 1047, 1055, 1057, 1050
369, 1047, 1055, 1057, 1050, 1048, 531, 1058, 1051
370, 1049, 1056, 530, 1052, 1050, 1057, 1059, 1053
371, 1050, 1057, 1059, 1053, 1051, 1058, 532, 1054
372, 483, 531, 532, 484, 485, 533, 534, 486
373, 485, 533, 534, 486, 487, 535, 536, 488
374, 487, 535, 536, 488, 489, 537, 538, 490
375, 489, 537, 538, 490, 491, 539, 540, 492
376, 482, 1052, 1060, 1042, 1035, 1053, 1061, 1043
377, 1035, 1053, 1061, 1043, 484, 1054, 1062, 1044
378, 1042, 1060, 1063, 493, 1043, 1061, 1064, 1045
379, 1043, 1061, 1064, 1045, 1044, 1062, 1065, 494
380, 1052, 530, 1066, 1060, 1053, 1059, 1067, 1061
381, 1053, 1059, 1067, 1061, 1054, 532, 1068, 1062
382, 1060, 1066, 541, 1063, 1061, 1067, 1069, 1064
383, 1061, 1067, 1069, 1064, 1062, 1068, 542, 1065
384, 484, 532, 542, 494, 486, 534, 543, 495
385, 486, 534, 543, 495, 488, 536, 544, 496
386, 488, 536, 544, 496, 490, 538, 545, 497
387, 490, 538, 545, 497, 492, 540, 546, 498
388, 499, 1075, 1078, 1071, 1070, 1076, 1079, 1072
389, 1070, 1076, 1079, 1072, 501, 1077, 1080, 1073
390, 1071, 1078, 1081, 500, 1072, 1079, 1082, 1074
391, 1072, 1079, 1082, 1074, 1073, 1080, 1083, 502
392, 1075, 547, 1085, 1078, 1076, 1084, 1086, 1079
393, 1076, 1084, 1086, 1079, 1077, 549, 1087, 1080
394, 1078, 1085, 548, 1081, 1079, 1086, 1088, 1082
395, 1079, 1086, 1088, 1082, 1080, 1087, 550, 1083
396, 501, 1077, 1080, 1073, 1089, 1093, 1095, 1090
397, 1089, 1093, 1095, 1090, 503, 1094, 1096, 1091
398, 1073, 1080, 1083, 502, 1090, 1095, 1097, 1092
399, 1090, 1095, 1097, 1092, 1091, 1096, 1098, 504
400, 1077, 549, 1087, 1080, 1093, 1099, 1100, 1095
401, 1093, 1099, 1100, 1095, 1094, 551, 1101, 1096
402, 1080, 1087, 550, 1083, 1095, 1100, 1102, 1097
403, 1095, 1100, 1102, 1097, 1096, 1101, 552, 1098
404, 500, 548, 553, 505, 502, 550, 554, 506
405, 502, 550, 554, 506, 504, 552, 555, 507
406, 505, 553, 556, 508, 506, 554, 557, 509
407, 506, 554, 557, 509, 507, 555, 558, 510
408, 508, 556, 539, 491, 509, 557, 559, 511
409, 509, 557, 559, 511, 510, 558, 560, 512
410, 491, 539, 540, 492, 511, 559, 561, 513
411, 511, 559, 561, 513, 512, 560, 562, 514
412, 492, 540, 546, 498, 513, 561, 563, 515
413, 513, 561, 563, 515, 514, 562, 564, 516
414, 498, 546, 565, 517, 515, 563, 566, 518
415, 515, 563, 566, 518, 516, 564, 567, 519
416, 517, 565, 568, 520, 518, 566, 569, 521
417, 518, 566, 569, 521, 519, 567, 570, 522
418, 520, 568, 571, 523, 521, 569, 572, 524
419, 521, 569, 572, 524, 522, 570, 573, 525
420, 523, 571, 574, 526, 524, 572, 575, 527
421, 524, 572, 575, 527, 525, 573, 576, 528
422, 529, 1103, 1106, 1056, 1055, 1104, 1107, 1057
423, 1055, 1104, 1107, 1057, 531, 1105, 1108, 1058
424, 1056, 1106, 1109, 530, 1057, 1107, 1110, 1059
425, 1057, 1107, 1110, 1059, 1058, 1108, 1111, 532
426, 1103, 577, 1113, 1106, 1104, 1112, 1114, 1107
427, 1104, 1112, 1114, 1107, 1105, 579, 1115, 1108
428, 1106, 1113, 578, 1109, 1107, 1114, 1116, 1110
429, 1107, 1114, 1116, 1110, 1108, 1115, 580, 1111
430, 531, 579, 580, 532, 533, 581, 582, 534
431, 533, 581, 582, 534, 535, 583, 584, 536
432, 535, 583, 584, 536, 537, 585, 586, 538
433, 537, 585, 586, 538, 539, 587, 588, 540
434, 530, 1109, 1117, 1066, 1059, 1110, 1118, 1067
435, 1059, 1110, 1118, 1067, 532, 1111, 1119, 1068
436, 1066, 1117, 1120, 541, 1067, 1118, 1121, 1069
437, 1067, 1118, 1121, 1069, 1068, 1119, 1122, 542
438, 1109, 578, 1123, 1117, 1110, 1116, 1124, 1118
439, 1110, 1116, 1124, 1118, 1111, 580, 1125, 1119
440, 1117, 1123, 589, 1120, 1118, 1124, 1126, 1121
441, 1118, 1124, 1126, 1121, 1119, 1125, 590, 1122
442, 532, 580, 590, 542, 534, 582, 591, 543
443, 534, 582, 591, 543, 536, 584, 592, 544
444, 536, 584, 592, 544, 538, 586, 593, 545
445, 538, 586, 593, 545, 540, 588, 594, 546
446, 547, 1127, 1130, 1085, 1084, 1128, 1131, 1086
447, 1084, 1128, 1131, 1086, 549, 1129, 1132, 1087
448, 1085, 1130, 1133, 548, 1086, 1131, 1134, 1088
449, 1086, 1131, 1134, 1088, 1087, 1132, 1135, 550
450, 1127, 595, 1137, 1130, 1128, 1136, 1138, 1131
451, 1128, 1136, 1138, 1131, 1129, 597, 1139, 1132
452, 1130, 1137, 596, 1133, 1131, 1138, 1140, 1134
453, 1131, 1138, 1140, 1134, 1132, 1139, 598, 1135
454, 549, 1129, 1132, 1087, 1099, 1141, 1143, 1100
455, 1099, 1141, 1143, 1100, 551, 1142, 1144, 1101
456, 1087, 1132, 1135, 550, 1100, 1143, 1145, 1102
457, 1100, 1143, 1145, 1102, 1101, 1144, 1146, 552
458, 1129, 597, 1139, 1132, 1141, 1147, 1148, 1143
459, 1141, 1147, 1148, 1143, 1142, 599, 1149, 1144
460, 1132, 1139, 598, 1135, 1143, 1148, 1150, 1145
461, 1143, 1148, 1150, 1145, 1144, 1149, 600, 1146
462, 548, 596, 601, 553, 550, 598, 602, 554
463, 550, 598, 602, 554, 552, 600, 603, 555
464, 553, 601, 604, 556, 554, 602, 605, 557
465, 554, 602, 605, 557, 555, 603, 606, 558
466, 556, 604, 587, 539, 557, 605, 607, 559
467, 557, 605, 607, 559, 558, 606, 608, 560
468, 539, 587, 588, 540, 559, 607, 609, 561
469, 559, 607, 609, 561, 560, 608, 610, 562
470, 540, 588, 594, 546, 561, 609, 611, 563
471, 561, 609, 611, 563, 562, 610, 612, 564
472, 546, 594, 613, 565, 563, 611, 614, 566
473, 563, 611, 614, 566, 564, 612, 615, 567
474, 565, 613, 616, 568, 566, 614, 617, 569
475, 566, 614, 617, 569, 567, 615, 618, 570
476, 568, 616, 619, 571, 569, 617, 620, 572
477, 569, 617, 620, 572, 570, 618, 621, 573
478, 571, 1156, 1159, 1152, 1151, 1157, 1160, 1153
479, 1151, 1157, 1160, 1153, 572, 1158, 1161, 1154
480, 1152, 1159, 1162, 574, 1153, 1160, 1163, 1155
481, 1153, 1160, 1163, 1155, 1154, 1161, 1164, 575
482, 1156, 619, 1166, 1159, 1157, 1165, 1167, 1160
483, 1157, 1165, 1167, 1160, 1158, 620, 1168, 1161
484, 1159, 1166, 622, 1162, 1160, 1167, 1169, 1163
485, 1160, 1167, 1169, 1163, 1161, 1168, 623, 1164
486, 572, 1158, 1161, 1154, 1170, 1174, 1176, 1171
487, 1170, 1174, 1176, 1171, 573, 1175, 1177, 1172
488, 1154, 1161, 1164, 575, 1171, 1176, 1178, 1173
489, 1171, 1176, 1178, 1173, 1172, 1177, 1179, 576
490, 1158, 620, 1168, 1161, 1174, 1180, 1181, 1176
491, 1174, 1180, 1181, 1176, 1175, 621, 1182, 1177
492, 1161, 1168, 623, 1164, 1176, 1181, 1183, 1178
493, 1176, 1181, 1183, 1178, 1177, 1182, 624, 1179
494, 577, 1184, 1187, 1113, 1112, 1185, 1188, 1114
495, 1112, 1185, 1188, 1114, 579, 1186, 1189, 1115
496, 1113, 1187, 1190, 578, 1114, 1188, 1191, 1116
497, 1114, 1188, 1191, 1116, 1115, 1189, 1192, 580
498, 1184, 625, 1194, 1187, 1185, 1193, 1195, 1188
499, 1185, 1193, 1195, 1188, 1186, 627, 1196, 1189
500, 1187, 1194, 626, 1190, 1188, 1195, 1197, 1191
501, 1188, 1195, 1197, 1191, 1189, 1196, 628, 1192
502, 579, 627, 628, 580, 581, 629, 630, 582
503, 581, 629, 630, 582, 583, 631, 632, 584
504, 583, 631, 632, 584, 585, 633, 634, 586
505, 585, 633, 634, 586, 587, 635, 636, 588
506, 578, 1190, 1198, 1123, 1116, 1191, 1199, 1124
507, 1116, 1191, 1199, 1124, 580, 1192, 1200, 1125
508, 1123, 1198, 1201, 589, 1124, 1199, 1202, 1126
509, 1124, 1199, 1202, 1126, 1125, 1200, 1203, 590
510, 1190, 626, 1204, 1198, 1191, 1197, 1205, 1199
511, 1191, 1197, 1205, 1199, 1192, 628, 1206, 1200
512, 1198, 1204, 637, 1201, 1199, 1205, 1207, 1202
513, 1199, 1205, 1207, 1202, 1200, 1206, 638, 1203
514, 580, 628, 638, 590, 582, 630, 639, 591
515, 582, 630, 639, 591, 584, 632, 640, 592
516, 584, 632, 640, 592, 586, 634, 641, 593
517, 586, 634, 641, 593, 588, 636, 642, 594
518, 595, 1208, 1211, 1137, 1136, 1209, 1212, 1138
519, 1136, 1209, 1212, 1138, 597, 1210, 1213, 1139
520, 1137, 1211, 1214, 596, 1138, 1212, 1215, 1140
521, 1138, 1212, 1215, 1140, 1139, 1213, 1216, 598
522, 1208, 643, 1218, 1211, 1209, 1217, 1219, 1212
523, 1209, 1217, 1219, 1212, 1210, 645, 1220, 1213
524, 1211, 1218, 644, 1214, 1212, 1219, 1221, 1215
525, 1212, 1219, 1221, 1215, 1213, 1220, 646, 1216
526, 597, 1210, 1213, 1139, 1147, 1222, 1224, 1148
527, 1147, 1222, 1224, 1148, 599, 1223, 1225, 1149
528, 1139, 1213, 1216, 598, 1148, 1224, 1226, 1150
529, 1148, 1224, 1226, 1150, 1149, 1225, 1227, 600
530, 1210, 645, 1220, 1213, 1222, 1228, 1229, 1224
531, 1222, 1228, 1229, 1224, 1223, 647, 1230, 1225
532, 1213, 1220, 646, 1216, 1224, 1229, 1231, 1226
533, 1224, 1229, 1231, 1226, 1225, 1230, 648, 1227
534, 596, 644, 649, 601, 598, 646, 650, 602
535, 598, 646, 650, 602, 600, 648, 651, 603
536, 601, 649, 652, 604, 602, 650, 653, 605
537, 602, 650, 653, 605, 603, 651, 654, 606
538, 604, 652, 635, 587, 605, 653, 655, 607
539, 605, 653, 655, 607, 606, 654, 656, 608
540, 587, 635, 636, 588, 607, 655, 657, 609
541, 607, 655, 657, 609, 608, 656, 658, 610
542, 588, 636, 642, 594, 609, 657, 659, 611
543, 609, 657, 659, 611, 610, 658, 660, 612
544, 594, 642, 661, 613, 611, 659, 662, 614
545, 611, 659, 662, 614, 612, 660, 663, 615
546, 613, 661, 664, 616, 614, 662, 665, 617
547, 614, 662, 665, 617, 615, 663, 666, 618
548, 616, 664, 667, 619, 617, 665, 668, 620
549, 617, 665, 668, 620, 618, 666, 669, 621
550, 619, 1232, 1235, 1166, 1165, 1233, 1236, 1167
551, 1165, 1233, 1236, 1167, 620, 1234, 1237, 1168
552, 1166, 1235, 1238, 622, 1167, 1236, 1239, 1169
553, 1167, 1236, 1239, 1169, 1168, 1237, 1240, 623
554, 1232, 667, 1242, 1235, 1233, 1241, 1243, 1236
555, 1233, 1241, 1243, 1236, 1234, 668, 1244, 1237
556, 1235, 1242, 670, 1238, 1236, 1243, 1245, 1239
557, 1236, 1243, 1245, 1239, 1237, 1244, 671, 1240
558, 620, 1234, 1237, 1168, 1180, 1246, 1248, 1181
559, 1180, 1246, 1248, 1181, 621, 1247, 1249, 1182
560, 1168, 1237, 1240, 623, 1181, 1248, 1250, 1183
561, 1181, 1248, 1250, 1183, 1182, 1249, 1251, 624
562, 1234, 668, 1244, 1237, 1246, 1252, 1253, 1248
563, 1246, 1252, 1253, 1248, 1247, 669, 1254, 1249
564, 1237, 1244, 671, 1240, 1248, 1253, 1255, 1250
565, 1248, 1253, 1255, 1250, 1249, 1254, 672, 1251
566, 625, 1256, 1259, 1194, 1193, 1257, 1260, 1195
567, 1193, 1257, 1260, 1195, 627, 1258, 1261, 1196
568, 1194, 1259, 1262, 626, 1195, 1260, 1263, 1197
569, 1195, 1260, 1263, 1197, 1196, 1261, 1264, 628
570, 1256, 673, 1266, 1259, 1257, 1265, 1267, 1260
571, 1257, 1265, 1267, 1260, 1258, 675, 1268, 1261
572, 1259, 1266, 674, 1262, 1260, 1267, 1269, 1263
573, 1260, 1267, 1269, 1263, 1261, 1268, 676, 1264
574, 627, 675, 676, 628, 629, 677, 678, 630
575, 629, 677, 678, 630, 631, 679, 680, 632
576, 631, 679, 680, 632, 633, 681, 682, 634
577, 633, 681, 682, 634, 635, 683, 684, 636
578, 626, 1262, 1270, 1204, 1197, 1263, 1271, 1205
579, 1197, 1263, 1271, 1205, 628, 1264, 1272, 1206
580, 1204, 1270, 1273, 637, 1205, 1271, 1274, 1207
581, 1205, 1271, 1274, 1207, 1206, 1272, 1275, 638
582, 1262, 674, 1276, 1270, 1263, 1269, 1277, 1271
583, 1263, 1269, 1277, 1271, 1264, 676, 1278, 1272
584, 1270, 1276, 685, 1273, 1271, 1277, 1279, 1274
585, 1271, 1277, 1279, 1274, 1272, 1278, 686, 1275
586, 628, 676, 686, 638, 630, 678, 687, 639
587, 630, 678, 687, 639, 632, 680, 688, 640
588, 632, 680, 688, 640, 634, 682, 689, 641
589, 634, 682, 689, 641, 636, 684, 690, 642
590, 643, 1280, 1283, 1218, 1217, 1281, 1284, 1219
591, 1217, 1281, 1284, 1219, 645, 1282, 1285, 1220
592, 1218, 1283, 1286, 644, 1219, 1284, 1287, 1221
593, 1219, 1284, 1287, 1221, 1220, 1285, 1288, 646
594, 1280, 691, 1290, 1283, 1281, 1289, 1291, 1284
595, 1281, 1289, 1291, 1284, 1282, 693, 1292, 1285
596, 1283, 1290, 692, 1286, 1284, 1291, 1293, 1287
597, 1284, 1291, 1293, 1287, 1285, 1292, 694, 1288
598, 645, 1282, 1285, 1220, 1228, 1294, 1296, 1229
599, 1228, 1294, 1296, 1229, 647, 1295, 1297, 1230
600, 1220, 1285, 1288, 646, 1229, 1296, 1298, 1231
601, 1229, 1296, 1298, 1231, 1230, 1297, 1299, 648
602, 1282, 693, 1292, 1285, 1294, 1300, 1301, 1296
603, 1294, 1300, 1301, 1296, 1295, 695, 1302, 1297
604, 1285, 1292, 694, 1288, 1296, 1301, 1303, 1298
605, 1296, 1301, 1303, 1298, 1297, 1302, 696, 1299
606, 644, 692, 697, 649, 646, 694, 698, 650
607, 646, 694, 698, 650, 648, 696, 699, 651
608, 649, 697, 700, 652, 650, 698, 701, 653
609, 650, 698, 701, 653, 651, 699, 702, 654
610, 652, 700, 683, 635, 653, 701, 703, 655
611, 653, 701, 703, 655, 654, 702, 704, 656
612, 635, 683, 684, 636, 655, 703, 705, 657
613, 655, 703, 705, 657, 656, 704, 706, 658
614, 636, 684, 690, 642, 657, 705, 707, 659
615, 657, 705, 707, 659, 658, 706, 708, 660
616, 642, 690, 709, 661, 659, 707, 710, 662
617, 659, 707, 710, 662, 660, 708, 711, 663
618, 661, 709, 712, 664, 662, 710, 713, 665
619, 662, 710, 713, 665, 663, 711, 714, 666
620, 664, 712, 715, 667, 665, 713, 716, 668
621, 665, 713, 716, 668, 666, 714, 717, 669
622, 667, 1304, 1307, 1242, 1241, 1305, 1308, 1243
623, 1241, 1305, 1308, 1243, 668, 1306, 1309, 1244
624, 1242, 1307, 1310, 670, 1243, 1308, 1311, 1245
625, 1243, 1308, 1311, 1245, 1244, 1309, 1312, 671
626, 1304, 715, 1314, 1307, 1305, 1313, 1315, 1308
627, 1305, 1313, 1315, 1308, 1306, 716, 1316, 1309
628, 1307, 1314, 718, 1310, 1308, 1315, 1317, 1311
629, 1308, 1315, 1317, 1311, 1309, 1316, 719, 1312
630, 668, 1306, 1309, 1244, 1252, 1318, 1320, 1253
631, 1252, 1318, 1320, 1253, 669, 1319, 1321, 1254
632, 1244, 1309, 1312, 671, 1253, 1320, 1322, 1255
633, 1253, 1320, 1322, 1255, 1254, 1321, 1323, 672
634, 1306, 716, 1316, 1309, 1318, 1324, 1325, 1320
635, 1318, 1324, 1325, 1320, 1319, 717, 1326, 1321
636, 1309, 1316, 719, 1312, 1320, 1325, 1327, 1322
637, 1320, 1325, 1327, 1322, 1321, 1326, 720, 1323
638, 673, 1328, 1331, 1266, 1265, 1329, 1332, 1267
639, 1265, 1329, 1332, 1267, 675, 1330, 1333, 1268
640, 1266, 1331, 1334, 674, 1267, 1332, 1335, 1269
641, 1267, 1332, 1335, 1269, 1268, 1333, 1336, 676
642, 1328, 721, 1338, 1331, 1329, 1337, 1339, 1332
643, 1329, 1337, 1339, 1332, 1330, 723, 1340, 1333
644, 1331, 1338, 722, 1334, 1332, 1339, 1341, 1335
645, 1332, 1339, 1341, 1335, 1333, 1340, 724, 1336
646, 675, 723, 724, 676, 677, 725, 726, 678
647, 677, 725, 726, 678, 679, 727, 728, 680
648, 679, 727, 728, 680, 681, 729, 730, 682
649, 681, 1347, 1350, 1343, 1342, 1348, 1351, 1344
650, 1342, 1348, 1351, 1344, 683, 1349, 1352, 1345
651, 1343, 1350, 1353, 682, 1344, 1351, 1354, 1346
652, 1344, 1351, 1354, 1346, 1345, 1352, 1355, 684
653, 1347, 729, 1357, 1350, 1348, 1356, 1358, 1351
654, 1348, 1356, 1358, 1351, 1349, 731, 1359, 1352
655, 1350, 1357, 730, 1353, 1351, 1358, 1360, 1354
656, 1351, 1358, 1360, 1354, 1352, 1359, 732, 1355
657, 674, 1334, 1361, 1276, 1269, 1335, 1362, 1277
658, 1269, 1335, 1362, 1277, 676, 1336, 1363, 1278
659, 1276, 1361, 1364, 685, 1277, 1362, 1365, 1279
660, 1277, 1362, 1365, 1279, 1278, 1363, 1366, 686
661, 1334, 722, 1367, 1361, 1335, 1341, 1368, 1362
662, 1335, 1341, 1368, 1362, 1336, 724, 1369, 1363
663, 1361, 1367, 733, 1364, 1362, 1368, 1370, 1365
664, 1362, 1368, 1370, 1365, 1363, 1369, 734, 1366
665, 676, 724, 734, 686, 678, 726, 735, 687
666, 678, 726, 735, 687, 680, 728, 736, 688
667, 680, 728, 736, 688, 682, 730, 737, 689
668, 682, 730, 737, 689, 684, 732, 738, 690
669, 691, 1371, 1374, 1290, 1289, 1372, 1375, 1291
670, 1289, 1372, 1375, 1291, 693, 1373, 1376, 1292
671, 1290, 1374, 1377, 692, 1291, 1375, 1378, 1293
672, 1291, 1375, 1378, 1293, 1292, 1376, 1379, 694
673, 1371, 739, 1381, 1374, 1372, 1380, 1382, 1375
674, 1372, 1380, 1382, 1375, 1373, 741, 1383, 1376
675, 1374, 1381, 740, 1377, 1375, 1382, 1384, 1378
676, 1375, 1382, 1384, 1378, 1376, 1383, 742, 1379
677, 693, 1373, 1376, 1292, 1300, 1385, 1387, 1301
678, 1300, 1385, 1387, 1301, 695, 1386, 1388, 1302
679, 1292, 1376, 1379, 694, 1301, 1387, 1389, 1303
680, 1301, 1387, 1389, 1303, 1302, 1388, 1390, 696
681, 1373, 741, 1383, 1376, 1385, 1391, 1392, 1387
682, 1385, 1391, 1392, 1387, 1386, 743, 1393, 1388
683, 1376, 1383, 742, 1379, 1387, 1392, 1394, 1389
684, 1387, 1392, 1394, 1389, 1388, 1393, 744, 1390
685, 692, 740, 745, 697, 694, 742, 746, 698
686, 694, 742, 746, 698, 696, 744, 747, 699
687, 697, 745, 748, 700, 698, 746, 749, 701
688, 698, 746, 749, 701, 699, 747, 750, 702
689, 700, 748, 731, 683, 701, 749, 751, 703
690, 701, 749, 751, 703, 702, 750, 752, 704
691, 683, 731, 732, 684, 703, 751, 753, 705
692, 703, 751, 753, 705, 704, 752, 754, 706
693, 684, 732, 738, 690, 705, 753, 755, 707
694, 705, 753, 755, 707, 706, 754, 756, 708
695, 690, 738, 757, 709, 707, 755, 758, 710
696, 707, 755, 758, 710, 708, 756, 759, 711
697, 709, 757, 760, 712, 710, 758, 761, 713
698, 710, 758, 761, 713, 711, 759, 762, 714
699, 712, 760, 763, 715, 713, 761, 764, 716
700, 713, 761, 764, 716, 714, 762, 765, 717
701, 715, 1395, 1398, 1314, 1313, 1396, 1399, 1315
702, 1313, 1396, 1399, 1315, 716, 1397, 1400, 1316
703, 1314, 1398, 1401, 718, 1315, 1399, 1402, 1317
704, 1315, 1399, 1402, 1317, 1316, 1400, 1403, 719
705, 1395, 763, 1405, 1398, 1396, 1404, 1406, 1399
706, 1396, 1404, 1406, 1399, 1397, 764, 1407, 1400
707, 1398, 1405, 766, 1401, 1399, 1406, 1408, 1402
708, 1399, 1406, 1408, 1402, 1400, 1407, 767, 1403
709, 716, 1397, 1400, 1316, 1324, 1409, 1411, 1325
710, 1324, 1409, 1411, 1325, 717, 1410, 1412, 1326
711, 1316, 1400, 1403, 719, 1325, 1411, 1413, 1327
712, 1325, 1411, 1413, 1327, 1326, 1412, 1414, 720
713, 1397, 764, 1407, 1400, 1409, 1415, 1416, 1411
714, 1409, 1415, 1416, 1411, 1410, 765, 1417, 1412
715, 1400, 1407, 767, 1403, 1411, 1416, 1418, 1413
716, 1411, 1416, 1418, 1413, 1412, 1417, 768, 1414
717, 721, 1419, 1422, 1338, 1337, 1420, 1423, 1339
718, 1337, 1420, 1423, 1339, 723, 1421, 1424, 1340
719, 1338, 1422, 1425, 722, 1339, 1423, 1426, 1341
720, 1339, 1423, 1426, 1341, 1340, 1424, 1427, 724
721, 1419, 769, 1429, 1422, 1420, 1428, 1430, 1423
722, 1420, 1428, 1430, 1423, 1421, 771, 1431, 1424
723, 1422, 1429, 770, 1425, 1423, 1430, 1432, 1426
724, 1423, 1430, 1432, 1426, 1424, 1431, 772, 1427
725, 723, 771, 772, 724, 725, 773, 774, 726
726, 725, 773, 774, 726, 727, 775, 776, 728
727, 727, 775, 776, 728, 729, 777, 778, 730
728, 729, 1433, 1436, 1357, 1356, 1434, 1437, 1358
729, 1356, 1434, 1437, 1358, 731, 1435, 1438, 1359
730, 1357, 1436, 1439, 730, 1358, 1437, 1440, 1360
731, 1358, 1437, 1440, 1360, 1359, 1438, 1441, 732
732, 1433, 777, 1443, 1436, 1434, 1442, 1444, 1437
733, 1434, 1442, 1444, 1437, 1435, 779, 1445, 1438
734, 1436, 1443, 778, 1439, 1437, 1444, 1446, 1440
735, 1437, 1444, 1446, 1440, 1438, 1445, 780, 1441
736, 722, 1425, 1447, 1367, 1341, 1426, 1448, 1368
737, 1341, 1426, 1448, 1368, 724, 1427, 1449, 1369
738, 1367, 1447, 1450, 733, 1368, 1448, 1451, 1370
739, 1368, 1448, 1451, 1370, 1369, 1449, 1452, 734
740, 1425, 770, 1453, 1447, 1426, 1432, 1454, 1448
741, 1426, 1432, 1454, 1448, 1427, 772, 1455, 1449
742, 1447, 1453, 781, 1450, 1448, 1454, 1456, 1451
743, 1448, 1454, 1456, 1451, 1449, 1455, 782, 1452
744, 724, 772, 782, 734, 726, 774, 783, 735
745, 726, 774, 783, 735, 728, 776, 784, 736
746, 728, 776, 784, 736, 730, 778, 785, 737
747, 730, 778, 785, 737, 732, 780, 786, 738
748, 739, 1457, 1460, 1381, 1380, 1458, 1461, 1382
749, 1380, 1458, 1461, 1382, 741, 1459, 1462, 1383
750, 1381, 1460, 1463, 740, 1382, 1461, 1464, 1384
751, 1382, 1461, 1464, 1384, 1383, 1462, 1465, 742
752, 1457, 787, 1467, 1460, 1458, 1466, 1468, 1461
753, 1458, 1466, 1468, 1461, 1459, 789, 1469, 1462
754, 1460, 1467, 788, 1463, 1461, 1468, 1470, 1464
755, 1461, 1468, 1470, 1464, 1462, 1469, 790, 1465
756, 741, 1459, 1462, 1383, 1391, 1471, 1473, 1392
757, 1391, 1471, 1473, 1392, 743, 1472, 1474, 1393
758, 1383, 1462, 1465, 742, 1392, 1473, 1475, 1394
759, 1392, 1473, 1475, 1394, 1393, 1474, 1476, 744
760, 1459, 789, 1469, 1462, 1471, 1477, 1478, 1473
761, 1471, 1477, 1478, 1473, 1472, 791, 1479, 1474
762, 1462, 1469, 790, 1465, 1473, 1478, 1480, 1475
763, 1473, 1478, 1480, 1475, 1474, 1479, 792, 1476
764, 740, 788, 793, 745, 742, 790, 794, 746
765, 742, 790, 794, 746, 744, 792, 795, 747
766, 745, 793, 796, 748, 746, 794, 797, 749
767, 746, 794, 797, 749, 747, 795, 798, 750
768, 748, 796, 779, 731, 749, 797, 799, 751
769, 749, 797, 799, 751, 750, 798, 800, 752
770, 731, 779, 780, 732, 751, 799, 801, 753
771, 751, 799, 801, 753, 752, 800, 802, 754
772, 732, 780, 786, 738, 753, 801, 803, 755
773, 753, 801, 803, 755, 754, 802, 804, 756
774, 738, 786, 805, 757, 755, 803, 806, 758
775, 755, 1486, 1489, 1482, 1481, 1487, 1490, 1483
776, 1481, 1487, 1490, 1483, 756, 1488, 1491, 1484
777, 1482, 1489, 1492, 758, 1483, 1490, 1493, 1485
778, 1483, 1490, 1493, 1485, 1484, 1491, 1494, 759
779, 1486, 803, 1496, 1489, 1487, 1495, 1497, 1490
780, 1487, 1495, 1497, 1490, 1488, 804, 1498, 1491
781, 1489, 1496, 806, 1492, 1490, 1497, 1499, 1493
782, 1490, 1497, 1499, 1493, 1491, 1498, 807, 1494
783, 757, 805, 808, 760, 758, 806, 809, 761
784, 758, 806, 809, 761, 759, 807, 810, 762
785, 760, 808, 811, 763, 761, 809, 812, 764
786, 761, 809, 812, 764, 762, 810, 813, 765
787, 763, 1500, 1503, 1405, 1404, 1501, 1504, 1406
788, 1404, 1501, 1504, 1406, 764, 1502, 1505, 1407
789, 1405, 1503, 1506, 766, 1406, 1504, 1507, 1408
790, 1406, 1504, 1507, 1408, 1407, 1505, 1508, 767
791, 1500, 811, 1510, 1503, 1501, 1509, 1511, 1504
792, 1501, 1509, 1511, 1504, 1502, 812, 1512, 1505
793, 1503, 1510, 814, 1506, 1504, 1511, 1513, 1507
794, 1504, 1511, 1513, 1507, 1505, 1512, 815, 1508
795, 764, 1502, 1505, 1407, 1415, 1514, 1516, 1416
796, 1415, 1514, 1516, 1416, 765, 1515, 1517, 1417
797, 1407, 1505, 1508, 767, 1416, 1516, 1518, 1418
798, 1416, 1516, 1518, 1418, 1417, 1517, 1519, 768
799, 1502, 812, 1512, 1505, 1514, 1520, 1521, 1516
800, 1514, 1520, 1521, 1516, 1515, 813, 1522, 1517
801, 1505, 1512, 815, 1508, 1516, 1521, 1523, 1518
802, 1516, 1521, 1523, 1518, 1517, 1522, 816, 1519
803, 769, 1524, 1527, 1429, 1428, 1525, 1528, 1430
804, 1428, 1525, 1528, 1430, 771, 1526, 1529, 1431
805, 1429, 1527, 1530, 770, 1430, 1528, 1531, 1432
806, 1430, 1528, 1531, 1432, 1431, 1529, 1532, 772
807, 1524, 817, 1534, 1527, 1525, 1533, 1535, 1528
808, 1525, 1533, 1535, 1528, 1526, 819, 1536, 1529
809, 1527, 1534, 818, 1530, 1528, 1535, 1537, 1531
810, 1528, 1535, 1537, 1531, 1529, 1536, 820, 1532
811, 771, 819, 820, 772, 773, 821, 822, 774
812, 773, 821, 822, 774, 775, 823, 824, 776
813, 775, 823, 824, 776, 777, 825, 826, 778
814, 777, 1538, 1541, 1443, 1442, 1539, 1542, 1444
815, 1442, 1539, 1542, 1444, 779, 1540, 1543, 1445
816, 1443, 1541, 1544, 778, 1444, 1542, 1545, 1446
817, 1444, 1542, 1545, 1446, 1445, 1543, 1546, 780
818, 1538, 825, 1548, 1541, 1539, 1547, 1549, 1542
819, 1539, 1547, 1549, 1542, 1540, 827, 1550, 1543
820, 1541, 1548, 826, 1544, 1542, 1549, 1551, 1545
821, 1542, 1549, 1551, 1545, 1543, 1550, 828, 1546
822, 770, 1530, 1552, 1453, 1432, 1531, 1553, 1454
823, 1432, 1531, 1553, 1454, 772, 1532, 1554, 1455
824, 1453, 1552, 1555, 781, 1454, 1553, 1556, 1456
825, 1454, 1553, 1556, 1456, 1455, 1554, 1557, 782
826, 1530, 818, 1558, 1552, 1531, 1537, 1559, 1553
827, 1531, 1537, 1559, 1553, 1532, 820, 1560, 1554
828, 1552, 1558, 829, 1555, 1553, 1559, 1561, 1556
829, 1553, 1559, 1561, 1556, 1554, 1560, 830, 1557
830, 772, 820, 830, 782, 774, 822, 831, 783
831, 774, 822, 831, 783, 776, 824, 832, 784
832, 776, 824, 832, 784, 778, 826, 833, 785
833, 778, 826, 833, 785, 780, 828, 834, 786
834, 787, 1562, 1565, 1467, 1466, 1563, 1566, 1468
835, 1466, 1563, 1566, 1468, 789, 1564, 1567, 1469
836, 1467, 1565, 1568, 788, 1468, 1566, 1569, 1470
837, 1468, 1566, 1569, 1470, 1469, 1567, 1570, 790
838, 1562, 835, 1572, 1565, 1563, 1571, 1573, 1566
839, 1563, 1571, 1573, 1566, 1564, 837, 1574, 1567
840, 1565, 1572, 836, 1568, 1566, 1573, 1575, 1569
841, 1566, 1573, 1575, 1569, 1567, 1574, 838, 1570
842, 789, 1564, 1567, 1469, 1477, 1576, 1578, 1478
843, 1477, 1576, 1578, 1478, 791, 1577, 1579, 1479
844, 1469, 1567, 1570, 790, 1478, 1578, 1580, 1480
845, 1478, 1578, 1580, 1480, 1479, 1579, 1581, 792
846, 1564, 837, 1574, 1567, 1576, 1582, 1583, 1578
847, 1576, 1582, 1583, 1578, 1577, 839, 1584, 1579
848, 1567, 1574, 838, 1570, 1578, 1583, 1585, 1580
849, 1578, 1583, 1585, 1580, 1579, 1584, 840, 1581
850, 788, 836, 841, 793, 790, 838, 842, 794
851, 790, 838, 842, 794, 792, 840, 843, 795
852, 793, 841, 844, 796, 794, 842, 845, 797
853, 794, 842, 845, 797, 795, 843, 846, 798
854, 796, 844, 827, 779, 797, 845, 847, 799
855, 797, 845, 847, 799, 798, 846, 848, 800
856, 779, 827, 828, 780, 799, 847, 849, 801
857, 799, 847, 849, 801, 800, 848, 850, 802
858, 780, 828, 834, 786, 801, 849, 851, 803
859, 801, 849, 851, 803, 802, 850, 852, 804
860, 786, 834, 853, 805, 803, 851, 854, 806
861, 803, 1586, 1589, 1496, 1495, 1587, 1590, 1497
862, 1495, 1587, 1590, 1497, 804, 1588, 1591, 1498
863, 1496, 1589, 1592, 806, 1497, 1590, 1593, 1499
864, 1497, 1590, 1593, 1499, 1498, 1591, 1594, 807
865, 1586, 851, 1596, 1589, 1587, 1595, 1597, 1590
866, 1587, 1595, 1597, 1590, 1588, 852, 1598, 1591
867, 1589, 1596, 854, 1592, 1590, 1597, 1599, 1593
868, 1590, 1597, 1599, 1593, 1591, 1598, 855, 1594
869, 805, 853, 856, 808, 806, 854, 857, 809
870, 806, 854, 857, 809, 807, 855, 858, 810
871, 808, 856, 859, 811, 809, 857, 860, 812
872, 809, 857, 860, 812, 810, 858, 861, 813
873, 811, 1600, 1603, 1510, 1509, 1601, 1604, 1511
874, 1509, 1601, 1604, 1511, 812, 1602, 1605, 1512
875, 1510, 1603, 1606, 814, 1511, 1604, 1607, 1513
876, 1511, 1604, 1607, 1513, 1512, 1605, 1608, 815
877, 1600, 859, 1610, 1603, 1601, 1609, 1611, 1604
878, 1601, 1609, 1611, 1604, 1602, 860, 1612, 1605
879, 1603, 1610, 862, 1606, 1604, 1611, 1613, 1607
880, 1604, 1611, 1613, 1607, 1605, 1612, 863, 1608
881, 812, 1602, 1605, 1512, 1520, 1614, 1616, 1521
882, 1520, 1614, 1616, 1521, 813, 1615, 1617, 1522
883, 1512, 1605, 1608, 815, 1521, 1616, 1618, 1523
884, 1521, 1616, 1618, 1523, 1522, 1617, 1619, 816
885, 1602, 860, 1612, 1605, 1614, 1620, 1621, 1616
886, 1614, 1620, 1621, 1616, 1615, 861, 1622, 1617
887, 1605, 1612, 863, 1608, 1616, 1621, 1623, 1618
888, 1616, 1621, 1623, 1618, 1617, 1622, 864, 1619
889, 817, 1624, 1627, 1534, 1533, 1625, 1628, 1535
890, 1533, 1625, 1628, 1535, 819, 1626, 1629, 1536
891, 1534, 1627, 1630, 818, 1535, 1628, 1631, 1537
892, 1535, 1628, 1631, 1537, 1536, 1629, 1632, 820
893, 1624, 865, 1634, 1627, 1625, 1633, 1635, 1628
894, 1625, 1633, 1635, 1628, 1626, 867, 1636, 1629
895, 1627, 1634, 866, 1630, 1628, 1635, 1637, 1631
896, 1628, 1635, 1637, 1631, 1629, 1636, 868, 1632
897, 819, 867, 868, 820, 821, 869, 870, 822
898, 821, 869, 870, 822, 823, 871, 872, 824
899, 823, 871, 872, 824, 825, 873, 874, 826
900, 825, 1638, 1641, 1548, 1547, 1639, 1642, 1549
901, 1547, 1639, 1642, 1549, 827, 1640, 1643, 1550
902, 1548, 1641, 1644, 826, 1549, 1642, 1645, 1551
903, 1549, 1642, 1645, 1551, 1550, 1643, 1646, 828
904, 1638, 873, 1648, 1641, 1639, 1647, 1649, 1642
905, 1639, 1647, 1649, 1642, 1640, 875, 1650, 1643
906, 1641, 1648, 874, 1644, 1642, 1649, 1651, 1645
907, 1642, 1649, 1651, 1645, 1643, 1650, 876, 1646
908, 818, 1630, 1652, 1558, 1537, 1631, 1653, 1559
909, 1537, 1631, 1653, 1559, 820, 1632, 1654, 1560
910, 1558, 1652, 1655, 829, 1559, 1653, 1656, 1561
911, 1559, 1653, 1656, 1561, 1560, 1654, 1657, 830
912, 1630, 866, 1658, 1652, 1631, 1637, 1659, 1653
913, 1631, 1637, 1659, 1653, 1632, 868, 1660, 1654
914, 1652, 1658, 877, 1655, 1653, 1659, 1661, 1656
915, 1653, 1659, 1661, 1656, 1654, 1660, 878, 1657
916, 820, 868, 878, 830, 822, 870, 879, 831
917, 822, 870, 879, 831, 824, 872, 880, 832
918, 824, 872, 880, 832, 826, 874, 881, 833
919, 826, 1644, 1666, 1662, 1551, 1645, 1667, 1663
920, 1551, 1645, 1667, 1663, 828, 1646, 1668, 1664
921, 1662, 1666, 1669, 833, 1663, 1667, 1670, 1665
922, 1663, 1667, 1670, 1665, 1664, 1668, 1671, 834
923, 1644, 874, 1672, 1666, 1645, 1651, 1673, 1667
924, 1645, 1651, 1673, 1667, 1646, 876, 1674, 1668
925, 1666, 1672, 881, 1669, 1667, 1673, 1675, 1670
926, 1667, 1673, 1675, 1670, 1668, 1674, 882, 1671
927, 835, 1676, 1679, 1572, 1571, 1677, 1680, 1573
928, 1571, 1677, 1680, 1573, 837, 1678, 1681, 1574
929, 1572, 1679, 1682, 836, 1573, 1680, 1683, 1575
930, 1573, 1680, 1683, 1575, 1574, 1681, 1684, 838
931, 1676, 883, 1686, 1679, 1677, 1685, 1687, 1680
932, 1677, 1685, 1687, 1680, 1678, 885, 1688, 1681
933, 1679, 1686, 884, 1682, 1680, 1687, 1689, 1683
934, 1680, 1687, 1689, 1683, 1681, 1688, 886, 1684
935, 837, 1678, 1681, 1574, 1582, 1690, 1692, 1583
936, 1582, 1690, 1692, 1583, 839, 1691, 1693, 1584
937, 1574, 1681, 1684, 838, 1583, 1692, 1694, 1585
938, 1583, 1692, 1694, 1585, 1584, 1693, 1695, 840
939, 1678, 885, 1688, 1681, 1690, 1696, 1697, 1692
940, 1690, 1696, 1697, 1692, 1691, 887, 1698, 1693
941, 1681, 1688, 886, 1684, 1692, 1697, 1699, 1694
942, 1692, 1697, 1699, 1694, 1693, 1698, 888, 1695
943, 836, 884, 889, 841, 838, 886, 890, 842
944, 838, 886, 890, 842, 840, 888, 891, 843
945, 841, 889, 892, 844, 842, 890, 893, 845
946, 842, 890, 893, 845, 843, 891, 894, 846
947, 844, 1705, 1708, 1701, 1700, 1706, 1709, 1702
948, 1700, 1706, 1709, 1702, 845, 1707, 1710, 1703
949, 1701, 1708, 1640, 827, 1702, 1709, 1711, 1704
950, 1702, 1709, 1711, 1704, 1703, 1710, 1712, 847
951, 1705, 892, 1714, 1708, 1706, 1713, 1715, 1709
952, 1706, 1713, 1715, 1709, 1707, 893, 1716, 1710
953, 1708, 1714, 875, 1640, 1709, 1715, 1717, 1711
954, 1709, 1715, 1717, 1711, 1710, 1716, 895, 1712
955, 845, 1707, 1710, 1703, 1718, 1722, 1724, 1719
956, 1718, 1722, 1724, 1719, 846, 1723, 1725, 1720
957, 1703, 1710, 1712, 847, 1719, 1724, 1726, 1721
958, 1719, 1724, 1726, 1721, 1720, 1725, 1727, 848
959, 1707, 893, 1716, 1710, 1722, 1728, 1729, 1724
960, 1722, 1728, 1729, 1724, 1723, 894, 1730, 1725
961, 1710, 1716, 895, 1712, 1724, 1729, 1731, 1726
962, 1724, 1729, 1731, 1726, 1725, 1730, 896, 1727
963, 827, 875, 876, 828, 847, 895, 897, 849
964, 847, 895, 897, 849, 848, 896, 898, 850
965, 828, 876, 882, 834, 849, 897, 899, 851
966, 849, 897, 899, 851, 850, 898, 900, 852
967, 834, 882, 901, 853, 851, 899, 902, 854
968, 851, 899, 902, 854, 852, 900, 903, 855
969, 853, 901, 904, 856, 854, 902, 905, 857
970, 854, 902, 905, 857, 855, 903, 906, 858
971, 856, 904, 907, 859, 857, 905, 908, 860
972, 857, 905, 908, 860, 858, 906, 909, 861
973, 859, 1732, 1735, 1610, 1609, 1733, 1736, 1611
974, 1609, 1733, 1736, 1611, 860, 1734, 1737, 1612
975, 1610, 1735, 1738, 862, 1611, 1736, 1739, 1613
976, 1611, 1736, 1739, 1613, 1612, 1737, 1740, 863
977, 1732, 907, 1742, 1735, 1733, 1741, 1743, 1736
978, 1733, 1741, 1743, 1736, 1734, 908, 1744, 1737
979, 1735, 1742, 910, 1738, 1736, 1743, 1745, 1739
980, 1736, 1743, 1745, 1739, 1737, 1744, 911, 1740
981, 860, 1734, 1737, 1612, 1620, 1746, 1748, 1621
982, 1620, 1746, 1748, 1621, 861, 1747, 1749, 1622
983, 1612, 1737, 1740, 863, 1621, 1748, 1750, 1623
984, 1621, 1748, 1750, 1623, 1622, 1749, 1751, 864
985, 1734, 908, 1744, 1737, 1746, 1752, 1753, 1748
986, 1746, 1752, 1753, 1748, 1747, 909, 1754, 1749
987, 1737, 1744, 911, 1740, 1748, 1753, 1755, 1750
988, 1748, 1753, 1755, 1750, 1749, 1754, 912, 1751
*NSET, NSET=CLAMP
1, 4, 5, 8, 9, 12, 13, 16, 17, 20, 21, 24, 26, 28, 30, 32
34, 36, 37, 40, 41, 44, 45, 48, 50, 52, 54, 56, 58, 60, 62, 64
66, 68, 70, 72, 74, 76, 78, 80, 82, 84, 86, 88, 90, 92, 94, 96
913, 914, 915, 916, 917, 932, 933, 934, 935
*NSET, NSET=TIP_TOP
887, 888, 891, 894, 896, 898, 900, 903, 906, 909, 912, 1698, 1730, 1754
*MATERIAL, NAME=STEEL
*ELASTIC
210000, 0.3
*SOLID SECTION, ELSET=EALL, MATERIAL=STEEL
*EQUATION
3
920, 1, 1.0, 5, 1, -0.5, 6, 1, -0.5
*EQUATION
3
920, 2, 1.0, 5, 2, -0.5, 6, 2, -0.5
*EQUATION
3
920, 3, 1.0, 5, 3, -0.5, 6, 3, -0.5
*EQUATION
5
923, 1, 1.0, 5, 1, -0.25, 6, 1, -0.25, 7, 1, -0.25, 8, 1, -0.25
*EQUATION
5
923, 2, 1.0, 5, 2, -0.25, 6, 2, -0.25, 7, 2, -0.25, 8, 2, -0.25
*EQUATION
5
923, 3, 1.0, 5, 3, -0.25, 6, 3, -0.25, 7, 3, -0.25, 8, 3, -0.25
*EQUATION
3
926, 1, 1.0, 7, 1, -0.5, 8, 1, -0.5
*EQUATION
3
926, 2, 1.0, 7, 2, -0.5, 8, 2, -0.5
*EQUATION
3
926, 3, 1.0, 7, 3, -0.5, 8, 3, -0.5
*EQUATION
3
930, 1, 1.0, 6, 1, -0.5, 7, 1, -0.5
*EQUATION
3
930, 2, 1.0, 6, 2, -0.5, 7, 2, -0.5
*EQUATION
3
930, 3, 1.0, 6, 3, -0.5, 7, 3, -0.5
*EQUATION
5
938, 1, 1.0, 8, 1, -0.25, 7, 1, -0.25, 27, 1, -0.25, 28, 1, -0.25
*EQUATION
5
938, 2, 1.0, 8, 2, -0.25, 7, 2, -0.25, 27, 2, -0.25, 28, 2, -0.25
*EQUATION
5
938, 3, 1.0, 8, 3, -0.25, 7, 3, -0.25, 27, 3, -0.25, 28, 3, -0.25
*EQUATION
3
941, 1, 1.0, 27, 1, -0.5, 28, 1, -0.5
*EQUATION
3
941, 2, 1.0, 27, 2, -0.5, 28, 2, -0.5
*EQUATION
3
941, 3, 1.0, 27, 3, -0.5, 28, 3, -0.5
*EQUATION
3
944, 1, 1.0, 7, 1, -0.5, 27, 1, -0.5
*EQUATION
3
944, 2, 1.0, 7, 2, -0.5, 27, 2, -0.5
*EQUATION
3
944, 3, 1.0, 7, 3, -0.5, 27, 3, -0.5
*EQUATION
3
948, 1, 1.0, 6, 1, -0.5, 99, 1, -0.5
*EQUATION
3
948, 2, 1.0, 6, 2, -0.5, 99, 2, -0.5
*EQUATION
3
948, 3, 1.0, 6, 3, -0.5, 99, 3, -0.5
*EQUATION
5
951, 1, 1.0, 6, 1, -0.25, 99, 1, -0.25, 100, 1, -0.25, 7, 1, -0.25
*EQUATION
5
951, 2, 1.0, 6, 2, -0.25, 99, 2, -0.25, 100, 2, -0.25, 7, 2, -0.25
*EQUATION
5
951, 3, 1.0, 6, 3, -0.25, 99, 3, -0.25, 100, 3, -0.25, 7, 3, -0.25
*EQUATION
3
954, 1, 1.0, 7, 1, -0.5, 100, 1, -0.5
*EQUATION
3
954, 2, 1.0, 7, 2, -0.5, 100, 2, -0.5
*EQUATION
3
954, 3, 1.0, 7, 3, -0.5, 100, 3, -0.5
*EQUATION
3
955, 1, 1.0, 97, 1, -0.5, 99, 1, -0.5
*EQUATION
3
955, 2, 1.0, 97, 2, -0.5, 99, 2, -0.5
*EQUATION
3
955, 3, 1.0, 97, 3, -0.5, 99, 3, -0.5
*EQUATION
3
956, 1, 1.0, 97, 1, -0.5, 98, 1, -0.5
*EQUATION
3
956, 2, 1.0, 97, 2, -0.5, 98, 2, -0.5
*EQUATION
3
956, 3, 1.0, 97, 3, -0.5, 98, 3, -0.5
*EQUATION
5
957, 1, 1.0, 97, 1, -0.25, 98, 1, -0.25, 100, 1, -0.25, 99, 1, -0.25
*EQUATION
5
957, 2, 1.0, 97, 2, -0.25, 98, 2, -0.25, 100, 2, -0.25, 99, 2, -0.25
*EQUATION
5
957, 3, 1.0, 97, 3, -0.25, 98, 3, -0.25, 100, 3, -0.25, 99, 3, -0.25
*EQUATION
3
958, 1, 1.0, 99, 1, -0.5, 100, 1, -0.5
*EQUATION
3
958, 2, 1.0, 99, 2, -0.5, 100, 2, -0.5
*EQUATION
3
958, 3, 1.0, 99, 3, -0.5, 100, 3, -0.5
*EQUATION
3
959, 1, 1.0, 98, 1, -0.5, 100, 1, -0.5
*EQUATION
3
959, 2, 1.0, 98, 2, -0.5, 100, 2, -0.5
*EQUATION
3
959, 3, 1.0, 98, 3, -0.5, 100, 3, -0.5
*EQUATION
5
962, 1, 1.0, 7, 1, -0.25, 100, 1, -0.25, 110, 1, -0.25, 27, 1, -0.25
*EQUATION
5
962, 2, 1.0, 7, 2, -0.25, 100, 2, -0.25, 110, 2, -0.25, 27, 2, -0.25
*EQUATION
5
962, 3, 1.0, 7, 3, -0.25, 100, 3, -0.25, 110, 3, -0.25, 27, 3, -0.25
*EQUATION
3
965, 1, 1.0, 27, 1, -0.5, 110, 1, -0.5
*EQUATION
3
965, 2, 1.0, 27, 2, -0.5, 110, 2, -0.5
*EQUATION
3
965, 3, 1.0, 27, 3, -0.5, 110, 3, -0.5
*EQUATION
3
966, 1, 1.0, 98, 1, -0.5, 109, 1, -0.5
*EQUATION
3
966, 2, 1.0, 98, 2, -0.5, 109, 2, -0.5
*EQUATION
3
966, 3, 1.0, 98, 3, -0.5, 109, 3, -0.5
*EQUATION
5
967, 1, 1.0, 98, 1, -0.25, 109, 1, -0.25, 110, 1, -0.25, 100, 1, -0.25
*EQUATION
5
967, 2, 1.0, 98, 2, -0.25, 109, 2, -0.25, 110, 2, -0.25, 100, 2, -0.25
*EQUATION
5
967, 3, 1.0, 98, 3, -0.25, 109, 3, -0.25, 110, 3, -0.25, 100, 3, -0.25
*EQUATION
3
968, 1, 1.0, 100, 1, -0.5, 110, 1, -0.5
*EQUATION
3
968, 2, 1.0, 100, 2, -0.5, 110, 2, -0.5
*EQUATION
3
968, 3, 1.0, 100, 3, -0.5, 110, 3, -0.5
*EQUATION
3
969, 1, 1.0, 109, 1, -0.5, 110, 1, -0.5
*EQUATION
3
969, 2, 1.0, 109, 2, -0.5, 110, 2, -0.5
*EQUATION
3
969, 3, 1.0, 109, 3, -0.5, 110, 3, -0.5
*EQUATION
3
970, 1, 1.0, 146, 1, -0.5, 148, 1, -0.5
*EQUATION
3
970, 2, 1.0, 146, 2, -0.5, 148, 2, -0.5
*EQUATION
3
970, 3, 1.0, 146, 3, -0.5, 148, 3, -0.5
*EQUATION
3
971, 1, 1.0, 146, 1, -0.5, 157, 1, -0.5
*EQUATION
3
971, 2, 1.0, 146, 2, -0.5, 157, 2, -0.5
*EQUATION
3
971, 3, 1.0, 146, 3, -0.5, 157, 3, -0.5
*EQUATION
5
972, 1, 1.0, 146, 1, -0.25, 157, 1, -0.25, 158, 1, -0.25, 148, 1, -0.25
*EQUATION
5
972, 2, 1.0, 146, 2, -0.25, 157, 2, -0.25, 158, 2, -0.25, 148, 2, -0.25
*EQUATION
5
972, 3, 1.0, 146, 3, -0.25, 157, 3, -0.25, 158, 3, -0.25, 148, 3, -0.25
*EQUATION
3
973, 1, 1.0, 148, 1, -0.5, 158, 1, -0.5
*EQUATION
3
973, 2, 1.0, 148, 2, -0.5, 158, 2, -0.5
*EQUATION
3
973, 3, 1.0, 148, 3, -0.5, 158, 3, -0.5
*EQUATION
3
974, 1, 1.0, 157, 1, -0.5, 158, 1, -0.5
*EQUATION
3
974, 2, 1.0, 157, 2, -0.5, 158, 2, -0.5
*EQUATION
3
974, 3, 1.0, 157, 3, -0.5, 158, 3, -0.5
*EQUATION
3
975, 1, 1.0, 146, 1, -0.5, 194, 1, -0.5
*EQUATION
3
975, 2, 1.0, 146, 2, -0.5, 194, 2, -0.5
*EQUATION
3
975, 3, 1.0, 146, 3, -0.5, 194, 3, -0.5
*EQUATION
5
976, 1, 1.0, 146, 1, -0.25, 194, 1, -0.25, 196, 1, -0.25, 148, 1, -0.25
*EQUATION
5
976, 2, 1.0, 146, 2, -0.25, 194, 2, -0.25, 196, 2, -0.25, 148, 2, -0.25
*EQUATION
5
976, 3, 1.0, 146, 3, -0.25, 194, 3, -0.25, 196, 3, -0.25, 148, 3, -0.25
*EQUATION
3
977, 1, 1.0, 148, 1, -0.5, 196, 1, -0.5
*EQUATION
3
977, 2, 1.0, 148, 2, -0.5, 196, 2, -0.5
*EQUATION
3
977, 3, 1.0, 148, 3, -0.5, 196, 3, -0.5
*EQUATION
5
980, 1, 1.0, 148, 1, -0.25, 196, 1, -0.25, 206, 1, -0.25, 158, 1, -0.25
*EQUATION
5
980, 2, 1.0, 148, 2, -0.25, 196, 2, -0.25, 206, 2, -0.25, 158, 2, -0.25
*EQUATION
5
980, 3, 1.0, 148, 3, -0.25, 196, 3, -0.25, 206, 3, -0.25, 158, 3, -0.25
*EQUATION
3
983, 1, 1.0, 158, 1, -0.5, 206, 1, -0.5
*EQUATION
3
983, 2, 1.0, 158, 2, -0.5, 206, 2, -0.5
*EQUATION
3
983, 3, 1.0, 158, 3, -0.5, 206, 3, -0.5
*EQUATION
3
984, 1, 1.0, 194, 1, -0.5, 196, 1, -0.5
*EQUATION
3
984, 2, 1.0, 194, 2, -0.5, 196, 2, -0.5
*EQUATION
3
984, 3, 1.0, 194, 3, -0.5, 196, 3, -0.5
*EQUATION
3
985, 1, 1.0, 194, 1, -0.5, 205, 1, -0.5
*EQUATION
3
985, 2, 1.0, 194, 2, -0.5, 205, 2, -0.5
*EQUATION
3
985, 3, 1.0, 194, 3, -0.5, 205, 3, -0.5
*EQUATION
5
986, 1, 1.0, 194, 1, -0.25, 205, 1, -0.25, 206, 1, -0.25, 196, 1, -0.25
*EQUATION
5
986, 2, 1.0, 194, 2, -0.25, 205, 2, -0.25, 206, 2, -0.25, 196, 2, -0.25
*EQUATION
5
986, 3, 1.0, 194, 3, -0.25, 205, 3, -0.25, 206, 3, -0.25, 196, 3, -0.25
*EQUATION
3
987, 1, 1.0, 196, 1, -0.5, 206, 1, -0.5
*EQUATION
3
987, 2, 1.0, 196, 2, -0.5, 206, 2, -0.5
*EQUATION
3
987, 3, 1.0, 196, 3, -0.5, 206, 3, -0.5
*EQUATION
3
988, 1, 1.0, 205, 1, -0.5, 206, 1, -0.5
*EQUATION
3
988, 2, 1.0, 205, 2, -0.5, 206, 2, -0.5
*EQUATION
3
988, 3, 1.0, 205, 3, -0.5, 206, 3, -0.5
*EQUATION
3
989, 1, 1.0, 385, 1, -0.5, 387, 1, -0.5
*EQUATION
3
989, 2, 1.0, 385, 2, -0.5, 387, 2, -0.5
*EQUATION
3
989, 3, 1.0, 385, 3, -0.5, 387, 3, -0.5
*EQUATION
3
990, 1, 1.0, 385, 1, -0.5, 386, 1, -0.5
*EQUATION
3
990, 2, 1.0, 385, 2, -0.5, 386, 2, -0.5
*EQUATION
3
990, 3, 1.0, 385, 3, -0.5, 386, 3, -0.5
*EQUATION
5
991, 1, 1.0, 385, 1, -0.25, 386, 1, -0.25, 388, 1, -0.25, 387, 1, -0.25
*EQUATION
5
991, 2, 1.0, 385, 2, -0.25, 386, 2, -0.25, 388, 2, -0.25, 387, 2, -0.25
*EQUATION
5
991, 3, 1.0, 385, 3, -0.25, 386, 3, -0.25, 388, 3, -0.25, 387, 3, -0.25
*EQUATION
3
992, 1, 1.0, 387, 1, -0.5, 388, 1, -0.5
*EQUATION
3
992, 2, 1.0, 387, 2, -0.5, 388, 2, -0.5
*EQUATION
3
992, 3, 1.0, 387, 3, -0.5, 388, 3, -0.5
*EQUATION
3
993, 1, 1.0, 386, 1, -0.5, 388, 1, -0.5
*EQUATION
3
993, 2, 1.0, 386, 2, -0.5, 388, 2, -0.5
*EQUATION
3
993, 3, 1.0, 386, 3, -0.5, 388, 3, -0.5
*EQUATION
3
996, 1, 1.0, 387, 1, -0.5, 435, 1, -0.5
*EQUATION
3
996, 2, 1.0, 387, 2, -0.5, 435, 2, -0.5
*EQUATION
3
996, 3, 1.0, 387, 3, -0.5, 435, 3, -0.5
*EQUATION
5
999, 1, 1.0, 387, 1, -0.25, 435, 1, -0.25, 436, 1, -0.25, 388, 1, -0.25
*EQUATION
5
999, 2, 1.0, 387, 2, -0.25, 435, 2, -0.25, 436, 2, -0.25, 388, 2, -0.25
*EQUATION
5
999, 3, 1.0, 387, 3, -0.25, 435, 3, -0.25, 436, 3, -0.25, 388, 3, -0.25
*EQUATION
3
1002, 1, 1.0, 388, 1, -0.5, 436, 1, -0.5
*EQUATION
3
1002, 2, 1.0, 388, 2, -0.5, 436, 2, -0.5
*EQUATION
3
1002, 3, 1.0, 388, 3, -0.5, 436, 3, -0.5
*EQUATION
3
1006, 1, 1.0, 435, 1, -0.5, 436, 1, -0.5
*EQUATION
3
1006, 2, 1.0, 435, 2, -0.5, 436, 2, -0.5
*EQUATION
3
1006, 3, 1.0, 435, 3, -0.5, 436, 3, -0.5
*EQUATION
3
1008, 1, 1.0, 386, 1, -0.5, 397, 1, -0.5
*EQUATION
3
1008, 2, 1.0, 386, 2, -0.5, 397, 2, -0.5
*EQUATION
3
1008, 3, 1.0, 386, 3, -0.5, 397, 3, -0.5
*EQUATION
5
1009, 1, 1.0, 386, 1, -0.25, 397, 1, -0.25, 398, 1, -0.25, 388, 1, -0.25
*EQUATION
5
1009, 2, 1.0, 386, 2, -0.25, 397, 2, -0.25, 398, 2, -0.25, 388, 2, -0.25
*EQUATION
5
1009, 3, 1.0, 386, 3, -0.25, 397, 3, -0.25, 398, 3, -0.25, 388, 3, -0.25
*EQUATION
3
1010, 1, 1.0, 388, 1, -0.5, 398, 1, -0.5
*EQUATION
3
1010, 2, 1.0, 388, 2, -0.5, 398, 2, -0.5
*EQUATION
3
1010, 3, 1.0, 388, 3, -0.5, 398, 3, -0.5
*EQUATION
3
1011, 1, 1.0, 397, 1, -0.5, 398, 1, -0.5
*EQUATION
3
1011, 2, 1.0, 397, 2, -0.5, 398, 2, -0.5
*EQUATION
3
1011, 3, 1.0, 397, 3, -0.5, 398, 3, -0.5
*EQUATION
5
1014, 1, 1.0, 388, 1, -0.25, 436, 1, -0.25, 446, 1, -0.25, 398, 1, -0.25
*EQUATION
5
1014, 2, 1.0, 388, 2, -0.25, 436, 2, -0.25, 446, 2, -0.25, 398, 2, -0.25
*EQUATION
5
1014, 3, 1.0, 388, 3, -0.25, 436, 3, -0.25, 446, 3, -0.25, 398, 3, -0.25
*EQUATION
3
1017, 1, 1.0, 398, 1, -0.5, 446, 1, -0.5
*EQUATION
3
1017, 2, 1.0, 398, 2, -0.5, 446, 2, -0.5
*EQUATION
3
1017, 3, 1.0, 398, 3, -0.5, 446, 3, -0.5
*EQUATION
3
1020, 1, 1.0, 436, 1, -0.5, 446, 1, -0.5
*EQUATION
3
1020, 2, 1.0, 436, 2, -0.5, 446, 2, -0.5
*EQUATION
3
1020, 3, 1.0, 436, 3, -0.5, 446, 3, -0.5
*EQUATION
3
1024, 1, 1.0, 435, 1, -0.5, 483, 1, -0.5
*EQUATION
3
1024, 2, 1.0, 435, 2, -0.5, 483, 2, -0.5
*EQUATION
3
1024, 3, 1.0, 435, 3, -0.5, 483, 3, -0.5
*EQUATION
5
1027, 1, 1.0, 435, 1, -0.25, 483, 1, -0.25, 484, 1, -0.25, 436, 1, -0.25
*EQUATION
5
1027, 2, 1.0, 435, 2, -0.25, 483, 2, -0.25, 484, 2, -0.25, 436, 2, -0.25
*EQUATION
5
1027, 3, 1.0, 435, 3, -0.25, 483, 3, -0.25, 484, 3, -0.25, 436, 3, -0.25
*EQUATION
3
1030, 1, 1.0, 436, 1, -0.5, 484, 1, -0.5
*EQUATION
3
1030, 2, 1.0, 436, 2, -0.5, 484, 2, -0.5
*EQUATION
3
1030, 3, 1.0, 436, 3, -0.5, 484, 3, -0.5
*EQUATION
3
1034, 1, 1.0, 483, 1, -0.5, 484, 1, -0.5
*EQUATION
3
1034, 2, 1.0, 483, 2, -0.5, 484, 2, -0.5
*EQUATION
3
1034, 3, 1.0, 483, 3, -0.5, 484, 3, -0.5
*EQUATION
5
1038, 1, 1.0, 436, 1, -0.25, 484, 1, -0.25, 494, 1, -0.25, 446, 1, -0.25
*EQUATION
5
1038, 2, 1.0, 436, 2, -0.25, 484, 2, -0.25, 494, 2, -0.25, 446, 2, -0.25
*EQUATION
5
1038, 3, 1.0, 436, 3, -0.25, 484, 3, -0.25, 494, 3, -0.25, 446, 3, -0.25
*EQUATION
3
1041, 1, 1.0, 446, 1, -0.5, 494, 1, -0.5
*EQUATION
3
1041, 2, 1.0, 446, 2, -0.5, 494, 2, -0.5
*EQUATION
3
1041, 3, 1.0, 446, 3, -0.5, 494, 3, -0.5
*EQUATION
3
1044, 1, 1.0, 484, 1, -0.5, 494, 1, -0.5
*EQUATION
3
1044, 2, 1.0, 484, 2, -0.5, 494, 2, -0.5
*EQUATION
3
1044, 3, 1.0, 484, 3, -0.5, 494, 3, -0.5
*EQUATION
3
1048, 1, 1.0, 483, 1, -0.5, 531, 1, -0.5
*EQUATION
3
1048, 2, 1.0, 483, 2, -0.5, 531, 2, -0.5
*EQUATION
3
1048, 3, 1.0, 483, 3, -0.5, 531, 3, -0.5
*EQUATION
5
1051, 1, 1.0, 483, 1, -0.25, 531, 1, -0.25, 532, 1, -0.25, 484, 1, -0.25
*EQUATION
5
1051, 2, 1.0, 483, 2, -0.25, 531, 2, -0.25, 532, 2, -0.25, 484, 2, -0.25
*EQUATION
5
1051, 3, 1.0, 483, 3, -0.25, 531, 3, -0.25, 532, 3, -0.25, 484, 3, -0.25
*EQUATION
3
1054, 1, 1.0, 484, 1, -0.5, 532, 1, -0.5
*EQUATION
3
1054, 2, 1.0, 484, 2, -0.5, 532, 2, -0.5
*EQUATION
3
1054, 3, 1.0, 484, 3, -0.5, 532, 3, -0.5
*EQUATION
3
1058, 1, 1.0, 531, 1, -0.5, 532, 1, -0.5
*EQUATION
3
1058, 2, 1.0, 531, 2, -0.5, 532, 2, -0.5
*EQUATION
3
1058, 3, 1.0, 531, 3, -0.5, 532, 3, -0.5
*EQUATION
5
1062, 1, 1.0, 484, 1, -0.25, 532, 1, -0.25, 542, 1, -0.25, 494, 1, -0.25
*EQUATION
5
1062, 2, 1.0, 484, 2, -0.25, 532, 2, -0.25, 542, 2, -0.25, 494, 2, -0.25
*EQUATION
5
1062, 3, 1.0, 484, 3, -0.25, 532, 3, -0.25, 542, 3, -0.25, 494, 3, -0.25
*EQUATION
3
1065, 1, 1.0, 494, 1, -0.5, 542, 1, -0.5
*EQUATION
3
1065, 2, 1.0, 494, 2, -0.5, 542, 2, -0.5
*EQUATION
3
1065, 3, 1.0, 494, 3, -0.5, 542, 3, -0.5
*EQUATION
3
1068, 1, 1.0, 532, 1, -0.5, 542, 1, -0.5
*EQUATION
3
1068, 2, 1.0, 532, 2, -0.5, 542, 2, -0.5
*EQUATION
3
1068, 3, 1.0, 532, 3, -0.5, 542, 3, -0.5
*EQUATION
3
1070, 1, 1.0, 499, 1, -0.5, 501, 1, -0.5
*EQUATION
3
1070, 2, 1.0, 499, 2, -0.5, 501, 2, -0.5
*EQUATION
3
1070, 3, 1.0, 499, 3, -0.5, 501, 3, -0.5
*EQUATION
3
1071, 1, 1.0, 499, 1, -0.5, 500, 1, -0.5
*EQUATION
3
1071, 2, 1.0, 499, 2, -0.5, 500, 2, -0.5
*EQUATION
3
1071, 3, 1.0, 499, 3, -0.5, 500, 3, -0.5
*EQUATION
5
1072, 1, 1.0, 499, 1, -0.25, 500, 1, -0.25, 502, 1, -0.25, 501, 1, -0.25
*EQUATION
5
1072, 2, 1.0, 499, 2, -0.25, 500, 2, -0.25, 502, 2, -0.25, 501, 2, -0.25
*EQUATION
5
1072, 3, 1.0, 499, 3, -0.25, 500, 3, -0.25, 502, 3, -0.25, 501, 3, -0.25
*EQUATION
3
1073, 1, 1.0, 501, 1, -0.5, 502, 1, -0.5
*EQUATION
3
1073, 2, 1.0, 501, 2, -0.5, 502, 2, -0.5
*EQUATION
3
1073, 3, 1.0, 501, 3, -0.5, 502, 3, -0.5
*EQUATION
3
1074, 1, 1.0, 500, 1, -0.5, 502, 1, -0.5
*EQUATION
3
1074, 2, 1.0, 500, 2, -0.5, 502, 2, -0.5
*EQUATION
3
1074, 3, 1.0, 500, 3, -0.5, 502, 3, -0.5
*EQUATION
3
1081, 1, 1.0, 500, 1, -0.5, 548, 1, -0.5
*EQUATION
3
1081, 2, 1.0, 500, 2, -0.5, 548, 2, -0.5
*EQUATION
3
1081, 3, 1.0, 500, 3, -0.5, 548, 3, -0.5
*EQUATION
5
1082, 1, 1.0, 500, 1, -0.25, 548, 1, -0.25, 550, 1, -0.25, 502, 1, -0.25
*EQUATION
5
1082, 2, 1.0, 500, 2, -0.25, 548, 2, -0.25, 550, 2, -0.25, 502, 2, -0.25
*EQUATION
5
1082, 3, 1.0, 500, 3, -0.25, 548, 3, -0.25, 550, 3, -0.25, 502, 3, -0.25
*EQUATION
3
1083, 1, 1.0, 502, 1, -0.5, 550, 1, -0.5
*EQUATION
3
1083, 2, 1.0, 502, 2, -0.5, 550, 2, -0.5
*EQUATION
3
1083, 3, 1.0, 502, 3, -0.5, 550, 3, -0.5
*EQUATION
3
1088, 1, 1.0, 548, 1, -0.5, 550, 1, -0.5
*EQUATION
3
1088, 2, 1.0, 548, 2, -0.5, 550, 2, -0.5
*EQUATION
3
1088, 3, 1.0, 548, 3, -0.5, 550, 3, -0.5
*EQUATION
3
1089, 1, 1.0, 501, 1, -0.5, 503, 1, -0.5
*EQUATION
3
1089, 2, 1.0, 501, 2, -0.5, 503, 2, -0.5
*EQUATION
3
1089, 3, 1.0, 501, 3, -0.5, 503, 3, -0.5
*EQUATION
5
1090, 1, 1.0, 501, 1, -0.25, 502, 1, -0.25, 504, 1, -0.25, 503, 1, -0.25
*EQUATION
5
1090, 2, 1.0, 501, 2, -0.25, 502, 2, -0.25, 504, 2, -0.25, 503, 2, -0.25
*EQUATION
5
1090, 3, 1.0, 501, 3, -0.25, 502, 3, -0.25, 504, 3, -0.25, 503, 3, -0.25
*EQUATION
3
1091, 1, 1.0, 503, 1, -0.5, 504, 1, -0.5
*EQUATION
3
1091, 2, 1.0, 503, 2, -0.5, 504, 2, -0.5
*EQUATION
3
1091, 3, 1.0, 503, 3, -0.5, 504, 3, -0.5
*EQUATION
3
1092, 1, 1.0, 502, 1, -0.5, 504, 1, -0.5
*EQUATION
3
1092, 2, 1.0, 502, 2, -0.5, 504, 2, -0.5
*EQUATION
3
1092, 3, 1.0, 502, 3, -0.5, 504, 3, -0.5
*EQUATION
5
1097, 1, 1.0, 502, 1, -0.25, 550, 1, -0.25, 552, 1, -0.25, 504, 1, -0.25
*EQUATION
5
1097, 2, 1.0, 502, 2, -0.25, 550, 2, -0.25, 552, 2, -0.25, 504, 2, -0.25
*EQUATION
5
1097, 3, 1.0, 502, 3, -0.25, 550, 3, -0.25, 552, 3, -0.25, 504, 3, -0.25
*EQUATION
3
1098, 1, 1.0, 504, 1, -0.5, 552, 1, -0.5
*EQUATION
3
1098, 2, 1.0, 504, 2, -0.5, 552, 2, -0.5
*EQUATION
3
1098, 3, 1.0, 504, 3, -0.5, 552, 3, -0.5
*EQUATION
3
1102, 1, 1.0, 550, 1, -0.5, 552, 1, -0.5
*EQUATION
3
1102, 2, 1.0, 550, 2, -0.5, 552, 2, -0.5
*EQUATION
3
1102, 3, 1.0, 550, 3, -0.5, 552, 3, -0.5
*EQUATION
3
1105, 1, 1.0, 531, 1, -0.5, 579, 1, -0.5
*EQUATION
3
1105, 2, 1.0, 531, 2, -0.5, 579, 2, -0.5
*EQUATION
3
1105, 3, 1.0, 531, 3, -0.5, 579, 3, -0.5
*EQUATION
5
1108, 1, 1.0, 531, 1, -0.25, 579, 1, -0.25, 580, 1, -0.25, 532, 1, -0.25
*EQUATION
5
1108, 2, 1.0, 531, 2, -0.25, 579, 2, -0.25, 580, 2, -0.25, 532, 2, -0.25
*EQUATION
5
1108, 3, 1.0, 531, 3, -0.25, 579, 3, -0.25, 580, 3, -0.25, 532, 3, -0.25
*EQUATION
3
1111, 1, 1.0, 532, 1, -0.5, 580, 1, -0.5
*EQUATION
3
1111, 2, 1.0, 532, 2, -0.5, 580, 2, -0.5
*EQUATION
3
1111, 3, 1.0, 532, 3, -0.5, 580, 3, -0.5
*EQUATION
3
1115, 1, 1.0, 579, 1, -0.5, 580, 1, -0.5
*EQUATION
3
1115, 2, 1.0, 579, 2, -0.5, 580, 2, -0.5
*EQUATION
3
1115, 3, 1.0, 579, 3, -0.5, 580, 3, -0.5
*EQUATION
5
1119, 1, 1.0, 532, 1, -0.25, 580, 1, -0.25, 590, 1, -0.25, 542, 1, -0.25
*EQUATION
5
1119, 2, 1.0, 532, 2, -0.25, 580, 2, -0.25, 590, 2, -0.25, 542, 2, -0.25
*EQUATION
5
1119, 3, 1.0, 532, 3, -0.25, 580, 3, -0.25, 590, 3, -0.25, 542, 3, -0.25
*EQUATION
3
1122, 1, 1.0, 542, 1, -0.5, 590, 1, -0.5
*EQUATION
3
1122, 2, 1.0, 542, 2, -0.5, 590, 2, -0.5
*EQUATION
3
1122, 3, 1.0, 542, 3, -0.5, 590, 3, -0.5
*EQUATION
3
1125, 1, 1.0, 580, 1, -0.5, 590, 1, -0.5
*EQUATION
3
1125, 2, 1.0, 580, 2, -0.5, 590, 2, -0.5
*EQUATION
3
1125, 3, 1.0, 580, 3, -0.5, 590, 3, -0.5
*EQUATION
3
1133, 1, 1.0, 548, 1, -0.5, 596, 1, -0.5
*EQUATION
3
1133, 2, 1.0, 548, 2, -0.5, 596, 2, -0.5
*EQUATION
3
1133, 3, 1.0, 548, 3, -0.5, 596, 3, -0.5
*EQUATION
5
1134, 1, 1.0, 548, 1, -0.25, 596, 1, -0.25, 598, 1, -0.25, 550, 1, -0.25
*EQUATION
5
1134, 2, 1.0, 548, 2, -0.25, 596, 2, -0.25, 598, 2, -0.25, 550, 2, -0.25
*EQUATION
5
1134, 3, 1.0, 548, 3, -0.25, 596, 3, -0.25, 598, 3, -0.25, 550, 3, -0.25
*EQUATION
3
1135, 1, 1.0, 550, 1, -0.5, 598, 1, -0.5
*EQUATION
3
1135, 2, 1.0, 550, 2, -0.5, 598, 2, -0.5
*EQUATION
3
1135, 3, 1.0, 550, 3, -0.5, 598, 3, -0.5
*EQUATION
3
1140, 1, 1.0, 596, 1, -0.5, 598, 1, -0.5
*EQUATION
3
1140, 2, 1.0, 596, 2, -0.5, 598, 2, -0.5
*EQUATION
3
1140, 3, 1.0, 596, 3, -0.5, 598, 3, -0.5
*EQUATION
5
1145, 1, 1.0, 550, 1, -0.25, 598, 1, -0.25, 600, 1, -0.25, 552, 1, -0.25
*EQUATION
5
1145, 2, 1.0, 550, 2, -0.25, 598, 2, -0.25, 600, 2, -0.25, 552, 2, -0.25
*EQUATION
5
1145, 3, 1.0, 550, 3, -0.25, 598, 3, -0.25, 600, 3, -0.25, 552, 3, -0.25
*EQUATION
3
1146, 1, 1.0, 552, 1, -0.5, 600, 1, -0.5
*EQUATION
3
1146, 2, 1.0, 552, 2, -0.5, 600, 2, -0.5
*EQUATION
3
1146, 3, 1.0, 552, 3, -0.5, 600, 3, -0.5
*EQUATION
3
1150, 1, 1.0, 598, 1, -0.5, 600, 1, -0.5
*EQUATION
3
1150, 2, 1.0, 598, 2, -0.5, 600, 2, -0.5
*EQUATION
3
1150, 3, 1.0, 598, 3, -0.5, 600, 3, -0.5
*EQUATION
3
1151, 1, 1.0, 571, 1, -0.5, 572, 1, -0.5
*EQUATION
3
1151, 2, 1.0, 571, 2, -0.5, 572, 2, -0.5
*EQUATION
3
1151, 3, 1.0, 571, 3, -0.5, 572, 3, -0.5
*EQUATION
3
1152, 1, 1.0, 571, 1, -0.5, 574, 1, -0.5
*EQUATION
3
1152, 2, 1.0, 571, 2, -0.5, 574, 2, -0.5
*EQUATION
3
1152, 3, 1.0, 571, 3, -0.5, 574, 3, -0.5
*EQUATION
5
1153, 1, 1.0, 571, 1, -0.25, 574, 1, -0.25, 575, 1, -0.25, 572, 1, -0.25
*EQUATION
5
1153, 2, 1.0, 571, 2, -0.25, 574, 2, -0.25, 575, 2, -0.25, 572, 2, -0.25
*EQUATION
5
1153, 3, 1.0, 571, 3, -0.25, 574, 3, -0.25, 575, 3, -0.25, 572, 3, -0.25
*EQUATION
3
1154, 1, 1.0, 572, 1, -0.5, 575, 1, -0.5
*EQUATION
3
1154, 2, 1.0, 572, 2, -0.5, 575, 2, -0.5
*EQUATION
3
1154, 3, 1.0, 572, 3, -0.5, 575, 3, -0.5
*EQUATION
3
1155, 1, 1.0, 574, 1, -0.5, 575, 1, -0.5
*EQUATION
3
1155, 2, 1.0, 574, 2, -0.5, 575, 2, -0.5
*EQUATION
3
1155, 3, 1.0, 574, 3, -0.5, 575, 3, -0.5
*EQUATION
3
1156, 1, 1.0, 571, 1, -0.5, 619, 1, -0.5
*EQUATION
3
1156, 2, 1.0, 571, 2, -0.5, 619, 2, -0.5
*EQUATION
3
1156, 3, 1.0, 571, 3, -0.5, 619, 3, -0.5
*EQUATION
5
1157, 1, 1.0, 571, 1, -0.25, 619, 1, -0.25, 620, 1, -0.25, 572, 1, -0.25
*EQUATION
5
1157, 2, 1.0, 571, 2, -0.25, 619, 2, -0.25, 620, 2, -0.25, 572, 2, -0.25
*EQUATION
5
1157, 3, 1.0, 571, 3, -0.25, 619, 3, -0.25, 620, 3, -0.25, 572, 3, -0.25
*EQUATION
3
1158, 1, 1.0, 572, 1, -0.5, 620, 1, -0.5
*EQUATION
3
1158, 2, 1.0, 572, 2, -0.5, 620, 2, -0.5
*EQUATION
3
1158, 3, 1.0, 572, 3, -0.5, 620, 3, -0.5
*EQUATION
3
1165, 1, 1.0, 619, 1, -0.5, 620, 1, -0.5
*EQUATION
3
1165, 2, 1.0, 619, 2, -0.5, 620, 2, -0.5
*EQUATION
3
1165, 3, 1.0, 619, 3, -0.5, 620, 3, -0.5
*EQUATION
3
1170, 1, 1.0, 572, 1, -0.5, 573, 1, -0.5
*EQUATION
3
1170, 2, 1.0, 572, 2, -0.5, 573, 2, -0.5
*EQUATION
3
1170, 3, 1.0, 572, 3, -0.5, 573, 3, -0.5
*EQUATION
5
1171, 1, 1.0, 572, 1, -0.25, 575, 1, -0.25, 576, 1, -0.25, 573, 1, -0.25
*EQUATION
5
1171, 2, 1.0, 572, 2, -0.25, 575, 2, -0.25, 576, 2, -0.25, 573, 2, -0.25
*EQUATION
5
1171, 3, 1.0, 572, 3, -0.25, 575, 3, -0.25, 576, 3, -0.25, 573, 3, -0.25
*EQUATION
3
1172, 1, 1.0, 573, 1, -0.5, 576, 1, -0.5
*EQUATION
3
1172, 2, 1.0, 573, 2, -0.5, 576, 2, -0.5
*EQUATION
3
1172, 3, 1.0, 573, 3, -0.5, 576, 3, -0.5
*EQUATION
3
1173, 1, 1.0, 575, 1, -0.5, 576, 1, -0.5
*EQUATION
3
1173, 2, 1.0, 575, 2, -0.5, 576, 2, -0.5
*EQUATION
3
1173, 3, 1.0, 575, 3, -0.5, 576, 3, -0.5
*EQUATION
5
1174, 1, 1.0, 572, 1, -0.25, 620, 1, -0.25, 621, 1, -0.25, 573, 1, -0.25
*EQUATION
5
1174, 2, 1.0, 572, 2, -0.25, 620, 2, -0.25, 621, 2, -0.25, 573, 2, -0.25
*EQUATION
5
1174, 3, 1.0, 572, 3, -0.25, 620, 3, -0.25, 621, 3, -0.25, 573, 3, -0.25
*EQUATION
3
1175, 1, 1.0, 573, 1, -0.5, 621, 1, -0.5
*EQUATION
3
1175, 2, 1.0, 573, 2, -0.5, 621, 2, -0.5
*EQUATION
3
1175, 3, 1.0, 573, 3, -0.5, 621, 3, -0.5
*EQUATION
3
1180, 1, 1.0, 620, 1, -0.5, 621, 1, -0.5
*EQUATION
3
1180, 2, 1.0, 620, 2, -0.5, 621, 2, -0.5
*EQUATION
3
1180, 3, 1.0, 620, 3, -0.5, 621, 3, -0.5
*EQUATION
3
1186, 1, 1.0, 579, 1, -0.5, 627, 1, -0.5
*EQUATION
3
1186, 2, 1.0, 579, 2, -0.5, 627, 2, -0.5
*EQUATION
3
1186, 3, 1.0, 579, 3, -0.5, 627, 3, -0.5
*EQUATION
5
1189, 1, 1.0, 579, 1, -0.25, 627, 1, -0.25, 628, 1, -0.25, 580, 1, -0.25
*EQUATION
5
1189, 2, 1.0, 579, 2, -0.25, 627, 2, -0.25, 628, 2, -0.25, 580, 2, -0.25
*EQUATION
5
1189, 3, 1.0, 579, 3, -0.25, 627, 3, -0.25, 628, 3, -0.25, 580, 3, -0.25
*EQUATION
3
1192, 1, 1.0, 580, 1, -0.5, 628, 1, -0.5
*EQUATION
3
1192, 2, 1.0, 580, 2, -0.5, 628, 2, -0.5
*EQUATION
3
1192, 3, 1.0, 580, 3, -0.5, 628, 3, -0.5
*EQUATION
3
1196, 1, 1.0, 627, 1, -0.5, 628, 1, -0.5
*EQUATION
3
1196, 2, 1.0, 627, 2, -0.5, 628, 2, -0.5
*EQUATION
3
1196, 3, 1.0, 627, 3, -0.5, 628, 3, -0.5
*EQUATION
5
1200, 1, 1.0, 580, 1, -0.25, 628, 1, -0.25, 638, 1, -0.25, 590, 1, -0.25
*EQUATION
5
1200, 2, 1.0, 580, 2, -0.25, 628, 2, -0.25, 638, 2, -0.25, 590, 2, -0.25
*EQUATION
5
1200, 3, 1.0, 580, 3, -0.25, 628, 3, -0.25, 638, 3, -0.25, 590, 3, -0.25
*EQUATION
3
1203, 1, 1.0, 590, 1, -0.5, 638, 1, -0.5
*EQUATION
3
1203, 2, 1.0, 590, 2, -0.5, 638, 2, -0.5
*EQUATION
3
1203, 3, 1.0, 590, 3, -0.5, 638, 3, -0.5
*EQUATION
3
1206, 1, 1.0, 628, 1, -0.5, 638, 1, -0.5
*EQUATION
3
1206, 2, 1.0, 628, 2, -0.5, 638, 2, -0.5
*EQUATION
3
1206, 3, 1.0, 628, 3, -0.5, 638, 3, -0.5
*EQUATION
3
1214, 1, 1.0, 596, 1, -0.5, 644, 1, -0.5
*EQUATION
3
1214, 2, 1.0, 596, 2, -0.5, 644, 2, -0.5
*EQUATION
3
1214, 3, 1.0, 596, 3, -0.5, 644, 3, -0.5
*EQUATION
5
1215, 1, 1.0, 596, 1, -0.25, 644, 1, -0.25, 646, 1, -0.25, 598, 1, -0.25
*EQUATION
5
1215, 2, 1.0, 596, 2, -0.25, 644, 2, -0.25, 646, 2, -0.25, 598, 2, -0.25
*EQUATION
5
1215, 3, 1.0, 596, 3, -0.25, 644, 3, -0.25, 646, 3, -0.25, 598, 3, -0.25
*EQUATION
3
1216, 1, 1.0, 598, 1, -0.5, 646, 1, -0.5
*EQUATION
3
1216, 2, 1.0, 598, 2, -0.5, 646, 2, -0.5
*EQUATION
3
1216, 3, 1.0, 598, 3, -0.5, 646, 3, -0.5
*EQUATION
3
1221, 1, 1.0, 644, 1, -0.5, 646, 1, -0.5
*EQUATION
3
1221, 2, 1.0, 644, 2, -0.5, 646, 2, -0.5
*EQUATION
3
1221, 3, 1.0, 644, 3, -0.5, 646, 3, -0.5
*EQUATION
5
1226, 1, 1.0, 598, 1, -0.25, 646, 1, -0.25, 648, 1, -0.25, 600, 1, -0.25
*EQUATION
5
1226, 2, 1.0, 598, 2, -0.25, 646, 2, -0.25, 648, 2, -0.25, 600, 2, -0.25
*EQUATION
5
1226, 3, 1.0, 598, 3, -0.25, 646, 3, -0.25, 648, 3, -0.25, 600, 3, -0.25
*EQUATION
3
1227, 1, 1.0, 600, 1, -0.5, 648, 1, -0.5
*EQUATION
3
1227, 2, 1.0, 600, 2, -0.5, 648, 2, -0.5
*EQUATION
3
1227, 3, 1.0, 600, 3, -0.5, 648, 3, -0.5
*EQUATION
3
1231, 1, 1.0, 646, 1, -0.5, 648, 1, -0.5
*EQUATION
3
1231, 2, 1.0, 646, 2, -0.5, 648, 2, -0.5
*EQUATION
3
1231, 3, 1.0, 646, 3, -0.5, 648, 3, -0.5
*EQUATION
3
1232, 1, 1.0, 619, 1, -0.5, 667, 1, -0.5
*EQUATION
3
1232, 2, 1.0, 619, 2, -0.5, 667, 2, -0.5
*EQUATION
3
1232, 3, 1.0, 619, 3, -0.5, 667, 3, -0.5
*EQUATION
5
1233, 1, 1.0, 619, 1, -0.25, 667, 1, -0.25, 668, 1, -0.25, 620, 1, -0.25
*EQUATION
5
1233, 2, 1.0, 619, 2, -0.25, 667, 2, -0.25, 668, 2, -0.25, 620, 2, -0.25
*EQUATION
5
1233, 3, 1.0, 619, 3, -0.25, 667, 3, -0.25, 668, 3, -0.25, 620, 3, -0.25
*EQUATION
3
1234, 1, 1.0, 620, 1, -0.5, 668, 1, -0.5
*EQUATION
3
1234, 2, 1.0, 620, 2, -0.5, 668, 2, -0.5
*EQUATION
3
1234, 3, 1.0, 620, 3, -0.5, 668, 3, -0.5
*EQUATION
3
1241, 1, 1.0, 667, 1, -0.5, 668, 1, -0.5
*EQUATION
3
1241, 2, 1.0, 667, 2, -0.5, 668, 2, -0.5
*EQUATION
3
1241, 3, 1.0, 667, 3, -0.5, 668, 3, -0.5
*EQUATION
5
1246, 1, 1.0, 620, 1, -0.25, 668, 1, -0.25, 669, 1, -0.25, 621, 1, -0.25
*EQUATION
5
1246, 2, 1.0, 620, 2, -0.25, 668, 2, -0.25, 669, 2, -0.25, 621, 2, -0.25
*EQUATION
5
1246, 3, 1.0, 620, 3, -0.25, 668, 3, -0.25, 669, 3, -0.25, 621, 3, -0.25
*EQUATION
3
1247, 1, 1.0, 621, 1, -0.5, 669, 1, -0.5
*EQUATION
3
1247, 2, 1.0, 621, 2, -0.5, 669, 2, -0.5
*EQUATION
3
1247, 3, 1.0, 621, 3, -0.5, 669, 3, -0.5
*EQUATION
3
1252, 1, 1.0, 668, 1, -0.5, 669, 1, -0.5
*EQUATION
3
1252, 2, 1.0, 668, 2, -0.5, 669, 2, -0.5
*EQUATION
3
1252, 3, 1.0, 668, 3, -0.5, 669, 3, -0.5
*EQUATION
3
1258, 1, 1.0, 627, 1, -0.5, 675, 1, -0.5
*EQUATION
3
1258, 2, 1.0, 627, 2, -0.5, 675, 2, -0.5
*EQUATION
3
1258, 3, 1.0, 627, 3, -0.5, 675, 3, -0.5
*EQUATION
5
1261, 1, 1.0, 627, 1, -0.25, 675, 1, -0.25, 676, 1, -0.25, 628, 1, -0.25
*EQUATION
5
1261, 2, 1.0, 627, 2, -0.25, 675, 2, -0.25, 676, 2, -0.25, 628, 2, -0.25
*EQUATION
5
1261, 3, 1.0, 627, 3, -0.25, 675, 3, -0.25, 676, 3, -0.25, 628, 3, -0.25
*EQUATION
3
1264, 1, 1.0, 628, 1, -0.5, 676, 1, -0.5
*EQUATION
3
1264, 2, 1.0, 628, 2, -0.5, 676, 2, -0.5
*EQUATION
3
1264, 3, 1.0, 628, 3, -0.5, 676, 3, -0.5
*EQUATION
3
1268, 1, 1.0, 675, 1, -0.5, 676, 1, -0.5
*EQUATION
3
1268, 2, 1.0, 675, 2, -0.5, 676, 2, -0.5
*EQUATION
3
1268, 3, 1.0, 675, 3, -0.5, 676, 3, -0.5
*EQUATION
5
1272, 1, 1.0, 628, 1, -0.25, 676, 1, -0.25, 686, 1, -0.25, 638, 1, -0.25
*EQUATION
5
1272, 2, 1.0, 628, 2, -0.25, 676, 2, -0.25, 686, 2, -0.25, 638, 2, -0.25
*EQUATION
5
1272, 3, 1.0, 628, 3, -0.25, 676, 3, -0.25, 686, 3, -0.25, 638, 3, -0.25
*EQUATION
3
1275, 1, 1.0, 638, 1, -0.5, 686, 1, -0.5
*EQUATION
3
1275, 2, 1.0, 638, 2, -0.5, 686, 2, -0.5
*EQUATION
3
1275, 3, 1.0, 638, 3, -0.5, 686, 3, -0.5
*EQUATION
3
1278, 1, 1.0, 676, 1, -0.5, 686, 1, -0.5
*EQUATION
3
1278, 2, 1.0, 676, 2, -0.5, 686, 2, -0.5
*EQUATION
3
1278, 3, 1.0, 676, 3, -0.5, 686, 3, -0.5
*EQUATION
3
1286, 1, 1.0, 644, 1, -0.5, 692, 1, -0.5
*EQUATION
3
1286, 2, 1.0, 644, 2, -0.5, 692, 2, -0.5
*EQUATION
3
1286, 3, 1.0, 644, 3, -0.5, 692, 3, -0.5
*EQUATION
5
1287, 1, 1.0, 644, 1, -0.25, 692, 1, -0.25, 694, 1, -0.25, 646, 1, -0.25
*EQUATION
5
1287, 2, 1.0, 644, 2, -0.25, 692, 2, -0.25, 694, 2, -0.25, 646, 2, -0.25
*EQUATION
5
1287, 3, 1.0, 644, 3, -0.25, 692, 3, -0.25, 694, 3, -0.25, 646, 3, -0.25
*EQUATION
3
1288, 1, 1.0, 646, 1, -0.5, 694, 1, -0.5
*EQUATION
3
1288, 2, 1.0, 646, 2, -0.5, 694, 2, -0.5
*EQUATION
3
1288, 3, 1.0, 646, 3, -0.5, 694, 3, -0.5
*EQUATION
3
1293, 1, 1.0, 692, 1, -0.5, 694, 1, -0.5
*EQUATION
3
1293, 2, 1.0, 692, 2, -0.5, 694, 2, -0.5
*EQUATION
3
1293, 3, 1.0, 692, 3, -0.5, 694, 3, -0.5
*EQUATION
5
1298, 1, 1.0, 646, 1, -0.25, 694, 1, -0.25, 696, 1, -0.25, 648, 1, -0.25
*EQUATION
5
1298, 2, 1.0, 646, 2, -0.25, 694, 2, -0.25, 696, 2, -0.25, 648, 2, -0.25
*EQUATION
5
1298, 3, 1.0, 646, 3, -0.25, 694, 3, -0.25, 696, 3, -0.25, 648, 3, -0.25
*EQUATION
3
1299, 1, 1.0, 648, 1, -0.5, 696, 1, -0.5
*EQUATION
3
1299, 2, 1.0, 648, 2, -0.5, 696, 2, -0.5
*EQUATION
3
1299, 3, 1.0, 648, 3, -0.5, 696, 3, -0.5
*EQUATION
3
1303, 1, 1.0, 694, 1, -0.5, 696, 1, -0.5
*EQUATION
3
1303, 2, 1.0, 694, 2, -0.5, 696, 2, -0.5
*EQUATION
3
1303, 3, 1.0, 694, 3, -0.5, 696, 3, -0.5
*EQUATION
3
1304, 1, 1.0, 667, 1, -0.5, 715, 1, -0.5
*EQUATION
3
1304, 2, 1.0, 667, 2, -0.5, 715, 2, -0.5
*EQUATION
3
1304, 3, 1.0, 667, 3, -0.5, 715, 3, -0.5
*EQUATION
5
1305, 1, 1.0, 667, 1, -0.25, 715, 1, -0.25, 716, 1, -0.25, 668, 1, -0.25
*EQUATION
5
1305, 2, 1.0, 667, 2, -0.25, 715, 2, -0.25, 716, 2, -0.25, 668, 2, -0.25
*EQUATION
5
1305, 3, 1.0, 667, 3, -0.25, 715, 3, -0.25, 716, 3, -0.25, 668, 3, -0.25
*EQUATION
3
1306, 1, 1.0, 668, 1, -0.5, 716, 1, -0.5
*EQUATION
3
1306, 2, 1.0, 668, 2, -0.5, 716, 2, -0.5
*EQUATION
3
1306, 3, 1.0, 668, 3, -0.5, 716, 3, -0.5
*EQUATION
3
1313, 1, 1.0, 715, 1, -0.5, 716, 1, -0.5
*EQUATION
3
1313, 2, 1.0, 715, 2, -0.5, 716, 2, -0.5
*EQUATION
3
1313, 3, 1.0, 715, 3, -0.5, 716, 3, -0.5
*EQUATION
5
1318, 1, 1.0, 668, 1, -0.25, 716, 1, -0.25, 717, 1, -0.25, 669, 1, -0.25
*EQUATION
5
1318, 2, 1.0, 668, 2, -0.25, 716, 2, -0.25, 717, 2, -0.25, 669, 2, -0.25
*EQUATION
5
1318, 3, 1.0, 668, 3, -0.25, 716, 3, -0.25, 717, 3, -0.25, 669, 3, -0.25
*EQUATION
3
1319, 1, 1.0, 669, 1, -0.5, 717, 1, -0.5
*EQUATION
3
1319, 2, 1.0, 669, 2, -0.5, 717, 2, -0.5
*EQUATION
3
1319, 3, 1.0, 669, 3, -0.5, 717, 3, -0.5
*EQUATION
3
1324, 1, 1.0, 716, 1, -0.5, 717, 1, -0.5
*EQUATION
3
1324, 2, 1.0, 716, 2, -0.5, 717, 2, -0.5
*EQUATION
3
1324, 3, 1.0, 716, 3, -0.5, 717, 3, -0.5
*EQUATION
3
1330, 1, 1.0, 675, 1, -0.5, 723, 1, -0.5
*EQUATION
3
1330, 2, 1.0, 675, 2, -0.5, 723, 2, -0.5
*EQUATION
3
1330, 3, 1.0, 675, 3, -0.5, 723, 3, -0.5
*EQUATION
5
1333, 1, 1.0, 675, 1, -0.25, 723, 1, -0.25, 724, 1, -0.25, 676, 1, -0.25
*EQUATION
5
1333, 2, 1.0, 675, 2, -0.25, 723, 2, -0.25, 724, 2, -0.25, 676, 2, -0.25
*EQUATION
5
1333, 3, 1.0, 675, 3, -0.25, 723, 3, -0.25, 724, 3, -0.25, 676, 3, -0.25
*EQUATION
3
1336, 1, 1.0, 676, 1, -0.5, 724, 1, -0.5
*EQUATION
3
1336, 2, 1.0, 676, 2, -0.5, 724, 2, -0.5
*EQUATION
3
1336, 3, 1.0, 676, 3, -0.5, 724, 3, -0.5
*EQUATION
3
1340, 1, 1.0, 723, 1, -0.5, 724, 1, -0.5
*EQUATION
3
1340, 2, 1.0, 723, 2, -0.5, 724, 2, -0.5
*EQUATION
3
1340, 3, 1.0, 723, 3, -0.5, 724, 3, -0.5
*EQUATION
3
1342, 1, 1.0, 681, 1, -0.5, 683, 1, -0.5
*EQUATION
3
1342, 2, 1.0, 681, 2, -0.5, 683, 2, -0.5
*EQUATION
3
1342, 3, 1.0, 681, 3, -0.5, 683, 3, -0.5
*EQUATION
3
1343, 1, 1.0, 681, 1, -0.5, 682, 1, -0.5
*EQUATION
3
1343, 2, 1.0, 681, 2, -0.5, 682, 2, -0.5
*EQUATION
3
1343, 3, 1.0, 681, 3, -0.5, 682, 3, -0.5
*EQUATION
5
1344, 1, 1.0, 681, 1, -0.25, 682, 1, -0.25, 684, 1, -0.25, 683, 1, -0.25
*EQUATION
5
1344, 2, 1.0, 681, 2, -0.25, 682, 2, -0.25, 684, 2, -0.25, 683, 2, -0.25
*EQUATION
5
1344, 3, 1.0, 681, 3, -0.25, 682, 3, -0.25, 684, 3, -0.25, 683, 3, -0.25
*EQUATION
3
1345, 1, 1.0, 683, 1, -0.5, 684, 1, -0.5
*EQUATION
3
1345, 2, 1.0, 683, 2, -0.5, 684, 2, -0.5
*EQUATION
3
1345, 3, 1.0, 683, 3, -0.5, 684, 3, -0.5
*EQUATION
3
1346, 1, 1.0, 682, 1, -0.5, 684, 1, -0.5
*EQUATION
3
1346, 2, 1.0, 682, 2, -0.5, 684, 2, -0.5
*EQUATION
3
1346, 3, 1.0, 682, 3, -0.5, 684, 3, -0.5
*EQUATION
3
1347, 1, 1.0, 681, 1, -0.5, 729, 1, -0.5
*EQUATION
3
1347, 2, 1.0, 681, 2, -0.5, 729, 2, -0.5
*EQUATION
3
1347, 3, 1.0, 681, 3, -0.5, 729, 3, -0.5
*EQUATION
3
1349, 1, 1.0, 683, 1, -0.5, 731, 1, -0.5
*EQUATION
3
1349, 2, 1.0, 683, 2, -0.5, 731, 2, -0.5
*EQUATION
3
1349, 3, 1.0, 683, 3, -0.5, 731, 3, -0.5
*EQUATION
5
1350, 1, 1.0, 681, 1, -0.25, 729, 1, -0.25, 730, 1, -0.25, 682, 1, -0.25
*EQUATION
5
1350, 2, 1.0, 681, 2, -0.25, 729, 2, -0.25, 730, 2, -0.25, 682, 2, -0.25
*EQUATION
5
1350, 3, 1.0, 681, 3, -0.25, 729, 3, -0.25, 730, 3, -0.25, 682, 3, -0.25
*EQUATION
5
1352, 1, 1.0, 683, 1, -0.25, 731, 1, -0.25, 732, 1, -0.25, 684, 1, -0.25
*EQUATION
5
1352, 2, 1.0, 683, 2, -0.25, 731, 2, -0.25, 732, 2, -0.25, 684, 2, -0.25
*EQUATION
5
1352, 3, 1.0, 683, 3, -0.25, 731, 3, -0.25, 732, 3, -0.25, 684, 3, -0.25
*EQUATION
3
1353, 1, 1.0, 682, 1, -0.5, 730, 1, -0.5
*EQUATION
3
1353, 2, 1.0, 682, 2, -0.5, 730, 2, -0.5
*EQUATION
3
1353, 3, 1.0, 682, 3, -0.5, 730, 3, -0.5
*EQUATION
5
1354, 1, 1.0, 682, 1, -0.25, 730, 1, -0.25, 732, 1, -0.25, 684, 1, -0.25
*EQUATION
5
1354, 2, 1.0, 682, 2, -0.25, 730, 2, -0.25, 732, 2, -0.25, 684, 2, -0.25
*EQUATION
5
1354, 3, 1.0, 682, 3, -0.25, 730, 3, -0.25, 732, 3, -0.25, 684, 3, -0.25
*EQUATION
3
1355, 1, 1.0, 684, 1, -0.5, 732, 1, -0.5
*EQUATION
3
1355, 2, 1.0, 684, 2, -0.5, 732, 2, -0.5
*EQUATION
3
1355, 3, 1.0, 684, 3, -0.5, 732, 3, -0.5
*EQUATION
3
1357, 1, 1.0, 729, 1, -0.5, 730, 1, -0.5
*EQUATION
3
1357, 2, 1.0, 729, 2, -0.5, 730, 2, -0.5
*EQUATION
3
1357, 3, 1.0, 729, 3, -0.5, 730, 3, -0.5
*EQUATION
3
1359, 1, 1.0, 731, 1, -0.5, 732, 1, -0.5
*EQUATION
3
1359, 2, 1.0, 731, 2, -0.5, 732, 2, -0.5
*EQUATION
3
1359, 3, 1.0, 731, 3, -0.5, 732, 3, -0.5
*EQUATION
3
1360, 1, 1.0, 730, 1, -0.5, 732, 1, -0.5
*EQUATION
3
1360, 2, 1.0, 730, 2, -0.5, 732, 2, -0.5
*EQUATION
3
1360, 3, 1.0, 730, 3, -0.5, 732, 3, -0.5
*EQUATION
5
1363, 1, 1.0, 676, 1, -0.25, 724, 1, -0.25, 734, 1, -0.25, 686, 1, -0.25
*EQUATION
5
1363, 2, 1.0, 676, 2, -0.25, 724, 2, -0.25, 734, 2, -0.25, 686, 2, -0.25
*EQUATION
5
1363, 3, 1.0, 676, 3, -0.25, 724, 3, -0.25, 734, 3, -0.25, 686, 3, -0.25
*EQUATION
3
1366, 1, 1.0, 686, 1, -0.5, 734, 1, -0.5
*EQUATION
3
1366, 2, 1.0, 686, 2, -0.5, 734, 2, -0.5
*EQUATION
3
1366, 3, 1.0, 686, 3, -0.5, 734, 3, -0.5
*EQUATION
3
1369, 1, 1.0, 724, 1, -0.5, 734, 1, -0.5
*EQUATION
3
1369, 2, 1.0, 724, 2, -0.5, 734, 2, -0.5
*EQUATION
3
1369, 3, 1.0, 724, 3, -0.5, 734, 3, -0.5
*EQUATION
3
1377, 1, 1.0, 692, 1, -0.5, 740, 1, -0.5
*EQUATION
3
1377, 2, 1.0, 692, 2, -0.5, 740, 2, -0.5
*EQUATION
3
1377, 3, 1.0, 692, 3, -0.5, 740, 3, -0.5
*EQUATION
5
1378, 1, 1.0, 692, 1, -0.25, 740, 1, -0.25, 742, 1, -0.25, 694, 1, -0.25
*EQUATION
5
1378, 2, 1.0, 692, 2, -0.25, 740, 2, -0.25, 742, 2, -0.25, 694, 2, -0.25
*EQUATION
5
1378, 3, 1.0, 692, 3, -0.25, 740, 3, -0.25, 742, 3, -0.25, 694, 3, -0.25
*EQUATION
3
1379, 1, 1.0, 694, 1, -0.5, 742, 1, -0.5
*EQUATION
3
1379, 2, 1.0, 694, 2, -0.5, 742, 2, -0.5
*EQUATION
3
1379, 3, 1.0, 694, 3, -0.5, 742, 3, -0.5
*EQUATION
3
1384, 1, 1.0, 740, 1, -0.5, 742, 1, -0.5
*EQUATION
3
1384, 2, 1.0, 740, 2, -0.5, 742, 2, -0.5
*EQUATION
3
1384, 3, 1.0, 740, 3, -0.5, 742, 3, -0.5
*EQUATION
5
1389, 1, 1.0, 694, 1, -0.25, 742, 1, -0.25, 744, 1, -0.25, 696, 1, -0.25
*EQUATION
5
1389, 2, 1.0, 694, 2, -0.25, 742, 2, -0.25, 744, 2, -0.25, 696, 2, -0.25
*EQUATION
5
1389, 3, 1.0, 694, 3, -0.25, 742, 3, -0.25, 744, 3, -0.25, 696, 3, -0.25
*EQUATION
3
1390, 1, 1.0, 696, 1, -0.5, 744, 1, -0.5
*EQUATION
3
1390, 2, 1.0, 696, 2, -0.5, 744, 2, -0.5
*EQUATION
3
1390, 3, 1.0, 696, 3, -0.5, 744, 3, -0.5
*EQUATION
3
1394, 1, 1.0, 742, 1, -0.5, 744, 1, -0.5
*EQUATION
3
1394, 2, 1.0, 742, 2, -0.5, 744, 2, -0.5
*EQUATION
3
1394, 3, 1.0, 742, 3, -0.5, 744, 3, -0.5
*EQUATION
3
1395, 1, 1.0, 715, 1, -0.5, 763, 1, -0.5
*EQUATION
3
1395, 2, 1.0, 715, 2, -0.5, 763, 2, -0.5
*EQUATION
3
1395, 3, 1.0, 715, 3, -0.5, 763, 3, -0.5
*EQUATION
5
1396, 1, 1.0, 715, 1, -0.25, 763, 1, -0.25, 764, 1, -0.25, 716, 1, -0.25
*EQUATION
5
1396, 2, 1.0, 715, 2, -0.25, 763, 2, -0.25, 764, 2, -0.25, 716, 2, -0.25
*EQUATION
5
1396, 3, 1.0, 715, 3, -0.25, 763, 3, -0.25, 764, 3, -0.25, 716, 3, -0.25
*EQUATION
3
1397, 1, 1.0, 716, 1, -0.5, 764, 1, -0.5
*EQUATION
3
1397, 2, 1.0, 716, 2, -0.5, 764, 2, -0.5
*EQUATION
3
1397, 3, 1.0, 716, 3, -0.5, 764, 3, -0.5
*EQUATION
3
1404, 1, 1.0, 763, 1, -0.5, 764, 1, -0.5
*EQUATION
3
1404, 2, 1.0, 763, 2, -0.5, 764, 2, -0.5
*EQUATION
3
1404, 3, 1.0, 763, 3, -0.5, 764, 3, -0.5
*EQUATION
5
1409, 1, 1.0, 716, 1, -0.25, 764, 1, -0.25, 765, 1, -0.25, 717, 1, -0.25
*EQUATION
5
1409, 2, 1.0, 716, 2, -0.25, 764, 2, -0.25, 765, 2, -0.25, 717, 2, -0.25
*EQUATION
5
1409, 3, 1.0, 716, 3, -0.25, 764, 3, -0.25, 765, 3, -0.25, 717, 3, -0.25
*EQUATION
3
1410, 1, 1.0, 717, 1, -0.5, 765, 1, -0.5
*EQUATION
3
1410, 2, 1.0, 717, 2, -0.5, 765, 2, -0.5
*EQUATION
3
1410, 3, 1.0, 717, 3, -0.5, 765, 3, -0.5
*EQUATION
3
1415, 1, 1.0, 764, 1, -0.5, 765, 1, -0.5
*EQUATION
3
1415, 2, 1.0, 764, 2, -0.5, 765, 2, -0.5
*EQUATION
3
1415, 3, 1.0, 764, 3, -0.5, 765, 3, -0.5
*EQUATION
3
1421, 1, 1.0, 723, 1, -0.5, 771, 1, -0.5
*EQUATION
3
1421, 2, 1.0, 723, 2, -0.5, 771, 2, -0.5
*EQUATION
3
1421, 3, 1.0, 723, 3, -0.5, 771, 3, -0.5
*EQUATION
5
1424, 1, 1.0, 723, 1, -0.25, 771, 1, -0.25, 772, 1, -0.25, 724, 1, -0.25
*EQUATION
5
1424, 2, 1.0, 723, 2, -0.25, 771, 2, -0.25, 772, 2, -0.25, 724, 2, -0.25
*EQUATION
5
1424, 3, 1.0, 723, 3, -0.25, 771, 3, -0.25, 772, 3, -0.25, 724, 3, -0.25
*EQUATION
3
1427, 1, 1.0, 724, 1, -0.5, 772, 1, -0.5
*EQUATION
3
1427, 2, 1.0, 724, 2, -0.5, 772, 2, -0.5
*EQUATION
3
1427, 3, 1.0, 724, 3, -0.5, 772, 3, -0.5
*EQUATION
3
1431, 1, 1.0, 771, 1, -0.5, 772, 1, -0.5
*EQUATION
3
1431, 2, 1.0, 771, 2, -0.5, 772, 2, -0.5
*EQUATION
3
1431, 3, 1.0, 771, 3, -0.5, 772, 3, -0.5
*EQUATION
3
1433, 1, 1.0, 729, 1, -0.5, 777, 1, -0.5
*EQUATION
3
1433, 2, 1.0, 729, 2, -0.5, 777, 2, -0.5
*EQUATION
3
1433, 3, 1.0, 729, 3, -0.5, 777, 3, -0.5
*EQUATION
3
1435, 1, 1.0, 731, 1, -0.5, 779, 1, -0.5
*EQUATION
3
1435, 2, 1.0, 731, 2, -0.5, 779, 2, -0.5
*EQUATION
3
1435, 3, 1.0, 731, 3, -0.5, 779, 3, -0.5
*EQUATION
5
1436, 1, 1.0, 729, 1, -0.25, 777, 1, -0.25, 778, 1, -0.25, 730, 1, -0.25
*EQUATION
5
1436, 2, 1.0, 729, 2, -0.25, 777, 2, -0.25, 778, 2, -0.25, 730, 2, -0.25
*EQUATION
5
1436, 3, 1.0, 729, 3, -0.25, 777, 3, -0.25, 778, 3, -0.25, 730, 3, -0.25
*EQUATION
5
1438, 1, 1.0, 731, 1, -0.25, 779, 1, -0.25, 780, 1, -0.25, 732, 1, -0.25
*EQUATION
5
1438, 2, 1.0, 731, 2, -0.25, 779, 2, -0.25, 780, 2, -0.25, 732, 2, -0.25
*EQUATION
5
1438, 3, 1.0, 731, 3, -0.25, 779, 3, -0.25, 780, 3, -0.25, 732, 3, -0.25
*EQUATION
3
1439, 1, 1.0, 730, 1, -0.5, 778, 1, -0.5
*EQUATION
3
1439, 2, 1.0, 730, 2, -0.5, 778, 2, -0.5
*EQUATION
3
1439, 3, 1.0, 730, 3, -0.5, 778, 3, -0.5
*EQUATION
5
1440, 1, 1.0, 730, 1, -0.25, 778, 1, -0.25, 780, 1, -0.25, 732, 1, -0.25
*EQUATION
5
1440, 2, 1.0, 730, 2, -0.25, 778, 2, -0.25, 780, 2, -0.25, 732, 2, -0.25
*EQUATION
5
1440, 3, 1.0, 730, 3, -0.25, 778, 3, -0.25, 780, 3, -0.25, 732, 3, -0.25
*EQUATION
3
1441, 1, 1.0, 732, 1, -0.5, 780, 1, -0.5
*EQUATION
3
1441, 2, 1.0, 732, 2, -0.5, 780, 2, -0.5
*EQUATION
3
1441, 3, 1.0, 732, 3, -0.5, 780, 3, -0.5
*EQUATION
3
1443, 1, 1.0, 777, 1, -0.5, 778, 1, -0.5
*EQUATION
3
1443, 2, 1.0, 777, 2, -0.5, 778, 2, -0.5
*EQUATION
3
1443, 3, 1.0, 777, 3, -0.5, 778, 3, -0.5
*EQUATION
3
1445, 1, 1.0, 779, 1, -0.5, 780, 1, -0.5
*EQUATION
3
1445, 2, 1.0, 779, 2, -0.5, 780, 2, -0.5
*EQUATION
3
1445, 3, 1.0, 779, 3, -0.5, 780, 3, -0.5
*EQUATION
3
1446, 1, 1.0, 778, 1, -0.5, 780, 1, -0.5
*EQUATION
3
1446, 2, 1.0, 778, 2, -0.5, 780, 2, -0.5
*EQUATION
3
1446, 3, 1.0, 778, 3, -0.5, 780, 3, -0.5
*EQUATION
5
1449, 1, 1.0, 724, 1, -0.25, 772, 1, -0.25, 782, 1, -0.25, 734, 1, -0.25
*EQUATION
5
1449, 2, 1.0, 724, 2, -0.25, 772, 2, -0.25, 782, 2, -0.25, 734, 2, -0.25
*EQUATION
5
1449, 3, 1.0, 724, 3, -0.25, 772, 3, -0.25, 782, 3, -0.25, 734, 3, -0.25
*EQUATION
3
1452, 1, 1.0, 734, 1, -0.5, 782, 1, -0.5
*EQUATION
3
1452, 2, 1.0, 734, 2, -0.5, 782, 2, -0.5
*EQUATION
3
1452, 3, 1.0, 734, 3, -0.5, 782, 3, -0.5
*EQUATION
3
1455, 1, 1.0, 772, 1, -0.5, 782, 1, -0.5
*EQUATION
3
1455, 2, 1.0, 772, 2, -0.5, 782, 2, -0.5
*EQUATION
3
1455, 3, 1.0, 772, 3, -0.5, 782, 3, -0.5
*EQUATION
3
1463, 1, 1.0, 740, 1, -0.5, 788, 1, -0.5
*EQUATION
3
1463, 2, 1.0, 740, 2, -0.5, 788, 2, -0.5
*EQUATION
3
1463, 3, 1.0, 740, 3, -0.5, 788, 3, -0.5
*EQUATION
5
1464, 1, 1.0, 740, 1, -0.25, 788, 1, -0.25, 790, 1, -0.25, 742, 1, -0.25
*EQUATION
5
1464, 2, 1.0, 740, 2, -0.25, 788, 2, -0.25, 790, 2, -0.25, 742, 2, -0.25
*EQUATION
5
1464, 3, 1.0, 740, 3, -0.25, 788, 3, -0.25, 790, 3, -0.25, 742, 3, -0.25
*EQUATION
3
1465, 1, 1.0, 742, 1, -0.5, 790, 1, -0.5
*EQUATION
3
1465, 2, 1.0, 742, 2, -0.5, 790, 2, -0.5
*EQUATION
3
1465, 3, 1.0, 742, 3, -0.5, 790, 3, -0.5
*EQUATION
3
1470, 1, 1.0, 788, 1, -0.5, 790, 1, -0.5
*EQUATION
3
1470, 2, 1.0, 788, 2, -0.5, 790, 2, -0.5
*EQUATION
3
1470, 3, 1.0, 788, 3, -0.5, 790, 3, -0.5
*EQUATION
5
1475, 1, 1.0, 742, 1, -0.25, 790, 1, -0.25, 792, 1, -0.25, 744, 1, -0.25
*EQUATION
5
1475, 2, 1.0, 742, 2, -0.25, 790, 2, -0.25, 792, 2, -0.25, 744, 2, -0.25
*EQUATION
5
1475, 3, 1.0, 742, 3, -0.25, 790, 3, -0.25, 792, 3, -0.25, 744, 3, -0.25
*EQUATION
3
1476, 1, 1.0, 744, 1, -0.5, 792, 1, -0.5
*EQUATION
3
1476, 2, 1.0, 744, 2, -0.5, 792, 2, -0.5
*EQUATION
3
1476, 3, 1.0, 744, 3, -0.5, 792, 3, -0.5
*EQUATION
3
1480, 1, 1.0, 790, 1, -0.5, 792, 1, -0.5
*EQUATION
3
1480, 2, 1.0, 790, 2, -0.5, 792, 2, -0.5
*EQUATION
3
1480, 3, 1.0, 790, 3, -0.5, 792, 3, -0.5
*EQUATION
3
1481, 1, 1.0, 755, 1, -0.5, 756, 1, -0.5
*EQUATION
3
1481, 2, 1.0, 755, 2, -0.5, 756, 2, -0.5
*EQUATION
3
1481, 3, 1.0, 755, 3, -0.5, 756, 3, -0.5
*EQUATION
3
1482, 1, 1.0, 755, 1, -0.5, 758, 1, -0.5
*EQUATION
3
1482, 2, 1.0, 755, 2, -0.5, 758, 2, -0.5
*EQUATION
3
1482, 3, 1.0, 755, 3, -0.5, 758, 3, -0.5
*EQUATION
5
1483, 1, 1.0, 755, 1, -0.25, 758, 1, -0.25, 759, 1, -0.25, 756, 1, -0.25
*EQUATION
5
1483, 2, 1.0, 755, 2, -0.25, 758, 2, -0.25, 759, 2, -0.25, 756, 2, -0.25
*EQUATION
5
1483, 3, 1.0, 755, 3, -0.25, 758, 3, -0.25, 759, 3, -0.25, 756, 3, -0.25
*EQUATION
3
1484, 1, 1.0, 756, 1, -0.5, 759, 1, -0.5
*EQUATION
3
1484, 2, 1.0, 756, 2, -0.5, 759, 2, -0.5
*EQUATION
3
1484, 3, 1.0, 756, 3, -0.5, 759, 3, -0.5
*EQUATION
3
1485, 1, 1.0, 758, 1, -0.5, 759, 1, -0.5
*EQUATION
3
1485, 2, 1.0, 758, 2, -0.5, 759, 2, -0.5
*EQUATION
3
1485, 3, 1.0, 758, 3, -0.5, 759, 3, -0.5
*EQUATION
3
1486, 1, 1.0, 755, 1, -0.5, 803, 1, -0.5
*EQUATION
3
1486, 2, 1.0, 755, 2, -0.5, 803, 2, -0.5
*EQUATION
3
1486, 3, 1.0, 755, 3, -0.5, 803, 3, -0.5
*EQUATION
5
1487, 1, 1.0, 755, 1, -0.25, 803, 1, -0.25, 804, 1, -0.25, 756, 1, -0.25
*EQUATION
5
1487, 2, 1.0, 755, 2, -0.25, 803, 2, -0.25, 804, 2, -0.25, 756, 2, -0.25
*EQUATION
5
1487, 3, 1.0, 755, 3, -0.25, 803, 3, -0.25, 804, 3, -0.25, 756, 3, -0.25
*EQUATION
3
1488, 1, 1.0, 756, 1, -0.5, 804, 1, -0.5
*EQUATION
3
1488, 2, 1.0, 756, 2, -0.5, 804, 2, -0.5
*EQUATION
3
1488, 3, 1.0, 756, 3, -0.5, 804, 3, -0.5
*EQUATION
5
1489, 1, 1.0, 755, 1, -0.25, 803, 1, -0.25, 806, 1, -0.25, 758, 1, -0.25
*EQUATION
5
1489, 2, 1.0, 755, 2, -0.25, 803, 2, -0.25, 806, 2, -0.25, 758, 2, -0.25
*EQUATION
5
1489, 3, 1.0, 755, 3, -0.25, 803, 3, -0.25, 806, 3, -0.25, 758, 3, -0.25
*EQUATION
3
1492, 1, 1.0, 758, 1, -0.5, 806, 1, -0.5
*EQUATION
3
1492, 2, 1.0, 758, 2, -0.5, 806, 2, -0.5
*EQUATION
3
1492, 3, 1.0, 758, 3, -0.5, 806, 3, -0.5
*EQUATION
5
1493, 1, 1.0, 758, 1, -0.25, 806, 1, -0.25, 807, 1, -0.25, 759, 1, -0.25
*EQUATION
5
1493, 2, 1.0, 758, 2, -0.25, 806, 2, -0.25, 807, 2, -0.25, 759, 2, -0.25
*EQUATION
5
1493, 3, 1.0, 758, 3, -0.25, 806, 3, -0.25, 807, 3, -0.25, 759, 3, -0.25
*EQUATION
3
1494, 1, 1.0, 759, 1, -0.5, 807, 1, -0.5
*EQUATION
3
1494, 2, 1.0, 759, 2, -0.5, 807, 2, -0.5
*EQUATION
3
1494, 3, 1.0, 759, 3, -0.5, 807, 3, -0.5
*EQUATION
3
1495, 1, 1.0, 803, 1, -0.5, 804, 1, -0.5
*EQUATION
3
1495, 2, 1.0, 803, 2, -0.5, 804, 2, -0.5
*EQUATION
3
1495, 3, 1.0, 803, 3, -0.5, 804, 3, -0.5
*EQUATION
3
1496, 1, 1.0, 803, 1, -0.5, 806, 1, -0.5
*EQUATION
3
1496, 2, 1.0, 803, 2, -0.5, 806, 2, -0.5
*EQUATION
3
1496, 3, 1.0, 803, 3, -0.5, 806, 3, -0.5
*EQUATION
3
1499, 1, 1.0, 806, 1, -0.5, 807, 1, -0.5
*EQUATION
3
1499, 2, 1.0, 806, 2, -0.5, 807, 2, -0.5
*EQUATION
3
1499, 3, 1.0, 806, 3, -0.5, 807, 3, -0.5
*EQUATION
3
1500, 1, 1.0, 763, 1, -0.5, 811, 1, -0.5
*EQUATION
3
1500, 2, 1.0, 763, 2, -0.5, 811, 2, -0.5
*EQUATION
3
1500, 3, 1.0, 763, 3, -0.5, 811, 3, -0.5
*EQUATION
5
1501, 1, 1.0, 763, 1, -0.25, 811, 1, -0.25, 812, 1, -0.25, 764, 1, -0.25
*EQUATION
5
1501, 2, 1.0, 763, 2, -0.25, 811, 2, -0.25, 812, 2, -0.25, 764, 2, -0.25
*EQUATION
5
1501, 3, 1.0, 763, 3, -0.25, 811, 3, -0.25, 812, 3, -0.25, 764, 3, -0.25
*EQUATION
3
1502, 1, 1.0, 764, 1, -0.5, 812, 1, -0.5
*EQUATION
3
1502, 2, 1.0, 764, 2, -0.5, 812, 2, -0.5
*EQUATION
3
1502, 3, 1.0, 764, 3, -0.5, 812, 3, -0.5
*EQUATION
3
1509, 1, 1.0, 811, 1, -0.5, 812, 1, -0.5
*EQUATION
3
1509, 2, 1.0, 811, 2, -0.5, 812, 2, -0.5
*EQUATION
3
1509, 3, 1.0, 811, 3, -0.5, 812, 3, -0.5
*EQUATION
5
1514, 1, 1.0, 764, 1, -0.25, 812, 1, -0.25, 813, 1, -0.25, 765, 1, -0.25
*EQUATION
5
1514, 2, 1.0, 764, 2, -0.25, 812, 2, -0.25, 813, 2, -0.25, 765, 2, -0.25
*EQUATION
5
1514, 3, 1.0, 764, 3, -0.25, 812, 3, -0.25, 813, 3, -0.25, 765, 3, -0.25
*EQUATION
3
1515, 1, 1.0, 765, 1, -0.5, 813, 1, -0.5
*EQUATION
3
1515, 2, 1.0, 765, 2, -0.5, 813, 2, -0.5
*EQUATION
3
1515, 3, 1.0, 765, 3, -0.5, 813, 3, -0.5
*EQUATION
3
1520, 1, 1.0, 812, 1, -0.5, 813, 1, -0.5
*EQUATION
3
1520, 2, 1.0, 812, 2, -0.5, 813, 2, -0.5
*EQUATION
3
1520, 3, 1.0, 812, 3, -0.5, 813, 3, -0.5
*EQUATION
3
1526, 1, 1.0, 771, 1, -0.5, 819, 1, -0.5
*EQUATION
3
1526, 2, 1.0, 771, 2, -0.5, 819, 2, -0.5
*EQUATION
3
1526, 3, 1.0, 771, 3, -0.5, 819, 3, -0.5
*EQUATION
5
1529, 1, 1.0, 771, 1, -0.25, 819, 1, -0.25, 820, 1, -0.25, 772, 1, -0.25
*EQUATION
5
1529, 2, 1.0, 771, 2, -0.25, 819, 2, -0.25, 820, 2, -0.25, 772, 2, -0.25
*EQUATION
5
1529, 3, 1.0, 771, 3, -0.25, 819, 3, -0.25, 820, 3, -0.25, 772, 3, -0.25
*EQUATION
3
1532, 1, 1.0, 772, 1, -0.5, 820, 1, -0.5
*EQUATION
3
1532, 2, 1.0, 772, 2, -0.5, 820, 2, -0.5
*EQUATION
3
1532, 3, 1.0, 772, 3, -0.5, 820, 3, -0.5
*EQUATION
3
1536, 1, 1.0, 819, 1, -0.5, 820, 1, -0.5
*EQUATION
3
1536, 2, 1.0, 819, 2, -0.5, 820, 2, -0.5
*EQUATION
3
1536, 3, 1.0, 819, 3, -0.5, 820, 3, -0.5
*EQUATION
3
1538, 1, 1.0, 777, 1, -0.5, 825, 1, -0.5
*EQUATION
3
1538, 2, 1.0, 777, 2, -0.5, 825, 2, -0.5
*EQUATION
3
1538, 3, 1.0, 777, 3, -0.5, 825, 3, -0.5
*EQUATION
3
1540, 1, 1.0, 779, 1, -0.5, 827, 1, -0.5
*EQUATION
3
1540, 2, 1.0, 779, 2, -0.5, 827, 2, -0.5
*EQUATION
3
1540, 3, 1.0, 779, 3, -0.5, 827, 3, -0.5
*EQUATION
5
1541, 1, 1.0, 777, 1, -0.25, 825, 1, -0.25, 826, 1, -0.25, 778, 1, -0.25
*EQUATION
5
1541, 2, 1.0, 777, 2, -0.25, 825, 2, -0.25, 826, 2, -0.25, 778, 2, -0.25
*EQUATION
5
1541, 3, 1.0, 777, 3, -0.25, 825, 3, -0.25, 826, 3, -0.25, 778, 3, -0.25
*EQUATION
5
1543, 1, 1.0, 779, 1, -0.25, 827, 1, -0.25, 828, 1, -0.25, 780, 1, -0.25
*EQUATION
5
1543, 2, 1.0, 779, 2, -0.25, 827, 2, -0.25, 828, 2, -0.25, 780, 2, -0.25
*EQUATION
5
1543, 3, 1.0, 779, 3, -0.25, 827, 3, -0.25, 828, 3, -0.25, 780, 3, -0.25
*EQUATION
3
1544, 1, 1.0, 778, 1, -0.5, 826, 1, -0.5
*EQUATION
3
1544, 2, 1.0, 778, 2, -0.5, 826, 2, -0.5
*EQUATION
3
1544, 3, 1.0, 778, 3, -0.5, 826, 3, -0.5
*EQUATION
5
1545, 1, 1.0, 778, 1, -0.25, 826, 1, -0.25, 828, 1, -0.25, 780, 1, -0.25
*EQUATION
5
1545, 2, 1.0, 778, 2, -0.25, 826, 2, -0.25, 828, 2, -0.25, 780, 2, -0.25
*EQUATION
5
1545, 3, 1.0, 778, 3, -0.25, 826, 3, -0.25, 828, 3, -0.25, 780, 3, -0.25
*EQUATION
3
1546, 1, 1.0, 780, 1, -0.5, 828, 1, -0.5
*EQUATION
3
1546, 2, 1.0, 780, 2, -0.5, 828, 2, -0.5
*EQUATION
3
1546, 3, 1.0, 780, 3, -0.5, 828, 3, -0.5
*EQUATION
3
1548, 1, 1.0, 825, 1, -0.5, 826, 1, -0.5
*EQUATION
3
1548, 2, 1.0, 825, 2, -0.5, 826, 2, -0.5
*EQUATION
3
1548, 3, 1.0, 825, 3, -0.5, 826, 3, -0.5
*EQUATION
3
1550, 1, 1.0, 827, 1, -0.5, 828, 1, -0.5
*EQUATION
3
1550, 2, 1.0, 827, 2, -0.5, 828, 2, -0.5
*EQUATION
3
1550, 3, 1.0, 827, 3, -0.5, 828, 3, -0.5
*EQUATION
3
1551, 1, 1.0, 826, 1, -0.5, 828, 1, -0.5
*EQUATION
3
1551, 2, 1.0, 826, 2, -0.5, 828, 2, -0.5
*EQUATION
3
1551, 3, 1.0, 826, 3, -0.5, 828, 3, -0.5
*EQUATION
5
1554, 1, 1.0, 772, 1, -0.25, 820, 1, -0.25, 830, 1, -0.25, 782, 1, -0.25
*EQUATION
5
1554, 2, 1.0, 772, 2, -0.25, 820, 2, -0.25, 830, 2, -0.25, 782, 2, -0.25
*EQUATION
5
1554, 3, 1.0, 772, 3, -0.25, 820, 3, -0.25, 830, 3, -0.25, 782, 3, -0.25
*EQUATION
3
1557, 1, 1.0, 782, 1, -0.5, 830, 1, -0.5
*EQUATION
3
1557, 2, 1.0, 782, 2, -0.5, 830, 2, -0.5
*EQUATION
3
1557, 3, 1.0, 782, 3, -0.5, 830, 3, -0.5
*EQUATION
3
1560, 1, 1.0, 820, 1, -0.5, 830, 1, -0.5
*EQUATION
3
1560, 2, 1.0, 820, 2, -0.5, 830, 2, -0.5
*EQUATION
3
1560, 3, 1.0, 820, 3, -0.5, 830, 3, -0.5
*EQUATION
3
1568, 1, 1.0, 788, 1, -0.5, 836, 1, -0.5
*EQUATION
3
1568, 2, 1.0, 788, 2, -0.5, 836, 2, -0.5
*EQUATION
3
1568, 3, 1.0, 788, 3, -0.5, 836, 3, -0.5
*EQUATION
5
1569, 1, 1.0, 788, 1, -0.25, 836, 1, -0.25, 838, 1, -0.25, 790, 1, -0.25
*EQUATION
5
1569, 2, 1.0, 788, 2, -0.25, 836, 2, -0.25, 838, 2, -0.25, 790, 2, -0.25
*EQUATION
5
1569, 3, 1.0, 788, 3, -0.25, 836, 3, -0.25, 838, 3, -0.25, 790, 3, -0.25
*EQUATION
3
1570, 1, 1.0, 790, 1, -0.5, 838, 1, -0.5
*EQUATION
3
1570, 2, 1.0, 790, 2, -0.5, 838, 2, -0.5
*EQUATION
3
1570, 3, 1.0, 790, 3, -0.5, 838, 3, -0.5
*EQUATION
3
1575, 1, 1.0, 836, 1, -0.5, 838, 1, -0.5
*EQUATION
3
1575, 2, 1.0, 836, 2, -0.5, 838, 2, -0.5
*EQUATION
3
1575, 3, 1.0, 836, 3, -0.5, 838, 3, -0.5
*EQUATION
5
1580, 1, 1.0, 790, 1, -0.25, 838, 1, -0.25, 840, 1, -0.25, 792, 1, -0.25
*EQUATION
5
1580, 2, 1.0, 790, 2, -0.25, 838, 2, -0.25, 840, 2, -0.25, 792, 2, -0.25
*EQUATION
5
1580, 3, 1.0, 790, 3, -0.25, 838, 3, -0.25, 840, 3, -0.25, 792, 3, -0.25
*EQUATION
3
1581, 1, 1.0, 792, 1, -0.5, 840, 1, -0.5
*EQUATION
3
1581, 2, 1.0, 792, 2, -0.5, 840, 2, -0.5
*EQUATION
3
1581, 3, 1.0, 792, 3, -0.5, 840, 3, -0.5
*EQUATION
3
1585, 1, 1.0, 838, 1, -0.5, 840, 1, -0.5
*EQUATION
3
1585, 2, 1.0, 838, 2, -0.5, 840, 2, -0.5
*EQUATION
3
1585, 3, 1.0, 838, 3, -0.5, 840, 3, -0.5
*EQUATION
3
1586, 1, 1.0, 803, 1, -0.5, 851, 1, -0.5
*EQUATION
3
1586, 2, 1.0, 803, 2, -0.5, 851, 2, -0.5
*EQUATION
3
1586, 3, 1.0, 803, 3, -0.5, 851, 3, -0.5
*EQUATION
5
1587, 1, 1.0, 803, 1, -0.25, 851, 1, -0.25, 852, 1, -0.25, 804, 1, -0.25
*EQUATION
5
1587, 2, 1.0, 803, 2, -0.25, 851, 2, -0.25, 852, 2, -0.25, 804, 2, -0.25
*EQUATION
5
1587, 3, 1.0, 803, 3, -0.25, 851, 3, -0.25, 852, 3, -0.25, 804, 3, -0.25
*EQUATION
3
1588, 1, 1.0, 804, 1, -0.5, 852, 1, -0.5
*EQUATION
3
1588, 2, 1.0, 804, 2, -0.5, 852, 2, -0.5
*EQUATION
3
1588, 3, 1.0, 804, 3, -0.5, 852, 3, -0.5
*EQUATION
5
1589, 1, 1.0, 803, 1, -0.25, 851, 1, -0.25, 854, 1, -0.25, 806, 1, -0.25
*EQUATION
5
1589, 2, 1.0, 803, 2, -0.25, 851, 2, -0.25, 854, 2, -0.25, 806, 2, -0.25
*EQUATION
5
1589, 3, 1.0, 803, 3, -0.25, 851, 3, -0.25, 854, 3, -0.25, 806, 3, -0.25
*EQUATION
3
1592, 1, 1.0, 806, 1, -0.5, 854, 1, -0.5
*EQUATION
3
1592, 2, 1.0, 806, 2, -0.5, 854, 2, -0.5
*EQUATION
3
1592, 3, 1.0, 806, 3, -0.5, 854, 3, -0.5
*EQUATION
5
1593, 1, 1.0, 806, 1, -0.25, 854, 1, -0.25, 855, 1, -0.25, 807, 1, -0.25
*EQUATION
5
1593, 2, 1.0, 806, 2, -0.25, 854, 2, -0.25, 855, 2, -0.25, 807, 2, -0.25
*EQUATION
5
1593, 3, 1.0, 806, 3, -0.25, 854, 3, -0.25, 855, 3, -0.25, 807, 3, -0.25
*EQUATION
3
1594, 1, 1.0, 807, 1, -0.5, 855, 1, -0.5
*EQUATION
3
1594, 2, 1.0, 807, 2, -0.5, 855, 2, -0.5
*EQUATION
3
1594, 3, 1.0, 807, 3, -0.5, 855, 3, -0.5
*EQUATION
3
1595, 1, 1.0, 851, 1, -0.5, 852, 1, -0.5
*EQUATION
3
1595, 2, 1.0, 851, 2, -0.5, 852, 2, -0.5
*EQUATION
3
1595, 3, 1.0, 851, 3, -0.5, 852, 3, -0.5
*EQUATION
3
1596, 1, 1.0, 851, 1, -0.5, 854, 1, -0.5
*EQUATION
3
1596, 2, 1.0, 851, 2, -0.5, 854, 2, -0.5
*EQUATION
3
1596, 3, 1.0, 851, 3, -0.5, 854, 3, -0.5
*EQUATION
5
1597, 1, 1.0, 851, 1, -0.25, 854, 1, -0.25, 855, 1, -0.25, 852, 1, -0.25
*EQUATION
5
1597, 2, 1.0, 851, 2, -0.25, 854, 2, -0.25, 855, 2, -0.25, 852, 2, -0.25
*EQUATION
5
1597, 3, 1.0, 851, 3, -0.25, 854, 3, -0.25, 855, 3, -0.25, 852, 3, -0.25
*EQUATION
3
1598, 1, 1.0, 852, 1, -0.5, 855, 1, -0.5
*EQUATION
3
1598, 2, 1.0, 852, 2, -0.5, 855, 2, -0.5
*EQUATION
3
1598, 3, 1.0, 852, 3, -0.5, 855, 3, -0.5
*EQUATION
3
1599, 1, 1.0, 854, 1, -0.5, 855, 1, -0.5
*EQUATION
3
1599, 2, 1.0, 854, 2, -0.5, 855, 2, -0.5
*EQUATION
3
1599, 3, 1.0, 854, 3, -0.5, 855, 3, -0.5
*EQUATION
3
1600, 1, 1.0, 811, 1, -0.5, 859, 1, -0.5
*EQUATION
3
1600, 2, 1.0, 811, 2, -0.5, 859, 2, -0.5
*EQUATION
3
1600, 3, 1.0, 811, 3, -0.5, 859, 3, -0.5
*EQUATION
5
1601, 1, 1.0, 811, 1, -0.25, 859, 1, -0.25, 860, 1, -0.25, 812, 1, -0.25
*EQUATION
5
1601, 2, 1.0, 811, 2, -0.25, 859, 2, -0.25, 860, 2, -0.25, 812, 2, -0.25
*EQUATION
5
1601, 3, 1.0, 811, 3, -0.25, 859, 3, -0.25, 860, 3, -0.25, 812, 3, -0.25
*EQUATION
3
1602, 1, 1.0, 812, 1, -0.5, 860, 1, -0.5
*EQUATION
3
1602, 2, 1.0, 812, 2, -0.5, 860, 2, -0.5
*EQUATION
3
1602, 3, 1.0, 812, 3, -0.5, 860, 3, -0.5
*EQUATION
3
1609, 1, 1.0, 859, 1, -0.5, 860, 1, -0.5
*EQUATION
3
1609, 2, 1.0, 859, 2, -0.5, 860, 2, -0.5
*EQUATION
3
1609, 3, 1.0, 859, 3, -0.5, 860, 3, -0.5
*EQUATION
5
1614, 1, 1.0, 812, 1, -0.25, 860, 1, -0.25, 861, 1, -0.25, 813, 1, -0.25
*EQUATION
5
1614, 2, 1.0, 812, 2, -0.25, 860, 2, -0.25, 861, 2, -0.25, 813, 2, -0.25
*EQUATION
5
1614, 3, 1.0, 812, 3, -0.25, 860, 3, -0.25, 861, 3, -0.25, 813, 3, -0.25
*EQUATION
3
1615, 1, 1.0, 813, 1, -0.5, 861, 1, -0.5
*EQUATION
3
1615, 2, 1.0, 813, 2, -0.5, 861, 2, -0.5
*EQUATION
3
1615, 3, 1.0, 813, 3, -0.5, 861, 3, -0.5
*EQUATION
3
1620, 1, 1.0, 860, 1, -0.5, 861, 1, -0.5
*EQUATION
3
1620, 2, 1.0, 860, 2, -0.5, 861, 2, -0.5
*EQUATION
3
1620, 3, 1.0, 860, 3, -0.5, 861, 3, -0.5
*EQUATION
3
1626, 1, 1.0, 819, 1, -0.5, 867, 1, -0.5
*EQUATION
3
1626, 2, 1.0, 819, 2, -0.5, 867, 2, -0.5
*EQUATION
3
1626, 3, 1.0, 819, 3, -0.5, 867, 3, -0.5
*EQUATION
5
1629, 1, 1.0, 819, 1, -0.25, 867, 1, -0.25, 868, 1, -0.25, 820, 1, -0.25
*EQUATION
5
1629, 2, 1.0, 819, 2, -0.25, 867, 2, -0.25, 868, 2, -0.25, 820, 2, -0.25
*EQUATION
5
1629, 3, 1.0, 819, 3, -0.25, 867, 3, -0.25, 868, 3, -0.25, 820, 3, -0.25
*EQUATION
3
1632, 1, 1.0, 820, 1, -0.5, 868, 1, -0.5
*EQUATION
3
1632, 2, 1.0, 820, 2, -0.5, 868, 2, -0.5
*EQUATION
3
1632, 3, 1.0, 820, 3, -0.5, 868, 3, -0.5
*EQUATION
3
1636, 1, 1.0, 867, 1, -0.5, 868, 1, -0.5
*EQUATION
3
1636, 2, 1.0, 867, 2, -0.5, 868, 2, -0.5
*EQUATION
3
1636, 3, 1.0, 867, 3, -0.5, 868, 3, -0.5
*EQUATION
3
1638, 1, 1.0, 825, 1, -0.5, 873, 1, -0.5
*EQUATION
3
1638, 2, 1.0, 825, 2, -0.5, 873, 2, -0.5
*EQUATION
3
1638, 3, 1.0, 825, 3, -0.5, 873, 3, -0.5
*EQUATION
3
1640, 1, 1.0, 827, 1, -0.5, 875, 1, -0.5
*EQUATION
3
1640, 2, 1.0, 827, 2, -0.5, 875, 2, -0.5
*EQUATION
3
1640, 3, 1.0, 827, 3, -0.5, 875, 3, -0.5
*EQUATION
5
1641, 1, 1.0, 825, 1, -0.25, 873, 1, -0.25, 874, 1, -0.25, 826, 1, -0.25
*EQUATION
5
1641, 2, 1.0, 825, 2, -0.25, 873, 2, -0.25, 874, 2, -0.25, 826, 2, -0.25
*EQUATION
5
1641, 3, 1.0, 825, 3, -0.25, 873, 3, -0.25, 874, 3, -0.25, 826, 3, -0.25
*EQUATION
5
1643, 1, 1.0, 827, 1, -0.25, 875, 1, -0.25, 876, 1, -0.25, 828, 1, -0.25
*EQUATION
5
1643, 2, 1.0, 827, 2, -0.25, 875, 2, -0.25, 876, 2, -0.25, 828, 2, -0.25
*EQUATION
5
1643, 3, 1.0, 827, 3, -0.25, 875, 3, -0.25, 876, 3, -0.25, 828, 3, -0.25
*EQUATION
3
1644, 1, 1.0, 826, 1, -0.5, 874, 1, -0.5
*EQUATION
3
1644, 2, 1.0, 826, 2, -0.5, 874, 2, -0.5
*EQUATION
3
1644, 3, 1.0, 826, 3, -0.5, 874, 3, -0.5
*EQUATION
3
1646, 1, 1.0, 828, 1, -0.5, 876, 1, -0.5
*EQUATION
3
1646, 2, 1.0, 828, 2, -0.5, 876, 2, -0.5
*EQUATION
3
1646, 3, 1.0, 828, 3, -0.5, 876, 3, -0.5
*EQUATION
3
1648, 1, 1.0, 873, 1, -0.5, 874, 1, -0.5
*EQUATION
3
1648, 2, 1.0, 873, 2, -0.5, 874, 2, -0.5
*EQUATION
3
1648, 3, 1.0, 873, 3, -0.5, 874, 3, -0.5
*EQUATION
3
1650, 1, 1.0, 875, 1, -0.5, 876, 1, -0.5
*EQUATION
3
1650, 2, 1.0, 875, 2, -0.5, 876, 2, -0.5
*EQUATION
3
1650, 3, 1.0, 875, 3, -0.5, 876, 3, -0.5
*EQUATION
5
1654, 1, 1.0, 820, 1, -0.25, 868, 1, -0.25, 878, 1, -0.25, 830, 1, -0.25
*EQUATION
5
1654, 2, 1.0, 820, 2, -0.25, 868, 2, -0.25, 878, 2, -0.25, 830, 2, -0.25
*EQUATION
5
1654, 3, 1.0, 820, 3, -0.25, 868, 3, -0.25, 878, 3, -0.25, 830, 3, -0.25
*EQUATION
3
1657, 1, 1.0, 830, 1, -0.5, 878, 1, -0.5
*EQUATION
3
1657, 2, 1.0, 830, 2, -0.5, 878, 2, -0.5
*EQUATION
3
1657, 3, 1.0, 830, 3, -0.5, 878, 3, -0.5
*EQUATION
3
1660, 1, 1.0, 868, 1, -0.5, 878, 1, -0.5
*EQUATION
3
1660, 2, 1.0, 868, 2, -0.5, 878, 2, -0.5
*EQUATION
3
1660, 3, 1.0, 868, 3, -0.5, 878, 3, -0.5
*EQUATION
3
1662, 1, 1.0, 826, 1, -0.5, 833, 1, -0.5
*EQUATION
3
1662, 2, 1.0, 826, 2, -0.5, 833, 2, -0.5
*EQUATION
3
1662, 3, 1.0, 826, 3, -0.5, 833, 3, -0.5
*EQUATION
5
1663, 1, 1.0, 826, 1, -0.25, 833, 1, -0.25, 834, 1, -0.25, 828, 1, -0.25
*EQUATION
5
1663, 2, 1.0, 826, 2, -0.25, 833, 2, -0.25, 834, 2, -0.25, 828, 2, -0.25
*EQUATION
5
1663, 3, 1.0, 826, 3, -0.25, 833, 3, -0.25, 834, 3, -0.25, 828, 3, -0.25
*EQUATION
3
1664, 1, 1.0, 828, 1, -0.5, 834, 1, -0.5
*EQUATION
3
1664, 2, 1.0, 828, 2, -0.5, 834, 2, -0.5
*EQUATION
3
1664, 3, 1.0, 828, 3, -0.5, 834, 3, -0.5
*EQUATION
3
1665, 1, 1.0, 833, 1, -0.5, 834, 1, -0.5
*EQUATION
3
1665, 2, 1.0, 833, 2, -0.5, 834, 2, -0.5
*EQUATION
3
1665, 3, 1.0, 833, 3, -0.5, 834, 3, -0.5
*EQUATION
5
1666, 1, 1.0, 826, 1, -0.25, 874, 1, -0.25, 881, 1, -0.25, 833, 1, -0.25
*EQUATION
5
1666, 2, 1.0, 826, 2, -0.25, 874, 2, -0.25, 881, 2, -0.25, 833, 2, -0.25
*EQUATION
5
1666, 3, 1.0, 826, 3, -0.25, 874, 3, -0.25, 881, 3, -0.25, 833, 3, -0.25
*EQUATION
5
1668, 1, 1.0, 828, 1, -0.25, 876, 1, -0.25, 882, 1, -0.25, 834, 1, -0.25
*EQUATION
5
1668, 2, 1.0, 828, 2, -0.25, 876, 2, -0.25, 882, 2, -0.25, 834, 2, -0.25
*EQUATION
5
1668, 3, 1.0, 828, 3, -0.25, 876, 3, -0.25, 882, 3, -0.25, 834, 3, -0.25
*EQUATION
3
1669, 1, 1.0, 833, 1, -0.5, 881, 1, -0.5
*EQUATION
3
1669, 2, 1.0, 833, 2, -0.5, 881, 2, -0.5
*EQUATION
3
1669, 3, 1.0, 833, 3, -0.5, 881, 3, -0.5
*EQUATION
3
1671, 1, 1.0, 834, 1, -0.5, 882, 1, -0.5
*EQUATION
3
1671, 2, 1.0, 834, 2, -0.5, 882, 2, -0.5
*EQUATION
3
1671, 3, 1.0, 834, 3, -0.5, 882, 3, -0.5
*EQUATION
3
1672, 1, 1.0, 874, 1, -0.5, 881, 1, -0.5
*EQUATION
3
1672, 2, 1.0, 874, 2, -0.5, 881, 2, -0.5
*EQUATION
3
1672, 3, 1.0, 874, 3, -0.5, 881, 3, -0.5
*EQUATION
3
1674, 1, 1.0, 876, 1, -0.5, 882, 1, -0.5
*EQUATION
3
1674, 2, 1.0, 876, 2, -0.5, 882, 2, -0.5
*EQUATION
3
1674, 3, 1.0, 876, 3, -0.5, 882, 3, -0.5
*EQUATION
3
1682, 1, 1.0, 836, 1, -0.5, 884, 1, -0.5
*EQUATION
3
1682, 2, 1.0, 836, 2, -0.5, 884, 2, -0.5
*EQUATION
3
1682, 3, 1.0, 836, 3, -0.5, 884, 3, -0.5
*EQUATION
5
1683, 1, 1.0, 836, 1, -0.25, 884, 1, -0.25, 886, 1, -0.25, 838, 1, -0.25
*EQUATION
5
1683, 2, 1.0, 836, 2, -0.25, 884, 2, -0.25, 886, 2, -0.25, 838, 2, -0.25
*EQUATION
5
1683, 3, 1.0, 836, 3, -0.25, 884, 3, -0.25, 886, 3, -0.25, 838, 3, -0.25
*EQUATION
3
1684, 1, 1.0, 838, 1, -0.5, 886, 1, -0.5
*EQUATION
3
1684, 2, 1.0, 838, 2, -0.5, 886, 2, -0.5
*EQUATION
3
1684, 3, 1.0, 838, 3, -0.5, 886, 3, -0.5
*EQUATION
3
1689, 1, 1.0, 884, 1, -0.5, 886, 1, -0.5
*EQUATION
3
1689, 2, 1.0, 884, 2, -0.5, 886, 2, -0.5
*EQUATION
3
1689, 3, 1.0, 884, 3, -0.5, 886, 3, -0.5
*EQUATION
5
1694, 1, 1.0, 838, 1, -0.25, 886, 1, -0.25, 888, 1, -0.25, 840, 1, -0.25
*EQUATION
5
1694, 2, 1.0, 838, 2, -0.25, 886, 2, -0.25, 888, 2, -0.25, 840, 2, -0.25
*EQUATION
5
1694, 3, 1.0, 838, 3, -0.25, 886, 3, -0.25, 888, 3, -0.25, 840, 3, -0.25
*EQUATION
3
1695, 1, 1.0, 840, 1, -0.5, 888, 1, -0.5
*EQUATION
3
1695, 2, 1.0, 840, 2, -0.5, 888, 2, -0.5
*EQUATION
3
1695, 3, 1.0, 840, 3, -0.5, 888, 3, -0.5
*EQUATION
3
1699, 1, 1.0, 886, 1, -0.5, 888, 1, -0.5
*EQUATION
3
1699, 2, 1.0, 886, 2, -0.5, 888, 2, -0.5
*EQUATION
3
1699, 3, 1.0, 886, 3, -0.5, 888, 3, -0.5
*EQUATION
3
1700, 1, 1.0, 844, 1, -0.5, 845, 1, -0.5
*EQUATION
3
1700, 2, 1.0, 844, 2, -0.5, 845, 2, -0.5
*EQUATION
3
1700, 3, 1.0, 844, 3, -0.5, 845, 3, -0.5
*EQUATION
3
1701, 1, 1.0, 827, 1, -0.5, 844, 1, -0.5
*EQUATION
3
1701, 2, 1.0, 827, 2, -0.5, 844, 2, -0.5
*EQUATION
3
1701, 3, 1.0, 827, 3, -0.5, 844, 3, -0.5
*EQUATION
5
1702, 1, 1.0, 844, 1, -0.25, 827, 1, -0.25, 847, 1, -0.25, 845, 1, -0.25
*EQUATION
5
1702, 2, 1.0, 844, 2, -0.25, 827, 2, -0.25, 847, 2, -0.25, 845, 2, -0.25
*EQUATION
5
1702, 3, 1.0, 844, 3, -0.25, 827, 3, -0.25, 847, 3, -0.25, 845, 3, -0.25
*EQUATION
3
1703, 1, 1.0, 845, 1, -0.5, 847, 1, -0.5
*EQUATION
3
1703, 2, 1.0, 845, 2, -0.5, 847, 2, -0.5
*EQUATION
3
1703, 3, 1.0, 845, 3, -0.5, 847, 3, -0.5
*EQUATION
3
1704, 1, 1.0, 827, 1, -0.5, 847, 1, -0.5
*EQUATION
3
1704, 2, 1.0, 827, 2, -0.5, 847, 2, -0.5
*EQUATION
3
1704, 3, 1.0, 827, 3, -0.5, 847, 3, -0.5
*EQUATION
3
1705, 1, 1.0, 844, 1, -0.5, 892, 1, -0.5
*EQUATION
3
1705, 2, 1.0, 844, 2, -0.5, 892, 2, -0.5
*EQUATION
3
1705, 3, 1.0, 844, 3, -0.5, 892, 3, -0.5
*EQUATION
5
1706, 1, 1.0, 844, 1, -0.25, 892, 1, -0.25, 893, 1, -0.25, 845, 1, -0.25
*EQUATION
5
1706, 2, 1.0, 844, 2, -0.25, 892, 2, -0.25, 893, 2, -0.25, 845, 2, -0.25
*EQUATION
5
1706, 3, 1.0, 844, 3, -0.25, 892, 3, -0.25, 893, 3, -0.25, 845, 3, -0.25
*EQUATION
3
1707, 1, 1.0, 845, 1, -0.5, 893, 1, -0.5
*EQUATION
3
1707, 2, 1.0, 845, 2, -0.5, 893, 2, -0.5
*EQUATION
3
1707, 3, 1.0, 845, 3, -0.5, 893, 3, -0.5
*EQUATION
5
1711, 1, 1.0, 827, 1, -0.25, 875, 1, -0.25, 895, 1, -0.25, 847, 1, -0.25
*EQUATION
5
1711, 2, 1.0, 827, 2, -0.25, 875, 2, -0.25, 895, 2, -0.25, 847, 2, -0.25
*EQUATION
5
1711, 3, 1.0, 827, 3, -0.25, 875, 3, -0.25, 895, 3, -0.25, 847, 3, -0.25
*EQUATION
3
1712, 1, 1.0, 847, 1, -0.5, 895, 1, -0.5
*EQUATION
3
1712, 2, 1.0, 847, 2, -0.5, 895, 2, -0.5
*EQUATION
3
1712, 3, 1.0, 847, 3, -0.5, 895, 3, -0.5
*EQUATION
3
1713, 1, 1.0, 892, 1, -0.5, 893, 1, -0.5
*EQUATION
3
1713, 2, 1.0, 892, 2, -0.5, 893, 2, -0.5
*EQUATION
3
1713, 3, 1.0, 892, 3, -0.5, 893, 3, -0.5
*EQUATION
3
1717, 1, 1.0, 875, 1, -0.5, 895, 1, -0.5
*EQUATION
3
1717, 2, 1.0, 875, 2, -0.5, 895, 2, -0.5
*EQUATION
3
1717, 3, 1.0, 875, 3, -0.5, 895, 3, -0.5
*EQUATION
3
1718, 1, 1.0, 845, 1, -0.5, 846, 1, -0.5
*EQUATION
3
1718, 2, 1.0, 845, 2, -0.5, 846, 2, -0.5
*EQUATION
3
1718, 3, 1.0, 845, 3, -0.5, 846, 3, -0.5
*EQUATION
5
1719, 1, 1.0, 845, 1, -0.25, 847, 1, -0.25, 848, 1, -0.25, 846, 1, -0.25
*EQUATION
5
1719, 2, 1.0, 845, 2, -0.25, 847, 2, -0.25, 848, 2, -0.25, 846, 2, -0.25
*EQUATION
5
1719, 3, 1.0, 845, 3, -0.25, 847, 3, -0.25, 848, 3, -0.25, 846, 3, -0.25
*EQUATION
3
1720, 1, 1.0, 846, 1, -0.5, 848, 1, -0.5
*EQUATION
3
1720, 2, 1.0, 846, 2, -0.5, 848, 2, -0.5
*EQUATION
3
1720, 3, 1.0, 846, 3, -0.5, 848, 3, -0.5
*EQUATION
3
1721, 1, 1.0, 847, 1, -0.5, 848, 1, -0.5
*EQUATION
3
1721, 2, 1.0, 847, 2, -0.5, 848, 2, -0.5
*EQUATION
3
1721, 3, 1.0, 847, 3, -0.5, 848, 3, -0.5
*EQUATION
5
1722, 1, 1.0, 845, 1, -0.25, 893, 1, -0.25, 894, 1, -0.25, 846, 1, -0.25
*EQUATION
5
1722, 2, 1.0, 845, 2, -0.25, 893, 2, -0.25, 894, 2, -0.25, 846, 2, -0.25
*EQUATION
5
1722, 3, 1.0, 845, 3, -0.25, 893, 3, -0.25, 894, 3, -0.25, 846, 3, -0.25
*EQUATION
3
1723, 1, 1.0, 846, 1, -0.5, 894, 1, -0.5
*EQUATION
3
1723, 2, 1.0, 846, 2, -0.5, 894, 2, -0.5
*EQUATION
3
1723, 3, 1.0, 846, 3, -0.5, 894, 3, -0.5
*EQUATION
5
1726, 1, 1.0, 847, 1, -0.25, 895, 1, -0.25, 896, 1, -0.25, 848, 1, -0.25
*EQUATION
5
1726, 2, 1.0, 847, 2, -0.25, 895, 2, -0.25, 896, 2, -0.25, 848, 2, -0.25
*EQUATION
5
1726, 3, 1.0, 847, 3, -0.25, 895, 3, -0.25, 896, 3, -0.25, 848, 3, -0.25
*EQUATION
3
1727, 1, 1.0, 848, 1, -0.5, 896, 1, -0.5
*EQUATION
3
1727, 2, 1.0, 848, 2, -0.5, 896, 2, -0.5
*EQUATION
3
1727, 3, 1.0, 848, 3, -0.5, 896, 3, -0.5
*EQUATION
3
1728, 1, 1.0, 893, 1, -0.5, 894, 1, -0.5
*EQUATION
3
1728, 2, 1.0, 893, 2, -0.5, 894, 2, -0.5
*EQUATION
3
1728, 3, 1.0, 893, 3, -0.5, 894, 3, -0.5
*EQUATION
3
1731, 1, 1.0, 895, 1, -0.5, 896, 1, -0.5
*EQUATION
3
1731, 2, 1.0, 895, 2, -0.5, 896, 2, -0.5
*EQUATION
3
1731, 3, 1.0, 895, 3, -0.5, 896, 3, -0.5
*EQUATION
3
1732, 1, 1.0, 859, 1, -0.5, 907, 1, -0.5
*EQUATION
3
1732, 2, 1.0, 859, 2, -0.5, 907, 2, -0.5
*EQUATION
3
1732, 3, 1.0, 859, 3, -0.5, 907, 3, -0.5
*EQUATION
5
1733, 1, 1.0, 859, 1, -0.25, 907, 1, -0.25, 908, 1, -0.25, 860, 1, -0.25
*EQUATION
5
1733, 2, 1.0, 859, 2, -0.25, 907, 2, -0.25, 908, 2, -0.25, 860, 2, -0.25
*EQUATION
5
1733, 3, 1.0, 859, 3, -0.25, 907, 3, -0.25, 908, 3, -0.25, 860, 3, -0.25
*EQUATION
3
1734, 1, 1.0, 860, 1, -0.5, 908, 1, -0.5
*EQUATION
3
1734, 2, 1.0, 860, 2, -0.5, 908, 2, -0.5
*EQUATION
3
1734, 3, 1.0, 860, 3, -0.5, 908, 3, -0.5
*EQUATION
3
1741, 1, 1.0, 907, 1, -0.5, 908, 1, -0.5
*EQUATION
3
1741, 2, 1.0, 907, 2, -0.5, 908, 2, -0.5
*EQUATION
3
1741, 3, 1.0, 907, 3, -0.5, 908, 3, -0.5
*EQUATION
5
1746, 1, 1.0, 860, 1, -0.25, 908, 1, -0.25, 909, 1, -0.25, 861, 1, -0.25
*EQUATION
5
1746, 2, 1.0, 860, 2, -0.25, 908, 2, -0.25, 909, 2, -0.25, 861, 2, -0.25
*EQUATION
5
1746, 3, 1.0, 860, 3, -0.25, 908, 3, -0.25, 909, 3, -0.25, 861, 3, -0.25
*EQUATION
3
1747, 1, 1.0, 861, 1, -0.5, 909, 1, -0.5
*EQUATION
3
1747, 2, 1.0, 861, 2, -0.5, 909, 2, -0.5
*EQUATION
3
1747, 3, 1.0, 861, 3, -0.5, 909, 3, -0.5
*EQUATION
3
1752, 1, 1.0, 908, 1, -0.5, 909, 1, -0.5
*EQUATION
3
1752, 2, 1.0, 908, 2, -0.5, 909, 2, -0.5
*EQUATION
3
1752, 3, 1.0, 908, 3, -0.5, 909, 3, -0.5
*BOUNDARY
CLAMP, 1, 3, 0.0
*STEP
*STATIC
*CLOAD
887, 3, -357.142857143
888, 3, -357.142857143
891, 3, -357.142857143
894, 3, -357.142857143
896, 3, -357.142857143
898, 3, -357.142857143
900, 3, -357.142857143
903, 3, -357.142857143
906, 3, -357.142857143
909, 3, -357.142857143
912, 3, -357.142857143
1698, 3, -357.142857143
1730, 3, -357.142857143
1754, 3, -357.142857143
*NODE FILE
U
*EL FILE
S, ENER
*NODE PRINT, NSET=TIP_TOP
U
*NODE PRINT, NSET=CLAMP
RF
*EL PRINT, ELSET=EALL
ELSE
*ENERGY PRINT
*END STEP
