*HEADING
T01 D-NLG t01_d-nlg_pso conforming C3D8 frozen T
units: mm, N, s, MPa, t. Illustrative steel, not a coupon card.
beam=T01 case=D-NLG job=t01_d-nlg_pso type=C3D8
E=210000.0 nu=0.3 fy=235.0 load=-30000.0 N on TIP_TOP
*NODE, NSET=NALL
1, 0, -10, 0
2, 81.1639880225, -10, 4.86983928135
3, 81.1639880225, 0, 4.86983928135
4, 0, 0, 0
5, 0, -10, 40
6, 81.1639880225, -10, 43.8958714251
7, 81.1639880225, 0, 43.8958714251
8, 0, 0, 40
9, 0, -10, 80
10, 81.1639880225, -10, 82.9219035688
11, 81.1639880225, 0, 82.9219035688
12, 0, 0, 80
13, 0, -10, 120
14, 81.1639880225, -10, 121.947935713
15, 81.1639880225, 0, 121.947935713
16, 0, 0, 120
17, 0, -10, 160
18, 81.1639880225, -10, 160.973967856
19, 81.1639880225, 0, 160.973967856
20, 0, 0, 160
21, 0, -10, 200
22, 81.1639880225, -10, 200
23, 81.1639880225, 0, 200
24, 0, 0, 200
25, 81.1639880225, 10, 4.86983928135
26, 0, 10, 0
27, 81.1639880225, 10, 43.8958714251
28, 0, 10, 40
29, 81.1639880225, 10, 82.9219035688
30, 0, 10, 80
31, 81.1639880225, 10, 121.947935713
32, 0, 10, 120
33, 81.1639880225, 10, 160.973967856
34, 0, 10, 160
35, 81.1639880225, 10, 200
36, 0, 10, 200
37, 0, -120, 200
38, 81.1639880225, -120, 200
39, 81.1639880225, -92.5, 200
40, 0, -92.5, 200
41, 0, -120, 210
42, 81.1639880225, -120, 210
43, 81.1639880225, -92.5, 210
44, 0, -92.5, 210
45, 0, -120, 220
46, 81.1639880225, -120, 220
47, 81.1639880225, -92.5, 220
48, 0, -92.5, 220
49, 81.1639880225, -65, 200
50, 0, -65, 200
51, 81.1639880225, -65, 210
52, 0, -65, 210
53, 81.1639880225, -65, 220
54, 0, -65, 220
55, 81.1639880225, -37.5, 200
56, 0, -37.5, 200
57, 81.1639880225, -37.5, 210
58, 0, -37.5, 210
59, 81.1639880225, -37.5, 220
60, 0, -37.5, 220
61, 81.1639880225, -10, 210
62, 0, -10, 210
63, 81.1639880225, -10, 220
64, 0, -10, 220
65, 81.1639880225, 0, 210
66, 0, 0, 210
67, 81.1639880225, 0, 220
68, 0, 0, 220
69, 81.1639880225, 10, 210
70, 0, 10, 210
71, 81.1639880225, 10, 220
72, 0, 10, 220
73, 81.1639880225, 37.5, 200
74, 0, 37.5, 200
75, 81.1639880225, 37.5, 210
76, 0, 37.5, 210
77, 81.1639880225, 37.5, 220
78, 0, 37.5, 220
79, 81.1639880225, 65, 200
80, 0, 65, 200
81, 81.1639880225, 65, 210
82, 0, 65, 210
83, 81.1639880225, 65, 220
84, 0, 65, 220
85, 81.1639880225, 92.5, 200
86, 0, 92.5, 200
87, 81.1639880225, 92.5, 210
88, 0, 92.5, 210
89, 81.1639880225, 92.5, 220
90, 0, 92.5, 220
91, 81.1639880225, 120, 200
92, 0, 120, 200
93, 81.1639880225, 120, 210
94, 0, 120, 210
95, 81.1639880225, 120, 220
96, 0, 120, 220
97, 154.352698365, -10, 9.26116190191
98, 154.352698365, 0, 9.26116190191
99, 154.352698365, -10, 47.4089295215
100, 154.352698365, 0, 47.4089295215
101, 154.352698365, -10, 85.5566971411
102, 154.352698365, 0, 85.5566971411
103, 154.352698365, -10, 123.704464761
104, 154.352698365, 0, 123.704464761
105, 154.352698365, -10, 161.85223238
106, 154.352698365, 0, 161.85223238
107, 154.352698365, -10, 200
108, 154.352698365, 0, 200
109, 154.352698365, 10, 9.26116190191
110, 154.352698365, 10, 47.4089295215
111, 154.352698365, 10, 85.5566971411
112, 154.352698365, 10, 123.704464761
113, 154.352698365, 10, 161.85223238
114, 154.352698365, 10, 200
115, 154.352698365, -120, 200
116, 154.352698365, -92.5, 200
117, 154.352698365, -120, 210
118, 154.352698365, -92.5, 210
119, 154.352698365, -120, 220
120, 154.352698365, -92.5, 220
121, 154.352698365, -65, 200
122, 154.352698365, -65, 210
123, 154.352698365, -65, 220
124, 154.352698365, -37.5, 200
125, 154.352698365, -37.5, 210
126, 154.352698365, -37.5, 220
127, 154.352698365, -10, 210
128, 154.352698365, -10, 220
129, 154.352698365, 0, 210
130, 154.352698365, 0, 220
131, 154.352698365, 10, 210
132, 154.352698365, 10, 220
133, 154.352698365, 37.5, 200
134, 154.352698365, 37.5, 210
135, 154.352698365, 37.5, 220
136, 154.352698365, 65, 200
137, 154.352698365, 65, 210
138, 154.352698365, 65, 220
139, 154.352698365, 92.5, 200
140, 154.352698365, 92.5, 210
141, 154.352698365, 92.5, 220
142, 154.352698365, 120, 200
143, 154.352698365, 120, 210
144, 154.352698365, 120, 220
145, 234.72512852, -10, 14.0835077112
146, 234.72512852, 0, 14.0835077112
147, 234.72512852, -10, 51.266806169
148, 234.72512852, 0, 51.266806169
149, 234.72512852, -10, 88.4501046267
150, 234.72512852, 0, 88.4501046267
151, 234.72512852, -10, 125.633403084
152, 234.72512852, 0, 125.633403084
153, 234.72512852, -10, 162.816701542
154, 234.72512852, 0, 162.816701542
155, 234.72512852, -10, 200
156, 234.72512852, 0, 200
157, 234.72512852, 10, 14.0835077112
158, 234.72512852, 10, 51.266806169
159, 234.72512852, 10, 88.4501046267
160, 234.72512852, 10, 125.633403084
161, 234.72512852, 10, 162.816701542
162, 234.72512852, 10, 200
163, 234.72512852, -120, 200
164, 234.72512852, -92.5, 200
165, 234.72512852, -120, 210
166, 234.72512852, -92.5, 210
167, 234.72512852, -120, 220
168, 234.72512852, -92.5, 220
169, 234.72512852, -65, 200
170, 234.72512852, -65, 210
171, 234.72512852, -65, 220
172, 234.72512852, -37.5, 200
173, 234.72512852, -37.5, 210
174, 234.72512852, -37.5, 220
175, 234.72512852, -10, 210
176, 234.72512852, -10, 220
177, 234.72512852, 0, 210
178, 234.72512852, 0, 220
179, 234.72512852, 10, 210
180, 234.72512852, 10, 220
181, 234.72512852, 37.5, 200
182, 234.72512852, 37.5, 210
183, 234.72512852, 37.5, 220
184, 234.72512852, 65, 200
185, 234.72512852, 65, 210
186, 234.72512852, 65, 220
187, 234.72512852, 92.5, 200
188, 234.72512852, 92.5, 210
189, 234.72512852, 92.5, 220
190, 234.72512852, 120, 200
191, 234.72512852, 120, 210
192, 234.72512852, 120, 220
193, 313.54122332, -10, 18.8124733992
194, 313.54122332, 0, 18.8124733992
195, 313.54122332, -10, 55.0499787194
196, 313.54122332, 0, 55.0499787194
197, 313.54122332, -10, 91.2874840395
198, 313.54122332, 0, 91.2874840395
199, 313.54122332, -10, 127.52498936
200, 313.54122332, 0, 127.52498936
201, 313.54122332, -10, 163.76249468
202, 313.54122332, 0, 163.76249468
203, 313.54122332, -10, 200
204, 313.54122332, 0, 200
205, 313.54122332, 10, 18.8124733992
206, 313.54122332, 10, 55.0499787194
207, 313.54122332, 10, 91.2874840395
208, 313.54122332, 10, 127.52498936
209, 313.54122332, 10, 163.76249468
210, 313.54122332, 10, 200
211, 313.54122332, -120, 200
212, 313.54122332, -92.5, 200
213, 313.54122332, -120, 210
214, 313.54122332, -92.5, 210
215, 313.54122332, -120, 220
216, 313.54122332, -92.5, 220
217, 313.54122332, -65, 200
218, 313.54122332, -65, 210
219, 313.54122332, -65, 220
220, 313.54122332, -37.5, 200
221, 313.54122332, -37.5, 210
222, 313.54122332, -37.5, 220
223, 313.54122332, -10, 210
224, 313.54122332, -10, 220
225, 313.54122332, 0, 210
226, 313.54122332, 0, 220
227, 313.54122332, 10, 210
228, 313.54122332, 10, 220
229, 313.54122332, 37.5, 200
230, 313.54122332, 37.5, 210
231, 313.54122332, 37.5, 220
232, 313.54122332, 65, 200
233, 313.54122332, 65, 210
234, 313.54122332, 65, 220
235, 313.54122332, 92.5, 200
236, 313.54122332, 92.5, 210
237, 313.54122332, 92.5, 220
238, 313.54122332, 120, 200
239, 313.54122332, 120, 210
240, 313.54122332, 120, 220
241, 390.860390627, -10, 23.4516234376
242, 390.860390627, 0, 23.4516234376
243, 390.860390627, -10, 58.7612987501
244, 390.860390627, 0, 58.7612987501
245, 390.860390627, -10, 94.0709740626
246, 390.860390627, 0, 94.0709740626
247, 390.860390627, -10, 129.380649375
248, 390.860390627, 0, 129.380649375
249, 390.860390627, -10, 164.690324688
250, 390.860390627, 0, 164.690324688
251, 390.860390627, -10, 200
252, 390.860390627, 0, 200
253, 390.860390627, 10, 23.4516234376
254, 390.860390627, 10, 58.7612987501
255, 390.860390627, 10, 94.0709740626
256, 390.860390627, 10, 129.380649375
257, 390.860390627, 10, 164.690324688
258, 390.860390627, 10, 200
259, 390.860390627, -120, 200
260, 390.860390627, -92.5, 200
261, 390.860390627, -120, 210
262, 390.860390627, -92.5, 210
263, 390.860390627, -120, 220
264, 390.860390627, -92.5, 220
265, 390.860390627, -65, 200
266, 390.860390627, -65, 210
267, 390.860390627, -65, 220
268, 390.860390627, -37.5, 200
269, 390.860390627, -37.5, 210
270, 390.860390627, -37.5, 220
271, 390.860390627, -10, 210
272, 390.860390627, -10, 220
273, 390.860390627, 0, 210
274, 390.860390627, 0, 220
275, 390.860390627, 10, 210
276, 390.860390627, 10, 220
277, 390.860390627, 37.5, 200
278, 390.860390627, 37.5, 210
279, 390.860390627, 37.5, 220
280, 390.860390627, 65, 200
281, 390.860390627, 65, 210
282, 390.860390627, 65, 220
283, 390.860390627, 92.5, 200
284, 390.860390627, 92.5, 210
285, 390.860390627, 92.5, 220
286, 390.860390627, 120, 200
287, 390.860390627, 120, 210
288, 390.860390627, 120, 220
289, 466.738690225, -10, 28.0043214135
290, 466.738690225, 0, 28.0043214135
291, 466.738690225, -10, 62.4034571308
292, 466.738690225, 0, 62.4034571308
293, 466.738690225, -10, 96.8025928481
294, 466.738690225, 0, 96.8025928481
295, 466.738690225, -10, 131.201728565
296, 466.738690225, 0, 131.201728565
297, 466.738690225, -10, 165.600864283
298, 466.738690225, 0, 165.600864283
299, 466.738690225, -10, 200
300, 466.738690225, 0, 200
301, 466.738690225, 10, 28.0043214135
302, 466.738690225, 10, 62.4034571308
303, 466.738690225, 10, 96.8025928481
304, 466.738690225, 10, 131.201728565
305, 466.738690225, 10, 165.600864283
306, 466.738690225, 10, 200
307, 466.738690225, -120, 200
308, 466.738690225, -92.5, 200
309, 466.738690225, -120, 210
310, 466.738690225, -92.5, 210
311, 466.738690225, -120, 220
312, 466.738690225, -92.5, 220
313, 466.738690225, -65, 200
314, 466.738690225, -65, 210
315, 466.738690225, -65, 220
316, 466.738690225, -37.5, 200
317, 466.738690225, -37.5, 210
318, 466.738690225, -37.5, 220
319, 466.738690225, -10, 210
320, 466.738690225, -10, 220
321, 466.738690225, 0, 210
322, 466.738690225, 0, 220
323, 466.738690225, 10, 210
324, 466.738690225, 10, 220
325, 466.738690225, 37.5, 200
326, 466.738690225, 37.5, 210
327, 466.738690225, 37.5, 220
328, 466.738690225, 65, 200
329, 466.738690225, 65, 210
330, 466.738690225, 65, 220
331, 466.738690225, 92.5, 200
332, 466.738690225, 92.5, 210
333, 466.738690225, 92.5, 220
334, 466.738690225, 120, 200
335, 466.738690225, 120, 210
336, 466.738690225, 120, 220
337, 541.229081317, -10, 32.473744879
338, 541.229081317, 0, 32.473744879
339, 541.229081317, -10, 65.9789959032
340, 541.229081317, 0, 65.9789959032
341, 541.229081317, -10, 99.4842469274
342, 541.229081317, 0, 99.4842469274
343, 541.229081317, -10, 132.989497952
344, 541.229081317, 0, 132.989497952
345, 541.229081317, -10, 166.494748976
346, 541.229081317, 0, 166.494748976
347, 541.229081317, -10, 200
348, 541.229081317, 0, 200
349, 541.229081317, 10, 32.473744879
350, 541.229081317, 10, 65.9789959032
351, 541.229081317, 10, 99.4842469274
352, 541.229081317, 10, 132.989497952
353, 541.229081317, 10, 166.494748976
354, 541.229081317, 10, 200
355, 541.229081317, -120, 200
356, 541.229081317, -92.5, 200
357, 541.229081317, -120, 210
358, 541.229081317, -92.5, 210
359, 541.229081317, -120, 220
360, 541.229081317, -92.5, 220
361, 541.229081317, -65, 200
362, 541.229081317, -65, 210
363, 541.229081317, -65, 220
364, 541.229081317, -37.5, 200
365, 541.229081317, -37.5, 210
366, 541.229081317, -37.5, 220
367, 541.229081317, -10, 210
368, 541.229081317, -10, 220
369, 541.229081317, 0, 210
370, 541.229081317, 0, 220
371, 541.229081317, 10, 210
372, 541.229081317, 10, 220
373, 541.229081317, 37.5, 200
374, 541.229081317, 37.5, 210
375, 541.229081317, 37.5, 220
376, 541.229081317, 65, 200
377, 541.229081317, 65, 210
378, 541.229081317, 65, 220
379, 541.229081317, 92.5, 200
380, 541.229081317, 92.5, 210
381, 541.229081317, 92.5, 220
382, 541.229081317, 120, 200
383, 541.229081317, 120, 210
384, 541.229081317, 120, 220
385, 614.381647536, -10, 36.8628988521
386, 614.381647536, 0, 36.8628988521
387, 614.381647536, -10, 69.4903190817
388, 614.381647536, 0, 69.4903190817
389, 614.381647536, -10, 102.117739311
390, 614.381647536, 0, 102.117739311
391, 614.381647536, -10, 134.745159541
392, 614.381647536, 0, 134.745159541
393, 614.381647536, -10, 167.37257977
394, 614.381647536, 0, 167.37257977
395, 614.381647536, -10, 200
396, 614.381647536, 0, 200
397, 614.381647536, 10, 36.8628988521
398, 614.381647536, 10, 69.4903190817
399, 614.381647536, 10, 102.117739311
400, 614.381647536, 10, 134.745159541
401, 614.381647536, 10, 167.37257977
402, 614.381647536, 10, 200
403, 614.381647536, -120, 200
404, 614.381647536, -92.5, 200
405, 614.381647536, -120, 210
406, 614.381647536, -92.5, 210
407, 614.381647536, -120, 220
408, 614.381647536, -92.5, 220
409, 614.381647536, -65, 200
410, 614.381647536, -65, 210
411, 614.381647536, -65, 220
412, 614.381647536, -37.5, 200
413, 614.381647536, -37.5, 210
414, 614.381647536, -37.5, 220
415, 614.381647536, -10, 210
416, 614.381647536, -10, 220
417, 614.381647536, 0, 210
418, 614.381647536, 0, 220
419, 614.381647536, 10, 210
420, 614.381647536, 10, 220
421, 614.381647536, 37.5, 200
422, 614.381647536, 37.5, 210
423, 614.381647536, 37.5, 220
424, 614.381647536, 65, 200
425, 614.381647536, 65, 210
426, 614.381647536, 65, 220
427, 614.381647536, 92.5, 200
428, 614.381647536, 92.5, 210
429, 614.381647536, 92.5, 220
430, 614.381647536, 120, 200
431, 614.381647536, 120, 210
432, 614.381647536, 120, 220
433, 686.243801867, -10, 41.174628112
434, 686.243801867, 0, 41.174628112
435, 686.243801867, -10, 72.9397024896
436, 686.243801867, 0, 72.9397024896
437, 686.243801867, -10, 104.704776867
438, 686.243801867, 0, 104.704776867
439, 686.243801867, -10, 136.469851245
440, 686.243801867, 0, 136.469851245
441, 686.243801867, -10, 168.234925622
442, 686.243801867, 0, 168.234925622
443, 686.243801867, -10, 200
444, 686.243801867, 0, 200
445, 686.243801867, 10, 41.174628112
446, 686.243801867, 10, 72.9397024896
447, 686.243801867, 10, 104.704776867
448, 686.243801867, 10, 136.469851245
449, 686.243801867, 10, 168.234925622
450, 686.243801867, 10, 200
451, 686.243801867, -120, 200
452, 686.243801867, -92.5, 200
453, 686.243801867, -120, 210
454, 686.243801867, -92.5, 210
455, 686.243801867, -120, 220
456, 686.243801867, -92.5, 220
457, 686.243801867, -65, 200
458, 686.243801867, -65, 210
459, 686.243801867, -65, 220
460, 686.243801867, -37.5, 200
461, 686.243801867, -37.5, 210
462, 686.243801867, -37.5, 220
463, 686.243801867, -10, 210
464, 686.243801867, -10, 220
465, 686.243801867, 0, 210
466, 686.243801867, 0, 220
467, 686.243801867, 10, 210
468, 686.243801867, 10, 220
469, 686.243801867, 37.5, 200
470, 686.243801867, 37.5, 210
471, 686.243801867, 37.5, 220
472, 686.243801867, 65, 200
473, 686.243801867, 65, 210
474, 686.243801867, 65, 220
475, 686.243801867, 92.5, 200
476, 686.243801867, 92.5, 210
477, 686.243801867, 92.5, 220
478, 686.243801867, 120, 200
479, 686.243801867, 120, 210
480, 686.243801867, 120, 220
481, 756.860473609, -10, 45.4116284165
482, 756.860473609, 0, 45.4116284165
483, 756.860473609, -10, 76.3293027332
484, 756.860473609, 0, 76.3293027332
485, 756.860473609, -10, 107.24697705
486, 756.860473609, 0, 107.24697705
487, 756.860473609, -10, 138.164651367
488, 756.860473609, 0, 138.164651367
489, 756.860473609, -10, 169.082325683
490, 756.860473609, 0, 169.082325683
491, 756.860473609, -10, 200
492, 756.860473609, 0, 200
493, 756.860473609, 10, 45.4116284165
494, 756.860473609, 10, 76.3293027332
495, 756.860473609, 10, 107.24697705
496, 756.860473609, 10, 138.164651367
497, 756.860473609, 10, 169.082325683
498, 756.860473609, 10, 200
499, 756.860473609, -120, 200
500, 756.860473609, -92.5, 200
501, 756.860473609, -120, 210
502, 756.860473609, -92.5, 210
503, 756.860473609, -120, 220
504, 756.860473609, -92.5, 220
505, 756.860473609, -65, 200
506, 756.860473609, -65, 210
507, 756.860473609, -65, 220
508, 756.860473609, -37.5, 200
509, 756.860473609, -37.5, 210
510, 756.860473609, -37.5, 220
511, 756.860473609, -10, 210
512, 756.860473609, -10, 220
513, 756.860473609, 0, 210
514, 756.860473609, 0, 220
515, 756.860473609, 10, 210
516, 756.860473609, 10, 220
517, 756.860473609, 37.5, 200
518, 756.860473609, 37.5, 210
519, 756.860473609, 37.5, 220
520, 756.860473609, 65, 200
521, 756.860473609, 65, 210
522, 756.860473609, 65, 220
523, 756.860473609, 92.5, 200
524, 756.860473609, 92.5, 210
525, 756.860473609, 92.5, 220
526, 756.860473609, 120, 200
527, 756.860473609, 120, 210
528, 756.860473609, 120, 220
529, 826.274279227, -10, 49.5764567536
530, 826.274279227, 0, 49.5764567536
531, 826.274279227, -10, 79.6611654029
532, 826.274279227, 0, 79.6611654029
533, 826.274279227, -10, 109.745874052
534, 826.274279227, 0, 109.745874052
535, 826.274279227, -10, 139.830582701
536, 826.274279227, 0, 139.830582701
537, 826.274279227, -10, 169.915291351
538, 826.274279227, 0, 169.915291351
539, 826.274279227, -10, 200
540, 826.274279227, 0, 200
541, 826.274279227, 10, 49.5764567536
542, 826.274279227, 10, 79.6611654029
543, 826.274279227, 10, 109.745874052
544, 826.274279227, 10, 139.830582701
545, 826.274279227, 10, 169.915291351
546, 826.274279227, 10, 200
547, 826.274279227, -120, 200
548, 826.274279227, -92.5, 200
549, 826.274279227, -120, 210
550, 826.274279227, -92.5, 210
551, 826.274279227, -120, 220
552, 826.274279227, -92.5, 220
553, 826.274279227, -65, 200
554, 826.274279227, -65, 210
555, 826.274279227, -65, 220
556, 826.274279227, -37.5, 200
557, 826.274279227, -37.5, 210
558, 826.274279227, -37.5, 220
559, 826.274279227, -10, 210
560, 826.274279227, -10, 220
561, 826.274279227, 0, 210
562, 826.274279227, 0, 220
563, 826.274279227, 10, 210
564, 826.274279227, 10, 220
565, 826.274279227, 37.5, 200
566, 826.274279227, 37.5, 210
567, 826.274279227, 37.5, 220
568, 826.274279227, 65, 200
569, 826.274279227, 65, 210
570, 826.274279227, 65, 220
571, 826.274279227, 92.5, 200
572, 826.274279227, 92.5, 210
573, 826.274279227, 92.5, 220
574, 826.274279227, 120, 200
575, 826.274279227, 120, 210
576, 826.274279227, 120, 220
577, 894.525678738, -10, 53.6715407243
578, 894.525678738, 0, 53.6715407243
579, 894.525678738, -10, 82.9372325794
580, 894.525678738, 0, 82.9372325794
581, 894.525678738, -10, 112.202924435
582, 894.525678738, 0, 112.202924435
583, 894.525678738, -10, 141.46861629
584, 894.525678738, 0, 141.46861629
585, 894.525678738, -10, 170.734308145
586, 894.525678738, 0, 170.734308145
587, 894.525678738, -10, 200
588, 894.525678738, 0, 200
589, 894.525678738, 10, 53.6715407243
590, 894.525678738, 10, 82.9372325794
591, 894.525678738, 10, 112.202924435
592, 894.525678738, 10, 141.46861629
593, 894.525678738, 10, 170.734308145
594, 894.525678738, 10, 200
595, 894.525678738, -120, 200
596, 894.525678738, -92.5, 200
597, 894.525678738, -120, 210
598, 894.525678738, -92.5, 210
599, 894.525678738, -120, 220
600, 894.525678738, -92.5, 220
601, 894.525678738, -65, 200
602, 894.525678738, -65, 210
603, 894.525678738, -65, 220
604, 894.525678738, -37.5, 200
605, 894.525678738, -37.5, 210
606, 894.525678738, -37.5, 220
607, 894.525678738, -10, 210
608, 894.525678738, -10, 220
609, 894.525678738, 0, 210
610, 894.525678738, 0, 220
611, 894.525678738, 10, 210
612, 894.525678738, 10, 220
613, 894.525678738, 37.5, 200
614, 894.525678738, 37.5, 210
615, 894.525678738, 37.5, 220
616, 894.525678738, 65, 200
617, 894.525678738, 65, 210
618, 894.525678738, 65, 220
619, 894.525678738, 92.5, 200
620, 894.525678738, 92.5, 210
621, 894.525678738, 92.5, 220
622, 894.525678738, 120, 200
623, 894.525678738, 120, 210
624, 894.525678738, 120, 220
625, 961.653119084, -10, 57.6991871451
626, 961.653119084, 0, 57.6991871451
627, 961.653119084, -10, 86.1593497161
628, 961.653119084, 0, 86.1593497161
629, 961.653119084, -10, 114.619512287
630, 961.653119084, 0, 114.619512287
631, 961.653119084, -10, 143.079674858
632, 961.653119084, 0, 143.079674858
633, 961.653119084, -10, 171.539837429
634, 961.653119084, 0, 171.539837429
635, 961.653119084, -10, 200
636, 961.653119084, 0, 200
637, 961.653119084, 10, 57.6991871451
638, 961.653119084, 10, 86.1593497161
639, 961.653119084, 10, 114.619512287
640, 961.653119084, 10, 143.079674858
641, 961.653119084, 10, 171.539837429
642, 961.653119084, 10, 200
643, 961.653119084, -120, 200
644, 961.653119084, -92.5, 200
645, 961.653119084, -120, 210
646, 961.653119084, -92.5, 210
647, 961.653119084, -120, 220
648, 961.653119084, -92.5, 220
649, 961.653119084, -65, 200
650, 961.653119084, -65, 210
651, 961.653119084, -65, 220
652, 961.653119084, -37.5, 200
653, 961.653119084, -37.5, 210
654, 961.653119084, -37.5, 220
655, 961.653119084, -10, 210
656, 961.653119084, -10, 220
657, 961.653119084, 0, 210
658, 961.653119084, 0, 220
659, 961.653119084, 10, 210
660, 961.653119084, 10, 220
661, 961.653119084, 37.5, 200
662, 961.653119084, 37.5, 210
663, 961.653119084, 37.5, 220
664, 961.653119084, 65, 200
665, 961.653119084, 65, 210
666, 961.653119084, 65, 220
667, 961.653119084, 92.5, 200
668, 961.653119084, 92.5, 210
669, 961.653119084, 92.5, 220
670, 961.653119084, 120, 200
671, 961.653119084, 120, 210
672, 961.653119084, 120, 220
673, 1027.69316576, -10, 61.6615899455
674, 1027.69316576, 0, 61.6615899455
675, 1027.69316576, -10, 89.3292719564
676, 1027.69316576, 0, 89.3292719564
677, 1027.69316576, -10, 116.996953967
678, 1027.69316576, 0, 116.996953967
679, 1027.69316576, -10, 144.664635978
680, 1027.69316576, 0, 144.664635978
681, 1027.69316576, -10, 172.332317989
682, 1027.69316576, 0, 172.332317989
683, 1027.69316576, -10, 200
684, 1027.69316576, 0, 200
685, 1027.69316576, 10, 61.6615899455
686, 1027.69316576, 10, 89.3292719564
687, 1027.69316576, 10, 116.996953967
688, 1027.69316576, 10, 144.664635978
689, 1027.69316576, 10, 172.332317989
690, 1027.69316576, 10, 200
691, 1027.69316576, -120, 200
692, 1027.69316576, -92.5, 200
693, 1027.69316576, -120, 210
694, 1027.69316576, -92.5, 210
695, 1027.69316576, -120, 220
696, 1027.69316576, -92.5, 220
697, 1027.69316576, -65, 200
698, 1027.69316576, -65, 210
699, 1027.69316576, -65, 220
700, 1027.69316576, -37.5, 200
701, 1027.69316576, -37.5, 210
702, 1027.69316576, -37.5, 220
703, 1027.69316576, -10, 210
704, 1027.69316576, -10, 220
705, 1027.69316576, 0, 210
706, 1027.69316576, 0, 220
707, 1027.69316576, 10, 210
708, 1027.69316576, 10, 220
709, 1027.69316576, 37.5, 200
710, 1027.69316576, 37.5, 210
711, 1027.69316576, 37.5, 220
712, 1027.69316576, 65, 200
713, 1027.69316576, 65, 210
714, 1027.69316576, 65, 220
715, 1027.69316576, 92.5, 200
716, 1027.69316576, 92.5, 210
717, 1027.69316576, 92.5, 220
718, 1027.69316576, 120, 200
719, 1027.69316576, 120, 210
720, 1027.69316576, 120, 220
721, 1092.68062383, -10, 65.56083743
722, 1092.68062383, 0, 65.56083743
723, 1092.68062383, -10, 92.448669944
724, 1092.68062383, 0, 92.448669944
725, 1092.68062383, -10, 119.336502458
726, 1092.68062383, 0, 119.336502458
727, 1092.68062383, -10, 146.224334972
728, 1092.68062383, 0, 146.224334972
729, 1092.68062383, -10, 173.112167486
730, 1092.68062383, 0, 173.112167486
731, 1092.68062383, -10, 200
732, 1092.68062383, 0, 200
733, 1092.68062383, 10, 65.56083743
734, 1092.68062383, 10, 92.448669944
735, 1092.68062383, 10, 119.336502458
736, 1092.68062383, 10, 146.224334972
737, 1092.68062383, 10, 173.112167486
738, 1092.68062383, 10, 200
739, 1092.68062383, -120, 200
740, 1092.68062383, -92.5, 200
741, 1092.68062383, -120, 210
742, 1092.68062383, -92.5, 210
743, 1092.68062383, -120, 220
744, 1092.68062383, -92.5, 220
745, 1092.68062383, -65, 200
746, 1092.68062383, -65, 210
747, 1092.68062383, -65, 220
748, 1092.68062383, -37.5, 200
749, 1092.68062383, -37.5, 210
750, 1092.68062383, -37.5, 220
751, 1092.68062383, -10, 210
752, 1092.68062383, -10, 220
753, 1092.68062383, 0, 210
754, 1092.68062383, 0, 220
755, 1092.68062383, 10, 210
756, 1092.68062383, 10, 220
757, 1092.68062383, 37.5, 200
758, 1092.68062383, 37.5, 210
759, 1092.68062383, 37.5, 220
760, 1092.68062383, 65, 200
761, 1092.68062383, 65, 210
762, 1092.68062383, 65, 220
763, 1092.68062383, 92.5, 200
764, 1092.68062383, 92.5, 210
765, 1092.68062383, 92.5, 220
766, 1092.68062383, 120, 200
767, 1092.68062383, 120, 210
768, 1092.68062383, 120, 220
769, 1156.6486494, -10, 69.3989189637
770, 1156.6486494, 0, 69.3989189637
771, 1156.6486494, -10, 95.519135171
772, 1156.6486494, 0, 95.519135171
773, 1156.6486494, -10, 121.639351378
774, 1156.6486494, 0, 121.639351378
775, 1156.6486494, -10, 147.759567585
776, 1156.6486494, 0, 147.759567585
777, 1156.6486494, -10, 173.879783793
778, 1156.6486494, 0, 173.879783793
779, 1156.6486494, -10, 200
780, 1156.6486494, 0, 200
781, 1156.6486494, 10, 69.3989189637
782, 1156.6486494, 10, 95.519135171
783, 1156.6486494, 10, 121.639351378
784, 1156.6486494, 10, 147.759567585
785, 1156.6486494, 10, 173.879783793
786, 1156.6486494, 10, 200
787, 1156.6486494, -120, 200
788, 1156.6486494, -92.5, 200
789, 1156.6486494, -120, 210
790, 1156.6486494, -92.5, 210
791, 1156.6486494, -120, 220
792, 1156.6486494, -92.5, 220
793, 1156.6486494, -65, 200
794, 1156.6486494, -65, 210
795, 1156.6486494, -65, 220
796, 1156.6486494, -37.5, 200
797, 1156.6486494, -37.5, 210
798, 1156.6486494, -37.5, 220
799, 1156.6486494, -10, 210
800, 1156.6486494, -10, 220
801, 1156.6486494, 0, 210
802, 1156.6486494, 0, 220
803, 1156.6486494, 10, 210
804, 1156.6486494, 10, 220
805, 1156.6486494, 37.5, 200
806, 1156.6486494, 37.5, 210
807, 1156.6486494, 37.5, 220
808, 1156.6486494, 65, 200
809, 1156.6486494, 65, 210
810, 1156.6486494, 65, 220
811, 1156.6486494, 92.5, 200
812, 1156.6486494, 92.5, 210
813, 1156.6486494, 92.5, 220
814, 1156.6486494, 120, 200
815, 1156.6486494, 120, 210
816, 1156.6486494, 120, 220
817, 1219.62885229, -10, 73.1777311374
818, 1219.62885229, 0, 73.1777311374
819, 1219.62885229, -10, 98.5421849099
820, 1219.62885229, 0, 98.5421849099
821, 1219.62885229, -10, 123.906638682
822, 1219.62885229, 0, 123.906638682
823, 1219.62885229, -10, 149.271092455
824, 1219.62885229, 0, 149.271092455
825, 1219.62885229, -10, 174.635546227
826, 1219.62885229, 0, 174.635546227
827, 1219.62885229, -10, 200
828, 1219.62885229, 0, 200
829, 1219.62885229, 10, 73.1777311374
830, 1219.62885229, 10, 98.5421849099
831, 1219.62885229, 10, 123.906638682
832, 1219.62885229, 10, 149.271092455
833, 1219.62885229, 10, 174.635546227
834, 1219.62885229, 10, 200
835, 1219.62885229, -120, 200
836, 1219.62885229, -92.5, 200
837, 1219.62885229, -120, 210
838, 1219.62885229, -92.5, 210
839, 1219.62885229, -120, 220
840, 1219.62885229, -92.5, 220
841, 1219.62885229, -65, 200
842, 1219.62885229, -65, 210
843, 1219.62885229, -65, 220
844, 1219.62885229, -37.5, 200
845, 1219.62885229, -37.5, 210
846, 1219.62885229, -37.5, 220
847, 1219.62885229, -10, 210
848, 1219.62885229, -10, 220
849, 1219.62885229, 0, 210
850, 1219.62885229, 0, 220
851, 1219.62885229, 10, 210
852, 1219.62885229, 10, 220
853, 1219.62885229, 37.5, 200
854, 1219.62885229, 37.5, 210
855, 1219.62885229, 37.5, 220
856, 1219.62885229, 65, 200
857, 1219.62885229, 65, 210
858, 1219.62885229, 65, 220
859, 1219.62885229, 92.5, 200
860, 1219.62885229, 92.5, 210
861, 1219.62885229, 92.5, 220
862, 1219.62885229, 120, 200
863, 1219.62885229, 120, 210
864, 1219.62885229, 120, 220
865, 1281.65139097, -10, 76.8990834582
866, 1281.65139097, 0, 76.8990834582
867, 1281.65139097, -10, 101.519266767
868, 1281.65139097, 0, 101.519266767
869, 1281.65139097, -10, 126.139450075
870, 1281.65139097, 0, 126.139450075
871, 1281.65139097, -10, 150.759633383
872, 1281.65139097, 0, 150.759633383
873, 1281.65139097, -10, 175.379816692
874, 1281.65139097, 0, 175.379816692
875, 1281.65139097, -10, 200
876, 1281.65139097, 0, 200
877, 1281.65139097, 10, 76.8990834582
878, 1281.65139097, 10, 101.519266767
879, 1281.65139097, 10, 126.139450075
880, 1281.65139097, 10, 150.759633383
881, 1281.65139097, 10, 175.379816692
882, 1281.65139097, 10, 200
883, 1281.65139097, -120, 200
884, 1281.65139097, -92.5, 200
885, 1281.65139097, -120, 210
886, 1281.65139097, -92.5, 210
887, 1281.65139097, -120, 220
888, 1281.65139097, -92.5, 220
889, 1281.65139097, -65, 200
890, 1281.65139097, -65, 210
891, 1281.65139097, -65, 220
892, 1281.65139097, -37.5, 200
893, 1281.65139097, -37.5, 210
894, 1281.65139097, -37.5, 220
895, 1281.65139097, -10, 210
896, 1281.65139097, -10, 220
897, 1281.65139097, 0, 210
898, 1281.65139097, 0, 220
899, 1281.65139097, 10, 210
900, 1281.65139097, 10, 220
901, 1281.65139097, 37.5, 200
902, 1281.65139097, 37.5, 210
903, 1281.65139097, 37.5, 220
904, 1281.65139097, 65, 200
905, 1281.65139097, 65, 210
906, 1281.65139097, 65, 220
907, 1281.65139097, 92.5, 200
908, 1281.65139097, 92.5, 210
909, 1281.65139097, 92.5, 220
910, 1281.65139097, 120, 200
911, 1281.65139097, 120, 210
912, 1281.65139097, 120, 220
913, 1342.74506018, -10, 80.5647036105
914, 1342.74506018, 0, 80.5647036105
915, 1342.74506018, -10, 104.451762888
916, 1342.74506018, 0, 104.451762888
917, 1342.74506018, -10, 128.338822166
918, 1342.74506018, 0, 128.338822166
919, 1342.74506018, -10, 152.225881444
920, 1342.74506018, 0, 152.225881444
921, 1342.74506018, -10, 176.112940722
922, 1342.74506018, 0, 176.112940722
923, 1342.74506018, -10, 200
924, 1342.74506018, 0, 200
925, 1342.74506018, 10, 80.5647036105
926, 1342.74506018, 10, 104.451762888
927, 1342.74506018, 10, 128.338822166
928, 1342.74506018, 10, 152.225881444
929, 1342.74506018, 10, 176.112940722
930, 1342.74506018, 10, 200
931, 1342.74506018, -120, 200
932, 1342.74506018, -92.5, 200
933, 1342.74506018, -120, 210
934, 1342.74506018, -92.5, 210
935, 1342.74506018, -120, 220
936, 1342.74506018, -92.5, 220
937, 1342.74506018, -65, 200
938, 1342.74506018, -65, 210
939, 1342.74506018, -65, 220
940, 1342.74506018, -37.5, 200
941, 1342.74506018, -37.5, 210
942, 1342.74506018, -37.5, 220
943, 1342.74506018, -10, 210
944, 1342.74506018, -10, 220
945, 1342.74506018, 0, 210
946, 1342.74506018, 0, 220
947, 1342.74506018, 10, 210
948, 1342.74506018, 10, 220
949, 1342.74506018, 37.5, 200
950, 1342.74506018, 37.5, 210
951, 1342.74506018, 37.5, 220
952, 1342.74506018, 65, 200
953, 1342.74506018, 65, 210
954, 1342.74506018, 65, 220
955, 1342.74506018, 92.5, 200
956, 1342.74506018, 92.5, 210
957, 1342.74506018, 92.5, 220
958, 1342.74506018, 120, 200
959, 1342.74506018, 120, 210
960, 1342.74506018, 120, 220
961, 1402.93737208, -10, 84.1762423247
962, 1402.93737208, 0, 84.1762423247
963, 1402.93737208, -10, 107.34099386
964, 1402.93737208, 0, 107.34099386
965, 1402.93737208, -10, 130.505745395
966, 1402.93737208, 0, 130.505745395
967, 1402.93737208, -10, 153.67049693
968, 1402.93737208, 0, 153.67049693
969, 1402.93737208, -10, 176.835248465
970, 1402.93737208, 0, 176.835248465
971, 1402.93737208, -10, 200
972, 1402.93737208, 0, 200
973, 1402.93737208, 10, 84.1762423247
974, 1402.93737208, 10, 107.34099386
975, 1402.93737208, 10, 130.505745395
976, 1402.93737208, 10, 153.67049693
977, 1402.93737208, 10, 176.835248465
978, 1402.93737208, 10, 200
979, 1402.93737208, -120, 200
980, 1402.93737208, -92.5, 200
981, 1402.93737208, -120, 210
982, 1402.93737208, -92.5, 210
983, 1402.93737208, -120, 220
984, 1402.93737208, -92.5, 220
985, 1402.93737208, -65, 200
986, 1402.93737208, -65, 210
987, 1402.93737208, -65, 220
988, 1402.93737208, -37.5, 200
989, 1402.93737208, -37.5, 210
990, 1402.93737208, -37.5, 220
991, 1402.93737208, -10, 210
992, 1402.93737208, -10, 220
993, 1402.93737208, 0, 210
994, 1402.93737208, 0, 220
995, 1402.93737208, 10, 210
996, 1402.93737208, 10, 220
997, 1402.93737208, 37.5, 200
998, 1402.93737208, 37.5, 210
999, 1402.93737208, 37.5, 220
1000, 1402.93737208, 65, 200
1001, 1402.93737208, 65, 210
1002, 1402.93737208, 65, 220
1003, 1402.93737208, 92.5, 200
1004, 1402.93737208, 92.5, 210
1005, 1402.93737208, 92.5, 220
1006, 1402.93737208, 120, 200
1007, 1402.93737208, 120, 210
1008, 1402.93737208, 120, 220
1009, 1462.25463147, -10, 87.7352778883
1010, 1462.25463147, 0, 87.7352778883
1011, 1462.25463147, -10, 110.188222311
1012, 1462.25463147, 0, 110.188222311
1013, 1462.25463147, -10, 132.641166733
1014, 1462.25463147, 0, 132.641166733
1015, 1462.25463147, -10, 155.094111155
1016, 1462.25463147, 0, 155.094111155
1017, 1462.25463147, -10, 177.547055578
1018, 1462.25463147, 0, 177.547055578
1019, 1462.25463147, -10, 200
1020, 1462.25463147, 0, 200
1021, 1462.25463147, 10, 87.7352778883
1022, 1462.25463147, 10, 110.188222311
1023, 1462.25463147, 10, 132.641166733
1024, 1462.25463147, 10, 155.094111155
1025, 1462.25463147, 10, 177.547055578
1026, 1462.25463147, 10, 200
1027, 1462.25463147, -120, 200
1028, 1462.25463147, -92.5, 200
1029, 1462.25463147, -120, 210
1030, 1462.25463147, -92.5, 210
1031, 1462.25463147, -120, 220
1032, 1462.25463147, -92.5, 220
1033, 1462.25463147, -65, 200
1034, 1462.25463147, -65, 210
1035, 1462.25463147, -65, 220
1036, 1462.25463147, -37.5, 200
1037, 1462.25463147, -37.5, 210
1038, 1462.25463147, -37.5, 220
1039, 1462.25463147, -10, 210
1040, 1462.25463147, -10, 220
1041, 1462.25463147, 0, 210
1042, 1462.25463147, 0, 220
1043, 1462.25463147, 10, 210
1044, 1462.25463147, 10, 220
1045, 1462.25463147, 37.5, 200
1046, 1462.25463147, 37.5, 210
1047, 1462.25463147, 37.5, 220
1048, 1462.25463147, 65, 200
1049, 1462.25463147, 65, 210
1050, 1462.25463147, 65, 220
1051, 1462.25463147, 92.5, 200
1052, 1462.25463147, 92.5, 210
1053, 1462.25463147, 92.5, 220
1054, 1462.25463147, 120, 200
1055, 1462.25463147, 120, 210
1056, 1462.25463147, 120, 220
1057, 1520.72200553, -10, 91.2433203316
1058, 1520.72200553, 0, 91.2433203316
1059, 1520.72200553, -10, 112.994656265
1060, 1520.72200553, 0, 112.994656265
1061, 1520.72200553, -10, 134.745992199
1062, 1520.72200553, 0, 134.745992199
1063, 1520.72200553, -10, 156.497328133
1064, 1520.72200553, 0, 156.497328133
1065, 1520.72200553, -10, 178.248664066
1066, 1520.72200553, 0, 178.248664066
1067, 1520.72200553, -10, 200
1068, 1520.72200553, 0, 200
1069, 1520.72200553, 10, 91.2433203316
1070, 1520.72200553, 10, 112.994656265
1071, 1520.72200553, 10, 134.745992199
1072, 1520.72200553, 10, 156.497328133
1073, 1520.72200553, 10, 178.248664066
1074, 1520.72200553, 10, 200
1075, 1520.72200553, -120, 200
1076, 1520.72200553, -92.5, 200
1077, 1520.72200553, -120, 210
1078, 1520.72200553, -92.5, 210
1079, 1520.72200553, -120, 220
1080, 1520.72200553, -92.5, 220
1081, 1520.72200553, -65, 200
1082, 1520.72200553, -65, 210
1083, 1520.72200553, -65, 220
1084, 1520.72200553, -37.5, 200
1085, 1520.72200553, -37.5, 210
1086, 1520.72200553, -37.5, 220
1087, 1520.72200553, -10, 210
1088, 1520.72200553, -10, 220
1089, 1520.72200553, 0, 210
1090, 1520.72200553, 0, 220
1091, 1520.72200553, 10, 210
1092, 1520.72200553, 10, 220
1093, 1520.72200553, 37.5, 200
1094, 1520.72200553, 37.5, 210
1095, 1520.72200553, 37.5, 220
1096, 1520.72200553, 65, 200
1097, 1520.72200553, 65, 210
1098, 1520.72200553, 65, 220
1099, 1520.72200553, 92.5, 200
1100, 1520.72200553, 92.5, 210
1101, 1520.72200553, 92.5, 220
1102, 1520.72200553, 120, 200
1103, 1520.72200553, 120, 210
1104, 1520.72200553, 120, 220
1105, 1578.36358857, -10, 94.7018153141
1106, 1578.36358857, 0, 94.7018153141
1107, 1578.36358857, -10, 115.761452251
1108, 1578.36358857, 0, 115.761452251
1109, 1578.36358857, -10, 136.821089188
1110, 1578.36358857, 0, 136.821089188
1111, 1578.36358857, -10, 157.880726126
1112, 1578.36358857, 0, 157.880726126
1113, 1578.36358857, -10, 178.940363063
1114, 1578.36358857, 0, 178.940363063
1115, 1578.36358857, -10, 200
1116, 1578.36358857, 0, 200
1117, 1578.36358857, 10, 94.7018153141
1118, 1578.36358857, 10, 115.761452251
1119, 1578.36358857, 10, 136.821089188
1120, 1578.36358857, 10, 157.880726126
1121, 1578.36358857, 10, 178.940363063
1122, 1578.36358857, 10, 200
1123, 1578.36358857, -120, 200
1124, 1578.36358857, -92.5, 200
1125, 1578.36358857, -120, 210
1126, 1578.36358857, -92.5, 210
1127, 1578.36358857, -120, 220
1128, 1578.36358857, -92.5, 220
1129, 1578.36358857, -65, 200
1130, 1578.36358857, -65, 210
1131, 1578.36358857, -65, 220
1132, 1578.36358857, -37.5, 200
1133, 1578.36358857, -37.5, 210
1134, 1578.36358857, -37.5, 220
1135, 1578.36358857, -10, 210
1136, 1578.36358857, -10, 220
1137, 1578.36358857, 0, 210
1138, 1578.36358857, 0, 220
1139, 1578.36358857, 10, 210
1140, 1578.36358857, 10, 220
1141, 1578.36358857, 37.5, 200
1142, 1578.36358857, 37.5, 210
1143, 1578.36358857, 37.5, 220
1144, 1578.36358857, 65, 200
1145, 1578.36358857, 65, 210
1146, 1578.36358857, 65, 220
1147, 1578.36358857, 92.5, 200
1148, 1578.36358857, 92.5, 210
1149, 1578.36358857, 92.5, 220
1150, 1578.36358857, 120, 200
1151, 1578.36358857, 120, 210
1152, 1578.36358857, 120, 220
1153, 1635.2024623, -10, 98.1121477382
1154, 1635.2024623, 0, 98.1121477382
1155, 1635.2024623, -10, 118.489718191
1156, 1635.2024623, 0, 118.489718191
1157, 1635.2024623, -10, 138.867288643
1158, 1635.2024623, 0, 138.867288643
1159, 1635.2024623, -10, 159.244859095
1160, 1635.2024623, 0, 159.244859095
1161, 1635.2024623, -10, 179.622429548
1162, 1635.2024623, 0, 179.622429548
1163, 1635.2024623, -10, 200
1164, 1635.2024623, 0, 200
1165, 1635.2024623, 10, 98.1121477382
1166, 1635.2024623, 10, 118.489718191
1167, 1635.2024623, 10, 138.867288643
1168, 1635.2024623, 10, 159.244859095
1169, 1635.2024623, 10, 179.622429548
1170, 1635.2024623, 10, 200
1171, 1635.2024623, -120, 200
1172, 1635.2024623, -92.5, 200
1173, 1635.2024623, -120, 210
1174, 1635.2024623, -92.5, 210
1175, 1635.2024623, -120, 220
1176, 1635.2024623, -92.5, 220
1177, 1635.2024623, -65, 200
1178, 1635.2024623, -65, 210
1179, 1635.2024623, -65, 220
1180, 1635.2024623, -37.5, 200
1181, 1635.2024623, -37.5, 210
1182, 1635.2024623, -37.5, 220
1183, 1635.2024623, -10, 210
1184, 1635.2024623, -10, 220
1185, 1635.2024623, 0, 210
1186, 1635.2024623, 0, 220
1187, 1635.2024623, 10, 210
1188, 1635.2024623, 10, 220
1189, 1635.2024623, 37.5, 200
1190, 1635.2024623, 37.5, 210
1191, 1635.2024623, 37.5, 220
1192, 1635.2024623, 65, 200
1193, 1635.2024623, 65, 210
1194, 1635.2024623, 65, 220
1195, 1635.2024623, 92.5, 200
1196, 1635.2024623, 92.5, 210
1197, 1635.2024623, 92.5, 220
1198, 1635.2024623, 120, 200
1199, 1635.2024623, 120, 210
1200, 1635.2024623, 120, 220
1201, 1691.26075188, -10, 101.475645113
1202, 1691.26075188, 0, 101.475645113
1203, 1691.26075188, -10, 121.18051609
1204, 1691.26075188, 0, 121.18051609
1205, 1691.26075188, -10, 140.885387068
1206, 1691.26075188, 0, 140.885387068
1207, 1691.26075188, -10, 160.590258045
1208, 1691.26075188, 0, 160.590258045
1209, 1691.26075188, -10, 180.295129023
1210, 1691.26075188, 0, 180.295129023
1211, 1691.26075188, -10, 200
1212, 1691.26075188, 0, 200
1213, 1691.26075188, 10, 101.475645113
1214, 1691.26075188, 10, 121.18051609
1215, 1691.26075188, 10, 140.885387068
1216, 1691.26075188, 10, 160.590258045
1217, 1691.26075188, 10, 180.295129023
1218, 1691.26075188, 10, 200
1219, 1691.26075188, -120, 200
1220, 1691.26075188, -92.5, 200
1221, 1691.26075188, -120, 210
1222, 1691.26075188, -92.5, 210
1223, 1691.26075188, -120, 220
1224, 1691.26075188, -92.5, 220
1225, 1691.26075188, -65, 200
1226, 1691.26075188, -65, 210
1227, 1691.26075188, -65, 220
1228, 1691.26075188, -37.5, 200
1229, 1691.26075188, -37.5, 210
1230, 1691.26075188, -37.5, 220
1231, 1691.26075188, -10, 210
1232, 1691.26075188, -10, 220
1233, 1691.26075188, 0, 210
1234, 1691.26075188, 0, 220
1235, 1691.26075188, 10, 210
1236, 1691.26075188, 10, 220
1237, 1691.26075188, 37.5, 200
1238, 1691.26075188, 37.5, 210
1239, 1691.26075188, 37.5, 220
1240, 1691.26075188, 65, 200
1241, 1691.26075188, 65, 210
1242, 1691.26075188, 65, 220
1243, 1691.26075188, 92.5, 200
1244, 1691.26075188, 92.5, 210
1245, 1691.26075188, 92.5, 220
1246, 1691.26075188, 120, 200
1247, 1691.26075188, 120, 210
1248, 1691.26075188, 120, 220
1249, 1746.55967809, -10, 104.793580685
1250, 1746.55967809, 0, 104.793580685
1251, 1746.55967809, -10, 123.834864548
1252, 1746.55967809, 0, 123.834864548
1253, 1746.55967809, -10, 142.876148411
1254, 1746.55967809, 0, 142.876148411
1255, 1746.55967809, -10, 161.917432274
1256, 1746.55967809, 0, 161.917432274
1257, 1746.55967809, -10, 180.958716137
1258, 1746.55967809, 0, 180.958716137
1259, 1746.55967809, -10, 200
1260, 1746.55967809, 0, 200
1261, 1746.55967809, 10, 104.793580685
1262, 1746.55967809, 10, 123.834864548
1263, 1746.55967809, 10, 142.876148411
1264, 1746.55967809, 10, 161.917432274
1265, 1746.55967809, 10, 180.958716137
1266, 1746.55967809, 10, 200
1267, 1746.55967809, -120, 200
1268, 1746.55967809, -92.5, 200
1269, 1746.55967809, -120, 210
1270, 1746.55967809, -92.5, 210
1271, 1746.55967809, -120, 220
1272, 1746.55967809, -92.5, 220
1273, 1746.55967809, -65, 200
1274, 1746.55967809, -65, 210
1275, 1746.55967809, -65, 220
1276, 1746.55967809, -37.5, 200
1277, 1746.55967809, -37.5, 210
1278, 1746.55967809, -37.5, 220
1279, 1746.55967809, -10, 210
1280, 1746.55967809, -10, 220
1281, 1746.55967809, 0, 210
1282, 1746.55967809, 0, 220
1283, 1746.55967809, 10, 210
1284, 1746.55967809, 10, 220
1285, 1746.55967809, 37.5, 200
1286, 1746.55967809, 37.5, 210
1287, 1746.55967809, 37.5, 220
1288, 1746.55967809, 65, 200
1289, 1746.55967809, 65, 210
1290, 1746.55967809, 65, 220
1291, 1746.55967809, 92.5, 200
1292, 1746.55967809, 92.5, 210
1293, 1746.55967809, 92.5, 220
1294, 1746.55967809, 120, 200
1295, 1746.55967809, 120, 210
1296, 1746.55967809, 120, 220
1297, 1801.11960611, -10, 108.067176367
1298, 1801.11960611, 0, 108.067176367
1299, 1801.11960611, -10, 126.453741093
1300, 1801.11960611, 0, 126.453741093
1301, 1801.11960611, -10, 144.84030582
1302, 1801.11960611, 0, 144.84030582
1303, 1801.11960611, -10, 163.226870547
1304, 1801.11960611, 0, 163.226870547
1305, 1801.11960611, -10, 181.613435273
1306, 1801.11960611, 0, 181.613435273
1307, 1801.11960611, -10, 200
1308, 1801.11960611, 0, 200
1309, 1801.11960611, 10, 108.067176367
1310, 1801.11960611, 10, 126.453741093
1311, 1801.11960611, 10, 144.84030582
1312, 1801.11960611, 10, 163.226870547
1313, 1801.11960611, 10, 181.613435273
1314, 1801.11960611, 10, 200
1315, 1801.11960611, -120, 200
1316, 1801.11960611, -92.5, 200
1317, 1801.11960611, -120, 210
1318, 1801.11960611, -92.5, 210
1319, 1801.11960611, -120, 220
1320, 1801.11960611, -92.5, 220
1321, 1801.11960611, -65, 200
1322, 1801.11960611, -65, 210
1323, 1801.11960611, -65, 220
1324, 1801.11960611, -37.5, 200
1325, 1801.11960611, -37.5, 210
1326, 1801.11960611, -37.5, 220
1327, 1801.11960611, -10, 210
1328, 1801.11960611, -10, 220
1329, 1801.11960611, 0, 210
1330, 1801.11960611, 0, 220
1331, 1801.11960611, 10, 210
1332, 1801.11960611, 10, 220
1333, 1801.11960611, 37.5, 200
1334, 1801.11960611, 37.5, 210
1335, 1801.11960611, 37.5, 220
1336, 1801.11960611, 65, 200
1337, 1801.11960611, 65, 210
1338, 1801.11960611, 65, 220
1339, 1801.11960611, 92.5, 200
1340, 1801.11960611, 92.5, 210
1341, 1801.11960611, 92.5, 220
1342, 1801.11960611, 120, 200
1343, 1801.11960611, 120, 210
1344, 1801.11960611, 120, 220
1345, 1854.96009094, -10, 111.297605456
1346, 1854.96009094, 0, 111.297605456
1347, 1854.96009094, -10, 129.038084365
1348, 1854.96009094, 0, 129.038084365
1349, 1854.96009094, -10, 146.778563274
1350, 1854.96009094, 0, 146.778563274
1351, 1854.96009094, -10, 164.519042182
1352, 1854.96009094, 0, 164.519042182
1353, 1854.96009094, -10, 182.259521091
1354, 1854.96009094, 0, 182.259521091
1355, 1854.96009094, -10, 200
1356, 1854.96009094, 0, 200
1357, 1854.96009094, 10, 111.297605456
1358, 1854.96009094, 10, 129.038084365
1359, 1854.96009094, 10, 146.778563274
1360, 1854.96009094, 10, 164.519042182
1361, 1854.96009094, 10, 182.259521091
1362, 1854.96009094, 10, 200
1363, 1854.96009094, -120, 200
1364, 1854.96009094, -92.5, 200
1365, 1854.96009094, -120, 210
1366, 1854.96009094, -92.5, 210
1367, 1854.96009094, -120, 220
1368, 1854.96009094, -92.5, 220
1369, 1854.96009094, -65, 200
1370, 1854.96009094, -65, 210
1371, 1854.96009094, -65, 220
1372, 1854.96009094, -37.5, 200
1373, 1854.96009094, -37.5, 210
1374, 1854.96009094, -37.5, 220
1375, 1854.96009094, -10, 210
1376, 1854.96009094, -10, 220
1377, 1854.96009094, 0, 210
1378, 1854.96009094, 0, 220
1379, 1854.96009094, 10, 210
1380, 1854.96009094, 10, 220
1381, 1854.96009094, 37.5, 200
1382, 1854.96009094, 37.5, 210
1383, 1854.96009094, 37.5, 220
1384, 1854.96009094, 65, 200
1385, 1854.96009094, 65, 210
1386, 1854.96009094, 65, 220
1387, 1854.96009094, 92.5, 200
1388, 1854.96009094, 92.5, 210
1389, 1854.96009094, 92.5, 220
1390, 1854.96009094, 120, 200
1391, 1854.96009094, 120, 210
1392, 1854.96009094, 120, 220
1393, 1908.09991986, -10, 114.485995192
1394, 1908.09991986, 0, 114.485995192
1395, 1908.09991986, -10, 131.588796153
1396, 1908.09991986, 0, 131.588796153
1397, 1908.09991986, -10, 148.691597115
1398, 1908.09991986, 0, 148.691597115
1399, 1908.09991986, -10, 165.794398077
1400, 1908.09991986, 0, 165.794398077
1401, 1908.09991986, -10, 182.897199038
1402, 1908.09991986, 0, 182.897199038
1403, 1908.09991986, -10, 200
1404, 1908.09991986, 0, 200
1405, 1908.09991986, 10, 114.485995192
1406, 1908.09991986, 10, 131.588796153
1407, 1908.09991986, 10, 148.691597115
1408, 1908.09991986, 10, 165.794398077
1409, 1908.09991986, 10, 182.897199038
1410, 1908.09991986, 10, 200
1411, 1908.09991986, -120, 200
1412, 1908.09991986, -92.5, 200
1413, 1908.09991986, -120, 210
1414, 1908.09991986, -92.5, 210
1415, 1908.09991986, -120, 220
1416, 1908.09991986, -92.5, 220
1417, 1908.09991986, -65, 200
1418, 1908.09991986, -65, 210
1419, 1908.09991986, -65, 220
1420, 1908.09991986, -37.5, 200
1421, 1908.09991986, -37.5, 210
1422, 1908.09991986, -37.5, 220
1423, 1908.09991986, -10, 210
1424, 1908.09991986, -10, 220
1425, 1908.09991986, 0, 210
1426, 1908.09991986, 0, 220
1427, 1908.09991986, 10, 210
1428, 1908.09991986, 10, 220
1429, 1908.09991986, 37.5, 200
1430, 1908.09991986, 37.5, 210
1431, 1908.09991986, 37.5, 220
1432, 1908.09991986, 65, 200
1433, 1908.09991986, 65, 210
1434, 1908.09991986, 65, 220
1435, 1908.09991986, 92.5, 200
1436, 1908.09991986, 92.5, 210
1437, 1908.09991986, 92.5, 220
1438, 1908.09991986, 120, 200
1439, 1908.09991986, 120, 210
1440, 1908.09991986, 120, 220
1441, 1951.20238134, -10, 117.072142881
1442, 1951.20238134, 0, 117.072142881
1443, 1951.20238134, -10, 133.657714305
1444, 1951.20238134, 0, 133.657714305
1445, 1951.20238134, -10, 150.243285728
1446, 1951.20238134, 0, 150.243285728
1447, 1951.20238134, -10, 166.828857152
1448, 1951.20238134, 0, 166.828857152
1449, 1951.20238134, -10, 183.414428576
1450, 1951.20238134, 0, 183.414428576
1451, 1951.20238134, -10, 200
1452, 1951.20238134, 0, 200
1453, 1951.20238134, 10, 117.072142881
1454, 1951.20238134, 10, 133.657714305
1455, 1951.20238134, 10, 150.243285728
1456, 1951.20238134, 10, 166.828857152
1457, 1951.20238134, 10, 183.414428576
1458, 1951.20238134, 10, 200
1459, 1951.20238134, -120, 200
1460, 1951.20238134, -92.5, 200
1461, 1951.20238134, -120, 210
1462, 1951.20238134, -92.5, 210
1463, 1951.20238134, -120, 220
1464, 1951.20238134, -92.5, 220
1465, 1951.20238134, -65, 200
1466, 1951.20238134, -65, 210
1467, 1951.20238134, -65, 220
1468, 1951.20238134, -37.5, 200
1469, 1951.20238134, -37.5, 210
1470, 1951.20238134, -37.5, 220
1471, 1951.20238134, -10, 210
1472, 1951.20238134, -10, 220
1473, 1951.20238134, 0, 210
1474, 1951.20238134, 0, 220
1475, 1951.20238134, 10, 210
1476, 1951.20238134, 10, 220
1477, 1951.20238134, 37.5, 200
1478, 1951.20238134, 37.5, 210
1479, 1951.20238134, 37.5, 220
1480, 1951.20238134, 65, 200
1481, 1951.20238134, 65, 210
1482, 1951.20238134, 65, 220
1483, 1951.20238134, 92.5, 200
1484, 1951.20238134, 92.5, 210
1485, 1951.20238134, 92.5, 220
1486, 1951.20238134, 120, 200
1487, 1951.20238134, 120, 210
1488, 1951.20238134, 120, 220
1489, 1982.7597752, -10, 118.965586512
1490, 1982.7597752, 0, 118.965586512
1491, 1982.7597752, -10, 135.17246921
1492, 1982.7597752, 0, 135.17246921
1493, 1982.7597752, -10, 151.379351907
1494, 1982.7597752, 0, 151.379351907
1495, 1982.7597752, -10, 167.586234605
1496, 1982.7597752, 0, 167.586234605
1497, 1982.7597752, -10, 183.793117302
1498, 1982.7597752, 0, 183.793117302
1499, 1982.7597752, -10, 200
1500, 1982.7597752, 0, 200
1501, 1982.7597752, 10, 118.965586512
1502, 1982.7597752, 10, 135.17246921
1503, 1982.7597752, 10, 151.379351907
1504, 1982.7597752, 10, 167.586234605
1505, 1982.7597752, 10, 183.793117302
1506, 1982.7597752, 10, 200
1507, 1982.7597752, -120, 200
1508, 1982.7597752, -92.5, 200
1509, 1982.7597752, -120, 210
1510, 1982.7597752, -92.5, 210
1511, 1982.7597752, -120, 220
1512, 1982.7597752, -92.5, 220
1513, 1982.7597752, -65, 200
1514, 1982.7597752, -65, 210
1515, 1982.7597752, -65, 220
1516, 1982.7597752, -37.5, 200
1517, 1982.7597752, -37.5, 210
1518, 1982.7597752, -37.5, 220
1519, 1982.7597752, -10, 210
1520, 1982.7597752, -10, 220
1521, 1982.7597752, 0, 210
1522, 1982.7597752, 0, 220
1523, 1982.7597752, 10, 210
1524, 1982.7597752, 10, 220
1525, 1982.7597752, 37.5, 200
1526, 1982.7597752, 37.5, 210
1527, 1982.7597752, 37.5, 220
1528, 1982.7597752, 65, 200
1529, 1982.7597752, 65, 210
1530, 1982.7597752, 65, 220
1531, 1982.7597752, 92.5, 200
1532, 1982.7597752, 92.5, 210
1533, 1982.7597752, 92.5, 220
1534, 1982.7597752, 120, 200
1535, 1982.7597752, 120, 210
1536, 1982.7597752, 120, 220
1537, 2000, -10, 120
1538, 2000, 0, 120
1539, 2000, -10, 136
1540, 2000, 0, 136
1541, 2000, -10, 152
1542, 2000, 0, 152
1543, 2000, -10, 168
1544, 2000, 0, 168
1545, 2000, -10, 184
1546, 2000, 0, 184
1547, 2000, -10, 200
1548, 2000, 0, 200
1549, 2000, 10, 120
1550, 2000, 10, 136
1551, 2000, 10, 152
1552, 2000, 10, 168
1553, 2000, 10, 184
1554, 2000, 10, 200
1555, 2000, -120, 200
1556, 2000, -92.5, 200
1557, 2000, -120, 210
1558, 2000, -92.5, 210
1559, 2000, -120, 220
1560, 2000, -92.5, 220
1561, 2000, -65, 200
1562, 2000, -65, 210
1563, 2000, -65, 220
1564, 2000, -37.5, 200
1565, 2000, -37.5, 210
1566, 2000, -37.5, 220
1567, 2000, -10, 210
1568, 2000, -10, 220
1569, 2000, 0, 210
1570, 2000, 0, 220
1571, 2000, 10, 210
1572, 2000, 10, 220
1573, 2000, 37.5, 200
1574, 2000, 37.5, 210
1575, 2000, 37.5, 220
1576, 2000, 65, 200
1577, 2000, 65, 210
1578, 2000, 65, 220
1579, 2000, 92.5, 200
1580, 2000, 92.5, 210
1581, 2000, 92.5, 220
1582, 2000, 120, 200
1583, 2000, 120, 210
1584, 2000, 120, 220
*ELEMENT, TYPE=C3D8, ELSET=EALL
1, 1, 2, 3, 4, 5, 6, 7, 8
2, 5, 6, 7, 8, 9, 10, 11, 12
3, 9, 10, 11, 12, 13, 14, 15, 16
4, 13, 14, 15, 16, 17, 18, 19, 20
5, 17, 18, 19, 20, 21, 22, 23, 24
6, 4, 3, 25, 26, 8, 7, 27, 28
7, 8, 7, 27, 28, 12, 11, 29, 30
8, 12, 11, 29, 30, 16, 15, 31, 32
9, 16, 15, 31, 32, 20, 19, 33, 34
10, 20, 19, 33, 34, 24, 23, 35, 36
11, 37, 38, 39, 40, 41, 42, 43, 44
12, 41, 42, 43, 44, 45, 46, 47, 48
13, 40, 39, 49, 50, 44, 43, 51, 52
14, 44, 43, 51, 52, 48, 47, 53, 54
15, 50, 49, 55, 56, 52, 51, 57, 58
16, 52, 51, 57, 58, 54, 53, 59, 60
17, 56, 55, 22, 21, 58, 57, 61, 62
18, 58, 57, 61, 62, 60, 59, 63, 64
19, 21, 22, 23, 24, 62, 61, 65, 66
20, 62, 61, 65, 66, 64, 63, 67, 68
21, 24, 23, 35, 36, 66, 65, 69, 70
22, 66, 65, 69, 70, 68, 67, 71, 72
23, 36, 35, 73, 74, 70, 69, 75, 76
24, 70, 69, 75, 76, 72, 71, 77, 78
25, 74, 73, 79, 80, 76, 75, 81, 82
26, 76, 75, 81, 82, 78, 77, 83, 84
27, 80, 79, 85, 86, 82, 81, 87, 88
28, 82, 81, 87, 88, 84, 83, 89, 90
29, 86, 85, 91, 92, 88, 87, 93, 94
30, 88, 87, 93, 94, 90, 89, 95, 96
31, 2, 97, 98, 3, 6, 99, 100, 7
32, 6, 99, 100, 7, 10, 101, 102, 11
33, 10, 101, 102, 11, 14, 103, 104, 15
34, 14, 103, 104, 15, 18, 105, 106, 19
35, 18, 105, 106, 19, 22, 107, 108, 23
36, 3, 98, 109, 25, 7, 100, 110, 27
37, 7, 100, 110, 27, 11, 102, 111, 29
38, 11, 102, 111, 29, 15, 104, 112, 31
39, 15, 104, 112, 31, 19, 106, 113, 33
40, 19, 106, 113, 33, 23, 108, 114, 35
41, 38, 115, 116, 39, 42, 117, 118, 43
42, 42, 117, 118, 43, 46, 119, 120, 47
43, 39, 116, 121, 49, 43, 118, 122, 51
44, 43, 118, 122, 51, 47, 120, 123, 53
45, 49, 121, 124, 55, 51, 122, 125, 57
46, 51, 122, 125, 57, 53, 123, 126, 59
47, 55, 124, 107, 22, 57, 125, 127, 61
48, 57, 125, 127, 61, 59, 126, 128, 63
49, 22, 107, 108, 23, 61, 127, 129, 65
50, 61, 127, 129, 65, 63, 128, 130, 67
51, 23, 108, 114, 35, 65, 129, 131, 69
52, 65, 129, 131, 69, 67, 130, 132, 71
53, 35, 114, 133, 73, 69, 131, 134, 75
54, 69, 131, 134, 75, 71, 132, 135, 77
55, 73, 133, 136, 79, 75, 134, 137, 81
56, 75, 134, 137, 81, 77, 135, 138, 83
57, 79, 136, 139, 85, 81, 137, 140, 87
58, 81, 137, 140, 87, 83, 138, 141, 89
59, 85, 139, 142, 91, 87, 140, 143, 93
60, 87, 140, 143, 93, 89, 141, 144, 95
61, 97, 145, 146, 98, 99, 147, 148, 100
62, 99, 147, 148, 100, 101, 149, 150, 102
63, 101, 149, 150, 102, 103, 151, 152, 104
64, 103, 151, 152, 104, 105, 153, 154, 106
65, 105, 153, 154, 106, 107, 155, 156, 108
66, 98, 146, 157, 109, 100, 148, 158, 110
67, 100, 148, 158, 110, 102, 150, 159, 111
68, 102, 150, 159, 111, 104, 152, 160, 112
69, 104, 152, 160, 112, 106, 154, 161, 113
70, 106, 154, 161, 113, 108, 156, 162, 114
71, 115, 163, 164, 116, 117, 165, 166, 118
72, 117, 165, 166, 118, 119, 167, 168, 120
73, 116, 164, 169, 121, 118, 166, 170, 122
74, 118, 166, 170, 122, 120, 168, 171, 123
75, 121, 169, 172, 124, 122, 170, 173, 125
76, 122, 170, 173, 125, 123, 171, 174, 126
77, 124, 172, 155, 107, 125, 173, 175, 127
78, 125, 173, 175, 127, 126, 174, 176, 128
79, 107, 155, 156, 108, 127, 175, 177, 129
80, 127, 175, 177, 129, 128, 176, 178, 130
81, 108, 156, 162, 114, 129, 177, 179, 131
82, 129, 177, 179, 131, 130, 178, 180, 132
83, 114, 162, 181, 133, 131, 179, 182, 134
84, 131, 179, 182, 134, 132, 180, 183, 135
85, 133, 181, 184, 136, 134, 182, 185, 137
86, 134, 182, 185, 137, 135, 183, 186, 138
87, 136, 184, 187, 139, 137, 185, 188, 140
88, 137, 185, 188, 140, 138, 186, 189, 141
89, 139, 187, 190, 142, 140, 188, 191, 143
90, 140, 188, 191, 143, 141, 189, 192, 144
91, 145, 193, 194, 146, 147, 195, 196, 148
92, 147, 195, 196, 148, 149, 197, 198, 150
93, 149, 197, 198, 150, 151, 199, 200, 152
94, 151, 199, 200, 152, 153, 201, 202, 154
95, 153, 201, 202, 154, 155, 203, 204, 156
96, 146, 194, 205, 157, 148, 196, 206, 158
97, 148, 196, 206, 158, 150, 198, 207, 159
98, 150, 198, 207, 159, 152, 200, 208, 160
99, 152, 200, 208, 160, 154, 202, 209, 161
100, 154, 202, 209, 161, 156, 204, 210, 162
101, 163, 211, 212, 164, 165, 213, 214, 166
102, 165, 213, 214, 166, 167, 215, 216, 168
103, 164, 212, 217, 169, 166, 214, 218, 170
104, 166, 214, 218, 170, 168, 216, 219, 171
105, 169, 217, 220, 172, 170, 218, 221, 173
106, 170, 218, 221, 173, 171, 219, 222, 174
107, 172, 220, 203, 155, 173, 221, 223, 175
108, 173, 221, 223, 175, 174, 222, 224, 176
109, 155, 203, 204, 156, 175, 223, 225, 177
110, 175, 223, 225, 177, 176, 224, 226, 178
111, 156, 204, 210, 162, 177, 225, 227, 179
112, 177, 225, 227, 179, 178, 226, 228, 180
113, 162, 210, 229, 181, 179, 227, 230, 182
114, 179, 227, 230, 182, 180, 228, 231, 183
115, 181, 229, 232, 184, 182, 230, 233, 185
116, 182, 230, 233, 185, 183, 231, 234, 186
117, 184, 232, 235, 187, 185, 233, 236, 188
118, 185, 233, 236, 188, 186, 234, 237, 189
119, 187, 235, 238, 190, 188, 236, 239, 191
120, 188, 236, 239, 191, 189, 237, 240, 192
121, 193, 241, 242, 194, 195, 243, 244, 196
122, 195, 243, 244, 196, 197, 245, 246, 198
123, 197, 245, 246, 198, 199, 247, 248, 200
124, 199, 247, 248, 200, 201, 249, 250, 202
125, 201, 249, 250, 202, 203, 251, 252, 204
126, 194, 242, 253, 205, 196, 244, 254, 206
127, 196, 244, 254, 206, 198, 246, 255, 207
128, 198, 246, 255, 207, 200, 248, 256, 208
129, 200, 248, 256, 208, 202, 250, 257, 209
130, 202, 250, 257, 209, 204, 252, 258, 210
131, 211, 259, 260, 212, 213, 261, 262, 214
132, 213, 261, 262, 214, 215, 263, 264, 216
133, 212, 260, 265, 217, 214, 262, 266, 218
134, 214, 262, 266, 218, 216, 264, 267, 219
135, 217, 265, 268, 220, 218, 266, 269, 221
136, 218, 266, 269, 221, 219, 267, 270, 222
137, 220, 268, 251, 203, 221, 269, 271, 223
138, 221, 269, 271, 223, 222, 270, 272, 224
139, 203, 251, 252, 204, 223, 271, 273, 225
140, 223, 271, 273, 225, 224, 272, 274, 226
141, 204, 252, 258, 210, 225, 273, 275, 227
142, 225, 273, 275, 227, 226, 274, 276, 228
143, 210, 258, 277, 229, 227, 275, 278, 230
144, 227, 275, 278, 230, 228, 276, 279, 231
145, 229, 277, 280, 232, 230, 278, 281, 233
146, 230, 278, 281, 233, 231, 279, 282, 234
147, 232, 280, 283, 235, 233, 281, 284, 236
148, 233, 281, 284, 236, 234, 282, 285, 237
149, 235, 283, 286, 238, 236, 284, 287, 239
150, 236, 284, 287, 239, 237, 285, 288, 240
151, 241, 289, 290, 242, 243, 291, 292, 244
152, 243, 291, 292, 244, 245, 293, 294, 246
153, 245, 293, 294, 246, 247, 295, 296, 248
154, 247, 295, 296, 248, 249, 297, 298, 250
155, 249, 297, 298, 250, 251, 299, 300, 252
156, 242, 290, 301, 253, 244, 292, 302, 254
157, 244, 292, 302, 254, 246, 294, 303, 255
158, 246, 294, 303, 255, 248, 296, 304, 256
159, 248, 296, 304, 256, 250, 298, 305, 257
160, 250, 298, 305, 257, 252, 300, 306, 258
161, 259, 307, 308, 260, 261, 309, 310, 262
162, 261, 309, 310, 262, 263, 311, 312, 264
163, 260, 308, 313, 265, 262, 310, 314, 266
164, 262, 310, 314, 266, 264, 312, 315, 267
165, 265, 313, 316, 268, 266, 314, 317, 269
166, 266, 314, 317, 269, 267, 315, 318, 270
167, 268, 316, 299, 251, 269, 317, 319, 271
168, 269, 317, 319, 271, 270, 318, 320, 272
169, 251, 299, 300, 252, 271, 319, 321, 273
170, 271, 319, 321, 273, 272, 320, 322, 274
171, 252, 300, 306, 258, 273, 321, 323, 275
172, 273, 321, 323, 275, 274, 322, 324, 276
173, 258, 306, 325, 277, 275, 323, 326, 278
174, 275, 323, 326, 278, 276, 324, 327, 279
175, 277, 325, 328, 280, 278, 326, 329, 281
176, 278, 326, 329, 281, 279, 327, 330, 282
177, 280, 328, 331, 283, 281, 329, 332, 284
178, 281, 329, 332, 284, 282, 330, 333, 285
179, 283, 331, 334, 286, 284, 332, 335, 287
180, 284, 332, 335, 287, 285, 333, 336, 288
181, 289, 337, 338, 290, 291, 339, 340, 292
182, 291, 339, 340, 292, 293, 341, 342, 294
183, 293, 341, 342, 294, 295, 343, 344, 296
184, 295, 343, 344, 296, 297, 345, 346, 298
185, 297, 345, 346, 298, 299, 347, 348, 300
186, 290, 338, 349, 301, 292, 340, 350, 302
187, 292, 340, 350, 302, 294, 342, 351, 303
188, 294, 342, 351, 303, 296, 344, 352, 304
189, 296, 344, 352, 304, 298, 346, 353, 305
190, 298, 346, 353, 305, 300, 348, 354, 306
191, 307, 355, 356, 308, 309, 357, 358, 310
192, 309, 357, 358, 310, 311, 359, 360, 312
193, 308, 356, 361, 313, 310, 358, 362, 314
194, 310, 358, 362, 314, 312, 360, 363, 315
195, 313, 361, 364, 316, 314, 362, 365, 317
196, 314, 362, 365, 317, 315, 363, 366, 318
197, 316, 364, 347, 299, 317, 365, 367, 319
198, 317, 365, 367, 319, 318, 366, 368, 320
199, 299, 347, 348, 300, 319, 367, 369, 321
200, 319, 367, 369, 321, 320, 368, 370, 322
201, 300, 348, 354, 306, 321, 369, 371, 323
202, 321, 369, 371, 323, 322, 370, 372, 324
203, 306, 354, 373, 325, 323, 371, 374, 326
204, 323, 371, 374, 326, 324, 372, 375, 327
205, 325, 373, 376, 328, 326, 374, 377, 329
206, 326, 374, 377, 329, 327, 375, 378, 330
207, 328, 376, 379, 331, 329, 377, 380, 332
208, 329, 377, 380, 332, 330, 378, 381, 333
209, 331, 379, 382, 334, 332, 380, 383, 335
210, 332, 380, 383, 335, 333, 381, 384, 336
211, 337, 385, 386, 338, 339, 387, 388, 340
212, 339, 387, 388, 340, 341, 389, 390, 342
213, 341, 389, 390, 342, 343, 391, 392, 344
214, 343, 391, 392, 344, 345, 393, 394, 346
215, 345, 393, 394, 346, 347, 395, 396, 348
216, 338, 386, 397, 349, 340, 388, 398, 350
217, 340, 388, 398, 350, 342, 390, 399, 351
218, 342, 390, 399, 351, 344, 392, 400, 352
219, 344, 392, 400, 352, 346, 394, 401, 353
220, 346, 394, 401, 353, 348, 396, 402, 354
221, 355, 403, 404, 356, 357, 405, 406, 358
222, 357, 405, 406, 358, 359, 407, 408, 360
223, 356, 404, 409, 361, 358, 406, 410, 362
224, 358, 406, 410, 362, 360, 408, 411, 363
225, 361, 409, 412, 364, 362, 410, 413, 365
226, 362, 410, 413, 365, 363, 411, 414, 366
227, 364, 412, 395, 347, 365, 413, 415, 367
228, 365, 413, 415, 367, 366, 414, 416, 368
229, 347, 395, 396, 348, 367, 415, 417, 369
230, 367, 415, 417, 369, 368, 416, 418, 370
231, 348, 396, 402, 354, 369, 417, 419, 371
232, 369, 417, 419, 371, 370, 418, 420, 372
233, 354, 402, 421, 373, 371, 419, 422, 374
234, 371, 419, 422, 374, 372, 420, 423, 375
235, 373, 421, 424, 376, 374, 422, 425, 377
236, 374, 422, 425, 377, 375, 423, 426, 378
237, 376, 424, 427, 379, 377, 425, 428, 380
238, 377, 425, 428, 380, 378, 426, 429, 381
239, 379, 427, 430, 382, 380, 428, 431, 383
240, 380, 428, 431, 383, 381, 429, 432, 384
241, 385, 433, 434, 386, 387, 435, 436, 388
242, 387, 435, 436, 388, 389, 437, 438, 390
243, 389, 437, 438, 390, 391, 439, 440, 392
244, 391, 439, 440, 392, 393, 441, 442, 394
245, 393, 441, 442, 394, 395, 443, 444, 396
246, 386, 434, 445, 397, 388, 436, 446, 398
247, 388, 436, 446, 398, 390, 438, 447, 399
248, 390, 438, 447, 399, 392, 440, 448, 400
249, 392, 440, 448, 400, 394, 442, 449, 401
250, 394, 442, 449, 401, 396, 444, 450, 402
251, 403, 451, 452, 404, 405, 453, 454, 406
252, 405, 453, 454, 406, 407, 455, 456, 408
253, 404, 452, 457, 409, 406, 454, 458, 410
254, 406, 454, 458, 410, 408, 456, 459, 411
255, 409, 457, 460, 412, 410, 458, 461, 413
256, 410, 458, 461, 413, 411, 459, 462, 414
257, 412, 460, 443, 395, 413, 461, 463, 415
258, 413, 461, 463, 415, 414, 462, 464, 416
259, 395, 443, 444, 396, 415, 463, 465, 417
260, 415, 463, 465, 417, 416, 464, 466, 418
261, 396, 444, 450, 402, 417, 465, 467, 419
262, 417, 465, 467, 419, 418, 466, 468, 420
263, 402, 450, 469, 421, 419, 467, 470, 422
264, 419, 467, 470, 422, 420, 468, 471, 423
265, 421, 469, 472, 424, 422, 470, 473, 425
266, 422, 470, 473, 425, 423, 471, 474, 426
267, 424, 472, 475, 427, 425, 473, 476, 428
268, 425, 473, 476, 428, 426, 474, 477, 429
269, 427, 475, 478, 430, 428, 476, 479, 431
270, 428, 476, 479, 431, 429, 477, 480, 432
271, 433, 481, 482, 434, 435, 483, 484, 436
272, 435, 483, 484, 436, 437, 485, 486, 438
273, 437, 485, 486, 438, 439, 487, 488, 440
274, 439, 487, 488, 440, 441, 489, 490, 442
275, 441, 489, 490, 442, 443, 491, 492, 444
276, 434, 482, 493, 445, 436, 484, 494, 446
277, 436, 484, 494, 446, 438, 486, 495, 447
278, 438, 486, 495, 447, 440, 488, 496, 448
279, 440, 488, 496, 448, 442, 490, 497, 449
280, 442, 490, 497, 449, 444, 492, 498, 450
281, 451, 499, 500, 452, 453, 501, 502, 454
282, 453, 501, 502, 454, 455, 503, 504, 456
283, 452, 500, 505, 457, 454, 502, 506, 458
284, 454, 502, 506, 458, 456, 504, 507, 459
285, 457, 505, 508, 460, 458, 506, 509, 461
286, 458, 506, 509, 461, 459, 507, 510, 462
287, 460, 508, 491, 443, 461, 509, 511, 463
288, 461, 509, 511, 463, 462, 510, 512, 464
289, 443, 491, 492, 444, 463, 511, 513, 465
290, 463, 511, 513, 465, 464, 512, 514, 466
291, 444, 492, 498, 450, 465, 513, 515, 467
292, 465, 513, 515, 467, 466, 514, 516, 468
293, 450, 498, 517, 469, 467, 515, 518, 470
294, 467, 515, 518, 470, 468, 516, 519, 471
295, 469, 517, 520, 472, 470, 518, 521, 473
296, 470, 518, 521, 473, 471, 519, 522, 474
297, 472, 520, 523, 475, 473, 521, 524, 476
298, 473, 521, 524, 476, 474, 522, 525, 477
299, 475, 523, 526, 478, 476, 524, 527, 479
300, 476, 524, 527, 479, 477, 525, 528, 480
301, 481, 529, 530, 482, 483, 531, 532, 484
302, 483, 531, 532, 484, 485, 533, 534, 486
303, 485, 533, 534, 486, 487, 535, 536, 488
304, 487, 535, 536, 488, 489, 537, 538, 490
305, 489, 537, 538, 490, 491, 539, 540, 492
306, 482, 530, 541, 493, 484, 532, 542, 494
307, 484, 532, 542, 494, 486, 534, 543, 495
308, 486, 534, 543, 495, 488, 536, 544, 496
309, 488, 536, 544, 496, 490, 538, 545, 497
310, 490, 538, 545, 497, 492, 540, 546, 498
311, 499, 547, 548, 500, 501, 549, 550, 502
312, 501, 549, 550, 502, 503, 551, 552, 504
313, 500, 548, 553, 505, 502, 550, 554, 506
314, 502, 550, 554, 506, 504, 552, 555, 507
315, 505, 553, 556, 508, 506, 554, 557, 509
316, 506, 554, 557, 509, 507, 555, 558, 510
317, 508, 556, 539, 491, 509, 557, 559, 511
318, 509, 557, 559, 511, 510, 558, 560, 512
319, 491, 539, 540, 492, 511, 559, 561, 513
320, 511, 559, 561, 513, 512, 560, 562, 514
321, 492, 540, 546, 498, 513, 561, 563, 515
322, 513, 561, 563, 515, 514, 562, 564, 516
323, 498, 546, 565, 517, 515, 563, 566, 518
324, 515, 563, 566, 518, 516, 564, 567, 519
325, 517, 565, 568, 520, 518, 566, 569, 521
326, 518, 566, 569, 521, 519, 567, 570, 522
327, 520, 568, 571, 523, 521, 569, 572, 524
328, 521, 569, 572, 524, 522, 570, 573, 525
329, 523, 571, 574, 526, 524, 572, 575, 527
330, 524, 572, 575, 527, 525, 573, 576, 528
331, 529, 577, 578, 530, 531, 579, 580, 532
332, 531, 579, 580, 532, 533, 581, 582, 534
333, 533, 581, 582, 534, 535, 583, 584, 536
334, 535, 583, 584, 536, 537, 585, 586, 538
335, 537, 585, 586, 538, 539, 587, 588, 540
336, 530, 578, 589, 541, 532, 580, 590, 542
337, 532, 580, 590, 542, 534, 582, 591, 543
338, 534, 582, 591, 543, 536, 584, 592, 544
339, 536, 584, 592, 544, 538, 586, 593, 545
340, 538, 586, 593, 545, 540, 588, 594, 546
341, 547, 595, 596, 548, 549, 597, 598, 550
342, 549, 597, 598, 550, 551, 599, 600, 552
343, 548, 596, 601, 553, 550, 598, 602, 554
344, 550, 598, 602, 554, 552, 600, 603, 555
345, 553, 601, 604, 556, 554, 602, 605, 557
346, 554, 602, 605, 557, 555, 603, 606, 558
347, 556, 604, 587, 539, 557, 605, 607, 559
348, 557, 605, 607, 559, 558, 606, 608, 560
349, 539, 587, 588, 540, 559, 607, 609, 561
350, 559, 607, 609, 561, 560, 608, 610, 562
351, 540, 588, 594, 546, 561, 609, 611, 563
352, 561, 609, 611, 563, 562, 610, 612, 564
353, 546, 594, 613, 565, 563, 611, 614, 566
354, 563, 611, 614, 566, 564, 612, 615, 567
355, 565, 613, 616, 568, 566, 614, 617, 569
356, 566, 614, 617, 569, 567, 615, 618, 570
357, 568, 616, 619, 571, 569, 617, 620, 572
358, 569, 617, 620, 572, 570, 618, 621, 573
359, 571, 619, 622, 574, 572, 620, 623, 575
360, 572, 620, 623, 575, 573, 621, 624, 576
361, 577, 625, 626, 578, 579, 627, 628, 580
362, 579, 627, 628, 580, 581, 629, 630, 582
363, 581, 629, 630, 582, 583, 631, 632, 584
364, 583, 631, 632, 584, 585, 633, 634, 586
365, 585, 633, 634, 586, 587, 635, 636, 588
366, 578, 626, 637, 589, 580, 628, 638, 590
367, 580, 628, 638, 590, 582, 630, 639, 591
368, 582, 630, 639, 591, 584, 632, 640, 592
369, 584, 632, 640, 592, 586, 634, 641, 593
370, 586, 634, 641, 593, 588, 636, 642, 594
371, 595, 643, 644, 596, 597, 645, 646, 598
372, 597, 645, 646, 598, 599, 647, 648, 600
373, 596, 644, 649, 601, 598, 646, 650, 602
374, 598, 646, 650, 602, 600, 648, 651, 603
375, 601, 649, 652, 604, 602, 650, 653, 605
376, 602, 650, 653, 605, 603, 651, 654, 606
377, 604, 652, 635, 587, 605, 653, 655, 607
378, 605, 653, 655, 607, 606, 654, 656, 608
379, 587, 635, 636, 588, 607, 655, 657, 609
380, 607, 655, 657, 609, 608, 656, 658, 610
381, 588, 636, 642, 594, 609, 657, 659, 611
382, 609, 657, 659, 611, 610, 658, 660, 612
383, 594, 642, 661, 613, 611, 659, 662, 614
384, 611, 659, 662, 614, 612, 660, 663, 615
385, 613, 661, 664, 616, 614, 662, 665, 617
386, 614, 662, 665, 617, 615, 663, 666, 618
387, 616, 664, 667, 619, 617, 665, 668, 620
388, 617, 665, 668, 620, 618, 666, 669, 621
389, 619, 667, 670, 622, 620, 668, 671, 623
390, 620, 668, 671, 623, 621, 669, 672, 624
391, 625, 673, 674, 626, 627, 675, 676, 628
392, 627, 675, 676, 628, 629, 677, 678, 630
393, 629, 677, 678, 630, 631, 679, 680, 632
394, 631, 679, 680, 632, 633, 681, 682, 634
395, 633, 681, 682, 634, 635, 683, 684, 636
396, 626, 674, 685, 637, 628, 676, 686, 638
397, 628, 676, 686, 638, 630, 678, 687, 639
398, 630, 678, 687, 639, 632, 680, 688, 640
399, 632, 680, 688, 640, 634, 682, 689, 641
400, 634, 682, 689, 641, 636, 684, 690, 642
401, 643, 691, 692, 644, 645, 693, 694, 646
402, 645, 693, 694, 646, 647, 695, 696, 648
403, 644, 692, 697, 649, 646, 694, 698, 650
404, 646, 694, 698, 650, 648, 696, 699, 651
405, 649, 697, 700, 652, 650, 698, 701, 653
406, 650, 698, 701, 653, 651, 699, 702, 654
407, 652, 700, 683, 635, 653, 701, 703, 655
408, 653, 701, 703, 655, 654, 702, 704, 656
409, 635, 683, 684, 636, 655, 703, 705, 657
410, 655, 703, 705, 657, 656, 704, 706, 658
411, 636, 684, 690, 642, 657, 705, 707, 659
412, 657, 705, 707, 659, 658, 706, 708, 660
413, 642, 690, 709, 661, 659, 707, 710, 662
414, 659, 707, 710, 662, 660, 708, 711, 663
415, 661, 709, 712, 664, 662, 710, 713, 665
416, 662, 710, 713, 665, 663, 711, 714, 666
417, 664, 712, 715, 667, 665, 713, 716, 668
418, 665, 713, 716, 668, 666, 714, 717, 669
419, 667, 715, 718, 670, 668, 716, 719, 671
420, 668, 716, 719, 671, 669, 717, 720, 672
421, 673, 721, 722, 674, 675, 723, 724, 676
422, 675, 723, 724, 676, 677, 725, 726, 678
423, 677, 725, 726, 678, 679, 727, 728, 680
424, 679, 727, 728, 680, 681, 729, 730, 682
425, 681, 729, 730, 682, 683, 731, 732, 684
426, 674, 722, 733, 685, 676, 724, 734, 686
427, 676, 724, 734, 686, 678, 726, 735, 687
428, 678, 726, 735, 687, 680, 728, 736, 688
429, 680, 728, 736, 688, 682, 730, 737, 689
430, 682, 730, 737, 689, 684, 732, 738, 690
431, 691, 739, 740, 692, 693, 741, 742, 694
432, 693, 741, 742, 694, 695, 743, 744, 696
433, 692, 740, 745, 697, 694, 742, 746, 698
434, 694, 742, 746, 698, 696, 744, 747, 699
435, 697, 745, 748, 700, 698, 746, 749, 701
436, 698, 746, 749, 701, 699, 747, 750, 702
437, 700, 748, 731, 683, 701, 749, 751, 703
438, 701, 749, 751, 703, 702, 750, 752, 704
439, 683, 731, 732, 684, 703, 751, 753, 705
440, 703, 751, 753, 705, 704, 752, 754, 706
441, 684, 732, 738, 690, 705, 753, 755, 707
442, 705, 753, 755, 707, 706, 754, 756, 708
443, 690, 738, 757, 709, 707, 755, 758, 710
444, 707, 755, 758, 710, 708, 756, 759, 711
445, 709, 757, 760, 712, 710, 758, 761, 713
446, 710, 758, 761, 713, 711, 759, 762, 714
447, 712, 760, 763, 715, 713, 761, 764, 716
448, 713, 761, 764, 716, 714, 762, 765, 717
449, 715, 763, 766, 718, 716, 764, 767, 719
450, 716, 764, 767, 719, 717, 765, 768, 720
451, 721, 769, 770, 722, 723, 771, 772, 724
452, 723, 771, 772, 724, 725, 773, 774, 726
453, 725, 773, 774, 726, 727, 775, 776, 728
454, 727, 775, 776, 728, 729, 777, 778, 730
455, 729, 777, 778, 730, 731, 779, 780, 732
456, 722, 770, 781, 733, 724, 772, 782, 734
457, 724, 772, 782, 734, 726, 774, 783, 735
458, 726, 774, 783, 735, 728, 776, 784, 736
459, 728, 776, 784, 736, 730, 778, 785, 737
460, 730, 778, 785, 737, 732, 780, 786, 738
461, 739, 787, 788, 740, 741, 789, 790, 742
462, 741, 789, 790, 742, 743, 791, 792, 744
463, 740, 788, 793, 745, 742, 790, 794, 746
464, 742, 790, 794, 746, 744, 792, 795, 747
465, 745, 793, 796, 748, 746, 794, 797, 749
466, 746, 794, 797, 749, 747, 795, 798, 750
467, 748, 796, 779, 731, 749, 797, 799, 751
468, 749, 797, 799, 751, 750, 798, 800, 752
469, 731, 779, 780, 732, 751, 799, 801, 753
470, 751, 799, 801, 753, 752, 800, 802, 754
471, 732, 780, 786, 738, 753, 801, 803, 755
472, 753, 801, 803, 755, 754, 802, 804, 756
473, 738, 786, 805, 757, 755, 803, 806, 758
474, 755, 803, 806, 758, 756, 804, 807, 759
475, 757, 805, 808, 760, 758, 806, 809, 761
476, 758, 806, 809, 761, 759, 807, 810, 762
477, 760, 808, 811, 763, 761, 809, 812, 764
478, 761, 809, 812, 764, 762, 810, 813, 765
479, 763, 811, 814, 766, 764, 812, 815, 767
480, 764, 812, 815, 767, 765, 813, 816, 768
481, 769, 817, 818, 770, 771, 819, 820, 772
482, 771, 819, 820, 772, 773, 821, 822, 774
483, 773, 821, 822, 774, 775, 823, 824, 776
484, 775, 823, 824, 776, 777, 825, 826, 778
485, 777, 825, 826, 778, 779, 827, 828, 780
486, 770, 818, 829, 781, 772, 820, 830, 782
487, 772, 820, 830, 782, 774, 822, 831, 783
488, 774, 822, 831, 783, 776, 824, 832, 784
489, 776, 824, 832, 784, 778, 826, 833, 785
490, 778, 826, 833, 785, 780, 828, 834, 786
491, 787, 835, 836, 788, 789, 837, 838, 790
492, 789, 837, 838, 790, 791, 839, 840, 792
493, 788, 836, 841, 793, 790, 838, 842, 794
494, 790, 838, 842, 794, 792, 840, 843, 795
495, 793, 841, 844, 796, 794, 842, 845, 797
496, 794, 842, 845, 797, 795, 843, 846, 798
497, 796, 844, 827, 779, 797, 845, 847, 799
498, 797, 845, 847, 799, 798, 846, 848, 800
499, 779, 827, 828, 780, 799, 847, 849, 801
500, 799, 847, 849, 801, 800, 848, 850, 802
501, 780, 828, 834, 786, 801, 849, 851, 803
502, 801, 849, 851, 803, 802, 850, 852, 804
503, 786, 834, 853, 805, 803, 851, 854, 806
504, 803, 851, 854, 806, 804, 852, 855, 807
505, 805, 853, 856, 808, 806, 854, 857, 809
506, 806, 854, 857, 809, 807, 855, 858, 810
507, 808, 856, 859, 811, 809, 857, 860, 812
508, 809, 857, 860, 812, 810, 858, 861, 813
509, 811, 859, 862, 814, 812, 860, 863, 815
510, 812, 860, 863, 815, 813, 861, 864, 816
511, 817, 865, 866, 818, 819, 867, 868, 820
512, 819, 867, 868, 820, 821, 869, 870, 822
513, 821, 869, 870, 822, 823, 871, 872, 824
514, 823, 871, 872, 824, 825, 873, 874, 826
515, 825, 873, 874, 826, 827, 875, 876, 828
516, 818, 866, 877, 829, 820, 868, 878, 830
517, 820, 868, 878, 830, 822, 870, 879, 831
518, 822, 870, 879, 831, 824, 872, 880, 832
519, 824, 872, 880, 832, 826, 874, 881, 833
520, 826, 874, 881, 833, 828, 876, 882, 834
521, 835, 883, 884, 836, 837, 885, 886, 838
522, 837, 885, 886, 838, 839, 887, 888, 840
523, 836, 884, 889, 841, 838, 886, 890, 842
524, 838, 886, 890, 842, 840, 888, 891, 843
525, 841, 889, 892, 844, 842, 890, 893, 845
526, 842, 890, 893, 845, 843, 891, 894, 846
527, 844, 892, 875, 827, 845, 893, 895, 847
528, 845, 893, 895, 847, 846, 894, 896, 848
529, 827, 875, 876, 828, 847, 895, 897, 849
530, 847, 895, 897, 849, 848, 896, 898, 850
531, 828, 876, 882, 834, 849, 897, 899, 851
532, 849, 897, 899, 851, 850, 898, 900, 852
533, 834, 882, 901, 853, 851, 899, 902, 854
534, 851, 899, 902, 854, 852, 900, 903, 855
535, 853, 901, 904, 856, 854, 902, 905, 857
536, 854, 902, 905, 857, 855, 903, 906, 858
537, 856, 904, 907, 859, 857, 905, 908, 860
538, 857, 905, 908, 860, 858, 906, 909, 861
539, 859, 907, 910, 862, 860, 908, 911, 863
540, 860, 908, 911, 863, 861, 909, 912, 864
541, 865, 913, 914, 866, 867, 915, 916, 868
542, 867, 915, 916, 868, 869, 917, 918, 870
543, 869, 917, 918, 870, 871, 919, 920, 872
544, 871, 919, 920, 872, 873, 921, 922, 874
545, 873, 921, 922, 874, 875, 923, 924, 876
546, 866, 914, 925, 877, 868, 916, 926, 878
547, 868, 916, 926, 878, 870, 918, 927, 879
548, 870, 918, 927, 879, 872, 920, 928, 880
549, 872, 920, 928, 880, 874, 922, 929, 881
550, 874, 922, 929, 881, 876, 924, 930, 882
551, 883, 931, 932, 884, 885, 933, 934, 886
552, 885, 933, 934, 886, 887, 935, 936, 888
553, 884, 932, 937, 889, 886, 934, 938, 890
554, 886, 934, 938, 890, 888, 936, 939, 891
555, 889, 937, 940, 892, 890, 938, 941, 893
556, 890, 938, 941, 893, 891, 939, 942, 894
557, 892, 940, 923, 875, 893, 941, 943, 895
558, 893, 941, 943, 895, 894, 942, 944, 896
559, 875, 923, 924, 876, 895, 943, 945, 897
560, 895, 943, 945, 897, 896, 944, 946, 898
561, 876, 924, 930, 882, 897, 945, 947, 899
562, 897, 945, 947, 899, 898, 946, 948, 900
563, 882, 930, 949, 901, 899, 947, 950, 902
564, 899, 947, 950, 902, 900, 948, 951, 903
565, 901, 949, 952, 904, 902, 950, 953, 905
566, 902, 950, 953, 905, 903, 951, 954, 906
567, 904, 952, 955, 907, 905, 953, 956, 908
568, 905, 953, 956, 908, 906, 954, 957, 909
569, 907, 955, 958, 910, 908, 956, 959, 911
570, 908, 956, 959, 911, 909, 957, 960, 912
571, 913, 961, 962, 914, 915, 963, 964, 916
572, 915, 963, 964, 916, 917, 965, 966, 918
573, 917, 965, 966, 918, 919, 967, 968, 920
574, 919, 967, 968, 920, 921, 969, 970, 922
575, 921, 969, 970, 922, 923, 971, 972, 924
576, 914, 962, 973, 925, 916, 964, 974, 926
577, 916, 964, 974, 926, 918, 966, 975, 927
578, 918, 966, 975, 927, 920, 968, 976, 928
579, 920, 968, 976, 928, 922, 970, 977, 929
580, 922, 970, 977, 929, 924, 972, 978, 930
581, 931, 979, 980, 932, 933, 981, 982, 934
582, 933, 981, 982, 934, 935, 983, 984, 936
583, 932, 980, 985, 937, 934, 982, 986, 938
584, 934, 982, 986, 938, 936, 984, 987, 939
585, 937, 985, 988, 940, 938, 986, 989, 941
586, 938, 986, 989, 941, 939, 987, 990, 942
587, 940, 988, 971, 923, 941, 989, 991, 943
588, 941, 989, 991, 943, 942, 990, 992, 944
589, 923, 971, 972, 924, 943, 991, 993, 945
590, 943, 991, 993, 945, 944, 992, 994, 946
591, 924, 972, 978, 930, 945, 993, 995, 947
592, 945, 993, 995, 947, 946, 994, 996, 948
593, 930, 978, 997, 949, 947, 995, 998, 950
594, 947, 995, 998, 950, 948, 996, 999, 951
595, 949, 997, 1000, 952, 950, 998, 1001, 953
596, 950, 998, 1001, 953, 951, 999, 1002, 954
597, 952, 1000, 1003, 955, 953, 1001, 1004, 956
598, 953, 1001, 1004, 956, 954, 1002, 1005, 957
599, 955, 1003, 1006, 958, 956, 1004, 1007, 959
600, 956, 1004, 1007, 959, 957, 1005, 1008, 960
601, 961, 1009, 1010, 962, 963, 1011, 1012, 964
602, 963, 1011, 1012, 964, 965, 1013, 1014, 966
603, 965, 1013, 1014, 966, 967, 1015, 1016, 968
604, 967, 1015, 1016, 968, 969, 1017, 1018, 970
605, 969, 1017, 1018, 970, 971, 1019, 1020, 972
606, 962, 1010, 1021, 973, 964, 1012, 1022, 974
607, 964, 1012, 1022, 974, 966, 1014, 1023, 975
608, 966, 1014, 1023, 975, 968, 1016, 1024, 976
609, 968, 1016, 1024, 976, 970, 1018, 1025, 977
610, 970, 1018, 1025, 977, 972, 1020, 1026, 978
611, 979, 1027, 1028, 980, 981, 1029, 1030, 982
612, 981, 1029, 1030, 982, 983, 1031, 1032, 984
613, 980, 1028, 1033, 985, 982, 1030, 1034, 986
614, 982, 1030, 1034, 986, 984, 1032, 1035, 987
615, 985, 1033, 1036, 988, 986, 1034, 1037, 989
616, 986, 1034, 1037, 989, 987, 1035, 1038, 990
617, 988, 1036, 1019, 971, 989, 1037, 1039, 991
618, 989, 1037, 1039, 991, 990, 1038, 1040, 992
619, 971, 1019, 1020, 972, 991, 1039, 1041, 993
620, 991, 1039, 1041, 993, 992, 1040, 1042, 994
621, 972, 1020, 1026, 978, 993, 1041, 1043, 995
622, 993, 1041, 1043, 995, 994, 1042, 1044, 996
623, 978, 1026, 1045, 997, 995, 1043, 1046, 998
624, 995, 1043, 1046, 998, 996, 1044, 1047, 999
625, 997, 1045, 1048, 1000, 998, 1046, 1049, 1001
626, 998, 1046, 1049, 1001, 999, 1047, 1050, 1002
627, 1000, 1048, 1051, 1003, 1001, 1049, 1052, 1004
628, 1001, 1049, 1052, 1004, 1002, 1050, 1053, 1005
629, 1003, 1051, 1054, 1006, 1004, 1052, 1055, 1007
630, 1004, 1052, 1055, 1007, 1005, 1053, 1056, 1008
631, 1009, 1057, 1058, 1010, 1011, 1059, 1060, 1012
632, 1011, 1059, 1060, 1012, 1013, 1061, 1062, 1014
633, 1013, 1061, 1062, 1014, 1015, 1063, 1064, 1016
634, 1015, 1063, 1064, 1016, 1017, 1065, 1066, 1018
635, 1017, 1065, 1066, 1018, 1019, 1067, 1068, 1020
636, 1010, 1058, 1069, 1021, 1012, 1060, 1070, 1022
637, 1012, 1060, 1070, 1022, 1014, 1062, 1071, 1023
638, 1014, 1062, 1071, 1023, 1016, 1064, 1072, 1024
639, 1016, 1064, 1072, 1024, 1018, 1066, 1073, 1025
640, 1018, 1066, 1073, 1025, 1020, 1068, 1074, 1026
641, 1027, 1075, 1076, 1028, 1029, 1077, 1078, 1030
642, 1029, 1077, 1078, 1030, 1031, 1079, 1080, 1032
643, 1028, 1076, 1081, 1033, 1030, 1078, 1082, 1034
644, 1030, 1078, 1082, 1034, 1032, 1080, 1083, 1035
645, 1033, 1081, 1084, 1036, 1034, 1082, 1085, 1037
646, 1034, 1082, 1085, 1037, 1035, 1083, 1086, 1038
647, 1036, 1084, 1067, 1019, 1037, 1085, 1087, 1039
648, 1037, 1085, 1087, 1039, 1038, 1086, 1088, 1040
649, 1019, 1067, 1068, 1020, 1039, 1087, 1089, 1041
650, 1039, 1087, 1089, 1041, 1040, 1088, 1090, 1042
651, 1020, 1068, 1074, 1026, 1041, 1089, 1091, 1043
652, 1041, 1089, 1091, 1043, 1042, 1090, 1092, 1044
653, 1026, 1074, 1093, 1045, 1043, 1091, 1094, 1046
654, 1043, 1091, 1094, 1046, 1044, 1092, 1095, 1047
655, 1045, 1093, 1096, 1048, 1046, 1094, 1097, 1049
656, 1046, 1094, 1097, 1049, 1047, 1095, 1098, 1050
657, 1048, 1096, 1099, 1051, 1049, 1097, 1100, 1052
658, 1049, 1097, 1100, 1052, 1050, 1098, 1101, 1053
659, 1051, 1099, 1102, 1054, 1052, 1100, 1103, 1055
660, 1052, 1100, 1103, 1055, 1053, 1101, 1104, 1056
661, 1057, 1105, 1106, 1058, 1059, 1107, 1108, 1060
662, 1059, 1107, 1108, 1060, 1061, 1109, 1110, 1062
663, 1061, 1109, 1110, 1062, 1063, 1111, 1112, 1064
664, 1063, 1111, 1112, 1064, 1065, 1113, 1114, 1066
665, 1065, 1113, 1114, 1066, 1067, 1115, 1116, 1068
666, 1058, 1106, 1117, 1069, 1060, 1108, 1118, 1070
667, 1060, 1108, 1118, 1070, 1062, 1110, 1119, 1071
668, 1062, 1110, 1119, 1071, 1064, 1112, 1120, 1072
669, 1064, 1112, 1120, 1072, 1066, 1114, 1121, 1073
670, 1066, 1114, 1121, 1073, 1068, 1116, 1122, 1074
671, 1075, 1123, 1124, 1076, 1077, 1125, 1126, 1078
672, 1077, 1125, 1126, 1078, 1079, 1127, 1128, 1080
673, 1076, 1124, 1129, 1081, 1078, 1126, 1130, 1082
674, 1078, 1126, 1130, 1082, 1080, 1128, 1131, 1083
675, 1081, 1129, 1132, 1084, 1082, 1130, 1133, 1085
676, 1082, 1130, 1133, 1085, 1083, 1131, 1134, 1086
677, 1084, 1132, 1115, 1067, 1085, 1133, 1135, 1087
678, 1085, 1133, 1135, 1087, 1086, 1134, 1136, 1088
679, 1067, 1115, 1116, 1068, 1087, 1135, 1137, 1089
680, 1087, 1135, 1137, 1089, 1088, 1136, 1138, 1090
681, 1068, 1116, 1122, 1074, 1089, 1137, 1139, 1091
682, 1089, 1137, 1139, 1091, 1090, 1138, 1140, 1092
683, 1074, 1122, 1141, 1093, 1091, 1139, 1142, 1094
684, 1091, 1139, 1142, 1094, 1092, 1140, 1143, 1095
685, 1093, 1141, 1144, 1096, 1094, 1142, 1145, 1097
686, 1094, 1142, 1145, 1097, 1095, 1143, 1146, 1098
687, 1096, 1144, 1147, 1099, 1097, 1145, 1148, 1100
688, 1097, 1145, 1148, 1100, 1098, 1146, 1149, 1101
689, 1099, 1147, 1150, 1102, 1100, 1148, 1151, 1103
690, 1100, 1148, 1151, 1103, 1101, 1149, 1152, 1104
691, 1105, 1153, 1154, 1106, 1107, 1155, 1156, 1108
692, 1107, 1155, 1156, 1108, 1109, 1157, 1158, 1110
693, 1109, 1157, 1158, 1110, 1111, 1159, 1160, 1112
694, 1111, 1159, 1160, 1112, 1113, 1161, 1162, 1114
695, 1113, 1161, 1162, 1114, 1115, 1163, 1164, 1116
696, 1106, 1154, 1165, 1117, 1108, 1156, 1166, 1118
697, 1108, 1156, 1166, 1118, 1110, 1158, 1167, 1119
698, 1110, 1158, 1167, 1119, 1112, 1160, 1168, 1120
699, 1112, 1160, 1168, 1120, 1114, 1162, 1169, 1121
700, 1114, 1162, 1169, 1121, 1116, 1164, 1170, 1122
701, 1123, 1171, 1172, 1124, 1125, 1173, 1174, 1126
702, 1125, 1173, 1174, 1126, 1127, 1175, 1176, 1128
703, 1124, 1172, 1177, 1129, 1126, 1174, 1178, 1130
704, 1126, 1174, 1178, 1130, 1128, 1176, 1179, 1131
705, 1129, 1177, 1180, 1132, 1130, 1178, 1181, 1133
706, 1130, 1178, 1181, 1133, 1131, 1179, 1182, 1134
707, 1132, 1180, 1163, 1115, 1133, 1181, 1183, 1135
708, 1133, 1181, 1183, 1135, 1134, 1182, 1184, 1136
709, 1115, 1163, 1164, 1116, 1135, 1183, 1185, 1137
710, 1135, 1183, 1185, 1137, 1136, 1184, 1186, 1138
711, 1116, 1164, 1170, 1122, 1137, 1185, 1187, 1139
712, 1137, 1185, 1187, 1139, 1138, 1186, 1188, 1140
713, 1122, 1170, 1189, 1141, 1139, 1187, 1190, 1142
714, 1139, 1187, 1190, 1142, 1140, 1188, 1191, 1143
715, 1141, 1189, 1192, 1144, 1142, 1190, 1193, 1145
716, 1142, 1190, 1193, 1145, 1143, 1191, 1194, 1146
717, 1144, 1192, 1195, 1147, 1145, 1193, 1196, 1148
718, 1145, 1193, 1196, 1148, 1146, 1194, 1197, 1149
719, 1147, 1195, 1198, 1150, 1148, 1196, 1199, 1151
720, 1148, 1196, 1199, 1151, 1149, 1197, 1200, 1152
721, 1153, 1201, 1202, 1154, 1155, 1203, 1204, 1156
722, 1155, 1203, 1204, 1156, 1157, 1205, 1206, 1158
723, 1157, 1205, 1206, 1158, 1159, 1207, 1208, 1160
724, 1159, 1207, 1208, 1160, 1161, 1209, 1210, 1162
725, 1161, 1209, 1210, 1162, 1163, 1211, 1212, 1164
726, 1154, 1202, 1213, 1165, 1156, 1204, 1214, 1166
727, 1156, 1204, 1214, 1166, 1158, 1206, 1215, 1167
728, 1158, 1206, 1215, 1167, 1160, 1208, 1216, 1168
729, 1160, 1208, 1216, 1168, 1162, 1210, 1217, 1169
730, 1162, 1210, 1217, 1169, 1164, 1212, 1218, 1170
731, 1171, 1219, 1220, 1172, 1173, 1221, 1222, 1174
732, 1173, 1221, 1222, 1174, 1175, 1223, 1224, 1176
733, 1172, 1220, 1225, 1177, 1174, 1222, 1226, 1178
734, 1174, 1222, 1226, 1178, 1176, 1224, 1227, 1179
735, 1177, 1225, 1228, 1180, 1178, 1226, 1229, 1181
736, 1178, 1226, 1229, 1181, 1179, 1227, 1230, 1182
737, 1180, 1228, 1211, 1163, 1181, 1229, 1231, 1183
738, 1181, 1229, 1231, 1183, 1182, 1230, 1232, 1184
739, 1163, 1211, 1212, 1164, 1183, 1231, 1233, 1185
740, 1183, 1231, 1233, 1185, 1184, 1232, 1234, 1186
741, 1164, 1212, 1218, 1170, 1185, 1233, 1235, 1187
742, 1185, 1233, 1235, 1187, 1186, 1234, 1236, 1188
743, 1170, 1218, 1237, 1189, 1187, 1235, 1238, 1190
744, 1187, 1235, 1238, 1190, 1188, 1236, 1239, 1191
745, 1189, 1237, 1240, 1192, 1190, 1238, 1241, 1193
746, 1190, 1238, 1241, 1193, 1191, 1239, 1242, 1194
747, 1192, 1240, 1243, 1195, 1193, 1241, 1244, 1196
748, 1193, 1241, 1244, 1196, 1194, 1242, 1245, 1197
749, 1195, 1243, 1246, 1198, 1196, 1244, 1247, 1199
750, 1196, 1244, 1247, 1199, 1197, 1245, 1248, 1200
751, 1201, 1249, 1250, 1202, 1203, 1251, 1252, 1204
752, 1203, 1251, 1252, 1204, 1205, 1253, 1254, 1206
753, 1205, 1253, 1254, 1206, 1207, 1255, 1256, 1208
754, 1207, 1255, 1256, 1208, 1209, 1257, 1258, 1210
755, 1209, 1257, 1258, 1210, 1211, 1259, 1260, 1212
756, 1202, 1250, 1261, 1213, 1204, 1252, 1262, 1214
757, 1204, 1252, 1262, 1214, 1206, 1254, 1263, 1215
758, 1206, 1254, 1263, 1215, 1208, 1256, 1264, 1216
759, 1208, 1256, 1264, 1216, 1210, 1258, 1265, 1217
760, 1210, 1258, 1265, 1217, 1212, 1260, 1266, 1218
761, 1219, 1267, 1268, 1220, 1221, 1269, 1270, 1222
762, 1221, 1269, 1270, 1222, 1223, 1271, 1272, 1224
763, 1220, 1268, 1273, 1225, 1222, 1270, 1274, 1226
764, 1222, 1270, 1274, 1226, 1224, 1272, 1275, 1227
765, 1225, 1273, 1276, 1228, 1226, 1274, 1277, 1229
766, 1226, 1274, 1277, 1229, 1227, 1275, 1278, 1230
767, 1228, 1276, 1259, 1211, 1229, 1277, 1279, 1231
768, 1229, 1277, 1279, 1231, 1230, 1278, 1280, 1232
769, 1211, 1259, 1260, 1212, 1231, 1279, 1281, 1233
770, 1231, 1279, 1281, 1233, 1232, 1280, 1282, 1234
771, 1212, 1260, 1266, 1218, 1233, 1281, 1283, 1235
772, 1233, 1281, 1283, 1235, 1234, 1282, 1284, 1236
773, 1218, 1266, 1285, 1237, 1235, 1283, 1286, 1238
774, 1235, 1283, 1286, 1238, 1236, 1284, 1287, 1239
775, 1237, 1285, 1288, 1240, 1238, 1286, 1289, 1241
776, 1238, 1286, 1289, 1241, 1239, 1287, 1290, 1242
777, 1240, 1288, 1291, 1243, 1241, 1289, 1292, 1244
778, 1241, 1289, 1292, 1244, 1242, 1290, 1293, 1245
779, 1243, 1291, 1294, 1246, 1244, 1292, 1295, 1247
780, 1244, 1292, 1295, 1247, 1245, 1293, 1296, 1248
781, 1249, 1297, 1298, 1250, 1251, 1299, 1300, 1252
782, 1251, 1299, 1300, 1252, 1253, 1301, 1302, 1254
783, 1253, 1301, 1302, 1254, 1255, 1303, 1304, 1256
784, 1255, 1303, 1304, 1256, 1257, 1305, 1306, 1258
785, 1257, 1305, 1306, 1258, 1259, 1307, 1308, 1260
786, 1250, 1298, 1309, 1261, 1252, 1300, 1310, 1262
787, 1252, 1300, 1310, 1262, 1254, 1302, 1311, 1263
788, 1254, 1302, 1311, 1263, 1256, 1304, 1312, 1264
789, 1256, 1304, 1312, 1264, 1258, 1306, 1313, 1265
790, 1258, 1306, 1313, 1265, 1260, 1308, 1314, 1266
791, 1267, 1315, 1316, 1268, 1269, 1317, 1318, 1270
792, 1269, 1317, 1318, 1270, 1271, 1319, 1320, 1272
793, 1268, 1316, 1321, 1273, 1270, 1318, 1322, 1274
794, 1270, 1318, 1322, 1274, 1272, 1320, 1323, 1275
795, 1273, 1321, 1324, 1276, 1274, 1322, 1325, 1277
796, 1274, 1322, 1325, 1277, 1275, 1323, 1326, 1278
797, 1276, 1324, 1307, 1259, 1277, 1325, 1327, 1279
798, 1277, 1325, 1327, 1279, 1278, 1326, 1328, 1280
799, 1259, 1307, 1308, 1260, 1279, 1327, 1329, 1281
800, 1279, 1327, 1329, 1281, 1280, 1328, 1330, 1282
801, 1260, 1308, 1314, 1266, 1281, 1329, 1331, 1283
802, 1281, 1329, 1331, 1283, 1282, 1330, 1332, 1284
803, 1266, 1314, 1333, 1285, 1283, 1331, 1334, 1286
804, 1283, 1331, 1334, 1286, 1284, 1332, 1335, 1287
805, 1285, 1333, 1336, 1288, 1286, 1334, 1337, 1289
806, 1286, 1334, 1337, 1289, 1287, 1335, 1338, 1290
807, 1288, 1336, 1339, 1291, 1289, 1337, 1340, 1292
808, 1289, 1337, 1340, 1292, 1290, 1338, 1341, 1293
809, 1291, 1339, 1342, 1294, 1292, 1340, 1343, 1295
810, 1292, 1340, 1343, 1295, 1293, 1341, 1344, 1296
811, 1297, 1345, 1346, 1298, 1299, 1347, 1348, 1300
812, 1299, 1347, 1348, 1300, 1301, 1349, 1350, 1302
813, 1301, 1349, 1350, 1302, 1303, 1351, 1352, 1304
814, 1303, 1351, 1352, 1304, 1305, 1353, 1354, 1306
815, 1305, 1353, 1354, 1306, 1307, 1355, 1356, 1308
816, 1298, 1346, 1357, 1309, 1300, 1348, 1358, 1310
817, 1300, 1348, 1358, 1310, 1302, 1350, 1359, 1311
818, 1302, 1350, 1359, 1311, 1304, 1352, 1360, 1312
819, 1304, 1352, 1360, 1312, 1306, 1354, 1361, 1313
820, 1306, 1354, 1361, 1313, 1308, 1356, 1362, 1314
821, 1315, 1363, 1364, 1316, 1317, 1365, 1366, 1318
822, 1317, 1365, 1366, 1318, 1319, 1367, 1368, 1320
823, 1316, 1364, 1369, 1321, 1318, 1366, 1370, 1322
824, 1318, 1366, 1370, 1322, 1320, 1368, 1371, 1323
825, 1321, 1369, 1372, 1324, 1322, 1370, 1373, 1325
826, 1322, 1370, 1373, 1325, 1323, 1371, 1374, 1326
827, 1324, 1372, 1355, 1307, 1325, 1373, 1375, 1327
828, 1325, 1373, 1375, 1327, 1326, 1374, 1376, 1328
829, 1307, 1355, 1356, 1308, 1327, 1375, 1377, 1329
830, 1327, 1375, 1377, 1329, 1328, 1376, 1378, 1330
831, 1308, 1356, 1362, 1314, 1329, 1377, 1379, 1331
832, 1329, 1377, 1379, 1331, 1330, 1378, 1380, 1332
833, 1314, 1362, 1381, 1333, 1331, 1379, 1382, 1334
834, 1331, 1379, 1382, 1334, 1332, 1380, 1383, 1335
835, 1333, 1381, 1384, 1336, 1334, 1382, 1385, 1337
836, 1334, 1382, 1385, 1337, 1335, 1383, 1386, 1338
837, 1336, 1384, 1387, 1339, 1337, 1385, 1388, 1340
838, 1337, 1385, 1388, 1340, 1338, 1386, 1389, 1341
839, 1339, 1387, 1390, 1342, 1340, 1388, 1391, 1343
840, 1340, 1388, 1391, 1343, 1341, 1389, 1392, 1344
841, 1345, 1393, 1394, 1346, 1347, 1395, 1396, 1348
842, 1347, 1395, 1396, 1348, 1349, 1397, 1398, 1350
843, 1349, 1397, 1398, 1350, 1351, 1399, 1400, 1352
844, 1351, 1399, 1400, 1352, 1353, 1401, 1402, 1354
845, 1353, 1401, 1402, 1354, 1355, 1403, 1404, 1356
846, 1346, 1394, 1405, 1357, 1348, 1396, 1406, 1358
847, 1348, 1396, 1406, 1358, 1350, 1398, 1407, 1359
848, 1350, 1398, 1407, 1359, 1352, 1400, 1408, 1360
849, 1352, 1400, 1408, 1360, 1354, 1402, 1409, 1361
850, 1354, 1402, 1409, 1361, 1356, 1404, 1410, 1362
851, 1363, 1411, 1412, 1364, 1365, 1413, 1414, 1366
852, 1365, 1413, 1414, 1366, 1367, 1415, 1416, 1368
853, 1364, 1412, 1417, 1369, 1366, 1414, 1418, 1370
854, 1366, 1414, 1418, 1370, 1368, 1416, 1419, 1371
855, 1369, 1417, 1420, 1372, 1370, 1418, 1421, 1373
856, 1370, 1418, 1421, 1373, 1371, 1419, 1422, 1374
857, 1372, 1420, 1403, 1355, 1373, 1421, 1423, 1375
858, 1373, 1421, 1423, 1375, 1374, 1422, 1424, 1376
859, 1355, 1403, 1404, 1356, 1375, 1423, 1425, 1377
860, 1375, 1423, 1425, 1377, 1376, 1424, 1426, 1378
861, 1356, 1404, 1410, 1362, 1377, 1425, 1427, 1379
862, 1377, 1425, 1427, 1379, 1378, 1426, 1428, 1380
863, 1362, 1410, 1429, 1381, 1379, 1427, 1430, 1382
864, 1379, 1427, 1430, 1382, 1380, 1428, 1431, 1383
865, 1381, 1429, 1432, 1384, 1382, 1430, 1433, 1385
866, 1382, 1430, 1433, 1385, 1383, 1431, 1434, 1386
867, 1384, 1432, 1435, 1387, 1385, 1433, 1436, 1388
868, 1385, 1433, 1436, 1388, 1386, 1434, 1437, 1389
869, 1387, 1435, 1438, 1390, 1388, 1436, 1439, 1391
870, 1388, 1436, 1439, 1391, 1389, 1437, 1440, 1392
871, 1393, 1441, 1442, 1394, 1395, 1443, 1444, 1396
872, 1395, 1443, 1444, 1396, 1397, 1445, 1446, 1398
873, 1397, 1445, 1446, 1398, 1399, 1447, 1448, 1400
874, 1399, 1447, 1448, 1400, 1401, 1449, 1450, 1402
875, 1401, 1449, 1450, 1402, 1403, 1451, 1452, 1404
876, 1394, 1442, 1453, 1405, 1396, 1444, 1454, 1406
877, 1396, 1444, 1454, 1406, 1398, 1446, 1455, 1407
878, 1398, 1446, 1455, 1407, 1400, 1448, 1456, 1408
879, 1400, 1448, 1456, 1408, 1402, 1450, 1457, 1409
880, 1402, 1450, 1457, 1409, 1404, 1452, 1458, 1410
881, 1411, 1459, 1460, 1412, 1413, 1461, 1462, 1414
882, 1413, 1461, 1462, 1414, 1415, 1463, 1464, 1416
883, 1412, 1460, 1465, 1417, 1414, 1462, 1466, 1418
884, 1414, 1462, 1466, 1418, 1416, 1464, 1467, 1419
885, 1417, 1465, 1468, 1420, 1418, 1466, 1469, 1421
886, 1418, 1466, 1469, 1421, 1419, 1467, 1470, 1422
887, 1420, 1468, 1451, 1403, 1421, 1469, 1471, 1423
888, 1421, 1469, 1471, 1423, 1422, 1470, 1472, 1424
889, 1403, 1451, 1452, 1404, 1423, 1471, 1473, 1425
890, 1423, 1471, 1473, 1425, 1424, 1472, 1474, 1426
891, 1404, 1452, 1458, 1410, 1425, 1473, 1475, 1427
892, 1425, 1473, 1475, 1427, 1426, 1474, 1476, 1428
893, 1410, 1458, 1477, 1429, 1427, 1475, 1478, 1430
894, 1427, 1475, 1478, 1430, 1428, 1476, 1479, 1431
895, 1429, 1477, 1480, 1432, 1430, 1478, 1481, 1433
896, 1430, 1478, 1481, 1433, 1431, 1479, 1482, 1434
897, 1432, 1480, 1483, 1435, 1433, 1481, 1484, 1436
898, 1433, 1481, 1484, 1436, 1434, 1482, 1485, 1437
899, 1435, 1483, 1486, 1438, 1436, 1484, 1487, 1439
900, 1436, 1484, 1487, 1439, 1437, 1485, 1488, 1440
901, 1441, 1489, 1490, 1442, 1443, 1491, 1492, 1444
902, 1443, 1491, 1492, 1444, 1445, 1493, 1494, 1446
903, 1445, 1493, 1494, 1446, 1447, 1495, 1496, 1448
904, 1447, 1495, 1496, 1448, 1449, 1497, 1498, 1450
905, 1449, 1497, 1498, 1450, 1451, 1499, 1500, 1452
906, 1442, 1490, 1501, 1453, 1444, 1492, 1502, 1454
907, 1444, 1492, 1502, 1454, 1446, 1494, 1503, 1455
908, 1446, 1494, 1503, 1455, 1448, 1496, 1504, 1456
909, 1448, 1496, 1504, 1456, 1450, 1498, 1505, 1457
910, 1450, 1498, 1505, 1457, 1452, 1500, 1506, 1458
911, 1459, 1507, 1508, 1460, 1461, 1509, 1510, 1462
912, 1461, 1509, 1510, 1462, 1463, 1511, 1512, 1464
913, 1460, 1508, 1513, 1465, 1462, 1510, 1514, 1466
914, 1462, 1510, 1514, 1466, 1464, 1512, 1515, 1467
915, 1465, 1513, 1516, 1468, 1466, 1514, 1517, 1469
916, 1466, 1514, 1517, 1469, 1467, 1515, 1518, 1470
917, 1468, 1516, 1499, 1451, 1469, 1517, 1519, 1471
918, 1469, 1517, 1519, 1471, 1470, 1518, 1520, 1472
919, 1451, 1499, 1500, 1452, 1471, 1519, 1521, 1473
920, 1471, 1519, 1521, 1473, 1472, 1520, 1522, 1474
921, 1452, 1500, 1506, 1458, 1473, 1521, 1523, 1475
922, 1473, 1521, 1523, 1475, 1474, 1522, 1524, 1476
923, 1458, 1506, 1525, 1477, 1475, 1523, 1526, 1478
924, 1475, 1523, 1526, 1478, 1476, 1524, 1527, 1479
925, 1477, 1525, 1528, 1480, 1478, 1526, 1529, 1481
926, 1478, 1526, 1529, 1481, 1479, 1527, 1530, 1482
927, 1480, 1528, 1531, 1483, 1481, 1529, 1532, 1484
928, 1481, 1529, 1532, 1484, 1482, 1530, 1533, 1485
929, 1483, 1531, 1534, 1486, 1484, 1532, 1535, 1487
930, 1484, 1532, 1535, 1487, 1485, 1533, 1536, 1488
931, 1489, 1537, 1538, 1490, 1491, 1539, 1540, 1492
932, 1491, 1539, 1540, 1492, 1493, 1541, 1542, 1494
933, 1493, 1541, 1542, 1494, 1495, 1543, 1544, 1496
934, 1495, 1543, 1544, 1496, 1497, 1545, 1546, 1498
935, 1497, 1545, 1546, 1498, 1499, 1547, 1548, 1500
936, 1490, 1538, 1549, 1501, 1492, 1540, 1550, 1502
937, 1492, 1540, 1550, 1502, 1494, 1542, 1551, 1503
938, 1494, 1542, 1551, 1503, 1496, 1544, 1552, 1504
939, 1496, 1544, 1552, 1504, 1498, 1546, 1553, 1505
940, 1498, 1546, 1553, 1505, 1500, 1548, 1554, 1506
941, 1507, 1555, 1556, 1508, 1509, 1557, 1558, 1510
942, 1509, 1557, 1558, 1510, 1511, 1559, 1560, 1512
943, 1508, 1556, 1561, 1513, 1510, 1558, 1562, 1514
944, 1510, 1558, 1562, 1514, 1512, 1560, 1563, 1515
945, 1513, 1561, 1564, 1516, 1514, 1562, 1565, 1517
946, 1514, 1562, 1565, 1517, 1515, 1563, 1566, 1518
947, 1516, 1564, 1547, 1499, 1517, 1565, 1567, 1519
948, 1517, 1565, 1567, 1519, 1518, 1566, 1568, 1520
949, 1499, 1547, 1548, 1500, 1519, 1567, 1569, 1521
950, 1519, 1567, 1569, 1521, 1520, 1568, 1570, 1522
951, 1500, 1548, 1554, 1506, 1521, 1569, 1571, 1523
952, 1521, 1569, 1571, 1523, 1522, 1570, 1572, 1524
953, 1506, 1554, 1573, 1525, 1523, 1571, 1574, 1526
954, 1523, 1571, 1574, 1526, 1524, 1572, 1575, 1527
955, 1525, 1573, 1576, 1528, 1526, 1574, 1577, 1529
956, 1526, 1574, 1577, 1529, 1527, 1575, 1578, 1530
957, 1528, 1576, 1579, 1531, 1529, 1577, 1580, 1532
958, 1529, 1577, 1580, 1532, 1530, 1578, 1581, 1533
959, 1531, 1579, 1582, 1534, 1532, 1580, 1583, 1535
960, 1532, 1580, 1583, 1535, 1533, 1581, 1584, 1536
*NSET, NSET=CLAMP
1, 4, 5, 8, 9, 12, 13, 16, 17, 20, 21, 24, 26, 28, 30, 32
34, 36, 37, 40, 41, 44, 45, 48, 50, 52, 54, 56, 58, 60, 62, 64
66, 68, 70, 72, 74, 76, 78, 80, 82, 84, 86, 88, 90, 92, 94, 96
*NSET, NSET=TIP_TOP
1559, 1560, 1563, 1566, 1568, 1570, 1572, 1575, 1578, 1581, 1584
*NSET, NSET=TIP_FLANGE
1559, 1560, 1563, 1566, 1568, 1570, 1572, 1575, 1578, 1581, 1584
*MATERIAL, NAME=STEEL
*ELASTIC
210000, 0.3
*DENSITY
7.85e-09
*SOLID SECTION, ELSET=EALL, MATERIAL=STEEL
*BOUNDARY
CLAMP, 1, 3, 0.0
*AMPLITUDE, NAME=PULSE
0, 0, 0.004, 1, 0.02, 0, 0.05, 0
*STEP, NLGEOM, INC=80
*DYNAMIC
5.0e-4, 0.050, 1.0e-6, 2.0e-3
*CLOAD, AMPLITUDE=PULSE
1559, 3, -2727.27272727
1560, 3, -2727.27272727
1563, 3, -2727.27272727
1566, 3, -2727.27272727
1568, 3, -2727.27272727
1570, 3, -2727.27272727
1572, 3, -2727.27272727
1575, 3, -2727.27272727
1578, 3, -2727.27272727
1581, 3, -2727.27272727
1584, 3, -2727.27272727
*NODE FILE, FREQUENCY=5
U
*EL FILE, FREQUENCY=5
S, ENER
*NODE PRINT, NSET=TIP_TOP
U
*NODE PRINT, NSET=CLAMP
RF
*EL PRINT, ELSET=EALL
ELSE
*ENERGY PRINT
*END STEP
