*HEADING
Normalized cross-passage space-truss torsion benchmark
*NODE
1,-1.200000000000e+00,0.000000000000e+00,0.000000000000e+00
2,1.200000000000e+00,0.000000000000e+00,0.000000000000e+00
3,-1.200000000000e+00,0.000000000000e+00,2.000000000000e+00
4,1.200000000000e+00,0.000000000000e+00,2.000000000000e+00
5,-1.200000000000e+00,1.000000000000e+01,0.000000000000e+00
6,1.200000000000e+00,1.000000000000e+01,0.000000000000e+00
7,-1.200000000000e+00,1.000000000000e+01,2.000000000000e+00
8,1.200000000000e+00,1.000000000000e+01,2.000000000000e+00
9,-1.200000000000e+00,2.000000000000e+01,0.000000000000e+00
10,1.200000000000e+00,2.000000000000e+01,0.000000000000e+00
11,-1.200000000000e+00,2.000000000000e+01,2.000000000000e+00
12,1.200000000000e+00,2.000000000000e+01,2.000000000000e+00
13,-1.200000000000e+00,3.000000000000e+01,0.000000000000e+00
14,1.200000000000e+00,3.000000000000e+01,0.000000000000e+00
15,-1.200000000000e+00,3.000000000000e+01,2.000000000000e+00
16,1.200000000000e+00,3.000000000000e+01,2.000000000000e+00
17,-1.200000000000e+00,4.000000000000e+01,0.000000000000e+00
18,1.200000000000e+00,4.000000000000e+01,0.000000000000e+00
19,-1.200000000000e+00,4.000000000000e+01,2.000000000000e+00
20,1.200000000000e+00,4.000000000000e+01,2.000000000000e+00
21,-1.200000000000e+00,5.000000000000e+01,0.000000000000e+00
22,1.200000000000e+00,5.000000000000e+01,0.000000000000e+00
23,-1.200000000000e+00,5.000000000000e+01,2.000000000000e+00
24,1.200000000000e+00,5.000000000000e+01,2.000000000000e+00
25,-1.200000000000e+00,5.000000000000e+00,-1.500000000000e-01
26,1.200000000000e+00,5.000000000000e+00,1.500000000000e-01
27,-1.200000000000e+00,5.000000000000e+00,1.850000000000e+00
28,1.200000000000e+00,5.000000000000e+00,2.150000000000e+00
29,-1.200000000000e+00,1.500000000000e+01,-1.500000000000e-01
30,1.200000000000e+00,1.500000000000e+01,1.500000000000e-01
31,-1.200000000000e+00,1.500000000000e+01,1.850000000000e+00
32,1.200000000000e+00,1.500000000000e+01,2.150000000000e+00
33,-1.200000000000e+00,2.500000000000e+01,-1.500000000000e-01
34,1.200000000000e+00,2.500000000000e+01,1.500000000000e-01
35,-1.200000000000e+00,2.500000000000e+01,1.850000000000e+00
36,1.200000000000e+00,2.500000000000e+01,2.150000000000e+00
37,-1.200000000000e+00,3.250000000000e+01,-1.060660171780e-01
38,-1.200000000000e+00,3.500000000000e+01,-1.500000000000e-01
39,-1.200000000000e+00,3.750000000000e+01,-1.060660171780e-01
40,1.200000000000e+00,3.250000000000e+01,1.060660171780e-01
41,1.200000000000e+00,3.500000000000e+01,1.500000000000e-01
42,1.200000000000e+00,3.750000000000e+01,1.060660171780e-01
43,-1.200000000000e+00,3.250000000000e+01,1.893933982822e+00
44,-1.200000000000e+00,3.500000000000e+01,1.850000000000e+00
45,-1.200000000000e+00,3.750000000000e+01,1.893933982822e+00
46,1.200000000000e+00,3.250000000000e+01,2.106066017178e+00
47,1.200000000000e+00,3.500000000000e+01,2.150000000000e+00
48,1.200000000000e+00,3.750000000000e+01,2.106066017178e+00
49,-1.200000000000e+00,4.500000000000e+01,-1.500000000000e-01
50,1.200000000000e+00,4.500000000000e+01,1.500000000000e-01
51,-1.200000000000e+00,4.500000000000e+01,1.850000000000e+00
52,1.200000000000e+00,4.500000000000e+01,2.150000000000e+00
53,0.000000000000e+00,-3.600000000000e-02,0.000000000000e+00
54,0.000000000000e+00,3.600000000000e-02,2.000000000000e+00
55,-1.200000000000e+00,3.000000000000e-02,1.000000000000e+00
56,1.200000000000e+00,-3.000000000000e-02,1.000000000000e+00
57,0.000000000000e+00,9.964000000000e+00,0.000000000000e+00
58,0.000000000000e+00,1.003600000000e+01,2.000000000000e+00
59,-1.200000000000e+00,1.003000000000e+01,1.000000000000e+00
60,1.200000000000e+00,9.970000000000e+00,1.000000000000e+00
61,0.000000000000e+00,1.996400000000e+01,0.000000000000e+00
62,0.000000000000e+00,2.003600000000e+01,2.000000000000e+00
63,-1.200000000000e+00,2.003000000000e+01,1.000000000000e+00
64,1.200000000000e+00,1.997000000000e+01,1.000000000000e+00
65,0.000000000000e+00,2.996400000000e+01,0.000000000000e+00
66,0.000000000000e+00,3.003600000000e+01,2.000000000000e+00
67,-1.200000000000e+00,3.003000000000e+01,1.000000000000e+00
68,1.200000000000e+00,2.997000000000e+01,1.000000000000e+00
69,0.000000000000e+00,3.996400000000e+01,0.000000000000e+00
70,0.000000000000e+00,4.003600000000e+01,2.000000000000e+00
71,-1.200000000000e+00,4.003000000000e+01,1.000000000000e+00
72,1.200000000000e+00,3.997000000000e+01,1.000000000000e+00
73,0.000000000000e+00,4.996400000000e+01,0.000000000000e+00
74,0.000000000000e+00,5.003600000000e+01,2.000000000000e+00
75,-1.200000000000e+00,5.003000000000e+01,1.000000000000e+00
76,1.200000000000e+00,4.997000000000e+01,1.000000000000e+00
77,-1.200000000000e+00,5.030000000000e+00,8.500000000000e-01
78,-1.200000000000e+00,5.030000000000e+00,1.150000000000e+00
79,1.200000000000e+00,5.030000000000e+00,8.500000000000e-01
80,1.200000000000e+00,5.030000000000e+00,1.150000000000e+00
81,1.500000000000e-01,4.964000000000e+00,0.000000000000e+00
82,-1.500000000000e-01,4.964000000000e+00,0.000000000000e+00
83,1.500000000000e-01,4.964000000000e+00,2.000000000000e+00
84,-1.500000000000e-01,4.964000000000e+00,2.000000000000e+00
85,-1.200000000000e+00,1.503000000000e+01,8.500000000000e-01
86,-1.200000000000e+00,1.503000000000e+01,1.150000000000e+00
87,1.200000000000e+00,1.503000000000e+01,8.500000000000e-01
88,1.200000000000e+00,1.503000000000e+01,1.150000000000e+00
89,1.500000000000e-01,1.496400000000e+01,0.000000000000e+00
90,-1.500000000000e-01,1.496400000000e+01,0.000000000000e+00
91,1.500000000000e-01,1.496400000000e+01,2.000000000000e+00
92,-1.500000000000e-01,1.496400000000e+01,2.000000000000e+00
93,-1.200000000000e+00,2.503000000000e+01,8.500000000000e-01
94,-1.200000000000e+00,2.503000000000e+01,1.150000000000e+00
95,1.200000000000e+00,2.503000000000e+01,8.500000000000e-01
96,1.200000000000e+00,2.503000000000e+01,1.150000000000e+00
97,1.500000000000e-01,2.496400000000e+01,0.000000000000e+00
98,-1.500000000000e-01,2.496400000000e+01,0.000000000000e+00
99,1.500000000000e-01,2.496400000000e+01,2.000000000000e+00
100,-1.500000000000e-01,2.496400000000e+01,2.000000000000e+00
101,-1.200000000000e+00,3.503000000000e+01,8.500000000000e-01
102,-1.200000000000e+00,3.503000000000e+01,1.150000000000e+00
103,1.200000000000e+00,3.503000000000e+01,8.500000000000e-01
104,1.200000000000e+00,3.503000000000e+01,1.150000000000e+00
105,1.500000000000e-01,3.496400000000e+01,0.000000000000e+00
106,-1.500000000000e-01,3.496400000000e+01,0.000000000000e+00
107,1.500000000000e-01,3.496400000000e+01,2.000000000000e+00
108,-1.500000000000e-01,3.496400000000e+01,2.000000000000e+00
109,-1.200000000000e+00,4.503000000000e+01,8.500000000000e-01
110,-1.200000000000e+00,4.503000000000e+01,1.150000000000e+00
111,1.200000000000e+00,4.503000000000e+01,8.500000000000e-01
112,1.200000000000e+00,4.503000000000e+01,1.150000000000e+00
113,1.500000000000e-01,4.496400000000e+01,0.000000000000e+00
114,-1.500000000000e-01,4.496400000000e+01,0.000000000000e+00
115,1.500000000000e-01,4.496400000000e+01,2.000000000000e+00
116,-1.500000000000e-01,4.496400000000e+01,2.000000000000e+00
*ELEMENT,TYPE=B31,ELSET=ALL
1,1,25
2,25,5
3,2,26
4,26,6
5,3,27
6,27,7
7,4,28
8,28,8
9,5,29
10,29,9
11,6,30
12,30,10
13,7,31
14,31,11
15,8,32
16,32,12
17,9,33
18,33,13
19,10,34
20,34,14
21,11,35
22,35,15
23,12,36
24,36,16
25,13,37
26,37,38
27,38,39
28,39,17
29,14,40
30,40,41
31,41,42
32,42,18
33,15,43
34,43,44
35,44,45
36,45,19
37,16,46
38,46,47
39,47,48
40,48,20
41,17,49
42,49,21
43,18,50
44,50,22
45,19,51
46,51,23
47,20,52
48,52,24
49,1,53
50,53,2
51,3,54
52,54,4
53,1,55
54,55,3
55,2,56
56,56,4
57,5,57
58,57,6
59,7,58
60,58,8
61,5,59
62,59,7
63,6,60
64,60,8
65,9,61
66,61,10
67,11,62
68,62,12
69,9,63
70,63,11
71,10,64
72,64,12
73,13,65
74,65,14
75,15,66
76,66,16
77,13,67
78,67,15
79,14,68
80,68,16
81,17,69
82,69,18
83,19,70
84,70,20
85,17,71
86,71,19
87,18,72
88,72,20
89,21,73
90,73,22
91,23,74
92,74,24
93,21,75
94,75,23
95,22,76
96,76,24
97,1,77
98,77,7
99,3,78
100,78,5
101,2,79
102,79,8
103,4,80
104,80,6
105,1,81
106,81,6
107,2,82
108,82,5
109,3,83
110,83,8
111,4,84
112,84,7
113,5,85
114,85,11
115,7,86
116,86,9
117,6,87
118,87,12
119,8,88
120,88,10
121,5,89
122,89,10
123,6,90
124,90,9
125,7,91
126,91,12
127,8,92
128,92,11
129,9,93
130,93,15
131,11,94
132,94,13
133,10,95
134,95,16
135,12,96
136,96,14
137,9,97
138,97,14
139,10,98
140,98,13
141,11,99
142,99,16
143,12,100
144,100,15
145,13,101
146,101,19
147,15,102
148,102,17
149,14,103
150,103,20
151,16,104
152,104,18
153,13,105
154,105,18
155,14,106
156,106,17
157,15,107
158,107,20
159,16,108
160,108,19
161,17,109
162,109,23
163,19,110
164,110,21
165,18,111
166,111,24
167,20,112
168,112,22
169,17,113
170,113,22
171,18,114
172,114,21
173,19,115
174,115,24
175,20,116
176,116,23
*NSET,NSET=NALL,GENERATE
1,116,1
*NSET,NSET=LEFT
1,2,3,4
*NSET,NSET=RIGHT
21,22,23,24
*MATERIAL,NAME=STEEL
*ELASTIC
2.100000000000e+11,0.300000000000
*BEAM SECTION,ELSET=ALL,MATERIAL=STEEL,SECTION=RECT
6.000000000000e-02,4.000000000000e-02
0.371390676354,0.557086014531,0.742781352708
*BOUNDARY
LEFT,1,6,0.0
*STEP
*STATIC
*BOUNDARY
21,1,1,5.000000000000e-03
21,2,2,0.0
21,3,3,-6.000000000000e-03
*BOUNDARY
22,1,1,5.000000000000e-03
22,2,2,0.0
22,3,3,6.000000000000e-03
*BOUNDARY
23,1,1,-5.000000000000e-03
23,2,2,0.0
23,3,3,-6.000000000000e-03
*BOUNDARY
24,1,1,-5.000000000000e-03
24,2,2,0.0
24,3,3,6.000000000000e-03
*NODE FILE,NSET=NALL
U
*NODE PRINT,NSET=NALL
U
*NODE PRINT,NSET=RIGHT
RF
*EL PRINT,ELSET=ALL,TOTALS=YES
ELSE
*END STEP
