*HEADING
G01 S-LIN gmsh C3D10 Dörfler zz cycle 1 C3D10
units: mm, N, s, MPa, t. Illustrative steel, not a coupon card.
beam=G01 case=S-LIN job=g01_slin_zz_c1 type=C3D10
E=210000.0 nu=0.3 fy=235.0 load=-5000.0 N on TIP_TOP
*NODE, NSET=NALL
1, 0, -120, 160
2, 0, -120, 140
3, 0, -10, 140
4, 0, -10, 0
5, 0, 10, 0
6, 0, 10, 140
7, 0, 120, 140
8, 0, 120, 160
9, 2000, -120, 140
10, 2000, -120, 160
11, 2000, 120, 160
12, 2000, 120, 140
13, 2000, -10, 140
14, 2000, 10, 140
15, 2000, -10, 0
16, 2000, 10, 0
17, 0, -120, 150
18, 0, -65, 140
19, 0, -10, 43.9862034065
20, 0, -10, 88.0383213772
21, 0, -10, 21.9931017032
22, 0, -10, 66.0122623918
23, 0, -10, 114.019160689
24, 0, 0, 0
25, 0, 10, 43.9862034065
26, 0, 10, 88.0383213772
27, 0, 10, 21.9931017032
28, 0, 10, 66.0122623918
29, 0, 10, 114.019160689
30, 0, 65, 140
31, 0, 120, 150
32, 0, -40, 160
33, 0, 40, 160
34, 0, -80, 160
35, 0, 8.52651282912e-14, 160
36, 0, 80, 160
37, 73.8012688022, -120, 140
38, 129.367627067, -120, 140
39, 182.988143295, -120, 140
40, 236.647603379, -120, 140
41, 301.654415031, -120, 140
42, 391.759977963, -120, 140
43, 498.886699821, -120, 140
44, 606.127732277, -120, 140
45, 713.368764734, -120, 140
46, 820.60979719, -120, 140
47, 927.850829646, -120, 140
48, 1035.0918621, -120, 140
49, 1142.33289456, -120, 140
50, 1249.57392701, -120, 140
51, 1356.81495947, -120, 140
52, 1464.05599193, -120, 140
53, 1571.29702438, -120, 140
54, 1678.53805684, -120, 140
55, 1785.77908929, -120, 140
56, 1893.02012175, -120, 140
57, 36.9006344011, -120, 140
58, 101.584447934, -120, 140
59, 156.177885181, -120, 140
60, 209.817873337, -120, 140
61, 269.151009205, -120, 140
62, 346.707196497, -120, 140
63, 445.323338892, -120, 140
64, 552.507216049, -120, 140
65, 659.748248505, -120, 140
66, 766.989280962, -120, 140
67, 874.230313418, -120, 140
68, 981.471345874, -120, 140
69, 1088.71237833, -120, 140
70, 1195.95341079, -120, 140
71, 1303.19444324, -120, 140
72, 1410.4354757, -120, 140
73, 1517.67650815, -120, 140
74, 1624.91754061, -120, 140
75, 1732.15857307, -120, 140
76, 1839.39960552, -120, 140
77, 1946.51006088, -120, 140
78, 2000, -120, 150
79, 73.4475678801, -120, 160
80, 128.914344134, -120, 160
81, 182.591351837, -120, 160
82, 236.277446949, -120, 160
83, 300.622690421, -120, 160
84, 389.884791579, -120, 160
85, 497.043784315, -120, 160
86, 604.397799721, -120, 160
87, 711.751815127, -120, 160
88, 819.105830533, -120, 160
89, 926.459845939, -120, 160
90, 1033.81386135, -120, 160
91, 1141.16787675, -120, 160
92, 1248.52189216, -120, 160
93, 1355.87590756, -120, 160
94, 1463.22992297, -120, 160
95, 1570.58393838, -120, 160
96, 1677.93795378, -120, 160
97, 1785.29196919, -120, 160
98, 1892.64598459, -120, 160
99, 36.7237839401, -120, 160
100, 101.180956007, -120, 160
101, 155.752847986, -120, 160
102, 209.434399393, -120, 160
103, 268.450068685, -120, 160
104, 345.253741, -120, 160
105, 443.464287947, -120, 160
106, 550.720792018, -120, 160
107, 658.074807424, -120, 160
108, 765.42882283, -120, 160
109, 872.782838236, -120, 160
110, 980.136853642, -120, 160
111, 1087.49086905, -120, 160
112, 1194.84488445, -120, 160
113, 1302.19889986, -120, 160
114, 1409.55291527, -120, 160
115, 1516.90693067, -120, 160
116, 1624.26094608, -120, 160
117, 1731.61496148, -120, 160
118, 1838.96897689, -120, 160
119, 1946.3229923, -120, 160
120, 73.4475678801, 120, 160
121, 128.914344134, 120, 160
122, 182.591351837, 120, 160
123, 236.277446949, 120, 160
124, 300.622690421, 120, 160
125, 389.884791579, 120, 160
126, 497.043784315, 120, 160
127, 604.397799721, 120, 160
128, 711.751815127, 120, 160
129, 819.105830533, 120, 160
130, 926.459845939, 120, 160
131, 1033.81386135, 120, 160
132, 1141.16787675, 120, 160
133, 1248.52189216, 120, 160
134, 1355.87590756, 120, 160
135, 1463.22992297, 120, 160
136, 1570.58393838, 120, 160
137, 1677.93795378, 120, 160
138, 1785.29196919, 120, 160
139, 1892.64598459, 120, 160
140, 36.7237839401, 120, 160
141, 101.180956007, 120, 160
142, 155.752847986, 120, 160
143, 209.434399393, 120, 160
144, 268.450068685, 120, 160
145, 345.253741, 120, 160
146, 443.464287947, 120, 160
147, 550.720792018, 120, 160
148, 658.074807424, 120, 160
149, 765.42882283, 120, 160
150, 872.782838236, 120, 160
151, 980.136853642, 120, 160
152, 1087.49086905, 120, 160
153, 1194.84488445, 120, 160
154, 1302.19889986, 120, 160
155, 1409.55291527, 120, 160
156, 1516.90693067, 120, 160
157, 1624.26094608, 120, 160
158, 1731.61496148, 120, 160
159, 1838.96897689, 120, 160
160, 1946.3229923, 120, 160
161, 2000, -67.1207386997, 160
162, 2000, -22.3532111597, 160
163, 2000, 22.3532111597, 160
164, 2000, 67.1207386997, 160
165, 2000, -93.5603693499, 160
166, 2000, -44.7369749297, 160
167, 2000, 5.68434188608e-14, 160
168, 2000, 44.7369749297, 160
169, 2000, 93.5603693499, 160
170, 73.8012688022, 120, 140
171, 129.367627067, 120, 140
172, 182.988143295, 120, 140
173, 236.647603379, 120, 140
174, 301.654415031, 120, 140
175, 391.759977963, 120, 140
176, 498.886699821, 120, 140
177, 606.127732277, 120, 140
178, 713.368764734, 120, 140
179, 820.60979719, 120, 140
180, 927.850829646, 120, 140
181, 1035.0918621, 120, 140
182, 1142.33289456, 120, 140
183, 1249.57392701, 120, 140
184, 1356.81495947, 120, 140
185, 1464.05599193, 120, 140
186, 1571.29702438, 120, 140
187, 1678.53805684, 120, 140
188, 1785.77908929, 120, 140
189, 1893.02012175, 120, 140
190, 36.9006344011, 120, 140
191, 101.584447934, 120, 140
192, 156.177885181, 120, 140
193, 209.817873337, 120, 140
194, 269.151009205, 120, 140
195, 346.707196497, 120, 140
196, 445.323338892, 120, 140
197, 552.507216049, 120, 140
198, 659.748248505, 120, 140
199, 766.989280962, 120, 140
200, 874.230313418, 120, 140
201, 981.471345874, 120, 140
202, 1088.71237833, 120, 140
203, 1195.95341079, 120, 140
204, 1303.19444324, 120, 140
205, 1410.4354757, 120, 140
206, 1517.67650815, 120, 140
207, 1624.91754061, 120, 140
208, 1732.15857307, 120, 140
209, 1839.39960552, 120, 140
210, 1946.51006088, 120, 140
211, 2000, 120, 150
212, 75.5262847151, -10, 140
213, 132.524836132, -10, 140
214, 187.997345354, -10, 140
215, 243.72180753, -10, 140
216, 313.57754945, -10, 140
217, 411.32646467, -10, 140
218, 522.271483113, -10, 140
219, 633.216501556, -10, 140
220, 744.161519998, -10, 140
221, 855.106538441, -10, 140
222, 966.051556884, -10, 140
223, 1076.99657533, -10, 140
224, 1187.94159377, -10, 140
225, 1298.88661221, -10, 140
226, 1409.83163065, -10, 140
227, 1520.7766491, -10, 140
228, 1631.72166754, -10, 140
229, 1741.24985614, -10, 140
230, 1827.35892478, -10, 140
231, 1889.05498156, -10, 140
232, 1944.52749078, -10, 140
233, 37.7631423576, -10, 140
234, 104.025560424, -10, 140
235, 160.261090743, -10, 140
236, 215.859576442, -10, 140
237, 278.64967849, -10, 140
238, 362.45200706, -10, 140
239, 466.798973892, -10, 140
240, 577.743992334, -10, 140
241, 688.689010777, -10, 140
242, 799.63402922, -10, 140
243, 910.579047662, -10, 140
244, 1021.5240661, -10, 140
245, 1132.46908455, -10, 140
246, 1243.41410299, -10, 140
247, 1354.35912143, -10, 140
248, 1465.30413988, -10, 140
249, 1576.24915832, -10, 140
250, 1686.48576184, -10, 140
251, 1784.30439046, -10, 140
252, 1858.20695317, -10, 140
253, 1916.79123617, -10, 140
254, 1972.26374539, -10, 140
255, 2000, -61.20269904, 140
256, 2000, -90.60134952, 140
257, 2000, -35.60134952, 140
258, 2000, 61.20269904, 140
259, 2000, 35.60134952, 140
260, 2000, 90.60134952, 140
261, 75.8760518254, 10, 140
262, 132.956016753, 10, 140
263, 188.370727824, 10, 140
264, 244.146864482, 10, 140
265, 314.700227155, 10, 140
266, 413.17600548, 10, 140
267, 524.005427622, 10, 140
268, 634.834849764, 10, 140
269, 745.664271906, 10, 140
270, 856.493694049, 10, 140
271, 967.323116191, 10, 140
272, 1078.15253833, 10, 140
273, 1188.98196047, 10, 140
274, 1299.81138262, 10, 140
275, 1410.64080476, 10, 140
276, 1521.4702269, 10, 140
277, 1632.29964904, 10, 140
278, 1741.67179784, 10, 140
279, 1827.59199853, 10, 140
280, 1889.17057786, 10, 140
281, 1944.58528893, 10, 140
282, 37.9380259127, 10, 140
283, 104.416034289, 10, 140
284, 160.663372288, 10, 140
285, 216.258796153, 10, 140
286, 279.423545818, 10, 140
287, 363.938116318, 10, 140
288, 468.590716551, 10, 140
289, 579.420138693, 10, 140
290, 690.249560835, 10, 140
291, 801.078982978, 10, 140
292, 911.90840512, 10, 140
293, 1022.73782726, 10, 140
294, 1133.5672494, 10, 140
295, 1244.39667155, 10, 140
296, 1355.22609369, 10, 140
297, 1466.05551583, 10, 140
298, 1576.88493797, 10, 140
299, 1686.98572344, 10, 140
300, 1784.63189818, 10, 140
301, 1858.38128819, 10, 140
302, 1916.87793339, 10, 140
303, 1972.29264446, 10, 140
304, 2000, -10, 56.6647554519
305, 2000, -10, 101.362023377
306, 2000, -10, 28.332377726
307, 2000, -10, 79.0133894146
308, 2000, -10, 120.681011689
309, 2000, 0, 0
310, 2000, 10, 56.6647554519
311, 2000, 10, 101.362023377
312, 2000, 10, 28.332377726
313, 2000, 10, 79.0133894146
314, 2000, 10, 120.681011689
315, 54.8910561743, -10, 0
316, 109.782112349, -10, 0
317, 164.673168523, -10, 0
318, 219.564224697, -10, 0
319, 274.455280872, -10, 0
320, 329.346337046, -10, 0
321, 384.23739322, -10, 0
322, 439.128449395, -10, 0
323, 494.019505569, -10, 0
324, 548.910561743, -10, 0
325, 603.801617918, -10, 0
326, 658.692674092, -10, 0
327, 713.583730266, -10, 0
328, 768.474786441, -10, 0
329, 823.365842615, -10, 0
330, 878.256898789, -10, 0
331, 936.51634095, -10, 0
332, 1015.93042474, -10, 0
333, 1121.74310121, -10, 0
334, 1231.52521356, -10, 0
335, 1341.30732591, -10, 0
336, 1451.08943826, -10, 0
337, 1560.87155061, -10, 0
338, 1670.65366295, -10, 0
339, 1780.4357753, -10, 0
340, 1890.21788765, -10, 0
341, 27.4455280872, -10, 0
342, 82.3365842615, -10, 0
343, 137.227640436, -10, 0
344, 192.11869661, -10, 0
345, 247.009752785, -10, 0
346, 301.900808959, -10, 0
347, 356.791865133, -10, 0
348, 411.682921308, -10, 0
349, 466.573977482, -10, 0
350, 521.465033656, -10, 0
351, 576.356089831, -10, 0
352, 631.247146005, -10, 0
353, 686.138202179, -10, 0
354, 741.029258354, -10, 0
355, 795.920314528, -10, 0
356, 850.811370702, -10, 0
357, 907.38661987, -10, 0
358, 976.223382845, -10, 0
359, 1068.83676298, -10, 0
360, 1176.63415738, -10, 0
361, 1286.41626973, -10, 0
362, 1396.19838208, -10, 0
363, 1505.98049443, -10, 0
364, 1615.76260678, -10, 0
365, 1725.54471913, -10, 0
366, 1835.32683148, -10, 0
367, 1945.10894383, -10, 0
368, 54.8910561743, 10, 0
369, 109.782112349, 10, 0
370, 164.673168523, 10, 0
371, 219.564224697, 10, 0
372, 274.455280872, 10, 0
373, 329.346337046, 10, 0
374, 384.23739322, 10, 0
375, 439.128449395, 10, 0
376, 494.019505569, 10, 0
377, 548.910561743, 10, 0
378, 603.801617918, 10, 0
379, 658.692674092, 10, 0
380, 713.583730266, 10, 0
381, 768.474786441, 10, 0
382, 823.365842615, 10, 0
383, 878.256898789, 10, 0
384, 936.51634095, 10, 0
385, 1015.93042474, 10, 0
386, 1121.74310121, 10, 0
387, 1231.52521356, 10, 0
388, 1341.30732591, 10, 0
389, 1451.08943826, 10, 0
390, 1560.87155061, 10, 0
391, 1670.65366295, 10, 0
392, 1780.4357753, 10, 0
393, 1890.21788765, 10, 0
394, 27.4455280872, 10, 0
395, 82.3365842615, 10, 0
396, 137.227640436, 10, 0
397, 192.11869661, 10, 0
398, 247.009752785, 10, 0
399, 301.900808959, 10, 0
400, 356.791865133, 10, 0
401, 411.682921308, 10, 0
402, 466.573977482, 10, 0
403, 521.465033656, 10, 0
404, 576.356089831, 10, 0
405, 631.247146005, 10, 0
406, 686.138202179, 10, 0
407, 741.029258354, 10, 0
408, 795.920314528, 10, 0
409, 850.811370702, 10, 0
410, 907.38661987, 10, 0
411, 976.223382845, 10, 0
412, 1068.83676298, 10, 0
413, 1176.63415738, 10, 0
414, 1286.41626973, 10, 0
415, 1396.19838208, 10, 0
416, 1505.98049443, 10, 0
417, 1615.76260678, 10, 0
418, 1725.54471913, 10, 0
419, 1835.32683148, 10, 0
420, 1945.10894383, 10, 0
421, 0, 0, 21.9931017032
422, 0, 0, 66.0122623918
423, 0, 0, 140
424, 0, 0, 114.019160689
425, 0, 0, 43.9862034065
426, 0, 5, 32.9896525549
427, 0, -5, 32.9896525549
428, 0, 0, 88.0383213772
429, 0, 5, 77.0252918845
430, 0, -5, 77.0252918845
431, 0, -5, 54.9992328992
432, 0, 5, 54.9992328992
433, 0, -5, 10.9965508516
434, 0, 5, 10.9965508516
435, 0, -25, 150
436, 0, -80, 150
437, 0, -15, 150
438, 0, 80, 150
439, 0, 25, 150
440, 36.7237839401, -120, 150
441, 73.6244183412, -120, 150
442, 1946.51006088, -120, 150
443, 1892.83305317, -120, 150
444, 129.140985601, -120, 150
445, 101.357806468, -120, 150
446, 182.789747566, -120, 150
447, 155.979489452, -120, 150
448, 236.462525164, -120, 150
449, 209.632795122, -120, 150
450, 301.138552726, -120, 150
451, 268.6351469, -120, 150
452, 345.769603305, -120, 150
453, 390.822384771, -120, 150
454, 497.965242068, -120, 150
455, 444.401881139, -120, 150
456, 605.262765999, -120, 150
457, 551.642249771, -120, 150
458, 712.56028993, -120, 150
459, 658.939773702, -120, 150
460, 819.857813862, -120, 150
461, 766.237297633, -120, 150
462, 927.155337793, -120, 150
463, 873.534821565, -120, 150
464, 980.832345496, -120, 150
465, 1034.45286172, -120, 150
466, 1088.12986943, -120, 150
467, 1141.75038565, -120, 150
468, 1195.42739336, -120, 150
469, 1249.04790959, -120, 150
470, 1302.72491729, -120, 150
471, 1356.34543352, -120, 150
472, 1463.64295745, -120, 150
473, 1410.02244122, -120, 150
474, 1517.31996515, -120, 150
475, 1570.94048138, -120, 150
476, 1624.61748908, -120, 150
477, 1678.23800531, -120, 150
478, 1731.91501301, -120, 150
479, 1785.53552924, -120, 150
480, 1839.21253694, -120, 150
481, 155.603125099, 73.5084793091, 160
482, 272.453052334, -62.6954351729, 160
483, 1955.91687087, -2.61085831991, 160
484, 155.635207167, -73.1696396508, 160
485, 429.346014378, -27.1665906412, 160
486, 69.0060416987, -0.0436879164728, 160
487, 1830.83880491, -30.9038971899, 160
488, 271.30934272, 64.7390584986, 160
489, 1302.19889986, -27.0286954601, 160
490, 1624.26094608, -27.0286954601, 160
491, 980.136853642, 27.0286954601, 160
492, 658.074807424, -27.0286954601, 160
493, 550.720792018, 27.1131427532, 160
494, 1731.61496148, 27.0286954601, 160
495, 1391.66057937, 40, 160
496, 872.782838236, -27.0286954601, 160
497, 765.42882283, 27.0286954601, 160
498, 1194.84488445, 27.0286954601, 160
499, 1087.49086905, -27.0286954601, 160
500, 101.101863067, -71.9589165897, 160
501, 100.936637511, 71.8781082926, 160
502, 209.434399393, -73.5117244212, 160
503, 180.01561013, -23.9074796918, 160
504, 209.434399393, 73.5117244212, 160
505, 1514.35088269, 28.0982132832, 160
506, 128.908490273, -26.9979695934, 160
507, 131.555938024, 24.4792167869, 160
508, 182.5913848, 27.6979626972, 160
509, 230.703851096, 1.14862276894, 160
510, 1958.06189843, -61.6832458411, 160
511, 1958.01869737, 45.6332358764, 160
512, 1900.29263217, 17.7059063141, 160
513, 1843.14804336, 54.7033180209, 160
514, 314.77887939, -2.85408863649, 160
515, 46.1042888512, -71.9570949876, 160
516, 45.5768991975, 71.8720027022, 160
517, 442.449824658, 60.7512122994, 160
518, 1902.63021991, -38.5553928657, 160
519, 358.065257191, 55.9115985867, 160
520, 341.41708562, -66.5432228901, 160
521, 550.720792018, -56.235963478, 160
522, 1516.39572108, -59.0428587469, 160
523, 1087.49086905, 56.2838115576, 160
524, 980.136853642, -56.2838115576, 160
525, 1624.26094608, 56.2838115576, 160
526, 1194.84488445, -56.2838115576, 160
527, 658.074807424, 56.2838115576, 160
528, 872.782838236, 56.2838115576, 160
529, 1298.62043268, 56, 160
530, 1731.61496148, -56.2838115576, 160
531, 1416.89937972, -49.504089753, 160
532, 765.42882283, -56.2838115576, 160
533, 1910.98699979, 65.6480126884, 160
534, 1952.33033635, 83.6803974529, 160
535, 1930.34605917, -50.1193193534, 160
536, 1897.63810225, -79.2776964328, 160
537, 1925.35394151, -90.8416229205, 160
538, 220.069125245, -36.1815508261, 160
539, 205.359730613, -11.3794284614, 160
540, 194.725004761, -48.7096020565, 160
541, 206.647617948, 14.4232927331, 160
542, 220.069125245, 37.3301735951, 160
543, 196.012892096, 50.6048435592, 160
544, 155.785774077, 0.285868547546, 160
545, 130.232214148, -1.25937640323, 160
546, 154.462050201, -25.4527246426, 160
547, 181.303497465, 1.89524150267, 160
548, 157.073661412, 26.0885897421, 160
549, 1901.46142604, -10.4247432758, 160
550, 1929.27354539, -20.5831255928, 160
551, 1928.10475152, 7.54752399711, 160
552, 1956.98938465, -32.1470520805, 160
553, 393.705635784, 14.3725039728, 160
554, 336.42206829, 26.5287549751, 160
555, 372.062446884, -15.0103396388, 160
556, 400.257540924, 58.3314054431, 160
557, 435.897919518, 16.7923108291, 160
558, 328.097982505, -34.6986557633, 160
559, 385.381549999, -46.8549067657, 160
560, 1465.6251312, -10.7029382349, 160
561, 1466.6475504, -54.27347425, 160
562, 1515.37330188, -15.4723227319, 160
563, 1404.27997954, -4.75204487652, 160
564, 1453.00573103, 34.0491066416, 160
565, 1866.73451241, -34.7296450278, 160
566, 1865.56571854, -6.59899543788, 160
567, 1861.74239475, -75.4519485949, 160
568, 1905.63981598, 41.6769595012, 160
569, 1877.06752158, 60.1756653546, 160
570, 1871.72033776, 36.2046121675, 160
571, 463.194899346, -73.5832953206, 160
572, 409.615402978, -73.5832953206, 160
573, 87.1921026956, 95.9390541463, 160
574, 114.925490823, 95.9390541463, 160
575, 115.008103601, -95.9794582948, 160
576, 87.2747154734, -95.9794582948, 160
577, 251.578451715, -30.773406202, 160
578, 240.943725864, -68.103579797, 160
579, 496.585308338, 43.9321775263, 160
580, 490.033403198, -0.02672394401, 160
581, 523.882288167, 73.5565713766, 160
582, 577.55929587, 73.5565713766, 160
583, 222.855923171, -96.7558622106, 160
584, 196.012875615, -96.7558622106, 160
585, 196.012875615, 96.7558622106, 160
586, 222.855923171, 96.7558622106, 160
587, 1373.76824346, 80, 160
588, 1427.44525117, 80, 160
589, 1704.77645763, 73.51434773, 160
590, 1758.45346534, 73.51434773, 160
591, 684.913311276, -73.51434773, 160
592, 631.236303573, -73.51434773, 160
593, 142.258734617, 96.7542396546, 160
594, 169.097238468, 96.7542396546, 160
595, 1808.06538705, -75.4519485949, 160
596, 1168.0063806, 73.51434773, 160
597, 1221.68338831, 73.51434773, 160
598, 899.621342088, -73.51434773, 160
599, 845.944334385, -73.51434773, 160
600, 738.590318979, 73.51434773, 160
601, 792.267326682, 73.51434773, 160
602, 169.113279502, -96.5848198254, 160
603, 142.274775651, -96.5848198254, 160
604, 1114.3293729, -73.51434773, 160
605, 1060.6523652, -73.51434773, 160
606, 953.298349791, 73.51434773, 160
607, 1006.97535749, 73.51434773, 160
608, 1329.03740371, -73.51434773, 160
609, 1275.36039601, -73.51434773, 160
610, 1651.09944993, -73.51434773, 160
611, 1597.42244223, -73.51434773, 160
612, 1488.79040283, 74.0491066416, 160
613, 1542.46741053, 74.0491066416, 160
614, 128.269881305, 72.6932938009, 160
615, 128.368535117, -72.5642781202, 160
616, 490.033403198, -41.7012770596, 160
617, 550.720792018, -14.5614103624, 160
618, 167.825408648, -48.5385596713, 160
619, 182.53480328, -73.340682036, 160
620, 182.518762246, 73.5101018651, 160
621, 142.27184872, -50.0838046221, 160
622, 1836.99342414, 11.8997104155, 160
623, 1787.38150242, 40.8660067405, 160
624, 1781.2268832, -1.9376008649, 160
625, 116.246287768, 48.1786625398, 160
626, 143.579531562, 48.993848048, 160
627, 604.397799721, -41.632329469, 160
628, 604.397799721, 0.0422236465415, 160
629, 658.074807424, 14.6275580488, 160
630, 604.397799721, 41.6984771554, 160
631, 1359.54913979, -38.2663926066, 160
632, 1346.92973961, 6.48565226996, 160
633, 1345.14050602, 48, 160
634, 1300.40966627, 14.48565227, 160
635, 1677.93795378, 41.6562535089, 160
636, 1624.26094608, 14.6275580488, 160
637, 1677.93795378, -5.68434188608e-14, 160
638, 1731.61496148, -14.6275580488, 160
639, 1781.2268832, -43.5938543738, 160
640, 1677.93795378, -41.6562535089, 160
641, 926.459845939, 41.6562535089, 160
642, 872.782838236, 14.6275580488, 160
643, 926.459845939, 5.68434188608e-14, 160
644, 980.136853642, -14.6275580488, 160
645, 1033.81386135, -41.6562535089, 160
646, 1033.81386135, 5.68434188608e-14, 160
647, 1194.84488445, -14.6275580488, 160
648, 1248.52189216, -41.6562535089, 160
649, 1248.52189216, -5.68434188608e-14, 160
650, 1087.49086905, 14.6275580488, 160
651, 1033.81386135, 41.6562535089, 160
652, 765.42882283, -14.6275580488, 160
653, 819.105830533, -41.6562535089, 160
654, 819.105830533, -2.84217094304e-14, 160
655, 926.459845939, -41.6562535089, 160
656, 1246.73265857, 41.51434773, 160
657, 819.105830533, 41.6562535089, 160
658, 1141.16787675, 41.6562535089, 160
659, 1141.16787675, 0, 160
660, 711.751815127, 41.6562535089, 160
661, 711.751815127, -2.84217094304e-14, 160
662, 711.751815127, -41.6562535089, 160
663, 1570.32833358, -43.0357771035, 160
664, 1569.30591438, 0.534758911547, 160
665, 1141.16787675, -41.6562535089, 160
666, 1569.30591438, 42.1910124204, 160
667, 115.00517667, -49.4784430915, 160
668, 251.006596908, 32.9438406338, 160
669, 240.371871057, 69.1253914599, 160
670, 169.097254949, 50.6032210032, 160
671, 1976.16516818, 101.840198726, 160
672, 1976.16516818, 75.4005680763, 160
673, 1934.50284858, 55.6406242824, 160
674, 1929.15566477, 31.6695710953, 160
675, 98.9572659857, -13.5208287549, 160
676, 85.0539523827, -36.0013022531, 160
677, 100.280989861, 12.2177644352, 160
678, 84.9713396048, 35.9172101881, 160
679, 469.746804487, 90.3756061497, 160
680, 577.55929587, -88.117981739, 160
681, 1327.24817012, 88, 160
682, 1651.09944993, 88.1419057788, 160
683, 1386.38764364, -84.7520448765, 160
684, 1758.45346534, -88.1419057788, 160
685, 1006.97535749, -88.1419057788, 160
686, 1704.77645763, -88.1419057788, 160
687, 899.621342088, 88.1419057788, 160
688, 1221.68338831, -88.1419057788, 160
689, 953.298349791, -88.1419057788, 160
690, 792.267326682, -88.1419057788, 160
691, 684.913311276, 88.1419057788, 160
692, 1060.6523652, 88.1419057788, 160
693, 1273.57116242, 88, 160
694, 738.590318979, -88.1419057788, 160
695, 845.944334385, 88.1419057788, 160
696, 1114.3293729, 88.1419057788, 160
697, 1168.0063806, -88.1419057788, 160
698, 1543.48982973, -89.5214293735, 160
699, 1597.42244223, 88.1419057788, 160
700, 631.236303573, 88.1419057788, 160
701, 1814.22000628, 87.3516590104, 160
702, 416.167308118, 90.3756061497, 160
703, 1979.00934869, 56.3769872881, 160
704, 1979.00934869, 33.993223518, 160
705, 1979.03094921, -42.0182285004, 160
706, 1979.03094921, -64.4019922704, 160
707, 1977.95843543, 9.87117641987, 160
708, 1977.95843543, -12.4820347398, 160
709, 1956.96778412, 21.5111887782, 160
710, 523.882288167, -88.117981739, 160
711, 365.650938599, -93.2716114451, 160
712, 329.343973806, 87.9557992934, 160
713, 373.975024385, 87.9557992934, 160
714, 321.01988802, -93.2716114451, 160
715, 1931.65866807, 74.6642050706, 160
716, 1922.48816047, 101.840198726, 160
717, 1901.81649219, 92.8240063442, 160
718, 34.5030208493, -20.0218439582, 160
719, 34.5030208493, 19.9781560418, 160
720, 293.615965862, -32.7747619047, 160
721, 272.741365243, -0.852732933776, 160
722, 1489.81282202, -89.5214293735, 160
723, 1440.06465134, -84.7520448765, 160
724, 293.044111055, 30.9424849311, 160
725, 1867.89701398, 87.3516590104, 160
726, 1955.17451686, 64.6568166646, 160
727, 59.7759283657, -95.9785474938, 160
728, 23.0521444256, -95.9785474938, 160
729, 22.7884495987, 95.9360013511, 160
730, 59.5122335388, 95.9360013511, 160
731, 253.793394834, 92.3695292493, 160
732, 285.96601657, 92.3695292493, 160
733, 286.537871377, -91.3477175864, 160
734, 254.365249641, -91.3477175864, 160
735, 23.0521444256, -55.9785474938, 160
736, 22.7884495987, 55.9360013511, 160
737, 73.2567683542, 71.8750554974, 160
738, 57.2914704481, 35.9141573929, 160
739, 57.555165275, -36.000391452, 160
740, 73.603075959, -71.9580057886, 160
741, 314.687299955, 60.3253285427, 160
742, 306.935068977, -64.6193290315, 160
743, 1979.03094921, -90.8416229205, 160
744, 36.7237839401, 120, 150
745, 73.6244183412, 120, 150
746, 1946.51006088, 120, 150
747, 1892.83305317, 120, 150
748, 101.357806468, 120, 150
749, 155.979489452, 120, 150
750, 129.140985601, 120, 150
751, 209.632795122, 120, 150
752, 182.789747566, 120, 150
753, 268.6351469, 120, 150
754, 236.462525164, 120, 150
755, 345.769603305, 120, 150
756, 301.138552726, 120, 150
757, 444.401881139, 120, 150
758, 390.822384771, 120, 150
759, 551.642249771, 120, 150
760, 497.965242068, 120, 150
761, 605.262765999, 120, 150
762, 658.939773702, 120, 150
763, 712.56028993, 120, 150
764, 766.237297633, 120, 150
765, 873.534821565, 120, 150
766, 819.857813862, 120, 150
767, 980.832345496, 120, 150
768, 927.155337793, 120, 150
769, 1088.12986943, 120, 150
770, 1034.45286172, 120, 150
771, 1195.42739336, 120, 150
772, 1141.75038565, 120, 150
773, 1302.72491729, 120, 150
774, 1249.04790959, 120, 150
775, 1410.02244122, 120, 150
776, 1356.34543352, 120, 150
777, 1517.31996515, 120, 150
778, 1463.64295745, 120, 150
779, 1624.61748908, 120, 150
780, 1570.94048138, 120, 150
781, 1731.91501301, 120, 150
782, 1678.23800531, 120, 150
783, 1839.21253694, 120, 150
784, 1785.53552924, 120, 150
785, 158.298007164, -66.0744856384, 140
786, 213.583053529, -64.25580216, 140
787, 273.955885431, -62.5837132273, 140
788, 50.2318565445, -66.6288644957, 140
789, 103.291646737, -65.4505583557, 140
790, 356.266271906, -65.8951993085, 140
791, 1861.92623258, -61.3182349893, 140
792, 1939.29941097, -74.3397857298, 140
793, 1782.36052802, -59.382710406, 140
794, 445.323338892, -72.7874826236, 140
795, 1916.79123617, -39.02735394, 140
796, 1962.05109588, -41.6452944363, 140
797, 173.147676259, -38.0372428192, 140
798, 145.411421648, -38.0372428192, 140
799, 1709.89395649, -65, 140
800, 1655.12986219, -65, 140
801, 117.908241435, -37.7252791778, 140
802, 89.4089657263, -37.7252791778, 140
803, 25.1159282722, -38.3144322479, 140
804, 25.1159282722, -93.3144322479, 140
805, 130.794826951, -65.7625219971, 140
806, 200.790199441, -37.12790108, 140
807, 185.940530346, -65.1651438992, 140
808, 564.199607695, -65, 140
809, 510.579091467, -65, 140
810, 619.672116917, -65, 140
811, 673.292633145, -65, 140
812, 728.765142366, -65, 140
813, 198.285598412, -92.12790108, 140
814, 225.115328454, -92.12790108, 140
815, 782.385658594, -65, 140
816, 837.858167815, -65, 140
817, 1761.80519208, -34.691355203, 140
818, 1730.44929243, -89.691355203, 140
819, 891.478684043, -65, 140
820, 946.951193265, -65, 140
821, 1000.57170949, -65, 140
822, 1056.04421871, -65, 140
823, 1601.50934596, -65, 140
824, 1546.03683674, -65, 140
825, 170.643075229, -93.0372428192, 140
826, 1165.13724416, -65, 140
827, 1109.66473494, -65, 140
828, 1274.23026961, -65, 140
829, 1218.75776039, -65, 140
830, 1383.32329506, -65, 140
831, 1327.85078584, -65, 140
832, 1492.41632051, -65, 140
833, 1436.94381129, -65, 140
834, 1969.64970549, -67.7712423849, 140
835, 1950.67525343, -57.992540083, 140
836, 1981.02554794, -51.4239967381, 140
837, 228.65243053, -37.12790108, 140
838, 88.5464577698, -92.7252791778, 140
839, 116.329636902, -92.7252791778, 140
840, 143.832817115, -93.0372428192, 140
841, 1784.06980866, -89.691355203, 140
842, 1900.61282178, -67.8290103596, 140
843, 1889.35873437, -50.1727944647, 140
844, 1928.04532357, -56.6835698349, 140
845, 383.796368288, -37.9475996542, 140
846, 334.921910678, -37.9475996542, 140
847, 483.797411002, -41.3937413118, 140
848, 428.324901781, -41.3937413118, 140
849, 1981.02554794, -25.8226472181, 140
850, 1953.28929333, -25.8226472181, 140
851, 418.541658427, -96.3937413118, 140
852, 472.105019357, -96.3937413118, 140
853, 62.8790706298, -38.3144322479, 140
854, 76.7617516409, -66.0397114257, 140
855, 328.960343468, -92.9475996542, 140
856, 374.013124934, -92.9475996542, 140
857, 1823.85266094, -90.6591174947, 140
858, 1877.47317716, -90.6591174947, 140
859, 255.301744405, -91.2918566137, 140
860, 287.805150231, -91.2918566137, 140
861, 1804.8597264, -34.691355203, 140
862, 1930.65936347, -24.51367697, 140
863, 1902.92310886, -24.51367697, 140
864, 62.0165626733, -93.3144322479, 140
865, 243.76946948, -63.4197576937, 140
866, 400.794805399, -69.3413409661, 140
867, 293.766717441, -36.2918566137, 140
868, 258.838846481, -36.2918566137, 140
869, 1875.49060707, -35.6591174947, 140
870, 1844.64257868, -35.6591174947, 140
871, 1916.15976636, -97.1698928649, 140
872, 1939.42116602, -40.3363241881, 140
873, 1822.1433803, -60.3504726976, 140
874, 315.111078669, -64.2394562679, 140
875, 1969.64970549, -97.1698928649, 140
876, 158.401394813, 66.0823430127, 140
877, 213.762955676, 64.3013099487, 140
878, 275.056483673, 63.9538246898, 140
879, 50.2523537124, 66.6003109141, 140
880, 103.442452162, 65.4471089878, 140
881, 356.945074699, 66.2162303184, 140
882, 1862.0348045, 61.31950766, 140
883, 1939.33271668, 74.3396960137, 140
884, 1782.62433667, 59.4037885257, 140
885, 1916.87793339, 39.0084689926, 140
886, 1962.07147481, 41.651721012, 140
887, 445.323338892, 73.3435572208, 140
888, 145.678705783, 38.0411715063, 140
889, 173.386061318, 38.0411715063, 140
890, 1655.41885294, 65, 140
891, 1710.10492734, 65, 140
892, 89.6592519937, 37.7235544939, 140
893, 118.199234457, 37.7235544939, 140
894, 130.921923488, 65.7647260002, 140
895, 25.1261768562, 93.3001554571, 140
896, 25.1261768562, 38.3001554571, 140
897, 186.082175245, 65.1918264807, 140
898, 201.06684175, 37.1506549743, 140
899, 565.06657995, 65, 140
900, 511.446063722, 65, 140
901, 620.481291021, 65, 140
902, 674.101807249, 65, 140
903, 729.51651832, 65, 140
904, 225.205279528, 92.1506549743, 140
905, 198.375549486, 92.1506549743, 140
906, 783.137034548, 65, 140
907, 1730.58119676, 89.7018942629, 140
908, 1762.14806725, 34.7018942629, 140
909, 838.551745619, 65, 140
910, 892.172261847, 65, 140
911, 947.586972918, 65, 140
912, 1001.20748915, 65, 140
913, 1056.62220022, 65, 140
914, 1546.38362564, 65, 140
915, 1601.79833671, 65, 140
916, 170.694769054, 93.0411715063, 140
917, 1110.24271645, 65, 140
918, 1165.65742752, 65, 140
919, 1219.27794374, 65, 140
920, 1274.69265482, 65, 140
921, 1437.34839834, 65, 140
922, 1492.76310941, 65, 140
923, 1328.31317104, 65, 140
924, 1383.72788211, 65, 140
925, 1969.66635834, 67.7711975269, 140
926, 1981.03573741, 51.427210026, 140
927, 1950.70209575, 57.9957085128, 140
928, 228.954910079, 37.1506549743, 140
929, 116.405039614, 92.7235544939, 140
930, 88.6218604821, 92.7235544939, 140
931, 143.88451094, 93.0411715063, 140
932, 1784.20171298, 89.7018942629, 140
933, 1900.68376059, 67.8296018368, 140
934, 1928.10532504, 56.6740825031, 140
935, 1889.45636895, 50.1639883263, 140
936, 335.822650927, 38.1081151592, 140
937, 385.06054009, 38.1081151592, 140
938, 429.249672186, 41.6717786104, 140
939, 484.664383257, 41.6717786104, 140
940, 1953.32838187, 25.825860506, 140
941, 1981.03573741, 25.825860506, 140
942, 472.105019357, 96.6717786104, 140
943, 418.541658427, 96.6717786104, 140
944, 63.0642027689, 38.3001554571, 140
945, 76.8474029372, 66.023709951, 140
946, 1877.52746313, 90.65975383, 140
947, 1823.9069469, 90.65975383, 140
948, 374.352526331, 93.1081151592, 140
949, 329.299744865, 93.1081151592, 140
950, 288.355449352, 91.9769123449, 140
951, 255.852043526, 91.9769123449, 140
952, 1903.02425563, 24.5042344963, 140
953, 1930.73161116, 24.5042344963, 140
954, 1805.1081676, 34.7018942629, 140
955, 62.0268112573, 93.3001554571, 140
956, 244.409719675, 64.1275673193, 140
957, 401.134206796, 69.7798937696, 140
958, 259.601674077, 36.9769123449, 140
959, 294.878355414, 36.9769123449, 140
960, 1844.81340152, 35.65975383, 140
961, 1875.60269118, 35.65975383, 140
962, 1916.17641922, 97.1698480069, 140
963, 1939.4747041, 40.3300950023, 140
964, 1822.32957059, 60.3616480928, 140
965, 316.000779186, 65.0850275041, 140
966, 1969.66635834, 97.1698480069, 140
967, 2000, 0, 120.681011689
968, 2000, -5, 111.021517533
969, 2000, -5, 130.340505844
970, 2000, 5, 130.340505844
971, 2000, 5, 111.021517533
972, 2000, 0, 101.362023377
973, 2000, 0, 140
974, 2000, -93.5603693499, 150
975, 2000, -64.1617188699, 150
976, 2000, 93.5603693499, 150
977, 2000, 64.1617188699, 150
978, 2000, -16.1766055798, 150
979, 2000, -6.17660557983, 150
980, 2000, -41.7779550998, 150
981, 2000, 16.1766055798, 150
982, 2000, 41.7779550998, 150
983, 2000, 0, 28.332377726
984, 2000, 0, 56.6647554519
985, 2000, 0, 79.0133894146
986, 41.9284691883, -10, 67.0574020954
987, 135.532868818, -10, 46.1507184469
988, 1962.35134111, -10, 83.9786729687
989, 246.392311409, -10, 47.4659351586
990, 356.791865133, -10, 46.6295591847
991, 466.573977482, -10, 47.5370490875
992, 576.684315756, -10, 46.9616261522
993, 686.660245787, -10, 46.7745310434
994, 795.920314528, -10, 46.9429907704
995, 910.074310259, -10, 63.800526654
996, 1858.69498856, -10, 71.465984146
997, 741.638309229, -10, 46.3239815054
998, 411.682921308, -10, 47.1183273043
999, 301.797902063, -10, 46.6563801936
1000, 190.380540105, -10, 47.2658111863
1001, 521.65414622, -10, 46.9261619829
1002, 631.717083519, -10, 46.6144181775
1003, 850.811370702, -10, 47.5370490875
1004, 95.1247537452, -10, 92.056447144
1005, 275.11591399, -10, 93.3467906709
1006, 217.311501522, -10, 93.8563622021
1007, 160.03194969, -10, 94.1218404313
1008, 979.481879162, -10, 52.8083209823
1009, 77.4507980603, -10, 37.8762782316
1010, 1924.93237856, -10, 99.9505494011
1011, 42.5159015297, -10, 105.430434123
1012, 1778.84506132, -10, 86.2563758787
1013, 326.304124771, -10, 84.059227125
1014, 1065.53159138, -10, 61.5885061137
1015, 1686.48576184, -10, 79.8158952474
1016, 441.564391817, -10, 93.8140321382
1017, 376.874552858, -10, 91.9368576254
1018, 1966.36224209, -10, 113.058249149
1019, 1172.74469295, -10, 61.5703944445
1020, 818.037089858, -10, 94.6332460716
1021, 1594.83760344, -10, 70.5920610785
1022, 34.8540646846, -10, 29.7839767467
1023, 712.619058337, -10, 92.8229096505
1024, 762.47525839, -10, 84.1446255996
1025, 1388.44815358, -10, 63.6541049768
1026, 1278.11320626, -10, 63.745005061
1027, 1934.60484922, -10, 49.6007462161
1028, 601.9363512, -10, 93.2187580319
1029, 653.22984808, -10, 83.8861233807
1030, 500.194912075, -10, 84.3619816819
1031, 544.548241673, -10, 82.2937055698
1032, 1487.64250427, -10, 69.0410276759
1033, 21.2579507649, -10, 122.715217062
1034, 59.0210931224, -10, 122.715217062
1035, 68.5266114667, -10, 79.5569246197
1036, 59.6896336243, -10, 52.4668401635
1037, 86.2877759027, -10, 64.9663626878
1038, 882.59042435, -10, 101.900263327
1039, 852.958954572, -10, 93.7685245438
1040, 880.442840481, -10, 55.6687878708
1041, 68.8203276374, -10, 98.7434406337
1042, 42.222185359, -10, 86.2439181094
1043, 1967.30242461, -10, 53.132750834
1044, 1967.30242461, -10, 24.800373108
1045, 836.571814149, -10, 117.316623036
1046, 834.42423028, -10, 71.0851475796
1047, 938.062933571, -10, 101.900263327
1048, 345.226051154, -10, 115.968428813
1049, 394.100508764, -10, 115.968428813
1050, 1912.41136844, -10, 24.800373108
1051, 1955.44486643, -10, 126.529124575
1052, 1983.18112104, -10, 126.529124575
1053, 85.3255192301, -10, 116.028223572
1054, 1015.79157413, -10, 100.794253057
1055, 1071.26408335, -10, 100.794253057
1056, 972.766718023, -10, 96.4041604912
1057, 1022.50673527, -10, 57.198413548
1058, 1124.87063414, -10, 100.785197222
1059, 1180.34314336, -10, 100.785197222
1060, 1981.17567055, -10, 70.3217142103
1061, 1948.47809516, -10, 66.7897095924
1062, 1233.02740002, -10, 101.872502531
1063, 1288.49990924, -10, 101.872502531
1064, 1119.13814217, -10, 61.5794502791
1065, 113.824794939, -10, 116.028223572
1066, 1225.42894961, -10, 62.6576997528
1067, 1343.6673829, -10, 101.827052488
1068, 1399.13989212, -10, 101.827052488
1069, 203.846020814, -10, 70.5610866942
1070, 188.671725606, -10, 93.9891013167
1071, 175.206244898, -10, 70.6938258088
1072, 755.056547835, -10, 23.1619907527
1073, 727.611019748, -10, 23.1619907527
1074, 370.514629177, -10, 23.3147795924
1075, 343.06910109, -10, 23.3147795924
1076, 535.282353982, -10, 23.4630809914
1077, 507.836825894, -10, 23.4630809914
1078, 809.643078571, -10, 23.4714953852
1079, 782.197550484, -10, 23.4714953852
1080, 425.405685351, -10, 23.5591636522
1081, 397.960157264, -10, 23.5591636522
1082, 590.242966837, -10, 23.4808130761
1083, 562.79743875, -10, 23.4808130761
1084, 260.42379614, -10, 23.7329675793
1085, 232.978268053, -10, 23.7329675793
1086, 315.572119554, -10, 23.3281900968
1087, 288.126591467, -10, 23.3281900968
1088, 480.296741525, -10, 23.7685245438
1089, 452.851213438, -10, 23.7685245438
1090, 204.972382401, -10, 23.6329055932
1091, 177.526854314, -10, 23.6329055932
1092, 700.121988027, -10, 23.3872655217
1093, 672.676459939, -10, 23.3872655217
1094, 150.103018671, -10, 23.0753592234
1095, 122.657490584, -10, 23.0753592234
1096, 645.204878805, -10, 23.3072090887
1097, 617.759350718, -10, 23.3072090887
1098, 864.534134746, -10, 23.7685245438
1099, 837.088606659, -10, 23.7685245438
1100, 1333.28067992, -10, 63.6995550189
1101, 115.328811282, -10, 69.1035827954
1102, 106.491833439, -10, 42.0134983392
1103, 714.149277508, -10, 46.5492562744
1104, 549.169230988, -10, 46.9438940675
1105, 439.128449395, -10, 47.3276881959
1106, 218.386425757, -10, 47.3658731725
1107, 604.200699637, -10, 46.7880221648
1108, 274.095106736, -10, 47.0611576761
1109, 768.779311878, -10, 46.6334861379
1110, 162.956704462, -10, 46.7082648166
1111, 384.23739322, -10, 46.8739432445
1112, 329.294883598, -10, 46.6429696892
1113, 494.114061851, -10, 47.2316055352
1114, 659.188664653, -10, 46.6944746105
1115, 823.365842615, -10, 47.240019929
1116, 562.103917156, -10, 116.609379016
1117, 533.409862393, -10, 111.146852785
1118, 573.242296436, -10, 87.7562318008
1119, 147.782409254, -10, 70.1362794391
1120, 1632.7456332, -10, 35.2960305392
1121, 1577.85457702, -10, 35.2960305392
1122, 127.578351718, -10, 93.0891437877
1123, 146.278392911, -10, 117.060920216
1124, 231.851906465, -10, 70.6611486803
1125, 1874.4564381, -10, 35.732992073
1126, 1819.56538193, -10, 35.732992073
1127, 1733.46076857, -10, 39.9079476237
1128, 1678.5697124, -10, 39.9079476237
1129, 1640.66168264, -10, 75.2039781629
1130, 672.917779946, -10, 116.411454825
1131, 643.223174818, -10, 111.94306169
1132, 682.924453208, -10, 88.3545165156
1133, 481.917937465, -10, 116.907016069
1134, 470.879651946, -10, 89.08800691
1135, 511.233197594, -10, 112.180990841
1136, 728.390289168, -10, 116.411454825
1137, 202.654423438, -10, 116.928181101
1138, 230.516654526, -10, 116.928181101
1139, 174.014647522, -10, 117.060920216
1140, 617.576426378, -10, 116.609379016
1141, 93.6164552045, -10, 18.9381391158
1142, 1779.64041831, -10, 43.1281879393
1143, 1732.66541158, -10, 83.036135563
1144, 781.099304928, -10, 117.316623036
1145, 1448.73706746, -10, 104.520513838
1146, 1504.20957668, -10, 104.520513838
1147, 44.8725604295, -10, 14.8919883733
1148, 17.4270323423, -10, 14.8919883733
1149, 1906.99368006, -10, 119.975274701
1150, 1934.72993467, -10, 119.975274701
1151, 1943.64185984, -10, 91.9646111849
1152, 1964.3567916, -10, 98.5184610591
1153, 1945.64731033, -10, 106.504399275
1154, 66.1709271173, -10, 18.9381391158
1155, 1818.77002494, -10, 78.8611800124
1156, 38.3912669365, -10, 48.4206894211
1157, 56.1524313725, -10, 33.8301274891
1158, 1093.6373463, -10, 30.7942530569
1159, 1040.73100806, -10, 30.7942530569
1160, 1438.04532893, -10, 66.3475663264
1161, 1659.10371469, -10, 109.907947624
1162, 1713.86780899, -10, 109.907947624
1163, 944.77809471, -10, 58.3044238182
1164, 1981.17567055, -10, 92.670348173
1165, 20.9642345942, -10, 55.521802751
1166, 20.9642345942, -10, 77.5478617363
1167, 259.41886076, -10, 116.673395335
1168, 294.34673172, -10, 116.673395335
1169, 426.445428244, -10, 116.907016069
1170, 1760.04745873, -10, 113.128187939
1171, 1803.10199305, -10, 113.128187939
1172, 319.940837111, -10, 112.029613562
1173, 351.589338815, -10, 87.9980423752
1174, 260.754112699, -10, 70.4063629148
1175, 246.213707756, -10, 93.6015764365
1176, 21.2579507649, -10, 96.7343777502
1177, 923.295325605, -10, 31.900263327
1178, 894.165604524, -10, 31.900263327
1179, 753.318389194, -10, 112.0723128
1180, 790.256174124, -10, 89.3889358356
1181, 1202.13495326, -10, 30.7851972223
1182, 1147.24389708, -10, 30.7851972223
1183, 997.706151951, -10, 26.4041604912
1184, 957.999110056, -10, 26.4041604912
1185, 1524.25702744, -10, 34.5205138379
1186, 1469.36597126, -10, 34.5205138379
1187, 1557.80712627, -10, 105.296030539
1188, 1613.27963549, -10, 105.296030539
1189, 1419.76879592, -10, 31.8270524884
1190, 1364.87773975, -10, 31.8270524884
1191, 727.128683783, -10, 69.573445578
1192, 699.639652062, -10, 69.798720347
1193, 1309.71026609, -10, 31.8725025305
1194, 1254.81920991, -10, 31.8725025305
1195, 288.456908026, -10, 70.0015854323
1196, 616.826717359, -10, 69.9165881047
1197, 589.310333478, -10, 70.090192092
1198, 394.278737083, -10, 69.5275924648
1199, 366.833208996, -10, 69.2832084051
1200, 510.924529147, -10, 65.6440718324
1201, 483.384444778, -10, 65.9495153847
1202, 806.978702193, -10, 70.788118421
1203, 17.4270323423, -10, 36.8850900766
1204, 1983.18112104, -10, 107.210136263
1205, 1843.02695667, -10, 105.732992073
1206, 1873.87498506, -10, 105.732992073
1207, 1891.81368356, -10, 85.7082667735
1208, 779.197786459, -10, 65.543808185
1209, 752.056783809, -10, 65.2343035525
1210, 669.945046933, -10, 65.330327212
1211, 642.473465799, -10, 65.2502707791
1212, 1541.24005385, -10, 69.8165443772
1213, 560.616278714, -10, 64.627665861
1214, 533.101193946, -10, 64.6099337763
1215, 454.069184649, -10, 70.6755406129
1216, 426.623656562, -10, 70.4661797213
1217, 1896.64991889, -10, 60.533365181
1218, 341.547994952, -10, 65.3443931549
1219, 314.051013417, -10, 65.3578036593
1220, 1929.76861389, -10, 74.7756478086
1221, 409.219472337, -10, 92.8754448818
1222, 522.371576874, -10, 83.3278436258
1223, 300.710019381, -10, 88.703008898
1224, 627.58309964, -10, 88.5524407063
1225, 737.547158363, -10, 88.4837676251
1226, 42.7571282668, 10, 67.5635072902
1227, 137.227640436, 10, 47.5370490875
1228, 1962.36701302, 10, 83.9963775974
1229, 246.458848027, 10, 47.4266213254
1230, 357.040712495, 10, 46.5404305356
1231, 466.997376476, 10, 46.8985096044
1232, 576.954040457, 10, 46.6388112002
1233, 686.910704438, 10, 46.3777661267
1234, 795.920314528, 10, 46.7364729174
1235, 910.517429412, 10, 63.800526654
1236, 1858.79865117, 10, 71.4968771527
1237, 741.930510989, 10, 45.8509557308
1238, 412.043809729, 10, 46.6816021566
1239, 301.85046606, 10, 46.5808141174
1240, 190.807675021, 10, 47.4560925689
1241, 522.058657587, 10, 46.4402776421
1242, 632.073505446, 10, 46.0944191013
1243, 850.811370702, 10, 47.5370490875
1244, 96.3087738277, 10, 92.7232143554
1245, 275.460256487, 10, 93.2809399759
1246, 217.651290688, 10, 93.8522563662
1247, 160.663372288, 10, 94.9498843271
1248, 979.824814853, 10, 52.822750363
1249, 78.0687065234, 10, 38.3028120727
1250, 1924.97977712, 10, 99.9644375416
1251, 42.988390784, 10, 105.665008605
1252, 1779.09678925, 10, 86.2449686686
1253, 326.956427918, 10, 83.9430931856
1254, 1065.65178687, 10, 61.6463118249
1255, 1686.98572344, 10, 79.7279661902
1256, 377.174272029, 10, 91.750419563
1257, 433.19027265, 10, 83.662019855
1258, 1966.38641581, 10, 113.064567703
1259, 816.116223413, 10, 94.5976892048
1260, 1172.84519471, 10, 61.6416225119
1261, 712.027870921, 10, 92.2085506755
1262, 762.331838351, 10, 83.8787337057
1263, 1595.20906131, 10, 70.5577631901
1264, 601.533465305, 10, 92.6314410087
1265, 653.476079175, 10, 83.4624353824
1266, 35.1433781929, 10, 29.9705045539
1267, 1388.63447763, 10, 63.6910873574
1268, 1278.30469971, 10, 63.796048509
1269, 484.72305026, 10, 91.5209306998
1270, 541.854928246, 10, 83.4462921102
1271, 1934.61405933, 10, 49.6181082012
1272, 1487.98592658, 10, 69.0414750912
1273, 59.4322213047, 10, 122.832504302
1274, 21.494195392, 10, 122.832504302
1275, 87.1887401755, 10, 65.513013214
1276, 60.4129173951, 10, 52.9331596814
1277, 69.5329510472, 10, 80.1433608228
1278, 42.8727595254, 10, 86.6142579474
1279, 69.6485823058, 10, 99.19411148
1280, 1967.30702967, 10, 24.8090541006
1281, 1967.30702967, 10, 53.1414318266
1282, 880.664400057, 10, 55.6687878708
1283, 853.652532375, 10, 93.7685245438
1284, 883.50556173, 10, 101.900263327
1285, 938.920272801, 10, 101.900263327
1286, 833.463797058, 10, 71.0673691462
1287, 836.304958731, 10, 117.298844602
1288, 395.175138755, 10, 115.875209782
1289, 345.937249592, 10, 115.875209782
1290, 1912.41597349, 10, 24.8090541006
1291, 448.94952787, 10, 115.76046535
1292, 458.956661455, 10, 87.5914752774
1293, 423.183139065, 10, 111.831009928
1294, 1983.19320791, 10, 126.532283852
1295, 1955.48585237, 10, 126.532283852
1296, 86.0924128265, 10, 116.361607178
1297, 1071.9021626, 10, 100.823155912
1298, 1016.48745153, 10, 100.823155912
1299, 504.364238941, 10, 115.76046535
1300, 1022.73830086, 10, 57.2345310939
1301, 973.573965522, 10, 96.4113751815
1302, 56.6060423582, 10, 34.1366583133
1303, 38.9502532299, 10, 48.767005922
1304, 1948.49053618, 10, 66.8072428993
1305, 1981.18350651, 10, 70.3305665247
1306, 1180.91357759, 10, 100.820811256
1307, 1125.49886652, 10, 100.820811256
1308, 114.63239529, 10, 116.361607178
1309, 1289.05804116, 10, 101.898024254
1310, 1233.64333009, 10, 101.898024254
1311, 45.0172171836, 10, 14.9852522769
1312, 66.4798813489, 10, 19.1514060364
1313, 1119.24849079, 10, 61.6439671684
1314, 727.757120628, 10, 22.9254778654
1315, 755.202648715, 10, 22.9254778654
1316, 343.193524771, 10, 23.2702152678
1317, 370.639052858, 10, 23.2702152678
1318, 508.039081578, 10, 23.2201388211
1319, 535.484609665, 10, 23.2201388211
1320, 782.197550484, 10, 23.3682364587
1321, 809.643078571, 10, 23.3682364587
1322, 398.140601475, 10, 23.3408010783
1323, 425.586129562, 10, 23.3408010783
1324, 562.9323011, 10, 23.3194056001
1325, 590.377829187, 10, 23.3194056001
1326, 233.011536362, 10, 23.7133106627
1327, 260.457064449, 10, 23.7133106627
1328, 288.152873466, 10, 23.2904070587
1329, 315.598401553, 10, 23.2904070587
1330, 453.062912935, 10, 23.4492548022
1331, 480.508441023, 10, 23.4492548022
1332, 177.740421772, 10, 23.7280462844
1333, 205.185949859, 10, 23.7280462844
1334, 672.801689265, 10, 23.1888830634
1335, 700.247217352, 10, 23.1888830634
1336, 123.504876392, 10, 23.7685245438
1337, 150.950404479, 10, 23.7685245438
1338, 617.937561682, 10, 23.0472095506
1339, 645.383089769, 10, 23.0472095506
1340, 837.088606659, 10, 23.7685245438
1341, 864.534134746, 10, 23.7685245438
1342, 1225.57494721, 10, 62.7188355105
1343, 175.735523654, 10, 71.202988448
1344, 189.157331488, 10, 94.4010703467
1345, 204.229482854, 10, 70.6541744675
1346, 1399.6376412, 10, 101.845543679
1347, 1344.22293012, 10, 101.845543679
1348, 714.420607713, 10, 46.1143609288
1349, 549.506349022, 10, 46.5395444212
1350, 439.520593103, 10, 46.7900558805
1351, 218.633261524, 10, 47.4413569471
1352, 604.513772951, 10, 46.3666151507
1353, 274.154657043, 10, 47.0037177214
1354, 768.925412758, 10, 46.2937143241
1355, 164.017657728, 10, 47.4965708282
1356, 384.542261112, 10, 46.6110163461
1357, 329.445589277, 10, 46.5606223265
1358, 494.528017032, 10, 46.6693936233
1359, 659.492104942, 10, 46.236092614
1360, 823.365842615, 10, 47.1367610024
1361, 1333.46958867, 10, 63.7435679332
1362, 146.80969452, 10, 117.474942164
1363, 128.486073058, 10, 93.8365493412
1364, 148.945506362, 10, 71.2434667073
1365, 116.768207132, 10, 70.1301317215
1366, 1819.61721324, 10, 35.7484385763
1367, 1874.50826941, 10, 35.7484385763
1368, 1578.04030596, 10, 35.278881595
1369, 1632.93136213, 10, 35.278881595
1370, 232.055069358, 10, 70.6394388458
1371, 1678.8196932, 10, 39.8639830951
1372, 1733.71074937, 10, 39.8639830951
1373, 1641.09739237, 10, 75.1428646901
1374, 571.694196776, 10, 88.0388665595
1375, 532.930177934, 10, 111.723146055
1376, 562.769446464, 10, 116.315720504
1377, 728.846071414, 10, 116.104275338
1378, 673.431360343, 10, 116.104275338
1379, 93.925409436, 10, 19.1514060364
1380, 618.184157535, 10, 116.315720504
1381, 682.751975048, 10, 87.835493029
1382, 644.15546447, 10, 111.731217691
1383, 230.899077585, 10, 116.926128183
1384, 203.011009256, 10, 116.926128183
1385, 174.517050056, 10, 117.474942164
1386, 1733.04125635, 10, 82.9864674294
1387, 1779.76628228, 10, 43.1224843343
1388, 780.89024766, 10, 117.298844602
1389, 1504.72807674, 10, 104.520737546
1390, 1449.31336567, 10, 104.520737546
1391, 17.5716890965, 10, 14.9852522769
1392, 1818.94772021, 10, 78.8709229106
1393, 1934.78253302, 10, 119.982218771
1394, 1907.07517749, 10, 119.982218771
1395, 107.64817348, 10, 42.9199305801
1396, 1945.68309647, 10, 106.514502622
1397, 1964.37671442, 10, 98.5304726503
1398, 1943.67339507, 10, 91.9804075695
1399, 1040.79110581, 10, 30.8231559125
1400, 1093.69744404, 10, 30.8231559125
1401, 945.171122133, 10, 58.3116385085
1402, 1438.3102021, 10, 66.3662812243
1403, 1714.32876064, 10, 109.863983095
1404, 1659.64268624, 10, 109.863983095
1405, 295.080241821, 10, 116.640469988
1406, 259.803560484, 10, 116.640469988
1407, 1981.18350651, 10, 92.6792004873
1408, 21.3785641334, 10, 77.8009143337
1409, 21.3785641334, 10, 55.7748553483
1410, 352.065349973, 10, 87.8467563743
1411, 320.828327537, 10, 111.971546593
1412, 1803.34439389, 10, 113.122484334
1413, 1760.38429355, 10, 113.122484334
1414, 21.494195392, 10, 96.8516649909
1415, 246.555773588, 10, 93.5665981711
1416, 260.959552257, 10, 70.3537806506
1417, 894.387164101, 10, 31.900263327
1418, 923.516885181, 10, 31.900263327
1419, 1147.29414796, 10, 30.820811256
1420, 1202.18520413, 10, 30.820811256
1421, 958.170577902, 10, 26.4113751815
1422, 997.877619796, 10, 26.4113751815
1423, 1469.53768242, 10, 34.5207375456
1424, 1524.42873859, 10, 34.5207375456
1425, 1613.75435517, 10, 105.278881595
1426, 1558.3396441, 10, 105.278881595
1427, 699.469287679, 10, 69.2931584011
1428, 726.979190955, 10, 69.0297532032
1429, 589.243752881, 10, 69.6351261045
1430, 616.803485375, 10, 69.362930055
1431, 475.860213368, 10, 69.2097201521
1432, 503.390853924, 10, 68.9806041709
1433, 1364.97090177, 10, 31.8455436787
1434, 1419.86195794, 10, 31.8455436787
1435, 1254.91495663, 10, 31.8980242545
1436, 1309.80601281, 10, 31.8980242545
1437, 367.107492262, 10, 69.1454250493
1438, 394.609040879, 10, 69.2160108598
1439, 288.655361273, 10, 69.9308770466
1440, 806.018268971, 10, 70.6670810611
1441, 789.224030882, 10, 89.2382114553
1442, 753.998055129, 10, 111.939366853
1443, 17.5716890965, 10, 36.9783539802
1444, 1983.19320791, 10, 107.21329554
1445, 1873.98461451, 10, 105.748438576
1446, 1843.19532485, 10, 105.748438576
1447, 1891.88921414, 10, 85.7306573471
1448, 752.13117467, 10, 64.8648447183
1449, 779.12607644, 10, 65.3076033115
1450, 1541.59749394, 10, 69.7996191407
1451, 642.77479231, 10, 64.7784272418
1452, 670.193391806, 10, 64.9201007546
1453, 531.956792917, 10, 64.9432848761
1454, 559.404484352, 10, 65.0425516552
1455, 422.61704119, 10, 65.1718110058
1456, 450.093824563, 10, 65.2802647297
1457, 1896.70635525, 10, 60.5574926769
1458, 314.403446989, 10, 65.2619536515
1459, 341.998570207, 10, 65.2417618606
1460, 1929.79691823, 10, 74.7912728714
1461, 301.208342203, 10, 88.6120165808
1462, 405.182272339, 10, 87.706219709
1463, 513.288989253, 10, 87.483611405
1464, 627.50477224, 10, 88.0469381956
1465, 737.179854636, 10, 88.0436421906
1466, 27.4455280872, 0, 0
1467, 54.8910561743, 0, 0
1468, 1945.10894383, 0, 0
1469, 1890.21788765, 0, 0
1470, 82.3365842615, 0, 0
1471, 109.782112349, 0, 0
1472, 137.227640436, 0, 0
1473, 192.11869661, 0, 0
1474, 219.564224697, 0, 0
1475, 164.673168523, 0, 0
1476, 247.009752785, 0, 0
1477, 274.455280872, 0, 0
1478, 301.900808959, 0, 0
1479, 329.346337046, 0, 0
1480, 356.791865133, 0, 0
1481, 439.128449395, 0, 0
1482, 411.682921308, 0, 0
1483, 384.23739322, 0, 0
1484, 466.573977482, 0, 0
1485, 548.910561743, 0, 0
1486, 521.465033656, 0, 0
1487, 494.019505569, 0, 0
1488, 576.356089831, 0, 0
1489, 603.801617918, 0, 0
1490, 631.247146005, 0, 0
1491, 686.138202179, 0, 0
1492, 713.583730266, 0, 0
1493, 658.692674092, 0, 0
1494, 741.029258354, 0, 0
1495, 768.474786441, 0, 0
1496, 795.920314528, 0, 0
1497, 850.811370702, 0, 0
1498, 878.256898789, 0, 0
1499, 823.365842615, 0, 0
1500, 907.38661987, 0, 0
1501, 936.51634095, 0, 0
1502, 976.223382845, 0, 0
1503, 1015.93042474, 0, 0
1504, 1068.83676298, 0, 0
1505, 1176.63415738, 0, 0
1506, 1231.52521356, 0, 0
1507, 1121.74310121, 0, 0
1508, 1286.41626973, 0, 0
1509, 1341.30732591, 0, 0
1510, 1396.19838208, 0, 0
1511, 1505.98049443, 0, 0
1512, 1560.87155061, 0, 0
1513, 1451.08943826, 0, 0
1514, 1615.76260678, 0, 0
1515, 1780.4357753, 0, 0
1516, 1725.54471913, 0, 0
1517, 1670.65366295, 0, 0
1518, 1835.32683148, 0, 0
1519, 68.940941006, 0, 79.8099772171
1520, 95.7167637864, 0, 92.3898307497
1521, 86.5967301343, 0, 65.1796296084
1522, 226.578103462, -41.7558622106, 150
1523, 211.86870883, -16.9537398459, 150
1524, 196.799331829, -44.0816409259, 150
1525, 211.508726461, -68.8837632906, 150
1526, 645.64565449, -18.51434773, 150
1527, 701.118163711, -18.51434773, 150
1528, 685.721786079, -73.51434773, 150
1529, 150.950404479, 0, 23.7685245438
1530, 136.380254627, 0, 46.8438837672
1531, 122.657490584, 0, 23.0753592234
1532, 1114.9118818, 88.1419057788, 150
1533, 1082.82170369, 33.1419057788, 150
1534, 1061.29136558, 88.1419057788, 150
1535, 727.757120628, 0, 22.9254778654
1536, 700.247217352, 0, 23.1888830634
1537, 809.643078571, 0, 23.3682364587
1538, 20.9642345942, -5, 66.5348322436
1539, 20.9642345942, 0, 77.5478617363
1540, 343.06910109, 0, 23.3147795924
1541, 806.018268971, 0, 70.7703399876
1542, 817.076656635, 0, 94.6154676382
1543, 789.295740902, 0, 89.3711574022
1544, 452.851213438, 0, 23.7685245438
1545, 160.476681053, 0, 140
1546, 188.184036589, 0, 140
1547, 174.330358821, 0, 117.474942164
1548, 726.833090075, 0, 69.2662660905
1549, 712.323464629, 0, 92.515730163
1550, 699.344058354, 0, 69.4915408595
1551, 1300.54275604, -18.51434773, 150
1552, 1356.01526526, -18.51434773, 150
1553, 1354.82150664, 0, 140
1554, 1301.00514124, -8.51434773004, 150
1555, 1299.34899741, 0, 140
1556, 864.638266142, -8.51434773004, 150
1557, 918.315273845, 18.51434773, 150
1558, 864.638266142, 33.1419057788, 150
1559, 1517.91055479, 19.0491066416, 150
1560, 1462.09125667, 9.04910664159, 150
1561, 1465.65092878, 0, 140
1562, 1521.123438, 0, 140
1563, 1517.56376589, 9.04910664159, 150
1564, 260.457064449, 0, 23.7133106627
1565, 93.6164552045, 0, 18.9381391158
1566, 880.442840481, 0, 55.6687878708
1567, 910.295869836, 0, 63.800526654
1568, 883.284002154, 0, 101.900263327
1569, 1681.95730526, 18.51434773, 150
1570, 1705.07650916, 73.51434773, 150
1571, 1651.39950146, 88.1419057788, 150
1572, 1628.28029756, 33.1419057788, 150
1573, 753.246679175, 0, 111.939366853
1574, 744.912895952, 0, 140
1575, 737.475448344, 0, 88.3508216781
1576, 729.141665122, 0, 116.411454825
1577, 142.501417117, -96.5848198254, 150
1578, 156.485813441, -6.95373984592, 150
1579, 132.255977388, 17.2396083935, 150
1580, 130.932253513, -8.49898479669, 150
1581, 755.546547368, 18.51434773, 150
1582, 800.385405174, 0, 140
1583, 810.267680636, 8.51434773004, 150
1584, 754.795171414, 8.51434773004, 150
1585, 1948.48270022, 0, 66.798390585
1586, 1962.35917707, 0, 83.9875252831
1587, 1981.17567055, 0, 70.3217142103
1588, 1827.47546165, 0, 140
1589, 1784.51536131, 0, 140
1590, 1829.09886485, -20.4519485949, 150
1591, 1786.25530137, -10.4519485949, 150
1592, 1829.21540172, -10.4519485949, 150
1593, 222.233403386, 32.7249663588, 150
1594, 198.177170238, 45.9996363229, 150
1595, 185.481056312, 18.8489813486, 150
1596, 209.53728946, 5.57431138447, 150
1597, 573.040853489, 0, 87.4625732893
1598, 589.10889053, 0, 69.7965335805
1599, 601.734908252, 0, 92.9250995203
1600, 106.800787671, 0, 42.2267652598
1601, 77.7597522919, 0, 38.0895451522
1602, 1627.99130681, -18.51434773, 150
1603, 1597.77898523, -73.51434773, 150
1604, 1572.51879759, -18.51434773, 150
1605, 1877.28610859, -90.6591174947, 150
1606, 1823.60910088, -90.6591174947, 150
1607, 254.550327856, -91.3477175864, 150
1608, 175.419812355, 0, 70.7889665001
1609, 160.347660989, 0, 94.5358623792
1610, 148.629795063, 0, 70.8294447594
1611, 1247.32813354, 18.51434773, 150
1612, 1191.91342246, 18.51434773, 150
1613, 1243.93428634, 0, 140
1614, 1246.86574833, 8.51434773004, 150
1615, 1374.23776942, 80, 150
1616, 672.801689265, 0, 23.1888830634
1617, 686.785475112, 0, 46.5761485851
1618, 659.366875616, 0, 46.4344750723
1619, 645.383089769, 0, 23.0472095506
1620, 363.05267203, -6.42704431825, 150
1621, 420.336239524, -18.5832953206, 150
1622, 376.371775145, -38.2716114451, 150
1623, 535.484609665, 0, 23.2201388211
1624, 508.039081578, 0, 23.2201388211
1625, 1578.04030596, 0, 35.278881595
1626, 1524.42873859, 0, 34.5207375456
1627, 1541.41176501, 0, 69.8167680848
1628, 1595.02333237, 0, 70.5749121343
1629, 944.999654287, 0, 58.3044238182
1630, 957.999110056, 0, 26.4041604912
1631, 979.653347007, 0, 52.8155356726
1632, 42.6365148983, 0, 86.4969707067
1633, 69.0565722646, 0, 98.8607278743
1634, 42.7521461568, 0, 105.547721364
1635, 314.17821442, -6.42704431825, 150
1636, 293.015300892, -36.3477175864, 150
1637, 327.497317535, -38.2716114451, 150
1638, 314.077295415, 0, 65.3200206212
1639, 301.824184061, 0, 46.6185971555
1640, 329.321165596, 0, 46.605186651
1641, 1783.8262486, -89.691355203, 150
1642, 1678.8196932, 0, 39.8639830951
1643, 1632.93136213, 0, 35.278881595
1644, 1640.84741157, 0, 75.1868292187
1645, 1686.73574264, 0, 79.7719307188
1646, 1874.4564381, 0, 35.732992073
1647, 1912.41136844, 0, 24.800373108
1648, 1896.70175019, 0, 60.5488116844
1649, 1858.74681986, 0, 71.4814306493
1650, 1518.58618509, -34.5214293735, 150
1651, 1543.84637273, -89.5214293735, 150
1652, 1490.2258565, -89.5214293735, 150
1653, 1682.75540111, -18.51434773, 150
1654, 1651.39950146, -73.51434773, 150
1655, 1736.43240881, -33.1419057788, 150
1656, 1705.07650916, -88.1419057788, 150
1657, 1786.04433052, -20.4519485949, 150
1658, 1806.59966647, -45.1433037979, 150
1659, 1386.85716959, -84.7520448765, 150
1660, 1329.50692967, -73.51434773, 150
1661, 1819.56538193, 0, 35.732992073
1662, 1732.91539238, 0, 82.9921710344
1663, 1760.25842958, 0, 113.128187939
1664, 1714.11778979, 0, 109.863983095
1665, 1741.46082699, 0, 140
1666, 45.0172171836, 0, 14.9852522769
1667, 17.4270323423, 0, 14.8919883733
1668, 34.9987214388, 0, 29.8772406503
1669, 1542.82395353, 74.0491066416, 150
1670, 1597.77898523, 88.1419057788, 150
1671, 1572.86558649, 33.1419057788, 150
1672, 1966.37432895, 0, 113.061408426
1673, 1964.36462756, 0, 98.5273133734
1674, 1945.6710096, 0, 106.511343346
1675, 1071.3241811, 0, 100.823155912
1676, 1022.15984576, 0, 140
1677, 1077.57455683, 0, 140
1678, 1082.24372219, -18.51434773, 150
1679, 1028.56671448, -33.1419057788, 150
1680, 1028.56671448, 8.51434773004, 150
1681, 307.686485526, -64.5634680587, 150
1682, 348.841678763, -66.2192110993, 150
1683, 184.006477742, -16.9537398459, 150
1684, 156.270223131, -16.9537398459, 150
1685, 169.156808647, -44.9909826651, 150
1686, 470.66826224, 90.3756061497, 150
1687, 417.10490131, 90.3756061497, 150
1688, 443.886581775, 67.0473847601, 150
1689, 129.463426952, -69.3100990032, 150
1690, 116.100068505, -46.2242639745, 150
1691, 156.966607165, -69.6220626446, 150
1692, 143.603248718, -46.5362276159, 150
1693, 42.3427987276, 0, 67.3104546928
1694, 21.2579507649, 0, 96.7343777502
1695, 115.234745067, -95.9794582948, 150
1696, 87.4515659344, -95.9794582948, 150
1697, 102.196754902, -68.7047374727, 150
1698, 412.251235075, 0, 140
1699, 363.013345913, 0, 140
1700, 394.25036835, 0, 115.875209782
1701, 1756.98774475, -57.8332609818, 150
1702, 1576.59594722, 0, 140
1703, 1558.15391517, 0, 105.296030539
1704, 1736.43240881, 8.51434773004, 150
1705, 130.716663202, -18.4989847967, 150
1706, 102.217387494, -18.4989847967, 150
1707, 56.2970881266, 0, 33.9233913927
1708, 21.2579507649, 0, 122.715217062
1709, 300.882190629, 0, 88.6700835505
1710, 326.630276345, 0, 84.0011601553
1711, 739.398793782, 73.51434773, 150
1712, 793.01931001, 73.51434773, 150
1713, 953.993841644, 73.51434773, 150
1714, 900.316833941, 88.1419057788, 150
1715, 1093.6373463, 0, 30.7942530569
1716, 1147.24389708, 0, 30.7851972223
1717, 288.629079275, 0, 69.9686600847
1718, 274.128375045, 0, 47.0415007595
1719, 279.462871936, 3.57295568175, 150
1720, 237.425357789, 5.57431138447, 150
1721, 243.934336006, 0, 140
1722, 237.212829313, -4.42568861553, 150
1723, 279.25034346, -6.42704431825, 150
1724, 422.25836866, 0, 111.831009928
1725, 405.032412754, 0, 87.7994387402
1726, 377.024412444, 0, 91.8436385942
1727, 466.785676979, 0, 47.217779346
1728, 475.648513871, 0, 69.5289898936
1729, 492.458981167, 0, 87.9414561908
1730, 483.596144276, 0, 65.6302456431
1731, 833.463797058, 0, 71.0673691462
1732, 835.611380927, 0, 117.298844602
1733, 399.697449678, 63.4837213089, 150
1734, 373.414933139, 93.1081151592, 150
1735, 537.36310982, 18.5565713766, 150
1736, 592.777820891, 18.5565713766, 150
1737, 578.424262148, 73.5565713766, 150
1738, 275.288085238, 0, 93.3138653234
1739, 1468.83801441, -29.7520448765, 150
1740, 1440.47768582, -84.7520448765, 150
1741, 1977.95843543, 3.69457084005, 150
1742, 1613.46536442, 0, 105.278881595
1743, 1469.53768242, 0, 34.5207375456
1744, 1818.89588891, 0, 78.8554764073
1745, 1967.30242461, 0, 53.132750834
1746, 1902.00356077, 92.8240063442, 150
1747, 1925.15985824, 69.993854351, 150
1748, 1886.51090215, 63.4837601742, 150
1749, 1846.38251874, -46.1110660896, 150
1750, 1960.04508609, 43.6424784442, 150
1751, 1937.44831538, 42.3208524345, 150
1752, 1951.30199315, 27.8166179382, 150
1753, 1843.14349354, 0, 105.732992073
1754, 1934.60945428, 0, 49.6094272086
1755, 1967.30242461, 0, 24.800373108
1756, 1922.67522905, 101.840198726, 150
1757, 1803.22785702, 0, 113.122484334
1758, 1778.97092529, 0, 86.2506722736
1759, 1945.83152652, 79.0100467333, 150
1760, 1976.16516818, 101.840198726, 150
1761, 1007.61435787, -88.1419057788, 150
1762, 973.094205263, -33.1419057788, 150
1763, 183.866203278, -69.7931050298, 150
1764, 576.819178106, 0, 46.8002186762
1765, 562.9323011, 0, 23.3194056001
1766, 590.377829187, 0, 23.3194056001
1767, 953.993841644, -88.1419057788, 150
1768, 973.729984917, 18.51434773, 150
1769, 1007.61435787, 73.51434773, 150
1770, 471.183561604, -96.3937413118, 150
1771, 1029.14469599, 18.51434773, 150
1772, 1278.20895299, 0, 63.770526785
1773, 1254.81920991, 0, 31.8725025305
1774, 1225.47920049, 0, 62.6933137865
1775, 973.402497676, 0, 96.4041604912
1776, 1016.42735379, 0, 100.794253057
1777, 1022.67820312, 0, 57.2056282384
1778, 997.706151951, 0, 26.4041604912
1779, 1572.86558649, -8.51434773004, 150
1780, 739.398793782, -88.1419057788, 150
1781, 463.143721038, 0, 92.667481419
1782, 448.024757465, 0, 115.76046535
1783, 503.497266686, 0, 115.76046535
1784, 449.882125066, 0, 65.5995344713
1785, 439.308893605, 0, 47.1093256221
1786, 169.311675231, -96.5848198254, 150
1787, 184.193168977, -6.95373984592, 150
1788, 209.350598225, -4.42568861553, 150
1789, 37.7631423576, 0, 140
1790, 34.5030208493, 4.97815604176, 150
1791, 72.2661632069, -5.02184395824, 150
1792, 34.5030208493, -5.02184395824, 150
1793, 1275.88641344, -73.51434773, 150
1794, 1345.73598099, 25, 150
1795, 1400.74610501, 15, 150
1796, 1040.73100806, 0, 30.7942530569
1797, 1065.59168913, 0, 61.6174089693
1798, 1981.03573741, 32.0024660858, 150
1799, 1958.99417284, 19.520431346, 150
1800, 1929.77321895, 0, 74.7843288011
1801, 1733.71074937, 0, 39.8639830951
1802, 60.1039631636, 0, 52.7198927609
1803, 923.516885181, 0, 31.900263327
1804, 1489.20343731, 74.0491066416, 150
1805, 1427.85828565, 80, 150
1806, 314.739553273, 3.57295568175, 150
1807, 363.977442435, 3.57295568175, 150
1808, 1891.86551487, 0, 85.7237132769
1809, 1873.92681636, 0, 105.748438576
1810, 1309.71026609, 0, 31.8725025305
1811, 1364.87773975, 0, 31.8270524884
1812, 1333.37642665, 0, 63.7250767429
1813, 1222.20940573, 73.51434773, 150
1814, 534.276834648, 0, 111.146852785
1815, 523.138455368, 0, 140
1816, 562.970889411, 0, 116.609379016
1817, 627.706215187, 0, 88.3405967072
1818, 642.596581347, 0, 65.03842678
1819, 616.625274412, 0, 69.6229295931
1820, 1736.64337966, 18.51434773, 150
1821, 258.087429932, -36.3477175864, 150
1822, 604.335561988, 0, 46.6266146889
1823, 1943.66555911, 0, 91.9715552552
1824, 1924.95607784, 0, 99.9574934713
1825, 1858.32349004, 0, 140
1826, 1894.67380686, 3.85295315707, 150
1827, 1863.94231535, 13.8529531571, 150
1828, 1859.94689323, -20.4519485949, 150
1829, 1908.58528278, 28.3571876533, 150
1830, 1922.43896055, 13.8529531571, 150
1831, 1894.73160501, 13.8529531571, 150
1832, 685.721786079, 88.1419057788, 150
1833, 701.869539665, 33.1419057788, 150
1834, 646.454828594, 33.1419057788, 150
1835, 682.6288595, 0, 88.0473370281
1836, 714.274506833, 0, 46.3508738161
1837, 741.784410109, 0, 46.0874686181
1838, 632.101269851, 88.1419057788, 150
1839, 1401.15069206, 25, 150
1840, 394.428596668, 0, 69.4343734337
1841, 384.361816901, 0, 46.82937892
1842, 411.863365518, 0, 46.8999647305
1843, 75.6668598056, -69.2938905427, 150
1844, 1413.36550519, -29.7520448765, 150
1845, 1119.19823991, 0, 61.6083531347
1846, 1082.82170369, -8.51434773004, 150
1847, 1222.20940573, -88.1419057788, 150
1848, 1168.58888951, -88.1419057788, 150
1849, 632.101269851, -73.51434773, 150
1850, 357.505165945, 61.0639144526, 150
1851, 560.751141065, 0, 64.466258385
1852, 701.869539665, -8.51434773004, 150
1853, 646.454828594, -8.51434773004, 150
1854, 894.165604524, 0, 31.900263327
1855, 751.98507379, 0, 65.1013576056
1856, 755.202648715, 0, 22.9254778654
1857, 810.961258439, 18.51434773, 150
1858, 1976.16516818, 72.4415482464, 150
1859, 1915.97269778, -97.1698928649, 150
1860, 1955.47376551, 0, 126.529124575
1861, 316.560870432, 59.9327116383, 150
1862, 336.382742173, 32.9557992934, 150
1863, 293.004784938, 37.3695292493, 150
1864, 273.182913197, 64.3464415942, 150
1865, 511.126784831, 0, 65.401129662
1866, 475.808748745, -18.5832953206, 150
1867, 437.334676635, -49.9770366324, 150
1868, 25.1159282722, -53.3144322479, 150
1869, 37.7631423576, -25, 150
1870, 223.041001386, -96.7558622106, 150
1871, 1462.49584372, 19.0491066416, 150
1872, 1410.23621771, 0, 140
1873, 524.80374592, 73.5565713766, 150
1874, 483.22762614, 35.3756061497, 150
1875, 855.800116245, 0, 140
1876, 911.272625466, 0, 140
1877, 373.075531742, -92.9475996542, 150
1878, 392.806143142, -46.5308949748, 150
1879, 1907.05147821, 0, 119.975274701
1880, 1877.34039455, 90.65975383, 150
1881, 61.8397122123, -93.3144322479, 150
1882, 48.1680726978, -69.2929797417, 150
1883, 102.392271049, -8.49898479669, 150
1884, 75.7011682703, 0, 140
1885, 72.441046762, 4.97815604176, 150
1886, 257.728103601, 37.3695292493, 150
1887, 476.675721, -8.5832953206, 150
1888, 837.088606659, 0, 23.7685245438
1889, 1889.11277971, 0, 140
1890, 631.895294482, 0, 46.3544186394
1891, 321.535750326, -93.2716114451, 150
1892, 273.204468882, -62.6395742001, 150
1893, 421.261009929, -8.5832953206, 150
1894, 385.620631336, 32.9557992934, 150
1895, 549.371486672, 0, 46.7009518972
1896, 521.856401904, 0, 46.6832198125
1897, 1979.00934869, 53.4179674582, 150
1898, 1969.64970549, -97.1698928649, 150
1899, 1969.64970549, -70.7302622148, 150
1900, 1983.19320791, 0, 126.532283852
1901, 1972.29264446, 0, 140
1902, 754.795171414, -33.1419057788, 150
1903, 320.502175963, 0, 112.029613562
1904, 287.289287926, -91.2918566137, 150
1905, 1419.86195794, 0, 31.8455436787
1906, 1388.54131561, 0, 63.6725961671
1907, 59.6189491216, -33.3362762061, 150
1908, 88.3140738909, -40.9794582948, 150
1909, 315.598401553, 0, 23.2904070587
1910, 1327.71769608, 88, 150
1911, 437.377332233, 0, 88.7380259966
1912, 467.665946146, 0, 140
1913, 216.046267677, 0, 140
1914, 480.508441023, 0, 23.4492548022
1915, 103.715994925, 17.2396083935, 150
1916, 287.839587047, 91.9769123449, 150
1917, 328.78388256, 93.1081151592, 150
1918, 85.5004027853, 0, 116.028223572
1919, 59.2573377496, 0, 122.832504302
1920, 1168.58888951, 73.51434773, 150
1921, 1274.09717985, 88, 150
1922, 1061.29136558, -73.51434773, 150
1923, 278.862206966, 0, 140
1924, 314.138888303, 0, 140
1925, 66.1709271173, 0, 18.9381391158
1926, 23.0521444256, -95.9785474938, 150
1927, 850.811370702, 0, 47.5370490875
1928, 864.534134746, 0, 23.7685245438
1929, 823.365842615, 0, 47.1367610024
1930, 422.436596979, 0, 65.3901735797
1931, 779.12607644, 0, 65.4108622381
1932, 768.925412758, 0, 46.3969732506
1933, 1191.39323911, -33.1419057788, 150
1934, 1981.18350651, 0, 92.6792004873
1935, 1981.02554794, -31.999252798, 150
1936, 1981.02554794, -54.383016568, 150
1937, 1977.95843543, -6.30542915995, 150
1938, 1950.2510799, 3.69457084005, 150
1939, 183.917897103, 69.7970337169, 150
1940, 157.002259956, 69.7954111609, 150
1941, 170.496389806, 46.8901528549, 150
1942, 780.138871706, 0, 117.298844602
1943, 762.403548371, 0, 84.0116796527
1944, 427.812915069, 35.3756061497, 150
1945, 578.424262148, -88.117981739, 150
1946, 524.80374592, -88.117981739, 150
1947, 536.496137566, -33.117981739, 150
1948, 21.3785641334, 5, 66.787884841
1949, 38.5359236906, 0, 48.5139533246
1950, 643.346290365, 0, 111.731217691
1951, 672.622186238, 0, 116.104275338
1952, 653.352963627, 0, 83.6742793816
1953, 853.652532375, 0, 93.7685245438
1954, 1835.37002095, 32.3516590104, 150
1955, 1866.15931061, 32.3516590104, 150
1956, 230.686549109, 0, 116.926128183
1957, 217.481396105, 0, 93.8543092842
1958, 202.841114673, 0, 116.928181101
1959, 591.968646787, -33.117981739, 150
1960, 1487.81421542, 0, 69.0412513836
1961, 1504.38128784, 0, 104.520737546
1962, 617.37498343, 0, 116.315720504
1963, 634.02567566, 0, 140
1964, 689.440386731, 0, 140
1965, 169.295634197, 96.7542396546, 150
1966, 196.211271344, 96.7558622106, 150
1967, 1779.60348001, 18.51434773, 150
1968, 1757.11964908, 43.2162419929, 150
1969, 398.140601475, 0, 23.3408010783
1970, 425.586129562, 0, 23.3408010783
1971, 1944.55638985, 0, 140
1972, 1934.75363395, 0, 119.982218771
1973, 417.604065235, -96.3937413118, 150
1974, 578.610964589, 0, 140
1975, 232.978268053, 0, 23.7329675793
1976, 294.518902969, 0, 116.640469988
1977, 260.787381009, 0, 70.3867059982
1978, 246.425579718, 0, 47.446278242
1979, 345.787390007, 0, 115.968428813
1980, 1137.71623141, -18.51434773, 150
1981, 1132.9892679, 0, 140
1982, 1188.46177712, 0, 140
1983, 1138.23641476, -8.51434773004, 150
1984, 102.189544837, 68.6626086402, 150
1985, 88.4063446682, 40.9390541463, 150
1986, 117.499195093, 44.9631628874, 150
1987, 61.8499607963, 93.3001554571, 150
1988, 47.914626455, 69.2361568082, 150
1989, 22.7884495987, 95.9360013511, 150
1990, 25.1261768562, 53.3001554571, 150
1991, 1923.57885534, -24.2776964328, 150
1992, 1909.71072804, -38.7913734028, 150
1993, 1895.84260073, -24.2776964328, 150
1994, 1960.05649715, -51.6642701387, 150
1995, 243.018052932, -63.4756186665, 150
1996, 116.17619709, 0, 69.7967481158
1997, 253.978473049, 92.3695292493, 150
1998, 37.9380259127, 25, 150
1999, 75.5944956117, 69.2392096034, 150
2000, 793.01931001, -88.1419057788, 150
2001, 810.267680636, -33.1419057788, 150
2002, 863.944688339, -18.51434773, 150
2003, 846.696317713, -73.51434773, 150
2004, 1172.79494383, 0, 61.6060084782
2005, 1125.44861564, 0, 100.785197222
2006, 494.325761348, 0, 46.9123357936
2007, 1180.86332671, 0, 100.785197222
2008, 1288.59565596, 0, 101.898024254
2009, 1233.54758337, 0, 101.872502531
2010, 846.696317713, 88.1419057788, 150
2011, 795.920314528, 0, 46.8397318439
2012, 782.197550484, 0, 23.3682364587
2013, 163.804090271, 0, 47.4014301369
2014, 521.024920161, 0, 83.904136896
2015, 533.30344963, 0, 64.3669916059
2016, 1299.21590765, 33, 150
2017, 1202.13495326, 0, 30.7851972223
2018, 341.874146526, 0, 65.2863261852
2019, 1948.67570703, 59.9864659451, 150
2020, 1913.93246659, 52.3282408405, 150
2021, 370.639052858, 0, 23.2702152678
2022, 115.152132289, 95.9390541463, 150
2023, 87.3689531566, 95.9390541463, 150
2024, 142.485376083, 96.7542396546, 150
2025, 211.598677535, 68.9065171849, 150
2026, 129.522788631, 69.4777941485, 150
2027, 157.773700776, 18.8489813486, 150
2028, 144.978666419, 45.2807798998, 150
2029, 204.972382401, 0, 23.6329055932
2030, 1448.90877862, 0, 104.520737546
2031, 1686.77475259, 0, 140
2032, 1632.01065829, 0, 140
2033, 1628.28029756, -8.51434773004, 150
2034, 356.916288814, 0, 46.5849948602
2035, 543.20158496, 0, 82.86999884
2036, 218.599993215, 0, 47.4610138637
2037, 232.021801048, 0, 70.6590957624
2038, 288.126591467, 0, 23.3281900968
2039, 1920.96481544, -56.4475892977, 150
2040, 1948.6806547, -68.0115157854, 150
2041, 1659.39270544, 0, 109.907947624
2042, 1852.59142393, 58.0114128404, 150
2043, 1812.88619002, 57.0535532733, 150
2044, 190.594107563, 0, 47.3609518776
2045, 17.5716890965, 0, 36.9783539802
2046, 17.5716890965, 5, 25.9818031286
2047, 204.059588271, 0, 70.6562273855
2048, 132.740426442, 0, 140
2049, 1438.13849095, 0, 66.3660575166
2050, 1916.84903432, 0, 140
2051, 1882.27822624, -49.9368139275, 150
2052, 1881.16371834, 39.512706987, 150
2053, 60.7264755114, 40.9360013511, 150
2054, 617.759350718, 0, 23.3072090887
2055, 512.100169849, 0, 112.180990841
2056, 536.496137566, 8.55657137659, 150
2057, 591.968646787, 8.55657137659, 150
2058, 242.536149198, 64.5201842237, 150
2059, 1783.95815293, 89.7018942629, 150
2060, 196.211271344, -96.7558622106, 150
2061, 17.4270323423, -5, 25.888539225
2062, 1958.98398337, -22.1280763781, 150
2063, 1950.22218082, -6.30542915995, 150
2064, 1922.41006147, 3.85295315707, 150
2065, 966.687336537, 0, 140
2066, 919.41719756, -18.51434773, 150
2067, 900.316833941, -73.51434773, 150
2068, 1114.9118818, -73.51434773, 150
2069, 351.915490388, 0, 87.9399754055
2070, 20.9642345942, 0, 55.521802751
2071, 1983.19320791, 5, 116.872789696
2072, 188.987436905, 0, 94.4031232646
2073, 146.493983221, 0, 117.060920216
2074, 246.383602339, 0, 93.5995235186
2075, 259.631389236, 0, 116.673395335
2076, 1344.1297681, 0, 101.827052488
2077, 1399.23305414, 0, 101.845543679
2078, 223.041001386, 96.7558622106, 150
2079, 128.170361759, 0, 93.4225273933
2080, 1779.76628228, 0, 43.1224843343
2081, 1983.18112104, -5, 116.869630419
2082, 973.094205263, 8.51434773004, 150
2083, 938.284493148, 0, 101.900263327
2084, 104.200443979, 0, 140
2085, 114.41680498, 0, 116.361607178
2086, 366.983068581, 0, 69.1899893739
2087, 1823.66338685, 90.65975383, 150
2088, 177.526854314, 0, 23.6329055932
2089, 1951.2946946, -35.8416229205, 150
2090, 1937.4265673, -50.3552998905, 150
2091, 498.022065455, -64.5117230508, 150
2092, 1246.86574833, -33.1419057788, 150
2093, 1191.39323911, 8.51434773004, 150
2094, 670.068162481, 0, 65.1184832129
2095, 1136.49871139, 18.51434773, 150
2096, 1957.20090558, 62.6660592324, 150
2097, 1983.19320791, 0, 107.21329554
*ELEMENT, TYPE=C3D10, ELSET=EALL
1, 1004, 1226, 1244, 1249, 1519, 1277, 1520, 1521, 1276, 1275
2, 215, 502, 503, 786, 1522, 540, 1523, 837, 1525, 1524
3, 492, 219, 220, 45, 1526, 241, 1527, 1528, 811, 812
4, 1227, 317, 987, 369, 1529, 1094, 1530, 1336, 1472, 1531
5, 182, 181, 272, 523, 202, 913, 917, 1532, 1534, 1533
6, 1237, 327, 1233, 380, 1535, 1536, 1348, 1314, 1492, 1335
7, 329, 381, 1234, 382, 1496, 1320, 1537, 1499, 408, 1321
8, 26, 422, 986, 20, 429, 1538, 1539, 428, 430, 1166
9, 373, 990, 320, 321, 1540, 1075, 1479, 1480, 1074, 347
10, 1259, 994, 1020, 1024, 1541, 1202, 1542, 1543, 1208, 1180
11, 375, 991, 322, 323, 1544, 1089, 1481, 1484, 1088, 349
12, 214, 262, 263, 1247, 1545, 284, 1546, 1547, 1362, 1385
13, 997, 993, 1023, 1261, 1103, 1192, 1191, 1548, 1550, 1549
14, 226, 225, 489, 274, 247, 1551, 1552, 1553, 1555, 1554
15, 270, 496, 491, 528, 1556, 643, 1557, 1558, 642, 641
16, 276, 505, 226, 227, 1559, 1560, 1561, 1562, 1563, 248
17, 319, 371, 1229, 372, 1476, 1326, 1564, 1477, 398, 1327
18, 1009, 316, 315, 369, 1141, 342, 1154, 1565, 1471, 1470
19, 1235, 1243, 995, 270, 1282, 1566, 1567, 1284, 1283, 1568
20, 187, 277, 494, 525, 890, 1569, 1570, 1571, 1572, 635
21, 1262, 220, 269, 1023, 1573, 1574, 1442, 1575, 1136, 1576
22, 484, 81, 80, 38, 602, 101, 603, 1577, 447, 444
23, 262, 503, 507, 506, 1578, 544, 1579, 1580, 546, 545
24, 497, 269, 221, 220, 1581, 1582, 1583, 1584, 1574, 242
25, 988, 1271, 1228, 310, 1585, 1304, 1586, 1587, 1281, 1305
26, 230, 279, 278, 487, 1588, 300, 1589, 1590, 1592, 1591
27, 877, 509, 508, 263, 1593, 541, 1594, 898, 1596, 1595
28, 1031, 1028, 992, 1264, 1118, 1197, 1213, 1597, 1599, 1598
29, 369, 1009, 987, 1249, 1565, 1102, 1531, 1379, 1601, 1600
30, 228, 227, 53, 490, 249, 824, 823, 1602, 1604, 1603
31, 98, 55, 97, 791, 480, 479, 118, 1605, 857, 1606
32, 82, 83, 40, 482, 103, 451, 448, 734, 733, 1607
33, 1240, 1007, 1247, 1227, 1608, 1609, 1343, 1355, 1610, 1364
34, 273, 274, 498, 225, 295, 1611, 1612, 1613, 1555, 1614
35, 184, 135, 134, 495, 775, 155, 776, 1615, 588, 587
36, 1233, 326, 993, 1242, 1616, 1093, 1617, 1359, 1619, 1618
37, 514, 217, 485, 520, 1620, 1621, 555, 558, 1622, 559
38, 324, 377, 323, 1241, 1485, 1486, 350, 1623, 1319, 1624
39, 337, 1263, 1272, 1021, 1625, 1450, 1626, 1121, 1628, 1627
40, 1235, 1008, 384, 1248, 1629, 1630, 1418, 1401, 1631, 1421
41, 1004, 1226, 1011, 1251, 1519, 1632, 1041, 1633, 1278, 1634
42, 514, 520, 482, 216, 558, 742, 720, 1635, 1637, 1636
43, 1239, 1013, 999, 990, 1638, 1219, 1639, 1640, 1218, 1112
44, 54, 793, 97, 55, 818, 1641, 478, 75, 841, 479
45, 338, 1255, 1263, 1015, 1642, 1373, 1643, 1128, 1645, 1644
46, 393, 996, 1027, 1236, 1646, 1217, 1647, 1367, 1649, 1648
47, 227, 52, 53, 522, 832, 73, 824, 1650, 1652, 1651
48, 229, 490, 54, 530, 1653, 1654, 799, 1655, 640, 1656
49, 230, 487, 229, 793, 1590, 1657, 251, 861, 1658, 817
50, 531, 93, 489, 51, 683, 608, 631, 1659, 471, 1660
51, 340, 392, 339, 996, 1518, 1515, 366, 1125, 1661, 1126
52, 1255, 1012, 278, 229, 1662, 1663, 1403, 1664, 1170, 1665
53, 315, 1266, 5, 1022, 1666, 1391, 1466, 1147, 1668, 1667
54, 505, 186, 525, 276, 1669, 1670, 666, 1559, 914, 1671
55, 1258, 1250, 1228, 1018, 1396, 1398, 1397, 1672, 1674, 1673
56, 1254, 272, 271, 223, 1297, 293, 1298, 1675, 1677, 1676
57, 499, 223, 524, 491, 1678, 1679, 645, 646, 1680, 644
58, 787, 216, 520, 790, 867, 1637, 1681, 874, 846, 1682
59, 214, 503, 213, 785, 1683, 1684, 235, 797, 1685, 798
60, 175, 176, 517, 887, 196, 1686, 1687, 943, 942, 1688
61, 484, 789, 506, 785, 1689, 1690, 621, 1691, 805, 1692
62, 26, 986, 1226, 1011, 1539, 1693, 1408, 1694, 1042, 1632
63, 500, 38, 37, 789, 1695, 58, 1696, 1697, 839, 838
64, 265, 266, 217, 1256, 287, 1698, 1699, 1289, 1288, 1700
65, 530, 229, 487, 793, 1655, 1657, 639, 1701, 817, 1658
66, 228, 227, 276, 1021, 249, 1562, 1702, 1188, 1187, 1703
67, 490, 530, 229, 494, 640, 1655, 1653, 637, 638, 1704
68, 213, 212, 789, 506, 234, 802, 801, 1705, 1706, 1690
69, 1266, 315, 1009, 1022, 1666, 1154, 1707, 1668, 1147, 1157
70, 20, 6, 1011, 26, 424, 1708, 1176, 428, 29, 1694
71, 1013, 1245, 1253, 1239, 1709, 1461, 1710, 1638, 1439, 1458
72, 269, 179, 178, 497, 906, 199, 903, 1581, 1712, 1711
73, 491, 528, 130, 180, 641, 687, 606, 1713, 1714, 768
74, 1014, 386, 1019, 333, 1715, 1716, 1064, 1158, 1507, 1182
75, 1229, 1245, 999, 1239, 1416, 1717, 1718, 1353, 1439, 1639
76, 484, 38, 500, 789, 1577, 1695, 615, 1689, 839, 1697
77, 264, 514, 509, 215, 1719, 721, 1720, 1721, 1723, 1722
78, 1017, 217, 1257, 1256, 1049, 1724, 1725, 1726, 1700, 1462
79, 991, 1231, 1269, 1030, 1727, 1431, 1728, 1201, 1730, 1729
80, 53, 228, 490, 54, 823, 1602, 1603, 74, 800, 1654
81, 1020, 221, 1003, 1259, 1045, 1039, 1046, 1542, 1732, 1731
82, 517, 881, 125, 175, 1733, 1734, 702, 1687, 948, 758
83, 268, 267, 493, 177, 289, 1735, 1736, 901, 899, 1737
84, 1013, 1005, 1245, 999, 1223, 1738, 1709, 1219, 1195, 1717
85, 52, 227, 531, 522, 832, 1739, 1740, 1652, 1650, 561
86, 483, 14, 163, 162, 1741, 981, 707, 708, 979, 167
87, 1015, 228, 1263, 1021, 1161, 1742, 1644, 1129, 1188, 1628
88, 336, 1272, 337, 390, 1743, 1626, 363, 1511, 1424, 1512
89, 996, 1236, 392, 1252, 1649, 1366, 1661, 1744, 1392, 1387
90, 264, 509, 877, 263, 1720, 1593, 928, 285, 1596, 898
91, 1027, 304, 15, 310, 1043, 306, 1044, 1745, 984, 983
92, 533, 189, 883, 882, 1746, 962, 1747, 1748, 946, 933
93, 97, 793, 487, 791, 1641, 1658, 595, 1606, 873, 1749
94, 97, 55, 793, 791, 479, 841, 1641, 1606, 857, 873
95, 886, 511, 885, 281, 1750, 1751, 963, 940, 1752, 953
96, 996, 279, 1236, 1252, 1753, 1446, 1649, 1744, 1412, 1392
97, 16, 1271, 1027, 310, 1280, 1754, 1755, 312, 1281, 1745
98, 1255, 338, 391, 392, 1642, 1517, 1371, 1372, 1516, 418
99, 534, 139, 11, 189, 716, 160, 671, 1756, 747, 746
100, 230, 1012, 278, 1252, 1171, 1663, 1589, 1757, 1758, 1413
101, 16, 1027, 15, 310, 1755, 1044, 309, 312, 1745, 983
102, 534, 883, 189, 12, 1759, 962, 1756, 1760, 966, 210
103, 524, 223, 48, 222, 1679, 822, 1761, 1762, 244, 821
104, 503, 786, 502, 785, 1524, 1525, 540, 1685, 807, 1763
105, 340, 392, 996, 393, 1518, 1661, 1125, 1469, 419, 1646
106, 1232, 992, 324, 325, 1764, 1083, 1765, 1766, 1082, 351
107, 222, 47, 48, 524, 820, 68, 821, 1762, 1767, 1761
108, 271, 181, 180, 491, 912, 201, 911, 1768, 1769, 1713
109, 85, 42, 794, 43, 455, 851, 1770, 454, 63, 852
110, 181, 523, 491, 272, 1534, 651, 1769, 913, 1533, 1771
111, 1026, 1268, 387, 1260, 1772, 1435, 1773, 1774, 1342, 1420
112, 90, 524, 47, 89, 685, 1767, 464, 110, 689, 462
113, 1008, 1248, 271, 1014, 1631, 1301, 1775, 1057, 1777, 1776
114, 1008, 385, 384, 1248, 1778, 411, 1630, 1631, 1422, 1421
115, 48, 90, 524, 47, 465, 685, 1761, 68, 464, 1767
116, 505, 276, 490, 227, 1559, 1779, 664, 1563, 1562, 1604
117, 45, 87, 532, 492, 458, 694, 1780, 1528, 591, 662
118, 217, 1016, 1269, 218, 1169, 1781, 1782, 239, 1133, 1783
119, 16, 1271, 393, 1027, 1280, 1290, 420, 1755, 1754, 1647
120, 991, 1257, 1231, 1238, 1784, 1456, 1727, 1785, 1455, 1350
121, 484, 81, 38, 39, 602, 447, 1577, 1786, 446, 59
122, 214, 263, 503, 509, 1546, 1787, 1683, 1788, 1596, 539
123, 503, 502, 484, 785, 540, 619, 618, 1685, 1763, 1691
124, 6, 3, 212, 486, 423, 233, 1789, 1790, 1792, 1791
125, 500, 38, 80, 37, 1695, 444, 575, 1696, 58, 445
126, 50, 489, 92, 93, 1793, 609, 469, 470, 608, 113
127, 996, 230, 279, 1252, 1205, 1588, 1753, 1744, 1757, 1412
128, 489, 226, 274, 495, 1552, 1553, 1554, 632, 1795, 1794
129, 386, 1254, 385, 1014, 1400, 1399, 412, 1715, 1797, 1796
130, 886, 163, 511, 483, 1798, 704, 1750, 1799, 707, 709
131, 988, 1271, 1027, 1010, 1585, 1754, 1061, 1151, 1800, 1220
132, 393, 1027, 1271, 1236, 1647, 1754, 1290, 1367, 1648, 1457
133, 339, 1012, 1255, 1015, 1142, 1662, 1801, 1127, 1143, 1645
134, 530, 490, 54, 96, 640, 1654, 1656, 686, 610, 477
135, 1266, 1226, 1009, 1249, 1303, 1802, 1707, 1302, 1276, 1601
136, 98, 56, 55, 791, 443, 76, 480, 1605, 858, 857
137, 1235, 1008, 331, 384, 1629, 1184, 1803, 1418, 1630, 1501
138, 495, 505, 185, 135, 564, 1804, 1805, 588, 612, 778
139, 514, 217, 265, 266, 1620, 1699, 1806, 1807, 1698, 287
140, 996, 231, 1010, 1236, 1206, 1149, 1207, 1649, 1809, 1808
141, 393, 1027, 340, 15, 1647, 1050, 1469, 1468, 1044, 367
142, 230, 278, 279, 1252, 1589, 300, 1588, 1757, 1413, 1412
143, 388, 1026, 1025, 1268, 1810, 1100, 1811, 1436, 1772, 1812
144, 385, 1008, 1014, 1248, 1778, 1057, 1796, 1422, 1631, 1777
145, 388, 1026, 335, 1025, 1810, 1193, 1509, 1811, 1100, 1190
146, 274, 183, 273, 498, 920, 919, 295, 1611, 1813, 1612
147, 129, 178, 497, 128, 764, 1711, 601, 149, 763, 600
148, 45, 88, 532, 87, 461, 690, 1780, 458, 108, 694
149, 1031, 267, 218, 1028, 1814, 1815, 1117, 1118, 1816, 1116
150, 1028, 1265, 1002, 1264, 1817, 1818, 1196, 1599, 1464, 1819
151, 530, 487, 97, 793, 639, 595, 684, 1701, 1658, 1641
152, 494, 229, 278, 487, 1704, 1665, 1820, 624, 1657, 1591
153, 514, 482, 215, 216, 720, 1821, 1723, 1635, 1636, 237
154, 1004, 1244, 1226, 1251, 1520, 1277, 1519, 1633, 1279, 1278
155, 1232, 992, 1002, 1264, 1764, 1107, 1822, 1429, 1598, 1819
156, 1257, 217, 266, 1256, 1724, 1698, 1293, 1462, 1700, 1288
157, 227, 53, 490, 522, 824, 1603, 1604, 1650, 1651, 663
158, 310, 1027, 988, 1271, 1745, 1061, 1587, 1281, 1754, 1585
159, 988, 1271, 1010, 1250, 1585, 1800, 1151, 1823, 1460, 1824
160, 1027, 1010, 1271, 1236, 1220, 1800, 1754, 1648, 1808, 1457
161, 32, 6, 486, 3, 437, 1790, 718, 435, 423, 1792
162, 279, 231, 512, 487, 1825, 1826, 1827, 1592, 1828, 566
163, 512, 885, 281, 280, 1829, 953, 1830, 1831, 952, 302
164, 527, 178, 269, 268, 1832, 903, 1833, 1834, 902, 290
165, 323, 1241, 377, 376, 1624, 1319, 1486, 1487, 1318, 403
166, 1023, 1261, 993, 1029, 1549, 1550, 1192, 1132, 1835, 1210
167, 997, 1233, 1261, 1237, 1836, 1427, 1548, 1837, 1348, 1428
168, 177, 527, 268, 178, 1838, 1834, 901, 198, 1832, 902
169, 185, 184, 275, 495, 205, 924, 921, 1805, 1615, 1839
170, 277, 186, 276, 525, 915, 914, 298, 1572, 1670, 1671
171, 325, 377, 1232, 378, 1488, 1324, 1766, 1489, 404, 1325
172, 1230, 1256, 998, 1238, 1437, 1840, 1841, 1356, 1438, 1842
173, 788, 789, 500, 37, 854, 1697, 1843, 864, 838, 1696
174, 1004, 1226, 1009, 986, 1519, 1802, 1037, 1035, 1693, 1036
175, 227, 226, 52, 531, 248, 833, 832, 1739, 1844, 1740
176, 223, 1254, 1019, 1014, 1675, 1845, 1058, 1055, 1797, 1064
177, 499, 272, 491, 523, 1846, 1771, 646, 650, 1533, 651
178, 54, 793, 530, 97, 818, 1701, 1656, 478, 1641, 684
179, 526, 50, 92, 49, 1847, 469, 688, 1848, 70, 468
180, 181, 131, 491, 523, 770, 607, 1769, 1534, 692, 651
181, 45, 492, 44, 87, 1528, 1849, 65, 458, 591, 459
182, 517, 519, 125, 881, 556, 713, 702, 1733, 1850, 1734
183, 271, 270, 491, 180, 292, 1557, 1768, 911, 910, 1713
184, 385, 1008, 332, 1014, 1778, 1183, 1503, 1796, 1057, 1159
185, 6, 3, 1011, 212, 423, 1033, 1708, 1789, 233, 1034
186, 1031, 992, 1232, 1264, 1213, 1764, 1851, 1597, 1598, 1429
187, 269, 492, 527, 268, 1852, 629, 1833, 290, 1853, 1834
188, 331, 383, 330, 995, 1500, 1498, 357, 1177, 1854, 1178
189, 1262, 1261, 997, 1023, 1465, 1548, 1855, 1575, 1549, 1191
190, 327, 997, 328, 1237, 1073, 1072, 354, 1535, 1837, 1856
191, 270, 179, 269, 497, 909, 906, 291, 1857, 1712, 1581
192, 534, 258, 883, 12, 1858, 925, 1759, 1760, 260, 966
193, 98, 792, 56, 791, 1859, 871, 443, 1605, 842, 858
194, 534, 189, 11, 12, 1756, 746, 671, 1760, 210, 211
195, 1258, 281, 1250, 1018, 1295, 1393, 1396, 1672, 1860, 1674
196, 519, 878, 265, 488, 1861, 959, 1862, 741, 1864, 1863
197, 1269, 1030, 1231, 1241, 1729, 1730, 1431, 1432, 1865, 1358
198, 218, 217, 794, 485, 239, 848, 847, 1866, 1621, 1867
199, 1002, 1264, 992, 1028, 1819, 1598, 1107, 1196, 1599, 1197
200, 788, 3, 32, 212, 803, 435, 1868, 853, 233, 1869
201, 82, 40, 502, 482, 448, 1870, 583, 734, 1607, 578
202, 505, 275, 226, 495, 1871, 1872, 1560, 564, 1839, 1795
203, 176, 493, 517, 267, 1873, 579, 1686, 900, 1735, 1874
204, 222, 221, 270, 995, 243, 1875, 1876, 1047, 1038, 1568
205, 527, 178, 497, 269, 1832, 1711, 660, 1833, 903, 1581
206, 327, 993, 997, 1233, 1092, 1103, 1073, 1536, 1617, 1836
207, 84, 520, 485, 790, 711, 559, 572, 1877, 1682, 1878
208, 280, 1250, 1010, 1236, 1394, 1824, 1879, 1445, 1447, 1808
209, 882, 188, 139, 189, 947, 783, 1880, 946, 209, 747
210, 79, 500, 788, 515, 576, 1843, 1881, 727, 740, 1882
211, 506, 261, 212, 486, 1883, 1884, 1706, 675, 1885, 1791
212, 264, 509, 514, 488, 1720, 721, 1719, 1886, 668, 724
213, 333, 385, 1014, 386, 1504, 1796, 1158, 1507, 412, 1715
214, 493, 267, 485, 517, 1735, 1887, 580, 579, 1874, 557
215, 332, 384, 1008, 385, 1502, 1630, 1183, 1503, 411, 1778
216, 329, 1234, 1243, 382, 1537, 1360, 1888, 1499, 1321, 1340
217, 231, 279, 280, 1236, 1825, 301, 1889, 1809, 1446, 1445
218, 16, 1027, 393, 15, 1755, 1647, 420, 309, 1044, 1468
219, 988, 1228, 1250, 1018, 1586, 1398, 1823, 1152, 1673, 1674
220, 1232, 1264, 1002, 1242, 1429, 1819, 1822, 1352, 1430, 1890
221, 329, 1243, 383, 382, 1888, 1341, 1497, 1499, 1340, 409
222, 126, 176, 493, 517, 760, 1873, 581, 679, 1686, 579
223, 41, 787, 520, 790, 860, 1681, 1891, 855, 874, 1682
224, 787, 216, 482, 520, 867, 1636, 1892, 1681, 1637, 742
225, 485, 266, 514, 519, 1893, 1807, 555, 553, 1894, 554
226, 991, 1231, 375, 1238, 1727, 1330, 1544, 1785, 1350, 1323
227, 324, 992, 1241, 1001, 1083, 1895, 1623, 1076, 1104, 1896
228, 886, 511, 163, 258, 1750, 704, 1798, 926, 1897, 982
229, 161, 10, 792, 9, 165, 1898, 1899, 974, 78, 875
230, 13, 14, 1258, 281, 973, 1294, 1900, 1901, 303, 1295
231, 886, 483, 14, 163, 1799, 1741, 941, 1798, 707, 981
232, 534, 11, 164, 12, 671, 169, 672, 1760, 211, 976
233, 220, 492, 45, 532, 1527, 1528, 812, 1902, 662, 1780
234, 1013, 1253, 1245, 265, 1710, 1461, 1709, 1903, 1411, 1405
235, 41, 83, 787, 40, 450, 1904, 860, 61, 451, 859
236, 336, 1267, 388, 1025, 1905, 1433, 1510, 1189, 1906, 1811
237, 486, 788, 212, 500, 1907, 853, 1791, 676, 1843, 1908
238, 320, 372, 1239, 373, 1478, 1328, 1909, 1479, 399, 1329
239, 50, 51, 489, 93, 71, 1660, 1793, 470, 471, 608
240, 529, 495, 184, 134, 633, 1615, 1910, 681, 587, 776
241, 1017, 1016, 1257, 217, 1221, 1911, 1725, 1049, 1169, 1724
242, 324, 323, 1001, 1241, 350, 1077, 1076, 1623, 1624, 1896
243, 324, 1232, 377, 1241, 1765, 1324, 1485, 1623, 1349, 1319
244, 269, 492, 497, 527, 1852, 661, 1581, 1833, 629, 660
245, 217, 1257, 266, 1269, 1724, 1293, 1698, 1782, 1292, 1291
246, 1015, 1263, 338, 1021, 1644, 1643, 1128, 1129, 1628, 1120
247, 228, 227, 490, 276, 249, 1604, 1602, 1702, 1562, 1779
248, 326, 378, 1242, 379, 1490, 1338, 1619, 1493, 405, 1339
249, 485, 217, 267, 218, 1621, 1912, 1887, 1866, 239, 1815
250, 264, 215, 509, 263, 1721, 1722, 1720, 285, 1913, 1596
251, 323, 375, 1231, 376, 1484, 1330, 1914, 1487, 402, 1331
252, 486, 506, 261, 507, 675, 1883, 1885, 677, 545, 1915
253, 514, 215, 482, 509, 1723, 1821, 720, 721, 1722, 577
254, 124, 878, 174, 881, 1916, 950, 756, 1917, 965, 949
255, 1004, 212, 261, 1251, 1053, 1884, 1918, 1633, 1919, 1273
256, 273, 498, 183, 182, 1612, 1813, 919, 918, 1920, 203
257, 498, 183, 133, 529, 1813, 774, 597, 656, 1921, 693
258, 223, 48, 499, 524, 822, 1922, 1678, 1679, 1761, 645
259, 264, 265, 514, 216, 286, 1806, 1719, 1923, 1924, 1635
260, 26, 1011, 1226, 1251, 1694, 1632, 1408, 1414, 1634, 1278
261, 1266, 368, 1009, 315, 1311, 1925, 1707, 1666, 1467, 1154
262, 2, 3, 32, 788, 18, 435, 436, 804, 803, 1868
263, 788, 515, 32, 2, 1882, 735, 1868, 804, 1926, 436
264, 54, 229, 530, 793, 799, 1655, 1656, 818, 817, 1701
265, 53, 54, 490, 96, 74, 1654, 1603, 476, 477, 610
266, 505, 525, 186, 136, 666, 1670, 1669, 613, 699, 780
267, 996, 393, 392, 1236, 1646, 419, 1661, 1649, 1367, 1366
268, 270, 528, 497, 496, 1558, 657, 1857, 1556, 642, 654
269, 1259, 1003, 1020, 994, 1731, 1046, 1542, 1541, 1115, 1202
270, 1003, 330, 329, 1243, 1098, 356, 1099, 1927, 1928, 1888
271, 1003, 1243, 329, 1234, 1927, 1888, 1099, 1929, 1360, 1537
272, 991, 998, 1257, 1238, 1105, 1930, 1784, 1785, 1842, 1455
273, 1262, 994, 997, 1237, 1931, 1109, 1855, 1448, 1932, 1837
274, 224, 49, 50, 526, 826, 70, 829, 1933, 1848, 1847
275, 310, 988, 305, 1228, 1587, 1164, 985, 1305, 1586, 1934
276, 996, 279, 231, 1236, 1753, 1825, 1206, 1649, 1446, 1809
277, 796, 162, 161, 255, 1935, 166, 1936, 836, 980, 975
278, 13, 14, 281, 483, 973, 303, 1901, 1937, 1741, 1938
279, 230, 487, 231, 279, 1590, 1828, 252, 1588, 1592, 1825
280, 514, 265, 217, 216, 1806, 1699, 1620, 1635, 1924, 238
281, 876, 504, 481, 508, 1939, 620, 1940, 1941, 543, 670
282, 220, 1262, 1259, 1024, 1573, 1441, 1942, 1179, 1943, 1543
283, 517, 485, 519, 266, 557, 553, 556, 1944, 1893, 1894
284, 44, 218, 43, 521, 808, 809, 64, 1945, 1947, 1946
285, 1014, 386, 1254, 1019, 1715, 1400, 1797, 1064, 1716, 1845
286, 26, 1226, 422, 25, 1408, 1948, 429, 28, 1409, 432
287, 1266, 986, 1009, 1226, 1949, 1036, 1707, 1303, 1693, 1802
288, 219, 1265, 1261, 1029, 1950, 1381, 1951, 1131, 1952, 1835
289, 1003, 995, 270, 221, 1040, 1568, 1953, 1039, 1038, 1875
290, 995, 330, 1243, 383, 1178, 1928, 1566, 1854, 1498, 1341
291, 512, 279, 513, 280, 1827, 1954, 570, 1831, 301, 1955
292, 95, 96, 53, 490, 116, 476, 475, 611, 610, 1603
293, 484, 789, 500, 506, 1689, 1697, 615, 621, 1690, 667
294, 876, 877, 508, 263, 897, 1594, 1941, 889, 898, 1595
295, 264, 488, 265, 878, 1886, 1863, 286, 958, 1864, 959
296, 1006, 215, 1246, 263, 1138, 1956, 1957, 1958, 1913, 1384
297, 219, 492, 521, 44, 1526, 627, 1959, 810, 1849, 1945
298, 1032, 1021, 1272, 227, 1212, 1627, 1960, 1146, 1187, 1961
299, 526, 50, 489, 92, 1847, 1793, 648, 688, 469, 609
300, 219, 1264, 268, 1265, 1962, 1380, 1963, 1950, 1464, 1382
301, 1032, 1272, 1021, 337, 1960, 1627, 1212, 1185, 1626, 1121
302, 1261, 269, 268, 219, 1377, 290, 1378, 1951, 1964, 1963
303, 485, 266, 217, 514, 1893, 1698, 1621, 555, 1807, 1620
304, 876, 172, 481, 504, 916, 1965, 1940, 1939, 1966, 620
305, 884, 279, 494, 278, 954, 1967, 1968, 908, 300, 1820
306, 1004, 1011, 212, 1251, 1041, 1034, 1053, 1633, 1634, 1919
307, 375, 1238, 321, 322, 1323, 1969, 1482, 1481, 1970, 348
308, 792, 255, 161, 9, 834, 975, 1899, 875, 256, 974
309, 1010, 1250, 1271, 1236, 1824, 1460, 1800, 1808, 1447, 1457
310, 232, 281, 1018, 1250, 1971, 1860, 1051, 1972, 1393, 1674
311, 310, 305, 311, 1228, 985, 972, 313, 1305, 1934, 1407
312, 226, 225, 51, 489, 247, 831, 830, 1552, 1551, 1660
313, 505, 522, 531, 227, 562, 561, 560, 1563, 1650, 1739
314, 1272, 276, 227, 1021, 1389, 1562, 1961, 1627, 1703, 1187
315, 278, 187, 494, 884, 891, 1570, 1820, 908, 907, 1968
316, 84, 485, 794, 790, 572, 1867, 1973, 1877, 1878, 866
317, 315, 1266, 368, 5, 1666, 1311, 1467, 1466, 1391, 394
318, 219, 267, 1028, 218, 1974, 1816, 1140, 240, 1815, 1116
319, 989, 371, 319, 318, 1975, 1476, 1084, 1085, 1474, 345
320, 265, 266, 881, 519, 287, 937, 936, 1862, 1894, 1850
321, 1013, 216, 1245, 1005, 1172, 1976, 1709, 1223, 1168, 1738
322, 1005, 1229, 999, 989, 1977, 1718, 1195, 1174, 1978, 1108
323, 265, 217, 1017, 1256, 1699, 1049, 1979, 1289, 1700, 1726
324, 226, 51, 531, 489, 830, 1659, 1844, 1552, 1660, 631
325, 223, 499, 224, 273, 1678, 1980, 245, 1981, 1983, 1982
326, 336, 388, 335, 1025, 1510, 1509, 362, 1189, 1811, 1190
327, 84, 794, 42, 790, 1973, 851, 453, 1877, 866, 856
328, 338, 390, 1263, 391, 1514, 1368, 1643, 1517, 417, 1369
329, 261, 880, 501, 507, 892, 1984, 1985, 1915, 1986, 625
330, 879, 120, 7, 516, 1987, 744, 895, 1988, 730, 1989
331, 1266, 1249, 1009, 368, 1302, 1601, 1707, 1311, 1312, 1925
332, 33, 879, 7, 516, 1990, 895, 438, 736, 1988, 1989
333, 232, 231, 795, 518, 253, 863, 862, 1991, 1993, 1992
334, 796, 162, 510, 161, 1935, 705, 1994, 1936, 166, 706
335, 1017, 1257, 998, 1256, 1725, 1930, 1198, 1726, 1462, 1840
336, 787, 215, 786, 482, 868, 837, 865, 1892, 1821, 1995
337, 1227, 1004, 1249, 987, 1996, 1521, 1395, 1530, 1101, 1600
338, 878, 124, 173, 488, 1916, 753, 951, 1864, 732, 1997
339, 217, 1269, 266, 267, 1782, 1291, 1698, 1912, 1299, 288
340, 214, 503, 785, 786, 1683, 1685, 797, 806, 1524, 807
341, 33, 6, 261, 486, 439, 282, 1998, 719, 1790, 1885
342, 212, 506, 500, 789, 1706, 667, 1908, 802, 1690, 1697
343, 486, 212, 506, 500, 1791, 1706, 675, 676, 1908, 667
344, 187, 186, 277, 525, 207, 915, 890, 1571, 1670, 1572
345, 261, 501, 880, 879, 1985, 1984, 892, 944, 1999, 945
346, 32, 3, 486, 212, 435, 1792, 718, 1869, 233, 1791
347, 120, 501, 516, 879, 573, 737, 730, 1987, 1999, 1988
348, 1017, 998, 1257, 1016, 1198, 1930, 1725, 1221, 1216, 1911
349, 532, 46, 221, 496, 2000, 816, 2001, 653, 2003, 2002
350, 1013, 265, 1245, 216, 1903, 1405, 1709, 1172, 1924, 1976
351, 176, 493, 127, 126, 1873, 582, 759, 760, 581, 147
352, 1254, 1019, 1260, 272, 1845, 2004, 1313, 1297, 2005, 1307
353, 517, 887, 266, 881, 1688, 938, 1944, 1733, 957, 937
354, 991, 1001, 1231, 1030, 1113, 2006, 1727, 1201, 1200, 1730
355, 265, 216, 1017, 217, 1924, 1048, 1979, 1699, 238, 1049
356, 498, 133, 183, 182, 597, 774, 1813, 1920, 771, 203
357, 223, 273, 1019, 272, 1981, 2007, 1058, 1677, 294, 2005
358, 1268, 225, 273, 1026, 2008, 1613, 1310, 1772, 1063, 2009
359, 226, 505, 495, 531, 1560, 564, 1795, 1844, 560, 563
360, 1259, 269, 221, 270, 1388, 1582, 1732, 1287, 291, 1875
361, 129, 497, 179, 528, 601, 1712, 766, 695, 657, 2010
362, 1262, 1023, 997, 1024, 1575, 1191, 1855, 1943, 1225, 1209
363, 994, 1237, 1234, 328, 1932, 1354, 2011, 1079, 1856, 2012
364, 329, 383, 1243, 330, 1497, 1341, 1888, 356, 1498, 1928
365, 317, 1227, 987, 1000, 1529, 1530, 1094, 1091, 2013, 1110
366, 214, 263, 509, 215, 1546, 1596, 1788, 236, 1913, 1722
367, 331, 1235, 383, 995, 1803, 1417, 1500, 1177, 1567, 1854
368, 324, 1232, 1241, 992, 1765, 1349, 1623, 1083, 1764, 1895
369, 1269, 1030, 1241, 1270, 1729, 1865, 1432, 1463, 2014, 1453
370, 1031, 1232, 992, 1241, 1851, 1764, 1213, 2015, 1349, 1895
371, 1257, 991, 1231, 1269, 1784, 1727, 1456, 1292, 1728, 1431
372, 1232, 1002, 992, 325, 1822, 1107, 1764, 1766, 1097, 1082
373, 498, 132, 133, 182, 596, 153, 597, 1920, 772, 771
374, 274, 495, 529, 489, 1794, 633, 2016, 1554, 632, 634
375, 1019, 387, 1260, 1026, 2017, 1420, 2004, 1066, 1773, 1774
376, 339, 338, 1255, 392, 365, 1642, 1801, 1515, 1516, 1372
377, 1239, 1013, 990, 1253, 1638, 1218, 1640, 1458, 1710, 2018
378, 533, 883, 511, 885, 1747, 2019, 673, 2020, 934, 1751
379, 321, 373, 1230, 374, 1480, 1316, 2021, 1483, 400, 1317
380, 529, 183, 274, 498, 1921, 920, 2016, 656, 1813, 1611
381, 121, 170, 171, 501, 748, 191, 750, 574, 2023, 2022
382, 170, 880, 501, 879, 930, 1984, 2023, 955, 945, 1999
383, 481, 122, 172, 171, 594, 752, 1965, 2024, 749, 192
384, 876, 877, 504, 508, 897, 2025, 1939, 1941, 1594, 543
385, 481, 501, 171, 880, 614, 2022, 2024, 2026, 1984, 929
386, 262, 508, 876, 507, 2027, 1941, 888, 1579, 548, 2028
387, 371, 1000, 318, 989, 2029, 1090, 1474, 1975, 1106, 1085
388, 178, 128, 527, 497, 763, 691, 1832, 1711, 600, 660
389, 269, 492, 220, 497, 1852, 1527, 1574, 1581, 661, 1584
390, 183, 529, 134, 133, 1921, 681, 773, 774, 693, 154
391, 223, 1254, 272, 1019, 1675, 1297, 1677, 1058, 1845, 2005
392, 226, 276, 227, 1272, 1561, 1562, 248, 2030, 1389, 1961
393, 181, 491, 131, 180, 1769, 607, 770, 201, 1713, 767
394, 229, 277, 228, 490, 2031, 2032, 250, 1653, 2033, 1602
395, 274, 498, 225, 489, 1611, 1614, 1555, 1554, 649, 1551
396, 505, 227, 490, 522, 1563, 1604, 664, 562, 1650, 663
397, 373, 990, 321, 1230, 1540, 1074, 1480, 1316, 2034, 2021
398, 375, 991, 323, 1231, 1544, 1088, 1484, 1330, 1727, 1914
399, 1262, 994, 1259, 1024, 1931, 1541, 1441, 1943, 1208, 1543
400, 492, 527, 268, 493, 629, 1834, 1853, 628, 630, 1736
401, 45, 532, 88, 46, 1780, 690, 461, 66, 2000, 460
402, 1031, 1232, 1270, 1264, 1851, 1454, 2035, 1597, 1429, 1374
403, 532, 496, 88, 46, 653, 599, 690, 2000, 2003, 460
404, 1240, 989, 1229, 1246, 2036, 1978, 1351, 1345, 2037, 1370
405, 1229, 999, 372, 1239, 1718, 2038, 1327, 1353, 1639, 1328
406, 1009, 315, 368, 369, 1154, 1467, 1925, 1565, 1470, 395
407, 161, 792, 796, 255, 1899, 835, 1936, 975, 834, 836
408, 98, 56, 792, 10, 443, 871, 1859, 119, 442, 1898
409, 98, 792, 518, 510, 1859, 2039, 536, 537, 2040, 535
410, 339, 1015, 1255, 338, 1127, 1645, 1801, 365, 1128, 1642
411, 1015, 228, 277, 1263, 1161, 2032, 2041, 1644, 1742, 1425
412, 98, 97, 487, 791, 118, 595, 567, 1605, 1606, 1749
413, 884, 882, 513, 279, 964, 2042, 2043, 954, 960, 1954
414, 530, 229, 494, 487, 1655, 1704, 638, 639, 1657, 624
415, 79, 37, 500, 80, 441, 1696, 576, 100, 445, 575
416, 507, 262, 506, 261, 1579, 1580, 545, 1915, 283, 1883
417, 484, 80, 500, 38, 603, 575, 615, 1577, 444, 1695
418, 484, 38, 789, 785, 1577, 839, 1689, 1691, 840, 805
419, 484, 39, 38, 785, 1786, 59, 1577, 1691, 825, 840
420, 1009, 368, 1249, 369, 1925, 1312, 1601, 1565, 395, 1379
421, 262, 876, 508, 263, 888, 1941, 2027, 284, 889, 1595
422, 876, 877, 172, 504, 897, 905, 916, 1939, 2025, 1966
423, 1240, 1000, 1007, 1227, 2044, 1071, 1608, 1355, 2013, 1610
424, 19, 1266, 421, 25, 2045, 2046, 427, 425, 1443, 426
425, 1240, 989, 1006, 1000, 2036, 1124, 2047, 2044, 1106, 1069
426, 503, 262, 507, 508, 1578, 1579, 544, 547, 2027, 548
427, 214, 213, 503, 262, 235, 1684, 1683, 1545, 2048, 1578
428, 503, 484, 506, 785, 618, 621, 546, 1685, 1691, 1692
429, 13, 162, 796, 255, 978, 1935, 849, 257, 980, 836
430, 988, 1250, 1010, 1018, 1823, 1824, 1151, 1152, 1674, 1153
431, 161, 792, 510, 796, 1899, 2040, 706, 1936, 835, 1994
432, 495, 505, 275, 185, 564, 1871, 1839, 1805, 1804, 921
433, 1267, 336, 1032, 1025, 1905, 1186, 2049, 1906, 1189, 1160
434, 1026, 224, 273, 1019, 1062, 1982, 2009, 1066, 1059, 2007
435, 529, 495, 274, 184, 633, 1794, 2016, 1910, 1615, 923
436, 95, 490, 53, 522, 611, 1603, 475, 698, 663, 1651
437, 1272, 336, 1267, 389, 1743, 1905, 1402, 1423, 1513, 1434
438, 336, 389, 1272, 390, 1513, 1423, 1743, 1511, 416, 1424
439, 50, 51, 225, 489, 71, 831, 828, 1793, 1660, 1551
440, 498, 132, 182, 523, 596, 772, 1920, 658, 696, 1532
441, 876, 508, 481, 507, 1941, 670, 1940, 2028, 548, 626
442, 94, 522, 95, 52, 722, 698, 115, 472, 1652, 474
443, 171, 501, 170, 880, 2022, 2023, 191, 929, 1984, 930
444, 533, 883, 885, 882, 1747, 934, 2020, 1748, 933, 935
445, 505, 186, 185, 136, 1669, 206, 1804, 613, 780, 777
446, 94, 531, 522, 52, 723, 561, 722, 472, 1740, 1652
447, 230, 278, 1012, 229, 1589, 1663, 1171, 251, 1665, 1170
448, 232, 280, 1250, 1010, 2050, 1394, 1972, 1150, 1879, 1824
449, 1255, 278, 277, 229, 1403, 299, 1404, 1664, 1665, 2031
450, 795, 231, 791, 518, 863, 869, 843, 1992, 1993, 2051
451, 86, 521, 43, 85, 680, 1946, 457, 106, 710, 454
452, 533, 512, 513, 882, 568, 570, 569, 1748, 2052, 2042
453, 788, 486, 32, 515, 1907, 718, 1868, 1882, 739, 735
454, 20, 6, 3, 1011, 424, 423, 23, 1176, 1708, 1033
455, 788, 32, 486, 212, 1868, 718, 1907, 853, 1869, 1791
456, 26, 986, 422, 1226, 1539, 1538, 429, 1408, 1693, 1948
457, 516, 261, 33, 879, 2053, 1998, 736, 1988, 944, 1990
458, 988, 1228, 1271, 1250, 1586, 1304, 1585, 1823, 1398, 1460
459, 338, 390, 337, 1263, 1514, 1512, 364, 1643, 1368, 1625
460, 232, 1018, 1010, 1250, 1051, 1153, 1150, 1972, 1674, 1824
461, 1232, 378, 1002, 325, 1325, 2054, 1822, 1766, 1489, 1097
462, 1269, 1030, 267, 218, 1729, 2055, 1299, 1783, 1135, 1815
463, 991, 1030, 1269, 1016, 1201, 1729, 1728, 1215, 1134, 1781
464, 325, 377, 324, 1232, 1488, 1485, 351, 1766, 1324, 1765
465, 1031, 1264, 267, 1028, 1597, 1376, 1814, 1118, 1599, 1816
466, 229, 490, 228, 54, 1653, 1602, 250, 799, 1654, 800
467, 229, 277, 490, 494, 2031, 2033, 1653, 1704, 1569, 637
468, 333, 385, 332, 1014, 1504, 1503, 359, 1158, 1796, 1159
469, 387, 1260, 386, 1019, 1420, 1419, 413, 2017, 2004, 1716
470, 261, 516, 501, 879, 2053, 737, 1985, 944, 1988, 1999
471, 6, 261, 212, 1251, 282, 1884, 1789, 1274, 1273, 1919
472, 212, 1251, 1011, 6, 1919, 1634, 1034, 1789, 1274, 1708
473, 261, 501, 516, 486, 1985, 737, 2053, 1885, 678, 738
474, 86, 521, 44, 43, 680, 1945, 456, 457, 1946, 64
475, 514, 265, 519, 266, 1806, 1862, 554, 1807, 287, 1894
476, 987, 1227, 369, 1249, 1530, 1336, 1531, 1600, 1395, 1379
477, 1227, 317, 369, 370, 1529, 1472, 1336, 1337, 1475, 396
478, 1262, 1234, 1259, 994, 1449, 1440, 1441, 1931, 2011, 1541
479, 521, 218, 493, 219, 1947, 2056, 617, 1959, 240, 2057
480, 129, 528, 179, 130, 695, 2010, 766, 150, 687, 765
481, 221, 497, 496, 270, 1583, 654, 2002, 1875, 1857, 1556
482, 269, 221, 220, 1259, 1582, 242, 1574, 1388, 1732, 1942
483, 372, 999, 320, 1239, 2038, 1086, 1478, 1328, 1639, 1909
484, 878, 877, 488, 173, 956, 2058, 1864, 951, 904, 1997
485, 1229, 999, 319, 372, 1718, 1087, 1564, 1327, 2038, 1477
486, 125, 881, 174, 175, 1734, 949, 755, 758, 948, 195
487, 494, 187, 137, 138, 1570, 782, 589, 590, 781, 158
488, 138, 188, 884, 187, 784, 932, 2059, 781, 208, 907
489, 494, 487, 278, 279, 624, 1591, 1820, 1967, 1592, 300
490, 124, 881, 125, 519, 1917, 1734, 145, 712, 1850, 713
491, 216, 520, 790, 217, 1637, 1682, 846, 238, 1622, 845
492, 214, 262, 503, 263, 1545, 1578, 1683, 1546, 284, 1787
493, 1229, 319, 999, 989, 1564, 1087, 1718, 1978, 1084, 1108
494, 502, 786, 39, 785, 1525, 813, 2060, 1763, 807, 825
495, 1004, 261, 1244, 1251, 1918, 1296, 1520, 1633, 1273, 1279
496, 503, 214, 509, 215, 1683, 1788, 539, 1523, 236, 1722
497, 223, 273, 224, 1019, 1981, 1982, 245, 1058, 2007, 1059
498, 26, 6, 1011, 1251, 29, 1708, 1694, 1414, 1274, 1634
499, 19, 1266, 1022, 421, 2045, 1668, 1203, 427, 2046, 2061
500, 187, 277, 278, 494, 890, 299, 891, 1570, 1569, 1820
501, 277, 278, 494, 229, 299, 1820, 1569, 2031, 1665, 1704
502, 1263, 228, 276, 1021, 1742, 1702, 1426, 1628, 1188, 1703
503, 483, 13, 162, 796, 1937, 978, 708, 2062, 849, 1935
504, 232, 483, 512, 518, 2063, 551, 2064, 1991, 550, 549
505, 483, 13, 14, 162, 1937, 973, 1741, 708, 978, 979
506, 222, 271, 223, 1014, 2065, 1676, 244, 1054, 1776, 1055
507, 270, 221, 222, 496, 1875, 243, 1876, 1556, 2002, 2066
508, 47, 524, 222, 496, 1767, 1762, 820, 2067, 655, 2066
509, 1003, 329, 994, 1234, 1099, 1078, 1115, 1929, 1537, 2011
510, 491, 223, 272, 499, 1680, 1677, 1771, 646, 1678, 1846
511, 89, 88, 496, 46, 109, 599, 598, 463, 460, 2003
512, 1235, 331, 1008, 995, 1803, 1184, 1629, 1567, 1177, 1163
513, 216, 520, 217, 514, 1637, 1622, 238, 1635, 558, 1620
514, 1264, 219, 267, 1028, 1962, 1974, 1376, 1599, 1140, 1816
515, 485, 217, 794, 790, 1621, 848, 1867, 1878, 845, 866
516, 485, 520, 217, 790, 559, 1622, 1621, 1878, 1682, 845
517, 84, 42, 41, 790, 453, 62, 452, 1877, 856, 855
518, 519, 881, 265, 878, 1850, 936, 1862, 1861, 965, 959
519, 499, 91, 48, 49, 604, 466, 1922, 2068, 467, 69
520, 788, 212, 500, 789, 853, 1908, 1843, 854, 802, 1697
521, 79, 788, 500, 37, 1881, 1843, 576, 441, 864, 1696
522, 177, 493, 176, 267, 1737, 1873, 197, 899, 1735, 900
523, 990, 1253, 1230, 1239, 2018, 1459, 2034, 1640, 1458, 1357
524, 1013, 999, 1245, 1239, 1219, 1717, 1709, 1638, 1639, 1439
525, 265, 1256, 1017, 1253, 1289, 1726, 1979, 1411, 1410, 2069
526, 1263, 276, 1272, 1021, 1426, 1389, 1450, 1628, 1703, 1627
527, 337, 1263, 390, 1272, 1625, 1368, 1512, 1626, 1450, 1424
528, 1263, 1021, 337, 338, 1628, 1121, 1625, 1643, 1120, 364
529, 1255, 1252, 278, 1012, 1386, 1413, 1403, 1662, 1758, 1663
530, 422, 986, 19, 25, 1538, 1165, 431, 432, 2070, 425
531, 422, 19, 986, 20, 431, 1165, 1538, 430, 22, 1166
532, 422, 25, 1226, 986, 432, 1409, 1948, 1538, 2070, 1693
533, 26, 986, 1011, 20, 1539, 1042, 1694, 428, 1166, 1176
534, 331, 1235, 384, 383, 1803, 1418, 1501, 1500, 1417, 410
535, 328, 380, 1237, 381, 1494, 1314, 1856, 1495, 407, 1315
536, 1028, 1265, 1029, 1002, 1817, 1952, 1224, 1196, 1818, 1211
537, 1233, 326, 1242, 379, 1616, 1619, 1359, 1334, 1493, 1339
538, 5, 1266, 421, 1022, 1391, 2046, 434, 1667, 1668, 2061
539, 486, 788, 500, 515, 1907, 1843, 676, 739, 1882, 740
540, 32, 2, 515, 1, 436, 1926, 735, 34, 17, 728
541, 230, 278, 229, 487, 1589, 1665, 251, 1590, 1591, 1657
542, 232, 1250, 280, 281, 1972, 1394, 2050, 1971, 1393, 302
543, 98, 487, 518, 791, 567, 565, 536, 1605, 1749, 2051
544, 161, 10, 510, 792, 165, 743, 706, 1899, 1898, 2040
545, 1235, 995, 1243, 383, 1567, 1566, 1282, 1417, 1854, 1341
546, 991, 1257, 998, 1016, 1784, 1930, 1105, 1215, 1911, 1216
547, 375, 374, 321, 1238, 401, 1483, 1482, 1323, 1322, 1969
548, 1257, 1238, 998, 1256, 1455, 1842, 1930, 1462, 1438, 1840
549, 217, 1257, 1269, 1016, 1724, 1292, 1782, 1169, 1911, 1781
550, 176, 517, 126, 175, 1686, 679, 760, 196, 1687, 757
551, 1241, 1031, 1030, 1001, 2015, 1222, 1865, 1896, 1214, 1200
552, 267, 219, 268, 493, 1974, 1963, 289, 1735, 2057, 1736
553, 884, 279, 513, 494, 954, 1954, 2043, 1968, 1967, 623
554, 483, 510, 796, 162, 552, 1994, 2062, 708, 705, 1935
555, 232, 13, 483, 796, 254, 1937, 2063, 850, 849, 2062
556, 6, 7, 33, 879, 30, 438, 439, 896, 895, 1990
557, 120, 170, 501, 879, 745, 2023, 573, 1987, 955, 1999
558, 261, 501, 486, 507, 1985, 678, 1885, 1915, 625, 677
559, 991, 1231, 1001, 323, 1727, 2006, 1113, 1088, 1914, 1077
560, 267, 1031, 1030, 1270, 1814, 1222, 2055, 1375, 2035, 2014
561, 219, 492, 493, 521, 1526, 628, 2057, 1959, 627, 617
562, 219, 1023, 269, 220, 1130, 1576, 1964, 241, 1136, 1574
563, 493, 218, 521, 485, 2056, 1947, 617, 580, 1866, 616
564, 1258, 14, 967, 311, 1294, 970, 2071, 1444, 314, 971
565, 886, 14, 483, 281, 941, 1741, 1799, 940, 303, 1938
566, 534, 258, 12, 164, 1858, 260, 1760, 672, 977, 976
567, 1006, 1246, 1247, 263, 1957, 1344, 2072, 1958, 1384, 1385
568, 1007, 262, 213, 214, 2073, 2048, 1123, 1139, 1545, 235
569, 1007, 1000, 987, 1227, 1071, 1110, 1119, 1610, 2013, 1530
570, 213, 506, 789, 785, 1705, 1690, 801, 798, 1692, 805
571, 1006, 1246, 215, 1005, 1957, 1956, 1138, 1175, 2074, 1167
572, 1007, 1240, 1006, 1000, 1608, 2047, 1070, 1071, 2044, 1069
573, 502, 482, 786, 215, 578, 1995, 1525, 1522, 1821, 837
574, 371, 317, 318, 1000, 1473, 344, 1474, 2029, 1091, 1090
575, 533, 513, 139, 882, 569, 725, 717, 1748, 2042, 1880
576, 275, 276, 505, 226, 297, 1559, 1871, 1872, 1561, 1560
577, 512, 280, 513, 882, 1831, 1955, 570, 2052, 961, 2042
578, 525, 494, 187, 137, 635, 1570, 1571, 682, 589, 782
579, 189, 534, 533, 883, 1756, 715, 1746, 962, 1759, 1747
580, 511, 163, 258, 164, 704, 982, 1897, 703, 168, 977
581, 513, 882, 280, 279, 2042, 961, 1955, 1954, 960, 301
582, 381, 328, 1234, 1237, 1495, 2012, 1320, 1315, 1856, 1354
583, 264, 1005, 1245, 216, 2075, 1738, 1406, 1923, 1168, 1976
584, 485, 217, 266, 267, 1621, 1698, 1893, 1887, 1912, 288
585, 52, 226, 51, 531, 833, 830, 72, 1740, 1844, 1659
586, 276, 185, 505, 186, 922, 1804, 1559, 914, 206, 1669
587, 94, 93, 531, 51, 114, 683, 723, 473, 471, 1659
588, 1025, 1267, 274, 226, 1906, 1347, 2076, 1068, 2077, 1553
589, 33, 516, 7, 8, 736, 1989, 438, 36, 729, 31
590, 336, 1272, 1032, 337, 1743, 1960, 1186, 363, 1626, 1185
591, 262, 876, 880, 507, 888, 894, 893, 1579, 2028, 1986
592, 123, 504, 173, 488, 586, 2078, 754, 731, 669, 1997
593, 1247, 1227, 1007, 1244, 1364, 1610, 1609, 1363, 1365, 2079
594, 172, 173, 504, 877, 193, 2078, 1966, 905, 904, 2025
595, 876, 481, 880, 507, 1940, 2026, 894, 2028, 626, 1986
596, 184, 183, 529, 134, 204, 1921, 1910, 776, 773, 681
597, 33, 32, 6, 486, 35, 437, 439, 719, 718, 1790
598, 339, 1012, 996, 1252, 1142, 1155, 1126, 2080, 1758, 1744
599, 1026, 387, 1268, 388, 1773, 1435, 1772, 1810, 414, 1436
600, 1254, 271, 1248, 1014, 1298, 1301, 1300, 1797, 1776, 1777
601, 1254, 223, 271, 1014, 1675, 1676, 1298, 1797, 1055, 1776
602, 1031, 1270, 1232, 1241, 2035, 1454, 1851, 2015, 1453, 1349
603, 221, 220, 532, 497, 242, 1902, 2001, 1583, 1584, 652
604, 533, 189, 882, 139, 1746, 946, 1748, 717, 747, 1880
605, 98, 792, 510, 10, 1859, 2040, 537, 119, 1898, 743
606, 1265, 1029, 219, 1028, 1952, 1131, 1950, 1817, 1224, 1140
607, 219, 1264, 1265, 1028, 1962, 1464, 1950, 1140, 1599, 1817
608, 997, 1261, 1233, 993, 1548, 1427, 1836, 1103, 1550, 1617
609, 224, 223, 49, 499, 245, 827, 826, 1980, 1678, 2068
610, 223, 499, 273, 272, 1678, 1983, 1981, 1677, 1846, 294
611, 1258, 967, 13, 1018, 2071, 969, 1900, 1672, 2081, 1052
612, 1258, 13, 967, 14, 1900, 969, 2071, 1294, 973, 970
613, 1262, 997, 994, 1024, 1855, 1109, 1931, 1943, 1209, 1208
614, 1003, 270, 995, 1243, 1953, 1568, 1040, 1927, 1283, 1566
615, 329, 381, 328, 1234, 1496, 1495, 355, 1537, 1320, 2012
616, 1259, 1243, 1003, 1234, 1286, 1927, 1731, 1440, 1360, 1929
617, 1005, 1229, 1245, 999, 1977, 1416, 1738, 1195, 1718, 1717
618, 222, 524, 223, 491, 1762, 1679, 244, 2082, 644, 1680
619, 1008, 271, 222, 1014, 1775, 2065, 1056, 1057, 1776, 1054
620, 271, 1008, 1235, 1248, 1775, 1629, 1285, 1301, 1631, 1401
621, 271, 1008, 222, 1235, 1775, 1056, 2065, 1285, 1629, 2083
622, 532, 220, 492, 497, 1902, 1527, 662, 652, 1584, 661
623, 491, 222, 271, 223, 2082, 2065, 1768, 1680, 244, 1676
624, 217, 1269, 267, 218, 1782, 1299, 1912, 239, 1783, 1815
625, 517, 266, 519, 881, 1944, 1894, 556, 1733, 937, 1850
626, 1004, 1011, 1226, 986, 1041, 1632, 1519, 1035, 1042, 1693
627, 261, 1004, 1244, 213, 1918, 1520, 1296, 2084, 1065, 2085
628, 1004, 1244, 213, 1007, 1520, 2085, 1065, 1122, 2079, 1123
629, 369, 1009, 316, 987, 1565, 1141, 1471, 1531, 1102, 1095
630, 990, 1017, 998, 1256, 1199, 1198, 1111, 2086, 1726, 1840
631, 1238, 321, 1230, 374, 1969, 2021, 1356, 1322, 1483, 1317
632, 787, 482, 216, 215, 1892, 1636, 867, 868, 1821, 237
633, 886, 885, 511, 883, 963, 1751, 1750, 927, 934, 2019
634, 511, 258, 534, 164, 1897, 1858, 726, 703, 977, 672
635, 882, 138, 188, 884, 2087, 784, 947, 964, 2059, 932
636, 513, 487, 494, 279, 622, 624, 623, 1954, 1592, 1967
637, 214, 1006, 1247, 263, 1137, 2072, 1547, 1546, 1958, 1385
638, 317, 370, 1227, 1000, 1475, 1337, 1529, 1091, 2088, 2013
639, 277, 228, 490, 276, 2032, 1602, 2033, 298, 1702, 1779
640, 138, 494, 884, 513, 590, 1968, 2059, 701, 623, 2043
641, 494, 187, 138, 884, 1570, 781, 590, 1968, 907, 2059
642, 264, 216, 514, 215, 1923, 1635, 1719, 1721, 237, 1723
643, 264, 216, 1245, 265, 1923, 1976, 1406, 286, 1924, 1405
644, 214, 1247, 1006, 1007, 1547, 2072, 1137, 1139, 1609, 1070
645, 214, 215, 1006, 263, 236, 1138, 1137, 1546, 1913, 1958
646, 264, 1005, 216, 215, 2075, 1168, 1923, 1721, 1167, 237
647, 372, 999, 319, 320, 2038, 1087, 1477, 1478, 1086, 346
648, 231, 280, 1010, 1236, 1889, 1879, 1149, 1809, 1445, 1808
649, 996, 279, 230, 231, 1753, 1588, 1205, 1206, 1825, 252
650, 512, 513, 279, 487, 570, 1954, 1827, 566, 622, 1592
651, 231, 518, 487, 791, 1993, 565, 1828, 869, 2051, 1749
652, 232, 1010, 231, 280, 1150, 1149, 253, 2050, 1879, 1889
653, 518, 232, 510, 795, 1991, 2089, 535, 1992, 862, 2090
654, 1266, 1009, 986, 1022, 1707, 1036, 1949, 1668, 1157, 1156
655, 1266, 25, 19, 986, 1443, 425, 2045, 1949, 2070, 1165
656, 1266, 986, 19, 1022, 1949, 1165, 2045, 1668, 1156, 1203
657, 1266, 986, 1226, 25, 1949, 1693, 1303, 1443, 2070, 1409
658, 990, 1230, 373, 1239, 2034, 1316, 1540, 1640, 1357, 1329
659, 84, 794, 485, 85, 1973, 1867, 572, 105, 1770, 571
660, 84, 794, 85, 42, 1973, 1770, 105, 453, 851, 455
661, 1241, 323, 1001, 1231, 1624, 1077, 1896, 1358, 1914, 2006
662, 128, 527, 177, 178, 691, 1838, 762, 763, 1832, 198
663, 1231, 1241, 1030, 1001, 1358, 1865, 1730, 2006, 1896, 1200
664, 1241, 323, 1231, 376, 1624, 1914, 1358, 1318, 1487, 1331
665, 4, 421, 19, 1022, 433, 427, 21, 1148, 2061, 1203
666, 4, 5, 421, 1022, 24, 434, 433, 1148, 1667, 2061
667, 5, 25, 421, 1266, 27, 426, 434, 1391, 1443, 2046
668, 315, 5, 4, 1022, 1466, 24, 341, 1147, 1667, 1148
669, 219, 1029, 1261, 1023, 1131, 1835, 1951, 1130, 1132, 1549
670, 1252, 339, 1255, 392, 2080, 1801, 1386, 1387, 1515, 1372
671, 44, 219, 492, 45, 810, 1526, 1849, 65, 811, 1528
672, 521, 218, 43, 794, 1947, 809, 1946, 2091, 847, 852
673, 521, 43, 85, 794, 1946, 454, 710, 2091, 852, 1770
674, 521, 485, 218, 794, 616, 1866, 1947, 2091, 1867, 847
675, 521, 85, 485, 794, 710, 571, 616, 2091, 1770, 1867
676, 275, 1267, 1272, 226, 1346, 1402, 1390, 1872, 2077, 2030
677, 184, 183, 274, 529, 204, 920, 923, 1910, 1921, 2016
678, 1007, 262, 214, 1247, 2073, 1545, 1139, 1609, 1362, 1547
679, 274, 1268, 1025, 225, 1309, 1812, 2076, 1555, 2008, 1067
680, 121, 122, 481, 171, 142, 594, 593, 750, 749, 2024
681, 121, 481, 501, 171, 593, 614, 574, 750, 2024, 2022
682, 1020, 1259, 220, 221, 1542, 1942, 1144, 1045, 1732, 242
683, 994, 1234, 329, 328, 2011, 1537, 1078, 1079, 2012, 355
684, 1259, 1020, 220, 1024, 1542, 1144, 1942, 1543, 1180, 1179
685, 1006, 989, 1246, 1005, 1124, 2037, 1957, 1175, 1174, 2074
686, 371, 1000, 989, 1240, 2029, 1106, 1975, 1333, 2044, 2036
687, 98, 518, 792, 791, 536, 2039, 1859, 1605, 2051, 842
688, 56, 9, 792, 10, 77, 875, 871, 442, 78, 1898
689, 1269, 1030, 218, 1016, 1729, 1135, 1783, 1781, 1134, 1133
690, 517, 887, 881, 175, 1688, 957, 1733, 1687, 943, 948
691, 1269, 1270, 267, 1030, 1463, 1375, 1299, 1729, 2014, 2055
692, 991, 375, 322, 1238, 1544, 1481, 1089, 1785, 1323, 1970
693, 1257, 991, 1269, 1016, 1784, 1728, 1292, 1911, 1215, 1781
694, 378, 1002, 325, 326, 2054, 1097, 1489, 1490, 1096, 352
695, 997, 1237, 994, 328, 1837, 1932, 1109, 1072, 1856, 1079
696, 1262, 1024, 220, 1023, 1943, 1179, 1573, 1575, 1225, 1136
697, 86, 44, 492, 87, 456, 1849, 592, 107, 459, 591
698, 1003, 1243, 995, 330, 1927, 1566, 1040, 1098, 1928, 1178
699, 94, 531, 52, 51, 723, 1740, 472, 473, 1659, 72
700, 95, 53, 52, 522, 475, 73, 474, 698, 1651, 1652
701, 990, 320, 999, 1239, 1075, 1086, 1112, 1640, 1909, 1639
702, 321, 1238, 998, 322, 1969, 1842, 1081, 348, 1970, 1080
703, 886, 163, 14, 258, 1798, 981, 941, 926, 982, 259
704, 512, 885, 280, 882, 1829, 952, 1831, 2052, 935, 961
705, 886, 483, 511, 281, 1799, 709, 1750, 940, 1938, 1752
706, 989, 371, 1229, 319, 1975, 1326, 1978, 1084, 1476, 1564
707, 264, 1246, 1005, 215, 1383, 2074, 2075, 1721, 1956, 1167
708, 264, 488, 514, 265, 1886, 724, 1719, 286, 1863, 1806
709, 503, 508, 509, 263, 547, 541, 539, 1787, 1595, 1596
710, 386, 1254, 1019, 1260, 1400, 1845, 1716, 1419, 1313, 2004
711, 185, 275, 276, 505, 921, 297, 922, 1804, 1871, 1559
712, 505, 226, 227, 531, 1560, 248, 1563, 560, 1844, 1739
713, 493, 127, 177, 176, 582, 761, 1737, 1873, 759, 197
714, 527, 493, 127, 177, 630, 582, 700, 1838, 1737, 761
715, 503, 506, 213, 785, 546, 1705, 1684, 1685, 1692, 798
716, 219, 1265, 268, 1261, 1950, 1382, 1963, 1951, 1381, 1378
717, 1265, 1242, 1002, 1264, 1451, 1890, 1818, 1464, 1430, 1819
718, 267, 218, 493, 485, 1815, 2056, 1735, 1887, 1866, 580
719, 270, 497, 269, 221, 1857, 1581, 291, 1875, 1583, 1582
720, 45, 220, 532, 46, 812, 1902, 1780, 66, 815, 2000
721, 326, 1242, 1002, 993, 1619, 1890, 1096, 1093, 1618, 1114
722, 502, 39, 484, 785, 2060, 1786, 619, 1763, 825, 1691
723, 502, 509, 482, 215, 538, 577, 578, 1522, 1722, 1821
724, 215, 502, 509, 503, 1522, 538, 1722, 1523, 540, 539
725, 491, 130, 131, 180, 606, 151, 607, 1713, 768, 767
726, 990, 373, 320, 1239, 1540, 1479, 1075, 1640, 1329, 1909
727, 1237, 327, 997, 1233, 1535, 1073, 1837, 1348, 1536, 1836
728, 328, 380, 327, 1237, 1494, 1492, 354, 1856, 1314, 1535
729, 527, 268, 493, 177, 1834, 1736, 630, 1838, 901, 1737
730, 180, 179, 270, 528, 200, 909, 910, 1714, 2010, 1558
731, 994, 1003, 1234, 1259, 1115, 1929, 2011, 1541, 1731, 1440
732, 129, 178, 179, 497, 764, 199, 766, 601, 1711, 1712
733, 1243, 270, 1259, 1003, 1283, 1287, 1286, 1927, 1953, 1731
734, 270, 179, 497, 528, 909, 1712, 1857, 1558, 2010, 657
735, 1238, 321, 998, 1230, 1969, 1081, 1842, 1356, 2021, 1841
736, 1256, 990, 1253, 1230, 2086, 2018, 1410, 1437, 2034, 1459
737, 268, 219, 269, 492, 1963, 1964, 290, 1853, 1526, 1852
738, 878, 519, 124, 488, 1861, 712, 1916, 1864, 741, 732
739, 517, 266, 267, 485, 1944, 288, 1874, 557, 1893, 1887
740, 123, 173, 124, 488, 754, 753, 144, 731, 1997, 732
741, 219, 268, 493, 492, 1963, 1736, 2057, 1526, 1853, 628
742, 878, 519, 881, 124, 1861, 1850, 965, 1916, 712, 1917
743, 121, 120, 170, 501, 141, 745, 748, 574, 573, 2023
744, 181, 271, 272, 491, 912, 293, 913, 1769, 1768, 1771
745, 387, 386, 333, 1019, 413, 1507, 1505, 2017, 1716, 1182
746, 1254, 385, 1014, 1248, 1399, 1796, 1797, 1300, 1422, 1777
747, 181, 182, 132, 523, 202, 772, 769, 1534, 1532, 696
748, 181, 132, 131, 523, 769, 152, 770, 1534, 696, 692
749, 223, 48, 49, 499, 822, 69, 827, 1678, 1922, 2068
750, 503, 262, 508, 263, 1578, 2027, 547, 1787, 284, 1595
751, 281, 1018, 1258, 13, 1860, 1672, 1295, 1901, 1052, 1900
752, 967, 1018, 305, 13, 2081, 1204, 968, 969, 1052, 308
753, 262, 503, 506, 213, 1578, 546, 1580, 2048, 1684, 1705
754, 225, 526, 498, 224, 2092, 647, 1614, 246, 1933, 2093
755, 1267, 1272, 226, 1032, 1402, 2030, 2077, 2049, 1960, 1145
756, 232, 512, 231, 518, 2064, 1826, 253, 1991, 549, 1993
757, 232, 231, 512, 280, 253, 1826, 2064, 2050, 1889, 1831
758, 512, 231, 518, 487, 1826, 1993, 549, 566, 1828, 565
759, 279, 231, 280, 512, 1825, 1889, 301, 1827, 1826, 1831
760, 327, 326, 993, 1233, 353, 1093, 1092, 1536, 1616, 1617
761, 327, 380, 326, 1233, 1492, 1491, 353, 1536, 1335, 1616
762, 525, 137, 187, 186, 682, 782, 1571, 1670, 779, 207
763, 277, 276, 1263, 228, 298, 1426, 1425, 2032, 1702, 1742
764, 1255, 277, 1015, 229, 1404, 2041, 1645, 1664, 2031, 1162
765, 521, 218, 219, 44, 1947, 240, 1959, 1945, 808, 810
766, 532, 221, 497, 496, 2001, 1583, 652, 653, 2002, 654
767, 124, 125, 881, 174, 145, 1734, 1917, 756, 755, 949
768, 481, 504, 172, 122, 620, 1966, 1965, 594, 585, 752
769, 504, 173, 488, 877, 2078, 1997, 669, 2025, 904, 2058
770, 504, 877, 488, 509, 2025, 2058, 669, 542, 1593, 668
771, 504, 508, 877, 509, 543, 1594, 2025, 542, 541, 1593
772, 511, 281, 512, 885, 1752, 1830, 674, 1751, 953, 1829
773, 511, 512, 281, 483, 674, 1830, 1752, 709, 551, 1938
774, 1240, 1227, 370, 1000, 1355, 1337, 1332, 2044, 2013, 2088
775, 6, 261, 486, 212, 282, 1885, 1790, 1789, 1884, 1791
776, 1240, 371, 1000, 370, 1333, 2029, 2044, 1332, 397, 2088
777, 1026, 273, 1260, 1019, 2009, 1306, 1774, 1066, 2007, 2004
778, 1240, 371, 1229, 989, 1333, 1326, 1351, 2036, 1975, 1978
779, 1235, 270, 222, 271, 1284, 1876, 2083, 1285, 292, 2065
780, 46, 221, 220, 532, 816, 242, 815, 2000, 2001, 1902
781, 90, 524, 499, 48, 685, 645, 605, 465, 1761, 1922
782, 222, 271, 270, 491, 2065, 292, 1876, 2082, 1768, 1557
783, 270, 491, 180, 528, 1557, 1713, 910, 1558, 641, 1714
784, 222, 270, 496, 491, 1876, 1556, 2066, 2082, 1557, 643
785, 47, 524, 496, 89, 1767, 655, 2067, 462, 689, 598
786, 1026, 334, 387, 388, 1194, 1506, 1773, 1810, 1508, 414
787, 1264, 219, 268, 267, 1962, 1963, 1380, 1376, 1974, 289
788, 1272, 336, 1032, 1267, 1743, 1186, 1960, 1402, 1905, 2049
789, 1268, 1025, 1267, 274, 1812, 1906, 1361, 1309, 2076, 1347
790, 1268, 1025, 225, 1026, 1812, 1067, 2008, 1772, 1100, 1063
791, 226, 275, 1267, 274, 1872, 1346, 2077, 1553, 296, 1347
792, 232, 280, 512, 281, 2050, 1831, 2064, 1971, 302, 1830
793, 795, 510, 792, 796, 2090, 2040, 844, 872, 1994, 835
794, 795, 792, 510, 518, 844, 2040, 2090, 1992, 2039, 535
795, 795, 792, 518, 791, 844, 2039, 1992, 843, 842, 2051
796, 82, 39, 502, 40, 449, 2060, 583, 448, 60, 1870
797, 502, 786, 40, 39, 1525, 814, 1870, 2060, 813, 60
798, 502, 484, 39, 81, 619, 1786, 2060, 584, 602, 446
799, 502, 482, 40, 786, 578, 1607, 1870, 1525, 1995, 814
800, 526, 489, 50, 225, 648, 1793, 1847, 2092, 1551, 828
801, 495, 274, 275, 226, 1794, 296, 1839, 1795, 1553, 1872
802, 271, 491, 223, 272, 1768, 1680, 1676, 293, 1771, 1677
803, 222, 221, 47, 496, 243, 819, 820, 2066, 2002, 2067
804, 222, 496, 524, 491, 2066, 655, 1762, 2082, 643, 644
805, 1267, 388, 1025, 1268, 1433, 1811, 1906, 1361, 1436, 1812
806, 336, 1267, 389, 388, 1905, 1434, 1513, 1510, 1433, 415
807, 218, 219, 267, 493, 240, 1974, 1815, 2056, 2057, 1735
808, 387, 333, 334, 1019, 1505, 360, 1506, 2017, 1182, 1181
809, 516, 261, 486, 33, 2053, 1885, 738, 736, 1998, 719
810, 33, 261, 6, 879, 1998, 282, 439, 1990, 944, 896
811, 1262, 1234, 994, 1237, 1449, 2011, 1931, 1448, 1354, 1932
812, 1262, 1023, 269, 1261, 1575, 1576, 1442, 1465, 1549, 1377
813, 1262, 997, 1261, 1237, 1855, 1548, 1465, 1448, 1837, 1428
814, 220, 1262, 269, 1259, 1573, 1442, 1574, 1942, 1441, 1388
815, 787, 482, 83, 520, 1892, 733, 1904, 1681, 742, 714
816, 41, 520, 787, 83, 1891, 1681, 860, 450, 714, 1904
817, 787, 786, 40, 482, 865, 814, 859, 1892, 1995, 1607
818, 787, 482, 40, 83, 1892, 1607, 859, 1904, 733, 451
819, 882, 138, 884, 513, 2087, 2059, 964, 2042, 701, 2043
820, 1255, 1015, 1012, 229, 1645, 1143, 1662, 1664, 1162, 1170
821, 1255, 1015, 277, 1263, 1645, 2041, 1404, 1373, 1644, 1425
822, 481, 507, 501, 880, 626, 625, 614, 2026, 1986, 1984
823, 991, 322, 998, 1238, 1089, 1080, 1105, 1785, 1970, 1842
824, 230, 231, 487, 791, 252, 1828, 1590, 870, 869, 1749
825, 339, 996, 392, 1252, 1126, 1661, 1515, 2080, 1744, 1387
826, 230, 487, 793, 791, 1590, 1658, 861, 870, 1749, 873
827, 1252, 339, 1012, 1255, 2080, 1142, 1758, 1386, 1801, 1662
828, 138, 139, 513, 882, 159, 725, 701, 2087, 1880, 2042
829, 1240, 1247, 1006, 1246, 1343, 2072, 2047, 1345, 1344, 1957
830, 138, 139, 882, 188, 159, 1880, 2087, 784, 783, 947
831, 261, 1004, 213, 212, 1918, 1065, 2084, 1884, 1053, 234
832, 262, 506, 261, 213, 1580, 1883, 283, 2048, 1705, 2084
833, 1004, 1009, 1226, 1249, 1037, 1802, 1519, 1521, 1601, 1276
834, 261, 212, 213, 506, 1884, 234, 2084, 1883, 1706, 1705
835, 1265, 993, 1233, 1261, 2094, 1617, 1452, 1381, 1550, 1427
836, 1265, 993, 1261, 1029, 2094, 1550, 1381, 1952, 1210, 1835
837, 1265, 993, 1002, 1242, 2094, 1114, 1818, 1451, 1618, 1890
838, 1265, 1002, 993, 1029, 1818, 1114, 2094, 1952, 1211, 1210
839, 1265, 1242, 1233, 993, 1451, 1359, 1452, 2094, 1618, 1617
840, 44, 492, 521, 86, 1849, 627, 1945, 456, 592, 680
841, 496, 46, 47, 89, 2003, 67, 2067, 598, 463, 462
842, 1007, 1240, 1247, 1006, 1608, 1343, 1609, 1070, 2047, 2072
843, 788, 79, 2, 37, 1881, 440, 804, 864, 441, 57
844, 876, 481, 171, 880, 1940, 2024, 931, 894, 2026, 929
845, 876, 171, 481, 172, 931, 2024, 1940, 916, 192, 1965
846, 1232, 1002, 378, 1242, 1822, 2054, 1325, 1352, 1890, 1338
847, 1031, 1270, 267, 1264, 2035, 1375, 1814, 1597, 1374, 1376
848, 498, 273, 225, 224, 1612, 1613, 1614, 2093, 1982, 246
849, 225, 226, 1025, 274, 247, 1068, 1067, 1555, 1553, 2076
850, 225, 273, 1026, 224, 1613, 2009, 1063, 246, 1982, 1062
851, 185, 184, 495, 135, 205, 1615, 1805, 778, 775, 588
852, 225, 273, 274, 1268, 1613, 295, 1555, 2008, 1310, 1309
853, 274, 529, 498, 489, 2016, 656, 1611, 1554, 634, 649
854, 530, 97, 96, 54, 684, 117, 686, 1656, 478, 477
855, 179, 130, 528, 180, 765, 687, 2010, 200, 768, 1714
856, 533, 511, 883, 534, 673, 2019, 1747, 715, 726, 1759
857, 533, 885, 512, 882, 2020, 1829, 568, 1748, 935, 2052
858, 533, 885, 511, 512, 2020, 1751, 673, 568, 1829, 674
859, 189, 534, 139, 533, 1756, 716, 747, 1746, 715, 717
860, 1004, 1007, 987, 1227, 1122, 1119, 1101, 1996, 1610, 1530
861, 1004, 1244, 1007, 1227, 1520, 2079, 1122, 1996, 1365, 1610
862, 1272, 226, 276, 275, 2030, 1561, 1389, 1390, 1872, 297
863, 1004, 1009, 1249, 987, 1037, 1601, 1521, 1101, 1102, 1600
864, 1227, 1004, 1244, 1249, 1996, 1520, 1365, 1395, 1521, 1275
865, 46, 47, 221, 496, 67, 819, 816, 2003, 2067, 2002
866, 90, 48, 499, 91, 465, 1922, 605, 111, 466, 604
867, 219, 220, 269, 492, 241, 1574, 1964, 1526, 1527, 1852
868, 1261, 269, 219, 1023, 1377, 1964, 1951, 1549, 1576, 1130
869, 221, 1003, 1259, 270, 1039, 1731, 1732, 1875, 1953, 1287
870, 82, 502, 39, 81, 583, 2060, 449, 102, 584, 446
871, 379, 1233, 326, 380, 1334, 1616, 1493, 406, 1335, 1491
872, 378, 1002, 326, 1242, 2054, 1096, 1490, 1338, 1890, 1619
873, 1026, 1260, 273, 1268, 1774, 1306, 2009, 1772, 1342, 1310
874, 266, 267, 887, 517, 288, 939, 938, 1944, 1874, 1688
875, 127, 128, 527, 177, 148, 691, 700, 761, 762, 1838
876, 175, 517, 126, 125, 1687, 679, 757, 758, 702, 146
877, 264, 1246, 1245, 1005, 1383, 1415, 1406, 2075, 2074, 1738
878, 514, 488, 519, 265, 724, 741, 554, 1806, 1863, 1862
879, 1013, 1253, 265, 1017, 1710, 1411, 1903, 1173, 2069, 1979
880, 1013, 1017, 265, 216, 1173, 1979, 1903, 1172, 1048, 1924
881, 990, 998, 1230, 1256, 1111, 1841, 2034, 2086, 1840, 1437
882, 225, 224, 50, 526, 246, 829, 828, 2092, 1933, 1847
883, 272, 498, 273, 182, 2095, 1612, 294, 917, 1920, 918
884, 272, 498, 182, 523, 2095, 1920, 917, 1533, 658, 1532
885, 1032, 1025, 226, 1267, 1160, 1068, 1145, 2049, 1906, 2077
886, 498, 523, 272, 499, 658, 1533, 2095, 659, 650, 1846
887, 499, 498, 224, 273, 659, 2093, 1980, 1983, 1612, 1982
888, 499, 498, 273, 272, 659, 1612, 1983, 1846, 2095, 294
889, 1019, 273, 1260, 272, 2007, 1306, 2004, 2005, 294, 1307
890, 120, 8, 7, 516, 140, 31, 744, 730, 729, 1989
891, 879, 120, 170, 7, 1987, 745, 955, 895, 744, 190
892, 227, 226, 1272, 1032, 248, 2030, 1961, 1146, 1145, 1960
893, 317, 369, 316, 987, 1472, 1471, 343, 1094, 1531, 1095
894, 988, 1018, 305, 1228, 1152, 1204, 1164, 1586, 1673, 1934
895, 310, 988, 304, 305, 1587, 1060, 984, 985, 1164, 307
896, 310, 1027, 304, 988, 1745, 1043, 984, 1587, 1061, 1060
897, 264, 1246, 215, 263, 1383, 1956, 1721, 285, 1384, 1913
898, 264, 488, 878, 877, 1886, 1864, 958, 928, 2058, 956
899, 264, 509, 488, 877, 1720, 668, 1886, 928, 1593, 2058
900, 525, 136, 137, 186, 699, 157, 682, 1670, 780, 779
901, 525, 277, 494, 490, 1572, 1569, 635, 636, 2033, 637
902, 525, 277, 490, 276, 1572, 2033, 636, 1671, 298, 1779
903, 1229, 1005, 1245, 1246, 1977, 1738, 1416, 1370, 2074, 1415
904, 1229, 989, 1005, 1246, 1978, 1174, 1977, 1370, 2037, 2074
905, 1240, 1246, 1006, 989, 1345, 1957, 2047, 2036, 2037, 1124
906, 371, 370, 317, 1000, 397, 1475, 1473, 2029, 2088, 1091
907, 84, 41, 520, 790, 452, 1891, 711, 1877, 855, 1682
908, 262, 880, 261, 507, 893, 892, 283, 1579, 1986, 1915
909, 262, 213, 1244, 1007, 2048, 2085, 1308, 2073, 1123, 2079
910, 489, 531, 226, 495, 631, 1844, 1552, 632, 563, 1795
911, 262, 1244, 1247, 1007, 1308, 1363, 1362, 2073, 2079, 1609
912, 503, 214, 215, 786, 1683, 236, 1523, 1524, 806, 837
913, 262, 1244, 213, 261, 1308, 2085, 2048, 283, 1296, 2084
914, 495, 274, 184, 275, 1794, 923, 1615, 1839, 296, 924
915, 1031, 1241, 992, 1001, 2015, 1895, 1213, 1214, 1896, 1104
916, 267, 1031, 218, 1030, 1814, 1117, 1815, 2055, 1222, 1135
917, 1241, 1031, 1270, 1030, 2015, 2035, 1453, 1865, 1222, 2014
918, 996, 1010, 1027, 1236, 1207, 1220, 1217, 1649, 1808, 1648
919, 996, 1012, 230, 1252, 1155, 1171, 1205, 1744, 1758, 1757
920, 393, 996, 340, 1027, 1646, 1125, 1469, 1647, 1217, 1050
921, 176, 887, 267, 517, 942, 939, 900, 1686, 1688, 1874
922, 13, 232, 281, 1018, 254, 1971, 1901, 1052, 1051, 1860
923, 886, 883, 511, 534, 927, 2019, 1750, 2096, 1759, 726
924, 886, 534, 511, 258, 2096, 726, 1750, 926, 1858, 1897
925, 886, 883, 534, 258, 927, 1759, 2096, 926, 925, 1858
926, 1015, 277, 228, 229, 2041, 2032, 1161, 1162, 2031, 250
927, 1258, 305, 967, 1018, 2097, 968, 2071, 1672, 1204, 2081
928, 1258, 967, 305, 311, 2071, 968, 2097, 1444, 971, 972
929, 1258, 311, 305, 1228, 1444, 972, 2097, 1397, 1407, 1934
930, 1258, 1228, 305, 1018, 1397, 1934, 2097, 1672, 1673, 1204
931, 878, 124, 174, 173, 1916, 756, 950, 951, 753, 194
932, 232, 281, 512, 483, 1971, 1830, 2064, 2063, 1938, 551
933, 232, 795, 796, 510, 862, 872, 850, 2089, 2090, 1994
934, 518, 232, 483, 510, 1991, 2063, 550, 535, 2089, 552
935, 232, 796, 483, 510, 850, 2062, 2063, 2089, 1994, 552
936, 13, 232, 483, 281, 254, 2063, 1937, 1901, 1971, 1938
937, 1235, 222, 270, 995, 2083, 1876, 1284, 1567, 1047, 1568
938, 1235, 995, 1008, 222, 1567, 1163, 1629, 2083, 1047, 1056
939, 332, 384, 331, 1008, 1502, 1501, 358, 1183, 1630, 1184
940, 788, 79, 515, 2, 1881, 727, 1882, 804, 440, 1926
941, 79, 515, 2, 1, 727, 1926, 440, 99, 728, 17
942, 123, 122, 172, 504, 143, 752, 751, 586, 585, 1966
943, 123, 504, 172, 173, 586, 1966, 751, 754, 2078, 193
944, 526, 499, 224, 49, 665, 1980, 1933, 1848, 2068, 826
945, 526, 91, 499, 49, 697, 604, 665, 1848, 467, 2068
946, 526, 224, 499, 498, 1933, 1980, 665, 647, 2093, 659
947, 225, 526, 489, 498, 2092, 648, 1551, 1614, 647, 649
948, 526, 92, 91, 49, 688, 112, 697, 1848, 468, 467
949, 990, 1253, 1013, 1017, 2018, 1710, 1218, 1199, 2069, 1173
950, 1256, 990, 1017, 1253, 2086, 1199, 1726, 1410, 2018, 2069
951, 990, 321, 1230, 998, 1074, 2021, 2034, 1111, 1081, 1841
952, 505, 276, 525, 490, 1559, 1671, 666, 664, 1779, 636
953, 505, 185, 135, 136, 1804, 778, 612, 613, 777, 156
954, 1019, 387, 1026, 334, 2017, 1773, 1066, 1181, 1506, 1194
955, 1026, 335, 334, 388, 1193, 361, 1194, 1810, 1509, 1508
956, 84, 520, 41, 83, 711, 1891, 452, 104, 714, 450
957, 338, 1255, 391, 1263, 1642, 1371, 1517, 1643, 1373, 1369
*NSET, NSET=CLAMP
1, 2, 3, 4, 5, 6, 7, 8, 17, 18, 19, 20, 21, 22, 23, 24
25, 26, 27, 28, 29, 30, 31, 32, 33, 34, 35, 36, 421, 422, 423, 424
425, 426, 427, 428, 429, 430, 431, 432, 433, 434, 435, 436, 437, 438, 439
*NSET, NSET=TIP_TOP
10, 11, 161, 162, 163, 164, 165, 166, 167, 168, 169
*NSET, NSET=TIP_FLANGE
9, 10, 11, 12, 13, 14, 78, 161, 162, 163, 164, 165, 166, 167, 168, 169
211, 255, 256, 257, 258, 259, 260, 973, 974, 975, 976, 977, 978, 979, 980, 981
982
*MATERIAL, NAME=STEEL
*ELASTIC
210000, 0.3
*SOLID SECTION, ELSET=EALL, MATERIAL=STEEL
*BOUNDARY
CLAMP, 1, 3, 0.0
*STEP
*STATIC
*CLOAD
10, 3, -454.545454545
11, 3, -454.545454545
161, 3, -454.545454545
162, 3, -454.545454545
163, 3, -454.545454545
164, 3, -454.545454545
165, 3, -454.545454545
166, 3, -454.545454545
167, 3, -454.545454545
168, 3, -454.545454545
169, 3, -454.545454545
*NODE FILE
U
*EL FILE
S, ENER
*NODE PRINT, NSET=TIP_TOP
U
*NODE PRINT, NSET=CLAMP
RF
*EL PRINT, ELSET=EALL
ELSE
*ENERGY PRINT
*END STEP
