*HEADING
Normalized cross-passage space-truss torsion benchmark
*NODE
1,-1.200000000000e+00,0.000000000000e+00,0.000000000000e+00
2,1.200000000000e+00,0.000000000000e+00,0.000000000000e+00
3,-1.200000000000e+00,0.000000000000e+00,2.000000000000e+00
4,1.200000000000e+00,0.000000000000e+00,2.000000000000e+00
5,-1.200000000000e+00,1.000000000000e+01,0.000000000000e+00
6,1.200000000000e+00,1.000000000000e+01,0.000000000000e+00
7,-1.200000000000e+00,1.000000000000e+01,2.000000000000e+00
8,1.200000000000e+00,1.000000000000e+01,2.000000000000e+00
9,-1.200000000000e+00,2.000000000000e+01,0.000000000000e+00
10,1.200000000000e+00,2.000000000000e+01,0.000000000000e+00
11,-1.200000000000e+00,2.000000000000e+01,2.000000000000e+00
12,1.200000000000e+00,2.000000000000e+01,2.000000000000e+00
13,-1.200000000000e+00,3.000000000000e+01,0.000000000000e+00
14,1.200000000000e+00,3.000000000000e+01,0.000000000000e+00
15,-1.200000000000e+00,3.000000000000e+01,2.000000000000e+00
16,1.200000000000e+00,3.000000000000e+01,2.000000000000e+00
17,-1.200000000000e+00,4.000000000000e+01,0.000000000000e+00
18,1.200000000000e+00,4.000000000000e+01,0.000000000000e+00
19,-1.200000000000e+00,4.000000000000e+01,2.000000000000e+00
20,1.200000000000e+00,4.000000000000e+01,2.000000000000e+00
21,-1.200000000000e+00,5.000000000000e+01,0.000000000000e+00
22,1.200000000000e+00,5.000000000000e+01,0.000000000000e+00
23,-1.200000000000e+00,5.000000000000e+01,2.000000000000e+00
24,1.200000000000e+00,5.000000000000e+01,2.000000000000e+00
25,-1.200000000000e+00,5.000000000000e+00,-1.500000000000e-01
26,1.200000000000e+00,5.000000000000e+00,1.500000000000e-01
27,-1.200000000000e+00,5.000000000000e+00,1.850000000000e+00
28,1.200000000000e+00,5.000000000000e+00,2.150000000000e+00
29,-1.200000000000e+00,3.500000000000e+01,-1.500000000000e-01
30,1.200000000000e+00,3.500000000000e+01,1.500000000000e-01
31,-1.200000000000e+00,3.500000000000e+01,1.850000000000e+00
32,1.200000000000e+00,3.500000000000e+01,2.150000000000e+00
33,-1.200000000000e+00,4.250000000000e+01,-1.060660171780e-01
34,-1.200000000000e+00,4.500000000000e+01,-1.500000000000e-01
35,-1.200000000000e+00,4.750000000000e+01,-1.060660171780e-01
36,1.200000000000e+00,4.250000000000e+01,1.060660171780e-01
37,1.200000000000e+00,4.500000000000e+01,1.500000000000e-01
38,1.200000000000e+00,4.750000000000e+01,1.060660171780e-01
39,-1.200000000000e+00,4.250000000000e+01,1.893933982822e+00
40,-1.200000000000e+00,4.500000000000e+01,1.850000000000e+00
41,-1.200000000000e+00,4.750000000000e+01,1.893933982822e+00
42,1.200000000000e+00,4.250000000000e+01,2.106066017178e+00
43,1.200000000000e+00,4.500000000000e+01,2.150000000000e+00
44,1.200000000000e+00,4.750000000000e+01,2.106066017178e+00
45,-6.000000000000e-01,-2.545584412272e-02,0.000000000000e+00
46,0.000000000000e+00,-3.600000000000e-02,0.000000000000e+00
47,6.000000000000e-01,-2.545584412272e-02,0.000000000000e+00
48,-6.000000000000e-01,2.545584412272e-02,2.000000000000e+00
49,0.000000000000e+00,3.600000000000e-02,2.000000000000e+00
50,6.000000000000e-01,2.545584412272e-02,2.000000000000e+00
51,-1.200000000000e+00,2.121320343560e-02,5.000000000000e-01
52,-1.200000000000e+00,3.000000000000e-02,1.000000000000e+00
53,-1.200000000000e+00,2.121320343560e-02,1.500000000000e+00
54,1.200000000000e+00,-2.121320343560e-02,5.000000000000e-01
55,1.200000000000e+00,-3.000000000000e-02,1.000000000000e+00
56,1.200000000000e+00,-2.121320343560e-02,1.500000000000e+00
57,-6.000000000000e-01,9.974544155877e+00,0.000000000000e+00
58,0.000000000000e+00,9.964000000000e+00,0.000000000000e+00
59,6.000000000000e-01,9.974544155877e+00,0.000000000000e+00
60,-6.000000000000e-01,1.002545584412e+01,2.000000000000e+00
61,0.000000000000e+00,1.003600000000e+01,2.000000000000e+00
62,6.000000000000e-01,1.002545584412e+01,2.000000000000e+00
63,-1.200000000000e+00,1.002121320344e+01,5.000000000000e-01
64,-1.200000000000e+00,1.003000000000e+01,1.000000000000e+00
65,-1.200000000000e+00,1.002121320344e+01,1.500000000000e+00
66,1.200000000000e+00,9.978786796564e+00,5.000000000000e-01
67,1.200000000000e+00,9.970000000000e+00,1.000000000000e+00
68,1.200000000000e+00,9.978786796564e+00,1.500000000000e+00
69,-6.000000000000e-01,3.997454415588e+01,0.000000000000e+00
70,0.000000000000e+00,3.996400000000e+01,0.000000000000e+00
71,6.000000000000e-01,3.997454415588e+01,0.000000000000e+00
72,-6.000000000000e-01,4.002545584412e+01,2.000000000000e+00
73,0.000000000000e+00,4.003600000000e+01,2.000000000000e+00
74,6.000000000000e-01,4.002545584412e+01,2.000000000000e+00
75,-1.200000000000e+00,4.002121320344e+01,5.000000000000e-01
76,-1.200000000000e+00,4.003000000000e+01,1.000000000000e+00
77,-1.200000000000e+00,4.002121320344e+01,1.500000000000e+00
78,1.200000000000e+00,3.997878679656e+01,5.000000000000e-01
79,1.200000000000e+00,3.997000000000e+01,1.000000000000e+00
80,1.200000000000e+00,3.997878679656e+01,1.500000000000e+00
81,-6.000000000000e-01,4.997454415588e+01,0.000000000000e+00
82,0.000000000000e+00,4.996400000000e+01,0.000000000000e+00
83,6.000000000000e-01,4.997454415588e+01,0.000000000000e+00
84,-6.000000000000e-01,5.002545584412e+01,2.000000000000e+00
85,0.000000000000e+00,5.003600000000e+01,2.000000000000e+00
86,6.000000000000e-01,5.002545584412e+01,2.000000000000e+00
87,-1.200000000000e+00,5.002121320344e+01,5.000000000000e-01
88,-1.200000000000e+00,5.003000000000e+01,1.000000000000e+00
89,-1.200000000000e+00,5.002121320344e+01,1.500000000000e+00
90,1.200000000000e+00,4.997878679656e+01,5.000000000000e-01
91,1.200000000000e+00,4.997000000000e+01,1.000000000000e+00
92,1.200000000000e+00,4.997878679656e+01,1.500000000000e+00
93,-1.200000000000e+00,1.261480502971e+00,1.925974851452e-01
94,-1.200000000000e+00,2.521213203436e+00,3.939339828220e-01
95,-1.200000000000e+00,3.777716385975e+00,6.114180701233e-01
96,-1.200000000000e+00,5.030000000000e+00,8.500000000000e-01
97,-1.200000000000e+00,6.277716385975e+00,1.111418070123e+00
98,-1.200000000000e+00,7.521213203436e+00,1.393933982822e+00
99,-1.200000000000e+00,8.761480502971e+00,1.692597485145e+00
100,-1.200000000000e+00,1.261480502971e+00,1.807402514855e+00
101,-1.200000000000e+00,2.521213203436e+00,1.606066017178e+00
102,-1.200000000000e+00,3.777716385975e+00,1.388581929877e+00
103,-1.200000000000e+00,5.030000000000e+00,1.150000000000e+00
104,-1.200000000000e+00,6.277716385975e+00,8.885819298767e-01
105,-1.200000000000e+00,7.521213203436e+00,6.060660171780e-01
106,-1.200000000000e+00,8.761480502971e+00,3.074025148548e-01
107,1.200000000000e+00,1.261480502971e+00,1.925974851452e-01
108,1.200000000000e+00,2.521213203436e+00,3.939339828220e-01
109,1.200000000000e+00,3.777716385975e+00,6.114180701233e-01
110,1.200000000000e+00,5.030000000000e+00,8.500000000000e-01
111,1.200000000000e+00,6.277716385975e+00,1.111418070123e+00
112,1.200000000000e+00,7.521213203436e+00,1.393933982822e+00
113,1.200000000000e+00,8.761480502971e+00,1.692597485145e+00
114,1.200000000000e+00,1.261480502971e+00,1.807402514855e+00
115,1.200000000000e+00,2.521213203436e+00,1.606066017178e+00
116,1.200000000000e+00,3.777716385975e+00,1.388581929877e+00
117,1.200000000000e+00,5.030000000000e+00,1.150000000000e+00
118,1.200000000000e+00,6.277716385975e+00,8.885819298767e-01
119,1.200000000000e+00,7.521213203436e+00,6.060660171780e-01
120,1.200000000000e+00,8.761480502971e+00,3.074025148548e-01
121,-8.425974851452e-01,1.236223396435e+00,0.000000000000e+00
122,-4.939339828220e-01,2.474544155877e+00,0.000000000000e+00
123,-1.614180701233e-01,3.716740336830e+00,0.000000000000e+00
124,1.500000000000e-01,4.964000000000e+00,0.000000000000e+00
125,4.385819298767e-01,6.216740336830e+00,0.000000000000e+00
126,7.060660171780e-01,7.474544155877e+00,0.000000000000e+00
127,9.574025148548e-01,8.736223396435e+00,0.000000000000e+00
128,8.425974851452e-01,1.236223396435e+00,0.000000000000e+00
129,4.939339828220e-01,2.474544155877e+00,0.000000000000e+00
130,1.614180701233e-01,3.716740336830e+00,0.000000000000e+00
131,-1.500000000000e-01,4.964000000000e+00,0.000000000000e+00
132,-4.385819298767e-01,6.216740336830e+00,0.000000000000e+00
133,-7.060660171780e-01,7.474544155877e+00,0.000000000000e+00
134,-9.574025148548e-01,8.736223396435e+00,0.000000000000e+00
135,-8.425974851452e-01,1.236223396435e+00,2.000000000000e+00
136,-4.939339828220e-01,2.474544155877e+00,2.000000000000e+00
137,-1.614180701233e-01,3.716740336830e+00,2.000000000000e+00
138,1.500000000000e-01,4.964000000000e+00,2.000000000000e+00
139,4.385819298767e-01,6.216740336830e+00,2.000000000000e+00
140,7.060660171780e-01,7.474544155877e+00,2.000000000000e+00
141,9.574025148548e-01,8.736223396435e+00,2.000000000000e+00
142,8.425974851452e-01,1.236223396435e+00,2.000000000000e+00
143,4.939339828220e-01,2.474544155877e+00,2.000000000000e+00
144,1.614180701233e-01,3.716740336830e+00,2.000000000000e+00
145,-1.500000000000e-01,4.964000000000e+00,2.000000000000e+00
146,-4.385819298767e-01,6.216740336830e+00,2.000000000000e+00
147,-7.060660171780e-01,7.474544155877e+00,2.000000000000e+00
148,-9.574025148548e-01,8.736223396435e+00,2.000000000000e+00
149,-1.200000000000e+00,1.252121320344e+01,3.939339828220e-01
150,-1.200000000000e+00,1.503000000000e+01,8.500000000000e-01
151,-1.200000000000e+00,1.752121320344e+01,1.393933982822e+00
152,-1.200000000000e+00,1.252121320344e+01,1.606066017178e+00
153,-1.200000000000e+00,1.503000000000e+01,1.150000000000e+00
154,-1.200000000000e+00,1.752121320344e+01,6.060660171780e-01
155,1.200000000000e+00,1.252121320344e+01,3.939339828220e-01
156,1.200000000000e+00,1.503000000000e+01,8.500000000000e-01
157,1.200000000000e+00,1.752121320344e+01,1.393933982822e+00
158,1.200000000000e+00,1.252121320344e+01,1.606066017178e+00
159,1.200000000000e+00,1.503000000000e+01,1.150000000000e+00
160,1.200000000000e+00,1.752121320344e+01,6.060660171780e-01
161,-4.939339828220e-01,1.247454415588e+01,0.000000000000e+00
162,1.500000000000e-01,1.496400000000e+01,0.000000000000e+00
163,7.060660171780e-01,1.747454415588e+01,0.000000000000e+00
164,4.939339828220e-01,1.247454415588e+01,0.000000000000e+00
165,-1.500000000000e-01,1.496400000000e+01,0.000000000000e+00
166,-7.060660171780e-01,1.747454415588e+01,0.000000000000e+00
167,-4.939339828220e-01,1.247454415588e+01,2.000000000000e+00
168,1.500000000000e-01,1.496400000000e+01,2.000000000000e+00
169,7.060660171780e-01,1.747454415588e+01,2.000000000000e+00
170,4.939339828220e-01,1.247454415588e+01,2.000000000000e+00
171,-1.500000000000e-01,1.496400000000e+01,2.000000000000e+00
172,-7.060660171780e-01,1.747454415588e+01,2.000000000000e+00
173,-1.200000000000e+00,2.252121320344e+01,3.939339828220e-01
174,-1.200000000000e+00,2.503000000000e+01,8.500000000000e-01
175,-1.200000000000e+00,2.752121320344e+01,1.393933982822e+00
176,-1.200000000000e+00,2.252121320344e+01,1.606066017178e+00
177,-1.200000000000e+00,2.503000000000e+01,1.150000000000e+00
178,-1.200000000000e+00,2.752121320344e+01,6.060660171780e-01
179,1.200000000000e+00,2.252121320344e+01,3.939339828220e-01
180,1.200000000000e+00,2.503000000000e+01,8.500000000000e-01
181,1.200000000000e+00,2.752121320344e+01,1.393933982822e+00
182,1.200000000000e+00,2.252121320344e+01,1.606066017178e+00
183,1.200000000000e+00,2.503000000000e+01,1.150000000000e+00
184,1.200000000000e+00,2.752121320344e+01,6.060660171780e-01
185,-4.939339828220e-01,2.247454415588e+01,0.000000000000e+00
186,1.500000000000e-01,2.496400000000e+01,0.000000000000e+00
187,7.060660171780e-01,2.747454415588e+01,0.000000000000e+00
188,4.939339828220e-01,2.247454415588e+01,0.000000000000e+00
189,-1.500000000000e-01,2.496400000000e+01,0.000000000000e+00
190,-7.060660171780e-01,2.747454415588e+01,0.000000000000e+00
191,-4.939339828220e-01,2.247454415588e+01,2.000000000000e+00
192,1.500000000000e-01,2.496400000000e+01,2.000000000000e+00
193,7.060660171780e-01,2.747454415588e+01,2.000000000000e+00
194,4.939339828220e-01,2.247454415588e+01,2.000000000000e+00
195,-1.500000000000e-01,2.496400000000e+01,2.000000000000e+00
196,-7.060660171780e-01,2.747454415588e+01,2.000000000000e+00
197,-1.200000000000e+00,3.252121320344e+01,3.939339828220e-01
198,-1.200000000000e+00,3.503000000000e+01,8.500000000000e-01
199,-1.200000000000e+00,3.752121320344e+01,1.393933982822e+00
200,-1.200000000000e+00,3.252121320344e+01,1.606066017178e+00
201,-1.200000000000e+00,3.503000000000e+01,1.150000000000e+00
202,-1.200000000000e+00,3.752121320344e+01,6.060660171780e-01
203,1.200000000000e+00,3.252121320344e+01,3.939339828220e-01
204,1.200000000000e+00,3.503000000000e+01,8.500000000000e-01
205,1.200000000000e+00,3.752121320344e+01,1.393933982822e+00
206,1.200000000000e+00,3.252121320344e+01,1.606066017178e+00
207,1.200000000000e+00,3.503000000000e+01,1.150000000000e+00
208,1.200000000000e+00,3.752121320344e+01,6.060660171780e-01
209,-4.939339828220e-01,3.247454415588e+01,0.000000000000e+00
210,1.500000000000e-01,3.496400000000e+01,0.000000000000e+00
211,7.060660171780e-01,3.747454415588e+01,0.000000000000e+00
212,4.939339828220e-01,3.247454415588e+01,0.000000000000e+00
213,-1.500000000000e-01,3.496400000000e+01,0.000000000000e+00
214,-7.060660171780e-01,3.747454415588e+01,0.000000000000e+00
215,-4.939339828220e-01,3.247454415588e+01,2.000000000000e+00
216,1.500000000000e-01,3.496400000000e+01,2.000000000000e+00
217,7.060660171780e-01,3.747454415588e+01,2.000000000000e+00
218,4.939339828220e-01,3.247454415588e+01,2.000000000000e+00
219,-1.500000000000e-01,3.496400000000e+01,2.000000000000e+00
220,-7.060660171780e-01,3.747454415588e+01,2.000000000000e+00
221,-1.200000000000e+00,4.126148050297e+01,1.925974851452e-01
222,-1.200000000000e+00,4.252121320344e+01,3.939339828220e-01
223,-1.200000000000e+00,4.377771638598e+01,6.114180701233e-01
224,-1.200000000000e+00,4.503000000000e+01,8.500000000000e-01
225,-1.200000000000e+00,4.627771638598e+01,1.111418070123e+00
226,-1.200000000000e+00,4.752121320344e+01,1.393933982822e+00
227,-1.200000000000e+00,4.876148050297e+01,1.692597485145e+00
228,-1.200000000000e+00,4.126148050297e+01,1.807402514855e+00
229,-1.200000000000e+00,4.252121320344e+01,1.606066017178e+00
230,-1.200000000000e+00,4.377771638598e+01,1.388581929877e+00
231,-1.200000000000e+00,4.503000000000e+01,1.150000000000e+00
232,-1.200000000000e+00,4.627771638598e+01,8.885819298767e-01
233,-1.200000000000e+00,4.752121320344e+01,6.060660171780e-01
234,-1.200000000000e+00,4.876148050297e+01,3.074025148548e-01
235,1.200000000000e+00,4.126148050297e+01,1.925974851452e-01
236,1.200000000000e+00,4.252121320344e+01,3.939339828220e-01
237,1.200000000000e+00,4.377771638598e+01,6.114180701233e-01
238,1.200000000000e+00,4.503000000000e+01,8.500000000000e-01
239,1.200000000000e+00,4.627771638598e+01,1.111418070123e+00
240,1.200000000000e+00,4.752121320344e+01,1.393933982822e+00
241,1.200000000000e+00,4.876148050297e+01,1.692597485145e+00
242,1.200000000000e+00,4.126148050297e+01,1.807402514855e+00
243,1.200000000000e+00,4.252121320344e+01,1.606066017178e+00
244,1.200000000000e+00,4.377771638598e+01,1.388581929877e+00
245,1.200000000000e+00,4.503000000000e+01,1.150000000000e+00
246,1.200000000000e+00,4.627771638598e+01,8.885819298767e-01
247,1.200000000000e+00,4.752121320344e+01,6.060660171780e-01
248,1.200000000000e+00,4.876148050297e+01,3.074025148548e-01
249,-8.425974851452e-01,4.123622339643e+01,0.000000000000e+00
250,-4.939339828220e-01,4.247454415588e+01,0.000000000000e+00
251,-1.614180701233e-01,4.371674033683e+01,0.000000000000e+00
252,1.500000000000e-01,4.496400000000e+01,0.000000000000e+00
253,4.385819298767e-01,4.621674033683e+01,0.000000000000e+00
254,7.060660171780e-01,4.747454415588e+01,0.000000000000e+00
255,9.574025148548e-01,4.873622339643e+01,0.000000000000e+00
256,8.425974851452e-01,4.123622339643e+01,0.000000000000e+00
257,4.939339828220e-01,4.247454415588e+01,0.000000000000e+00
258,1.614180701233e-01,4.371674033683e+01,0.000000000000e+00
259,-1.500000000000e-01,4.496400000000e+01,0.000000000000e+00
260,-4.385819298767e-01,4.621674033683e+01,0.000000000000e+00
261,-7.060660171780e-01,4.747454415588e+01,0.000000000000e+00
262,-9.574025148548e-01,4.873622339643e+01,0.000000000000e+00
263,-8.425974851452e-01,4.123622339643e+01,2.000000000000e+00
264,-4.939339828220e-01,4.247454415588e+01,2.000000000000e+00
265,-1.614180701233e-01,4.371674033683e+01,2.000000000000e+00
266,1.500000000000e-01,4.496400000000e+01,2.000000000000e+00
267,4.385819298767e-01,4.621674033683e+01,2.000000000000e+00
268,7.060660171780e-01,4.747454415588e+01,2.000000000000e+00
269,9.574025148548e-01,4.873622339643e+01,2.000000000000e+00
270,8.425974851452e-01,4.123622339643e+01,2.000000000000e+00
271,4.939339828220e-01,4.247454415588e+01,2.000000000000e+00
272,1.614180701233e-01,4.371674033683e+01,2.000000000000e+00
273,-1.500000000000e-01,4.496400000000e+01,2.000000000000e+00
274,-4.385819298767e-01,4.621674033683e+01,2.000000000000e+00
275,-7.060660171780e-01,4.747454415588e+01,2.000000000000e+00
276,-9.574025148548e-01,4.873622339643e+01,2.000000000000e+00
*ELEMENT,TYPE=B31,ELSET=ALL
1,1,25
2,25,5
3,2,26
4,26,6
5,3,27
6,27,7
7,4,28
8,28,8
9,5,9
10,6,10
11,7,11
12,8,12
13,9,13
14,10,14
15,11,15
16,12,16
17,13,29
18,29,17
19,14,30
20,30,18
21,15,31
22,31,19
23,16,32
24,32,20
25,17,33
26,33,34
27,34,35
28,35,21
29,18,36
30,36,37
31,37,38
32,38,22
33,19,39
34,39,40
35,40,41
36,41,23
37,20,42
38,42,43
39,43,44
40,44,24
41,1,45
42,45,46
43,46,47
44,47,2
45,3,48
46,48,49
47,49,50
48,50,4
49,1,51
50,51,52
51,52,53
52,53,3
53,2,54
54,54,55
55,55,56
56,56,4
57,5,57
58,57,58
59,58,59
60,59,6
61,7,60
62,60,61
63,61,62
64,62,8
65,5,63
66,63,64
67,64,65
68,65,7
69,6,66
70,66,67
71,67,68
72,68,8
73,9,10
74,11,12
75,9,11
76,10,12
77,13,14
78,15,16
79,13,15
80,14,16
81,17,69
82,69,70
83,70,71
84,71,18
85,19,72
86,72,73
87,73,74
88,74,20
89,17,75
90,75,76
91,76,77
92,77,19
93,18,78
94,78,79
95,79,80
96,80,20
97,21,81
98,81,82
99,82,83
100,83,22
101,23,84
102,84,85
103,85,86
104,86,24
105,21,87
106,87,88
107,88,89
108,89,23
109,22,90
110,90,91
111,91,92
112,92,24
113,1,93
114,93,94
115,94,95
116,95,96
117,96,97
118,97,98
119,98,99
120,99,7
121,3,100
122,100,101
123,101,102
124,102,103
125,103,104
126,104,105
127,105,106
128,106,5
129,2,107
130,107,108
131,108,109
132,109,110
133,110,111
134,111,112
135,112,113
136,113,8
137,4,114
138,114,115
139,115,116
140,116,117
141,117,118
142,118,119
143,119,120
144,120,6
145,1,121
146,121,122
147,122,123
148,123,124
149,124,125
150,125,126
151,126,127
152,127,6
153,2,128
154,128,129
155,129,130
156,130,131
157,131,132
158,132,133
159,133,134
160,134,5
161,3,135
162,135,136
163,136,137
164,137,138
165,138,139
166,139,140
167,140,141
168,141,8
169,4,142
170,142,143
171,143,144
172,144,145
173,145,146
174,146,147
175,147,148
176,148,7
177,5,149
178,149,150
179,150,151
180,151,11
181,7,152
182,152,153
183,153,154
184,154,9
185,6,155
186,155,156
187,156,157
188,157,12
189,8,158
190,158,159
191,159,160
192,160,10
193,5,161
194,161,162
195,162,163
196,163,10
197,6,164
198,164,165
199,165,166
200,166,9
201,7,167
202,167,168
203,168,169
204,169,12
205,8,170
206,170,171
207,171,172
208,172,11
209,9,173
210,173,174
211,174,175
212,175,15
213,11,176
214,176,177
215,177,178
216,178,13
217,10,179
218,179,180
219,180,181
220,181,16
221,12,182
222,182,183
223,183,184
224,184,14
225,9,185
226,185,186
227,186,187
228,187,14
229,10,188
230,188,189
231,189,190
232,190,13
233,11,191
234,191,192
235,192,193
236,193,16
237,12,194
238,194,195
239,195,196
240,196,15
241,13,197
242,197,198
243,198,199
244,199,19
245,15,200
246,200,201
247,201,202
248,202,17
249,14,203
250,203,204
251,204,205
252,205,20
253,16,206
254,206,207
255,207,208
256,208,18
257,13,209
258,209,210
259,210,211
260,211,18
261,14,212
262,212,213
263,213,214
264,214,17
265,15,215
266,215,216
267,216,217
268,217,20
269,16,218
270,218,219
271,219,220
272,220,19
273,17,221
274,221,222
275,222,223
276,223,224
277,224,225
278,225,226
279,226,227
280,227,23
281,19,228
282,228,229
283,229,230
284,230,231
285,231,232
286,232,233
287,233,234
288,234,21
289,18,235
290,235,236
291,236,237
292,237,238
293,238,239
294,239,240
295,240,241
296,241,24
297,20,242
298,242,243
299,243,244
300,244,245
301,245,246
302,246,247
303,247,248
304,248,22
305,17,249
306,249,250
307,250,251
308,251,252
309,252,253
310,253,254
311,254,255
312,255,22
313,18,256
314,256,257
315,257,258
316,258,259
317,259,260
318,260,261
319,261,262
320,262,21
321,19,263
322,263,264
323,264,265
324,265,266
325,266,267
326,267,268
327,268,269
328,269,24
329,20,270
330,270,271
331,271,272
332,272,273
333,273,274
334,274,275
335,275,276
336,276,23
*NSET,NSET=NALL,GENERATE
1,276,1
*NSET,NSET=LEFT
1,2,3,4
*NSET,NSET=RIGHT
21,22,23,24
*MATERIAL,NAME=STEEL
*ELASTIC
2.100000000000e+11,0.300000000000
*BEAM SECTION,ELSET=ALL,MATERIAL=STEEL,SECTION=RECT
6.000000000000e-02,4.000000000000e-02
0.371390676354,0.557086014531,0.742781352708
*BOUNDARY
LEFT,1,6,0.0
*STEP
*STATIC
*BOUNDARY
21,1,1,5.000000000000e-03
21,2,2,0.0
21,3,3,-6.000000000000e-03
*BOUNDARY
22,1,1,5.000000000000e-03
22,2,2,0.0
22,3,3,6.000000000000e-03
*BOUNDARY
23,1,1,-5.000000000000e-03
23,2,2,0.0
23,3,3,-6.000000000000e-03
*BOUNDARY
24,1,1,-5.000000000000e-03
24,2,2,0.0
24,3,3,6.000000000000e-03
*NODE FILE,NSET=NALL
U
*NODE PRINT,NSET=NALL
U
*NODE PRINT,NSET=RIGHT
RF
*EL PRINT,ELSET=ALL,TOTALS=YES
ELSE
*END STEP
