*HEADING
Normalized cross-passage space-truss torsion benchmark
*NODE
1,-1.200000000000e+00,0.000000000000e+00,0.000000000000e+00
2,1.200000000000e+00,0.000000000000e+00,0.000000000000e+00
3,-1.200000000000e+00,0.000000000000e+00,2.000000000000e+00
4,1.200000000000e+00,0.000000000000e+00,2.000000000000e+00
5,-1.200000000000e+00,1.000000000000e+01,0.000000000000e+00
6,1.200000000000e+00,1.000000000000e+01,0.000000000000e+00
7,-1.200000000000e+00,1.000000000000e+01,2.000000000000e+00
8,1.200000000000e+00,1.000000000000e+01,2.000000000000e+00
9,-1.200000000000e+00,2.000000000000e+01,0.000000000000e+00
10,1.200000000000e+00,2.000000000000e+01,0.000000000000e+00
11,-1.200000000000e+00,2.000000000000e+01,2.000000000000e+00
12,1.200000000000e+00,2.000000000000e+01,2.000000000000e+00
13,-1.200000000000e+00,3.000000000000e+01,0.000000000000e+00
14,1.200000000000e+00,3.000000000000e+01,0.000000000000e+00
15,-1.200000000000e+00,3.000000000000e+01,2.000000000000e+00
16,1.200000000000e+00,3.000000000000e+01,2.000000000000e+00
17,-1.200000000000e+00,4.000000000000e+01,0.000000000000e+00
18,1.200000000000e+00,4.000000000000e+01,0.000000000000e+00
19,-1.200000000000e+00,4.000000000000e+01,2.000000000000e+00
20,1.200000000000e+00,4.000000000000e+01,2.000000000000e+00
21,-1.200000000000e+00,5.000000000000e+01,0.000000000000e+00
22,1.200000000000e+00,5.000000000000e+01,0.000000000000e+00
23,-1.200000000000e+00,5.000000000000e+01,2.000000000000e+00
24,1.200000000000e+00,5.000000000000e+01,2.000000000000e+00
25,-1.200000000000e+00,5.000000000000e+00,-1.500000000000e-01
26,1.200000000000e+00,5.000000000000e+00,1.500000000000e-01
27,-1.200000000000e+00,5.000000000000e+00,1.850000000000e+00
28,1.200000000000e+00,5.000000000000e+00,2.150000000000e+00
29,-1.200000000000e+00,1.500000000000e+01,-1.500000000000e-01
30,1.200000000000e+00,1.500000000000e+01,1.500000000000e-01
31,-1.200000000000e+00,1.500000000000e+01,1.850000000000e+00
32,1.200000000000e+00,1.500000000000e+01,2.150000000000e+00
33,-1.200000000000e+00,2.500000000000e+01,-1.500000000000e-01
34,1.200000000000e+00,2.500000000000e+01,1.500000000000e-01
35,-1.200000000000e+00,2.500000000000e+01,1.850000000000e+00
36,1.200000000000e+00,2.500000000000e+01,2.150000000000e+00
37,-1.200000000000e+00,3.500000000000e+01,-1.500000000000e-01
38,1.200000000000e+00,3.500000000000e+01,1.500000000000e-01
39,-1.200000000000e+00,3.500000000000e+01,1.850000000000e+00
40,1.200000000000e+00,3.500000000000e+01,2.150000000000e+00
41,-1.200000000000e+00,4.500000000000e+01,-1.500000000000e-01
42,1.200000000000e+00,4.500000000000e+01,1.500000000000e-01
43,-1.200000000000e+00,4.500000000000e+01,1.850000000000e+00
44,1.200000000000e+00,4.500000000000e+01,2.150000000000e+00
45,0.000000000000e+00,-3.600000000000e-02,0.000000000000e+00
46,0.000000000000e+00,3.600000000000e-02,2.000000000000e+00
47,-1.200000000000e+00,3.000000000000e-02,1.000000000000e+00
48,1.200000000000e+00,-3.000000000000e-02,1.000000000000e+00
49,0.000000000000e+00,9.964000000000e+00,0.000000000000e+00
50,0.000000000000e+00,1.003600000000e+01,2.000000000000e+00
51,-1.200000000000e+00,1.003000000000e+01,1.000000000000e+00
52,1.200000000000e+00,9.970000000000e+00,1.000000000000e+00
53,0.000000000000e+00,1.996400000000e+01,0.000000000000e+00
54,0.000000000000e+00,2.003600000000e+01,2.000000000000e+00
55,-1.200000000000e+00,2.003000000000e+01,1.000000000000e+00
56,1.200000000000e+00,1.997000000000e+01,1.000000000000e+00
57,-9.000000000000e-01,3.998622339643e+01,0.000000000000e+00
58,-6.000000000000e-01,3.997454415588e+01,0.000000000000e+00
59,-3.000000000000e-01,3.996674033683e+01,0.000000000000e+00
60,0.000000000000e+00,3.996400000000e+01,0.000000000000e+00
61,3.000000000000e-01,3.996674033683e+01,0.000000000000e+00
62,6.000000000000e-01,3.997454415588e+01,0.000000000000e+00
63,9.000000000000e-01,3.998622339643e+01,0.000000000000e+00
64,-9.000000000000e-01,4.001377660357e+01,2.000000000000e+00
65,-6.000000000000e-01,4.002545584412e+01,2.000000000000e+00
66,-3.000000000000e-01,4.003325966317e+01,2.000000000000e+00
67,0.000000000000e+00,4.003600000000e+01,2.000000000000e+00
68,3.000000000000e-01,4.003325966317e+01,2.000000000000e+00
69,6.000000000000e-01,4.002545584412e+01,2.000000000000e+00
70,9.000000000000e-01,4.001377660357e+01,2.000000000000e+00
71,-1.200000000000e+00,4.001148050297e+01,2.500000000000e-01
72,-1.200000000000e+00,4.002121320344e+01,5.000000000000e-01
73,-1.200000000000e+00,4.002771638598e+01,7.500000000000e-01
74,-1.200000000000e+00,4.003000000000e+01,1.000000000000e+00
75,-1.200000000000e+00,4.002771638598e+01,1.250000000000e+00
76,-1.200000000000e+00,4.002121320344e+01,1.500000000000e+00
77,-1.200000000000e+00,4.001148050297e+01,1.750000000000e+00
78,1.200000000000e+00,3.998851949703e+01,2.500000000000e-01
79,1.200000000000e+00,3.997878679656e+01,5.000000000000e-01
80,1.200000000000e+00,3.997228361402e+01,7.500000000000e-01
81,1.200000000000e+00,3.997000000000e+01,1.000000000000e+00
82,1.200000000000e+00,3.997228361402e+01,1.250000000000e+00
83,1.200000000000e+00,3.997878679656e+01,1.500000000000e+00
84,1.200000000000e+00,3.998851949703e+01,1.750000000000e+00
85,0.000000000000e+00,4.996400000000e+01,0.000000000000e+00
86,0.000000000000e+00,5.003600000000e+01,2.000000000000e+00
87,-1.200000000000e+00,5.003000000000e+01,1.000000000000e+00
88,1.200000000000e+00,4.997000000000e+01,1.000000000000e+00
89,-1.200000000000e+00,5.030000000000e+00,8.500000000000e-01
90,-1.200000000000e+00,5.030000000000e+00,1.150000000000e+00
91,1.200000000000e+00,5.030000000000e+00,8.500000000000e-01
92,1.200000000000e+00,5.030000000000e+00,1.150000000000e+00
93,1.500000000000e-01,4.964000000000e+00,0.000000000000e+00
94,-1.500000000000e-01,4.964000000000e+00,0.000000000000e+00
95,1.500000000000e-01,4.964000000000e+00,2.000000000000e+00
96,-1.500000000000e-01,4.964000000000e+00,2.000000000000e+00
97,-1.200000000000e+00,1.503000000000e+01,8.500000000000e-01
98,-1.200000000000e+00,1.503000000000e+01,1.150000000000e+00
99,1.200000000000e+00,1.503000000000e+01,8.500000000000e-01
100,1.200000000000e+00,1.503000000000e+01,1.150000000000e+00
101,1.500000000000e-01,1.496400000000e+01,0.000000000000e+00
102,-1.500000000000e-01,1.496400000000e+01,0.000000000000e+00
103,1.500000000000e-01,1.496400000000e+01,2.000000000000e+00
104,-1.500000000000e-01,1.496400000000e+01,2.000000000000e+00
105,-1.200000000000e+00,2.503000000000e+01,8.500000000000e-01
106,-1.200000000000e+00,2.503000000000e+01,1.150000000000e+00
107,1.200000000000e+00,2.503000000000e+01,8.500000000000e-01
108,1.200000000000e+00,2.503000000000e+01,1.150000000000e+00
109,1.500000000000e-01,2.496400000000e+01,0.000000000000e+00
110,-1.500000000000e-01,2.496400000000e+01,0.000000000000e+00
111,1.500000000000e-01,2.496400000000e+01,2.000000000000e+00
112,-1.500000000000e-01,2.496400000000e+01,2.000000000000e+00
113,-1.200000000000e+00,3.503000000000e+01,8.500000000000e-01
114,-1.200000000000e+00,3.503000000000e+01,1.150000000000e+00
115,1.200000000000e+00,3.503000000000e+01,8.500000000000e-01
116,1.200000000000e+00,3.503000000000e+01,1.150000000000e+00
117,1.500000000000e-01,3.496400000000e+01,0.000000000000e+00
118,-1.500000000000e-01,3.496400000000e+01,0.000000000000e+00
119,1.500000000000e-01,3.496400000000e+01,2.000000000000e+00
120,-1.500000000000e-01,3.496400000000e+01,2.000000000000e+00
*ELEMENT,TYPE=B31,ELSET=ALL
1,1,25
2,25,5
3,2,26
4,26,6
5,3,27
6,27,7
7,4,28
8,28,8
9,5,29
10,29,9
11,6,30
12,30,10
13,7,31
14,31,11
15,8,32
16,32,12
17,9,33
18,33,13
19,10,34
20,34,14
21,11,35
22,35,15
23,12,36
24,36,16
25,13,37
26,37,17
27,14,38
28,38,18
29,15,39
30,39,19
31,16,40
32,40,20
33,17,41
34,41,21
35,18,42
36,42,22
37,19,43
38,43,23
39,20,44
40,44,24
41,1,45
42,45,2
43,3,46
44,46,4
45,1,47
46,47,3
47,2,48
48,48,4
49,5,49
50,49,6
51,7,50
52,50,8
53,5,51
54,51,7
55,6,52
56,52,8
57,9,53
58,53,10
59,11,54
60,54,12
61,9,55
62,55,11
63,10,56
64,56,12
65,13,14
66,15,16
67,13,15
68,14,16
69,17,57
70,57,58
71,58,59
72,59,60
73,60,61
74,61,62
75,62,63
76,63,18
77,19,64
78,64,65
79,65,66
80,66,67
81,67,68
82,68,69
83,69,70
84,70,20
85,17,71
86,71,72
87,72,73
88,73,74
89,74,75
90,75,76
91,76,77
92,77,19
93,18,78
94,78,79
95,79,80
96,80,81
97,81,82
98,82,83
99,83,84
100,84,20
101,21,85
102,85,22
103,23,86
104,86,24
105,21,87
106,87,23
107,22,88
108,88,24
109,1,89
110,89,7
111,3,90
112,90,5
113,2,91
114,91,8
115,4,92
116,92,6
117,1,93
118,93,6
119,2,94
120,94,5
121,3,95
122,95,8
123,4,96
124,96,7
125,5,97
126,97,11
127,7,98
128,98,9
129,6,99
130,99,12
131,8,100
132,100,10
133,5,101
134,101,10
135,6,102
136,102,9
137,7,103
138,103,12
139,8,104
140,104,11
141,9,105
142,105,15
143,11,106
144,106,13
145,10,107
146,107,16
147,12,108
148,108,14
149,9,109
150,109,14
151,10,110
152,110,13
153,11,111
154,111,16
155,12,112
156,112,15
157,13,113
158,113,19
159,15,114
160,114,17
161,14,115
162,115,20
163,16,116
164,116,18
165,13,117
166,117,18
167,14,118
168,118,17
169,15,119
170,119,20
171,16,120
172,120,19
173,17,23
174,19,21
175,18,24
176,20,22
177,17,22
178,18,21
179,19,24
180,20,23
*NSET,NSET=NALL,GENERATE
1,120,1
*NSET,NSET=LEFT
1,2,3,4
*NSET,NSET=RIGHT
21,22,23,24
*MATERIAL,NAME=STEEL
*ELASTIC
2.100000000000e+11,0.300000000000
*BEAM SECTION,ELSET=ALL,MATERIAL=STEEL,SECTION=RECT
6.000000000000e-02,4.000000000000e-02
0.371390676354,0.557086014531,0.742781352708
*BOUNDARY
LEFT,1,6,0.0
*STEP
*STATIC
*BOUNDARY
21,1,1,5.000000000000e-03
21,2,2,0.0
21,3,3,-6.000000000000e-03
*BOUNDARY
22,1,1,5.000000000000e-03
22,2,2,0.0
22,3,3,6.000000000000e-03
*BOUNDARY
23,1,1,-5.000000000000e-03
23,2,2,0.0
23,3,3,-6.000000000000e-03
*BOUNDARY
24,1,1,-5.000000000000e-03
24,2,2,0.0
24,3,3,6.000000000000e-03
*NODE FILE,NSET=NALL
U
*NODE PRINT,NSET=NALL
U
*NODE PRINT,NSET=RIGHT
RF
*EL PRINT,ELSET=ALL,TOTALS=YES
ELSE
*END STEP
