*HEADING
Normalized cross-passage space-truss torsion benchmark
*NODE
1,-1.200000000000e+00,0.000000000000e+00,0.000000000000e+00
2,1.200000000000e+00,0.000000000000e+00,0.000000000000e+00
3,-1.200000000000e+00,0.000000000000e+00,2.000000000000e+00
4,1.200000000000e+00,0.000000000000e+00,2.000000000000e+00
5,-1.200000000000e+00,1.000000000000e+01,0.000000000000e+00
6,1.200000000000e+00,1.000000000000e+01,0.000000000000e+00
7,-1.200000000000e+00,1.000000000000e+01,2.000000000000e+00
8,1.200000000000e+00,1.000000000000e+01,2.000000000000e+00
9,-1.200000000000e+00,2.000000000000e+01,0.000000000000e+00
10,1.200000000000e+00,2.000000000000e+01,0.000000000000e+00
11,-1.200000000000e+00,2.000000000000e+01,2.000000000000e+00
12,1.200000000000e+00,2.000000000000e+01,2.000000000000e+00
13,-1.200000000000e+00,3.000000000000e+01,0.000000000000e+00
14,1.200000000000e+00,3.000000000000e+01,0.000000000000e+00
15,-1.200000000000e+00,3.000000000000e+01,2.000000000000e+00
16,1.200000000000e+00,3.000000000000e+01,2.000000000000e+00
17,-1.200000000000e+00,4.000000000000e+01,0.000000000000e+00
18,1.200000000000e+00,4.000000000000e+01,0.000000000000e+00
19,-1.200000000000e+00,4.000000000000e+01,2.000000000000e+00
20,1.200000000000e+00,4.000000000000e+01,2.000000000000e+00
21,-1.200000000000e+00,5.000000000000e+01,0.000000000000e+00
22,1.200000000000e+00,5.000000000000e+01,0.000000000000e+00
23,-1.200000000000e+00,5.000000000000e+01,2.000000000000e+00
24,1.200000000000e+00,5.000000000000e+01,2.000000000000e+00
25,-1.200000000000e+00,3.250000000000e+01,-1.060660171780e-01
26,-1.200000000000e+00,3.500000000000e+01,-1.500000000000e-01
27,-1.200000000000e+00,3.750000000000e+01,-1.060660171780e-01
28,1.200000000000e+00,3.250000000000e+01,1.060660171780e-01
29,1.200000000000e+00,3.500000000000e+01,1.500000000000e-01
30,1.200000000000e+00,3.750000000000e+01,1.060660171780e-01
31,-1.200000000000e+00,3.250000000000e+01,1.893933982822e+00
32,-1.200000000000e+00,3.500000000000e+01,1.850000000000e+00
33,-1.200000000000e+00,3.750000000000e+01,1.893933982822e+00
34,1.200000000000e+00,3.250000000000e+01,2.106066017178e+00
35,1.200000000000e+00,3.500000000000e+01,2.150000000000e+00
36,1.200000000000e+00,3.750000000000e+01,2.106066017178e+00
37,-1.200000000000e+00,4.125000000000e+01,-5.740251485476e-02
38,-1.200000000000e+00,4.250000000000e+01,-1.060660171780e-01
39,-1.200000000000e+00,4.375000000000e+01,-1.385819298767e-01
40,-1.200000000000e+00,4.500000000000e+01,-1.500000000000e-01
41,-1.200000000000e+00,4.625000000000e+01,-1.385819298767e-01
42,-1.200000000000e+00,4.750000000000e+01,-1.060660171780e-01
43,-1.200000000000e+00,4.875000000000e+01,-5.740251485476e-02
44,1.200000000000e+00,4.125000000000e+01,5.740251485476e-02
45,1.200000000000e+00,4.250000000000e+01,1.060660171780e-01
46,1.200000000000e+00,4.375000000000e+01,1.385819298767e-01
47,1.200000000000e+00,4.500000000000e+01,1.500000000000e-01
48,1.200000000000e+00,4.625000000000e+01,1.385819298767e-01
49,1.200000000000e+00,4.750000000000e+01,1.060660171780e-01
50,1.200000000000e+00,4.875000000000e+01,5.740251485476e-02
51,-1.200000000000e+00,4.125000000000e+01,1.942597485145e+00
52,-1.200000000000e+00,4.250000000000e+01,1.893933982822e+00
53,-1.200000000000e+00,4.375000000000e+01,1.861418070123e+00
54,-1.200000000000e+00,4.500000000000e+01,1.850000000000e+00
55,-1.200000000000e+00,4.625000000000e+01,1.861418070123e+00
56,-1.200000000000e+00,4.750000000000e+01,1.893933982822e+00
57,-1.200000000000e+00,4.875000000000e+01,1.942597485145e+00
58,1.200000000000e+00,4.125000000000e+01,2.057402514855e+00
59,1.200000000000e+00,4.250000000000e+01,2.106066017178e+00
60,1.200000000000e+00,4.375000000000e+01,2.138581929877e+00
61,1.200000000000e+00,4.500000000000e+01,2.150000000000e+00
62,1.200000000000e+00,4.625000000000e+01,2.138581929877e+00
63,1.200000000000e+00,4.750000000000e+01,2.106066017178e+00
64,1.200000000000e+00,4.875000000000e+01,2.057402514855e+00
65,-6.000000000000e-01,-2.545584412272e-02,0.000000000000e+00
66,0.000000000000e+00,-3.600000000000e-02,0.000000000000e+00
67,6.000000000000e-01,-2.545584412272e-02,0.000000000000e+00
68,-6.000000000000e-01,2.545584412272e-02,2.000000000000e+00
69,0.000000000000e+00,3.600000000000e-02,2.000000000000e+00
70,6.000000000000e-01,2.545584412272e-02,2.000000000000e+00
71,-1.200000000000e+00,2.121320343560e-02,5.000000000000e-01
72,-1.200000000000e+00,3.000000000000e-02,1.000000000000e+00
73,-1.200000000000e+00,2.121320343560e-02,1.500000000000e+00
74,1.200000000000e+00,-2.121320343560e-02,5.000000000000e-01
75,1.200000000000e+00,-3.000000000000e-02,1.000000000000e+00
76,1.200000000000e+00,-2.121320343560e-02,1.500000000000e+00
77,0.000000000000e+00,9.964000000000e+00,0.000000000000e+00
78,0.000000000000e+00,1.003600000000e+01,2.000000000000e+00
79,-1.200000000000e+00,1.003000000000e+01,1.000000000000e+00
80,1.200000000000e+00,9.970000000000e+00,1.000000000000e+00
81,-6.000000000000e-01,1.997454415588e+01,0.000000000000e+00
82,0.000000000000e+00,1.996400000000e+01,0.000000000000e+00
83,6.000000000000e-01,1.997454415588e+01,0.000000000000e+00
84,-6.000000000000e-01,2.002545584412e+01,2.000000000000e+00
85,0.000000000000e+00,2.003600000000e+01,2.000000000000e+00
86,6.000000000000e-01,2.002545584412e+01,2.000000000000e+00
87,-1.200000000000e+00,2.002121320344e+01,5.000000000000e-01
88,-1.200000000000e+00,2.003000000000e+01,1.000000000000e+00
89,-1.200000000000e+00,2.002121320344e+01,1.500000000000e+00
90,1.200000000000e+00,1.997878679656e+01,5.000000000000e-01
91,1.200000000000e+00,1.997000000000e+01,1.000000000000e+00
92,1.200000000000e+00,1.997878679656e+01,1.500000000000e+00
93,0.000000000000e+00,2.996400000000e+01,0.000000000000e+00
94,0.000000000000e+00,3.003600000000e+01,2.000000000000e+00
95,-1.200000000000e+00,3.003000000000e+01,1.000000000000e+00
96,1.200000000000e+00,2.997000000000e+01,1.000000000000e+00
97,0.000000000000e+00,3.996400000000e+01,0.000000000000e+00
98,0.000000000000e+00,4.003600000000e+01,2.000000000000e+00
99,-1.200000000000e+00,4.003000000000e+01,1.000000000000e+00
100,1.200000000000e+00,3.997000000000e+01,1.000000000000e+00
101,-6.000000000000e-01,4.997454415588e+01,0.000000000000e+00
102,0.000000000000e+00,4.996400000000e+01,0.000000000000e+00
103,6.000000000000e-01,4.997454415588e+01,0.000000000000e+00
104,-6.000000000000e-01,5.002545584412e+01,2.000000000000e+00
105,0.000000000000e+00,5.003600000000e+01,2.000000000000e+00
106,6.000000000000e-01,5.002545584412e+01,2.000000000000e+00
107,-1.200000000000e+00,5.002121320344e+01,5.000000000000e-01
108,-1.200000000000e+00,5.003000000000e+01,1.000000000000e+00
109,-1.200000000000e+00,5.002121320344e+01,1.500000000000e+00
110,1.200000000000e+00,4.997878679656e+01,5.000000000000e-01
111,1.200000000000e+00,4.997000000000e+01,1.000000000000e+00
112,1.200000000000e+00,4.997878679656e+01,1.500000000000e+00
113,-1.200000000000e+00,2.521213203436e+00,3.939339828220e-01
114,-1.200000000000e+00,5.030000000000e+00,8.500000000000e-01
115,-1.200000000000e+00,7.521213203436e+00,1.393933982822e+00
116,-1.200000000000e+00,2.521213203436e+00,1.606066017178e+00
117,-1.200000000000e+00,5.030000000000e+00,1.150000000000e+00
118,-1.200000000000e+00,7.521213203436e+00,6.060660171780e-01
119,1.200000000000e+00,2.521213203436e+00,3.939339828220e-01
120,1.200000000000e+00,5.030000000000e+00,8.500000000000e-01
121,1.200000000000e+00,7.521213203436e+00,1.393933982822e+00
122,1.200000000000e+00,2.521213203436e+00,1.606066017178e+00
123,1.200000000000e+00,5.030000000000e+00,1.150000000000e+00
124,1.200000000000e+00,7.521213203436e+00,6.060660171780e-01
125,-4.939339828220e-01,2.474544155877e+00,0.000000000000e+00
126,1.500000000000e-01,4.964000000000e+00,0.000000000000e+00
127,7.060660171780e-01,7.474544155877e+00,0.000000000000e+00
128,4.939339828220e-01,2.474544155877e+00,0.000000000000e+00
129,-1.500000000000e-01,4.964000000000e+00,0.000000000000e+00
130,-7.060660171780e-01,7.474544155877e+00,0.000000000000e+00
131,-4.939339828220e-01,2.474544155877e+00,2.000000000000e+00
132,1.500000000000e-01,4.964000000000e+00,2.000000000000e+00
133,7.060660171780e-01,7.474544155877e+00,2.000000000000e+00
134,4.939339828220e-01,2.474544155877e+00,2.000000000000e+00
135,-1.500000000000e-01,4.964000000000e+00,2.000000000000e+00
136,-7.060660171780e-01,7.474544155877e+00,2.000000000000e+00
137,-1.200000000000e+00,1.503000000000e+01,8.500000000000e-01
138,-1.200000000000e+00,1.503000000000e+01,1.150000000000e+00
139,1.200000000000e+00,1.503000000000e+01,8.500000000000e-01
140,1.200000000000e+00,1.503000000000e+01,1.150000000000e+00
141,1.500000000000e-01,1.496400000000e+01,0.000000000000e+00
142,-1.500000000000e-01,1.496400000000e+01,0.000000000000e+00
143,1.500000000000e-01,1.496400000000e+01,2.000000000000e+00
144,-1.500000000000e-01,1.496400000000e+01,2.000000000000e+00
145,-1.200000000000e+00,2.126148050297e+01,1.925974851452e-01
146,-1.200000000000e+00,2.252121320344e+01,3.939339828220e-01
147,-1.200000000000e+00,2.377771638598e+01,6.114180701233e-01
148,-1.200000000000e+00,2.503000000000e+01,8.500000000000e-01
149,-1.200000000000e+00,2.627771638598e+01,1.111418070123e+00
150,-1.200000000000e+00,2.752121320344e+01,1.393933982822e+00
151,-1.200000000000e+00,2.876148050297e+01,1.692597485145e+00
152,-1.200000000000e+00,2.126148050297e+01,1.807402514855e+00
153,-1.200000000000e+00,2.252121320344e+01,1.606066017178e+00
154,-1.200000000000e+00,2.377771638598e+01,1.388581929877e+00
155,-1.200000000000e+00,2.503000000000e+01,1.150000000000e+00
156,-1.200000000000e+00,2.627771638598e+01,8.885819298767e-01
157,-1.200000000000e+00,2.752121320344e+01,6.060660171780e-01
158,-1.200000000000e+00,2.876148050297e+01,3.074025148548e-01
159,1.200000000000e+00,2.126148050297e+01,1.925974851452e-01
160,1.200000000000e+00,2.252121320344e+01,3.939339828220e-01
161,1.200000000000e+00,2.377771638598e+01,6.114180701233e-01
162,1.200000000000e+00,2.503000000000e+01,8.500000000000e-01
163,1.200000000000e+00,2.627771638598e+01,1.111418070123e+00
164,1.200000000000e+00,2.752121320344e+01,1.393933982822e+00
165,1.200000000000e+00,2.876148050297e+01,1.692597485145e+00
166,1.200000000000e+00,2.126148050297e+01,1.807402514855e+00
167,1.200000000000e+00,2.252121320344e+01,1.606066017178e+00
168,1.200000000000e+00,2.377771638598e+01,1.388581929877e+00
169,1.200000000000e+00,2.503000000000e+01,1.150000000000e+00
170,1.200000000000e+00,2.627771638598e+01,8.885819298767e-01
171,1.200000000000e+00,2.752121320344e+01,6.060660171780e-01
172,1.200000000000e+00,2.876148050297e+01,3.074025148548e-01
173,-8.425974851452e-01,2.123622339643e+01,0.000000000000e+00
174,-4.939339828220e-01,2.247454415588e+01,0.000000000000e+00
175,-1.614180701233e-01,2.371674033683e+01,0.000000000000e+00
176,1.500000000000e-01,2.496400000000e+01,0.000000000000e+00
177,4.385819298767e-01,2.621674033683e+01,0.000000000000e+00
178,7.060660171780e-01,2.747454415588e+01,0.000000000000e+00
179,9.574025148548e-01,2.873622339643e+01,0.000000000000e+00
180,8.425974851452e-01,2.123622339643e+01,0.000000000000e+00
181,4.939339828220e-01,2.247454415588e+01,0.000000000000e+00
182,1.614180701233e-01,2.371674033683e+01,0.000000000000e+00
183,-1.500000000000e-01,2.496400000000e+01,0.000000000000e+00
184,-4.385819298767e-01,2.621674033683e+01,0.000000000000e+00
185,-7.060660171780e-01,2.747454415588e+01,0.000000000000e+00
186,-9.574025148548e-01,2.873622339643e+01,0.000000000000e+00
187,-8.425974851452e-01,2.123622339643e+01,2.000000000000e+00
188,-4.939339828220e-01,2.247454415588e+01,2.000000000000e+00
189,-1.614180701233e-01,2.371674033683e+01,2.000000000000e+00
190,1.500000000000e-01,2.496400000000e+01,2.000000000000e+00
191,4.385819298767e-01,2.621674033683e+01,2.000000000000e+00
192,7.060660171780e-01,2.747454415588e+01,2.000000000000e+00
193,9.574025148548e-01,2.873622339643e+01,2.000000000000e+00
194,8.425974851452e-01,2.123622339643e+01,2.000000000000e+00
195,4.939339828220e-01,2.247454415588e+01,2.000000000000e+00
196,1.614180701233e-01,2.371674033683e+01,2.000000000000e+00
197,-1.500000000000e-01,2.496400000000e+01,2.000000000000e+00
198,-4.385819298767e-01,2.621674033683e+01,2.000000000000e+00
199,-7.060660171780e-01,2.747454415588e+01,2.000000000000e+00
200,-9.574025148548e-01,2.873622339643e+01,2.000000000000e+00
201,-1.200000000000e+00,3.126148050297e+01,1.925974851452e-01
202,-1.200000000000e+00,3.252121320344e+01,3.939339828220e-01
203,-1.200000000000e+00,3.377771638598e+01,6.114180701233e-01
204,-1.200000000000e+00,3.503000000000e+01,8.500000000000e-01
205,-1.200000000000e+00,3.627771638598e+01,1.111418070123e+00
206,-1.200000000000e+00,3.752121320344e+01,1.393933982822e+00
207,-1.200000000000e+00,3.876148050297e+01,1.692597485145e+00
208,-1.200000000000e+00,3.126148050297e+01,1.807402514855e+00
209,-1.200000000000e+00,3.252121320344e+01,1.606066017178e+00
210,-1.200000000000e+00,3.377771638598e+01,1.388581929877e+00
211,-1.200000000000e+00,3.503000000000e+01,1.150000000000e+00
212,-1.200000000000e+00,3.627771638598e+01,8.885819298767e-01
213,-1.200000000000e+00,3.752121320344e+01,6.060660171780e-01
214,-1.200000000000e+00,3.876148050297e+01,3.074025148548e-01
215,1.200000000000e+00,3.126148050297e+01,1.925974851452e-01
216,1.200000000000e+00,3.252121320344e+01,3.939339828220e-01
217,1.200000000000e+00,3.377771638598e+01,6.114180701233e-01
218,1.200000000000e+00,3.503000000000e+01,8.500000000000e-01
219,1.200000000000e+00,3.627771638598e+01,1.111418070123e+00
220,1.200000000000e+00,3.752121320344e+01,1.393933982822e+00
221,1.200000000000e+00,3.876148050297e+01,1.692597485145e+00
222,1.200000000000e+00,3.126148050297e+01,1.807402514855e+00
223,1.200000000000e+00,3.252121320344e+01,1.606066017178e+00
224,1.200000000000e+00,3.377771638598e+01,1.388581929877e+00
225,1.200000000000e+00,3.503000000000e+01,1.150000000000e+00
226,1.200000000000e+00,3.627771638598e+01,8.885819298767e-01
227,1.200000000000e+00,3.752121320344e+01,6.060660171780e-01
228,1.200000000000e+00,3.876148050297e+01,3.074025148548e-01
229,-8.425974851452e-01,3.123622339643e+01,0.000000000000e+00
230,-4.939339828220e-01,3.247454415588e+01,0.000000000000e+00
231,-1.614180701233e-01,3.371674033683e+01,0.000000000000e+00
232,1.500000000000e-01,3.496400000000e+01,0.000000000000e+00
233,4.385819298767e-01,3.621674033683e+01,0.000000000000e+00
234,7.060660171780e-01,3.747454415588e+01,0.000000000000e+00
235,9.574025148548e-01,3.873622339643e+01,0.000000000000e+00
236,8.425974851452e-01,3.123622339643e+01,0.000000000000e+00
237,4.939339828220e-01,3.247454415588e+01,0.000000000000e+00
238,1.614180701233e-01,3.371674033683e+01,0.000000000000e+00
239,-1.500000000000e-01,3.496400000000e+01,0.000000000000e+00
240,-4.385819298767e-01,3.621674033683e+01,0.000000000000e+00
241,-7.060660171780e-01,3.747454415588e+01,0.000000000000e+00
242,-9.574025148548e-01,3.873622339643e+01,0.000000000000e+00
243,-8.425974851452e-01,3.123622339643e+01,2.000000000000e+00
244,-4.939339828220e-01,3.247454415588e+01,2.000000000000e+00
245,-1.614180701233e-01,3.371674033683e+01,2.000000000000e+00
246,1.500000000000e-01,3.496400000000e+01,2.000000000000e+00
247,4.385819298767e-01,3.621674033683e+01,2.000000000000e+00
248,7.060660171780e-01,3.747454415588e+01,2.000000000000e+00
249,9.574025148548e-01,3.873622339643e+01,2.000000000000e+00
250,8.425974851452e-01,3.123622339643e+01,2.000000000000e+00
251,4.939339828220e-01,3.247454415588e+01,2.000000000000e+00
252,1.614180701233e-01,3.371674033683e+01,2.000000000000e+00
253,-1.500000000000e-01,3.496400000000e+01,2.000000000000e+00
254,-4.385819298767e-01,3.621674033683e+01,2.000000000000e+00
255,-7.060660171780e-01,3.747454415588e+01,2.000000000000e+00
256,-9.574025148548e-01,3.873622339643e+01,2.000000000000e+00
257,-1.200000000000e+00,4.503000000000e+01,8.500000000000e-01
258,-1.200000000000e+00,4.503000000000e+01,1.150000000000e+00
259,1.200000000000e+00,4.503000000000e+01,8.500000000000e-01
260,1.200000000000e+00,4.503000000000e+01,1.150000000000e+00
261,1.500000000000e-01,4.496400000000e+01,0.000000000000e+00
262,-1.500000000000e-01,4.496400000000e+01,0.000000000000e+00
263,1.500000000000e-01,4.496400000000e+01,2.000000000000e+00
264,-1.500000000000e-01,4.496400000000e+01,2.000000000000e+00
*ELEMENT,TYPE=B31,ELSET=ALL
1,1,5
2,2,6
3,3,7
4,4,8
5,5,9
6,6,10
7,7,11
8,8,12
9,9,13
10,10,14
11,11,15
12,12,16
13,13,25
14,25,26
15,26,27
16,27,17
17,14,28
18,28,29
19,29,30
20,30,18
21,15,31
22,31,32
23,32,33
24,33,19
25,16,34
26,34,35
27,35,36
28,36,20
29,17,37
30,37,38
31,38,39
32,39,40
33,40,41
34,41,42
35,42,43
36,43,21
37,18,44
38,44,45
39,45,46
40,46,47
41,47,48
42,48,49
43,49,50
44,50,22
45,19,51
46,51,52
47,52,53
48,53,54
49,54,55
50,55,56
51,56,57
52,57,23
53,20,58
54,58,59
55,59,60
56,60,61
57,61,62
58,62,63
59,63,64
60,64,24
61,1,65
62,65,66
63,66,67
64,67,2
65,3,68
66,68,69
67,69,70
68,70,4
69,1,71
70,71,72
71,72,73
72,73,3
73,2,74
74,74,75
75,75,76
76,76,4
77,5,77
78,77,6
79,7,78
80,78,8
81,5,79
82,79,7
83,6,80
84,80,8
85,9,81
86,81,82
87,82,83
88,83,10
89,11,84
90,84,85
91,85,86
92,86,12
93,9,87
94,87,88
95,88,89
96,89,11
97,10,90
98,90,91
99,91,92
100,92,12
101,13,93
102,93,14
103,15,94
104,94,16
105,13,95
106,95,15
107,14,96
108,96,16
109,17,97
110,97,18
111,19,98
112,98,20
113,17,99
114,99,19
115,18,100
116,100,20
117,21,101
118,101,102
119,102,103
120,103,22
121,23,104
122,104,105
123,105,106
124,106,24
125,21,107
126,107,108
127,108,109
128,109,23
129,22,110
130,110,111
131,111,112
132,112,24
133,1,113
134,113,114
135,114,115
136,115,7
137,3,116
138,116,117
139,117,118
140,118,5
141,2,119
142,119,120
143,120,121
144,121,8
145,4,122
146,122,123
147,123,124
148,124,6
149,1,125
150,125,126
151,126,127
152,127,6
153,2,128
154,128,129
155,129,130
156,130,5
157,3,131
158,131,132
159,132,133
160,133,8
161,4,134
162,134,135
163,135,136
164,136,7
165,5,137
166,137,11
167,7,138
168,138,9
169,6,139
170,139,12
171,8,140
172,140,10
173,5,141
174,141,10
175,6,142
176,142,9
177,7,143
178,143,12
179,8,144
180,144,11
181,9,145
182,145,146
183,146,147
184,147,148
185,148,149
186,149,150
187,150,151
188,151,15
189,11,152
190,152,153
191,153,154
192,154,155
193,155,156
194,156,157
195,157,158
196,158,13
197,10,159
198,159,160
199,160,161
200,161,162
201,162,163
202,163,164
203,164,165
204,165,16
205,12,166
206,166,167
207,167,168
208,168,169
209,169,170
210,170,171
211,171,172
212,172,14
213,9,173
214,173,174
215,174,175
216,175,176
217,176,177
218,177,178
219,178,179
220,179,14
221,10,180
222,180,181
223,181,182
224,182,183
225,183,184
226,184,185
227,185,186
228,186,13
229,11,187
230,187,188
231,188,189
232,189,190
233,190,191
234,191,192
235,192,193
236,193,16
237,12,194
238,194,195
239,195,196
240,196,197
241,197,198
242,198,199
243,199,200
244,200,15
245,13,201
246,201,202
247,202,203
248,203,204
249,204,205
250,205,206
251,206,207
252,207,19
253,15,208
254,208,209
255,209,210
256,210,211
257,211,212
258,212,213
259,213,214
260,214,17
261,14,215
262,215,216
263,216,217
264,217,218
265,218,219
266,219,220
267,220,221
268,221,20
269,16,222
270,222,223
271,223,224
272,224,225
273,225,226
274,226,227
275,227,228
276,228,18
277,13,229
278,229,230
279,230,231
280,231,232
281,232,233
282,233,234
283,234,235
284,235,18
285,14,236
286,236,237
287,237,238
288,238,239
289,239,240
290,240,241
291,241,242
292,242,17
293,15,243
294,243,244
295,244,245
296,245,246
297,246,247
298,247,248
299,248,249
300,249,20
301,16,250
302,250,251
303,251,252
304,252,253
305,253,254
306,254,255
307,255,256
308,256,19
309,17,257
310,257,23
311,19,258
312,258,21
313,18,259
314,259,24
315,20,260
316,260,22
317,17,261
318,261,22
319,18,262
320,262,21
321,19,263
322,263,24
323,20,264
324,264,23
*NSET,NSET=NALL,GENERATE
1,264,1
*NSET,NSET=LEFT
1,2,3,4
*NSET,NSET=RIGHT
21,22,23,24
*MATERIAL,NAME=STEEL
*ELASTIC
2.100000000000e+11,0.300000000000
*BEAM SECTION,ELSET=ALL,MATERIAL=STEEL,SECTION=RECT
6.000000000000e-02,4.000000000000e-02
0.371390676354,0.557086014531,0.742781352708
*BOUNDARY
LEFT,1,6,0.0
*STEP
*STATIC
*BOUNDARY
21,1,1,5.000000000000e-03
21,2,2,0.0
21,3,3,-6.000000000000e-03
*BOUNDARY
22,1,1,5.000000000000e-03
22,2,2,0.0
22,3,3,6.000000000000e-03
*BOUNDARY
23,1,1,-5.000000000000e-03
23,2,2,0.0
23,3,3,-6.000000000000e-03
*BOUNDARY
24,1,1,-5.000000000000e-03
24,2,2,0.0
24,3,3,6.000000000000e-03
*NODE FILE,NSET=NALL
U
*NODE PRINT,NSET=NALL
U
*NODE PRINT,NSET=RIGHT
RF
*EL PRINT,ELSET=ALL,TOTALS=YES
ELSE
*END STEP
