*HEADING
Normalized cross-passage space-truss torsion benchmark
*NODE
1,-1.200000000000e+00,0.000000000000e+00,0.000000000000e+00
2,1.200000000000e+00,0.000000000000e+00,0.000000000000e+00
3,-1.200000000000e+00,0.000000000000e+00,2.000000000000e+00
4,1.200000000000e+00,0.000000000000e+00,2.000000000000e+00
5,-1.200000000000e+00,1.000000000000e+01,0.000000000000e+00
6,1.200000000000e+00,1.000000000000e+01,0.000000000000e+00
7,-1.200000000000e+00,1.000000000000e+01,2.000000000000e+00
8,1.200000000000e+00,1.000000000000e+01,2.000000000000e+00
9,-1.200000000000e+00,2.000000000000e+01,0.000000000000e+00
10,1.200000000000e+00,2.000000000000e+01,0.000000000000e+00
11,-1.200000000000e+00,2.000000000000e+01,2.000000000000e+00
12,1.200000000000e+00,2.000000000000e+01,2.000000000000e+00
13,-1.200000000000e+00,3.000000000000e+01,0.000000000000e+00
14,1.200000000000e+00,3.000000000000e+01,0.000000000000e+00
15,-1.200000000000e+00,3.000000000000e+01,2.000000000000e+00
16,1.200000000000e+00,3.000000000000e+01,2.000000000000e+00
17,-1.200000000000e+00,4.000000000000e+01,0.000000000000e+00
18,1.200000000000e+00,4.000000000000e+01,0.000000000000e+00
19,-1.200000000000e+00,4.000000000000e+01,2.000000000000e+00
20,1.200000000000e+00,4.000000000000e+01,2.000000000000e+00
21,-1.200000000000e+00,5.000000000000e+01,0.000000000000e+00
22,1.200000000000e+00,5.000000000000e+01,0.000000000000e+00
23,-1.200000000000e+00,5.000000000000e+01,2.000000000000e+00
24,1.200000000000e+00,5.000000000000e+01,2.000000000000e+00
25,-1.200000000000e+00,5.000000000000e+00,-1.500000000000e-01
26,1.200000000000e+00,5.000000000000e+00,1.500000000000e-01
27,-1.200000000000e+00,5.000000000000e+00,1.850000000000e+00
28,1.200000000000e+00,5.000000000000e+00,2.150000000000e+00
29,-1.200000000000e+00,1.500000000000e+01,-1.500000000000e-01
30,1.200000000000e+00,1.500000000000e+01,1.500000000000e-01
31,-1.200000000000e+00,1.500000000000e+01,1.850000000000e+00
32,1.200000000000e+00,1.500000000000e+01,2.150000000000e+00
33,-1.200000000000e+00,2.500000000000e+01,-1.500000000000e-01
34,1.200000000000e+00,2.500000000000e+01,1.500000000000e-01
35,-1.200000000000e+00,2.500000000000e+01,1.850000000000e+00
36,1.200000000000e+00,2.500000000000e+01,2.150000000000e+00
37,-1.200000000000e+00,3.500000000000e+01,-1.500000000000e-01
38,1.200000000000e+00,3.500000000000e+01,1.500000000000e-01
39,-1.200000000000e+00,3.500000000000e+01,1.850000000000e+00
40,1.200000000000e+00,3.500000000000e+01,2.150000000000e+00
41,-1.200000000000e+00,4.500000000000e+01,-1.500000000000e-01
42,1.200000000000e+00,4.500000000000e+01,1.500000000000e-01
43,-1.200000000000e+00,4.500000000000e+01,1.850000000000e+00
44,1.200000000000e+00,4.500000000000e+01,2.150000000000e+00
45,0.000000000000e+00,-3.600000000000e-02,0.000000000000e+00
46,0.000000000000e+00,3.600000000000e-02,2.000000000000e+00
47,-1.200000000000e+00,3.000000000000e-02,1.000000000000e+00
48,1.200000000000e+00,-3.000000000000e-02,1.000000000000e+00
49,0.000000000000e+00,9.964000000000e+00,0.000000000000e+00
50,0.000000000000e+00,1.003600000000e+01,2.000000000000e+00
51,-1.200000000000e+00,1.003000000000e+01,1.000000000000e+00
52,1.200000000000e+00,9.970000000000e+00,1.000000000000e+00
53,0.000000000000e+00,1.996400000000e+01,0.000000000000e+00
54,0.000000000000e+00,2.003600000000e+01,2.000000000000e+00
55,-1.200000000000e+00,2.003000000000e+01,1.000000000000e+00
56,1.200000000000e+00,1.997000000000e+01,1.000000000000e+00
57,0.000000000000e+00,2.996400000000e+01,0.000000000000e+00
58,0.000000000000e+00,3.003600000000e+01,2.000000000000e+00
59,-1.200000000000e+00,3.003000000000e+01,1.000000000000e+00
60,1.200000000000e+00,2.997000000000e+01,1.000000000000e+00
61,0.000000000000e+00,3.996400000000e+01,0.000000000000e+00
62,0.000000000000e+00,4.003600000000e+01,2.000000000000e+00
63,-1.200000000000e+00,4.003000000000e+01,1.000000000000e+00
64,1.200000000000e+00,3.997000000000e+01,1.000000000000e+00
65,0.000000000000e+00,4.996400000000e+01,0.000000000000e+00
66,0.000000000000e+00,5.003600000000e+01,2.000000000000e+00
67,-1.200000000000e+00,5.003000000000e+01,1.000000000000e+00
68,1.200000000000e+00,4.997000000000e+01,1.000000000000e+00
69,-1.200000000000e+00,2.521213203436e+00,3.939339828220e-01
70,-1.200000000000e+00,5.030000000000e+00,8.500000000000e-01
71,-1.200000000000e+00,7.521213203436e+00,1.393933982822e+00
72,-1.200000000000e+00,2.521213203436e+00,1.606066017178e+00
73,-1.200000000000e+00,5.030000000000e+00,1.150000000000e+00
74,-1.200000000000e+00,7.521213203436e+00,6.060660171780e-01
75,1.200000000000e+00,2.521213203436e+00,3.939339828220e-01
76,1.200000000000e+00,5.030000000000e+00,8.500000000000e-01
77,1.200000000000e+00,7.521213203436e+00,1.393933982822e+00
78,1.200000000000e+00,2.521213203436e+00,1.606066017178e+00
79,1.200000000000e+00,5.030000000000e+00,1.150000000000e+00
80,1.200000000000e+00,7.521213203436e+00,6.060660171780e-01
81,-4.939339828220e-01,2.474544155877e+00,0.000000000000e+00
82,1.500000000000e-01,4.964000000000e+00,0.000000000000e+00
83,7.060660171780e-01,7.474544155877e+00,0.000000000000e+00
84,4.939339828220e-01,2.474544155877e+00,0.000000000000e+00
85,-1.500000000000e-01,4.964000000000e+00,0.000000000000e+00
86,-7.060660171780e-01,7.474544155877e+00,0.000000000000e+00
87,-4.939339828220e-01,2.474544155877e+00,2.000000000000e+00
88,1.500000000000e-01,4.964000000000e+00,2.000000000000e+00
89,7.060660171780e-01,7.474544155877e+00,2.000000000000e+00
90,4.939339828220e-01,2.474544155877e+00,2.000000000000e+00
91,-1.500000000000e-01,4.964000000000e+00,2.000000000000e+00
92,-7.060660171780e-01,7.474544155877e+00,2.000000000000e+00
93,-1.200000000000e+00,1.503000000000e+01,8.500000000000e-01
94,-1.200000000000e+00,1.503000000000e+01,1.150000000000e+00
95,1.200000000000e+00,1.503000000000e+01,8.500000000000e-01
96,1.200000000000e+00,1.503000000000e+01,1.150000000000e+00
97,1.500000000000e-01,1.496400000000e+01,0.000000000000e+00
98,-1.500000000000e-01,1.496400000000e+01,0.000000000000e+00
99,1.500000000000e-01,1.496400000000e+01,2.000000000000e+00
100,-1.500000000000e-01,1.496400000000e+01,2.000000000000e+00
101,-1.200000000000e+00,2.503000000000e+01,8.500000000000e-01
102,-1.200000000000e+00,2.503000000000e+01,1.150000000000e+00
103,1.200000000000e+00,2.503000000000e+01,8.500000000000e-01
104,1.200000000000e+00,2.503000000000e+01,1.150000000000e+00
105,1.500000000000e-01,2.496400000000e+01,0.000000000000e+00
106,-1.500000000000e-01,2.496400000000e+01,0.000000000000e+00
107,1.500000000000e-01,2.496400000000e+01,2.000000000000e+00
108,-1.500000000000e-01,2.496400000000e+01,2.000000000000e+00
109,-1.200000000000e+00,3.126148050297e+01,1.925974851452e-01
110,-1.200000000000e+00,3.252121320344e+01,3.939339828220e-01
111,-1.200000000000e+00,3.377771638598e+01,6.114180701233e-01
112,-1.200000000000e+00,3.503000000000e+01,8.500000000000e-01
113,-1.200000000000e+00,3.627771638598e+01,1.111418070123e+00
114,-1.200000000000e+00,3.752121320344e+01,1.393933982822e+00
115,-1.200000000000e+00,3.876148050297e+01,1.692597485145e+00
116,-1.200000000000e+00,3.126148050297e+01,1.807402514855e+00
117,-1.200000000000e+00,3.252121320344e+01,1.606066017178e+00
118,-1.200000000000e+00,3.377771638598e+01,1.388581929877e+00
119,-1.200000000000e+00,3.503000000000e+01,1.150000000000e+00
120,-1.200000000000e+00,3.627771638598e+01,8.885819298767e-01
121,-1.200000000000e+00,3.752121320344e+01,6.060660171780e-01
122,-1.200000000000e+00,3.876148050297e+01,3.074025148548e-01
123,1.200000000000e+00,3.126148050297e+01,1.925974851452e-01
124,1.200000000000e+00,3.252121320344e+01,3.939339828220e-01
125,1.200000000000e+00,3.377771638598e+01,6.114180701233e-01
126,1.200000000000e+00,3.503000000000e+01,8.500000000000e-01
127,1.200000000000e+00,3.627771638598e+01,1.111418070123e+00
128,1.200000000000e+00,3.752121320344e+01,1.393933982822e+00
129,1.200000000000e+00,3.876148050297e+01,1.692597485145e+00
130,1.200000000000e+00,3.126148050297e+01,1.807402514855e+00
131,1.200000000000e+00,3.252121320344e+01,1.606066017178e+00
132,1.200000000000e+00,3.377771638598e+01,1.388581929877e+00
133,1.200000000000e+00,3.503000000000e+01,1.150000000000e+00
134,1.200000000000e+00,3.627771638598e+01,8.885819298767e-01
135,1.200000000000e+00,3.752121320344e+01,6.060660171780e-01
136,1.200000000000e+00,3.876148050297e+01,3.074025148548e-01
137,-8.425974851452e-01,3.123622339643e+01,0.000000000000e+00
138,-4.939339828220e-01,3.247454415588e+01,0.000000000000e+00
139,-1.614180701233e-01,3.371674033683e+01,0.000000000000e+00
140,1.500000000000e-01,3.496400000000e+01,0.000000000000e+00
141,4.385819298767e-01,3.621674033683e+01,0.000000000000e+00
142,7.060660171780e-01,3.747454415588e+01,0.000000000000e+00
143,9.574025148548e-01,3.873622339643e+01,0.000000000000e+00
144,8.425974851452e-01,3.123622339643e+01,0.000000000000e+00
145,4.939339828220e-01,3.247454415588e+01,0.000000000000e+00
146,1.614180701233e-01,3.371674033683e+01,0.000000000000e+00
147,-1.500000000000e-01,3.496400000000e+01,0.000000000000e+00
148,-4.385819298767e-01,3.621674033683e+01,0.000000000000e+00
149,-7.060660171780e-01,3.747454415588e+01,0.000000000000e+00
150,-9.574025148548e-01,3.873622339643e+01,0.000000000000e+00
151,-8.425974851452e-01,3.123622339643e+01,2.000000000000e+00
152,-4.939339828220e-01,3.247454415588e+01,2.000000000000e+00
153,-1.614180701233e-01,3.371674033683e+01,2.000000000000e+00
154,1.500000000000e-01,3.496400000000e+01,2.000000000000e+00
155,4.385819298767e-01,3.621674033683e+01,2.000000000000e+00
156,7.060660171780e-01,3.747454415588e+01,2.000000000000e+00
157,9.574025148548e-01,3.873622339643e+01,2.000000000000e+00
158,8.425974851452e-01,3.123622339643e+01,2.000000000000e+00
159,4.939339828220e-01,3.247454415588e+01,2.000000000000e+00
160,1.614180701233e-01,3.371674033683e+01,2.000000000000e+00
161,-1.500000000000e-01,3.496400000000e+01,2.000000000000e+00
162,-4.385819298767e-01,3.621674033683e+01,2.000000000000e+00
163,-7.060660171780e-01,3.747454415588e+01,2.000000000000e+00
164,-9.574025148548e-01,3.873622339643e+01,2.000000000000e+00
165,-1.200000000000e+00,4.503000000000e+01,8.500000000000e-01
166,-1.200000000000e+00,4.503000000000e+01,1.150000000000e+00
167,1.200000000000e+00,4.503000000000e+01,8.500000000000e-01
168,1.200000000000e+00,4.503000000000e+01,1.150000000000e+00
169,1.500000000000e-01,4.496400000000e+01,0.000000000000e+00
170,-1.500000000000e-01,4.496400000000e+01,0.000000000000e+00
171,1.500000000000e-01,4.496400000000e+01,2.000000000000e+00
172,-1.500000000000e-01,4.496400000000e+01,2.000000000000e+00
*ELEMENT,TYPE=B31,ELSET=ALL
1,1,25
2,25,5
3,2,26
4,26,6
5,3,27
6,27,7
7,4,28
8,28,8
9,5,29
10,29,9
11,6,30
12,30,10
13,7,31
14,31,11
15,8,32
16,32,12
17,9,33
18,33,13
19,10,34
20,34,14
21,11,35
22,35,15
23,12,36
24,36,16
25,13,37
26,37,17
27,14,38
28,38,18
29,15,39
30,39,19
31,16,40
32,40,20
33,17,41
34,41,21
35,18,42
36,42,22
37,19,43
38,43,23
39,20,44
40,44,24
41,1,45
42,45,2
43,3,46
44,46,4
45,1,47
46,47,3
47,2,48
48,48,4
49,5,49
50,49,6
51,7,50
52,50,8
53,5,51
54,51,7
55,6,52
56,52,8
57,9,53
58,53,10
59,11,54
60,54,12
61,9,55
62,55,11
63,10,56
64,56,12
65,13,57
66,57,14
67,15,58
68,58,16
69,13,59
70,59,15
71,14,60
72,60,16
73,17,61
74,61,18
75,19,62
76,62,20
77,17,63
78,63,19
79,18,64
80,64,20
81,21,65
82,65,22
83,23,66
84,66,24
85,21,67
86,67,23
87,22,68
88,68,24
89,1,69
90,69,70
91,70,71
92,71,7
93,3,72
94,72,73
95,73,74
96,74,5
97,2,75
98,75,76
99,76,77
100,77,8
101,4,78
102,78,79
103,79,80
104,80,6
105,1,81
106,81,82
107,82,83
108,83,6
109,2,84
110,84,85
111,85,86
112,86,5
113,3,87
114,87,88
115,88,89
116,89,8
117,4,90
118,90,91
119,91,92
120,92,7
121,5,93
122,93,11
123,7,94
124,94,9
125,6,95
126,95,12
127,8,96
128,96,10
129,5,97
130,97,10
131,6,98
132,98,9
133,7,99
134,99,12
135,8,100
136,100,11
137,9,101
138,101,15
139,11,102
140,102,13
141,10,103
142,103,16
143,12,104
144,104,14
145,9,105
146,105,14
147,10,106
148,106,13
149,11,107
150,107,16
151,12,108
152,108,15
153,13,109
154,109,110
155,110,111
156,111,112
157,112,113
158,113,114
159,114,115
160,115,19
161,15,116
162,116,117
163,117,118
164,118,119
165,119,120
166,120,121
167,121,122
168,122,17
169,14,123
170,123,124
171,124,125
172,125,126
173,126,127
174,127,128
175,128,129
176,129,20
177,16,130
178,130,131
179,131,132
180,132,133
181,133,134
182,134,135
183,135,136
184,136,18
185,13,137
186,137,138
187,138,139
188,139,140
189,140,141
190,141,142
191,142,143
192,143,18
193,14,144
194,144,145
195,145,146
196,146,147
197,147,148
198,148,149
199,149,150
200,150,17
201,15,151
202,151,152
203,152,153
204,153,154
205,154,155
206,155,156
207,156,157
208,157,20
209,16,158
210,158,159
211,159,160
212,160,161
213,161,162
214,162,163
215,163,164
216,164,19
217,17,165
218,165,23
219,19,166
220,166,21
221,18,167
222,167,24
223,20,168
224,168,22
225,17,169
226,169,22
227,18,170
228,170,21
229,19,171
230,171,24
231,20,172
232,172,23
*NSET,NSET=NALL,GENERATE
1,172,1
*NSET,NSET=LEFT
1,2,3,4
*NSET,NSET=RIGHT
21,22,23,24
*MATERIAL,NAME=STEEL
*ELASTIC
2.100000000000e+11,0.300000000000
*BEAM SECTION,ELSET=ALL,MATERIAL=STEEL,SECTION=RECT
6.000000000000e-02,4.000000000000e-02
0.371390676354,0.557086014531,0.742781352708
*BOUNDARY
LEFT,1,6,0.0
*STEP
*STATIC
*BOUNDARY
21,1,1,5.000000000000e-03
21,2,2,0.0
21,3,3,-6.000000000000e-03
*BOUNDARY
22,1,1,5.000000000000e-03
22,2,2,0.0
22,3,3,6.000000000000e-03
*BOUNDARY
23,1,1,-5.000000000000e-03
23,2,2,0.0
23,3,3,-6.000000000000e-03
*BOUNDARY
24,1,1,-5.000000000000e-03
24,2,2,0.0
24,3,3,6.000000000000e-03
*NODE FILE,NSET=NALL
U
*NODE PRINT,NSET=NALL
U
*NODE PRINT,NSET=RIGHT
RF
*EL PRINT,ELSET=ALL,TOTALS=YES
ELSE
*END STEP
