*HEADING
Normalized cross-passage space-truss torsion benchmark
*NODE
1,-1.200000000000e+00,0.000000000000e+00,0.000000000000e+00
2,1.200000000000e+00,0.000000000000e+00,0.000000000000e+00
3,-1.200000000000e+00,0.000000000000e+00,2.000000000000e+00
4,1.200000000000e+00,0.000000000000e+00,2.000000000000e+00
5,-1.200000000000e+00,1.000000000000e+01,0.000000000000e+00
6,1.200000000000e+00,1.000000000000e+01,0.000000000000e+00
7,-1.200000000000e+00,1.000000000000e+01,2.000000000000e+00
8,1.200000000000e+00,1.000000000000e+01,2.000000000000e+00
9,-1.200000000000e+00,2.000000000000e+01,0.000000000000e+00
10,1.200000000000e+00,2.000000000000e+01,0.000000000000e+00
11,-1.200000000000e+00,2.000000000000e+01,2.000000000000e+00
12,1.200000000000e+00,2.000000000000e+01,2.000000000000e+00
13,-1.200000000000e+00,3.000000000000e+01,0.000000000000e+00
14,1.200000000000e+00,3.000000000000e+01,0.000000000000e+00
15,-1.200000000000e+00,3.000000000000e+01,2.000000000000e+00
16,1.200000000000e+00,3.000000000000e+01,2.000000000000e+00
17,-1.200000000000e+00,4.000000000000e+01,0.000000000000e+00
18,1.200000000000e+00,4.000000000000e+01,0.000000000000e+00
19,-1.200000000000e+00,4.000000000000e+01,2.000000000000e+00
20,1.200000000000e+00,4.000000000000e+01,2.000000000000e+00
21,-1.200000000000e+00,5.000000000000e+01,0.000000000000e+00
22,1.200000000000e+00,5.000000000000e+01,0.000000000000e+00
23,-1.200000000000e+00,5.000000000000e+01,2.000000000000e+00
24,1.200000000000e+00,5.000000000000e+01,2.000000000000e+00
25,-1.200000000000e+00,5.000000000000e+00,-1.500000000000e-01
26,1.200000000000e+00,5.000000000000e+00,1.500000000000e-01
27,-1.200000000000e+00,5.000000000000e+00,1.850000000000e+00
28,1.200000000000e+00,5.000000000000e+00,2.150000000000e+00
29,-1.200000000000e+00,1.250000000000e+01,-1.060660171780e-01
30,-1.200000000000e+00,1.500000000000e+01,-1.500000000000e-01
31,-1.200000000000e+00,1.750000000000e+01,-1.060660171780e-01
32,1.200000000000e+00,1.250000000000e+01,1.060660171780e-01
33,1.200000000000e+00,1.500000000000e+01,1.500000000000e-01
34,1.200000000000e+00,1.750000000000e+01,1.060660171780e-01
35,-1.200000000000e+00,1.250000000000e+01,1.893933982822e+00
36,-1.200000000000e+00,1.500000000000e+01,1.850000000000e+00
37,-1.200000000000e+00,1.750000000000e+01,1.893933982822e+00
38,1.200000000000e+00,1.250000000000e+01,2.106066017178e+00
39,1.200000000000e+00,1.500000000000e+01,2.150000000000e+00
40,1.200000000000e+00,1.750000000000e+01,2.106066017178e+00
41,-1.200000000000e+00,2.500000000000e+01,-1.500000000000e-01
42,1.200000000000e+00,2.500000000000e+01,1.500000000000e-01
43,-1.200000000000e+00,2.500000000000e+01,1.850000000000e+00
44,1.200000000000e+00,2.500000000000e+01,2.150000000000e+00
45,-1.200000000000e+00,3.500000000000e+01,-1.500000000000e-01
46,1.200000000000e+00,3.500000000000e+01,1.500000000000e-01
47,-1.200000000000e+00,3.500000000000e+01,1.850000000000e+00
48,1.200000000000e+00,3.500000000000e+01,2.150000000000e+00
49,-1.200000000000e+00,4.500000000000e+01,-1.500000000000e-01
50,1.200000000000e+00,4.500000000000e+01,1.500000000000e-01
51,-1.200000000000e+00,4.500000000000e+01,1.850000000000e+00
52,1.200000000000e+00,4.500000000000e+01,2.150000000000e+00
53,0.000000000000e+00,-3.600000000000e-02,0.000000000000e+00
54,0.000000000000e+00,3.600000000000e-02,2.000000000000e+00
55,-1.200000000000e+00,3.000000000000e-02,1.000000000000e+00
56,1.200000000000e+00,-3.000000000000e-02,1.000000000000e+00
57,0.000000000000e+00,9.964000000000e+00,0.000000000000e+00
58,0.000000000000e+00,1.003600000000e+01,2.000000000000e+00
59,-1.200000000000e+00,1.003000000000e+01,1.000000000000e+00
60,1.200000000000e+00,9.970000000000e+00,1.000000000000e+00
61,0.000000000000e+00,1.996400000000e+01,0.000000000000e+00
62,0.000000000000e+00,2.003600000000e+01,2.000000000000e+00
63,-1.200000000000e+00,2.003000000000e+01,1.000000000000e+00
64,1.200000000000e+00,1.997000000000e+01,1.000000000000e+00
65,0.000000000000e+00,2.996400000000e+01,0.000000000000e+00
66,0.000000000000e+00,3.003600000000e+01,2.000000000000e+00
67,-1.200000000000e+00,3.003000000000e+01,1.000000000000e+00
68,1.200000000000e+00,2.997000000000e+01,1.000000000000e+00
69,0.000000000000e+00,3.996400000000e+01,0.000000000000e+00
70,0.000000000000e+00,4.003600000000e+01,2.000000000000e+00
71,-1.200000000000e+00,4.003000000000e+01,1.000000000000e+00
72,1.200000000000e+00,3.997000000000e+01,1.000000000000e+00
73,0.000000000000e+00,4.996400000000e+01,0.000000000000e+00
74,0.000000000000e+00,5.003600000000e+01,2.000000000000e+00
75,-1.200000000000e+00,5.003000000000e+01,1.000000000000e+00
76,1.200000000000e+00,4.997000000000e+01,1.000000000000e+00
77,-1.200000000000e+00,5.030000000000e+00,8.500000000000e-01
78,-1.200000000000e+00,5.030000000000e+00,1.150000000000e+00
79,1.200000000000e+00,5.030000000000e+00,8.500000000000e-01
80,1.200000000000e+00,5.030000000000e+00,1.150000000000e+00
81,1.500000000000e-01,4.964000000000e+00,0.000000000000e+00
82,-1.500000000000e-01,4.964000000000e+00,0.000000000000e+00
83,1.500000000000e-01,4.964000000000e+00,2.000000000000e+00
84,-1.500000000000e-01,4.964000000000e+00,2.000000000000e+00
85,-1.200000000000e+00,1.126148050297e+01,1.925974851452e-01
86,-1.200000000000e+00,1.252121320344e+01,3.939339828220e-01
87,-1.200000000000e+00,1.377771638598e+01,6.114180701233e-01
88,-1.200000000000e+00,1.503000000000e+01,8.500000000000e-01
89,-1.200000000000e+00,1.627771638598e+01,1.111418070123e+00
90,-1.200000000000e+00,1.752121320344e+01,1.393933982822e+00
91,-1.200000000000e+00,1.876148050297e+01,1.692597485145e+00
92,-1.200000000000e+00,1.126148050297e+01,1.807402514855e+00
93,-1.200000000000e+00,1.252121320344e+01,1.606066017178e+00
94,-1.200000000000e+00,1.377771638598e+01,1.388581929877e+00
95,-1.200000000000e+00,1.503000000000e+01,1.150000000000e+00
96,-1.200000000000e+00,1.627771638598e+01,8.885819298767e-01
97,-1.200000000000e+00,1.752121320344e+01,6.060660171780e-01
98,-1.200000000000e+00,1.876148050297e+01,3.074025148548e-01
99,1.200000000000e+00,1.126148050297e+01,1.925974851452e-01
100,1.200000000000e+00,1.252121320344e+01,3.939339828220e-01
101,1.200000000000e+00,1.377771638598e+01,6.114180701233e-01
102,1.200000000000e+00,1.503000000000e+01,8.500000000000e-01
103,1.200000000000e+00,1.627771638598e+01,1.111418070123e+00
104,1.200000000000e+00,1.752121320344e+01,1.393933982822e+00
105,1.200000000000e+00,1.876148050297e+01,1.692597485145e+00
106,1.200000000000e+00,1.126148050297e+01,1.807402514855e+00
107,1.200000000000e+00,1.252121320344e+01,1.606066017178e+00
108,1.200000000000e+00,1.377771638598e+01,1.388581929877e+00
109,1.200000000000e+00,1.503000000000e+01,1.150000000000e+00
110,1.200000000000e+00,1.627771638598e+01,8.885819298767e-01
111,1.200000000000e+00,1.752121320344e+01,6.060660171780e-01
112,1.200000000000e+00,1.876148050297e+01,3.074025148548e-01
113,-8.425974851452e-01,1.123622339643e+01,0.000000000000e+00
114,-4.939339828220e-01,1.247454415588e+01,0.000000000000e+00
115,-1.614180701233e-01,1.371674033683e+01,0.000000000000e+00
116,1.500000000000e-01,1.496400000000e+01,0.000000000000e+00
117,4.385819298767e-01,1.621674033683e+01,0.000000000000e+00
118,7.060660171780e-01,1.747454415588e+01,0.000000000000e+00
119,9.574025148548e-01,1.873622339643e+01,0.000000000000e+00
120,8.425974851452e-01,1.123622339643e+01,0.000000000000e+00
121,4.939339828220e-01,1.247454415588e+01,0.000000000000e+00
122,1.614180701233e-01,1.371674033683e+01,0.000000000000e+00
123,-1.500000000000e-01,1.496400000000e+01,0.000000000000e+00
124,-4.385819298767e-01,1.621674033683e+01,0.000000000000e+00
125,-7.060660171780e-01,1.747454415588e+01,0.000000000000e+00
126,-9.574025148548e-01,1.873622339643e+01,0.000000000000e+00
127,-8.425974851452e-01,1.123622339643e+01,2.000000000000e+00
128,-4.939339828220e-01,1.247454415588e+01,2.000000000000e+00
129,-1.614180701233e-01,1.371674033683e+01,2.000000000000e+00
130,1.500000000000e-01,1.496400000000e+01,2.000000000000e+00
131,4.385819298767e-01,1.621674033683e+01,2.000000000000e+00
132,7.060660171780e-01,1.747454415588e+01,2.000000000000e+00
133,9.574025148548e-01,1.873622339643e+01,2.000000000000e+00
134,8.425974851452e-01,1.123622339643e+01,2.000000000000e+00
135,4.939339828220e-01,1.247454415588e+01,2.000000000000e+00
136,1.614180701233e-01,1.371674033683e+01,2.000000000000e+00
137,-1.500000000000e-01,1.496400000000e+01,2.000000000000e+00
138,-4.385819298767e-01,1.621674033683e+01,2.000000000000e+00
139,-7.060660171780e-01,1.747454415588e+01,2.000000000000e+00
140,-9.574025148548e-01,1.873622339643e+01,2.000000000000e+00
141,-1.200000000000e+00,2.503000000000e+01,8.500000000000e-01
142,-1.200000000000e+00,2.503000000000e+01,1.150000000000e+00
143,1.200000000000e+00,2.503000000000e+01,8.500000000000e-01
144,1.200000000000e+00,2.503000000000e+01,1.150000000000e+00
145,1.500000000000e-01,2.496400000000e+01,0.000000000000e+00
146,-1.500000000000e-01,2.496400000000e+01,0.000000000000e+00
147,1.500000000000e-01,2.496400000000e+01,2.000000000000e+00
148,-1.500000000000e-01,2.496400000000e+01,2.000000000000e+00
149,-1.200000000000e+00,3.503000000000e+01,8.500000000000e-01
150,-1.200000000000e+00,3.503000000000e+01,1.150000000000e+00
151,1.200000000000e+00,3.503000000000e+01,8.500000000000e-01
152,1.200000000000e+00,3.503000000000e+01,1.150000000000e+00
153,1.500000000000e-01,3.496400000000e+01,0.000000000000e+00
154,-1.500000000000e-01,3.496400000000e+01,0.000000000000e+00
155,1.500000000000e-01,3.496400000000e+01,2.000000000000e+00
156,-1.500000000000e-01,3.496400000000e+01,2.000000000000e+00
157,-1.200000000000e+00,4.503000000000e+01,8.500000000000e-01
158,-1.200000000000e+00,4.503000000000e+01,1.150000000000e+00
159,1.200000000000e+00,4.503000000000e+01,8.500000000000e-01
160,1.200000000000e+00,4.503000000000e+01,1.150000000000e+00
161,1.500000000000e-01,4.496400000000e+01,0.000000000000e+00
162,-1.500000000000e-01,4.496400000000e+01,0.000000000000e+00
163,1.500000000000e-01,4.496400000000e+01,2.000000000000e+00
164,-1.500000000000e-01,4.496400000000e+01,2.000000000000e+00
*ELEMENT,TYPE=B31,ELSET=ALL
1,1,25
2,25,5
3,2,26
4,26,6
5,3,27
6,27,7
7,4,28
8,28,8
9,5,29
10,29,30
11,30,31
12,31,9
13,6,32
14,32,33
15,33,34
16,34,10
17,7,35
18,35,36
19,36,37
20,37,11
21,8,38
22,38,39
23,39,40
24,40,12
25,9,41
26,41,13
27,10,42
28,42,14
29,11,43
30,43,15
31,12,44
32,44,16
33,13,45
34,45,17
35,14,46
36,46,18
37,15,47
38,47,19
39,16,48
40,48,20
41,17,49
42,49,21
43,18,50
44,50,22
45,19,51
46,51,23
47,20,52
48,52,24
49,1,53
50,53,2
51,3,54
52,54,4
53,1,55
54,55,3
55,2,56
56,56,4
57,5,57
58,57,6
59,7,58
60,58,8
61,5,59
62,59,7
63,6,60
64,60,8
65,9,61
66,61,10
67,11,62
68,62,12
69,9,63
70,63,11
71,10,64
72,64,12
73,13,65
74,65,14
75,15,66
76,66,16
77,13,67
78,67,15
79,14,68
80,68,16
81,17,69
82,69,18
83,19,70
84,70,20
85,17,71
86,71,19
87,18,72
88,72,20
89,21,73
90,73,22
91,23,74
92,74,24
93,21,75
94,75,23
95,22,76
96,76,24
97,1,77
98,77,7
99,3,78
100,78,5
101,2,79
102,79,8
103,4,80
104,80,6
105,1,81
106,81,6
107,2,82
108,82,5
109,3,83
110,83,8
111,4,84
112,84,7
113,5,85
114,85,86
115,86,87
116,87,88
117,88,89
118,89,90
119,90,91
120,91,11
121,7,92
122,92,93
123,93,94
124,94,95
125,95,96
126,96,97
127,97,98
128,98,9
129,6,99
130,99,100
131,100,101
132,101,102
133,102,103
134,103,104
135,104,105
136,105,12
137,8,106
138,106,107
139,107,108
140,108,109
141,109,110
142,110,111
143,111,112
144,112,10
145,5,113
146,113,114
147,114,115
148,115,116
149,116,117
150,117,118
151,118,119
152,119,10
153,6,120
154,120,121
155,121,122
156,122,123
157,123,124
158,124,125
159,125,126
160,126,9
161,7,127
162,127,128
163,128,129
164,129,130
165,130,131
166,131,132
167,132,133
168,133,12
169,8,134
170,134,135
171,135,136
172,136,137
173,137,138
174,138,139
175,139,140
176,140,11
177,9,141
178,141,15
179,11,142
180,142,13
181,10,143
182,143,16
183,12,144
184,144,14
185,9,145
186,145,14
187,10,146
188,146,13
189,11,147
190,147,16
191,12,148
192,148,15
193,13,149
194,149,19
195,15,150
196,150,17
197,14,151
198,151,20
199,16,152
200,152,18
201,13,153
202,153,18
203,14,154
204,154,17
205,15,155
206,155,20
207,16,156
208,156,19
209,17,157
210,157,23
211,19,158
212,158,21
213,18,159
214,159,24
215,20,160
216,160,22
217,17,161
218,161,22
219,18,162
220,162,21
221,19,163
222,163,24
223,20,164
224,164,23
*NSET,NSET=NALL,GENERATE
1,164,1
*NSET,NSET=LEFT
1,2,3,4
*NSET,NSET=RIGHT
21,22,23,24
*MATERIAL,NAME=STEEL
*ELASTIC
2.100000000000e+11,0.300000000000
*BEAM SECTION,ELSET=ALL,MATERIAL=STEEL,SECTION=RECT
6.000000000000e-02,4.000000000000e-02
0.371390676354,0.557086014531,0.742781352708
*BOUNDARY
LEFT,1,6,0.0
*STEP
*STATIC
*BOUNDARY
21,1,1,5.000000000000e-03
21,2,2,0.0
21,3,3,-6.000000000000e-03
*BOUNDARY
22,1,1,5.000000000000e-03
22,2,2,0.0
22,3,3,6.000000000000e-03
*BOUNDARY
23,1,1,-5.000000000000e-03
23,2,2,0.0
23,3,3,-6.000000000000e-03
*BOUNDARY
24,1,1,-5.000000000000e-03
24,2,2,0.0
24,3,3,6.000000000000e-03
*NODE FILE,NSET=NALL
U
*NODE PRINT,NSET=NALL
U
*NODE PRINT,NSET=RIGHT
RF
*EL PRINT,ELSET=ALL,TOTALS=YES
ELSE
*END STEP
