*HEADING
Normalized cross-passage space-truss torsion benchmark
*NODE
1,-1.200000000000e+00,0.000000000000e+00,0.000000000000e+00
2,1.200000000000e+00,0.000000000000e+00,0.000000000000e+00
3,-1.200000000000e+00,0.000000000000e+00,2.000000000000e+00
4,1.200000000000e+00,0.000000000000e+00,2.000000000000e+00
5,-1.200000000000e+00,1.000000000000e+01,0.000000000000e+00
6,1.200000000000e+00,1.000000000000e+01,0.000000000000e+00
7,-1.200000000000e+00,1.000000000000e+01,2.000000000000e+00
8,1.200000000000e+00,1.000000000000e+01,2.000000000000e+00
9,-1.200000000000e+00,2.000000000000e+01,0.000000000000e+00
10,1.200000000000e+00,2.000000000000e+01,0.000000000000e+00
11,-1.200000000000e+00,2.000000000000e+01,2.000000000000e+00
12,1.200000000000e+00,2.000000000000e+01,2.000000000000e+00
13,-1.200000000000e+00,3.000000000000e+01,0.000000000000e+00
14,1.200000000000e+00,3.000000000000e+01,0.000000000000e+00
15,-1.200000000000e+00,3.000000000000e+01,2.000000000000e+00
16,1.200000000000e+00,3.000000000000e+01,2.000000000000e+00
17,-1.200000000000e+00,4.000000000000e+01,0.000000000000e+00
18,1.200000000000e+00,4.000000000000e+01,0.000000000000e+00
19,-1.200000000000e+00,4.000000000000e+01,2.000000000000e+00
20,1.200000000000e+00,4.000000000000e+01,2.000000000000e+00
21,-1.200000000000e+00,5.000000000000e+01,0.000000000000e+00
22,1.200000000000e+00,5.000000000000e+01,0.000000000000e+00
23,-1.200000000000e+00,5.000000000000e+01,2.000000000000e+00
24,1.200000000000e+00,5.000000000000e+01,2.000000000000e+00
25,-1.200000000000e+00,5.000000000000e+00,-1.500000000000e-01
26,1.200000000000e+00,5.000000000000e+00,1.500000000000e-01
27,-1.200000000000e+00,5.000000000000e+00,1.850000000000e+00
28,1.200000000000e+00,5.000000000000e+00,2.150000000000e+00
29,-1.200000000000e+00,1.500000000000e+01,-1.500000000000e-01
30,1.200000000000e+00,1.500000000000e+01,1.500000000000e-01
31,-1.200000000000e+00,1.500000000000e+01,1.850000000000e+00
32,1.200000000000e+00,1.500000000000e+01,2.150000000000e+00
33,-1.200000000000e+00,2.500000000000e+01,-1.500000000000e-01
34,1.200000000000e+00,2.500000000000e+01,1.500000000000e-01
35,-1.200000000000e+00,2.500000000000e+01,1.850000000000e+00
36,1.200000000000e+00,2.500000000000e+01,2.150000000000e+00
37,-1.200000000000e+00,3.500000000000e+01,-1.500000000000e-01
38,1.200000000000e+00,3.500000000000e+01,1.500000000000e-01
39,-1.200000000000e+00,3.500000000000e+01,1.850000000000e+00
40,1.200000000000e+00,3.500000000000e+01,2.150000000000e+00
41,-1.200000000000e+00,4.250000000000e+01,-1.060660171780e-01
42,-1.200000000000e+00,4.500000000000e+01,-1.500000000000e-01
43,-1.200000000000e+00,4.750000000000e+01,-1.060660171780e-01
44,1.200000000000e+00,4.250000000000e+01,1.060660171780e-01
45,1.200000000000e+00,4.500000000000e+01,1.500000000000e-01
46,1.200000000000e+00,4.750000000000e+01,1.060660171780e-01
47,-1.200000000000e+00,4.250000000000e+01,1.893933982822e+00
48,-1.200000000000e+00,4.500000000000e+01,1.850000000000e+00
49,-1.200000000000e+00,4.750000000000e+01,1.893933982822e+00
50,1.200000000000e+00,4.250000000000e+01,2.106066017178e+00
51,1.200000000000e+00,4.500000000000e+01,2.150000000000e+00
52,1.200000000000e+00,4.750000000000e+01,2.106066017178e+00
53,-6.000000000000e-01,-2.545584412272e-02,0.000000000000e+00
54,0.000000000000e+00,-3.600000000000e-02,0.000000000000e+00
55,6.000000000000e-01,-2.545584412272e-02,0.000000000000e+00
56,-6.000000000000e-01,2.545584412272e-02,2.000000000000e+00
57,0.000000000000e+00,3.600000000000e-02,2.000000000000e+00
58,6.000000000000e-01,2.545584412272e-02,2.000000000000e+00
59,-1.200000000000e+00,2.121320343560e-02,5.000000000000e-01
60,-1.200000000000e+00,3.000000000000e-02,1.000000000000e+00
61,-1.200000000000e+00,2.121320343560e-02,1.500000000000e+00
62,1.200000000000e+00,-2.121320343560e-02,5.000000000000e-01
63,1.200000000000e+00,-3.000000000000e-02,1.000000000000e+00
64,1.200000000000e+00,-2.121320343560e-02,1.500000000000e+00
65,-6.000000000000e-01,9.974544155877e+00,0.000000000000e+00
66,0.000000000000e+00,9.964000000000e+00,0.000000000000e+00
67,6.000000000000e-01,9.974544155877e+00,0.000000000000e+00
68,-6.000000000000e-01,1.002545584412e+01,2.000000000000e+00
69,0.000000000000e+00,1.003600000000e+01,2.000000000000e+00
70,6.000000000000e-01,1.002545584412e+01,2.000000000000e+00
71,-1.200000000000e+00,1.002121320344e+01,5.000000000000e-01
72,-1.200000000000e+00,1.003000000000e+01,1.000000000000e+00
73,-1.200000000000e+00,1.002121320344e+01,1.500000000000e+00
74,1.200000000000e+00,9.978786796564e+00,5.000000000000e-01
75,1.200000000000e+00,9.970000000000e+00,1.000000000000e+00
76,1.200000000000e+00,9.978786796564e+00,1.500000000000e+00
77,-6.000000000000e-01,1.997454415588e+01,0.000000000000e+00
78,0.000000000000e+00,1.996400000000e+01,0.000000000000e+00
79,6.000000000000e-01,1.997454415588e+01,0.000000000000e+00
80,-6.000000000000e-01,2.002545584412e+01,2.000000000000e+00
81,0.000000000000e+00,2.003600000000e+01,2.000000000000e+00
82,6.000000000000e-01,2.002545584412e+01,2.000000000000e+00
83,-1.200000000000e+00,2.002121320344e+01,5.000000000000e-01
84,-1.200000000000e+00,2.003000000000e+01,1.000000000000e+00
85,-1.200000000000e+00,2.002121320344e+01,1.500000000000e+00
86,1.200000000000e+00,1.997878679656e+01,5.000000000000e-01
87,1.200000000000e+00,1.997000000000e+01,1.000000000000e+00
88,1.200000000000e+00,1.997878679656e+01,1.500000000000e+00
89,-6.000000000000e-01,2.997454415588e+01,0.000000000000e+00
90,0.000000000000e+00,2.996400000000e+01,0.000000000000e+00
91,6.000000000000e-01,2.997454415588e+01,0.000000000000e+00
92,-6.000000000000e-01,3.002545584412e+01,2.000000000000e+00
93,0.000000000000e+00,3.003600000000e+01,2.000000000000e+00
94,6.000000000000e-01,3.002545584412e+01,2.000000000000e+00
95,-1.200000000000e+00,3.002121320344e+01,5.000000000000e-01
96,-1.200000000000e+00,3.003000000000e+01,1.000000000000e+00
97,-1.200000000000e+00,3.002121320344e+01,1.500000000000e+00
98,1.200000000000e+00,2.997878679656e+01,5.000000000000e-01
99,1.200000000000e+00,2.997000000000e+01,1.000000000000e+00
100,1.200000000000e+00,2.997878679656e+01,1.500000000000e+00
101,-6.000000000000e-01,3.997454415588e+01,0.000000000000e+00
102,0.000000000000e+00,3.996400000000e+01,0.000000000000e+00
103,6.000000000000e-01,3.997454415588e+01,0.000000000000e+00
104,-6.000000000000e-01,4.002545584412e+01,2.000000000000e+00
105,0.000000000000e+00,4.003600000000e+01,2.000000000000e+00
106,6.000000000000e-01,4.002545584412e+01,2.000000000000e+00
107,-1.200000000000e+00,4.002121320344e+01,5.000000000000e-01
108,-1.200000000000e+00,4.003000000000e+01,1.000000000000e+00
109,-1.200000000000e+00,4.002121320344e+01,1.500000000000e+00
110,1.200000000000e+00,3.997878679656e+01,5.000000000000e-01
111,1.200000000000e+00,3.997000000000e+01,1.000000000000e+00
112,1.200000000000e+00,3.997878679656e+01,1.500000000000e+00
113,-6.000000000000e-01,4.997454415588e+01,0.000000000000e+00
114,0.000000000000e+00,4.996400000000e+01,0.000000000000e+00
115,6.000000000000e-01,4.997454415588e+01,0.000000000000e+00
116,-6.000000000000e-01,5.002545584412e+01,2.000000000000e+00
117,0.000000000000e+00,5.003600000000e+01,2.000000000000e+00
118,6.000000000000e-01,5.002545584412e+01,2.000000000000e+00
119,-1.200000000000e+00,5.002121320344e+01,5.000000000000e-01
120,-1.200000000000e+00,5.003000000000e+01,1.000000000000e+00
121,-1.200000000000e+00,5.002121320344e+01,1.500000000000e+00
122,1.200000000000e+00,4.997878679656e+01,5.000000000000e-01
123,1.200000000000e+00,4.997000000000e+01,1.000000000000e+00
124,1.200000000000e+00,4.997878679656e+01,1.500000000000e+00
125,-1.200000000000e+00,2.521213203436e+00,3.939339828220e-01
126,-1.200000000000e+00,5.030000000000e+00,8.500000000000e-01
127,-1.200000000000e+00,7.521213203436e+00,1.393933982822e+00
128,-1.200000000000e+00,2.521213203436e+00,1.606066017178e+00
129,-1.200000000000e+00,5.030000000000e+00,1.150000000000e+00
130,-1.200000000000e+00,7.521213203436e+00,6.060660171780e-01
131,1.200000000000e+00,2.521213203436e+00,3.939339828220e-01
132,1.200000000000e+00,5.030000000000e+00,8.500000000000e-01
133,1.200000000000e+00,7.521213203436e+00,1.393933982822e+00
134,1.200000000000e+00,2.521213203436e+00,1.606066017178e+00
135,1.200000000000e+00,5.030000000000e+00,1.150000000000e+00
136,1.200000000000e+00,7.521213203436e+00,6.060660171780e-01
137,-4.939339828220e-01,2.474544155877e+00,0.000000000000e+00
138,1.500000000000e-01,4.964000000000e+00,0.000000000000e+00
139,7.060660171780e-01,7.474544155877e+00,0.000000000000e+00
140,4.939339828220e-01,2.474544155877e+00,0.000000000000e+00
141,-1.500000000000e-01,4.964000000000e+00,0.000000000000e+00
142,-7.060660171780e-01,7.474544155877e+00,0.000000000000e+00
143,-4.939339828220e-01,2.474544155877e+00,2.000000000000e+00
144,1.500000000000e-01,4.964000000000e+00,2.000000000000e+00
145,7.060660171780e-01,7.474544155877e+00,2.000000000000e+00
146,4.939339828220e-01,2.474544155877e+00,2.000000000000e+00
147,-1.500000000000e-01,4.964000000000e+00,2.000000000000e+00
148,-7.060660171780e-01,7.474544155877e+00,2.000000000000e+00
149,-1.200000000000e+00,1.252121320344e+01,3.939339828220e-01
150,-1.200000000000e+00,1.503000000000e+01,8.500000000000e-01
151,-1.200000000000e+00,1.752121320344e+01,1.393933982822e+00
152,-1.200000000000e+00,1.252121320344e+01,1.606066017178e+00
153,-1.200000000000e+00,1.503000000000e+01,1.150000000000e+00
154,-1.200000000000e+00,1.752121320344e+01,6.060660171780e-01
155,1.200000000000e+00,1.252121320344e+01,3.939339828220e-01
156,1.200000000000e+00,1.503000000000e+01,8.500000000000e-01
157,1.200000000000e+00,1.752121320344e+01,1.393933982822e+00
158,1.200000000000e+00,1.252121320344e+01,1.606066017178e+00
159,1.200000000000e+00,1.503000000000e+01,1.150000000000e+00
160,1.200000000000e+00,1.752121320344e+01,6.060660171780e-01
161,-4.939339828220e-01,1.247454415588e+01,0.000000000000e+00
162,1.500000000000e-01,1.496400000000e+01,0.000000000000e+00
163,7.060660171780e-01,1.747454415588e+01,0.000000000000e+00
164,4.939339828220e-01,1.247454415588e+01,0.000000000000e+00
165,-1.500000000000e-01,1.496400000000e+01,0.000000000000e+00
166,-7.060660171780e-01,1.747454415588e+01,0.000000000000e+00
167,-4.939339828220e-01,1.247454415588e+01,2.000000000000e+00
168,1.500000000000e-01,1.496400000000e+01,2.000000000000e+00
169,7.060660171780e-01,1.747454415588e+01,2.000000000000e+00
170,4.939339828220e-01,1.247454415588e+01,2.000000000000e+00
171,-1.500000000000e-01,1.496400000000e+01,2.000000000000e+00
172,-7.060660171780e-01,1.747454415588e+01,2.000000000000e+00
173,-1.200000000000e+00,2.252121320344e+01,3.939339828220e-01
174,-1.200000000000e+00,2.503000000000e+01,8.500000000000e-01
175,-1.200000000000e+00,2.752121320344e+01,1.393933982822e+00
176,-1.200000000000e+00,2.252121320344e+01,1.606066017178e+00
177,-1.200000000000e+00,2.503000000000e+01,1.150000000000e+00
178,-1.200000000000e+00,2.752121320344e+01,6.060660171780e-01
179,1.200000000000e+00,2.252121320344e+01,3.939339828220e-01
180,1.200000000000e+00,2.503000000000e+01,8.500000000000e-01
181,1.200000000000e+00,2.752121320344e+01,1.393933982822e+00
182,1.200000000000e+00,2.252121320344e+01,1.606066017178e+00
183,1.200000000000e+00,2.503000000000e+01,1.150000000000e+00
184,1.200000000000e+00,2.752121320344e+01,6.060660171780e-01
185,-4.939339828220e-01,2.247454415588e+01,0.000000000000e+00
186,1.500000000000e-01,2.496400000000e+01,0.000000000000e+00
187,7.060660171780e-01,2.747454415588e+01,0.000000000000e+00
188,4.939339828220e-01,2.247454415588e+01,0.000000000000e+00
189,-1.500000000000e-01,2.496400000000e+01,0.000000000000e+00
190,-7.060660171780e-01,2.747454415588e+01,0.000000000000e+00
191,-4.939339828220e-01,2.247454415588e+01,2.000000000000e+00
192,1.500000000000e-01,2.496400000000e+01,2.000000000000e+00
193,7.060660171780e-01,2.747454415588e+01,2.000000000000e+00
194,4.939339828220e-01,2.247454415588e+01,2.000000000000e+00
195,-1.500000000000e-01,2.496400000000e+01,2.000000000000e+00
196,-7.060660171780e-01,2.747454415588e+01,2.000000000000e+00
197,-1.200000000000e+00,3.252121320344e+01,3.939339828220e-01
198,-1.200000000000e+00,3.503000000000e+01,8.500000000000e-01
199,-1.200000000000e+00,3.752121320344e+01,1.393933982822e+00
200,-1.200000000000e+00,3.252121320344e+01,1.606066017178e+00
201,-1.200000000000e+00,3.503000000000e+01,1.150000000000e+00
202,-1.200000000000e+00,3.752121320344e+01,6.060660171780e-01
203,1.200000000000e+00,3.252121320344e+01,3.939339828220e-01
204,1.200000000000e+00,3.503000000000e+01,8.500000000000e-01
205,1.200000000000e+00,3.752121320344e+01,1.393933982822e+00
206,1.200000000000e+00,3.252121320344e+01,1.606066017178e+00
207,1.200000000000e+00,3.503000000000e+01,1.150000000000e+00
208,1.200000000000e+00,3.752121320344e+01,6.060660171780e-01
209,-4.939339828220e-01,3.247454415588e+01,0.000000000000e+00
210,1.500000000000e-01,3.496400000000e+01,0.000000000000e+00
211,7.060660171780e-01,3.747454415588e+01,0.000000000000e+00
212,4.939339828220e-01,3.247454415588e+01,0.000000000000e+00
213,-1.500000000000e-01,3.496400000000e+01,0.000000000000e+00
214,-7.060660171780e-01,3.747454415588e+01,0.000000000000e+00
215,-4.939339828220e-01,3.247454415588e+01,2.000000000000e+00
216,1.500000000000e-01,3.496400000000e+01,2.000000000000e+00
217,7.060660171780e-01,3.747454415588e+01,2.000000000000e+00
218,4.939339828220e-01,3.247454415588e+01,2.000000000000e+00
219,-1.500000000000e-01,3.496400000000e+01,2.000000000000e+00
220,-7.060660171780e-01,3.747454415588e+01,2.000000000000e+00
221,-1.200000000000e+00,4.252121320344e+01,3.939339828220e-01
222,-1.200000000000e+00,4.503000000000e+01,8.500000000000e-01
223,-1.200000000000e+00,4.752121320344e+01,1.393933982822e+00
224,-1.200000000000e+00,4.252121320344e+01,1.606066017178e+00
225,-1.200000000000e+00,4.503000000000e+01,1.150000000000e+00
226,-1.200000000000e+00,4.752121320344e+01,6.060660171780e-01
227,1.200000000000e+00,4.252121320344e+01,3.939339828220e-01
228,1.200000000000e+00,4.503000000000e+01,8.500000000000e-01
229,1.200000000000e+00,4.752121320344e+01,1.393933982822e+00
230,1.200000000000e+00,4.252121320344e+01,1.606066017178e+00
231,1.200000000000e+00,4.503000000000e+01,1.150000000000e+00
232,1.200000000000e+00,4.752121320344e+01,6.060660171780e-01
233,-4.939339828220e-01,4.247454415588e+01,0.000000000000e+00
234,1.500000000000e-01,4.496400000000e+01,0.000000000000e+00
235,7.060660171780e-01,4.747454415588e+01,0.000000000000e+00
236,4.939339828220e-01,4.247454415588e+01,0.000000000000e+00
237,-1.500000000000e-01,4.496400000000e+01,0.000000000000e+00
238,-7.060660171780e-01,4.747454415588e+01,0.000000000000e+00
239,-4.939339828220e-01,4.247454415588e+01,2.000000000000e+00
240,1.500000000000e-01,4.496400000000e+01,2.000000000000e+00
241,7.060660171780e-01,4.747454415588e+01,2.000000000000e+00
242,4.939339828220e-01,4.247454415588e+01,2.000000000000e+00
243,-1.500000000000e-01,4.496400000000e+01,2.000000000000e+00
244,-7.060660171780e-01,4.747454415588e+01,2.000000000000e+00
*ELEMENT,TYPE=B31,ELSET=ALL
1,1,25
2,25,5
3,2,26
4,26,6
5,3,27
6,27,7
7,4,28
8,28,8
9,5,29
10,29,9
11,6,30
12,30,10
13,7,31
14,31,11
15,8,32
16,32,12
17,9,33
18,33,13
19,10,34
20,34,14
21,11,35
22,35,15
23,12,36
24,36,16
25,13,37
26,37,17
27,14,38
28,38,18
29,15,39
30,39,19
31,16,40
32,40,20
33,17,41
34,41,42
35,42,43
36,43,21
37,18,44
38,44,45
39,45,46
40,46,22
41,19,47
42,47,48
43,48,49
44,49,23
45,20,50
46,50,51
47,51,52
48,52,24
49,1,53
50,53,54
51,54,55
52,55,2
53,3,56
54,56,57
55,57,58
56,58,4
57,1,59
58,59,60
59,60,61
60,61,3
61,2,62
62,62,63
63,63,64
64,64,4
65,5,65
66,65,66
67,66,67
68,67,6
69,7,68
70,68,69
71,69,70
72,70,8
73,5,71
74,71,72
75,72,73
76,73,7
77,6,74
78,74,75
79,75,76
80,76,8
81,9,77
82,77,78
83,78,79
84,79,10
85,11,80
86,80,81
87,81,82
88,82,12
89,9,83
90,83,84
91,84,85
92,85,11
93,10,86
94,86,87
95,87,88
96,88,12
97,13,89
98,89,90
99,90,91
100,91,14
101,15,92
102,92,93
103,93,94
104,94,16
105,13,95
106,95,96
107,96,97
108,97,15
109,14,98
110,98,99
111,99,100
112,100,16
113,17,101
114,101,102
115,102,103
116,103,18
117,19,104
118,104,105
119,105,106
120,106,20
121,17,107
122,107,108
123,108,109
124,109,19
125,18,110
126,110,111
127,111,112
128,112,20
129,21,113
130,113,114
131,114,115
132,115,22
133,23,116
134,116,117
135,117,118
136,118,24
137,21,119
138,119,120
139,120,121
140,121,23
141,22,122
142,122,123
143,123,124
144,124,24
145,1,125
146,125,126
147,126,127
148,127,7
149,3,128
150,128,129
151,129,130
152,130,5
153,2,131
154,131,132
155,132,133
156,133,8
157,4,134
158,134,135
159,135,136
160,136,6
161,1,137
162,137,138
163,138,139
164,139,6
165,2,140
166,140,141
167,141,142
168,142,5
169,3,143
170,143,144
171,144,145
172,145,8
173,4,146
174,146,147
175,147,148
176,148,7
177,5,149
178,149,150
179,150,151
180,151,11
181,7,152
182,152,153
183,153,154
184,154,9
185,6,155
186,155,156
187,156,157
188,157,12
189,8,158
190,158,159
191,159,160
192,160,10
193,5,161
194,161,162
195,162,163
196,163,10
197,6,164
198,164,165
199,165,166
200,166,9
201,7,167
202,167,168
203,168,169
204,169,12
205,8,170
206,170,171
207,171,172
208,172,11
209,9,173
210,173,174
211,174,175
212,175,15
213,11,176
214,176,177
215,177,178
216,178,13
217,10,179
218,179,180
219,180,181
220,181,16
221,12,182
222,182,183
223,183,184
224,184,14
225,9,185
226,185,186
227,186,187
228,187,14
229,10,188
230,188,189
231,189,190
232,190,13
233,11,191
234,191,192
235,192,193
236,193,16
237,12,194
238,194,195
239,195,196
240,196,15
241,13,197
242,197,198
243,198,199
244,199,19
245,15,200
246,200,201
247,201,202
248,202,17
249,14,203
250,203,204
251,204,205
252,205,20
253,16,206
254,206,207
255,207,208
256,208,18
257,13,209
258,209,210
259,210,211
260,211,18
261,14,212
262,212,213
263,213,214
264,214,17
265,15,215
266,215,216
267,216,217
268,217,20
269,16,218
270,218,219
271,219,220
272,220,19
273,17,221
274,221,222
275,222,223
276,223,23
277,19,224
278,224,225
279,225,226
280,226,21
281,18,227
282,227,228
283,228,229
284,229,24
285,20,230
286,230,231
287,231,232
288,232,22
289,17,233
290,233,234
291,234,235
292,235,22
293,18,236
294,236,237
295,237,238
296,238,21
297,19,239
298,239,240
299,240,241
300,241,24
301,20,242
302,242,243
303,243,244
304,244,23
*NSET,NSET=NALL,GENERATE
1,244,1
*NSET,NSET=LEFT
1,2,3,4
*NSET,NSET=RIGHT
21,22,23,24
*MATERIAL,NAME=STEEL
*ELASTIC
2.100000000000e+11,0.300000000000
*BEAM SECTION,ELSET=ALL,MATERIAL=STEEL,SECTION=RECT
6.000000000000e-02,4.000000000000e-02
0.371390676354,0.557086014531,0.742781352708
*BOUNDARY
LEFT,1,6,0.0
*STEP
*STATIC
*BOUNDARY
21,1,1,5.000000000000e-03
21,2,2,0.0
21,3,3,-6.000000000000e-03
*BOUNDARY
22,1,1,5.000000000000e-03
22,2,2,0.0
22,3,3,6.000000000000e-03
*BOUNDARY
23,1,1,-5.000000000000e-03
23,2,2,0.0
23,3,3,-6.000000000000e-03
*BOUNDARY
24,1,1,-5.000000000000e-03
24,2,2,0.0
24,3,3,6.000000000000e-03
*NODE FILE,NSET=NALL
U
*NODE PRINT,NSET=NALL
U
*NODE PRINT,NSET=RIGHT
RF
*EL PRINT,ELSET=ALL,TOTALS=YES
ELSE
*END STEP
