*HEADING
Normalized cross-passage space-truss torsion benchmark
*NODE
1,-1.200000000000e+00,0.000000000000e+00,0.000000000000e+00
2,1.200000000000e+00,0.000000000000e+00,0.000000000000e+00
3,-1.200000000000e+00,0.000000000000e+00,2.000000000000e+00
4,1.200000000000e+00,0.000000000000e+00,2.000000000000e+00
5,-1.200000000000e+00,1.000000000000e+01,0.000000000000e+00
6,1.200000000000e+00,1.000000000000e+01,0.000000000000e+00
7,-1.200000000000e+00,1.000000000000e+01,2.000000000000e+00
8,1.200000000000e+00,1.000000000000e+01,2.000000000000e+00
9,-1.200000000000e+00,2.000000000000e+01,0.000000000000e+00
10,1.200000000000e+00,2.000000000000e+01,0.000000000000e+00
11,-1.200000000000e+00,2.000000000000e+01,2.000000000000e+00
12,1.200000000000e+00,2.000000000000e+01,2.000000000000e+00
13,-1.200000000000e+00,3.000000000000e+01,0.000000000000e+00
14,1.200000000000e+00,3.000000000000e+01,0.000000000000e+00
15,-1.200000000000e+00,3.000000000000e+01,2.000000000000e+00
16,1.200000000000e+00,3.000000000000e+01,2.000000000000e+00
17,-1.200000000000e+00,4.000000000000e+01,0.000000000000e+00
18,1.200000000000e+00,4.000000000000e+01,0.000000000000e+00
19,-1.200000000000e+00,4.000000000000e+01,2.000000000000e+00
20,1.200000000000e+00,4.000000000000e+01,2.000000000000e+00
21,-1.200000000000e+00,5.000000000000e+01,0.000000000000e+00
22,1.200000000000e+00,5.000000000000e+01,0.000000000000e+00
23,-1.200000000000e+00,5.000000000000e+01,2.000000000000e+00
24,1.200000000000e+00,5.000000000000e+01,2.000000000000e+00
25,-1.200000000000e+00,5.000000000000e+00,-1.500000000000e-01
26,1.200000000000e+00,5.000000000000e+00,1.500000000000e-01
27,-1.200000000000e+00,5.000000000000e+00,1.850000000000e+00
28,1.200000000000e+00,5.000000000000e+00,2.150000000000e+00
29,-1.200000000000e+00,1.500000000000e+01,-1.500000000000e-01
30,1.200000000000e+00,1.500000000000e+01,1.500000000000e-01
31,-1.200000000000e+00,1.500000000000e+01,1.850000000000e+00
32,1.200000000000e+00,1.500000000000e+01,2.150000000000e+00
33,-1.200000000000e+00,2.500000000000e+01,-1.500000000000e-01
34,1.200000000000e+00,2.500000000000e+01,1.500000000000e-01
35,-1.200000000000e+00,2.500000000000e+01,1.850000000000e+00
36,1.200000000000e+00,2.500000000000e+01,2.150000000000e+00
37,-1.200000000000e+00,3.500000000000e+01,-1.500000000000e-01
38,1.200000000000e+00,3.500000000000e+01,1.500000000000e-01
39,-1.200000000000e+00,3.500000000000e+01,1.850000000000e+00
40,1.200000000000e+00,3.500000000000e+01,2.150000000000e+00
41,-1.200000000000e+00,4.250000000000e+01,-1.060660171780e-01
42,-1.200000000000e+00,4.500000000000e+01,-1.500000000000e-01
43,-1.200000000000e+00,4.750000000000e+01,-1.060660171780e-01
44,1.200000000000e+00,4.250000000000e+01,1.060660171780e-01
45,1.200000000000e+00,4.500000000000e+01,1.500000000000e-01
46,1.200000000000e+00,4.750000000000e+01,1.060660171780e-01
47,-1.200000000000e+00,4.250000000000e+01,1.893933982822e+00
48,-1.200000000000e+00,4.500000000000e+01,1.850000000000e+00
49,-1.200000000000e+00,4.750000000000e+01,1.893933982822e+00
50,1.200000000000e+00,4.250000000000e+01,2.106066017178e+00
51,1.200000000000e+00,4.500000000000e+01,2.150000000000e+00
52,1.200000000000e+00,4.750000000000e+01,2.106066017178e+00
53,-6.000000000000e-01,-2.545584412272e-02,0.000000000000e+00
54,0.000000000000e+00,-3.600000000000e-02,0.000000000000e+00
55,6.000000000000e-01,-2.545584412272e-02,0.000000000000e+00
56,-6.000000000000e-01,2.545584412272e-02,2.000000000000e+00
57,0.000000000000e+00,3.600000000000e-02,2.000000000000e+00
58,6.000000000000e-01,2.545584412272e-02,2.000000000000e+00
59,-1.200000000000e+00,2.121320343560e-02,5.000000000000e-01
60,-1.200000000000e+00,3.000000000000e-02,1.000000000000e+00
61,-1.200000000000e+00,2.121320343560e-02,1.500000000000e+00
62,1.200000000000e+00,-2.121320343560e-02,5.000000000000e-01
63,1.200000000000e+00,-3.000000000000e-02,1.000000000000e+00
64,1.200000000000e+00,-2.121320343560e-02,1.500000000000e+00
65,-6.000000000000e-01,9.974544155877e+00,0.000000000000e+00
66,0.000000000000e+00,9.964000000000e+00,0.000000000000e+00
67,6.000000000000e-01,9.974544155877e+00,0.000000000000e+00
68,-6.000000000000e-01,1.002545584412e+01,2.000000000000e+00
69,0.000000000000e+00,1.003600000000e+01,2.000000000000e+00
70,6.000000000000e-01,1.002545584412e+01,2.000000000000e+00
71,-1.200000000000e+00,1.002121320344e+01,5.000000000000e-01
72,-1.200000000000e+00,1.003000000000e+01,1.000000000000e+00
73,-1.200000000000e+00,1.002121320344e+01,1.500000000000e+00
74,1.200000000000e+00,9.978786796564e+00,5.000000000000e-01
75,1.200000000000e+00,9.970000000000e+00,1.000000000000e+00
76,1.200000000000e+00,9.978786796564e+00,1.500000000000e+00
77,0.000000000000e+00,1.996400000000e+01,0.000000000000e+00
78,0.000000000000e+00,2.003600000000e+01,2.000000000000e+00
79,-1.200000000000e+00,2.003000000000e+01,1.000000000000e+00
80,1.200000000000e+00,1.997000000000e+01,1.000000000000e+00
81,-6.000000000000e-01,2.997454415588e+01,0.000000000000e+00
82,0.000000000000e+00,2.996400000000e+01,0.000000000000e+00
83,6.000000000000e-01,2.997454415588e+01,0.000000000000e+00
84,-6.000000000000e-01,3.002545584412e+01,2.000000000000e+00
85,0.000000000000e+00,3.003600000000e+01,2.000000000000e+00
86,6.000000000000e-01,3.002545584412e+01,2.000000000000e+00
87,-1.200000000000e+00,3.002121320344e+01,5.000000000000e-01
88,-1.200000000000e+00,3.003000000000e+01,1.000000000000e+00
89,-1.200000000000e+00,3.002121320344e+01,1.500000000000e+00
90,1.200000000000e+00,2.997878679656e+01,5.000000000000e-01
91,1.200000000000e+00,2.997000000000e+01,1.000000000000e+00
92,1.200000000000e+00,2.997878679656e+01,1.500000000000e+00
93,-6.000000000000e-01,3.997454415588e+01,0.000000000000e+00
94,0.000000000000e+00,3.996400000000e+01,0.000000000000e+00
95,6.000000000000e-01,3.997454415588e+01,0.000000000000e+00
96,-6.000000000000e-01,4.002545584412e+01,2.000000000000e+00
97,0.000000000000e+00,4.003600000000e+01,2.000000000000e+00
98,6.000000000000e-01,4.002545584412e+01,2.000000000000e+00
99,-1.200000000000e+00,4.002121320344e+01,5.000000000000e-01
100,-1.200000000000e+00,4.003000000000e+01,1.000000000000e+00
101,-1.200000000000e+00,4.002121320344e+01,1.500000000000e+00
102,1.200000000000e+00,3.997878679656e+01,5.000000000000e-01
103,1.200000000000e+00,3.997000000000e+01,1.000000000000e+00
104,1.200000000000e+00,3.997878679656e+01,1.500000000000e+00
105,-6.000000000000e-01,4.997454415588e+01,0.000000000000e+00
106,0.000000000000e+00,4.996400000000e+01,0.000000000000e+00
107,6.000000000000e-01,4.997454415588e+01,0.000000000000e+00
108,-6.000000000000e-01,5.002545584412e+01,2.000000000000e+00
109,0.000000000000e+00,5.003600000000e+01,2.000000000000e+00
110,6.000000000000e-01,5.002545584412e+01,2.000000000000e+00
111,-1.200000000000e+00,5.002121320344e+01,5.000000000000e-01
112,-1.200000000000e+00,5.003000000000e+01,1.000000000000e+00
113,-1.200000000000e+00,5.002121320344e+01,1.500000000000e+00
114,1.200000000000e+00,4.997878679656e+01,5.000000000000e-01
115,1.200000000000e+00,4.997000000000e+01,1.000000000000e+00
116,1.200000000000e+00,4.997878679656e+01,1.500000000000e+00
117,-1.200000000000e+00,2.521213203436e+00,3.939339828220e-01
118,-1.200000000000e+00,5.030000000000e+00,8.500000000000e-01
119,-1.200000000000e+00,7.521213203436e+00,1.393933982822e+00
120,-1.200000000000e+00,2.521213203436e+00,1.606066017178e+00
121,-1.200000000000e+00,5.030000000000e+00,1.150000000000e+00
122,-1.200000000000e+00,7.521213203436e+00,6.060660171780e-01
123,1.200000000000e+00,2.521213203436e+00,3.939339828220e-01
124,1.200000000000e+00,5.030000000000e+00,8.500000000000e-01
125,1.200000000000e+00,7.521213203436e+00,1.393933982822e+00
126,1.200000000000e+00,2.521213203436e+00,1.606066017178e+00
127,1.200000000000e+00,5.030000000000e+00,1.150000000000e+00
128,1.200000000000e+00,7.521213203436e+00,6.060660171780e-01
129,-4.939339828220e-01,2.474544155877e+00,0.000000000000e+00
130,1.500000000000e-01,4.964000000000e+00,0.000000000000e+00
131,7.060660171780e-01,7.474544155877e+00,0.000000000000e+00
132,4.939339828220e-01,2.474544155877e+00,0.000000000000e+00
133,-1.500000000000e-01,4.964000000000e+00,0.000000000000e+00
134,-7.060660171780e-01,7.474544155877e+00,0.000000000000e+00
135,-4.939339828220e-01,2.474544155877e+00,2.000000000000e+00
136,1.500000000000e-01,4.964000000000e+00,2.000000000000e+00
137,7.060660171780e-01,7.474544155877e+00,2.000000000000e+00
138,4.939339828220e-01,2.474544155877e+00,2.000000000000e+00
139,-1.500000000000e-01,4.964000000000e+00,2.000000000000e+00
140,-7.060660171780e-01,7.474544155877e+00,2.000000000000e+00
141,-1.200000000000e+00,1.252121320344e+01,3.939339828220e-01
142,-1.200000000000e+00,1.503000000000e+01,8.500000000000e-01
143,-1.200000000000e+00,1.752121320344e+01,1.393933982822e+00
144,-1.200000000000e+00,1.252121320344e+01,1.606066017178e+00
145,-1.200000000000e+00,1.503000000000e+01,1.150000000000e+00
146,-1.200000000000e+00,1.752121320344e+01,6.060660171780e-01
147,1.200000000000e+00,1.252121320344e+01,3.939339828220e-01
148,1.200000000000e+00,1.503000000000e+01,8.500000000000e-01
149,1.200000000000e+00,1.752121320344e+01,1.393933982822e+00
150,1.200000000000e+00,1.252121320344e+01,1.606066017178e+00
151,1.200000000000e+00,1.503000000000e+01,1.150000000000e+00
152,1.200000000000e+00,1.752121320344e+01,6.060660171780e-01
153,-4.939339828220e-01,1.247454415588e+01,0.000000000000e+00
154,1.500000000000e-01,1.496400000000e+01,0.000000000000e+00
155,7.060660171780e-01,1.747454415588e+01,0.000000000000e+00
156,4.939339828220e-01,1.247454415588e+01,0.000000000000e+00
157,-1.500000000000e-01,1.496400000000e+01,0.000000000000e+00
158,-7.060660171780e-01,1.747454415588e+01,0.000000000000e+00
159,-4.939339828220e-01,1.247454415588e+01,2.000000000000e+00
160,1.500000000000e-01,1.496400000000e+01,2.000000000000e+00
161,7.060660171780e-01,1.747454415588e+01,2.000000000000e+00
162,4.939339828220e-01,1.247454415588e+01,2.000000000000e+00
163,-1.500000000000e-01,1.496400000000e+01,2.000000000000e+00
164,-7.060660171780e-01,1.747454415588e+01,2.000000000000e+00
165,-1.200000000000e+00,2.252121320344e+01,3.939339828220e-01
166,-1.200000000000e+00,2.503000000000e+01,8.500000000000e-01
167,-1.200000000000e+00,2.752121320344e+01,1.393933982822e+00
168,-1.200000000000e+00,2.252121320344e+01,1.606066017178e+00
169,-1.200000000000e+00,2.503000000000e+01,1.150000000000e+00
170,-1.200000000000e+00,2.752121320344e+01,6.060660171780e-01
171,1.200000000000e+00,2.252121320344e+01,3.939339828220e-01
172,1.200000000000e+00,2.503000000000e+01,8.500000000000e-01
173,1.200000000000e+00,2.752121320344e+01,1.393933982822e+00
174,1.200000000000e+00,2.252121320344e+01,1.606066017178e+00
175,1.200000000000e+00,2.503000000000e+01,1.150000000000e+00
176,1.200000000000e+00,2.752121320344e+01,6.060660171780e-01
177,-4.939339828220e-01,2.247454415588e+01,0.000000000000e+00
178,1.500000000000e-01,2.496400000000e+01,0.000000000000e+00
179,7.060660171780e-01,2.747454415588e+01,0.000000000000e+00
180,4.939339828220e-01,2.247454415588e+01,0.000000000000e+00
181,-1.500000000000e-01,2.496400000000e+01,0.000000000000e+00
182,-7.060660171780e-01,2.747454415588e+01,0.000000000000e+00
183,-4.939339828220e-01,2.247454415588e+01,2.000000000000e+00
184,1.500000000000e-01,2.496400000000e+01,2.000000000000e+00
185,7.060660171780e-01,2.747454415588e+01,2.000000000000e+00
186,4.939339828220e-01,2.247454415588e+01,2.000000000000e+00
187,-1.500000000000e-01,2.496400000000e+01,2.000000000000e+00
188,-7.060660171780e-01,2.747454415588e+01,2.000000000000e+00
189,-1.200000000000e+00,3.252121320344e+01,3.939339828220e-01
190,-1.200000000000e+00,3.503000000000e+01,8.500000000000e-01
191,-1.200000000000e+00,3.752121320344e+01,1.393933982822e+00
192,-1.200000000000e+00,3.252121320344e+01,1.606066017178e+00
193,-1.200000000000e+00,3.503000000000e+01,1.150000000000e+00
194,-1.200000000000e+00,3.752121320344e+01,6.060660171780e-01
195,1.200000000000e+00,3.252121320344e+01,3.939339828220e-01
196,1.200000000000e+00,3.503000000000e+01,8.500000000000e-01
197,1.200000000000e+00,3.752121320344e+01,1.393933982822e+00
198,1.200000000000e+00,3.252121320344e+01,1.606066017178e+00
199,1.200000000000e+00,3.503000000000e+01,1.150000000000e+00
200,1.200000000000e+00,3.752121320344e+01,6.060660171780e-01
201,-4.939339828220e-01,3.247454415588e+01,0.000000000000e+00
202,1.500000000000e-01,3.496400000000e+01,0.000000000000e+00
203,7.060660171780e-01,3.747454415588e+01,0.000000000000e+00
204,4.939339828220e-01,3.247454415588e+01,0.000000000000e+00
205,-1.500000000000e-01,3.496400000000e+01,0.000000000000e+00
206,-7.060660171780e-01,3.747454415588e+01,0.000000000000e+00
207,-4.939339828220e-01,3.247454415588e+01,2.000000000000e+00
208,1.500000000000e-01,3.496400000000e+01,2.000000000000e+00
209,7.060660171780e-01,3.747454415588e+01,2.000000000000e+00
210,4.939339828220e-01,3.247454415588e+01,2.000000000000e+00
211,-1.500000000000e-01,3.496400000000e+01,2.000000000000e+00
212,-7.060660171780e-01,3.747454415588e+01,2.000000000000e+00
213,-1.200000000000e+00,4.252121320344e+01,3.939339828220e-01
214,-1.200000000000e+00,4.503000000000e+01,8.500000000000e-01
215,-1.200000000000e+00,4.752121320344e+01,1.393933982822e+00
216,-1.200000000000e+00,4.252121320344e+01,1.606066017178e+00
217,-1.200000000000e+00,4.503000000000e+01,1.150000000000e+00
218,-1.200000000000e+00,4.752121320344e+01,6.060660171780e-01
219,1.200000000000e+00,4.252121320344e+01,3.939339828220e-01
220,1.200000000000e+00,4.503000000000e+01,8.500000000000e-01
221,1.200000000000e+00,4.752121320344e+01,1.393933982822e+00
222,1.200000000000e+00,4.252121320344e+01,1.606066017178e+00
223,1.200000000000e+00,4.503000000000e+01,1.150000000000e+00
224,1.200000000000e+00,4.752121320344e+01,6.060660171780e-01
225,-4.939339828220e-01,4.247454415588e+01,0.000000000000e+00
226,1.500000000000e-01,4.496400000000e+01,0.000000000000e+00
227,7.060660171780e-01,4.747454415588e+01,0.000000000000e+00
228,4.939339828220e-01,4.247454415588e+01,0.000000000000e+00
229,-1.500000000000e-01,4.496400000000e+01,0.000000000000e+00
230,-7.060660171780e-01,4.747454415588e+01,0.000000000000e+00
231,-4.939339828220e-01,4.247454415588e+01,2.000000000000e+00
232,1.500000000000e-01,4.496400000000e+01,2.000000000000e+00
233,7.060660171780e-01,4.747454415588e+01,2.000000000000e+00
234,4.939339828220e-01,4.247454415588e+01,2.000000000000e+00
235,-1.500000000000e-01,4.496400000000e+01,2.000000000000e+00
236,-7.060660171780e-01,4.747454415588e+01,2.000000000000e+00
*ELEMENT,TYPE=B31,ELSET=ALL
1,1,25
2,25,5
3,2,26
4,26,6
5,3,27
6,27,7
7,4,28
8,28,8
9,5,29
10,29,9
11,6,30
12,30,10
13,7,31
14,31,11
15,8,32
16,32,12
17,9,33
18,33,13
19,10,34
20,34,14
21,11,35
22,35,15
23,12,36
24,36,16
25,13,37
26,37,17
27,14,38
28,38,18
29,15,39
30,39,19
31,16,40
32,40,20
33,17,41
34,41,42
35,42,43
36,43,21
37,18,44
38,44,45
39,45,46
40,46,22
41,19,47
42,47,48
43,48,49
44,49,23
45,20,50
46,50,51
47,51,52
48,52,24
49,1,53
50,53,54
51,54,55
52,55,2
53,3,56
54,56,57
55,57,58
56,58,4
57,1,59
58,59,60
59,60,61
60,61,3
61,2,62
62,62,63
63,63,64
64,64,4
65,5,65
66,65,66
67,66,67
68,67,6
69,7,68
70,68,69
71,69,70
72,70,8
73,5,71
74,71,72
75,72,73
76,73,7
77,6,74
78,74,75
79,75,76
80,76,8
81,9,77
82,77,10
83,11,78
84,78,12
85,9,79
86,79,11
87,10,80
88,80,12
89,13,81
90,81,82
91,82,83
92,83,14
93,15,84
94,84,85
95,85,86
96,86,16
97,13,87
98,87,88
99,88,89
100,89,15
101,14,90
102,90,91
103,91,92
104,92,16
105,17,93
106,93,94
107,94,95
108,95,18
109,19,96
110,96,97
111,97,98
112,98,20
113,17,99
114,99,100
115,100,101
116,101,19
117,18,102
118,102,103
119,103,104
120,104,20
121,21,105
122,105,106
123,106,107
124,107,22
125,23,108
126,108,109
127,109,110
128,110,24
129,21,111
130,111,112
131,112,113
132,113,23
133,22,114
134,114,115
135,115,116
136,116,24
137,1,117
138,117,118
139,118,119
140,119,7
141,3,120
142,120,121
143,121,122
144,122,5
145,2,123
146,123,124
147,124,125
148,125,8
149,4,126
150,126,127
151,127,128
152,128,6
153,1,129
154,129,130
155,130,131
156,131,6
157,2,132
158,132,133
159,133,134
160,134,5
161,3,135
162,135,136
163,136,137
164,137,8
165,4,138
166,138,139
167,139,140
168,140,7
169,5,141
170,141,142
171,142,143
172,143,11
173,7,144
174,144,145
175,145,146
176,146,9
177,6,147
178,147,148
179,148,149
180,149,12
181,8,150
182,150,151
183,151,152
184,152,10
185,5,153
186,153,154
187,154,155
188,155,10
189,6,156
190,156,157
191,157,158
192,158,9
193,7,159
194,159,160
195,160,161
196,161,12
197,8,162
198,162,163
199,163,164
200,164,11
201,9,165
202,165,166
203,166,167
204,167,15
205,11,168
206,168,169
207,169,170
208,170,13
209,10,171
210,171,172
211,172,173
212,173,16
213,12,174
214,174,175
215,175,176
216,176,14
217,9,177
218,177,178
219,178,179
220,179,14
221,10,180
222,180,181
223,181,182
224,182,13
225,11,183
226,183,184
227,184,185
228,185,16
229,12,186
230,186,187
231,187,188
232,188,15
233,13,189
234,189,190
235,190,191
236,191,19
237,15,192
238,192,193
239,193,194
240,194,17
241,14,195
242,195,196
243,196,197
244,197,20
245,16,198
246,198,199
247,199,200
248,200,18
249,13,201
250,201,202
251,202,203
252,203,18
253,14,204
254,204,205
255,205,206
256,206,17
257,15,207
258,207,208
259,208,209
260,209,20
261,16,210
262,210,211
263,211,212
264,212,19
265,17,213
266,213,214
267,214,215
268,215,23
269,19,216
270,216,217
271,217,218
272,218,21
273,18,219
274,219,220
275,220,221
276,221,24
277,20,222
278,222,223
279,223,224
280,224,22
281,17,225
282,225,226
283,226,227
284,227,22
285,18,228
286,228,229
287,229,230
288,230,21
289,19,231
290,231,232
291,232,233
292,233,24
293,20,234
294,234,235
295,235,236
296,236,23
*NSET,NSET=NALL,GENERATE
1,236,1
*NSET,NSET=LEFT
1,2,3,4
*NSET,NSET=RIGHT
21,22,23,24
*MATERIAL,NAME=STEEL
*ELASTIC
2.100000000000e+11,0.300000000000
*BEAM SECTION,ELSET=ALL,MATERIAL=STEEL,SECTION=RECT
6.000000000000e-02,4.000000000000e-02
0.371390676354,0.557086014531,0.742781352708
*BOUNDARY
LEFT,1,6,0.0
*STEP
*STATIC
*BOUNDARY
21,1,1,5.000000000000e-03
21,2,2,0.0
21,3,3,-6.000000000000e-03
*BOUNDARY
22,1,1,5.000000000000e-03
22,2,2,0.0
22,3,3,6.000000000000e-03
*BOUNDARY
23,1,1,-5.000000000000e-03
23,2,2,0.0
23,3,3,-6.000000000000e-03
*BOUNDARY
24,1,1,-5.000000000000e-03
24,2,2,0.0
24,3,3,6.000000000000e-03
*NODE FILE,NSET=NALL
U
*NODE PRINT,NSET=NALL
U
*NODE PRINT,NSET=RIGHT
RF
*EL PRINT,ELSET=ALL,TOTALS=YES
ELSE
*END STEP
