*HEADING
Normalized cross-passage space-truss torsion benchmark
*NODE
1,-1.200000000000e+00,0.000000000000e+00,0.000000000000e+00
2,1.200000000000e+00,0.000000000000e+00,0.000000000000e+00
3,-1.200000000000e+00,0.000000000000e+00,2.000000000000e+00
4,1.200000000000e+00,0.000000000000e+00,2.000000000000e+00
5,-1.200000000000e+00,1.000000000000e+01,0.000000000000e+00
6,1.200000000000e+00,1.000000000000e+01,0.000000000000e+00
7,-1.200000000000e+00,1.000000000000e+01,2.000000000000e+00
8,1.200000000000e+00,1.000000000000e+01,2.000000000000e+00
9,-1.200000000000e+00,2.000000000000e+01,0.000000000000e+00
10,1.200000000000e+00,2.000000000000e+01,0.000000000000e+00
11,-1.200000000000e+00,2.000000000000e+01,2.000000000000e+00
12,1.200000000000e+00,2.000000000000e+01,2.000000000000e+00
13,-1.200000000000e+00,3.000000000000e+01,0.000000000000e+00
14,1.200000000000e+00,3.000000000000e+01,0.000000000000e+00
15,-1.200000000000e+00,3.000000000000e+01,2.000000000000e+00
16,1.200000000000e+00,3.000000000000e+01,2.000000000000e+00
17,-1.200000000000e+00,4.000000000000e+01,0.000000000000e+00
18,1.200000000000e+00,4.000000000000e+01,0.000000000000e+00
19,-1.200000000000e+00,4.000000000000e+01,2.000000000000e+00
20,1.200000000000e+00,4.000000000000e+01,2.000000000000e+00
21,-1.200000000000e+00,5.000000000000e+01,0.000000000000e+00
22,1.200000000000e+00,5.000000000000e+01,0.000000000000e+00
23,-1.200000000000e+00,5.000000000000e+01,2.000000000000e+00
24,1.200000000000e+00,5.000000000000e+01,2.000000000000e+00
25,-1.200000000000e+00,2.500000000000e+00,-1.060660171780e-01
26,-1.200000000000e+00,5.000000000000e+00,-1.500000000000e-01
27,-1.200000000000e+00,7.500000000000e+00,-1.060660171780e-01
28,1.200000000000e+00,2.500000000000e+00,1.060660171780e-01
29,1.200000000000e+00,5.000000000000e+00,1.500000000000e-01
30,1.200000000000e+00,7.500000000000e+00,1.060660171780e-01
31,-1.200000000000e+00,2.500000000000e+00,1.893933982822e+00
32,-1.200000000000e+00,5.000000000000e+00,1.850000000000e+00
33,-1.200000000000e+00,7.500000000000e+00,1.893933982822e+00
34,1.200000000000e+00,2.500000000000e+00,2.106066017178e+00
35,1.200000000000e+00,5.000000000000e+00,2.150000000000e+00
36,1.200000000000e+00,7.500000000000e+00,2.106066017178e+00
37,-1.200000000000e+00,3.500000000000e+01,-1.500000000000e-01
38,1.200000000000e+00,3.500000000000e+01,1.500000000000e-01
39,-1.200000000000e+00,3.500000000000e+01,1.850000000000e+00
40,1.200000000000e+00,3.500000000000e+01,2.150000000000e+00
41,-1.200000000000e+00,4.250000000000e+01,-1.060660171780e-01
42,-1.200000000000e+00,4.500000000000e+01,-1.500000000000e-01
43,-1.200000000000e+00,4.750000000000e+01,-1.060660171780e-01
44,1.200000000000e+00,4.250000000000e+01,1.060660171780e-01
45,1.200000000000e+00,4.500000000000e+01,1.500000000000e-01
46,1.200000000000e+00,4.750000000000e+01,1.060660171780e-01
47,-1.200000000000e+00,4.250000000000e+01,1.893933982822e+00
48,-1.200000000000e+00,4.500000000000e+01,1.850000000000e+00
49,-1.200000000000e+00,4.750000000000e+01,1.893933982822e+00
50,1.200000000000e+00,4.250000000000e+01,2.106066017178e+00
51,1.200000000000e+00,4.500000000000e+01,2.150000000000e+00
52,1.200000000000e+00,4.750000000000e+01,2.106066017178e+00
53,-6.000000000000e-01,-2.545584412272e-02,0.000000000000e+00
54,0.000000000000e+00,-3.600000000000e-02,0.000000000000e+00
55,6.000000000000e-01,-2.545584412272e-02,0.000000000000e+00
56,-6.000000000000e-01,2.545584412272e-02,2.000000000000e+00
57,0.000000000000e+00,3.600000000000e-02,2.000000000000e+00
58,6.000000000000e-01,2.545584412272e-02,2.000000000000e+00
59,-1.200000000000e+00,2.121320343560e-02,5.000000000000e-01
60,-1.200000000000e+00,3.000000000000e-02,1.000000000000e+00
61,-1.200000000000e+00,2.121320343560e-02,1.500000000000e+00
62,1.200000000000e+00,-2.121320343560e-02,5.000000000000e-01
63,1.200000000000e+00,-3.000000000000e-02,1.000000000000e+00
64,1.200000000000e+00,-2.121320343560e-02,1.500000000000e+00
65,-6.000000000000e-01,9.974544155877e+00,0.000000000000e+00
66,0.000000000000e+00,9.964000000000e+00,0.000000000000e+00
67,6.000000000000e-01,9.974544155877e+00,0.000000000000e+00
68,-6.000000000000e-01,1.002545584412e+01,2.000000000000e+00
69,0.000000000000e+00,1.003600000000e+01,2.000000000000e+00
70,6.000000000000e-01,1.002545584412e+01,2.000000000000e+00
71,-1.200000000000e+00,1.002121320344e+01,5.000000000000e-01
72,-1.200000000000e+00,1.003000000000e+01,1.000000000000e+00
73,-1.200000000000e+00,1.002121320344e+01,1.500000000000e+00
74,1.200000000000e+00,9.978786796564e+00,5.000000000000e-01
75,1.200000000000e+00,9.970000000000e+00,1.000000000000e+00
76,1.200000000000e+00,9.978786796564e+00,1.500000000000e+00
77,-6.000000000000e-01,3.997454415588e+01,0.000000000000e+00
78,0.000000000000e+00,3.996400000000e+01,0.000000000000e+00
79,6.000000000000e-01,3.997454415588e+01,0.000000000000e+00
80,-6.000000000000e-01,4.002545584412e+01,2.000000000000e+00
81,0.000000000000e+00,4.003600000000e+01,2.000000000000e+00
82,6.000000000000e-01,4.002545584412e+01,2.000000000000e+00
83,-1.200000000000e+00,4.002121320344e+01,5.000000000000e-01
84,-1.200000000000e+00,4.003000000000e+01,1.000000000000e+00
85,-1.200000000000e+00,4.002121320344e+01,1.500000000000e+00
86,1.200000000000e+00,3.997878679656e+01,5.000000000000e-01
87,1.200000000000e+00,3.997000000000e+01,1.000000000000e+00
88,1.200000000000e+00,3.997878679656e+01,1.500000000000e+00
89,-9.000000000000e-01,4.998622339643e+01,0.000000000000e+00
90,-6.000000000000e-01,4.997454415588e+01,0.000000000000e+00
91,-3.000000000000e-01,4.996674033683e+01,0.000000000000e+00
92,0.000000000000e+00,4.996400000000e+01,0.000000000000e+00
93,3.000000000000e-01,4.996674033683e+01,0.000000000000e+00
94,6.000000000000e-01,4.997454415588e+01,0.000000000000e+00
95,9.000000000000e-01,4.998622339643e+01,0.000000000000e+00
96,-9.000000000000e-01,5.001377660357e+01,2.000000000000e+00
97,-6.000000000000e-01,5.002545584412e+01,2.000000000000e+00
98,-3.000000000000e-01,5.003325966317e+01,2.000000000000e+00
99,0.000000000000e+00,5.003600000000e+01,2.000000000000e+00
100,3.000000000000e-01,5.003325966317e+01,2.000000000000e+00
101,6.000000000000e-01,5.002545584412e+01,2.000000000000e+00
102,9.000000000000e-01,5.001377660357e+01,2.000000000000e+00
103,-1.200000000000e+00,5.001148050297e+01,2.500000000000e-01
104,-1.200000000000e+00,5.002121320344e+01,5.000000000000e-01
105,-1.200000000000e+00,5.002771638598e+01,7.500000000000e-01
106,-1.200000000000e+00,5.003000000000e+01,1.000000000000e+00
107,-1.200000000000e+00,5.002771638598e+01,1.250000000000e+00
108,-1.200000000000e+00,5.002121320344e+01,1.500000000000e+00
109,-1.200000000000e+00,5.001148050297e+01,1.750000000000e+00
110,1.200000000000e+00,4.998851949703e+01,2.500000000000e-01
111,1.200000000000e+00,4.997878679656e+01,5.000000000000e-01
112,1.200000000000e+00,4.997228361402e+01,7.500000000000e-01
113,1.200000000000e+00,4.997000000000e+01,1.000000000000e+00
114,1.200000000000e+00,4.997228361402e+01,1.250000000000e+00
115,1.200000000000e+00,4.997878679656e+01,1.500000000000e+00
116,1.200000000000e+00,4.998851949703e+01,1.750000000000e+00
117,-1.200000000000e+00,2.521213203436e+00,3.939339828220e-01
118,-1.200000000000e+00,5.030000000000e+00,8.500000000000e-01
119,-1.200000000000e+00,7.521213203436e+00,1.393933982822e+00
120,-1.200000000000e+00,2.521213203436e+00,1.606066017178e+00
121,-1.200000000000e+00,5.030000000000e+00,1.150000000000e+00
122,-1.200000000000e+00,7.521213203436e+00,6.060660171780e-01
123,1.200000000000e+00,2.521213203436e+00,3.939339828220e-01
124,1.200000000000e+00,5.030000000000e+00,8.500000000000e-01
125,1.200000000000e+00,7.521213203436e+00,1.393933982822e+00
126,1.200000000000e+00,2.521213203436e+00,1.606066017178e+00
127,1.200000000000e+00,5.030000000000e+00,1.150000000000e+00
128,1.200000000000e+00,7.521213203436e+00,6.060660171780e-01
129,-4.939339828220e-01,2.474544155877e+00,0.000000000000e+00
130,1.500000000000e-01,4.964000000000e+00,0.000000000000e+00
131,7.060660171780e-01,7.474544155877e+00,0.000000000000e+00
132,4.939339828220e-01,2.474544155877e+00,0.000000000000e+00
133,-1.500000000000e-01,4.964000000000e+00,0.000000000000e+00
134,-7.060660171780e-01,7.474544155877e+00,0.000000000000e+00
135,-4.939339828220e-01,2.474544155877e+00,2.000000000000e+00
136,1.500000000000e-01,4.964000000000e+00,2.000000000000e+00
137,7.060660171780e-01,7.474544155877e+00,2.000000000000e+00
138,4.939339828220e-01,2.474544155877e+00,2.000000000000e+00
139,-1.500000000000e-01,4.964000000000e+00,2.000000000000e+00
140,-7.060660171780e-01,7.474544155877e+00,2.000000000000e+00
141,-1.200000000000e+00,1.252121320344e+01,3.939339828220e-01
142,-1.200000000000e+00,1.503000000000e+01,8.500000000000e-01
143,-1.200000000000e+00,1.752121320344e+01,1.393933982822e+00
144,-1.200000000000e+00,1.252121320344e+01,1.606066017178e+00
145,-1.200000000000e+00,1.503000000000e+01,1.150000000000e+00
146,-1.200000000000e+00,1.752121320344e+01,6.060660171780e-01
147,1.200000000000e+00,1.252121320344e+01,3.939339828220e-01
148,1.200000000000e+00,1.503000000000e+01,8.500000000000e-01
149,1.200000000000e+00,1.752121320344e+01,1.393933982822e+00
150,1.200000000000e+00,1.252121320344e+01,1.606066017178e+00
151,1.200000000000e+00,1.503000000000e+01,1.150000000000e+00
152,1.200000000000e+00,1.752121320344e+01,6.060660171780e-01
153,-4.939339828220e-01,1.247454415588e+01,0.000000000000e+00
154,1.500000000000e-01,1.496400000000e+01,0.000000000000e+00
155,7.060660171780e-01,1.747454415588e+01,0.000000000000e+00
156,4.939339828220e-01,1.247454415588e+01,0.000000000000e+00
157,-1.500000000000e-01,1.496400000000e+01,0.000000000000e+00
158,-7.060660171780e-01,1.747454415588e+01,0.000000000000e+00
159,-4.939339828220e-01,1.247454415588e+01,2.000000000000e+00
160,1.500000000000e-01,1.496400000000e+01,2.000000000000e+00
161,7.060660171780e-01,1.747454415588e+01,2.000000000000e+00
162,4.939339828220e-01,1.247454415588e+01,2.000000000000e+00
163,-1.500000000000e-01,1.496400000000e+01,2.000000000000e+00
164,-7.060660171780e-01,1.747454415588e+01,2.000000000000e+00
165,-1.200000000000e+00,2.252121320344e+01,3.939339828220e-01
166,-1.200000000000e+00,2.503000000000e+01,8.500000000000e-01
167,-1.200000000000e+00,2.752121320344e+01,1.393933982822e+00
168,-1.200000000000e+00,2.252121320344e+01,1.606066017178e+00
169,-1.200000000000e+00,2.503000000000e+01,1.150000000000e+00
170,-1.200000000000e+00,2.752121320344e+01,6.060660171780e-01
171,1.200000000000e+00,2.252121320344e+01,3.939339828220e-01
172,1.200000000000e+00,2.503000000000e+01,8.500000000000e-01
173,1.200000000000e+00,2.752121320344e+01,1.393933982822e+00
174,1.200000000000e+00,2.252121320344e+01,1.606066017178e+00
175,1.200000000000e+00,2.503000000000e+01,1.150000000000e+00
176,1.200000000000e+00,2.752121320344e+01,6.060660171780e-01
177,-4.939339828220e-01,2.247454415588e+01,0.000000000000e+00
178,1.500000000000e-01,2.496400000000e+01,0.000000000000e+00
179,7.060660171780e-01,2.747454415588e+01,0.000000000000e+00
180,4.939339828220e-01,2.247454415588e+01,0.000000000000e+00
181,-1.500000000000e-01,2.496400000000e+01,0.000000000000e+00
182,-7.060660171780e-01,2.747454415588e+01,0.000000000000e+00
183,-4.939339828220e-01,2.247454415588e+01,2.000000000000e+00
184,1.500000000000e-01,2.496400000000e+01,2.000000000000e+00
185,7.060660171780e-01,2.747454415588e+01,2.000000000000e+00
186,4.939339828220e-01,2.247454415588e+01,2.000000000000e+00
187,-1.500000000000e-01,2.496400000000e+01,2.000000000000e+00
188,-7.060660171780e-01,2.747454415588e+01,2.000000000000e+00
189,-1.200000000000e+00,3.252121320344e+01,3.939339828220e-01
190,-1.200000000000e+00,3.503000000000e+01,8.500000000000e-01
191,-1.200000000000e+00,3.752121320344e+01,1.393933982822e+00
192,-1.200000000000e+00,3.252121320344e+01,1.606066017178e+00
193,-1.200000000000e+00,3.503000000000e+01,1.150000000000e+00
194,-1.200000000000e+00,3.752121320344e+01,6.060660171780e-01
195,1.200000000000e+00,3.252121320344e+01,3.939339828220e-01
196,1.200000000000e+00,3.503000000000e+01,8.500000000000e-01
197,1.200000000000e+00,3.752121320344e+01,1.393933982822e+00
198,1.200000000000e+00,3.252121320344e+01,1.606066017178e+00
199,1.200000000000e+00,3.503000000000e+01,1.150000000000e+00
200,1.200000000000e+00,3.752121320344e+01,6.060660171780e-01
201,-4.939339828220e-01,3.247454415588e+01,0.000000000000e+00
202,1.500000000000e-01,3.496400000000e+01,0.000000000000e+00
203,7.060660171780e-01,3.747454415588e+01,0.000000000000e+00
204,4.939339828220e-01,3.247454415588e+01,0.000000000000e+00
205,-1.500000000000e-01,3.496400000000e+01,0.000000000000e+00
206,-7.060660171780e-01,3.747454415588e+01,0.000000000000e+00
207,-4.939339828220e-01,3.247454415588e+01,2.000000000000e+00
208,1.500000000000e-01,3.496400000000e+01,2.000000000000e+00
209,7.060660171780e-01,3.747454415588e+01,2.000000000000e+00
210,4.939339828220e-01,3.247454415588e+01,2.000000000000e+00
211,-1.500000000000e-01,3.496400000000e+01,2.000000000000e+00
212,-7.060660171780e-01,3.747454415588e+01,2.000000000000e+00
213,-1.200000000000e+00,4.126148050297e+01,1.925974851452e-01
214,-1.200000000000e+00,4.252121320344e+01,3.939339828220e-01
215,-1.200000000000e+00,4.377771638598e+01,6.114180701233e-01
216,-1.200000000000e+00,4.503000000000e+01,8.500000000000e-01
217,-1.200000000000e+00,4.627771638598e+01,1.111418070123e+00
218,-1.200000000000e+00,4.752121320344e+01,1.393933982822e+00
219,-1.200000000000e+00,4.876148050297e+01,1.692597485145e+00
220,-1.200000000000e+00,4.126148050297e+01,1.807402514855e+00
221,-1.200000000000e+00,4.252121320344e+01,1.606066017178e+00
222,-1.200000000000e+00,4.377771638598e+01,1.388581929877e+00
223,-1.200000000000e+00,4.503000000000e+01,1.150000000000e+00
224,-1.200000000000e+00,4.627771638598e+01,8.885819298767e-01
225,-1.200000000000e+00,4.752121320344e+01,6.060660171780e-01
226,-1.200000000000e+00,4.876148050297e+01,3.074025148548e-01
227,1.200000000000e+00,4.126148050297e+01,1.925974851452e-01
228,1.200000000000e+00,4.252121320344e+01,3.939339828220e-01
229,1.200000000000e+00,4.377771638598e+01,6.114180701233e-01
230,1.200000000000e+00,4.503000000000e+01,8.500000000000e-01
231,1.200000000000e+00,4.627771638598e+01,1.111418070123e+00
232,1.200000000000e+00,4.752121320344e+01,1.393933982822e+00
233,1.200000000000e+00,4.876148050297e+01,1.692597485145e+00
234,1.200000000000e+00,4.126148050297e+01,1.807402514855e+00
235,1.200000000000e+00,4.252121320344e+01,1.606066017178e+00
236,1.200000000000e+00,4.377771638598e+01,1.388581929877e+00
237,1.200000000000e+00,4.503000000000e+01,1.150000000000e+00
238,1.200000000000e+00,4.627771638598e+01,8.885819298767e-01
239,1.200000000000e+00,4.752121320344e+01,6.060660171780e-01
240,1.200000000000e+00,4.876148050297e+01,3.074025148548e-01
241,-8.425974851452e-01,4.123622339643e+01,0.000000000000e+00
242,-4.939339828220e-01,4.247454415588e+01,0.000000000000e+00
243,-1.614180701233e-01,4.371674033683e+01,0.000000000000e+00
244,1.500000000000e-01,4.496400000000e+01,0.000000000000e+00
245,4.385819298767e-01,4.621674033683e+01,0.000000000000e+00
246,7.060660171780e-01,4.747454415588e+01,0.000000000000e+00
247,9.574025148548e-01,4.873622339643e+01,0.000000000000e+00
248,8.425974851452e-01,4.123622339643e+01,0.000000000000e+00
249,4.939339828220e-01,4.247454415588e+01,0.000000000000e+00
250,1.614180701233e-01,4.371674033683e+01,0.000000000000e+00
251,-1.500000000000e-01,4.496400000000e+01,0.000000000000e+00
252,-4.385819298767e-01,4.621674033683e+01,0.000000000000e+00
253,-7.060660171780e-01,4.747454415588e+01,0.000000000000e+00
254,-9.574025148548e-01,4.873622339643e+01,0.000000000000e+00
255,-8.425974851452e-01,4.123622339643e+01,2.000000000000e+00
256,-4.939339828220e-01,4.247454415588e+01,2.000000000000e+00
257,-1.614180701233e-01,4.371674033683e+01,2.000000000000e+00
258,1.500000000000e-01,4.496400000000e+01,2.000000000000e+00
259,4.385819298767e-01,4.621674033683e+01,2.000000000000e+00
260,7.060660171780e-01,4.747454415588e+01,2.000000000000e+00
261,9.574025148548e-01,4.873622339643e+01,2.000000000000e+00
262,8.425974851452e-01,4.123622339643e+01,2.000000000000e+00
263,4.939339828220e-01,4.247454415588e+01,2.000000000000e+00
264,1.614180701233e-01,4.371674033683e+01,2.000000000000e+00
265,-1.500000000000e-01,4.496400000000e+01,2.000000000000e+00
266,-4.385819298767e-01,4.621674033683e+01,2.000000000000e+00
267,-7.060660171780e-01,4.747454415588e+01,2.000000000000e+00
268,-9.574025148548e-01,4.873622339643e+01,2.000000000000e+00
*ELEMENT,TYPE=B31,ELSET=ALL
1,1,25
2,25,26
3,26,27
4,27,5
5,2,28
6,28,29
7,29,30
8,30,6
9,3,31
10,31,32
11,32,33
12,33,7
13,4,34
14,34,35
15,35,36
16,36,8
17,5,9
18,6,10
19,7,11
20,8,12
21,9,13
22,10,14
23,11,15
24,12,16
25,13,37
26,37,17
27,14,38
28,38,18
29,15,39
30,39,19
31,16,40
32,40,20
33,17,41
34,41,42
35,42,43
36,43,21
37,18,44
38,44,45
39,45,46
40,46,22
41,19,47
42,47,48
43,48,49
44,49,23
45,20,50
46,50,51
47,51,52
48,52,24
49,1,53
50,53,54
51,54,55
52,55,2
53,3,56
54,56,57
55,57,58
56,58,4
57,1,59
58,59,60
59,60,61
60,61,3
61,2,62
62,62,63
63,63,64
64,64,4
65,5,65
66,65,66
67,66,67
68,67,6
69,7,68
70,68,69
71,69,70
72,70,8
73,5,71
74,71,72
75,72,73
76,73,7
77,6,74
78,74,75
79,75,76
80,76,8
81,9,10
82,11,12
83,9,11
84,10,12
85,13,14
86,15,16
87,13,15
88,14,16
89,17,77
90,77,78
91,78,79
92,79,18
93,19,80
94,80,81
95,81,82
96,82,20
97,17,83
98,83,84
99,84,85
100,85,19
101,18,86
102,86,87
103,87,88
104,88,20
105,21,89
106,89,90
107,90,91
108,91,92
109,92,93
110,93,94
111,94,95
112,95,22
113,23,96
114,96,97
115,97,98
116,98,99
117,99,100
118,100,101
119,101,102
120,102,24
121,21,103
122,103,104
123,104,105
124,105,106
125,106,107
126,107,108
127,108,109
128,109,23
129,22,110
130,110,111
131,111,112
132,112,113
133,113,114
134,114,115
135,115,116
136,116,24
137,1,117
138,117,118
139,118,119
140,119,7
141,3,120
142,120,121
143,121,122
144,122,5
145,2,123
146,123,124
147,124,125
148,125,8
149,4,126
150,126,127
151,127,128
152,128,6
153,1,129
154,129,130
155,130,131
156,131,6
157,2,132
158,132,133
159,133,134
160,134,5
161,3,135
162,135,136
163,136,137
164,137,8
165,4,138
166,138,139
167,139,140
168,140,7
169,5,141
170,141,142
171,142,143
172,143,11
173,7,144
174,144,145
175,145,146
176,146,9
177,6,147
178,147,148
179,148,149
180,149,12
181,8,150
182,150,151
183,151,152
184,152,10
185,5,153
186,153,154
187,154,155
188,155,10
189,6,156
190,156,157
191,157,158
192,158,9
193,7,159
194,159,160
195,160,161
196,161,12
197,8,162
198,162,163
199,163,164
200,164,11
201,9,165
202,165,166
203,166,167
204,167,15
205,11,168
206,168,169
207,169,170
208,170,13
209,10,171
210,171,172
211,172,173
212,173,16
213,12,174
214,174,175
215,175,176
216,176,14
217,9,177
218,177,178
219,178,179
220,179,14
221,10,180
222,180,181
223,181,182
224,182,13
225,11,183
226,183,184
227,184,185
228,185,16
229,12,186
230,186,187
231,187,188
232,188,15
233,13,189
234,189,190
235,190,191
236,191,19
237,15,192
238,192,193
239,193,194
240,194,17
241,14,195
242,195,196
243,196,197
244,197,20
245,16,198
246,198,199
247,199,200
248,200,18
249,13,201
250,201,202
251,202,203
252,203,18
253,14,204
254,204,205
255,205,206
256,206,17
257,15,207
258,207,208
259,208,209
260,209,20
261,16,210
262,210,211
263,211,212
264,212,19
265,17,213
266,213,214
267,214,215
268,215,216
269,216,217
270,217,218
271,218,219
272,219,23
273,19,220
274,220,221
275,221,222
276,222,223
277,223,224
278,224,225
279,225,226
280,226,21
281,18,227
282,227,228
283,228,229
284,229,230
285,230,231
286,231,232
287,232,233
288,233,24
289,20,234
290,234,235
291,235,236
292,236,237
293,237,238
294,238,239
295,239,240
296,240,22
297,17,241
298,241,242
299,242,243
300,243,244
301,244,245
302,245,246
303,246,247
304,247,22
305,18,248
306,248,249
307,249,250
308,250,251
309,251,252
310,252,253
311,253,254
312,254,21
313,19,255
314,255,256
315,256,257
316,257,258
317,258,259
318,259,260
319,260,261
320,261,24
321,20,262
322,262,263
323,263,264
324,264,265
325,265,266
326,266,267
327,267,268
328,268,23
*NSET,NSET=NALL,GENERATE
1,268,1
*NSET,NSET=LEFT
1,2,3,4
*NSET,NSET=RIGHT
21,22,23,24
*MATERIAL,NAME=STEEL
*ELASTIC
2.100000000000e+11,0.300000000000
*BEAM SECTION,ELSET=ALL,MATERIAL=STEEL,SECTION=RECT
6.000000000000e-02,4.000000000000e-02
0.371390676354,0.557086014531,0.742781352708
*BOUNDARY
LEFT,1,6,0.0
*STEP
*STATIC
*BOUNDARY
21,1,1,5.000000000000e-03
21,2,2,0.0
21,3,3,-6.000000000000e-03
*BOUNDARY
22,1,1,5.000000000000e-03
22,2,2,0.0
22,3,3,6.000000000000e-03
*BOUNDARY
23,1,1,-5.000000000000e-03
23,2,2,0.0
23,3,3,-6.000000000000e-03
*BOUNDARY
24,1,1,-5.000000000000e-03
24,2,2,0.0
24,3,3,6.000000000000e-03
*NODE FILE,NSET=NALL
U
*NODE PRINT,NSET=NALL
U
*NODE PRINT,NSET=RIGHT
RF
*EL PRINT,ELSET=ALL,TOTALS=YES
ELSE
*END STEP
