*HEADING
Normalized cross-passage space-truss torsion benchmark
*NODE
1,-1.200000000000e+00,0.000000000000e+00,0.000000000000e+00
2,1.200000000000e+00,0.000000000000e+00,0.000000000000e+00
3,-1.200000000000e+00,0.000000000000e+00,2.000000000000e+00
4,1.200000000000e+00,0.000000000000e+00,2.000000000000e+00
5,-1.200000000000e+00,1.000000000000e+01,0.000000000000e+00
6,1.200000000000e+00,1.000000000000e+01,0.000000000000e+00
7,-1.200000000000e+00,1.000000000000e+01,2.000000000000e+00
8,1.200000000000e+00,1.000000000000e+01,2.000000000000e+00
9,-1.200000000000e+00,2.000000000000e+01,0.000000000000e+00
10,1.200000000000e+00,2.000000000000e+01,0.000000000000e+00
11,-1.200000000000e+00,2.000000000000e+01,2.000000000000e+00
12,1.200000000000e+00,2.000000000000e+01,2.000000000000e+00
13,-1.200000000000e+00,3.000000000000e+01,0.000000000000e+00
14,1.200000000000e+00,3.000000000000e+01,0.000000000000e+00
15,-1.200000000000e+00,3.000000000000e+01,2.000000000000e+00
16,1.200000000000e+00,3.000000000000e+01,2.000000000000e+00
17,-1.200000000000e+00,4.000000000000e+01,0.000000000000e+00
18,1.200000000000e+00,4.000000000000e+01,0.000000000000e+00
19,-1.200000000000e+00,4.000000000000e+01,2.000000000000e+00
20,1.200000000000e+00,4.000000000000e+01,2.000000000000e+00
21,-1.200000000000e+00,5.000000000000e+01,0.000000000000e+00
22,1.200000000000e+00,5.000000000000e+01,0.000000000000e+00
23,-1.200000000000e+00,5.000000000000e+01,2.000000000000e+00
24,1.200000000000e+00,5.000000000000e+01,2.000000000000e+00
25,-1.200000000000e+00,2.500000000000e+00,-1.060660171780e-01
26,-1.200000000000e+00,5.000000000000e+00,-1.500000000000e-01
27,-1.200000000000e+00,7.500000000000e+00,-1.060660171780e-01
28,1.200000000000e+00,2.500000000000e+00,1.060660171780e-01
29,1.200000000000e+00,5.000000000000e+00,1.500000000000e-01
30,1.200000000000e+00,7.500000000000e+00,1.060660171780e-01
31,-1.200000000000e+00,2.500000000000e+00,1.893933982822e+00
32,-1.200000000000e+00,5.000000000000e+00,1.850000000000e+00
33,-1.200000000000e+00,7.500000000000e+00,1.893933982822e+00
34,1.200000000000e+00,2.500000000000e+00,2.106066017178e+00
35,1.200000000000e+00,5.000000000000e+00,2.150000000000e+00
36,1.200000000000e+00,7.500000000000e+00,2.106066017178e+00
37,-1.200000000000e+00,1.500000000000e+01,-1.500000000000e-01
38,1.200000000000e+00,1.500000000000e+01,1.500000000000e-01
39,-1.200000000000e+00,1.500000000000e+01,1.850000000000e+00
40,1.200000000000e+00,1.500000000000e+01,2.150000000000e+00
41,-1.200000000000e+00,4.250000000000e+01,-1.060660171780e-01
42,-1.200000000000e+00,4.500000000000e+01,-1.500000000000e-01
43,-1.200000000000e+00,4.750000000000e+01,-1.060660171780e-01
44,1.200000000000e+00,4.250000000000e+01,1.060660171780e-01
45,1.200000000000e+00,4.500000000000e+01,1.500000000000e-01
46,1.200000000000e+00,4.750000000000e+01,1.060660171780e-01
47,-1.200000000000e+00,4.250000000000e+01,1.893933982822e+00
48,-1.200000000000e+00,4.500000000000e+01,1.850000000000e+00
49,-1.200000000000e+00,4.750000000000e+01,1.893933982822e+00
50,1.200000000000e+00,4.250000000000e+01,2.106066017178e+00
51,1.200000000000e+00,4.500000000000e+01,2.150000000000e+00
52,1.200000000000e+00,4.750000000000e+01,2.106066017178e+00
53,-6.000000000000e-01,-2.545584412272e-02,0.000000000000e+00
54,0.000000000000e+00,-3.600000000000e-02,0.000000000000e+00
55,6.000000000000e-01,-2.545584412272e-02,0.000000000000e+00
56,-6.000000000000e-01,2.545584412272e-02,2.000000000000e+00
57,0.000000000000e+00,3.600000000000e-02,2.000000000000e+00
58,6.000000000000e-01,2.545584412272e-02,2.000000000000e+00
59,-1.200000000000e+00,2.121320343560e-02,5.000000000000e-01
60,-1.200000000000e+00,3.000000000000e-02,1.000000000000e+00
61,-1.200000000000e+00,2.121320343560e-02,1.500000000000e+00
62,1.200000000000e+00,-2.121320343560e-02,5.000000000000e-01
63,1.200000000000e+00,-3.000000000000e-02,1.000000000000e+00
64,1.200000000000e+00,-2.121320343560e-02,1.500000000000e+00
65,0.000000000000e+00,9.964000000000e+00,0.000000000000e+00
66,0.000000000000e+00,1.003600000000e+01,2.000000000000e+00
67,-1.200000000000e+00,1.003000000000e+01,1.000000000000e+00
68,1.200000000000e+00,9.970000000000e+00,1.000000000000e+00
69,0.000000000000e+00,1.996400000000e+01,0.000000000000e+00
70,0.000000000000e+00,2.003600000000e+01,2.000000000000e+00
71,-1.200000000000e+00,2.003000000000e+01,1.000000000000e+00
72,1.200000000000e+00,1.997000000000e+01,1.000000000000e+00
73,-6.000000000000e-01,2.997454415588e+01,0.000000000000e+00
74,0.000000000000e+00,2.996400000000e+01,0.000000000000e+00
75,6.000000000000e-01,2.997454415588e+01,0.000000000000e+00
76,-6.000000000000e-01,3.002545584412e+01,2.000000000000e+00
77,0.000000000000e+00,3.003600000000e+01,2.000000000000e+00
78,6.000000000000e-01,3.002545584412e+01,2.000000000000e+00
79,-1.200000000000e+00,3.002121320344e+01,5.000000000000e-01
80,-1.200000000000e+00,3.003000000000e+01,1.000000000000e+00
81,-1.200000000000e+00,3.002121320344e+01,1.500000000000e+00
82,1.200000000000e+00,2.997878679656e+01,5.000000000000e-01
83,1.200000000000e+00,2.997000000000e+01,1.000000000000e+00
84,1.200000000000e+00,2.997878679656e+01,1.500000000000e+00
85,0.000000000000e+00,3.996400000000e+01,0.000000000000e+00
86,0.000000000000e+00,4.003600000000e+01,2.000000000000e+00
87,-1.200000000000e+00,4.003000000000e+01,1.000000000000e+00
88,1.200000000000e+00,3.997000000000e+01,1.000000000000e+00
89,-9.000000000000e-01,4.998622339643e+01,0.000000000000e+00
90,-6.000000000000e-01,4.997454415588e+01,0.000000000000e+00
91,-3.000000000000e-01,4.996674033683e+01,0.000000000000e+00
92,0.000000000000e+00,4.996400000000e+01,0.000000000000e+00
93,3.000000000000e-01,4.996674033683e+01,0.000000000000e+00
94,6.000000000000e-01,4.997454415588e+01,0.000000000000e+00
95,9.000000000000e-01,4.998622339643e+01,0.000000000000e+00
96,-9.000000000000e-01,5.001377660357e+01,2.000000000000e+00
97,-6.000000000000e-01,5.002545584412e+01,2.000000000000e+00
98,-3.000000000000e-01,5.003325966317e+01,2.000000000000e+00
99,0.000000000000e+00,5.003600000000e+01,2.000000000000e+00
100,3.000000000000e-01,5.003325966317e+01,2.000000000000e+00
101,6.000000000000e-01,5.002545584412e+01,2.000000000000e+00
102,9.000000000000e-01,5.001377660357e+01,2.000000000000e+00
103,-1.200000000000e+00,5.001148050297e+01,2.500000000000e-01
104,-1.200000000000e+00,5.002121320344e+01,5.000000000000e-01
105,-1.200000000000e+00,5.002771638598e+01,7.500000000000e-01
106,-1.200000000000e+00,5.003000000000e+01,1.000000000000e+00
107,-1.200000000000e+00,5.002771638598e+01,1.250000000000e+00
108,-1.200000000000e+00,5.002121320344e+01,1.500000000000e+00
109,-1.200000000000e+00,5.001148050297e+01,1.750000000000e+00
110,1.200000000000e+00,4.998851949703e+01,2.500000000000e-01
111,1.200000000000e+00,4.997878679656e+01,5.000000000000e-01
112,1.200000000000e+00,4.997228361402e+01,7.500000000000e-01
113,1.200000000000e+00,4.997000000000e+01,1.000000000000e+00
114,1.200000000000e+00,4.997228361402e+01,1.250000000000e+00
115,1.200000000000e+00,4.997878679656e+01,1.500000000000e+00
116,1.200000000000e+00,4.998851949703e+01,1.750000000000e+00
117,-1.200000000000e+00,2.521213203436e+00,3.939339828220e-01
118,-1.200000000000e+00,5.030000000000e+00,8.500000000000e-01
119,-1.200000000000e+00,7.521213203436e+00,1.393933982822e+00
120,-1.200000000000e+00,2.521213203436e+00,1.606066017178e+00
121,-1.200000000000e+00,5.030000000000e+00,1.150000000000e+00
122,-1.200000000000e+00,7.521213203436e+00,6.060660171780e-01
123,1.200000000000e+00,2.521213203436e+00,3.939339828220e-01
124,1.200000000000e+00,5.030000000000e+00,8.500000000000e-01
125,1.200000000000e+00,7.521213203436e+00,1.393933982822e+00
126,1.200000000000e+00,2.521213203436e+00,1.606066017178e+00
127,1.200000000000e+00,5.030000000000e+00,1.150000000000e+00
128,1.200000000000e+00,7.521213203436e+00,6.060660171780e-01
129,-4.939339828220e-01,2.474544155877e+00,0.000000000000e+00
130,1.500000000000e-01,4.964000000000e+00,0.000000000000e+00
131,7.060660171780e-01,7.474544155877e+00,0.000000000000e+00
132,4.939339828220e-01,2.474544155877e+00,0.000000000000e+00
133,-1.500000000000e-01,4.964000000000e+00,0.000000000000e+00
134,-7.060660171780e-01,7.474544155877e+00,0.000000000000e+00
135,-4.939339828220e-01,2.474544155877e+00,2.000000000000e+00
136,1.500000000000e-01,4.964000000000e+00,2.000000000000e+00
137,7.060660171780e-01,7.474544155877e+00,2.000000000000e+00
138,4.939339828220e-01,2.474544155877e+00,2.000000000000e+00
139,-1.500000000000e-01,4.964000000000e+00,2.000000000000e+00
140,-7.060660171780e-01,7.474544155877e+00,2.000000000000e+00
141,-1.200000000000e+00,1.503000000000e+01,8.500000000000e-01
142,-1.200000000000e+00,1.503000000000e+01,1.150000000000e+00
143,1.200000000000e+00,1.503000000000e+01,8.500000000000e-01
144,1.200000000000e+00,1.503000000000e+01,1.150000000000e+00
145,1.500000000000e-01,1.496400000000e+01,0.000000000000e+00
146,-1.500000000000e-01,1.496400000000e+01,0.000000000000e+00
147,1.500000000000e-01,1.496400000000e+01,2.000000000000e+00
148,-1.500000000000e-01,1.496400000000e+01,2.000000000000e+00
149,-1.200000000000e+00,2.503000000000e+01,8.500000000000e-01
150,-1.200000000000e+00,2.503000000000e+01,1.150000000000e+00
151,1.200000000000e+00,2.503000000000e+01,8.500000000000e-01
152,1.200000000000e+00,2.503000000000e+01,1.150000000000e+00
153,1.500000000000e-01,2.496400000000e+01,0.000000000000e+00
154,-1.500000000000e-01,2.496400000000e+01,0.000000000000e+00
155,1.500000000000e-01,2.496400000000e+01,2.000000000000e+00
156,-1.500000000000e-01,2.496400000000e+01,2.000000000000e+00
157,-1.200000000000e+00,3.252121320344e+01,3.939339828220e-01
158,-1.200000000000e+00,3.503000000000e+01,8.500000000000e-01
159,-1.200000000000e+00,3.752121320344e+01,1.393933982822e+00
160,-1.200000000000e+00,3.252121320344e+01,1.606066017178e+00
161,-1.200000000000e+00,3.503000000000e+01,1.150000000000e+00
162,-1.200000000000e+00,3.752121320344e+01,6.060660171780e-01
163,1.200000000000e+00,3.252121320344e+01,3.939339828220e-01
164,1.200000000000e+00,3.503000000000e+01,8.500000000000e-01
165,1.200000000000e+00,3.752121320344e+01,1.393933982822e+00
166,1.200000000000e+00,3.252121320344e+01,1.606066017178e+00
167,1.200000000000e+00,3.503000000000e+01,1.150000000000e+00
168,1.200000000000e+00,3.752121320344e+01,6.060660171780e-01
169,-4.939339828220e-01,3.247454415588e+01,0.000000000000e+00
170,1.500000000000e-01,3.496400000000e+01,0.000000000000e+00
171,7.060660171780e-01,3.747454415588e+01,0.000000000000e+00
172,4.939339828220e-01,3.247454415588e+01,0.000000000000e+00
173,-1.500000000000e-01,3.496400000000e+01,0.000000000000e+00
174,-7.060660171780e-01,3.747454415588e+01,0.000000000000e+00
175,-4.939339828220e-01,3.247454415588e+01,2.000000000000e+00
176,1.500000000000e-01,3.496400000000e+01,2.000000000000e+00
177,7.060660171780e-01,3.747454415588e+01,2.000000000000e+00
178,4.939339828220e-01,3.247454415588e+01,2.000000000000e+00
179,-1.500000000000e-01,3.496400000000e+01,2.000000000000e+00
180,-7.060660171780e-01,3.747454415588e+01,2.000000000000e+00
*ELEMENT,TYPE=B31,ELSET=ALL
1,1,25
2,25,26
3,26,27
4,27,5
5,2,28
6,28,29
7,29,30
8,30,6
9,3,31
10,31,32
11,32,33
12,33,7
13,4,34
14,34,35
15,35,36
16,36,8
17,5,37
18,37,9
19,6,38
20,38,10
21,7,39
22,39,11
23,8,40
24,40,12
25,9,13
26,10,14
27,11,15
28,12,16
29,13,17
30,14,18
31,15,19
32,16,20
33,17,41
34,41,42
35,42,43
36,43,21
37,18,44
38,44,45
39,45,46
40,46,22
41,19,47
42,47,48
43,48,49
44,49,23
45,20,50
46,50,51
47,51,52
48,52,24
49,1,53
50,53,54
51,54,55
52,55,2
53,3,56
54,56,57
55,57,58
56,58,4
57,1,59
58,59,60
59,60,61
60,61,3
61,2,62
62,62,63
63,63,64
64,64,4
65,5,65
66,65,6
67,7,66
68,66,8
69,5,67
70,67,7
71,6,68
72,68,8
73,9,69
74,69,10
75,11,70
76,70,12
77,9,71
78,71,11
79,10,72
80,72,12
81,13,73
82,73,74
83,74,75
84,75,14
85,15,76
86,76,77
87,77,78
88,78,16
89,13,79
90,79,80
91,80,81
92,81,15
93,14,82
94,82,83
95,83,84
96,84,16
97,17,85
98,85,18
99,19,86
100,86,20
101,17,87
102,87,19
103,18,88
104,88,20
105,21,89
106,89,90
107,90,91
108,91,92
109,92,93
110,93,94
111,94,95
112,95,22
113,23,96
114,96,97
115,97,98
116,98,99
117,99,100
118,100,101
119,101,102
120,102,24
121,21,103
122,103,104
123,104,105
124,105,106
125,106,107
126,107,108
127,108,109
128,109,23
129,22,110
130,110,111
131,111,112
132,112,113
133,113,114
134,114,115
135,115,116
136,116,24
137,1,117
138,117,118
139,118,119
140,119,7
141,3,120
142,120,121
143,121,122
144,122,5
145,2,123
146,123,124
147,124,125
148,125,8
149,4,126
150,126,127
151,127,128
152,128,6
153,1,129
154,129,130
155,130,131
156,131,6
157,2,132
158,132,133
159,133,134
160,134,5
161,3,135
162,135,136
163,136,137
164,137,8
165,4,138
166,138,139
167,139,140
168,140,7
169,5,141
170,141,11
171,7,142
172,142,9
173,6,143
174,143,12
175,8,144
176,144,10
177,5,145
178,145,10
179,6,146
180,146,9
181,7,147
182,147,12
183,8,148
184,148,11
185,9,149
186,149,15
187,11,150
188,150,13
189,10,151
190,151,16
191,12,152
192,152,14
193,9,153
194,153,14
195,10,154
196,154,13
197,11,155
198,155,16
199,12,156
200,156,15
201,13,157
202,157,158
203,158,159
204,159,19
205,15,160
206,160,161
207,161,162
208,162,17
209,14,163
210,163,164
211,164,165
212,165,20
213,16,166
214,166,167
215,167,168
216,168,18
217,13,169
218,169,170
219,170,171
220,171,18
221,14,172
222,172,173
223,173,174
224,174,17
225,15,175
226,175,176
227,176,177
228,177,20
229,16,178
230,178,179
231,179,180
232,180,19
233,17,23
234,19,21
235,18,24
236,20,22
237,17,22
238,18,21
239,19,24
240,20,23
*NSET,NSET=NALL,GENERATE
1,180,1
*NSET,NSET=LEFT
1,2,3,4
*NSET,NSET=RIGHT
21,22,23,24
*MATERIAL,NAME=STEEL
*ELASTIC
2.100000000000e+11,0.300000000000
*BEAM SECTION,ELSET=ALL,MATERIAL=STEEL,SECTION=RECT
6.000000000000e-02,4.000000000000e-02
0.371390676354,0.557086014531,0.742781352708
*BOUNDARY
LEFT,1,6,0.0
*STEP
*STATIC
*BOUNDARY
21,1,1,5.000000000000e-03
21,2,2,0.0
21,3,3,-6.000000000000e-03
*BOUNDARY
22,1,1,5.000000000000e-03
22,2,2,0.0
22,3,3,6.000000000000e-03
*BOUNDARY
23,1,1,-5.000000000000e-03
23,2,2,0.0
23,3,3,-6.000000000000e-03
*BOUNDARY
24,1,1,-5.000000000000e-03
24,2,2,0.0
24,3,3,6.000000000000e-03
*NODE FILE,NSET=NALL
U
*NODE PRINT,NSET=NALL
U
*NODE PRINT,NSET=RIGHT
RF
*EL PRINT,ELSET=ALL,TOTALS=YES
ELSE
*END STEP
