*HEADING
Normalized cross-passage space-truss torsion benchmark
*NODE
1,-1.200000000000e+00,0.000000000000e+00,0.000000000000e+00
2,1.200000000000e+00,0.000000000000e+00,0.000000000000e+00
3,-1.200000000000e+00,0.000000000000e+00,2.000000000000e+00
4,1.200000000000e+00,0.000000000000e+00,2.000000000000e+00
5,-1.200000000000e+00,1.000000000000e+01,0.000000000000e+00
6,1.200000000000e+00,1.000000000000e+01,0.000000000000e+00
7,-1.200000000000e+00,1.000000000000e+01,2.000000000000e+00
8,1.200000000000e+00,1.000000000000e+01,2.000000000000e+00
9,-1.200000000000e+00,2.000000000000e+01,0.000000000000e+00
10,1.200000000000e+00,2.000000000000e+01,0.000000000000e+00
11,-1.200000000000e+00,2.000000000000e+01,2.000000000000e+00
12,1.200000000000e+00,2.000000000000e+01,2.000000000000e+00
13,-1.200000000000e+00,3.000000000000e+01,0.000000000000e+00
14,1.200000000000e+00,3.000000000000e+01,0.000000000000e+00
15,-1.200000000000e+00,3.000000000000e+01,2.000000000000e+00
16,1.200000000000e+00,3.000000000000e+01,2.000000000000e+00
17,-1.200000000000e+00,4.000000000000e+01,0.000000000000e+00
18,1.200000000000e+00,4.000000000000e+01,0.000000000000e+00
19,-1.200000000000e+00,4.000000000000e+01,2.000000000000e+00
20,1.200000000000e+00,4.000000000000e+01,2.000000000000e+00
21,-1.200000000000e+00,5.000000000000e+01,0.000000000000e+00
22,1.200000000000e+00,5.000000000000e+01,0.000000000000e+00
23,-1.200000000000e+00,5.000000000000e+01,2.000000000000e+00
24,1.200000000000e+00,5.000000000000e+01,2.000000000000e+00
25,-1.200000000000e+00,5.000000000000e+00,-1.500000000000e-01
26,1.200000000000e+00,5.000000000000e+00,1.500000000000e-01
27,-1.200000000000e+00,5.000000000000e+00,1.850000000000e+00
28,1.200000000000e+00,5.000000000000e+00,2.150000000000e+00
29,-1.200000000000e+00,2.250000000000e+01,-1.060660171780e-01
30,-1.200000000000e+00,2.500000000000e+01,-1.500000000000e-01
31,-1.200000000000e+00,2.750000000000e+01,-1.060660171780e-01
32,1.200000000000e+00,2.250000000000e+01,1.060660171780e-01
33,1.200000000000e+00,2.500000000000e+01,1.500000000000e-01
34,1.200000000000e+00,2.750000000000e+01,1.060660171780e-01
35,-1.200000000000e+00,2.250000000000e+01,1.893933982822e+00
36,-1.200000000000e+00,2.500000000000e+01,1.850000000000e+00
37,-1.200000000000e+00,2.750000000000e+01,1.893933982822e+00
38,1.200000000000e+00,2.250000000000e+01,2.106066017178e+00
39,1.200000000000e+00,2.500000000000e+01,2.150000000000e+00
40,1.200000000000e+00,2.750000000000e+01,2.106066017178e+00
41,-1.200000000000e+00,3.250000000000e+01,-1.060660171780e-01
42,-1.200000000000e+00,3.500000000000e+01,-1.500000000000e-01
43,-1.200000000000e+00,3.750000000000e+01,-1.060660171780e-01
44,1.200000000000e+00,3.250000000000e+01,1.060660171780e-01
45,1.200000000000e+00,3.500000000000e+01,1.500000000000e-01
46,1.200000000000e+00,3.750000000000e+01,1.060660171780e-01
47,-1.200000000000e+00,3.250000000000e+01,1.893933982822e+00
48,-1.200000000000e+00,3.500000000000e+01,1.850000000000e+00
49,-1.200000000000e+00,3.750000000000e+01,1.893933982822e+00
50,1.200000000000e+00,3.250000000000e+01,2.106066017178e+00
51,1.200000000000e+00,3.500000000000e+01,2.150000000000e+00
52,1.200000000000e+00,3.750000000000e+01,2.106066017178e+00
53,0.000000000000e+00,-3.600000000000e-02,0.000000000000e+00
54,0.000000000000e+00,3.600000000000e-02,2.000000000000e+00
55,-1.200000000000e+00,3.000000000000e-02,1.000000000000e+00
56,1.200000000000e+00,-3.000000000000e-02,1.000000000000e+00
57,0.000000000000e+00,9.964000000000e+00,0.000000000000e+00
58,0.000000000000e+00,1.003600000000e+01,2.000000000000e+00
59,-1.200000000000e+00,1.003000000000e+01,1.000000000000e+00
60,1.200000000000e+00,9.970000000000e+00,1.000000000000e+00
61,0.000000000000e+00,1.996400000000e+01,0.000000000000e+00
62,0.000000000000e+00,2.003600000000e+01,2.000000000000e+00
63,-1.200000000000e+00,2.003000000000e+01,1.000000000000e+00
64,1.200000000000e+00,1.997000000000e+01,1.000000000000e+00
65,0.000000000000e+00,2.996400000000e+01,0.000000000000e+00
66,0.000000000000e+00,3.003600000000e+01,2.000000000000e+00
67,-1.200000000000e+00,3.003000000000e+01,1.000000000000e+00
68,1.200000000000e+00,2.997000000000e+01,1.000000000000e+00
69,-6.000000000000e-01,3.997454415588e+01,0.000000000000e+00
70,0.000000000000e+00,3.996400000000e+01,0.000000000000e+00
71,6.000000000000e-01,3.997454415588e+01,0.000000000000e+00
72,-6.000000000000e-01,4.002545584412e+01,2.000000000000e+00
73,0.000000000000e+00,4.003600000000e+01,2.000000000000e+00
74,6.000000000000e-01,4.002545584412e+01,2.000000000000e+00
75,-1.200000000000e+00,4.002121320344e+01,5.000000000000e-01
76,-1.200000000000e+00,4.003000000000e+01,1.000000000000e+00
77,-1.200000000000e+00,4.002121320344e+01,1.500000000000e+00
78,1.200000000000e+00,3.997878679656e+01,5.000000000000e-01
79,1.200000000000e+00,3.997000000000e+01,1.000000000000e+00
80,1.200000000000e+00,3.997878679656e+01,1.500000000000e+00
81,-9.000000000000e-01,4.998622339643e+01,0.000000000000e+00
82,-6.000000000000e-01,4.997454415588e+01,0.000000000000e+00
83,-3.000000000000e-01,4.996674033683e+01,0.000000000000e+00
84,0.000000000000e+00,4.996400000000e+01,0.000000000000e+00
85,3.000000000000e-01,4.996674033683e+01,0.000000000000e+00
86,6.000000000000e-01,4.997454415588e+01,0.000000000000e+00
87,9.000000000000e-01,4.998622339643e+01,0.000000000000e+00
88,-9.000000000000e-01,5.001377660357e+01,2.000000000000e+00
89,-6.000000000000e-01,5.002545584412e+01,2.000000000000e+00
90,-3.000000000000e-01,5.003325966317e+01,2.000000000000e+00
91,0.000000000000e+00,5.003600000000e+01,2.000000000000e+00
92,3.000000000000e-01,5.003325966317e+01,2.000000000000e+00
93,6.000000000000e-01,5.002545584412e+01,2.000000000000e+00
94,9.000000000000e-01,5.001377660357e+01,2.000000000000e+00
95,-1.200000000000e+00,5.001148050297e+01,2.500000000000e-01
96,-1.200000000000e+00,5.002121320344e+01,5.000000000000e-01
97,-1.200000000000e+00,5.002771638598e+01,7.500000000000e-01
98,-1.200000000000e+00,5.003000000000e+01,1.000000000000e+00
99,-1.200000000000e+00,5.002771638598e+01,1.250000000000e+00
100,-1.200000000000e+00,5.002121320344e+01,1.500000000000e+00
101,-1.200000000000e+00,5.001148050297e+01,1.750000000000e+00
102,1.200000000000e+00,4.998851949703e+01,2.500000000000e-01
103,1.200000000000e+00,4.997878679656e+01,5.000000000000e-01
104,1.200000000000e+00,4.997228361402e+01,7.500000000000e-01
105,1.200000000000e+00,4.997000000000e+01,1.000000000000e+00
106,1.200000000000e+00,4.997228361402e+01,1.250000000000e+00
107,1.200000000000e+00,4.997878679656e+01,1.500000000000e+00
108,1.200000000000e+00,4.998851949703e+01,1.750000000000e+00
109,-1.200000000000e+00,5.030000000000e+00,8.500000000000e-01
110,-1.200000000000e+00,5.030000000000e+00,1.150000000000e+00
111,1.200000000000e+00,5.030000000000e+00,8.500000000000e-01
112,1.200000000000e+00,5.030000000000e+00,1.150000000000e+00
113,1.500000000000e-01,4.964000000000e+00,0.000000000000e+00
114,-1.500000000000e-01,4.964000000000e+00,0.000000000000e+00
115,1.500000000000e-01,4.964000000000e+00,2.000000000000e+00
116,-1.500000000000e-01,4.964000000000e+00,2.000000000000e+00
117,-1.200000000000e+00,1.503000000000e+01,8.500000000000e-01
118,-1.200000000000e+00,1.503000000000e+01,1.150000000000e+00
119,1.200000000000e+00,1.503000000000e+01,8.500000000000e-01
120,1.200000000000e+00,1.503000000000e+01,1.150000000000e+00
121,1.500000000000e-01,1.496400000000e+01,0.000000000000e+00
122,-1.500000000000e-01,1.496400000000e+01,0.000000000000e+00
123,1.500000000000e-01,1.496400000000e+01,2.000000000000e+00
124,-1.500000000000e-01,1.496400000000e+01,2.000000000000e+00
125,-1.200000000000e+00,2.503000000000e+01,8.500000000000e-01
126,-1.200000000000e+00,2.503000000000e+01,1.150000000000e+00
127,1.200000000000e+00,2.503000000000e+01,8.500000000000e-01
128,1.200000000000e+00,2.503000000000e+01,1.150000000000e+00
129,1.500000000000e-01,2.496400000000e+01,0.000000000000e+00
130,-1.500000000000e-01,2.496400000000e+01,0.000000000000e+00
131,1.500000000000e-01,2.496400000000e+01,2.000000000000e+00
132,-1.500000000000e-01,2.496400000000e+01,2.000000000000e+00
133,-1.200000000000e+00,3.503000000000e+01,8.500000000000e-01
134,-1.200000000000e+00,3.503000000000e+01,1.150000000000e+00
135,1.200000000000e+00,3.503000000000e+01,8.500000000000e-01
136,1.200000000000e+00,3.503000000000e+01,1.150000000000e+00
137,1.500000000000e-01,3.496400000000e+01,0.000000000000e+00
138,-1.500000000000e-01,3.496400000000e+01,0.000000000000e+00
139,1.500000000000e-01,3.496400000000e+01,2.000000000000e+00
140,-1.500000000000e-01,3.496400000000e+01,2.000000000000e+00
141,-1.200000000000e+00,4.126148050297e+01,1.925974851452e-01
142,-1.200000000000e+00,4.252121320344e+01,3.939339828220e-01
143,-1.200000000000e+00,4.377771638598e+01,6.114180701233e-01
144,-1.200000000000e+00,4.503000000000e+01,8.500000000000e-01
145,-1.200000000000e+00,4.627771638598e+01,1.111418070123e+00
146,-1.200000000000e+00,4.752121320344e+01,1.393933982822e+00
147,-1.200000000000e+00,4.876148050297e+01,1.692597485145e+00
148,-1.200000000000e+00,4.126148050297e+01,1.807402514855e+00
149,-1.200000000000e+00,4.252121320344e+01,1.606066017178e+00
150,-1.200000000000e+00,4.377771638598e+01,1.388581929877e+00
151,-1.200000000000e+00,4.503000000000e+01,1.150000000000e+00
152,-1.200000000000e+00,4.627771638598e+01,8.885819298767e-01
153,-1.200000000000e+00,4.752121320344e+01,6.060660171780e-01
154,-1.200000000000e+00,4.876148050297e+01,3.074025148548e-01
155,1.200000000000e+00,4.126148050297e+01,1.925974851452e-01
156,1.200000000000e+00,4.252121320344e+01,3.939339828220e-01
157,1.200000000000e+00,4.377771638598e+01,6.114180701233e-01
158,1.200000000000e+00,4.503000000000e+01,8.500000000000e-01
159,1.200000000000e+00,4.627771638598e+01,1.111418070123e+00
160,1.200000000000e+00,4.752121320344e+01,1.393933982822e+00
161,1.200000000000e+00,4.876148050297e+01,1.692597485145e+00
162,1.200000000000e+00,4.126148050297e+01,1.807402514855e+00
163,1.200000000000e+00,4.252121320344e+01,1.606066017178e+00
164,1.200000000000e+00,4.377771638598e+01,1.388581929877e+00
165,1.200000000000e+00,4.503000000000e+01,1.150000000000e+00
166,1.200000000000e+00,4.627771638598e+01,8.885819298767e-01
167,1.200000000000e+00,4.752121320344e+01,6.060660171780e-01
168,1.200000000000e+00,4.876148050297e+01,3.074025148548e-01
169,-8.425974851452e-01,4.123622339643e+01,0.000000000000e+00
170,-4.939339828220e-01,4.247454415588e+01,0.000000000000e+00
171,-1.614180701233e-01,4.371674033683e+01,0.000000000000e+00
172,1.500000000000e-01,4.496400000000e+01,0.000000000000e+00
173,4.385819298767e-01,4.621674033683e+01,0.000000000000e+00
174,7.060660171780e-01,4.747454415588e+01,0.000000000000e+00
175,9.574025148548e-01,4.873622339643e+01,0.000000000000e+00
176,8.425974851452e-01,4.123622339643e+01,0.000000000000e+00
177,4.939339828220e-01,4.247454415588e+01,0.000000000000e+00
178,1.614180701233e-01,4.371674033683e+01,0.000000000000e+00
179,-1.500000000000e-01,4.496400000000e+01,0.000000000000e+00
180,-4.385819298767e-01,4.621674033683e+01,0.000000000000e+00
181,-7.060660171780e-01,4.747454415588e+01,0.000000000000e+00
182,-9.574025148548e-01,4.873622339643e+01,0.000000000000e+00
183,-8.425974851452e-01,4.123622339643e+01,2.000000000000e+00
184,-4.939339828220e-01,4.247454415588e+01,2.000000000000e+00
185,-1.614180701233e-01,4.371674033683e+01,2.000000000000e+00
186,1.500000000000e-01,4.496400000000e+01,2.000000000000e+00
187,4.385819298767e-01,4.621674033683e+01,2.000000000000e+00
188,7.060660171780e-01,4.747454415588e+01,2.000000000000e+00
189,9.574025148548e-01,4.873622339643e+01,2.000000000000e+00
190,8.425974851452e-01,4.123622339643e+01,2.000000000000e+00
191,4.939339828220e-01,4.247454415588e+01,2.000000000000e+00
192,1.614180701233e-01,4.371674033683e+01,2.000000000000e+00
193,-1.500000000000e-01,4.496400000000e+01,2.000000000000e+00
194,-4.385819298767e-01,4.621674033683e+01,2.000000000000e+00
195,-7.060660171780e-01,4.747454415588e+01,2.000000000000e+00
196,-9.574025148548e-01,4.873622339643e+01,2.000000000000e+00
*ELEMENT,TYPE=B31,ELSET=ALL
1,1,25
2,25,5
3,2,26
4,26,6
5,3,27
6,27,7
7,4,28
8,28,8
9,5,9
10,6,10
11,7,11
12,8,12
13,9,29
14,29,30
15,30,31
16,31,13
17,10,32
18,32,33
19,33,34
20,34,14
21,11,35
22,35,36
23,36,37
24,37,15
25,12,38
26,38,39
27,39,40
28,40,16
29,13,41
30,41,42
31,42,43
32,43,17
33,14,44
34,44,45
35,45,46
36,46,18
37,15,47
38,47,48
39,48,49
40,49,19
41,16,50
42,50,51
43,51,52
44,52,20
45,17,21
46,18,22
47,19,23
48,20,24
49,1,53
50,53,2
51,3,54
52,54,4
53,1,55
54,55,3
55,2,56
56,56,4
57,5,57
58,57,6
59,7,58
60,58,8
61,5,59
62,59,7
63,6,60
64,60,8
65,9,61
66,61,10
67,11,62
68,62,12
69,9,63
70,63,11
71,10,64
72,64,12
73,13,65
74,65,14
75,15,66
76,66,16
77,13,67
78,67,15
79,14,68
80,68,16
81,17,69
82,69,70
83,70,71
84,71,18
85,19,72
86,72,73
87,73,74
88,74,20
89,17,75
90,75,76
91,76,77
92,77,19
93,18,78
94,78,79
95,79,80
96,80,20
97,21,81
98,81,82
99,82,83
100,83,84
101,84,85
102,85,86
103,86,87
104,87,22
105,23,88
106,88,89
107,89,90
108,90,91
109,91,92
110,92,93
111,93,94
112,94,24
113,21,95
114,95,96
115,96,97
116,97,98
117,98,99
118,99,100
119,100,101
120,101,23
121,22,102
122,102,103
123,103,104
124,104,105
125,105,106
126,106,107
127,107,108
128,108,24
129,1,109
130,109,7
131,3,110
132,110,5
133,2,111
134,111,8
135,4,112
136,112,6
137,1,113
138,113,6
139,2,114
140,114,5
141,3,115
142,115,8
143,4,116
144,116,7
145,5,117
146,117,11
147,7,118
148,118,9
149,6,119
150,119,12
151,8,120
152,120,10
153,5,121
154,121,10
155,6,122
156,122,9
157,7,123
158,123,12
159,8,124
160,124,11
161,9,125
162,125,15
163,11,126
164,126,13
165,10,127
166,127,16
167,12,128
168,128,14
169,9,129
170,129,14
171,10,130
172,130,13
173,11,131
174,131,16
175,12,132
176,132,15
177,13,133
178,133,19
179,15,134
180,134,17
181,14,135
182,135,20
183,16,136
184,136,18
185,13,137
186,137,18
187,14,138
188,138,17
189,15,139
190,139,20
191,16,140
192,140,19
193,17,141
194,141,142
195,142,143
196,143,144
197,144,145
198,145,146
199,146,147
200,147,23
201,19,148
202,148,149
203,149,150
204,150,151
205,151,152
206,152,153
207,153,154
208,154,21
209,18,155
210,155,156
211,156,157
212,157,158
213,158,159
214,159,160
215,160,161
216,161,24
217,20,162
218,162,163
219,163,164
220,164,165
221,165,166
222,166,167
223,167,168
224,168,22
225,17,169
226,169,170
227,170,171
228,171,172
229,172,173
230,173,174
231,174,175
232,175,22
233,18,176
234,176,177
235,177,178
236,178,179
237,179,180
238,180,181
239,181,182
240,182,21
241,19,183
242,183,184
243,184,185
244,185,186
245,186,187
246,187,188
247,188,189
248,189,24
249,20,190
250,190,191
251,191,192
252,192,193
253,193,194
254,194,195
255,195,196
256,196,23
*NSET,NSET=NALL,GENERATE
1,196,1
*NSET,NSET=LEFT
1,2,3,4
*NSET,NSET=RIGHT
21,22,23,24
*MATERIAL,NAME=STEEL
*ELASTIC
2.100000000000e+11,0.300000000000
*BEAM SECTION,ELSET=ALL,MATERIAL=STEEL,SECTION=RECT
6.000000000000e-02,4.000000000000e-02
0.371390676354,0.557086014531,0.742781352708
*BOUNDARY
LEFT,1,6,0.0
*STEP
*STATIC
*BOUNDARY
21,1,1,5.000000000000e-03
21,2,2,0.0
21,3,3,-6.000000000000e-03
*BOUNDARY
22,1,1,5.000000000000e-03
22,2,2,0.0
22,3,3,6.000000000000e-03
*BOUNDARY
23,1,1,-5.000000000000e-03
23,2,2,0.0
23,3,3,-6.000000000000e-03
*BOUNDARY
24,1,1,-5.000000000000e-03
24,2,2,0.0
24,3,3,6.000000000000e-03
*NODE FILE,NSET=NALL
U
*NODE PRINT,NSET=NALL
U
*NODE PRINT,NSET=RIGHT
RF
*EL PRINT,ELSET=ALL,TOTALS=YES
ELSE
*END STEP
