*HEADING
Normalized cross-passage space-truss torsion benchmark
*NODE
1,-1.200000000000e+00,0.000000000000e+00,0.000000000000e+00
2,1.200000000000e+00,0.000000000000e+00,0.000000000000e+00
3,-1.200000000000e+00,0.000000000000e+00,2.000000000000e+00
4,1.200000000000e+00,0.000000000000e+00,2.000000000000e+00
5,-1.200000000000e+00,1.000000000000e+01,0.000000000000e+00
6,1.200000000000e+00,1.000000000000e+01,0.000000000000e+00
7,-1.200000000000e+00,1.000000000000e+01,2.000000000000e+00
8,1.200000000000e+00,1.000000000000e+01,2.000000000000e+00
9,-1.200000000000e+00,2.000000000000e+01,0.000000000000e+00
10,1.200000000000e+00,2.000000000000e+01,0.000000000000e+00
11,-1.200000000000e+00,2.000000000000e+01,2.000000000000e+00
12,1.200000000000e+00,2.000000000000e+01,2.000000000000e+00
13,-1.200000000000e+00,3.000000000000e+01,0.000000000000e+00
14,1.200000000000e+00,3.000000000000e+01,0.000000000000e+00
15,-1.200000000000e+00,3.000000000000e+01,2.000000000000e+00
16,1.200000000000e+00,3.000000000000e+01,2.000000000000e+00
17,-1.200000000000e+00,4.000000000000e+01,0.000000000000e+00
18,1.200000000000e+00,4.000000000000e+01,0.000000000000e+00
19,-1.200000000000e+00,4.000000000000e+01,2.000000000000e+00
20,1.200000000000e+00,4.000000000000e+01,2.000000000000e+00
21,-1.200000000000e+00,5.000000000000e+01,0.000000000000e+00
22,1.200000000000e+00,5.000000000000e+01,0.000000000000e+00
23,-1.200000000000e+00,5.000000000000e+01,2.000000000000e+00
24,1.200000000000e+00,5.000000000000e+01,2.000000000000e+00
25,-1.200000000000e+00,4.250000000000e+01,-1.060660171780e-01
26,-1.200000000000e+00,4.500000000000e+01,-1.500000000000e-01
27,-1.200000000000e+00,4.750000000000e+01,-1.060660171780e-01
28,1.200000000000e+00,4.250000000000e+01,1.060660171780e-01
29,1.200000000000e+00,4.500000000000e+01,1.500000000000e-01
30,1.200000000000e+00,4.750000000000e+01,1.060660171780e-01
31,-1.200000000000e+00,4.250000000000e+01,1.893933982822e+00
32,-1.200000000000e+00,4.500000000000e+01,1.850000000000e+00
33,-1.200000000000e+00,4.750000000000e+01,1.893933982822e+00
34,1.200000000000e+00,4.250000000000e+01,2.106066017178e+00
35,1.200000000000e+00,4.500000000000e+01,2.150000000000e+00
36,1.200000000000e+00,4.750000000000e+01,2.106066017178e+00
37,-6.000000000000e-01,-2.545584412272e-02,0.000000000000e+00
38,0.000000000000e+00,-3.600000000000e-02,0.000000000000e+00
39,6.000000000000e-01,-2.545584412272e-02,0.000000000000e+00
40,-6.000000000000e-01,2.545584412272e-02,2.000000000000e+00
41,0.000000000000e+00,3.600000000000e-02,2.000000000000e+00
42,6.000000000000e-01,2.545584412272e-02,2.000000000000e+00
43,-1.200000000000e+00,2.121320343560e-02,5.000000000000e-01
44,-1.200000000000e+00,3.000000000000e-02,1.000000000000e+00
45,-1.200000000000e+00,2.121320343560e-02,1.500000000000e+00
46,1.200000000000e+00,-2.121320343560e-02,5.000000000000e-01
47,1.200000000000e+00,-3.000000000000e-02,1.000000000000e+00
48,1.200000000000e+00,-2.121320343560e-02,1.500000000000e+00
49,-6.000000000000e-01,1.997454415588e+01,0.000000000000e+00
50,0.000000000000e+00,1.996400000000e+01,0.000000000000e+00
51,6.000000000000e-01,1.997454415588e+01,0.000000000000e+00
52,-6.000000000000e-01,2.002545584412e+01,2.000000000000e+00
53,0.000000000000e+00,2.003600000000e+01,2.000000000000e+00
54,6.000000000000e-01,2.002545584412e+01,2.000000000000e+00
55,-1.200000000000e+00,2.002121320344e+01,5.000000000000e-01
56,-1.200000000000e+00,2.003000000000e+01,1.000000000000e+00
57,-1.200000000000e+00,2.002121320344e+01,1.500000000000e+00
58,1.200000000000e+00,1.997878679656e+01,5.000000000000e-01
59,1.200000000000e+00,1.997000000000e+01,1.000000000000e+00
60,1.200000000000e+00,1.997878679656e+01,1.500000000000e+00
61,0.000000000000e+00,2.996400000000e+01,0.000000000000e+00
62,0.000000000000e+00,3.003600000000e+01,2.000000000000e+00
63,-1.200000000000e+00,3.003000000000e+01,1.000000000000e+00
64,1.200000000000e+00,2.997000000000e+01,1.000000000000e+00
65,-6.000000000000e-01,4.997454415588e+01,0.000000000000e+00
66,0.000000000000e+00,4.996400000000e+01,0.000000000000e+00
67,6.000000000000e-01,4.997454415588e+01,0.000000000000e+00
68,-6.000000000000e-01,5.002545584412e+01,2.000000000000e+00
69,0.000000000000e+00,5.003600000000e+01,2.000000000000e+00
70,6.000000000000e-01,5.002545584412e+01,2.000000000000e+00
71,-1.200000000000e+00,5.002121320344e+01,5.000000000000e-01
72,-1.200000000000e+00,5.003000000000e+01,1.000000000000e+00
73,-1.200000000000e+00,5.002121320344e+01,1.500000000000e+00
74,1.200000000000e+00,4.997878679656e+01,5.000000000000e-01
75,1.200000000000e+00,4.997000000000e+01,1.000000000000e+00
76,1.200000000000e+00,4.997878679656e+01,1.500000000000e+00
77,-1.200000000000e+00,1.261480502971e+00,1.925974851452e-01
78,-1.200000000000e+00,2.521213203436e+00,3.939339828220e-01
79,-1.200000000000e+00,3.777716385975e+00,6.114180701233e-01
80,-1.200000000000e+00,5.030000000000e+00,8.500000000000e-01
81,-1.200000000000e+00,6.277716385975e+00,1.111418070123e+00
82,-1.200000000000e+00,7.521213203436e+00,1.393933982822e+00
83,-1.200000000000e+00,8.761480502971e+00,1.692597485145e+00
84,-1.200000000000e+00,1.261480502971e+00,1.807402514855e+00
85,-1.200000000000e+00,2.521213203436e+00,1.606066017178e+00
86,-1.200000000000e+00,3.777716385975e+00,1.388581929877e+00
87,-1.200000000000e+00,5.030000000000e+00,1.150000000000e+00
88,-1.200000000000e+00,6.277716385975e+00,8.885819298767e-01
89,-1.200000000000e+00,7.521213203436e+00,6.060660171780e-01
90,-1.200000000000e+00,8.761480502971e+00,3.074025148548e-01
91,1.200000000000e+00,1.261480502971e+00,1.925974851452e-01
92,1.200000000000e+00,2.521213203436e+00,3.939339828220e-01
93,1.200000000000e+00,3.777716385975e+00,6.114180701233e-01
94,1.200000000000e+00,5.030000000000e+00,8.500000000000e-01
95,1.200000000000e+00,6.277716385975e+00,1.111418070123e+00
96,1.200000000000e+00,7.521213203436e+00,1.393933982822e+00
97,1.200000000000e+00,8.761480502971e+00,1.692597485145e+00
98,1.200000000000e+00,1.261480502971e+00,1.807402514855e+00
99,1.200000000000e+00,2.521213203436e+00,1.606066017178e+00
100,1.200000000000e+00,3.777716385975e+00,1.388581929877e+00
101,1.200000000000e+00,5.030000000000e+00,1.150000000000e+00
102,1.200000000000e+00,6.277716385975e+00,8.885819298767e-01
103,1.200000000000e+00,7.521213203436e+00,6.060660171780e-01
104,1.200000000000e+00,8.761480502971e+00,3.074025148548e-01
105,-8.425974851452e-01,1.236223396435e+00,0.000000000000e+00
106,-4.939339828220e-01,2.474544155877e+00,0.000000000000e+00
107,-1.614180701233e-01,3.716740336830e+00,0.000000000000e+00
108,1.500000000000e-01,4.964000000000e+00,0.000000000000e+00
109,4.385819298767e-01,6.216740336830e+00,0.000000000000e+00
110,7.060660171780e-01,7.474544155877e+00,0.000000000000e+00
111,9.574025148548e-01,8.736223396435e+00,0.000000000000e+00
112,8.425974851452e-01,1.236223396435e+00,0.000000000000e+00
113,4.939339828220e-01,2.474544155877e+00,0.000000000000e+00
114,1.614180701233e-01,3.716740336830e+00,0.000000000000e+00
115,-1.500000000000e-01,4.964000000000e+00,0.000000000000e+00
116,-4.385819298767e-01,6.216740336830e+00,0.000000000000e+00
117,-7.060660171780e-01,7.474544155877e+00,0.000000000000e+00
118,-9.574025148548e-01,8.736223396435e+00,0.000000000000e+00
119,-8.425974851452e-01,1.236223396435e+00,2.000000000000e+00
120,-4.939339828220e-01,2.474544155877e+00,2.000000000000e+00
121,-1.614180701233e-01,3.716740336830e+00,2.000000000000e+00
122,1.500000000000e-01,4.964000000000e+00,2.000000000000e+00
123,4.385819298767e-01,6.216740336830e+00,2.000000000000e+00
124,7.060660171780e-01,7.474544155877e+00,2.000000000000e+00
125,9.574025148548e-01,8.736223396435e+00,2.000000000000e+00
126,8.425974851452e-01,1.236223396435e+00,2.000000000000e+00
127,4.939339828220e-01,2.474544155877e+00,2.000000000000e+00
128,1.614180701233e-01,3.716740336830e+00,2.000000000000e+00
129,-1.500000000000e-01,4.964000000000e+00,2.000000000000e+00
130,-4.385819298767e-01,6.216740336830e+00,2.000000000000e+00
131,-7.060660171780e-01,7.474544155877e+00,2.000000000000e+00
132,-9.574025148548e-01,8.736223396435e+00,2.000000000000e+00
133,-1.200000000000e+00,2.126148050297e+01,1.925974851452e-01
134,-1.200000000000e+00,2.252121320344e+01,3.939339828220e-01
135,-1.200000000000e+00,2.377771638598e+01,6.114180701233e-01
136,-1.200000000000e+00,2.503000000000e+01,8.500000000000e-01
137,-1.200000000000e+00,2.627771638598e+01,1.111418070123e+00
138,-1.200000000000e+00,2.752121320344e+01,1.393933982822e+00
139,-1.200000000000e+00,2.876148050297e+01,1.692597485145e+00
140,-1.200000000000e+00,2.126148050297e+01,1.807402514855e+00
141,-1.200000000000e+00,2.252121320344e+01,1.606066017178e+00
142,-1.200000000000e+00,2.377771638598e+01,1.388581929877e+00
143,-1.200000000000e+00,2.503000000000e+01,1.150000000000e+00
144,-1.200000000000e+00,2.627771638598e+01,8.885819298767e-01
145,-1.200000000000e+00,2.752121320344e+01,6.060660171780e-01
146,-1.200000000000e+00,2.876148050297e+01,3.074025148548e-01
147,1.200000000000e+00,2.126148050297e+01,1.925974851452e-01
148,1.200000000000e+00,2.252121320344e+01,3.939339828220e-01
149,1.200000000000e+00,2.377771638598e+01,6.114180701233e-01
150,1.200000000000e+00,2.503000000000e+01,8.500000000000e-01
151,1.200000000000e+00,2.627771638598e+01,1.111418070123e+00
152,1.200000000000e+00,2.752121320344e+01,1.393933982822e+00
153,1.200000000000e+00,2.876148050297e+01,1.692597485145e+00
154,1.200000000000e+00,2.126148050297e+01,1.807402514855e+00
155,1.200000000000e+00,2.252121320344e+01,1.606066017178e+00
156,1.200000000000e+00,2.377771638598e+01,1.388581929877e+00
157,1.200000000000e+00,2.503000000000e+01,1.150000000000e+00
158,1.200000000000e+00,2.627771638598e+01,8.885819298767e-01
159,1.200000000000e+00,2.752121320344e+01,6.060660171780e-01
160,1.200000000000e+00,2.876148050297e+01,3.074025148548e-01
161,-8.425974851452e-01,2.123622339643e+01,0.000000000000e+00
162,-4.939339828220e-01,2.247454415588e+01,0.000000000000e+00
163,-1.614180701233e-01,2.371674033683e+01,0.000000000000e+00
164,1.500000000000e-01,2.496400000000e+01,0.000000000000e+00
165,4.385819298767e-01,2.621674033683e+01,0.000000000000e+00
166,7.060660171780e-01,2.747454415588e+01,0.000000000000e+00
167,9.574025148548e-01,2.873622339643e+01,0.000000000000e+00
168,8.425974851452e-01,2.123622339643e+01,0.000000000000e+00
169,4.939339828220e-01,2.247454415588e+01,0.000000000000e+00
170,1.614180701233e-01,2.371674033683e+01,0.000000000000e+00
171,-1.500000000000e-01,2.496400000000e+01,0.000000000000e+00
172,-4.385819298767e-01,2.621674033683e+01,0.000000000000e+00
173,-7.060660171780e-01,2.747454415588e+01,0.000000000000e+00
174,-9.574025148548e-01,2.873622339643e+01,0.000000000000e+00
175,-8.425974851452e-01,2.123622339643e+01,2.000000000000e+00
176,-4.939339828220e-01,2.247454415588e+01,2.000000000000e+00
177,-1.614180701233e-01,2.371674033683e+01,2.000000000000e+00
178,1.500000000000e-01,2.496400000000e+01,2.000000000000e+00
179,4.385819298767e-01,2.621674033683e+01,2.000000000000e+00
180,7.060660171780e-01,2.747454415588e+01,2.000000000000e+00
181,9.574025148548e-01,2.873622339643e+01,2.000000000000e+00
182,8.425974851452e-01,2.123622339643e+01,2.000000000000e+00
183,4.939339828220e-01,2.247454415588e+01,2.000000000000e+00
184,1.614180701233e-01,2.371674033683e+01,2.000000000000e+00
185,-1.500000000000e-01,2.496400000000e+01,2.000000000000e+00
186,-4.385819298767e-01,2.621674033683e+01,2.000000000000e+00
187,-7.060660171780e-01,2.747454415588e+01,2.000000000000e+00
188,-9.574025148548e-01,2.873622339643e+01,2.000000000000e+00
189,-1.200000000000e+00,3.126148050297e+01,1.925974851452e-01
190,-1.200000000000e+00,3.252121320344e+01,3.939339828220e-01
191,-1.200000000000e+00,3.377771638598e+01,6.114180701233e-01
192,-1.200000000000e+00,3.503000000000e+01,8.500000000000e-01
193,-1.200000000000e+00,3.627771638598e+01,1.111418070123e+00
194,-1.200000000000e+00,3.752121320344e+01,1.393933982822e+00
195,-1.200000000000e+00,3.876148050297e+01,1.692597485145e+00
196,-1.200000000000e+00,3.126148050297e+01,1.807402514855e+00
197,-1.200000000000e+00,3.252121320344e+01,1.606066017178e+00
198,-1.200000000000e+00,3.377771638598e+01,1.388581929877e+00
199,-1.200000000000e+00,3.503000000000e+01,1.150000000000e+00
200,-1.200000000000e+00,3.627771638598e+01,8.885819298767e-01
201,-1.200000000000e+00,3.752121320344e+01,6.060660171780e-01
202,-1.200000000000e+00,3.876148050297e+01,3.074025148548e-01
203,1.200000000000e+00,3.126148050297e+01,1.925974851452e-01
204,1.200000000000e+00,3.252121320344e+01,3.939339828220e-01
205,1.200000000000e+00,3.377771638598e+01,6.114180701233e-01
206,1.200000000000e+00,3.503000000000e+01,8.500000000000e-01
207,1.200000000000e+00,3.627771638598e+01,1.111418070123e+00
208,1.200000000000e+00,3.752121320344e+01,1.393933982822e+00
209,1.200000000000e+00,3.876148050297e+01,1.692597485145e+00
210,1.200000000000e+00,3.126148050297e+01,1.807402514855e+00
211,1.200000000000e+00,3.252121320344e+01,1.606066017178e+00
212,1.200000000000e+00,3.377771638598e+01,1.388581929877e+00
213,1.200000000000e+00,3.503000000000e+01,1.150000000000e+00
214,1.200000000000e+00,3.627771638598e+01,8.885819298767e-01
215,1.200000000000e+00,3.752121320344e+01,6.060660171780e-01
216,1.200000000000e+00,3.876148050297e+01,3.074025148548e-01
217,-8.425974851452e-01,3.123622339643e+01,0.000000000000e+00
218,-4.939339828220e-01,3.247454415588e+01,0.000000000000e+00
219,-1.614180701233e-01,3.371674033683e+01,0.000000000000e+00
220,1.500000000000e-01,3.496400000000e+01,0.000000000000e+00
221,4.385819298767e-01,3.621674033683e+01,0.000000000000e+00
222,7.060660171780e-01,3.747454415588e+01,0.000000000000e+00
223,9.574025148548e-01,3.873622339643e+01,0.000000000000e+00
224,8.425974851452e-01,3.123622339643e+01,0.000000000000e+00
225,4.939339828220e-01,3.247454415588e+01,0.000000000000e+00
226,1.614180701233e-01,3.371674033683e+01,0.000000000000e+00
227,-1.500000000000e-01,3.496400000000e+01,0.000000000000e+00
228,-4.385819298767e-01,3.621674033683e+01,0.000000000000e+00
229,-7.060660171780e-01,3.747454415588e+01,0.000000000000e+00
230,-9.574025148548e-01,3.873622339643e+01,0.000000000000e+00
231,-8.425974851452e-01,3.123622339643e+01,2.000000000000e+00
232,-4.939339828220e-01,3.247454415588e+01,2.000000000000e+00
233,-1.614180701233e-01,3.371674033683e+01,2.000000000000e+00
234,1.500000000000e-01,3.496400000000e+01,2.000000000000e+00
235,4.385819298767e-01,3.621674033683e+01,2.000000000000e+00
236,7.060660171780e-01,3.747454415588e+01,2.000000000000e+00
237,9.574025148548e-01,3.873622339643e+01,2.000000000000e+00
238,8.425974851452e-01,3.123622339643e+01,2.000000000000e+00
239,4.939339828220e-01,3.247454415588e+01,2.000000000000e+00
240,1.614180701233e-01,3.371674033683e+01,2.000000000000e+00
241,-1.500000000000e-01,3.496400000000e+01,2.000000000000e+00
242,-4.385819298767e-01,3.621674033683e+01,2.000000000000e+00
243,-7.060660171780e-01,3.747454415588e+01,2.000000000000e+00
244,-9.574025148548e-01,3.873622339643e+01,2.000000000000e+00
245,-1.200000000000e+00,4.252121320344e+01,3.939339828220e-01
246,-1.200000000000e+00,4.503000000000e+01,8.500000000000e-01
247,-1.200000000000e+00,4.752121320344e+01,1.393933982822e+00
248,-1.200000000000e+00,4.252121320344e+01,1.606066017178e+00
249,-1.200000000000e+00,4.503000000000e+01,1.150000000000e+00
250,-1.200000000000e+00,4.752121320344e+01,6.060660171780e-01
251,1.200000000000e+00,4.252121320344e+01,3.939339828220e-01
252,1.200000000000e+00,4.503000000000e+01,8.500000000000e-01
253,1.200000000000e+00,4.752121320344e+01,1.393933982822e+00
254,1.200000000000e+00,4.252121320344e+01,1.606066017178e+00
255,1.200000000000e+00,4.503000000000e+01,1.150000000000e+00
256,1.200000000000e+00,4.752121320344e+01,6.060660171780e-01
257,-4.939339828220e-01,4.247454415588e+01,0.000000000000e+00
258,1.500000000000e-01,4.496400000000e+01,0.000000000000e+00
259,7.060660171780e-01,4.747454415588e+01,0.000000000000e+00
260,4.939339828220e-01,4.247454415588e+01,0.000000000000e+00
261,-1.500000000000e-01,4.496400000000e+01,0.000000000000e+00
262,-7.060660171780e-01,4.747454415588e+01,0.000000000000e+00
263,-4.939339828220e-01,4.247454415588e+01,2.000000000000e+00
264,1.500000000000e-01,4.496400000000e+01,2.000000000000e+00
265,7.060660171780e-01,4.747454415588e+01,2.000000000000e+00
266,4.939339828220e-01,4.247454415588e+01,2.000000000000e+00
267,-1.500000000000e-01,4.496400000000e+01,2.000000000000e+00
268,-7.060660171780e-01,4.747454415588e+01,2.000000000000e+00
*ELEMENT,TYPE=B31,ELSET=ALL
1,1,5
2,2,6
3,3,7
4,4,8
5,5,9
6,6,10
7,7,11
8,8,12
9,9,13
10,10,14
11,11,15
12,12,16
13,13,17
14,14,18
15,15,19
16,16,20
17,17,25
18,25,26
19,26,27
20,27,21
21,18,28
22,28,29
23,29,30
24,30,22
25,19,31
26,31,32
27,32,33
28,33,23
29,20,34
30,34,35
31,35,36
32,36,24
33,1,37
34,37,38
35,38,39
36,39,2
37,3,40
38,40,41
39,41,42
40,42,4
41,1,43
42,43,44
43,44,45
44,45,3
45,2,46
46,46,47
47,47,48
48,48,4
49,5,6
50,7,8
51,5,7
52,6,8
53,9,49
54,49,50
55,50,51
56,51,10
57,11,52
58,52,53
59,53,54
60,54,12
61,9,55
62,55,56
63,56,57
64,57,11
65,10,58
66,58,59
67,59,60
68,60,12
69,13,61
70,61,14
71,15,62
72,62,16
73,13,63
74,63,15
75,14,64
76,64,16
77,17,18
78,19,20
79,17,19
80,18,20
81,21,65
82,65,66
83,66,67
84,67,22
85,23,68
86,68,69
87,69,70
88,70,24
89,21,71
90,71,72
91,72,73
92,73,23
93,22,74
94,74,75
95,75,76
96,76,24
97,1,77
98,77,78
99,78,79
100,79,80
101,80,81
102,81,82
103,82,83
104,83,7
105,3,84
106,84,85
107,85,86
108,86,87
109,87,88
110,88,89
111,89,90
112,90,5
113,2,91
114,91,92
115,92,93
116,93,94
117,94,95
118,95,96
119,96,97
120,97,8
121,4,98
122,98,99
123,99,100
124,100,101
125,101,102
126,102,103
127,103,104
128,104,6
129,1,105
130,105,106
131,106,107
132,107,108
133,108,109
134,109,110
135,110,111
136,111,6
137,2,112
138,112,113
139,113,114
140,114,115
141,115,116
142,116,117
143,117,118
144,118,5
145,3,119
146,119,120
147,120,121
148,121,122
149,122,123
150,123,124
151,124,125
152,125,8
153,4,126
154,126,127
155,127,128
156,128,129
157,129,130
158,130,131
159,131,132
160,132,7
161,5,11
162,7,9
163,6,12
164,8,10
165,5,10
166,6,9
167,7,12
168,8,11
169,9,133
170,133,134
171,134,135
172,135,136
173,136,137
174,137,138
175,138,139
176,139,15
177,11,140
178,140,141
179,141,142
180,142,143
181,143,144
182,144,145
183,145,146
184,146,13
185,10,147
186,147,148
187,148,149
188,149,150
189,150,151
190,151,152
191,152,153
192,153,16
193,12,154
194,154,155
195,155,156
196,156,157
197,157,158
198,158,159
199,159,160
200,160,14
201,9,161
202,161,162
203,162,163
204,163,164
205,164,165
206,165,166
207,166,167
208,167,14
209,10,168
210,168,169
211,169,170
212,170,171
213,171,172
214,172,173
215,173,174
216,174,13
217,11,175
218,175,176
219,176,177
220,177,178
221,178,179
222,179,180
223,180,181
224,181,16
225,12,182
226,182,183
227,183,184
228,184,185
229,185,186
230,186,187
231,187,188
232,188,15
233,13,189
234,189,190
235,190,191
236,191,192
237,192,193
238,193,194
239,194,195
240,195,19
241,15,196
242,196,197
243,197,198
244,198,199
245,199,200
246,200,201
247,201,202
248,202,17
249,14,203
250,203,204
251,204,205
252,205,206
253,206,207
254,207,208
255,208,209
256,209,20
257,16,210
258,210,211
259,211,212
260,212,213
261,213,214
262,214,215
263,215,216
264,216,18
265,13,217
266,217,218
267,218,219
268,219,220
269,220,221
270,221,222
271,222,223
272,223,18
273,14,224
274,224,225
275,225,226
276,226,227
277,227,228
278,228,229
279,229,230
280,230,17
281,15,231
282,231,232
283,232,233
284,233,234
285,234,235
286,235,236
287,236,237
288,237,20
289,16,238
290,238,239
291,239,240
292,240,241
293,241,242
294,242,243
295,243,244
296,244,19
297,17,245
298,245,246
299,246,247
300,247,23
301,19,248
302,248,249
303,249,250
304,250,21
305,18,251
306,251,252
307,252,253
308,253,24
309,20,254
310,254,255
311,255,256
312,256,22
313,17,257
314,257,258
315,258,259
316,259,22
317,18,260
318,260,261
319,261,262
320,262,21
321,19,263
322,263,264
323,264,265
324,265,24
325,20,266
326,266,267
327,267,268
328,268,23
*NSET,NSET=NALL,GENERATE
1,268,1
*NSET,NSET=LEFT
1,2,3,4
*NSET,NSET=RIGHT
21,22,23,24
*MATERIAL,NAME=STEEL
*ELASTIC
2.100000000000e+11,0.300000000000
*BEAM SECTION,ELSET=ALL,MATERIAL=STEEL,SECTION=RECT
6.000000000000e-02,4.000000000000e-02
0.371390676354,0.557086014531,0.742781352708
*BOUNDARY
LEFT,1,6,0.0
*STEP
*STATIC
*BOUNDARY
21,1,1,5.000000000000e-03
21,2,2,0.0
21,3,3,-6.000000000000e-03
*BOUNDARY
22,1,1,5.000000000000e-03
22,2,2,0.0
22,3,3,6.000000000000e-03
*BOUNDARY
23,1,1,-5.000000000000e-03
23,2,2,0.0
23,3,3,-6.000000000000e-03
*BOUNDARY
24,1,1,-5.000000000000e-03
24,2,2,0.0
24,3,3,6.000000000000e-03
*NODE FILE,NSET=NALL
U
*NODE PRINT,NSET=NALL
U
*NODE PRINT,NSET=RIGHT
RF
*EL PRINT,ELSET=ALL,TOTALS=YES
ELSE
*END STEP
