*HEADING
Normalized cross-passage space-truss torsion benchmark
*NODE
1,-1.200000000000e+00,0.000000000000e+00,0.000000000000e+00
2,1.200000000000e+00,0.000000000000e+00,0.000000000000e+00
3,-1.200000000000e+00,0.000000000000e+00,2.000000000000e+00
4,1.200000000000e+00,0.000000000000e+00,2.000000000000e+00
5,-1.200000000000e+00,1.000000000000e+01,0.000000000000e+00
6,1.200000000000e+00,1.000000000000e+01,0.000000000000e+00
7,-1.200000000000e+00,1.000000000000e+01,2.000000000000e+00
8,1.200000000000e+00,1.000000000000e+01,2.000000000000e+00
9,-1.200000000000e+00,2.000000000000e+01,0.000000000000e+00
10,1.200000000000e+00,2.000000000000e+01,0.000000000000e+00
11,-1.200000000000e+00,2.000000000000e+01,2.000000000000e+00
12,1.200000000000e+00,2.000000000000e+01,2.000000000000e+00
13,-1.200000000000e+00,3.000000000000e+01,0.000000000000e+00
14,1.200000000000e+00,3.000000000000e+01,0.000000000000e+00
15,-1.200000000000e+00,3.000000000000e+01,2.000000000000e+00
16,1.200000000000e+00,3.000000000000e+01,2.000000000000e+00
17,-1.200000000000e+00,4.000000000000e+01,0.000000000000e+00
18,1.200000000000e+00,4.000000000000e+01,0.000000000000e+00
19,-1.200000000000e+00,4.000000000000e+01,2.000000000000e+00
20,1.200000000000e+00,4.000000000000e+01,2.000000000000e+00
21,-1.200000000000e+00,5.000000000000e+01,0.000000000000e+00
22,1.200000000000e+00,5.000000000000e+01,0.000000000000e+00
23,-1.200000000000e+00,5.000000000000e+01,2.000000000000e+00
24,1.200000000000e+00,5.000000000000e+01,2.000000000000e+00
25,-1.200000000000e+00,5.000000000000e+00,-1.500000000000e-01
26,1.200000000000e+00,5.000000000000e+00,1.500000000000e-01
27,-1.200000000000e+00,5.000000000000e+00,1.850000000000e+00
28,1.200000000000e+00,5.000000000000e+00,2.150000000000e+00
29,-1.200000000000e+00,1.500000000000e+01,-1.500000000000e-01
30,1.200000000000e+00,1.500000000000e+01,1.500000000000e-01
31,-1.200000000000e+00,1.500000000000e+01,1.850000000000e+00
32,1.200000000000e+00,1.500000000000e+01,2.150000000000e+00
33,-1.200000000000e+00,2.500000000000e+01,-1.500000000000e-01
34,1.200000000000e+00,2.500000000000e+01,1.500000000000e-01
35,-1.200000000000e+00,2.500000000000e+01,1.850000000000e+00
36,1.200000000000e+00,2.500000000000e+01,2.150000000000e+00
37,-1.200000000000e+00,3.500000000000e+01,-1.500000000000e-01
38,1.200000000000e+00,3.500000000000e+01,1.500000000000e-01
39,-1.200000000000e+00,3.500000000000e+01,1.850000000000e+00
40,1.200000000000e+00,3.500000000000e+01,2.150000000000e+00
41,-1.200000000000e+00,4.500000000000e+01,-1.500000000000e-01
42,1.200000000000e+00,4.500000000000e+01,1.500000000000e-01
43,-1.200000000000e+00,4.500000000000e+01,1.850000000000e+00
44,1.200000000000e+00,4.500000000000e+01,2.150000000000e+00
45,0.000000000000e+00,-3.600000000000e-02,0.000000000000e+00
46,0.000000000000e+00,3.600000000000e-02,2.000000000000e+00
47,-1.200000000000e+00,3.000000000000e-02,1.000000000000e+00
48,1.200000000000e+00,-3.000000000000e-02,1.000000000000e+00
49,0.000000000000e+00,9.964000000000e+00,0.000000000000e+00
50,0.000000000000e+00,1.003600000000e+01,2.000000000000e+00
51,-1.200000000000e+00,1.003000000000e+01,1.000000000000e+00
52,1.200000000000e+00,9.970000000000e+00,1.000000000000e+00
53,0.000000000000e+00,1.996400000000e+01,0.000000000000e+00
54,0.000000000000e+00,2.003600000000e+01,2.000000000000e+00
55,-1.200000000000e+00,2.003000000000e+01,1.000000000000e+00
56,1.200000000000e+00,1.997000000000e+01,1.000000000000e+00
57,0.000000000000e+00,2.996400000000e+01,0.000000000000e+00
58,0.000000000000e+00,3.003600000000e+01,2.000000000000e+00
59,-1.200000000000e+00,3.003000000000e+01,1.000000000000e+00
60,1.200000000000e+00,2.997000000000e+01,1.000000000000e+00
61,0.000000000000e+00,3.996400000000e+01,0.000000000000e+00
62,0.000000000000e+00,4.003600000000e+01,2.000000000000e+00
63,-1.200000000000e+00,4.003000000000e+01,1.000000000000e+00
64,1.200000000000e+00,3.997000000000e+01,1.000000000000e+00
65,-6.000000000000e-01,4.997454415588e+01,0.000000000000e+00
66,0.000000000000e+00,4.996400000000e+01,0.000000000000e+00
67,6.000000000000e-01,4.997454415588e+01,0.000000000000e+00
68,-6.000000000000e-01,5.002545584412e+01,2.000000000000e+00
69,0.000000000000e+00,5.003600000000e+01,2.000000000000e+00
70,6.000000000000e-01,5.002545584412e+01,2.000000000000e+00
71,-1.200000000000e+00,5.002121320344e+01,5.000000000000e-01
72,-1.200000000000e+00,5.003000000000e+01,1.000000000000e+00
73,-1.200000000000e+00,5.002121320344e+01,1.500000000000e+00
74,1.200000000000e+00,4.997878679656e+01,5.000000000000e-01
75,1.200000000000e+00,4.997000000000e+01,1.000000000000e+00
76,1.200000000000e+00,4.997878679656e+01,1.500000000000e+00
77,-1.200000000000e+00,2.521213203436e+00,3.939339828220e-01
78,-1.200000000000e+00,5.030000000000e+00,8.500000000000e-01
79,-1.200000000000e+00,7.521213203436e+00,1.393933982822e+00
80,-1.200000000000e+00,2.521213203436e+00,1.606066017178e+00
81,-1.200000000000e+00,5.030000000000e+00,1.150000000000e+00
82,-1.200000000000e+00,7.521213203436e+00,6.060660171780e-01
83,1.200000000000e+00,2.521213203436e+00,3.939339828220e-01
84,1.200000000000e+00,5.030000000000e+00,8.500000000000e-01
85,1.200000000000e+00,7.521213203436e+00,1.393933982822e+00
86,1.200000000000e+00,2.521213203436e+00,1.606066017178e+00
87,1.200000000000e+00,5.030000000000e+00,1.150000000000e+00
88,1.200000000000e+00,7.521213203436e+00,6.060660171780e-01
89,-4.939339828220e-01,2.474544155877e+00,0.000000000000e+00
90,1.500000000000e-01,4.964000000000e+00,0.000000000000e+00
91,7.060660171780e-01,7.474544155877e+00,0.000000000000e+00
92,4.939339828220e-01,2.474544155877e+00,0.000000000000e+00
93,-1.500000000000e-01,4.964000000000e+00,0.000000000000e+00
94,-7.060660171780e-01,7.474544155877e+00,0.000000000000e+00
95,-4.939339828220e-01,2.474544155877e+00,2.000000000000e+00
96,1.500000000000e-01,4.964000000000e+00,2.000000000000e+00
97,7.060660171780e-01,7.474544155877e+00,2.000000000000e+00
98,4.939339828220e-01,2.474544155877e+00,2.000000000000e+00
99,-1.500000000000e-01,4.964000000000e+00,2.000000000000e+00
100,-7.060660171780e-01,7.474544155877e+00,2.000000000000e+00
101,-1.200000000000e+00,1.252121320344e+01,3.939339828220e-01
102,-1.200000000000e+00,1.503000000000e+01,8.500000000000e-01
103,-1.200000000000e+00,1.752121320344e+01,1.393933982822e+00
104,-1.200000000000e+00,1.252121320344e+01,1.606066017178e+00
105,-1.200000000000e+00,1.503000000000e+01,1.150000000000e+00
106,-1.200000000000e+00,1.752121320344e+01,6.060660171780e-01
107,1.200000000000e+00,1.252121320344e+01,3.939339828220e-01
108,1.200000000000e+00,1.503000000000e+01,8.500000000000e-01
109,1.200000000000e+00,1.752121320344e+01,1.393933982822e+00
110,1.200000000000e+00,1.252121320344e+01,1.606066017178e+00
111,1.200000000000e+00,1.503000000000e+01,1.150000000000e+00
112,1.200000000000e+00,1.752121320344e+01,6.060660171780e-01
113,-4.939339828220e-01,1.247454415588e+01,0.000000000000e+00
114,1.500000000000e-01,1.496400000000e+01,0.000000000000e+00
115,7.060660171780e-01,1.747454415588e+01,0.000000000000e+00
116,4.939339828220e-01,1.247454415588e+01,0.000000000000e+00
117,-1.500000000000e-01,1.496400000000e+01,0.000000000000e+00
118,-7.060660171780e-01,1.747454415588e+01,0.000000000000e+00
119,-4.939339828220e-01,1.247454415588e+01,2.000000000000e+00
120,1.500000000000e-01,1.496400000000e+01,2.000000000000e+00
121,7.060660171780e-01,1.747454415588e+01,2.000000000000e+00
122,4.939339828220e-01,1.247454415588e+01,2.000000000000e+00
123,-1.500000000000e-01,1.496400000000e+01,2.000000000000e+00
124,-7.060660171780e-01,1.747454415588e+01,2.000000000000e+00
125,-1.200000000000e+00,2.252121320344e+01,3.939339828220e-01
126,-1.200000000000e+00,2.503000000000e+01,8.500000000000e-01
127,-1.200000000000e+00,2.752121320344e+01,1.393933982822e+00
128,-1.200000000000e+00,2.252121320344e+01,1.606066017178e+00
129,-1.200000000000e+00,2.503000000000e+01,1.150000000000e+00
130,-1.200000000000e+00,2.752121320344e+01,6.060660171780e-01
131,1.200000000000e+00,2.252121320344e+01,3.939339828220e-01
132,1.200000000000e+00,2.503000000000e+01,8.500000000000e-01
133,1.200000000000e+00,2.752121320344e+01,1.393933982822e+00
134,1.200000000000e+00,2.252121320344e+01,1.606066017178e+00
135,1.200000000000e+00,2.503000000000e+01,1.150000000000e+00
136,1.200000000000e+00,2.752121320344e+01,6.060660171780e-01
137,-4.939339828220e-01,2.247454415588e+01,0.000000000000e+00
138,1.500000000000e-01,2.496400000000e+01,0.000000000000e+00
139,7.060660171780e-01,2.747454415588e+01,0.000000000000e+00
140,4.939339828220e-01,2.247454415588e+01,0.000000000000e+00
141,-1.500000000000e-01,2.496400000000e+01,0.000000000000e+00
142,-7.060660171780e-01,2.747454415588e+01,0.000000000000e+00
143,-4.939339828220e-01,2.247454415588e+01,2.000000000000e+00
144,1.500000000000e-01,2.496400000000e+01,2.000000000000e+00
145,7.060660171780e-01,2.747454415588e+01,2.000000000000e+00
146,4.939339828220e-01,2.247454415588e+01,2.000000000000e+00
147,-1.500000000000e-01,2.496400000000e+01,2.000000000000e+00
148,-7.060660171780e-01,2.747454415588e+01,2.000000000000e+00
149,-1.200000000000e+00,3.252121320344e+01,3.939339828220e-01
150,-1.200000000000e+00,3.503000000000e+01,8.500000000000e-01
151,-1.200000000000e+00,3.752121320344e+01,1.393933982822e+00
152,-1.200000000000e+00,3.252121320344e+01,1.606066017178e+00
153,-1.200000000000e+00,3.503000000000e+01,1.150000000000e+00
154,-1.200000000000e+00,3.752121320344e+01,6.060660171780e-01
155,1.200000000000e+00,3.252121320344e+01,3.939339828220e-01
156,1.200000000000e+00,3.503000000000e+01,8.500000000000e-01
157,1.200000000000e+00,3.752121320344e+01,1.393933982822e+00
158,1.200000000000e+00,3.252121320344e+01,1.606066017178e+00
159,1.200000000000e+00,3.503000000000e+01,1.150000000000e+00
160,1.200000000000e+00,3.752121320344e+01,6.060660171780e-01
161,-4.939339828220e-01,3.247454415588e+01,0.000000000000e+00
162,1.500000000000e-01,3.496400000000e+01,0.000000000000e+00
163,7.060660171780e-01,3.747454415588e+01,0.000000000000e+00
164,4.939339828220e-01,3.247454415588e+01,0.000000000000e+00
165,-1.500000000000e-01,3.496400000000e+01,0.000000000000e+00
166,-7.060660171780e-01,3.747454415588e+01,0.000000000000e+00
167,-4.939339828220e-01,3.247454415588e+01,2.000000000000e+00
168,1.500000000000e-01,3.496400000000e+01,2.000000000000e+00
169,7.060660171780e-01,3.747454415588e+01,2.000000000000e+00
170,4.939339828220e-01,3.247454415588e+01,2.000000000000e+00
171,-1.500000000000e-01,3.496400000000e+01,2.000000000000e+00
172,-7.060660171780e-01,3.747454415588e+01,2.000000000000e+00
173,-1.200000000000e+00,4.252121320344e+01,3.939339828220e-01
174,-1.200000000000e+00,4.503000000000e+01,8.500000000000e-01
175,-1.200000000000e+00,4.752121320344e+01,1.393933982822e+00
176,-1.200000000000e+00,4.252121320344e+01,1.606066017178e+00
177,-1.200000000000e+00,4.503000000000e+01,1.150000000000e+00
178,-1.200000000000e+00,4.752121320344e+01,6.060660171780e-01
179,1.200000000000e+00,4.252121320344e+01,3.939339828220e-01
180,1.200000000000e+00,4.503000000000e+01,8.500000000000e-01
181,1.200000000000e+00,4.752121320344e+01,1.393933982822e+00
182,1.200000000000e+00,4.252121320344e+01,1.606066017178e+00
183,1.200000000000e+00,4.503000000000e+01,1.150000000000e+00
184,1.200000000000e+00,4.752121320344e+01,6.060660171780e-01
185,-4.939339828220e-01,4.247454415588e+01,0.000000000000e+00
186,1.500000000000e-01,4.496400000000e+01,0.000000000000e+00
187,7.060660171780e-01,4.747454415588e+01,0.000000000000e+00
188,4.939339828220e-01,4.247454415588e+01,0.000000000000e+00
189,-1.500000000000e-01,4.496400000000e+01,0.000000000000e+00
190,-7.060660171780e-01,4.747454415588e+01,0.000000000000e+00
191,-4.939339828220e-01,4.247454415588e+01,2.000000000000e+00
192,1.500000000000e-01,4.496400000000e+01,2.000000000000e+00
193,7.060660171780e-01,4.747454415588e+01,2.000000000000e+00
194,4.939339828220e-01,4.247454415588e+01,2.000000000000e+00
195,-1.500000000000e-01,4.496400000000e+01,2.000000000000e+00
196,-7.060660171780e-01,4.747454415588e+01,2.000000000000e+00
*ELEMENT,TYPE=B31,ELSET=ALL
1,1,25
2,25,5
3,2,26
4,26,6
5,3,27
6,27,7
7,4,28
8,28,8
9,5,29
10,29,9
11,6,30
12,30,10
13,7,31
14,31,11
15,8,32
16,32,12
17,9,33
18,33,13
19,10,34
20,34,14
21,11,35
22,35,15
23,12,36
24,36,16
25,13,37
26,37,17
27,14,38
28,38,18
29,15,39
30,39,19
31,16,40
32,40,20
33,17,41
34,41,21
35,18,42
36,42,22
37,19,43
38,43,23
39,20,44
40,44,24
41,1,45
42,45,2
43,3,46
44,46,4
45,1,47
46,47,3
47,2,48
48,48,4
49,5,49
50,49,6
51,7,50
52,50,8
53,5,51
54,51,7
55,6,52
56,52,8
57,9,53
58,53,10
59,11,54
60,54,12
61,9,55
62,55,11
63,10,56
64,56,12
65,13,57
66,57,14
67,15,58
68,58,16
69,13,59
70,59,15
71,14,60
72,60,16
73,17,61
74,61,18
75,19,62
76,62,20
77,17,63
78,63,19
79,18,64
80,64,20
81,21,65
82,65,66
83,66,67
84,67,22
85,23,68
86,68,69
87,69,70
88,70,24
89,21,71
90,71,72
91,72,73
92,73,23
93,22,74
94,74,75
95,75,76
96,76,24
97,1,77
98,77,78
99,78,79
100,79,7
101,3,80
102,80,81
103,81,82
104,82,5
105,2,83
106,83,84
107,84,85
108,85,8
109,4,86
110,86,87
111,87,88
112,88,6
113,1,89
114,89,90
115,90,91
116,91,6
117,2,92
118,92,93
119,93,94
120,94,5
121,3,95
122,95,96
123,96,97
124,97,8
125,4,98
126,98,99
127,99,100
128,100,7
129,5,101
130,101,102
131,102,103
132,103,11
133,7,104
134,104,105
135,105,106
136,106,9
137,6,107
138,107,108
139,108,109
140,109,12
141,8,110
142,110,111
143,111,112
144,112,10
145,5,113
146,113,114
147,114,115
148,115,10
149,6,116
150,116,117
151,117,118
152,118,9
153,7,119
154,119,120
155,120,121
156,121,12
157,8,122
158,122,123
159,123,124
160,124,11
161,9,125
162,125,126
163,126,127
164,127,15
165,11,128
166,128,129
167,129,130
168,130,13
169,10,131
170,131,132
171,132,133
172,133,16
173,12,134
174,134,135
175,135,136
176,136,14
177,9,137
178,137,138
179,138,139
180,139,14
181,10,140
182,140,141
183,141,142
184,142,13
185,11,143
186,143,144
187,144,145
188,145,16
189,12,146
190,146,147
191,147,148
192,148,15
193,13,149
194,149,150
195,150,151
196,151,19
197,15,152
198,152,153
199,153,154
200,154,17
201,14,155
202,155,156
203,156,157
204,157,20
205,16,158
206,158,159
207,159,160
208,160,18
209,13,161
210,161,162
211,162,163
212,163,18
213,14,164
214,164,165
215,165,166
216,166,17
217,15,167
218,167,168
219,168,169
220,169,20
221,16,170
222,170,171
223,171,172
224,172,19
225,17,173
226,173,174
227,174,175
228,175,23
229,19,176
230,176,177
231,177,178
232,178,21
233,18,179
234,179,180
235,180,181
236,181,24
237,20,182
238,182,183
239,183,184
240,184,22
241,17,185
242,185,186
243,186,187
244,187,22
245,18,188
246,188,189
247,189,190
248,190,21
249,19,191
250,191,192
251,192,193
252,193,24
253,20,194
254,194,195
255,195,196
256,196,23
*NSET,NSET=NALL,GENERATE
1,196,1
*NSET,NSET=LEFT
1,2,3,4
*NSET,NSET=RIGHT
21,22,23,24
*MATERIAL,NAME=STEEL
*ELASTIC
2.100000000000e+11,0.300000000000
*BEAM SECTION,ELSET=ALL,MATERIAL=STEEL,SECTION=RECT
6.000000000000e-02,4.000000000000e-02
0.371390676354,0.557086014531,0.742781352708
*BOUNDARY
LEFT,1,6,0.0
*STEP
*STATIC
*BOUNDARY
21,1,1,5.000000000000e-03
21,2,2,0.0
21,3,3,-6.000000000000e-03
*BOUNDARY
22,1,1,5.000000000000e-03
22,2,2,0.0
22,3,3,6.000000000000e-03
*BOUNDARY
23,1,1,-5.000000000000e-03
23,2,2,0.0
23,3,3,-6.000000000000e-03
*BOUNDARY
24,1,1,-5.000000000000e-03
24,2,2,0.0
24,3,3,6.000000000000e-03
*NODE FILE,NSET=NALL
U
*NODE PRINT,NSET=NALL
U
*NODE PRINT,NSET=RIGHT
RF
*EL PRINT,ELSET=ALL,TOTALS=YES
ELSE
*END STEP
