*HEADING
T10 S-LIN hanging 8-split zz cycle 2
units: mm, N, s, MPa. Material is illustrative steel, not a coupon card.
E=210000.0 nu=0.3. load -5000.0 N on TIP_TOP.
*NODE, NSET=NALL
1, 0, -10, 0
2, 111.111111111, -10, 4.44444444444
3, 111.111111111, 0, 4.44444444444
4, 0, 0, 0
5, 0, -10, 36
6, 111.111111111, -10, 39.5555555556
7, 111.111111111, 0, 39.5555555556
8, 0, 0, 36
9, 0, -10, 72
10, 111.111111111, -10, 74.6666666667
11, 111.111111111, 0, 74.6666666667
12, 0, 0, 72
13, 0, -10, 108
14, 111.111111111, -10, 109.777777778
15, 111.111111111, 0, 109.777777778
16, 0, 0, 108
17, 0, -10, 144
18, 111.111111111, -10, 144.888888889
19, 111.111111111, 0, 144.888888889
20, 0, 0, 144
21, 0, -10, 180
22, 111.111111111, -10, 180
23, 111.111111111, 0, 180
24, 0, 0, 180
25, 111.111111111, 10, 4.44444444444
26, 0, 10, 0
27, 111.111111111, 10, 39.5555555556
28, 0, 10, 36
29, 111.111111111, 10, 74.6666666667
30, 0, 10, 72
31, 111.111111111, 10, 109.777777778
32, 0, 10, 108
33, 111.111111111, 10, 144.888888889
34, 0, 10, 144
35, 111.111111111, 10, 180
36, 0, 10, 180
37, 0, -70, 180
38, 111.111111111, -75.2777777778, 180
39, 111.111111111, -58.9583333333, 180
40, 0, -55, 180
41, 0, -70, 190
42, 111.111111111, -75.2777777778, 190
43, 111.111111111, -58.9583333333, 190
44, 0, -55, 190
45, 0, -70, 200
46, 111.111111111, -75.2777777778, 200
47, 111.111111111, -58.9583333333, 200
48, 0, -55, 200
49, 111.111111111, -42.6388888889, 180
50, 0, -40, 180
51, 111.111111111, -42.6388888889, 190
52, 0, -40, 190
53, 111.111111111, -42.6388888889, 200
54, 0, -40, 200
55, 111.111111111, -26.3194444444, 180
56, 0, -25, 180
57, 111.111111111, -26.3194444444, 190
58, 0, -25, 190
59, 111.111111111, -26.3194444444, 200
60, 0, -25, 200
61, 111.111111111, -10, 190
62, 0, -10, 190
63, 111.111111111, -10, 200
64, 0, -10, 200
65, 111.111111111, 0, 190
66, 0, 0, 190
67, 111.111111111, 0, 200
68, 0, 0, 200
69, 111.111111111, 10, 190
70, 0, 10, 190
71, 111.111111111, 10, 200
72, 0, 10, 200
73, 111.111111111, 49.7222222222, 180
74, 0, 51.25, 180
75, 111.111111111, 49.7222222222, 190
76, 0, 51.25, 190
77, 111.111111111, 49.7222222222, 200
78, 0, 51.25, 200
79, 111.111111111, 89.4444444444, 180
80, 0, 92.5, 180
81, 111.111111111, 89.4444444444, 190
82, 0, 92.5, 190
83, 111.111111111, 89.4444444444, 200
84, 0, 92.5, 200
85, 111.111111111, 129.166666667, 180
86, 0, 133.75, 180
87, 111.111111111, 129.166666667, 190
88, 0, 133.75, 190
89, 111.111111111, 129.166666667, 200
90, 0, 133.75, 200
91, 111.111111111, 168.888888889, 180
92, 0, 175, 180
93, 111.111111111, 168.888888889, 190
94, 0, 175, 190
95, 111.111111111, 168.888888889, 200
96, 0, 175, 200
97, 222.222222222, -10, 8.88888888889
98, 222.222222222, 0, 8.88888888889
99, 222.222222222, -10, 43.1111111111
100, 222.222222222, 0, 43.1111111111
101, 222.222222222, -10, 77.3333333333
102, 222.222222222, 0, 77.3333333333
103, 222.222222222, -10, 111.555555556
104, 222.222222222, 0, 111.555555556
105, 222.222222222, -10, 145.777777778
106, 222.222222222, 0, 145.777777778
107, 222.222222222, -10, 180
108, 222.222222222, 0, 180
109, 222.222222222, 10, 8.88888888889
110, 222.222222222, 10, 43.1111111111
111, 222.222222222, 10, 77.3333333333
112, 222.222222222, 10, 111.555555556
113, 222.222222222, 10, 145.777777778
114, 222.222222222, 10, 180
115, 222.222222222, -80.5555555556, 180
116, 222.222222222, -62.9166666667, 180
117, 222.222222222, -80.5555555556, 190
118, 222.222222222, -62.9166666667, 190
119, 222.222222222, -80.5555555556, 200
120, 222.222222222, -62.9166666667, 200
121, 222.222222222, -45.2777777778, 180
122, 222.222222222, -45.2777777778, 190
123, 222.222222222, -45.2777777778, 200
124, 222.222222222, -27.6388888889, 180
125, 222.222222222, -27.6388888889, 190
126, 222.222222222, -27.6388888889, 200
127, 222.222222222, -10, 190
128, 222.222222222, -10, 200
129, 222.222222222, 0, 190
130, 222.222222222, 0, 200
131, 222.222222222, 10, 190
132, 222.222222222, 10, 200
133, 222.222222222, 48.1944444444, 180
134, 222.222222222, 48.1944444444, 190
135, 222.222222222, 48.1944444444, 200
136, 222.222222222, 86.3888888889, 180
137, 222.222222222, 86.3888888889, 190
138, 222.222222222, 86.3888888889, 200
139, 222.222222222, 124.583333333, 180
140, 222.222222222, 124.583333333, 190
141, 222.222222222, 124.583333333, 200
142, 222.222222222, 162.777777778, 180
143, 222.222222222, 162.777777778, 190
144, 222.222222222, 162.777777778, 200
145, 333.333333333, -10, 13.3333333333
146, 333.333333333, 0, 13.3333333333
147, 333.333333333, -10, 46.6666666667
148, 333.333333333, 0, 46.6666666667
149, 333.333333333, -10, 80
150, 333.333333333, 0, 80
151, 333.333333333, -10, 113.333333333
152, 333.333333333, 0, 113.333333333
153, 333.333333333, -10, 146.666666667
154, 333.333333333, 0, 146.666666667
155, 333.333333333, -10, 180
156, 333.333333333, 0, 180
157, 333.333333333, 10, 13.3333333333
158, 333.333333333, 10, 46.6666666667
159, 333.333333333, 10, 80
160, 333.333333333, 10, 113.333333333
161, 333.333333333, 10, 146.666666667
162, 333.333333333, 10, 180
163, 333.333333333, -85.8333333333, 180
164, 333.333333333, -66.875, 180
165, 333.333333333, -85.8333333333, 190
166, 333.333333333, -66.875, 190
167, 333.333333333, -85.8333333333, 200
168, 333.333333333, -66.875, 200
169, 333.333333333, -47.9166666667, 180
170, 333.333333333, -47.9166666667, 190
171, 333.333333333, -47.9166666667, 200
172, 333.333333333, -28.9583333333, 180
173, 333.333333333, -28.9583333333, 190
174, 333.333333333, -28.9583333333, 200
175, 333.333333333, -10, 190
176, 333.333333333, -10, 200
177, 333.333333333, 0, 190
178, 333.333333333, 0, 200
179, 333.333333333, 10, 190
180, 333.333333333, 10, 200
181, 333.333333333, 46.6666666667, 180
182, 333.333333333, 46.6666666667, 190
183, 333.333333333, 46.6666666667, 200
184, 333.333333333, 83.3333333333, 180
185, 333.333333333, 83.3333333333, 190
186, 333.333333333, 83.3333333333, 200
187, 333.333333333, 120, 180
188, 333.333333333, 120, 190
189, 333.333333333, 120, 200
190, 333.333333333, 156.666666667, 180
191, 333.333333333, 156.666666667, 190
192, 333.333333333, 156.666666667, 200
193, 444.444444444, -10, 17.7777777778
194, 444.444444444, 0, 17.7777777778
195, 444.444444444, -10, 50.2222222222
196, 444.444444444, 0, 50.2222222222
197, 444.444444444, -10, 82.6666666667
198, 444.444444444, 0, 82.6666666667
199, 444.444444444, -10, 115.111111111
200, 444.444444444, 0, 115.111111111
201, 444.444444444, -10, 147.555555556
202, 444.444444444, 0, 147.555555556
203, 444.444444444, -10, 180
204, 444.444444444, 0, 180
205, 444.444444444, 10, 17.7777777778
206, 444.444444444, 10, 50.2222222222
207, 444.444444444, 10, 82.6666666667
208, 444.444444444, 10, 115.111111111
209, 444.444444444, 10, 147.555555556
210, 444.444444444, 10, 180
211, 444.444444444, -91.1111111111, 180
212, 444.444444444, -70.8333333333, 180
213, 444.444444444, -91.1111111111, 190
214, 444.444444444, -70.8333333333, 190
215, 444.444444444, -91.1111111111, 200
216, 444.444444444, -70.8333333333, 200
217, 444.444444444, -50.5555555556, 180
218, 444.444444444, -50.5555555556, 190
219, 444.444444444, -50.5555555556, 200
220, 444.444444444, -30.2777777778, 180
221, 444.444444444, -30.2777777778, 190
222, 444.444444444, -30.2777777778, 200
223, 444.444444444, -10, 190
224, 444.444444444, -10, 200
225, 444.444444444, 0, 190
226, 444.444444444, 0, 200
227, 444.444444444, 10, 190
228, 444.444444444, 10, 200
229, 444.444444444, 45.1388888889, 180
230, 444.444444444, 45.1388888889, 190
231, 444.444444444, 45.1388888889, 200
232, 444.444444444, 80.2777777778, 180
233, 444.444444444, 80.2777777778, 190
234, 444.444444444, 80.2777777778, 200
235, 444.444444444, 115.416666667, 180
236, 444.444444444, 115.416666667, 190
237, 444.444444444, 115.416666667, 200
238, 444.444444444, 150.555555556, 180
239, 444.444444444, 150.555555556, 190
240, 444.444444444, 150.555555556, 200
241, 555.555555556, -10, 22.2222222222
242, 555.555555556, 0, 22.2222222222
243, 555.555555556, -10, 53.7777777778
244, 555.555555556, 0, 53.7777777778
245, 555.555555556, -10, 85.3333333333
246, 555.555555556, 0, 85.3333333333
247, 555.555555556, -10, 116.888888889
248, 555.555555556, 0, 116.888888889
249, 555.555555556, -10, 148.444444444
250, 555.555555556, 0, 148.444444444
251, 555.555555556, -10, 180
252, 555.555555556, 0, 180
253, 555.555555556, 10, 22.2222222222
254, 555.555555556, 10, 53.7777777778
255, 555.555555556, 10, 85.3333333333
256, 555.555555556, 10, 116.888888889
257, 555.555555556, 10, 148.444444444
258, 555.555555556, 10, 180
259, 555.555555556, -96.3888888889, 180
260, 555.555555556, -74.7916666667, 180
261, 555.555555556, -96.3888888889, 190
262, 555.555555556, -74.7916666667, 190
263, 555.555555556, -96.3888888889, 200
264, 555.555555556, -74.7916666667, 200
265, 555.555555556, -53.1944444444, 180
266, 555.555555556, -53.1944444444, 190
267, 555.555555556, -53.1944444444, 200
268, 555.555555556, -31.5972222222, 180
269, 555.555555556, -31.5972222222, 190
270, 555.555555556, -31.5972222222, 200
271, 555.555555556, -10, 190
272, 555.555555556, -10, 200
273, 555.555555556, 0, 190
274, 555.555555556, 0, 200
275, 555.555555556, 10, 190
276, 555.555555556, 10, 200
277, 555.555555556, 43.6111111111, 180
278, 555.555555556, 43.6111111111, 190
279, 555.555555556, 43.6111111111, 200
280, 555.555555556, 77.2222222222, 180
281, 555.555555556, 77.2222222222, 190
282, 555.555555556, 77.2222222222, 200
283, 555.555555556, 110.833333333, 180
284, 555.555555556, 110.833333333, 190
285, 555.555555556, 110.833333333, 200
286, 555.555555556, 144.444444444, 180
287, 555.555555556, 144.444444444, 190
288, 555.555555556, 144.444444444, 200
289, 666.666666667, -10, 26.6666666667
290, 666.666666667, 0, 26.6666666667
291, 666.666666667, -10, 57.3333333333
292, 666.666666667, 0, 57.3333333333
293, 666.666666667, -10, 88
294, 666.666666667, 0, 88
295, 666.666666667, -10, 118.666666667
296, 666.666666667, 0, 118.666666667
297, 666.666666667, -10, 149.333333333
298, 666.666666667, 0, 149.333333333
299, 666.666666667, -10, 180
300, 666.666666667, 0, 180
301, 666.666666667, 10, 26.6666666667
302, 666.666666667, 10, 57.3333333333
303, 666.666666667, 10, 88
304, 666.666666667, 10, 118.666666667
305, 666.666666667, 10, 149.333333333
306, 666.666666667, 10, 180
307, 666.666666667, -101.666666667, 180
308, 666.666666667, -78.75, 180
309, 666.666666667, -101.666666667, 190
310, 666.666666667, -78.75, 190
311, 666.666666667, -101.666666667, 200
312, 666.666666667, -78.75, 200
313, 666.666666667, -55.8333333333, 180
314, 666.666666667, -55.8333333333, 190
315, 666.666666667, -55.8333333333, 200
316, 666.666666667, -32.9166666667, 180
317, 666.666666667, -32.9166666667, 190
318, 666.666666667, -32.9166666667, 200
319, 666.666666667, -10, 190
320, 666.666666667, -10, 200
321, 666.666666667, 0, 190
322, 666.666666667, 0, 200
323, 666.666666667, 10, 190
324, 666.666666667, 10, 200
325, 666.666666667, 42.0833333333, 180
326, 666.666666667, 42.0833333333, 190
327, 666.666666667, 42.0833333333, 200
328, 666.666666667, 74.1666666667, 180
329, 666.666666667, 74.1666666667, 190
330, 666.666666667, 74.1666666667, 200
331, 666.666666667, 106.25, 180
332, 666.666666667, 106.25, 190
333, 666.666666667, 106.25, 200
334, 666.666666667, 138.333333333, 180
335, 666.666666667, 138.333333333, 190
336, 666.666666667, 138.333333333, 200
337, 777.777777778, -10, 31.1111111111
338, 777.777777778, 0, 31.1111111111
339, 777.777777778, -10, 60.8888888889
340, 777.777777778, 0, 60.8888888889
341, 777.777777778, -10, 90.6666666667
342, 777.777777778, 0, 90.6666666667
343, 777.777777778, -10, 120.444444444
344, 777.777777778, 0, 120.444444444
345, 777.777777778, -10, 150.222222222
346, 777.777777778, 0, 150.222222222
347, 777.777777778, -10, 180
348, 777.777777778, 0, 180
349, 777.777777778, 10, 31.1111111111
350, 777.777777778, 10, 60.8888888889
351, 777.777777778, 10, 90.6666666667
352, 777.777777778, 10, 120.444444444
353, 777.777777778, 10, 150.222222222
354, 777.777777778, 10, 180
355, 777.777777778, -106.944444444, 180
356, 777.777777778, -82.7083333333, 180
357, 777.777777778, -106.944444444, 190
358, 777.777777778, -82.7083333333, 190
359, 777.777777778, -106.944444444, 200
360, 777.777777778, -82.7083333333, 200
361, 777.777777778, -58.4722222222, 180
362, 777.777777778, -58.4722222222, 190
363, 777.777777778, -58.4722222222, 200
364, 777.777777778, -34.2361111111, 180
365, 777.777777778, -34.2361111111, 190
366, 777.777777778, -34.2361111111, 200
367, 777.777777778, -10, 190
368, 777.777777778, -10, 200
369, 777.777777778, 0, 190
370, 777.777777778, 0, 200
371, 777.777777778, 10, 190
372, 777.777777778, 10, 200
373, 777.777777778, 40.5555555556, 180
374, 777.777777778, 40.5555555556, 190
375, 777.777777778, 40.5555555556, 200
376, 777.777777778, 71.1111111111, 180
377, 777.777777778, 71.1111111111, 190
378, 777.777777778, 71.1111111111, 200
379, 777.777777778, 101.666666667, 180
380, 777.777777778, 101.666666667, 190
381, 777.777777778, 101.666666667, 200
382, 777.777777778, 132.222222222, 180
383, 777.777777778, 132.222222222, 190
384, 777.777777778, 132.222222222, 200
385, 888.888888889, -10, 35.5555555556
386, 888.888888889, 0, 35.5555555556
387, 888.888888889, -10, 64.4444444444
388, 888.888888889, 0, 64.4444444444
389, 888.888888889, -10, 93.3333333333
390, 888.888888889, 0, 93.3333333333
391, 888.888888889, -10, 122.222222222
392, 888.888888889, 0, 122.222222222
393, 888.888888889, -10, 151.111111111
394, 888.888888889, 0, 151.111111111
395, 888.888888889, -10, 180
396, 888.888888889, 0, 180
397, 888.888888889, 10, 35.5555555556
398, 888.888888889, 10, 64.4444444444
399, 888.888888889, 10, 93.3333333333
400, 888.888888889, 10, 122.222222222
401, 888.888888889, 10, 151.111111111
402, 888.888888889, 10, 180
403, 888.888888889, -112.222222222, 180
404, 888.888888889, -86.6666666667, 180
405, 888.888888889, -112.222222222, 190
406, 888.888888889, -86.6666666667, 190
407, 888.888888889, -112.222222222, 200
408, 888.888888889, -86.6666666667, 200
409, 888.888888889, -61.1111111111, 180
410, 888.888888889, -61.1111111111, 190
411, 888.888888889, -61.1111111111, 200
412, 888.888888889, -35.5555555556, 180
413, 888.888888889, -35.5555555556, 190
414, 888.888888889, -35.5555555556, 200
415, 888.888888889, -10, 190
416, 888.888888889, -10, 200
417, 888.888888889, 0, 190
418, 888.888888889, 0, 200
419, 888.888888889, 10, 190
420, 888.888888889, 10, 200
421, 888.888888889, 39.0277777778, 180
422, 888.888888889, 39.0277777778, 190
423, 888.888888889, 39.0277777778, 200
424, 888.888888889, 68.0555555556, 180
425, 888.888888889, 68.0555555556, 190
426, 888.888888889, 68.0555555556, 200
427, 888.888888889, 97.0833333333, 180
428, 888.888888889, 97.0833333333, 190
429, 888.888888889, 97.0833333333, 200
430, 888.888888889, 126.111111111, 180
431, 888.888888889, 126.111111111, 190
432, 888.888888889, 126.111111111, 200
433, 1000, -10, 40
434, 1000, 0, 40
435, 1000, -10, 68
436, 1000, 0, 68
437, 1000, -10, 96
438, 1000, 0, 96
439, 1000, -10, 124
440, 1000, 0, 124
441, 1000, -10, 152
442, 1000, 0, 152
443, 1000, -10, 180
444, 1000, 0, 180
445, 1000, 10, 40
446, 1000, 10, 68
447, 1000, 10, 96
448, 1000, 10, 124
449, 1000, 10, 152
450, 1000, 10, 180
451, 1000, -117.5, 180
452, 1000, -90.625, 180
453, 1000, -117.5, 190
454, 1000, -90.625, 190
455, 1000, -117.5, 200
456, 1000, -90.625, 200
457, 1000, -63.75, 180
458, 1000, -63.75, 190
459, 1000, -63.75, 200
460, 1000, -36.875, 180
461, 1000, -36.875, 190
462, 1000, -36.875, 200
463, 1000, -10, 190
464, 1000, -10, 200
465, 1000, 0, 190
466, 1000, 0, 200
467, 1000, 10, 190
468, 1000, 10, 200
469, 1000, 37.5, 180
470, 1000, 37.5, 190
471, 1000, 37.5, 200
472, 1000, 65, 180
473, 1000, 65, 190
474, 1000, 65, 200
475, 1000, 92.5, 180
476, 1000, 92.5, 190
477, 1000, 92.5, 200
478, 1000, 120, 180
479, 1000, 120, 190
480, 1000, 120, 200
481, 1111.11111111, -10, 44.4444444444
482, 1111.11111111, 0, 44.4444444444
483, 1111.11111111, -10, 71.5555555556
484, 1111.11111111, 0, 71.5555555556
485, 1111.11111111, -10, 98.6666666667
486, 1111.11111111, 0, 98.6666666667
487, 1111.11111111, -10, 125.777777778
488, 1111.11111111, 0, 125.777777778
489, 1111.11111111, -10, 152.888888889
490, 1111.11111111, 0, 152.888888889
491, 1111.11111111, -10, 180
492, 1111.11111111, 0, 180
493, 1111.11111111, 10, 44.4444444444
494, 1111.11111111, 10, 71.5555555556
495, 1111.11111111, 10, 98.6666666667
496, 1111.11111111, 10, 125.777777778
497, 1111.11111111, 10, 152.888888889
498, 1111.11111111, 10, 180
499, 1111.11111111, -122.777777778, 180
500, 1111.11111111, -94.5833333333, 180
501, 1111.11111111, -122.777777778, 190
502, 1111.11111111, -94.5833333333, 190
503, 1111.11111111, -122.777777778, 200
504, 1111.11111111, -94.5833333333, 200
505, 1111.11111111, -66.3888888889, 180
506, 1111.11111111, -66.3888888889, 190
507, 1111.11111111, -66.3888888889, 200
508, 1111.11111111, -38.1944444444, 180
509, 1111.11111111, -38.1944444444, 190
510, 1111.11111111, -38.1944444444, 200
511, 1111.11111111, -10, 190
512, 1111.11111111, -10, 200
513, 1111.11111111, 0, 190
514, 1111.11111111, 0, 200
515, 1111.11111111, 10, 190
516, 1111.11111111, 10, 200
517, 1111.11111111, 35.9722222222, 180
518, 1111.11111111, 35.9722222222, 190
519, 1111.11111111, 35.9722222222, 200
520, 1111.11111111, 61.9444444444, 180
521, 1111.11111111, 61.9444444444, 190
522, 1111.11111111, 61.9444444444, 200
523, 1111.11111111, 87.9166666667, 180
524, 1111.11111111, 87.9166666667, 190
525, 1111.11111111, 87.9166666667, 200
526, 1111.11111111, 113.888888889, 180
527, 1111.11111111, 113.888888889, 190
528, 1111.11111111, 113.888888889, 200
529, 1222.22222222, -10, 48.8888888889
530, 1222.22222222, 0, 48.8888888889
531, 1222.22222222, -10, 75.1111111111
532, 1222.22222222, 0, 75.1111111111
533, 1222.22222222, -10, 101.333333333
534, 1222.22222222, 0, 101.333333333
535, 1222.22222222, -10, 127.555555556
536, 1222.22222222, 0, 127.555555556
537, 1222.22222222, -10, 153.777777778
538, 1222.22222222, 0, 153.777777778
539, 1222.22222222, -10, 180
540, 1222.22222222, 0, 180
541, 1222.22222222, 10, 48.8888888889
542, 1222.22222222, 10, 75.1111111111
543, 1222.22222222, 10, 101.333333333
544, 1222.22222222, 10, 127.555555556
545, 1222.22222222, 10, 153.777777778
546, 1222.22222222, 10, 180
547, 1222.22222222, -128.055555556, 180
548, 1222.22222222, -98.5416666667, 180
549, 1222.22222222, -128.055555556, 190
550, 1222.22222222, -98.5416666667, 190
551, 1222.22222222, -128.055555556, 200
552, 1222.22222222, -98.5416666667, 200
553, 1222.22222222, -69.0277777778, 180
554, 1222.22222222, -69.0277777778, 190
555, 1222.22222222, -69.0277777778, 200
556, 1222.22222222, -39.5138888889, 180
557, 1222.22222222, -39.5138888889, 190
558, 1222.22222222, -39.5138888889, 200
559, 1222.22222222, -10, 190
560, 1222.22222222, -10, 200
561, 1222.22222222, 0, 190
562, 1222.22222222, 0, 200
563, 1222.22222222, 10, 190
564, 1222.22222222, 10, 200
565, 1222.22222222, 34.4444444444, 180
566, 1222.22222222, 34.4444444444, 190
567, 1222.22222222, 34.4444444444, 200
568, 1222.22222222, 58.8888888889, 180
569, 1222.22222222, 58.8888888889, 190
570, 1222.22222222, 58.8888888889, 200
571, 1222.22222222, 83.3333333333, 180
572, 1222.22222222, 83.3333333333, 190
573, 1222.22222222, 83.3333333333, 200
574, 1222.22222222, 107.777777778, 180
575, 1222.22222222, 107.777777778, 190
576, 1222.22222222, 107.777777778, 200
577, 1333.33333333, -10, 53.3333333333
578, 1333.33333333, 0, 53.3333333333
579, 1333.33333333, -10, 78.6666666667
580, 1333.33333333, 0, 78.6666666667
581, 1333.33333333, -10, 104
582, 1333.33333333, 0, 104
583, 1333.33333333, -10, 129.333333333
584, 1333.33333333, 0, 129.333333333
585, 1333.33333333, -10, 154.666666667
586, 1333.33333333, 0, 154.666666667
587, 1333.33333333, -10, 180
588, 1333.33333333, 0, 180
589, 1333.33333333, 10, 53.3333333333
590, 1333.33333333, 10, 78.6666666667
591, 1333.33333333, 10, 104
592, 1333.33333333, 10, 129.333333333
593, 1333.33333333, 10, 154.666666667
594, 1333.33333333, 10, 180
595, 1333.33333333, -133.333333333, 180
596, 1333.33333333, -102.5, 180
597, 1333.33333333, -133.333333333, 190
598, 1333.33333333, -102.5, 190
599, 1333.33333333, -133.333333333, 200
600, 1333.33333333, -102.5, 200
601, 1333.33333333, -71.6666666667, 180
602, 1333.33333333, -71.6666666667, 190
603, 1333.33333333, -71.6666666667, 200
604, 1333.33333333, -40.8333333333, 180
605, 1333.33333333, -40.8333333333, 190
606, 1333.33333333, -40.8333333333, 200
607, 1333.33333333, -10, 190
608, 1333.33333333, -10, 200
609, 1333.33333333, 0, 190
610, 1333.33333333, 0, 200
611, 1333.33333333, 10, 190
612, 1333.33333333, 10, 200
613, 1333.33333333, 32.9166666667, 180
614, 1333.33333333, 32.9166666667, 190
615, 1333.33333333, 32.9166666667, 200
616, 1333.33333333, 55.8333333333, 180
617, 1333.33333333, 55.8333333333, 190
618, 1333.33333333, 55.8333333333, 200
619, 1333.33333333, 78.75, 180
620, 1333.33333333, 78.75, 190
621, 1333.33333333, 78.75, 200
622, 1333.33333333, 101.666666667, 180
623, 1333.33333333, 101.666666667, 190
624, 1333.33333333, 101.666666667, 200
625, 1444.44444444, -10, 57.7777777778
626, 1444.44444444, 0, 57.7777777778
627, 1444.44444444, -10, 82.2222222222
628, 1444.44444444, 0, 82.2222222222
629, 1444.44444444, -10, 106.666666667
630, 1444.44444444, 0, 106.666666667
631, 1444.44444444, -10, 131.111111111
632, 1444.44444444, 0, 131.111111111
633, 1444.44444444, -10, 155.555555556
634, 1444.44444444, 0, 155.555555556
635, 1444.44444444, -10, 180
636, 1444.44444444, 0, 180
637, 1444.44444444, 10, 57.7777777778
638, 1444.44444444, 10, 82.2222222222
639, 1444.44444444, 10, 106.666666667
640, 1444.44444444, 10, 131.111111111
641, 1444.44444444, 10, 155.555555556
642, 1444.44444444, 10, 180
643, 1444.44444444, -138.611111111, 180
644, 1444.44444444, -106.458333333, 180
645, 1444.44444444, -138.611111111, 190
646, 1444.44444444, -106.458333333, 190
647, 1444.44444444, -138.611111111, 200
648, 1444.44444444, -106.458333333, 200
649, 1444.44444444, -74.3055555556, 180
650, 1444.44444444, -74.3055555556, 190
651, 1444.44444444, -74.3055555556, 200
652, 1444.44444444, -42.1527777778, 180
653, 1444.44444444, -42.1527777778, 190
654, 1444.44444444, -42.1527777778, 200
655, 1444.44444444, -10, 190
656, 1444.44444444, -10, 200
657, 1444.44444444, 0, 190
658, 1444.44444444, 0, 200
659, 1444.44444444, 10, 190
660, 1444.44444444, 10, 200
661, 1444.44444444, 31.3888888889, 180
662, 1444.44444444, 31.3888888889, 190
663, 1444.44444444, 31.3888888889, 200
664, 1444.44444444, 52.7777777778, 180
665, 1444.44444444, 52.7777777778, 190
666, 1444.44444444, 52.7777777778, 200
667, 1444.44444444, 74.1666666667, 180
668, 1444.44444444, 74.1666666667, 190
669, 1444.44444444, 74.1666666667, 200
670, 1444.44444444, 95.5555555556, 180
671, 1444.44444444, 95.5555555556, 190
672, 1444.44444444, 95.5555555556, 200
673, 1555.55555556, -10, 62.2222222222
674, 1555.55555556, 0, 62.2222222222
675, 1555.55555556, -10, 85.7777777778
676, 1555.55555556, 0, 85.7777777778
677, 1555.55555556, -10, 109.333333333
678, 1555.55555556, 0, 109.333333333
679, 1555.55555556, -10, 132.888888889
680, 1555.55555556, 0, 132.888888889
681, 1555.55555556, -10, 156.444444444
682, 1555.55555556, 0, 156.444444444
683, 1555.55555556, -10, 180
684, 1555.55555556, 0, 180
685, 1555.55555556, 10, 62.2222222222
686, 1555.55555556, 10, 85.7777777778
687, 1555.55555556, 10, 109.333333333
688, 1555.55555556, 10, 132.888888889
689, 1555.55555556, 10, 156.444444444
690, 1555.55555556, 10, 180
691, 1555.55555556, -143.888888889, 180
692, 1555.55555556, -110.416666667, 180
693, 1555.55555556, -143.888888889, 190
694, 1555.55555556, -110.416666667, 190
695, 1555.55555556, -143.888888889, 200
696, 1555.55555556, -110.416666667, 200
697, 1555.55555556, -76.9444444444, 180
698, 1555.55555556, -76.9444444444, 190
699, 1555.55555556, -76.9444444444, 200
700, 1555.55555556, -43.4722222222, 180
701, 1555.55555556, -43.4722222222, 190
702, 1555.55555556, -43.4722222222, 200
703, 1555.55555556, -10, 190
704, 1555.55555556, -10, 200
705, 1555.55555556, 0, 190
706, 1555.55555556, 0, 200
707, 1555.55555556, 10, 190
708, 1555.55555556, 10, 200
709, 1555.55555556, 29.8611111111, 180
710, 1555.55555556, 29.8611111111, 190
711, 1555.55555556, 29.8611111111, 200
712, 1555.55555556, 49.7222222222, 180
713, 1555.55555556, 49.7222222222, 190
714, 1555.55555556, 49.7222222222, 200
715, 1555.55555556, 69.5833333333, 180
716, 1555.55555556, 69.5833333333, 190
717, 1555.55555556, 69.5833333333, 200
718, 1555.55555556, 89.4444444444, 180
719, 1555.55555556, 89.4444444444, 190
720, 1555.55555556, 89.4444444444, 200
721, 1666.66666667, -10, 66.6666666667
722, 1666.66666667, 0, 66.6666666667
723, 1666.66666667, -10, 89.3333333333
724, 1666.66666667, 0, 89.3333333333
725, 1666.66666667, -10, 112
726, 1666.66666667, 0, 112
727, 1666.66666667, -10, 134.666666667
728, 1666.66666667, 0, 134.666666667
729, 1666.66666667, -10, 157.333333333
730, 1666.66666667, 0, 157.333333333
731, 1666.66666667, -10, 180
732, 1666.66666667, 0, 180
733, 1666.66666667, 10, 66.6666666667
734, 1666.66666667, 10, 89.3333333333
735, 1666.66666667, 10, 112
736, 1666.66666667, 10, 134.666666667
737, 1666.66666667, 10, 157.333333333
738, 1666.66666667, 10, 180
739, 1666.66666667, -149.166666667, 180
740, 1666.66666667, -114.375, 180
741, 1666.66666667, -149.166666667, 190
742, 1666.66666667, -114.375, 190
743, 1666.66666667, -149.166666667, 200
744, 1666.66666667, -114.375, 200
745, 1666.66666667, -79.5833333333, 180
746, 1666.66666667, -79.5833333333, 190
747, 1666.66666667, -79.5833333333, 200
748, 1666.66666667, -44.7916666667, 180
749, 1666.66666667, -44.7916666667, 190
750, 1666.66666667, -44.7916666667, 200
751, 1666.66666667, -10, 190
752, 1666.66666667, -10, 200
753, 1666.66666667, 0, 190
754, 1666.66666667, 0, 200
755, 1666.66666667, 10, 190
756, 1666.66666667, 10, 200
757, 1666.66666667, 28.3333333333, 180
758, 1666.66666667, 28.3333333333, 190
759, 1666.66666667, 28.3333333333, 200
760, 1666.66666667, 46.6666666667, 180
761, 1666.66666667, 46.6666666667, 190
762, 1666.66666667, 46.6666666667, 200
763, 1666.66666667, 65, 180
764, 1666.66666667, 65, 190
765, 1666.66666667, 65, 200
766, 1666.66666667, 83.3333333333, 180
767, 1666.66666667, 83.3333333333, 190
768, 1666.66666667, 83.3333333333, 200
769, 1777.77777778, -10, 71.1111111111
770, 1777.77777778, 0, 71.1111111111
771, 1777.77777778, -10, 92.8888888889
772, 1777.77777778, 0, 92.8888888889
773, 1777.77777778, -10, 114.666666667
774, 1777.77777778, 0, 114.666666667
775, 1777.77777778, -10, 136.444444444
776, 1777.77777778, 0, 136.444444444
777, 1777.77777778, -10, 158.222222222
778, 1777.77777778, 0, 158.222222222
779, 1777.77777778, -10, 180
780, 1777.77777778, 0, 180
781, 1777.77777778, 10, 71.1111111111
782, 1777.77777778, 10, 92.8888888889
783, 1777.77777778, 10, 114.666666667
784, 1777.77777778, 10, 136.444444444
785, 1777.77777778, 10, 158.222222222
786, 1777.77777778, 10, 180
787, 1777.77777778, -154.444444444, 180
788, 1777.77777778, -118.333333333, 180
789, 1777.77777778, -154.444444444, 190
790, 1777.77777778, -118.333333333, 190
791, 1777.77777778, -154.444444444, 200
792, 1777.77777778, -118.333333333, 200
793, 1777.77777778, -82.2222222222, 180
794, 1777.77777778, -82.2222222222, 190
795, 1777.77777778, -82.2222222222, 200
796, 1777.77777778, -46.1111111111, 180
797, 1777.77777778, -46.1111111111, 190
798, 1777.77777778, -46.1111111111, 200
799, 1777.77777778, -10, 190
800, 1777.77777778, -10, 200
801, 1777.77777778, 0, 190
802, 1777.77777778, 0, 200
803, 1777.77777778, 10, 190
804, 1777.77777778, 10, 200
805, 1777.77777778, 26.8055555556, 180
806, 1777.77777778, 26.8055555556, 190
807, 1777.77777778, 26.8055555556, 200
808, 1777.77777778, 43.6111111111, 180
809, 1777.77777778, 43.6111111111, 190
810, 1777.77777778, 43.6111111111, 200
811, 1777.77777778, 60.4166666667, 180
812, 1777.77777778, 60.4166666667, 190
813, 1777.77777778, 60.4166666667, 200
814, 1777.77777778, 77.2222222222, 180
815, 1777.77777778, 77.2222222222, 190
816, 1777.77777778, 77.2222222222, 200
817, 1888.88888889, -10, 75.5555555556
818, 1888.88888889, 0, 75.5555555556
819, 1888.88888889, -10, 96.4444444444
820, 1888.88888889, 0, 96.4444444444
821, 1888.88888889, -10, 117.333333333
822, 1888.88888889, 0, 117.333333333
823, 1888.88888889, -10, 138.222222222
824, 1888.88888889, 0, 138.222222222
825, 1888.88888889, -10, 159.111111111
826, 1888.88888889, 0, 159.111111111
827, 1888.88888889, -10, 180
828, 1888.88888889, 0, 180
829, 1888.88888889, 10, 75.5555555556
830, 1888.88888889, 10, 96.4444444444
831, 1888.88888889, 10, 117.333333333
832, 1888.88888889, 10, 138.222222222
833, 1888.88888889, 10, 159.111111111
834, 1888.88888889, 10, 180
835, 1888.88888889, -159.722222222, 180
836, 1888.88888889, -122.291666667, 180
837, 1888.88888889, -159.722222222, 190
838, 1888.88888889, -122.291666667, 190
839, 1888.88888889, -159.722222222, 200
840, 1888.88888889, -122.291666667, 200
841, 1888.88888889, -84.8611111111, 180
842, 1888.88888889, -84.8611111111, 190
843, 1888.88888889, -84.8611111111, 200
844, 1888.88888889, -47.4305555556, 180
845, 1888.88888889, -47.4305555556, 190
846, 1888.88888889, -47.4305555556, 200
847, 1888.88888889, -10, 190
848, 1888.88888889, -10, 200
849, 1888.88888889, 0, 190
850, 1888.88888889, 0, 200
851, 1888.88888889, 10, 190
852, 1888.88888889, 10, 200
853, 1888.88888889, 25.2777777778, 180
854, 1888.88888889, 25.2777777778, 190
855, 1888.88888889, 25.2777777778, 200
856, 1888.88888889, 40.5555555556, 180
857, 1888.88888889, 40.5555555556, 190
858, 1888.88888889, 40.5555555556, 200
859, 1888.88888889, 55.8333333333, 180
860, 1888.88888889, 55.8333333333, 190
861, 1888.88888889, 55.8333333333, 200
862, 1888.88888889, 71.1111111111, 180
863, 1888.88888889, 71.1111111111, 190
864, 1888.88888889, 71.1111111111, 200
865, 2000, -10, 80
866, 2000, 0, 80
867, 2000, -10, 100
868, 2000, 0, 100
869, 2000, -10, 120
870, 2000, 0, 120
871, 2000, -10, 140
872, 2000, 0, 140
873, 2000, -10, 160
874, 2000, 0, 160
875, 2000, -10, 180
876, 2000, 0, 180
877, 2000, 10, 80
878, 2000, 10, 100
879, 2000, 10, 120
880, 2000, 10, 140
881, 2000, 10, 160
882, 2000, 10, 180
883, 2000, -165, 180
884, 2000, -126.25, 180
885, 2000, -165, 190
886, 2000, -126.25, 190
887, 2000, -165, 200
888, 2000, -126.25, 200
889, 2000, -87.5, 180
890, 2000, -87.5, 190
891, 2000, -87.5, 200
892, 2000, -48.75, 180
893, 2000, -48.75, 190
894, 2000, -48.75, 200
895, 2000, -10, 190
896, 2000, -10, 200
897, 2000, 0, 190
898, 2000, 0, 200
899, 2000, 10, 190
900, 2000, 10, 200
901, 2000, 23.75, 180
902, 2000, 23.75, 190
903, 2000, 23.75, 200
904, 2000, 37.5, 180
905, 2000, 37.5, 190
906, 2000, 37.5, 200
907, 2000, 51.25, 180
908, 2000, 51.25, 190
909, 2000, 51.25, 200
910, 2000, 65, 180
911, 2000, 65, 190
912, 2000, 65, 200
913, 0, -10, 18
914, 0, -5, 0
915, 0, -5, 18
916, 0, -5, 36
917, 0, 0, 18
918, 55.5555555556, -10, 2.22222222222
919, 55.5555555556, -10, 20
920, 55.5555555556, -10, 37.7777777778
921, 55.5555555556, -5, 2.22222222222
922, 55.5555555556, -5, 20
923, 55.5555555556, -5, 37.7777777778
924, 55.5555555556, 0, 2.22222222222
925, 55.5555555556, 0, 20
926, 55.5555555556, 0, 37.7777777778
927, 111.111111111, -10, 22
928, 111.111111111, -5, 4.44444444444
929, 111.111111111, -5, 22
930, 111.111111111, -5, 39.5555555556
931, 111.111111111, 0, 22
932, 0, 5, 0
933, 0, 5, 18
934, 0, 5, 36
935, 0, 10, 18
936, 55.5555555556, 5, 2.22222222222
937, 55.5555555556, 5, 20
938, 55.5555555556, 5, 37.7777777778
939, 55.5555555556, 10, 2.22222222222
940, 55.5555555556, 10, 20
941, 55.5555555556, 10, 37.7777777778
942, 111.111111111, 5, 4.44444444444
943, 111.111111111, 5, 22
944, 111.111111111, 5, 39.5555555556
945, 111.111111111, 10, 22
946, 166.666666667, -10, 6.66666666667
947, 166.666666667, -10, 24
948, 166.666666667, -10, 41.3333333333
949, 166.666666667, -5, 6.66666666667
950, 166.666666667, -5, 24
951, 166.666666667, -5, 41.3333333333
952, 166.666666667, 0, 6.66666666667
953, 166.666666667, 0, 24
954, 166.666666667, 0, 41.3333333333
955, 222.222222222, -10, 26
956, 222.222222222, -5, 8.88888888889
957, 222.222222222, -5, 26
958, 222.222222222, -5, 43.1111111111
959, 222.222222222, 0, 26
960, 166.666666667, 5, 6.66666666667
961, 166.666666667, 5, 24
962, 166.666666667, 5, 41.3333333333
963, 166.666666667, 10, 6.66666666667
964, 166.666666667, 10, 24
965, 166.666666667, 10, 41.3333333333
966, 222.222222222, 5, 8.88888888889
967, 222.222222222, 5, 26
968, 222.222222222, 5, 43.1111111111
969, 222.222222222, 10, 26
970, 333.333333333, 0, 30
971, 333.333333333, 5, 13.3333333333
972, 333.333333333, 5, 30
973, 333.333333333, 5, 46.6666666667
974, 333.333333333, 10, 30
975, 388.888888889, 0, 15.5555555556
976, 388.888888889, 0, 32
977, 388.888888889, 0, 48.4444444444
978, 388.888888889, 5, 15.5555555556
979, 388.888888889, 5, 32
980, 388.888888889, 5, 48.4444444444
981, 388.888888889, 10, 15.5555555556
982, 388.888888889, 10, 32
983, 388.888888889, 10, 48.4444444444
984, 444.444444444, 0, 34
985, 444.444444444, 5, 17.7777777778
986, 444.444444444, 5, 34
987, 444.444444444, 5, 50.2222222222
988, 444.444444444, 10, 34
989, 888.888888889, -10, 50
990, 888.888888889, -5, 35.5555555556
991, 888.888888889, -5, 50
992, 888.888888889, -5, 64.4444444444
993, 888.888888889, 0, 50
994, 944.444444444, -10, 37.7777777778
995, 944.444444444, -10, 52
996, 944.444444444, -10, 66.2222222222
997, 944.444444444, -5, 37.7777777778
998, 944.444444444, -5, 52
999, 944.444444444, -5, 66.2222222222
1000, 944.444444444, 0, 37.7777777778
1001, 944.444444444, 0, 52
1002, 944.444444444, 0, 66.2222222222
1003, 1000, -10, 54
1004, 1000, -5, 40
1005, 1000, -5, 54
1006, 1000, -5, 68
1007, 1000, 0, 54
1008, 888.888888889, 5, 35.5555555556
1009, 888.888888889, 5, 50
1010, 888.888888889, 5, 64.4444444444
1011, 888.888888889, 10, 50
1012, 944.444444444, 5, 37.7777777778
1013, 944.444444444, 5, 52
1014, 944.444444444, 5, 66.2222222222
1015, 944.444444444, 10, 37.7777777778
1016, 944.444444444, 10, 52
1017, 944.444444444, 10, 66.2222222222
1018, 1000, 5, 40
1019, 1000, 5, 54
1020, 1000, 5, 68
1021, 1000, 10, 54
1022, 1055.55555556, -10, 42.2222222222
1023, 1055.55555556, -10, 56
1024, 1055.55555556, -10, 69.7777777778
1025, 1055.55555556, -5, 42.2222222222
1026, 1055.55555556, -5, 56
1027, 1055.55555556, -5, 69.7777777778
1028, 1055.55555556, 0, 42.2222222222
1029, 1055.55555556, 0, 56
1030, 1055.55555556, 0, 69.7777777778
1031, 1111.11111111, -10, 58
1032, 1111.11111111, -5, 44.4444444444
1033, 1111.11111111, -5, 58
1034, 1111.11111111, -5, 71.5555555556
1035, 1111.11111111, 0, 58
1036, 1055.55555556, 5, 42.2222222222
1037, 1055.55555556, 5, 56
1038, 1055.55555556, 5, 69.7777777778
1039, 1055.55555556, 10, 42.2222222222
1040, 1055.55555556, 10, 56
1041, 1055.55555556, 10, 69.7777777778
1042, 1111.11111111, 5, 44.4444444444
1043, 1111.11111111, 5, 58
1044, 1111.11111111, 5, 71.5555555556
1045, 1111.11111111, 10, 58
1046, 1166.66666667, -10, 46.6666666667
1047, 1166.66666667, -10, 60
1048, 1166.66666667, -10, 73.3333333333
1049, 1166.66666667, -5, 46.6666666667
1050, 1166.66666667, -5, 60
1051, 1166.66666667, -5, 73.3333333333
1052, 1166.66666667, 0, 46.6666666667
1053, 1166.66666667, 0, 60
1054, 1166.66666667, 0, 73.3333333333
1055, 1222.22222222, -10, 62
1056, 1222.22222222, -5, 48.8888888889
1057, 1222.22222222, -5, 62
1058, 1222.22222222, -5, 75.1111111111
1059, 1222.22222222, 0, 62
1060, 1166.66666667, 5, 46.6666666667
1061, 1166.66666667, 5, 60
1062, 1166.66666667, 5, 73.3333333333
1063, 1166.66666667, 10, 46.6666666667
1064, 1166.66666667, 10, 60
1065, 1166.66666667, 10, 73.3333333333
1066, 1222.22222222, 5, 48.8888888889
1067, 1222.22222222, 5, 62
1068, 1222.22222222, 5, 75.1111111111
1069, 1222.22222222, 10, 62
1070, 1111.11111111, -122.777777778, 185
1071, 1111.11111111, -108.680555556, 180
1072, 1111.11111111, -108.680555556, 185
1073, 1111.11111111, -108.680555556, 190
1074, 1111.11111111, -94.5833333333, 185
1075, 1166.66666667, -125.416666667, 180
1076, 1166.66666667, -125.416666667, 185
1077, 1166.66666667, -125.416666667, 190
1078, 1166.66666667, -110.989583333, 180
1079, 1166.66666667, -110.989583333, 185
1080, 1166.66666667, -110.989583333, 190
1081, 1166.66666667, -96.5625, 180
1082, 1166.66666667, -96.5625, 185
1083, 1166.66666667, -96.5625, 190
1084, 1222.22222222, -128.055555556, 185
1085, 1222.22222222, -113.298611111, 180
1086, 1222.22222222, -113.298611111, 185
1087, 1222.22222222, -113.298611111, 190
1088, 1222.22222222, -98.5416666667, 185
1089, 1111.11111111, -122.777777778, 195
1090, 1111.11111111, -108.680555556, 195
1091, 1111.11111111, -108.680555556, 200
1092, 1111.11111111, -94.5833333333, 195
1093, 1166.66666667, -125.416666667, 195
1094, 1166.66666667, -125.416666667, 200
1095, 1166.66666667, -110.989583333, 195
1096, 1166.66666667, -110.989583333, 200
1097, 1166.66666667, -96.5625, 195
1098, 1166.66666667, -96.5625, 200
1099, 1222.22222222, -128.055555556, 195
1100, 1222.22222222, -113.298611111, 195
1101, 1222.22222222, -113.298611111, 200
1102, 1222.22222222, -98.5416666667, 195
1103, 1277.77777778, -10, 51.1111111111
1104, 1277.77777778, -10, 64
1105, 1277.77777778, -10, 76.8888888889
1106, 1277.77777778, -5, 51.1111111111
1107, 1277.77777778, -5, 64
1108, 1277.77777778, -5, 76.8888888889
1109, 1277.77777778, 0, 51.1111111111
1110, 1277.77777778, 0, 64
1111, 1277.77777778, 0, 76.8888888889
1112, 1333.33333333, -10, 66
1113, 1333.33333333, -5, 53.3333333333
1114, 1333.33333333, -5, 66
1115, 1333.33333333, -5, 78.6666666667
1116, 1333.33333333, 0, 66
1117, 1277.77777778, 5, 51.1111111111
1118, 1277.77777778, 5, 64
1119, 1277.77777778, 5, 76.8888888889
1120, 1277.77777778, 10, 51.1111111111
1121, 1277.77777778, 10, 64
1122, 1277.77777778, 10, 76.8888888889
1123, 1333.33333333, 5, 53.3333333333
1124, 1333.33333333, 5, 66
1125, 1333.33333333, 5, 78.6666666667
1126, 1333.33333333, 10, 66
1127, 1277.77777778, -130.694444444, 180
1128, 1277.77777778, -130.694444444, 185
1129, 1277.77777778, -130.694444444, 190
1130, 1277.77777778, -115.607638889, 180
1131, 1277.77777778, -115.607638889, 185
1132, 1277.77777778, -115.607638889, 190
1133, 1277.77777778, -100.520833333, 180
1134, 1277.77777778, -100.520833333, 185
1135, 1277.77777778, -100.520833333, 190
1136, 1333.33333333, -133.333333333, 185
1137, 1333.33333333, -117.916666667, 180
1138, 1333.33333333, -117.916666667, 185
1139, 1333.33333333, -117.916666667, 190
1140, 1333.33333333, -102.5, 185
1141, 1277.77777778, -130.694444444, 195
1142, 1277.77777778, -130.694444444, 200
1143, 1277.77777778, -115.607638889, 195
1144, 1277.77777778, -115.607638889, 200
1145, 1277.77777778, -100.520833333, 195
1146, 1277.77777778, -100.520833333, 200
1147, 1333.33333333, -133.333333333, 195
1148, 1333.33333333, -117.916666667, 195
1149, 1333.33333333, -117.916666667, 200
1150, 1333.33333333, -102.5, 195
1151, 1222.22222222, 83.3333333333, 185
1152, 1222.22222222, 95.5555555556, 180
1153, 1222.22222222, 95.5555555556, 185
1154, 1222.22222222, 95.5555555556, 190
1155, 1222.22222222, 107.777777778, 185
1156, 1277.77777778, 81.0416666667, 180
1157, 1277.77777778, 81.0416666667, 185
1158, 1277.77777778, 81.0416666667, 190
1159, 1277.77777778, 92.8819444444, 180
1160, 1277.77777778, 92.8819444444, 185
1161, 1277.77777778, 92.8819444444, 190
1162, 1277.77777778, 104.722222222, 180
1163, 1277.77777778, 104.722222222, 185
1164, 1277.77777778, 104.722222222, 190
1165, 1333.33333333, 78.75, 185
1166, 1333.33333333, 90.2083333333, 180
1167, 1333.33333333, 90.2083333333, 185
1168, 1333.33333333, 90.2083333333, 190
1169, 1333.33333333, 101.666666667, 185
1170, 1222.22222222, 83.3333333333, 195
1171, 1222.22222222, 95.5555555556, 195
1172, 1222.22222222, 95.5555555556, 200
1173, 1222.22222222, 107.777777778, 195
1174, 1277.77777778, 81.0416666667, 195
1175, 1277.77777778, 81.0416666667, 200
1176, 1277.77777778, 92.8819444444, 195
1177, 1277.77777778, 92.8819444444, 200
1178, 1277.77777778, 104.722222222, 195
1179, 1277.77777778, 104.722222222, 200
1180, 1333.33333333, 78.75, 195
1181, 1333.33333333, 90.2083333333, 195
1182, 1333.33333333, 90.2083333333, 200
1183, 1333.33333333, 101.666666667, 195
1184, 1388.88888889, -10, 55.5555555556
1185, 1388.88888889, -10, 68
1186, 1388.88888889, -10, 80.4444444444
1187, 1388.88888889, -5, 55.5555555556
1188, 1388.88888889, -5, 68
1189, 1388.88888889, -5, 80.4444444444
1190, 1388.88888889, 0, 55.5555555556
1191, 1388.88888889, 0, 68
1192, 1388.88888889, 0, 80.4444444444
1193, 1444.44444444, -10, 70
1194, 1444.44444444, -5, 57.7777777778
1195, 1444.44444444, -5, 70
1196, 1444.44444444, -5, 82.2222222222
1197, 1444.44444444, 0, 70
1198, 1388.88888889, 5, 55.5555555556
1199, 1388.88888889, 5, 68
1200, 1388.88888889, 5, 80.4444444444
1201, 1388.88888889, 10, 55.5555555556
1202, 1388.88888889, 10, 68
1203, 1388.88888889, 10, 80.4444444444
1204, 1444.44444444, 5, 57.7777777778
1205, 1444.44444444, 5, 70
1206, 1444.44444444, 5, 82.2222222222
1207, 1444.44444444, 10, 70
1208, 1388.88888889, -135.972222222, 180
1209, 1388.88888889, -135.972222222, 185
1210, 1388.88888889, -135.972222222, 190
1211, 1388.88888889, -120.225694444, 180
1212, 1388.88888889, -120.225694444, 185
1213, 1388.88888889, -120.225694444, 190
1214, 1388.88888889, -104.479166667, 180
1215, 1388.88888889, -104.479166667, 185
1216, 1388.88888889, -104.479166667, 190
1217, 1444.44444444, -138.611111111, 185
1218, 1444.44444444, -122.534722222, 180
1219, 1444.44444444, -122.534722222, 185
1220, 1444.44444444, -122.534722222, 190
1221, 1444.44444444, -106.458333333, 185
1222, 1388.88888889, -135.972222222, 195
1223, 1388.88888889, -135.972222222, 200
1224, 1388.88888889, -120.225694444, 195
1225, 1388.88888889, -120.225694444, 200
1226, 1388.88888889, -104.479166667, 195
1227, 1388.88888889, -104.479166667, 200
1228, 1444.44444444, -138.611111111, 195
1229, 1444.44444444, -122.534722222, 195
1230, 1444.44444444, -122.534722222, 200
1231, 1444.44444444, -106.458333333, 195
1232, 1388.88888889, 76.4583333333, 180
1233, 1388.88888889, 76.4583333333, 185
1234, 1388.88888889, 76.4583333333, 190
1235, 1388.88888889, 87.5347222222, 180
1236, 1388.88888889, 87.5347222222, 185
1237, 1388.88888889, 87.5347222222, 190
1238, 1388.88888889, 98.6111111111, 180
1239, 1388.88888889, 98.6111111111, 185
1240, 1388.88888889, 98.6111111111, 190
1241, 1444.44444444, 74.1666666667, 185
1242, 1444.44444444, 84.8611111111, 180
1243, 1444.44444444, 84.8611111111, 185
1244, 1444.44444444, 84.8611111111, 190
1245, 1444.44444444, 95.5555555556, 185
1246, 1388.88888889, 76.4583333333, 195
1247, 1388.88888889, 76.4583333333, 200
1248, 1388.88888889, 87.5347222222, 195
1249, 1388.88888889, 87.5347222222, 200
1250, 1388.88888889, 98.6111111111, 195
1251, 1388.88888889, 98.6111111111, 200
1252, 1444.44444444, 74.1666666667, 195
1253, 1444.44444444, 84.8611111111, 195
1254, 1444.44444444, 84.8611111111, 200
1255, 1444.44444444, 95.5555555556, 195
1256, 1500, -10, 60
1257, 1500, -10, 72
1258, 1500, -10, 84
1259, 1500, -5, 60
1260, 1500, -5, 72
1261, 1500, -5, 84
1262, 1500, 0, 60
1263, 1500, 0, 72
1264, 1500, 0, 84
1265, 1555.55555556, -10, 74
1266, 1555.55555556, -5, 62.2222222222
1267, 1555.55555556, -5, 74
1268, 1555.55555556, -5, 85.7777777778
1269, 1555.55555556, 0, 74
1270, 1500, 5, 60
1271, 1500, 5, 72
1272, 1500, 5, 84
1273, 1500, 10, 60
1274, 1500, 10, 72
1275, 1500, 10, 84
1276, 1555.55555556, 5, 62.2222222222
1277, 1555.55555556, 5, 74
1278, 1555.55555556, 5, 85.7777777778
1279, 1555.55555556, 10, 74
1280, 1500, -141.25, 180
1281, 1500, -141.25, 185
1282, 1500, -141.25, 190
1283, 1500, -124.84375, 180
1284, 1500, -124.84375, 185
1285, 1500, -124.84375, 190
1286, 1500, -108.4375, 180
1287, 1500, -108.4375, 185
1288, 1500, -108.4375, 190
1289, 1555.55555556, -143.888888889, 185
1290, 1555.55555556, -127.152777778, 180
1291, 1555.55555556, -127.152777778, 185
1292, 1555.55555556, -127.152777778, 190
1293, 1555.55555556, -110.416666667, 185
1294, 1500, -141.25, 195
1295, 1500, -141.25, 200
1296, 1500, -124.84375, 195
1297, 1500, -124.84375, 200
1298, 1500, -108.4375, 195
1299, 1500, -108.4375, 200
1300, 1555.55555556, -143.888888889, 195
1301, 1555.55555556, -127.152777778, 195
1302, 1555.55555556, -127.152777778, 200
1303, 1555.55555556, -110.416666667, 195
1304, 1500, 71.875, 180
1305, 1500, 71.875, 185
1306, 1500, 71.875, 190
1307, 1500, 82.1875, 180
1308, 1500, 82.1875, 185
1309, 1500, 82.1875, 190
1310, 1500, 92.5, 180
1311, 1500, 92.5, 185
1312, 1500, 92.5, 190
1313, 1555.55555556, 69.5833333333, 185
1314, 1555.55555556, 79.5138888889, 180
1315, 1555.55555556, 79.5138888889, 185
1316, 1555.55555556, 79.5138888889, 190
1317, 1555.55555556, 89.4444444444, 185
1318, 1500, 71.875, 195
1319, 1500, 71.875, 200
1320, 1500, 82.1875, 195
1321, 1500, 82.1875, 200
1322, 1500, 92.5, 195
1323, 1500, 92.5, 200
1324, 1555.55555556, 69.5833333333, 195
1325, 1555.55555556, 79.5138888889, 195
1326, 1555.55555556, 79.5138888889, 200
1327, 1555.55555556, 89.4444444444, 195
1328, 1611.11111111, -10, 64.4444444444
1329, 1611.11111111, -10, 76
1330, 1611.11111111, -10, 87.5555555556
1331, 1611.11111111, -5, 64.4444444444
1332, 1611.11111111, -5, 76
1333, 1611.11111111, -5, 87.5555555556
1334, 1611.11111111, 0, 64.4444444444
1335, 1611.11111111, 0, 76
1336, 1611.11111111, 0, 87.5555555556
1337, 1666.66666667, -10, 78
1338, 1666.66666667, -5, 66.6666666667
1339, 1666.66666667, -5, 78
1340, 1666.66666667, -5, 89.3333333333
1341, 1666.66666667, 0, 78
1342, 1555.55555556, -10, 168.222222222
1343, 1555.55555556, -5, 156.444444444
1344, 1555.55555556, -5, 168.222222222
1345, 1555.55555556, -5, 180
1346, 1555.55555556, 0, 168.222222222
1347, 1611.11111111, -10, 156.888888889
1348, 1611.11111111, -10, 168.444444444
1349, 1611.11111111, -10, 180
1350, 1611.11111111, -5, 156.888888889
1351, 1611.11111111, -5, 168.444444444
1352, 1611.11111111, -5, 180
1353, 1611.11111111, 0, 156.888888889
1354, 1611.11111111, 0, 168.444444444
1355, 1611.11111111, 0, 180
1356, 1666.66666667, -10, 168.666666667
1357, 1666.66666667, -5, 157.333333333
1358, 1666.66666667, -5, 168.666666667
1359, 1666.66666667, -5, 180
1360, 1666.66666667, 0, 168.666666667
1361, 1611.11111111, 5, 64.4444444444
1362, 1611.11111111, 5, 76
1363, 1611.11111111, 5, 87.5555555556
1364, 1611.11111111, 10, 64.4444444444
1365, 1611.11111111, 10, 76
1366, 1611.11111111, 10, 87.5555555556
1367, 1666.66666667, 5, 66.6666666667
1368, 1666.66666667, 5, 78
1369, 1666.66666667, 5, 89.3333333333
1370, 1666.66666667, 10, 78
1371, 1611.11111111, -146.527777778, 180
1372, 1611.11111111, -146.527777778, 185
1373, 1611.11111111, -146.527777778, 190
1374, 1611.11111111, -129.461805556, 180
1375, 1611.11111111, -129.461805556, 185
1376, 1611.11111111, -129.461805556, 190
1377, 1611.11111111, -112.395833333, 180
1378, 1611.11111111, -112.395833333, 185
1379, 1611.11111111, -112.395833333, 190
1380, 1666.66666667, -149.166666667, 185
1381, 1666.66666667, -131.770833333, 180
1382, 1666.66666667, -131.770833333, 185
1383, 1666.66666667, -131.770833333, 190
1384, 1666.66666667, -114.375, 185
1385, 1611.11111111, -146.527777778, 195
1386, 1611.11111111, -146.527777778, 200
1387, 1611.11111111, -129.461805556, 195
1388, 1611.11111111, -129.461805556, 200
1389, 1611.11111111, -112.395833333, 195
1390, 1611.11111111, -112.395833333, 200
1391, 1666.66666667, -149.166666667, 195
1392, 1666.66666667, -131.770833333, 195
1393, 1666.66666667, -131.770833333, 200
1394, 1666.66666667, -114.375, 195
1395, 1611.11111111, 67.2916666667, 180
1396, 1611.11111111, 67.2916666667, 185
1397, 1611.11111111, 67.2916666667, 190
1398, 1611.11111111, 76.8402777778, 180
1399, 1611.11111111, 76.8402777778, 185
1400, 1611.11111111, 76.8402777778, 190
1401, 1611.11111111, 86.3888888889, 180
1402, 1611.11111111, 86.3888888889, 185
1403, 1611.11111111, 86.3888888889, 190
1404, 1666.66666667, 65, 185
1405, 1666.66666667, 74.1666666667, 180
1406, 1666.66666667, 74.1666666667, 185
1407, 1666.66666667, 74.1666666667, 190
1408, 1666.66666667, 83.3333333333, 185
1409, 1611.11111111, 67.2916666667, 195
1410, 1611.11111111, 67.2916666667, 200
1411, 1611.11111111, 76.8402777778, 195
1412, 1611.11111111, 76.8402777778, 200
1413, 1611.11111111, 86.3888888889, 195
1414, 1611.11111111, 86.3888888889, 200
1415, 1666.66666667, 65, 195
1416, 1666.66666667, 74.1666666667, 195
1417, 1666.66666667, 74.1666666667, 200
1418, 1666.66666667, 83.3333333333, 195
1419, 1722.22222222, -10, 68.8888888889
1420, 1722.22222222, -10, 80
1421, 1722.22222222, -10, 91.1111111111
1422, 1722.22222222, -5, 68.8888888889
1423, 1722.22222222, -5, 80
1424, 1722.22222222, -5, 91.1111111111
1425, 1722.22222222, 0, 68.8888888889
1426, 1722.22222222, 0, 80
1427, 1722.22222222, 0, 91.1111111111
1428, 1777.77777778, -10, 82
1429, 1777.77777778, -5, 71.1111111111
1430, 1777.77777778, -5, 82
1431, 1777.77777778, -5, 92.8888888889
1432, 1777.77777778, 0, 82
1433, 1722.22222222, -10, 157.777777778
1434, 1722.22222222, -10, 168.888888889
1435, 1722.22222222, -10, 180
1436, 1722.22222222, -5, 157.777777778
1437, 1722.22222222, -5, 168.888888889
1438, 1722.22222222, -5, 180
1439, 1722.22222222, 0, 157.777777778
1440, 1722.22222222, 0, 168.888888889
1441, 1722.22222222, 0, 180
1442, 1777.77777778, -10, 169.111111111
1443, 1777.77777778, -5, 158.222222222
1444, 1777.77777778, -5, 169.111111111
1445, 1777.77777778, -5, 180
1446, 1777.77777778, 0, 169.111111111
1447, 1722.22222222, 5, 68.8888888889
1448, 1722.22222222, 5, 80
1449, 1722.22222222, 5, 91.1111111111
1450, 1722.22222222, 10, 68.8888888889
1451, 1722.22222222, 10, 80
1452, 1722.22222222, 10, 91.1111111111
1453, 1777.77777778, 5, 71.1111111111
1454, 1777.77777778, 5, 82
1455, 1777.77777778, 5, 92.8888888889
1456, 1777.77777778, 10, 82
1457, 1722.22222222, -151.805555556, 180
1458, 1722.22222222, -151.805555556, 185
1459, 1722.22222222, -151.805555556, 190
1460, 1722.22222222, -134.079861111, 180
1461, 1722.22222222, -134.079861111, 185
1462, 1722.22222222, -134.079861111, 190
1463, 1722.22222222, -116.354166667, 180
1464, 1722.22222222, -116.354166667, 185
1465, 1722.22222222, -116.354166667, 190
1466, 1777.77777778, -154.444444444, 185
1467, 1777.77777778, -136.388888889, 180
1468, 1777.77777778, -136.388888889, 185
1469, 1777.77777778, -136.388888889, 190
1470, 1777.77777778, -118.333333333, 185
1471, 1722.22222222, -151.805555556, 195
1472, 1722.22222222, -151.805555556, 200
1473, 1722.22222222, -134.079861111, 195
1474, 1722.22222222, -134.079861111, 200
1475, 1722.22222222, -116.354166667, 195
1476, 1722.22222222, -116.354166667, 200
1477, 1777.77777778, -154.444444444, 195
1478, 1777.77777778, -136.388888889, 195
1479, 1777.77777778, -136.388888889, 200
1480, 1777.77777778, -118.333333333, 195
1481, 1666.66666667, 10, 195
1482, 1666.66666667, 19.1666666667, 190
1483, 1666.66666667, 19.1666666667, 195
1484, 1666.66666667, 19.1666666667, 200
1485, 1666.66666667, 28.3333333333, 195
1486, 1722.22222222, 10, 190
1487, 1722.22222222, 10, 195
1488, 1722.22222222, 10, 200
1489, 1722.22222222, 18.7847222222, 190
1490, 1722.22222222, 18.7847222222, 195
1491, 1722.22222222, 18.7847222222, 200
1492, 1722.22222222, 27.5694444444, 190
1493, 1722.22222222, 27.5694444444, 195
1494, 1722.22222222, 27.5694444444, 200
1495, 1777.77777778, 10, 195
1496, 1777.77777778, 18.4027777778, 190
1497, 1777.77777778, 18.4027777778, 195
1498, 1777.77777778, 18.4027777778, 200
1499, 1777.77777778, 26.8055555556, 195
1500, 1722.22222222, 62.7083333333, 180
1501, 1722.22222222, 62.7083333333, 185
1502, 1722.22222222, 62.7083333333, 190
1503, 1722.22222222, 71.4930555556, 180
1504, 1722.22222222, 71.4930555556, 185
1505, 1722.22222222, 71.4930555556, 190
1506, 1722.22222222, 80.2777777778, 180
1507, 1722.22222222, 80.2777777778, 185
1508, 1722.22222222, 80.2777777778, 190
1509, 1777.77777778, 60.4166666667, 185
1510, 1777.77777778, 68.8194444444, 180
1511, 1777.77777778, 68.8194444444, 185
1512, 1777.77777778, 68.8194444444, 190
1513, 1777.77777778, 77.2222222222, 185
1514, 1722.22222222, 62.7083333333, 195
1515, 1722.22222222, 62.7083333333, 200
1516, 1722.22222222, 71.4930555556, 195
1517, 1722.22222222, 71.4930555556, 200
1518, 1722.22222222, 80.2777777778, 195
1519, 1722.22222222, 80.2777777778, 200
1520, 1777.77777778, 60.4166666667, 195
1521, 1777.77777778, 68.8194444444, 195
1522, 1777.77777778, 68.8194444444, 200
1523, 1777.77777778, 77.2222222222, 195
1524, 1833.33333333, -10, 73.3333333333
1525, 1833.33333333, -10, 84
1526, 1833.33333333, -10, 94.6666666667
1527, 1833.33333333, -5, 73.3333333333
1528, 1833.33333333, -5, 84
1529, 1833.33333333, -5, 94.6666666667
1530, 1833.33333333, 0, 73.3333333333
1531, 1833.33333333, 0, 84
1532, 1833.33333333, 0, 94.6666666667
1533, 1888.88888889, -10, 86
1534, 1888.88888889, -5, 75.5555555556
1535, 1888.88888889, -5, 86
1536, 1888.88888889, -5, 96.4444444444
1537, 1888.88888889, 0, 86
1538, 1833.33333333, -10, 158.666666667
1539, 1833.33333333, -10, 169.333333333
1540, 1833.33333333, -10, 180
1541, 1833.33333333, -5, 158.666666667
1542, 1833.33333333, -5, 169.333333333
1543, 1833.33333333, -5, 180
1544, 1833.33333333, 0, 158.666666667
1545, 1833.33333333, 0, 169.333333333
1546, 1833.33333333, 0, 180
1547, 1888.88888889, -10, 169.555555556
1548, 1888.88888889, -5, 159.111111111
1549, 1888.88888889, -5, 169.555555556
1550, 1888.88888889, -5, 180
1551, 1888.88888889, 0, 169.555555556
1552, 1833.33333333, 5, 73.3333333333
1553, 1833.33333333, 5, 84
1554, 1833.33333333, 5, 94.6666666667
1555, 1833.33333333, 10, 73.3333333333
1556, 1833.33333333, 10, 84
1557, 1833.33333333, 10, 94.6666666667
1558, 1888.88888889, 5, 75.5555555556
1559, 1888.88888889, 5, 86
1560, 1888.88888889, 5, 96.4444444444
1561, 1888.88888889, 10, 86
1562, 1833.33333333, -157.083333333, 180
1563, 1833.33333333, -157.083333333, 185
1564, 1833.33333333, -157.083333333, 190
1565, 1833.33333333, -138.697916667, 180
1566, 1833.33333333, -138.697916667, 185
1567, 1833.33333333, -138.697916667, 190
1568, 1833.33333333, -120.3125, 180
1569, 1833.33333333, -120.3125, 185
1570, 1833.33333333, -120.3125, 190
1571, 1888.88888889, -159.722222222, 185
1572, 1888.88888889, -141.006944444, 180
1573, 1888.88888889, -141.006944444, 185
1574, 1888.88888889, -141.006944444, 190
1575, 1888.88888889, -122.291666667, 185
1576, 1833.33333333, -157.083333333, 195
1577, 1833.33333333, -157.083333333, 200
1578, 1833.33333333, -138.697916667, 195
1579, 1833.33333333, -138.697916667, 200
1580, 1833.33333333, -120.3125, 195
1581, 1833.33333333, -120.3125, 200
1582, 1888.88888889, -159.722222222, 195
1583, 1888.88888889, -141.006944444, 195
1584, 1888.88888889, -141.006944444, 200
1585, 1888.88888889, -122.291666667, 195
1586, 1833.33333333, 10, 190
1587, 1833.33333333, 10, 195
1588, 1833.33333333, 10, 200
1589, 1833.33333333, 18.0208333333, 190
1590, 1833.33333333, 18.0208333333, 195
1591, 1833.33333333, 18.0208333333, 200
1592, 1833.33333333, 26.0416666667, 190
1593, 1833.33333333, 26.0416666667, 195
1594, 1833.33333333, 26.0416666667, 200
1595, 1888.88888889, 10, 195
1596, 1888.88888889, 17.6388888889, 190
1597, 1888.88888889, 17.6388888889, 195
1598, 1888.88888889, 17.6388888889, 200
1599, 1888.88888889, 25.2777777778, 195
1600, 1833.33333333, 58.125, 180
1601, 1833.33333333, 58.125, 185
1602, 1833.33333333, 58.125, 190
1603, 1833.33333333, 66.1458333333, 180
1604, 1833.33333333, 66.1458333333, 185
1605, 1833.33333333, 66.1458333333, 190
1606, 1833.33333333, 74.1666666667, 180
1607, 1833.33333333, 74.1666666667, 185
1608, 1833.33333333, 74.1666666667, 190
1609, 1888.88888889, 55.8333333333, 185
1610, 1888.88888889, 63.4722222222, 180
1611, 1888.88888889, 63.4722222222, 185
1612, 1888.88888889, 63.4722222222, 190
1613, 1888.88888889, 71.1111111111, 185
1614, 1833.33333333, 58.125, 195
1615, 1833.33333333, 58.125, 200
1616, 1833.33333333, 66.1458333333, 195
1617, 1833.33333333, 66.1458333333, 200
1618, 1833.33333333, 74.1666666667, 195
1619, 1833.33333333, 74.1666666667, 200
1620, 1888.88888889, 55.8333333333, 195
1621, 1888.88888889, 63.4722222222, 195
1622, 1888.88888889, 63.4722222222, 200
1623, 1888.88888889, 71.1111111111, 195
1624, 1944.44444444, -10, 77.7777777778
1625, 1944.44444444, -10, 88
1626, 1944.44444444, -10, 98.2222222222
1627, 1944.44444444, -5, 77.7777777778
1628, 1944.44444444, -5, 88
1629, 1944.44444444, -5, 98.2222222222
1630, 1944.44444444, 0, 77.7777777778
1631, 1944.44444444, 0, 88
1632, 1944.44444444, 0, 98.2222222222
1633, 2000, -10, 90
1634, 2000, -5, 80
1635, 2000, -5, 90
1636, 2000, -5, 100
1637, 2000, 0, 90
1638, 1944.44444444, -10, 159.555555556
1639, 1944.44444444, -10, 169.777777778
1640, 1944.44444444, -10, 180
1641, 1944.44444444, -5, 159.555555556
1642, 1944.44444444, -5, 169.777777778
1643, 1944.44444444, -5, 180
1644, 1944.44444444, 0, 159.555555556
1645, 1944.44444444, 0, 169.777777778
1646, 1944.44444444, 0, 180
1647, 2000, -10, 170
1648, 2000, -5, 160
1649, 2000, -5, 170
1650, 2000, -5, 180
1651, 2000, 0, 170
1652, 1944.44444444, 5, 77.7777777778
1653, 1944.44444444, 5, 88
1654, 1944.44444444, 5, 98.2222222222
1655, 1944.44444444, 10, 77.7777777778
1656, 1944.44444444, 10, 88
1657, 1944.44444444, 10, 98.2222222222
1658, 2000, 5, 80
1659, 2000, 5, 90
1660, 2000, 5, 100
1661, 2000, 10, 90
1662, 1888.88888889, 5, 159.111111111
1663, 1888.88888889, 5, 169.555555556
1664, 1888.88888889, 5, 180
1665, 1888.88888889, 10, 169.555555556
1666, 1944.44444444, 5, 159.555555556
1667, 1944.44444444, 5, 169.777777778
1668, 1944.44444444, 5, 180
1669, 1944.44444444, 10, 159.555555556
1670, 1944.44444444, 10, 169.777777778
1671, 1944.44444444, 10, 180
1672, 2000, 5, 160
1673, 2000, 5, 170
1674, 2000, 5, 180
1675, 2000, 10, 170
1676, 1944.44444444, -162.361111111, 180
1677, 1944.44444444, -162.361111111, 185
1678, 1944.44444444, -162.361111111, 190
1679, 1944.44444444, -143.315972222, 180
1680, 1944.44444444, -143.315972222, 185
1681, 1944.44444444, -143.315972222, 190
1682, 1944.44444444, -124.270833333, 180
1683, 1944.44444444, -124.270833333, 185
1684, 1944.44444444, -124.270833333, 190
1685, 2000, -165, 185
1686, 2000, -145.625, 180
1687, 2000, -145.625, 185
1688, 2000, -145.625, 190
1689, 2000, -126.25, 185
1690, 1944.44444444, -162.361111111, 195
1691, 1944.44444444, -162.361111111, 200
1692, 1944.44444444, -143.315972222, 195
1693, 1944.44444444, -143.315972222, 200
1694, 1944.44444444, -124.270833333, 195
1695, 1944.44444444, -124.270833333, 200
1696, 2000, -165, 195
1697, 2000, -145.625, 195
1698, 2000, -145.625, 200
1699, 2000, -126.25, 195
1700, 1888.88888889, -47.4305555556, 185
1701, 1888.88888889, -28.7152777778, 180
1702, 1888.88888889, -28.7152777778, 185
1703, 1888.88888889, -28.7152777778, 190
1704, 1888.88888889, -10, 185
1705, 1944.44444444, -48.0902777778, 180
1706, 1944.44444444, -48.0902777778, 185
1707, 1944.44444444, -48.0902777778, 190
1708, 1944.44444444, -29.0451388889, 180
1709, 1944.44444444, -29.0451388889, 185
1710, 1944.44444444, -29.0451388889, 190
1711, 1944.44444444, -10, 185
1712, 1944.44444444, -10, 190
1713, 2000, -48.75, 185
1714, 2000, -29.375, 180
1715, 2000, -29.375, 185
1716, 2000, -29.375, 190
1717, 2000, -10, 185
1718, 1888.88888889, -47.4305555556, 195
1719, 1888.88888889, -28.7152777778, 195
1720, 1888.88888889, -28.7152777778, 200
1721, 1888.88888889, -10, 195
1722, 1944.44444444, -48.0902777778, 195
1723, 1944.44444444, -48.0902777778, 200
1724, 1944.44444444, -29.0451388889, 195
1725, 1944.44444444, -29.0451388889, 200
1726, 1944.44444444, -10, 195
1727, 1944.44444444, -10, 200
1728, 2000, -48.75, 195
1729, 2000, -29.375, 195
1730, 2000, -29.375, 200
1731, 2000, -10, 195
1732, 1944.44444444, 53.5416666667, 180
1733, 1944.44444444, 53.5416666667, 185
1734, 1944.44444444, 53.5416666667, 190
1735, 1944.44444444, 60.7986111111, 180
1736, 1944.44444444, 60.7986111111, 185
1737, 1944.44444444, 60.7986111111, 190
1738, 1944.44444444, 68.0555555556, 180
1739, 1944.44444444, 68.0555555556, 185
1740, 1944.44444444, 68.0555555556, 190
1741, 2000, 51.25, 185
1742, 2000, 58.125, 180
1743, 2000, 58.125, 185
1744, 2000, 58.125, 190
1745, 2000, 65, 185
1746, 1944.44444444, 53.5416666667, 195
1747, 1944.44444444, 53.5416666667, 200
1748, 1944.44444444, 60.7986111111, 195
1749, 1944.44444444, 60.7986111111, 200
1750, 1944.44444444, 68.0555555556, 195
1751, 1944.44444444, 68.0555555556, 200
1752, 2000, 51.25, 195
1753, 2000, 58.125, 195
1754, 2000, 58.125, 200
1755, 2000, 65, 195
1756, 0, -10, 54
1757, 0, -5, 54
1758, 0, -5, 72
1759, 0, 0, 54
1760, 55.5555555556, -10, 55.5555555556
1761, 55.5555555556, -10, 73.3333333333
1762, 55.5555555556, -5, 55.5555555556
1763, 55.5555555556, -5, 73.3333333333
1764, 55.5555555556, 0, 55.5555555556
1765, 55.5555555556, 0, 73.3333333333
1766, 111.111111111, -10, 57.1111111111
1767, 111.111111111, -5, 57.1111111111
1768, 111.111111111, -5, 74.6666666667
1769, 111.111111111, 0, 57.1111111111
1770, 55.5555555556, 5, 11.1111111111
1771, 55.5555555556, 7.5, 2.22222222222
1772, 55.5555555556, 7.5, 11.1111111111
1773, 55.5555555556, 7.5, 20
1774, 55.5555555556, 10, 11.1111111111
1775, 83.3333333333, 5, 3.33333333333
1776, 83.3333333333, 5, 12.1666666667
1777, 83.3333333333, 5, 21
1778, 83.3333333333, 7.5, 3.33333333333
1779, 83.3333333333, 7.5, 12.1666666667
1780, 83.3333333333, 7.5, 21
1781, 83.3333333333, 10, 3.33333333333
1782, 83.3333333333, 10, 12.1666666667
1783, 83.3333333333, 10, 21
1784, 111.111111111, 5, 13.2222222222
1785, 111.111111111, 7.5, 4.44444444444
1786, 111.111111111, 7.5, 13.2222222222
1787, 111.111111111, 7.5, 22
1788, 111.111111111, 10, 13.2222222222
1789, 0, 5, 54
1790, 0, 5, 72
1791, 0, 10, 54
1792, 55.5555555556, 5, 55.5555555556
1793, 55.5555555556, 5, 73.3333333333
1794, 55.5555555556, 10, 55.5555555556
1795, 55.5555555556, 10, 73.3333333333
1796, 111.111111111, 5, 57.1111111111
1797, 111.111111111, 5, 74.6666666667
1798, 111.111111111, 10, 57.1111111111
1799, 166.666666667, -10, 58.6666666667
1800, 166.666666667, -10, 76
1801, 166.666666667, -5, 58.6666666667
1802, 166.666666667, -5, 76
1803, 166.666666667, 0, 58.6666666667
1804, 166.666666667, 0, 76
1805, 222.222222222, -10, 60.2222222222
1806, 222.222222222, -5, 60.2222222222
1807, 222.222222222, -5, 77.3333333333
1808, 222.222222222, 0, 60.2222222222
1809, 111.111111111, -10, 162.444444444
1810, 111.111111111, -5, 144.888888889
1811, 111.111111111, -5, 162.444444444
1812, 111.111111111, -5, 180
1813, 111.111111111, 0, 162.444444444
1814, 166.666666667, -10, 145.333333333
1815, 166.666666667, -10, 162.666666667
1816, 166.666666667, -10, 180
1817, 166.666666667, -5, 145.333333333
1818, 166.666666667, -5, 162.666666667
1819, 166.666666667, -5, 180
1820, 166.666666667, 0, 145.333333333
1821, 166.666666667, 0, 162.666666667
1822, 166.666666667, 0, 180
1823, 222.222222222, -10, 162.888888889
1824, 222.222222222, -5, 145.777777778
1825, 222.222222222, -5, 162.888888889
1826, 222.222222222, -5, 180
1827, 222.222222222, 0, 162.888888889
1828, 166.666666667, 5, 58.6666666667
1829, 166.666666667, 5, 76
1830, 166.666666667, 10, 58.6666666667
1831, 166.666666667, 10, 76
1832, 222.222222222, 5, 60.2222222222
1833, 222.222222222, 5, 77.3333333333
1834, 222.222222222, 10, 60.2222222222
1835, 277.777777778, -10, 11.1111111111
1836, 277.777777778, -10, 28
1837, 277.777777778, -10, 44.8888888889
1838, 277.777777778, -5, 11.1111111111
1839, 277.777777778, -5, 28
1840, 277.777777778, -5, 44.8888888889
1841, 277.777777778, 0, 11.1111111111
1842, 277.777777778, 0, 28
1843, 277.777777778, 0, 44.8888888889
1844, 333.333333333, -10, 30
1845, 333.333333333, -5, 13.3333333333
1846, 333.333333333, -5, 30
1847, 333.333333333, -5, 46.6666666667
1848, 277.777777778, 5, 11.1111111111
1849, 277.777777778, 5, 28
1850, 277.777777778, 5, 44.8888888889
1851, 277.777777778, 10, 11.1111111111
1852, 277.777777778, 10, 28
1853, 277.777777778, 10, 44.8888888889
1854, 388.888888889, -10, 15.5555555556
1855, 388.888888889, -10, 32
1856, 388.888888889, -10, 48.4444444444
1857, 388.888888889, -5, 15.5555555556
1858, 388.888888889, -5, 32
1859, 388.888888889, -5, 48.4444444444
1860, 444.444444444, -10, 34
1861, 444.444444444, -5, 17.7777777778
1862, 444.444444444, -5, 34
1863, 444.444444444, -5, 50.2222222222
1864, 500, -10, 20
1865, 500, -10, 36
1866, 500, -10, 52
1867, 500, -5, 20
1868, 500, -5, 36
1869, 500, -5, 52
1870, 500, 0, 20
1871, 500, 0, 36
1872, 500, 0, 52
1873, 555.555555556, -10, 38
1874, 555.555555556, -5, 22.2222222222
1875, 555.555555556, -5, 38
1876, 555.555555556, -5, 53.7777777778
1877, 555.555555556, 0, 38
1878, 500, 5, 20
1879, 500, 5, 36
1880, 500, 5, 52
1881, 500, 10, 20
1882, 500, 10, 36
1883, 500, 10, 52
1884, 555.555555556, 5, 22.2222222222
1885, 555.555555556, 5, 38
1886, 555.555555556, 5, 53.7777777778
1887, 555.555555556, 10, 38
1888, 611.111111111, -10, 24.4444444444
1889, 611.111111111, -10, 40
1890, 611.111111111, -10, 55.5555555556
1891, 611.111111111, -5, 24.4444444444
1892, 611.111111111, -5, 40
1893, 611.111111111, -5, 55.5555555556
1894, 611.111111111, 0, 24.4444444444
1895, 611.111111111, 0, 40
1896, 611.111111111, 0, 55.5555555556
1897, 666.666666667, -10, 42
1898, 666.666666667, -5, 26.6666666667
1899, 666.666666667, -5, 42
1900, 666.666666667, -5, 57.3333333333
1901, 666.666666667, 0, 42
1902, 611.111111111, 5, 24.4444444444
1903, 611.111111111, 5, 40
1904, 611.111111111, 5, 55.5555555556
1905, 611.111111111, 10, 24.4444444444
1906, 611.111111111, 10, 40
1907, 611.111111111, 10, 55.5555555556
1908, 666.666666667, 5, 26.6666666667
1909, 666.666666667, 5, 42
1910, 666.666666667, 5, 57.3333333333
1911, 666.666666667, 10, 42
1912, 722.222222222, -10, 28.8888888889
1913, 722.222222222, -10, 44
1914, 722.222222222, -10, 59.1111111111
1915, 722.222222222, -5, 28.8888888889
1916, 722.222222222, -5, 44
1917, 722.222222222, -5, 59.1111111111
1918, 722.222222222, 0, 28.8888888889
1919, 722.222222222, 0, 44
1920, 722.222222222, 0, 59.1111111111
1921, 777.777777778, -10, 46
1922, 777.777777778, -5, 31.1111111111
1923, 777.777777778, -5, 46
1924, 777.777777778, -5, 60.8888888889
1925, 777.777777778, 0, 46
1926, 722.222222222, 5, 28.8888888889
1927, 722.222222222, 5, 44
1928, 722.222222222, 5, 59.1111111111
1929, 722.222222222, 10, 28.8888888889
1930, 722.222222222, 10, 44
1931, 722.222222222, 10, 59.1111111111
1932, 777.777777778, 5, 31.1111111111
1933, 777.777777778, 5, 46
1934, 777.777777778, 5, 60.8888888889
1935, 777.777777778, 10, 46
1936, 833.333333333, -10, 33.3333333333
1937, 833.333333333, -10, 48
1938, 833.333333333, -10, 62.6666666667
1939, 833.333333333, -5, 33.3333333333
1940, 833.333333333, -5, 48
1941, 833.333333333, -5, 62.6666666667
1942, 833.333333333, 0, 33.3333333333
1943, 833.333333333, 0, 48
1944, 833.333333333, 0, 62.6666666667
1945, 833.333333333, 5, 33.3333333333
1946, 833.333333333, 5, 48
1947, 833.333333333, 5, 62.6666666667
1948, 833.333333333, 10, 33.3333333333
1949, 833.333333333, 10, 48
1950, 833.333333333, 10, 62.6666666667
1951, 777.777777778, -106.944444444, 185
1952, 777.777777778, -94.8263888889, 180
1953, 777.777777778, -94.8263888889, 185
1954, 777.777777778, -94.8263888889, 190
1955, 777.777777778, -82.7083333333, 185
1956, 833.333333333, -109.583333333, 180
1957, 833.333333333, -109.583333333, 185
1958, 833.333333333, -109.583333333, 190
1959, 833.333333333, -97.1354166667, 180
1960, 833.333333333, -97.1354166667, 185
1961, 833.333333333, -97.1354166667, 190
1962, 833.333333333, -84.6875, 180
1963, 833.333333333, -84.6875, 185
1964, 833.333333333, -84.6875, 190
1965, 888.888888889, -112.222222222, 185
1966, 888.888888889, -99.4444444444, 180
1967, 888.888888889, -99.4444444444, 185
1968, 888.888888889, -99.4444444444, 190
1969, 888.888888889, -86.6666666667, 185
1970, 777.777777778, -106.944444444, 195
1971, 777.777777778, -94.8263888889, 195
1972, 777.777777778, -94.8263888889, 200
1973, 777.777777778, -82.7083333333, 195
1974, 833.333333333, -109.583333333, 195
1975, 833.333333333, -109.583333333, 200
1976, 833.333333333, -97.1354166667, 195
1977, 833.333333333, -97.1354166667, 200
1978, 833.333333333, -84.6875, 195
1979, 833.333333333, -84.6875, 200
1980, 888.888888889, -112.222222222, 195
1981, 888.888888889, -99.4444444444, 195
1982, 888.888888889, -99.4444444444, 200
1983, 888.888888889, -86.6666666667, 195
1984, 888.888888889, -10, 165.555555556
1985, 888.888888889, -5, 151.111111111
1986, 888.888888889, -5, 165.555555556
1987, 888.888888889, -5, 180
1988, 888.888888889, 0, 165.555555556
1989, 944.444444444, -10, 151.555555556
1990, 944.444444444, -10, 165.777777778
1991, 944.444444444, -10, 180
1992, 944.444444444, -5, 151.555555556
1993, 944.444444444, -5, 165.777777778
1994, 944.444444444, -5, 180
1995, 944.444444444, 0, 151.555555556
1996, 944.444444444, 0, 165.777777778
1997, 944.444444444, 0, 180
1998, 1000, -10, 166
1999, 1000, -5, 152
2000, 1000, -5, 166
2001, 1000, -5, 180
2002, 1000, 0, 166
2003, 944.444444444, -114.861111111, 180
2004, 944.444444444, -114.861111111, 185
2005, 944.444444444, -114.861111111, 190
2006, 944.444444444, -101.753472222, 180
2007, 944.444444444, -101.753472222, 185
2008, 944.444444444, -101.753472222, 190
2009, 944.444444444, -88.6458333333, 180
2010, 944.444444444, -88.6458333333, 185
2011, 944.444444444, -88.6458333333, 190
2012, 1000, -117.5, 185
2013, 1000, -104.0625, 180
2014, 1000, -104.0625, 185
2015, 1000, -104.0625, 190
2016, 1000, -90.625, 185
2017, 944.444444444, -114.861111111, 195
2018, 944.444444444, -114.861111111, 200
2019, 944.444444444, -101.753472222, 195
2020, 944.444444444, -101.753472222, 200
2021, 944.444444444, -88.6458333333, 195
2022, 944.444444444, -88.6458333333, 200
2023, 1000, -117.5, 195
2024, 1000, -104.0625, 195
2025, 1000, -104.0625, 200
2026, 1000, -90.625, 195
2027, 1000, -10, 82
2028, 1000, -5, 82
2029, 1000, -5, 96
2030, 1000, 0, 82
2031, 1055.55555556, -10, 83.5555555556
2032, 1055.55555556, -10, 97.3333333333
2033, 1055.55555556, -5, 83.5555555556
2034, 1055.55555556, -5, 97.3333333333
2035, 1055.55555556, 0, 83.5555555556
2036, 1055.55555556, 0, 97.3333333333
2037, 1111.11111111, -10, 85.1111111111
2038, 1111.11111111, -5, 85.1111111111
2039, 1111.11111111, -5, 98.6666666667
2040, 1111.11111111, 0, 85.1111111111
2041, 1055.55555556, -10, 152.444444444
2042, 1055.55555556, -10, 166.222222222
2043, 1055.55555556, -10, 180
2044, 1055.55555556, -5, 152.444444444
2045, 1055.55555556, -5, 166.222222222
2046, 1055.55555556, -5, 180
2047, 1055.55555556, 0, 152.444444444
2048, 1055.55555556, 0, 166.222222222
2049, 1055.55555556, 0, 180
2050, 1111.11111111, -10, 166.444444444
2051, 1111.11111111, -5, 152.888888889
2052, 1111.11111111, -5, 166.444444444
2053, 1111.11111111, -5, 180
2054, 1111.11111111, 0, 166.444444444
2055, 1000, 5, 82
2056, 1000, 5, 96
2057, 1000, 10, 82
2058, 1055.55555556, 5, 83.5555555556
2059, 1055.55555556, 5, 97.3333333333
2060, 1055.55555556, 10, 83.5555555556
2061, 1055.55555556, 10, 97.3333333333
2062, 1111.11111111, 5, 85.1111111111
2063, 1111.11111111, 5, 98.6666666667
2064, 1111.11111111, 10, 85.1111111111
2065, 1055.55555556, -120.138888889, 180
2066, 1055.55555556, -120.138888889, 185
2067, 1055.55555556, -120.138888889, 190
2068, 1055.55555556, -106.371527778, 180
2069, 1055.55555556, -106.371527778, 185
2070, 1055.55555556, -106.371527778, 190
2071, 1055.55555556, -92.6041666667, 180
2072, 1055.55555556, -92.6041666667, 185
2073, 1055.55555556, -92.6041666667, 190
2074, 1055.55555556, -120.138888889, 195
2075, 1055.55555556, -120.138888889, 200
2076, 1055.55555556, -106.371527778, 195
2077, 1055.55555556, -106.371527778, 200
2078, 1055.55555556, -92.6041666667, 195
2079, 1055.55555556, -92.6041666667, 200
2080, 1000, 92.5, 185
2081, 1000, 106.25, 180
2082, 1000, 106.25, 185
2083, 1000, 106.25, 190
2084, 1000, 120, 185
2085, 1055.55555556, 90.2083333333, 180
2086, 1055.55555556, 90.2083333333, 185
2087, 1055.55555556, 90.2083333333, 190
2088, 1055.55555556, 103.576388889, 180
2089, 1055.55555556, 103.576388889, 185
2090, 1055.55555556, 103.576388889, 190
2091, 1055.55555556, 116.944444444, 180
2092, 1055.55555556, 116.944444444, 185
2093, 1055.55555556, 116.944444444, 190
2094, 1111.11111111, 87.9166666667, 185
2095, 1111.11111111, 100.902777778, 180
2096, 1111.11111111, 100.902777778, 185
2097, 1111.11111111, 100.902777778, 190
2098, 1111.11111111, 113.888888889, 185
2099, 1000, 92.5, 195
2100, 1000, 106.25, 195
2101, 1000, 106.25, 200
2102, 1000, 120, 195
2103, 1055.55555556, 90.2083333333, 195
2104, 1055.55555556, 90.2083333333, 200
2105, 1055.55555556, 103.576388889, 195
2106, 1055.55555556, 103.576388889, 200
2107, 1055.55555556, 116.944444444, 195
2108, 1055.55555556, 116.944444444, 200
2109, 1111.11111111, 87.9166666667, 195
2110, 1111.11111111, 100.902777778, 195
2111, 1111.11111111, 100.902777778, 200
2112, 1111.11111111, 113.888888889, 195
2113, 1166.66666667, -10, 86.6666666667
2114, 1166.66666667, -10, 100
2115, 1166.66666667, -5, 86.6666666667
2116, 1166.66666667, -5, 100
2117, 1166.66666667, 0, 86.6666666667
2118, 1166.66666667, 0, 100
2119, 1222.22222222, -10, 88.2222222222
2120, 1222.22222222, -5, 88.2222222222
2121, 1222.22222222, -5, 101.333333333
2122, 1222.22222222, 0, 88.2222222222
2123, 1166.66666667, -10, 153.333333333
2124, 1166.66666667, -10, 166.666666667
2125, 1166.66666667, -10, 180
2126, 1166.66666667, -5, 153.333333333
2127, 1166.66666667, -5, 166.666666667
2128, 1166.66666667, -5, 180
2129, 1166.66666667, 0, 153.333333333
2130, 1166.66666667, 0, 166.666666667
2131, 1166.66666667, 0, 180
2132, 1222.22222222, -10, 166.888888889
2133, 1222.22222222, -5, 153.777777778
2134, 1222.22222222, -5, 166.888888889
2135, 1222.22222222, -5, 180
2136, 1222.22222222, 0, 166.888888889
2137, 1166.66666667, 5, 86.6666666667
2138, 1166.66666667, 5, 100
2139, 1166.66666667, 10, 86.6666666667
2140, 1166.66666667, 10, 100
2141, 1222.22222222, 5, 88.2222222222
2142, 1222.22222222, 5, 101.333333333
2143, 1222.22222222, 10, 88.2222222222
2144, 1111.11111111, -38.1944444444, 185
2145, 1111.11111111, -24.0972222222, 180
2146, 1111.11111111, -24.0972222222, 185
2147, 1111.11111111, -24.0972222222, 190
2148, 1111.11111111, -10, 185
2149, 1166.66666667, -38.8541666667, 180
2150, 1166.66666667, -38.8541666667, 185
2151, 1166.66666667, -38.8541666667, 190
2152, 1166.66666667, -24.4270833333, 180
2153, 1166.66666667, -24.4270833333, 185
2154, 1166.66666667, -24.4270833333, 190
2155, 1166.66666667, -10, 185
2156, 1166.66666667, -10, 190
2157, 1222.22222222, -39.5138888889, 185
2158, 1222.22222222, -24.7569444444, 180
2159, 1222.22222222, -24.7569444444, 185
2160, 1222.22222222, -24.7569444444, 190
2161, 1222.22222222, -10, 185
2162, 1166.66666667, 85.625, 180
2163, 1166.66666667, 85.625, 185
2164, 1166.66666667, 85.625, 190
2165, 1166.66666667, 98.2291666667, 180
2166, 1166.66666667, 98.2291666667, 185
2167, 1166.66666667, 98.2291666667, 190
2168, 1166.66666667, 110.833333333, 180
2169, 1166.66666667, 110.833333333, 185
2170, 1166.66666667, 110.833333333, 190
2171, 1166.66666667, 85.625, 195
2172, 1166.66666667, 85.625, 200
2173, 1166.66666667, 98.2291666667, 195
2174, 1166.66666667, 98.2291666667, 200
2175, 1166.66666667, 110.833333333, 195
2176, 1166.66666667, 110.833333333, 200
2177, 1277.77777778, -10, 89.7777777778
2178, 1277.77777778, -10, 102.666666667
2179, 1277.77777778, -5, 89.7777777778
2180, 1277.77777778, -5, 102.666666667
2181, 1277.77777778, 0, 89.7777777778
2182, 1277.77777778, 0, 102.666666667
2183, 1333.33333333, -10, 91.3333333333
2184, 1333.33333333, -5, 91.3333333333
2185, 1333.33333333, -5, 104
2186, 1333.33333333, 0, 91.3333333333
2187, 1277.77777778, -10, 154.222222222
2188, 1277.77777778, -10, 167.111111111
2189, 1277.77777778, -10, 180
2190, 1277.77777778, -5, 154.222222222
2191, 1277.77777778, -5, 167.111111111
2192, 1277.77777778, -5, 180
2193, 1277.77777778, 0, 154.222222222
2194, 1277.77777778, 0, 167.111111111
2195, 1277.77777778, 0, 180
2196, 1333.33333333, -10, 167.333333333
2197, 1333.33333333, -5, 154.666666667
2198, 1333.33333333, -5, 167.333333333
2199, 1333.33333333, -5, 180
2200, 1333.33333333, 0, 167.333333333
2201, 1277.77777778, 5, 89.7777777778
2202, 1277.77777778, 5, 102.666666667
2203, 1277.77777778, 10, 89.7777777778
2204, 1277.77777778, 10, 102.666666667
2205, 1333.33333333, 5, 91.3333333333
2206, 1333.33333333, 5, 104
2207, 1333.33333333, 10, 91.3333333333
2208, 1222.22222222, 5, 153.777777778
2209, 1222.22222222, 5, 166.888888889
2210, 1222.22222222, 5, 180
2211, 1222.22222222, 10, 166.888888889
2212, 1277.77777778, 5, 154.222222222
2213, 1277.77777778, 5, 167.111111111
2214, 1277.77777778, 5, 180
2215, 1277.77777778, 10, 154.222222222
2216, 1277.77777778, 10, 167.111111111
2217, 1277.77777778, 10, 180
2218, 1333.33333333, 5, 154.666666667
2219, 1333.33333333, 5, 167.333333333
2220, 1333.33333333, 5, 180
2221, 1333.33333333, 10, 167.333333333
2222, 1222.22222222, -83.7847222222, 180
2223, 1222.22222222, -83.7847222222, 185
2224, 1222.22222222, -83.7847222222, 190
2225, 1222.22222222, -69.0277777778, 185
2226, 1277.77777778, -85.4340277778, 180
2227, 1277.77777778, -85.4340277778, 185
2228, 1277.77777778, -85.4340277778, 190
2229, 1277.77777778, -70.3472222222, 180
2230, 1277.77777778, -70.3472222222, 185
2231, 1277.77777778, -70.3472222222, 190
2232, 1333.33333333, -87.0833333333, 180
2233, 1333.33333333, -87.0833333333, 185
2234, 1333.33333333, -87.0833333333, 190
2235, 1333.33333333, -71.6666666667, 185
2236, 1222.22222222, -83.7847222222, 195
2237, 1222.22222222, -83.7847222222, 200
2238, 1222.22222222, -69.0277777778, 195
2239, 1277.77777778, -85.4340277778, 195
2240, 1277.77777778, -85.4340277778, 200
2241, 1277.77777778, -70.3472222222, 195
2242, 1277.77777778, -70.3472222222, 200
2243, 1333.33333333, -87.0833333333, 195
2244, 1333.33333333, -87.0833333333, 200
2245, 1333.33333333, -71.6666666667, 195
2246, 1277.77777778, -40.1736111111, 180
2247, 1277.77777778, -40.1736111111, 185
2248, 1277.77777778, -40.1736111111, 190
2249, 1277.77777778, -25.0868055556, 180
2250, 1277.77777778, -25.0868055556, 185
2251, 1277.77777778, -25.0868055556, 190
2252, 1277.77777778, -10, 185
2253, 1277.77777778, -10, 190
2254, 1333.33333333, -40.8333333333, 185
2255, 1333.33333333, -25.4166666667, 180
2256, 1333.33333333, -25.4166666667, 185
2257, 1333.33333333, -25.4166666667, 190
2258, 1333.33333333, -10, 185
2259, 1222.22222222, 10, 195
2260, 1222.22222222, 22.2222222222, 190
2261, 1222.22222222, 22.2222222222, 195
2262, 1222.22222222, 22.2222222222, 200
2263, 1222.22222222, 34.4444444444, 195
2264, 1277.77777778, 10, 190
2265, 1277.77777778, 10, 195
2266, 1277.77777778, 10, 200
2267, 1277.77777778, 21.8402777778, 190
2268, 1277.77777778, 21.8402777778, 195
2269, 1277.77777778, 21.8402777778, 200
2270, 1277.77777778, 33.6805555556, 190
2271, 1277.77777778, 33.6805555556, 195
2272, 1277.77777778, 33.6805555556, 200
2273, 1333.33333333, 10, 195
2274, 1333.33333333, 21.4583333333, 190
2275, 1333.33333333, 21.4583333333, 195
2276, 1333.33333333, 21.4583333333, 200
2277, 1333.33333333, 32.9166666667, 195
2278, 1388.88888889, -10, 92.8888888889
2279, 1388.88888889, -10, 105.333333333
2280, 1388.88888889, -5, 92.8888888889
2281, 1388.88888889, -5, 105.333333333
2282, 1388.88888889, 0, 92.8888888889
2283, 1388.88888889, 0, 105.333333333
2284, 1444.44444444, -10, 94.4444444444
2285, 1444.44444444, -5, 94.4444444444
2286, 1444.44444444, -5, 106.666666667
2287, 1444.44444444, 0, 94.4444444444
2288, 1388.88888889, -10, 155.111111111
2289, 1388.88888889, -10, 167.555555556
2290, 1388.88888889, -10, 180
2291, 1388.88888889, -5, 155.111111111
2292, 1388.88888889, -5, 167.555555556
2293, 1388.88888889, -5, 180
2294, 1388.88888889, 0, 155.111111111
2295, 1388.88888889, 0, 167.555555556
2296, 1388.88888889, 0, 180
2297, 1444.44444444, -10, 167.777777778
2298, 1444.44444444, -5, 155.555555556
2299, 1444.44444444, -5, 167.777777778
2300, 1444.44444444, -5, 180
2301, 1444.44444444, 0, 167.777777778
2302, 1388.88888889, 5, 92.8888888889
2303, 1388.88888889, 5, 105.333333333
2304, 1388.88888889, 10, 92.8888888889
2305, 1388.88888889, 10, 105.333333333
2306, 1444.44444444, 5, 94.4444444444
2307, 1444.44444444, 5, 106.666666667
2308, 1444.44444444, 10, 94.4444444444
2309, 1388.88888889, 5, 155.111111111
2310, 1388.88888889, 5, 167.555555556
2311, 1388.88888889, 5, 180
2312, 1388.88888889, 10, 155.111111111
2313, 1388.88888889, 10, 167.555555556
2314, 1388.88888889, 10, 180
2315, 1444.44444444, 5, 155.555555556
2316, 1444.44444444, 5, 167.777777778
2317, 1444.44444444, 5, 180
2318, 1444.44444444, 10, 167.777777778
2319, 1388.88888889, -88.7326388889, 180
2320, 1388.88888889, -88.7326388889, 185
2321, 1388.88888889, -88.7326388889, 190
2322, 1388.88888889, -72.9861111111, 180
2323, 1388.88888889, -72.9861111111, 185
2324, 1388.88888889, -72.9861111111, 190
2325, 1444.44444444, -90.3819444444, 180
2326, 1444.44444444, -90.3819444444, 185
2327, 1444.44444444, -90.3819444444, 190
2328, 1444.44444444, -74.3055555556, 185
2329, 1388.88888889, -88.7326388889, 195
2330, 1388.88888889, -88.7326388889, 200
2331, 1388.88888889, -72.9861111111, 195
2332, 1388.88888889, -72.9861111111, 200
2333, 1444.44444444, -90.3819444444, 195
2334, 1444.44444444, -90.3819444444, 200
2335, 1444.44444444, -74.3055555556, 195
2336, 1388.88888889, -41.4930555556, 180
2337, 1388.88888889, -41.4930555556, 185
2338, 1388.88888889, -41.4930555556, 190
2339, 1388.88888889, -25.7465277778, 180
2340, 1388.88888889, -25.7465277778, 185
2341, 1388.88888889, -25.7465277778, 190
2342, 1388.88888889, -10, 185
2343, 1388.88888889, -10, 190
2344, 1444.44444444, -42.1527777778, 185
2345, 1444.44444444, -26.0763888889, 180
2346, 1444.44444444, -26.0763888889, 185
2347, 1444.44444444, -26.0763888889, 190
2348, 1444.44444444, -10, 185
2349, 1388.88888889, 10, 190
2350, 1388.88888889, 10, 195
2351, 1388.88888889, 10, 200
2352, 1388.88888889, 21.0763888889, 190
2353, 1388.88888889, 21.0763888889, 195
2354, 1388.88888889, 21.0763888889, 200
2355, 1388.88888889, 32.1527777778, 190
2356, 1388.88888889, 32.1527777778, 195
2357, 1388.88888889, 32.1527777778, 200
2358, 1444.44444444, 10, 195
2359, 1444.44444444, 20.6944444444, 190
2360, 1444.44444444, 20.6944444444, 195
2361, 1444.44444444, 20.6944444444, 200
2362, 1444.44444444, 31.3888888889, 195
2363, 1333.33333333, 55.8333333333, 185
2364, 1333.33333333, 67.2916666667, 180
2365, 1333.33333333, 67.2916666667, 185
2366, 1333.33333333, 67.2916666667, 190
2367, 1388.88888889, 54.3055555556, 180
2368, 1388.88888889, 54.3055555556, 185
2369, 1388.88888889, 54.3055555556, 190
2370, 1388.88888889, 65.3819444444, 180
2371, 1388.88888889, 65.3819444444, 185
2372, 1388.88888889, 65.3819444444, 190
2373, 1444.44444444, 52.7777777778, 185
2374, 1444.44444444, 63.4722222222, 180
2375, 1444.44444444, 63.4722222222, 185
2376, 1444.44444444, 63.4722222222, 190
2377, 1333.33333333, 55.8333333333, 195
2378, 1333.33333333, 67.2916666667, 195
2379, 1333.33333333, 67.2916666667, 200
2380, 1388.88888889, 54.3055555556, 195
2381, 1388.88888889, 54.3055555556, 200
2382, 1388.88888889, 65.3819444444, 195
2383, 1388.88888889, 65.3819444444, 200
2384, 1444.44444444, 52.7777777778, 195
2385, 1444.44444444, 63.4722222222, 195
2386, 1444.44444444, 63.4722222222, 200
2387, 1500, -10, 96
2388, 1500, -10, 108
2389, 1500, -5, 96
2390, 1500, -5, 108
2391, 1500, 0, 96
2392, 1500, 0, 108
2393, 1555.55555556, -10, 97.5555555556
2394, 1555.55555556, -5, 97.5555555556
2395, 1555.55555556, -5, 109.333333333
2396, 1555.55555556, 0, 97.5555555556
2397, 1500, -10, 156
2398, 1500, -10, 168
2399, 1500, -10, 180
2400, 1500, -5, 156
2401, 1500, -5, 168
2402, 1500, -5, 180
2403, 1500, 0, 156
2404, 1500, 0, 168
2405, 1500, 0, 180
2406, 1500, 5, 96
2407, 1500, 5, 108
2408, 1500, 10, 96
2409, 1500, 10, 108
2410, 1555.55555556, 5, 97.5555555556
2411, 1555.55555556, 5, 109.333333333
2412, 1555.55555556, 10, 97.5555555556
2413, 1500, 5, 156
2414, 1500, 5, 168
2415, 1500, 5, 180
2416, 1500, 10, 156
2417, 1500, 10, 168
2418, 1500, 10, 180
2419, 1555.55555556, 5, 156.444444444
2420, 1555.55555556, 5, 168.222222222
2421, 1555.55555556, 5, 180
2422, 1555.55555556, 10, 168.222222222
2423, 1500, -92.03125, 180
2424, 1500, -92.03125, 185
2425, 1500, -92.03125, 190
2426, 1500, -75.625, 180
2427, 1500, -75.625, 185
2428, 1500, -75.625, 190
2429, 1555.55555556, -93.6805555556, 180
2430, 1555.55555556, -93.6805555556, 185
2431, 1555.55555556, -93.6805555556, 190
2432, 1555.55555556, -76.9444444444, 185
2433, 1500, -92.03125, 195
2434, 1500, -92.03125, 200
2435, 1500, -75.625, 195
2436, 1500, -75.625, 200
2437, 1555.55555556, -93.6805555556, 195
2438, 1555.55555556, -93.6805555556, 200
2439, 1555.55555556, -76.9444444444, 195
2440, 1500, -42.8125, 180
2441, 1500, -42.8125, 185
2442, 1500, -42.8125, 190
2443, 1500, -26.40625, 180
2444, 1500, -26.40625, 185
2445, 1500, -26.40625, 190
2446, 1500, -10, 185
2447, 1500, -10, 190
2448, 1555.55555556, -43.4722222222, 185
2449, 1555.55555556, -26.7361111111, 180
2450, 1555.55555556, -26.7361111111, 185
2451, 1555.55555556, -26.7361111111, 190
2452, 1555.55555556, -10, 185
2453, 1444.44444444, -42.1527777778, 195
2454, 1444.44444444, -26.0763888889, 195
2455, 1444.44444444, -26.0763888889, 200
2456, 1444.44444444, -10, 195
2457, 1500, -42.8125, 195
2458, 1500, -42.8125, 200
2459, 1500, -26.40625, 195
2460, 1500, -26.40625, 200
2461, 1500, -10, 195
2462, 1500, -10, 200
2463, 1555.55555556, -43.4722222222, 195
2464, 1555.55555556, -26.7361111111, 195
2465, 1555.55555556, -26.7361111111, 200
2466, 1555.55555556, -10, 195
2467, 1444.44444444, 10, 185
2468, 1444.44444444, 20.6944444444, 180
2469, 1444.44444444, 20.6944444444, 185
2470, 1444.44444444, 31.3888888889, 185
2471, 1500, 10, 185
2472, 1500, 10, 190
2473, 1500, 20.3125, 180
2474, 1500, 20.3125, 185
2475, 1500, 20.3125, 190
2476, 1500, 30.625, 180
2477, 1500, 30.625, 185
2478, 1500, 30.625, 190
2479, 1555.55555556, 10, 185
2480, 1555.55555556, 19.9305555556, 180
2481, 1555.55555556, 19.9305555556, 185
2482, 1555.55555556, 19.9305555556, 190
2483, 1555.55555556, 29.8611111111, 185
2484, 1500, 10, 195
2485, 1500, 10, 200
2486, 1500, 20.3125, 195
2487, 1500, 20.3125, 200
2488, 1500, 30.625, 195
2489, 1500, 30.625, 200
2490, 1555.55555556, 10, 195
2491, 1555.55555556, 19.9305555556, 195
2492, 1555.55555556, 19.9305555556, 200
2493, 1555.55555556, 29.8611111111, 195
2494, 1500, 51.25, 180
2495, 1500, 51.25, 185
2496, 1500, 51.25, 190
2497, 1500, 61.5625, 180
2498, 1500, 61.5625, 185
2499, 1500, 61.5625, 190
2500, 1555.55555556, 49.7222222222, 185
2501, 1555.55555556, 59.6527777778, 180
2502, 1555.55555556, 59.6527777778, 185
2503, 1555.55555556, 59.6527777778, 190
2504, 1500, 51.25, 195
2505, 1500, 51.25, 200
2506, 1500, 61.5625, 195
2507, 1500, 61.5625, 200
2508, 1555.55555556, 49.7222222222, 195
2509, 1555.55555556, 59.6527777778, 195
2510, 1555.55555556, 59.6527777778, 200
2511, 1611.11111111, -10, 99.1111111111
2512, 1611.11111111, -10, 110.666666667
2513, 1611.11111111, -5, 99.1111111111
2514, 1611.11111111, -5, 110.666666667
2515, 1611.11111111, 0, 99.1111111111
2516, 1611.11111111, 0, 110.666666667
2517, 1666.66666667, -10, 100.666666667
2518, 1666.66666667, -5, 100.666666667
2519, 1666.66666667, -5, 112
2520, 1666.66666667, 0, 100.666666667
2521, 1611.11111111, 5, 99.1111111111
2522, 1611.11111111, 5, 110.666666667
2523, 1611.11111111, 10, 99.1111111111
2524, 1611.11111111, 10, 110.666666667
2525, 1666.66666667, 5, 100.666666667
2526, 1666.66666667, 5, 112
2527, 1666.66666667, 10, 100.666666667
2528, 1611.11111111, 5, 156.888888889
2529, 1611.11111111, 5, 168.444444444
2530, 1611.11111111, 5, 180
2531, 1611.11111111, 10, 156.888888889
2532, 1611.11111111, 10, 168.444444444
2533, 1611.11111111, 10, 180
2534, 1666.66666667, 5, 157.333333333
2535, 1666.66666667, 5, 168.666666667
2536, 1666.66666667, 5, 180
2537, 1666.66666667, 10, 168.666666667
2538, 1611.11111111, -95.3298611111, 180
2539, 1611.11111111, -95.3298611111, 185
2540, 1611.11111111, -95.3298611111, 190
2541, 1611.11111111, -78.2638888889, 180
2542, 1611.11111111, -78.2638888889, 185
2543, 1611.11111111, -78.2638888889, 190
2544, 1666.66666667, -96.9791666667, 180
2545, 1666.66666667, -96.9791666667, 185
2546, 1666.66666667, -96.9791666667, 190
2547, 1666.66666667, -79.5833333333, 185
2548, 1611.11111111, -95.3298611111, 195
2549, 1611.11111111, -95.3298611111, 200
2550, 1611.11111111, -78.2638888889, 195
2551, 1611.11111111, -78.2638888889, 200
2552, 1666.66666667, -96.9791666667, 195
2553, 1666.66666667, -96.9791666667, 200
2554, 1666.66666667, -79.5833333333, 195
2555, 1611.11111111, -44.1319444444, 180
2556, 1611.11111111, -44.1319444444, 185
2557, 1611.11111111, -44.1319444444, 190
2558, 1611.11111111, -27.0659722222, 180
2559, 1611.11111111, -27.0659722222, 185
2560, 1611.11111111, -27.0659722222, 190
2561, 1611.11111111, -10, 185
2562, 1611.11111111, -10, 190
2563, 1666.66666667, -44.7916666667, 185
2564, 1666.66666667, -27.3958333333, 180
2565, 1666.66666667, -27.3958333333, 185
2566, 1666.66666667, -27.3958333333, 190
2567, 1666.66666667, -10, 185
2568, 1611.11111111, -44.1319444444, 195
2569, 1611.11111111, -44.1319444444, 200
2570, 1611.11111111, -27.0659722222, 195
2571, 1611.11111111, -27.0659722222, 200
2572, 1611.11111111, -10, 195
2573, 1611.11111111, -10, 200
2574, 1666.66666667, -44.7916666667, 195
2575, 1666.66666667, -27.3958333333, 195
2576, 1666.66666667, -27.3958333333, 200
2577, 1666.66666667, -10, 195
2578, 1611.11111111, 10, 185
2579, 1611.11111111, 10, 190
2580, 1611.11111111, 19.5486111111, 180
2581, 1611.11111111, 19.5486111111, 185
2582, 1611.11111111, 19.5486111111, 190
2583, 1611.11111111, 29.0972222222, 180
2584, 1611.11111111, 29.0972222222, 185
2585, 1611.11111111, 29.0972222222, 190
2586, 1666.66666667, 10, 185
2587, 1666.66666667, 19.1666666667, 180
2588, 1666.66666667, 19.1666666667, 185
2589, 1666.66666667, 28.3333333333, 185
2590, 1611.11111111, 10, 195
2591, 1611.11111111, 10, 200
2592, 1611.11111111, 19.5486111111, 195
2593, 1611.11111111, 19.5486111111, 200
2594, 1611.11111111, 29.0972222222, 195
2595, 1611.11111111, 29.0972222222, 200
2596, 1611.11111111, 48.1944444444, 180
2597, 1611.11111111, 48.1944444444, 185
2598, 1611.11111111, 48.1944444444, 190
2599, 1611.11111111, 57.7430555556, 180
2600, 1611.11111111, 57.7430555556, 185
2601, 1611.11111111, 57.7430555556, 190
2602, 1666.66666667, 46.6666666667, 185
2603, 1666.66666667, 55.8333333333, 180
2604, 1666.66666667, 55.8333333333, 185
2605, 1666.66666667, 55.8333333333, 190
2606, 1611.11111111, 48.1944444444, 195
2607, 1611.11111111, 48.1944444444, 200
2608, 1611.11111111, 57.7430555556, 195
2609, 1611.11111111, 57.7430555556, 200
2610, 1666.66666667, 46.6666666667, 195
2611, 1666.66666667, 55.8333333333, 195
2612, 1666.66666667, 55.8333333333, 200
2613, 1722.22222222, -10, 102.222222222
2614, 1722.22222222, -10, 113.333333333
2615, 1722.22222222, -5, 102.222222222
2616, 1722.22222222, -5, 113.333333333
2617, 1722.22222222, 0, 102.222222222
2618, 1722.22222222, 0, 113.333333333
2619, 1777.77777778, -10, 103.777777778
2620, 1777.77777778, -5, 103.777777778
2621, 1777.77777778, -5, 114.666666667
2622, 1777.77777778, 0, 103.777777778
2623, 1666.66666667, -10, 146
2624, 1666.66666667, -5, 134.666666667
2625, 1666.66666667, -5, 146
2626, 1666.66666667, 0, 146
2627, 1722.22222222, -10, 135.555555556
2628, 1722.22222222, -10, 146.666666667
2629, 1722.22222222, -5, 135.555555556
2630, 1722.22222222, -5, 146.666666667
2631, 1722.22222222, 0, 135.555555556
2632, 1722.22222222, 0, 146.666666667
2633, 1777.77777778, -10, 147.333333333
2634, 1777.77777778, -5, 136.444444444
2635, 1777.77777778, -5, 147.333333333
2636, 1777.77777778, 0, 147.333333333
2637, 1722.22222222, 5, 102.222222222
2638, 1722.22222222, 5, 113.333333333
2639, 1722.22222222, 10, 102.222222222
2640, 1722.22222222, 10, 113.333333333
2641, 1777.77777778, 5, 103.777777778
2642, 1777.77777778, 5, 114.666666667
2643, 1777.77777778, 10, 103.777777778
2644, 1722.22222222, 5, 157.777777778
2645, 1722.22222222, 5, 168.888888889
2646, 1722.22222222, 5, 180
2647, 1722.22222222, 10, 157.777777778
2648, 1722.22222222, 10, 168.888888889
2649, 1722.22222222, 10, 180
2650, 1777.77777778, 5, 158.222222222
2651, 1777.77777778, 5, 169.111111111
2652, 1777.77777778, 5, 180
2653, 1777.77777778, 10, 169.111111111
2654, 1722.22222222, -98.6284722222, 180
2655, 1722.22222222, -98.6284722222, 185
2656, 1722.22222222, -98.6284722222, 190
2657, 1722.22222222, -80.9027777778, 180
2658, 1722.22222222, -80.9027777778, 185
2659, 1722.22222222, -80.9027777778, 190
2660, 1777.77777778, -100.277777778, 180
2661, 1777.77777778, -100.277777778, 185
2662, 1777.77777778, -100.277777778, 190
2663, 1777.77777778, -82.2222222222, 185
2664, 1722.22222222, -98.6284722222, 195
2665, 1722.22222222, -98.6284722222, 200
2666, 1722.22222222, -80.9027777778, 195
2667, 1722.22222222, -80.9027777778, 200
2668, 1777.77777778, -100.277777778, 195
2669, 1777.77777778, -100.277777778, 200
2670, 1777.77777778, -82.2222222222, 195
2671, 1722.22222222, -45.4513888889, 180
2672, 1722.22222222, -45.4513888889, 185
2673, 1722.22222222, -45.4513888889, 190
2674, 1722.22222222, -27.7256944444, 180
2675, 1722.22222222, -27.7256944444, 185
2676, 1722.22222222, -27.7256944444, 190
2677, 1722.22222222, -10, 185
2678, 1722.22222222, -10, 190
2679, 1777.77777778, -46.1111111111, 185
2680, 1777.77777778, -28.0555555556, 180
2681, 1777.77777778, -28.0555555556, 185
2682, 1777.77777778, -28.0555555556, 190
2683, 1777.77777778, -10, 185
2684, 1722.22222222, -45.4513888889, 195
2685, 1722.22222222, -45.4513888889, 200
2686, 1722.22222222, -27.7256944444, 195
2687, 1722.22222222, -27.7256944444, 200
2688, 1722.22222222, -10, 195
2689, 1722.22222222, -10, 200
2690, 1777.77777778, -46.1111111111, 195
2691, 1777.77777778, -28.0555555556, 195
2692, 1777.77777778, -28.0555555556, 200
2693, 1777.77777778, -10, 195
2694, 1722.22222222, 10, 185
2695, 1722.22222222, 18.7847222222, 180
2696, 1722.22222222, 18.7847222222, 185
2697, 1722.22222222, 27.5694444444, 180
2698, 1722.22222222, 27.5694444444, 185
2699, 1777.77777778, 10, 185
2700, 1777.77777778, 18.4027777778, 180
2701, 1777.77777778, 18.4027777778, 185
2702, 1777.77777778, 26.8055555556, 185
2703, 1722.22222222, 45.1388888889, 180
2704, 1722.22222222, 45.1388888889, 185
2705, 1722.22222222, 45.1388888889, 190
2706, 1722.22222222, 53.9236111111, 180
2707, 1722.22222222, 53.9236111111, 185
2708, 1722.22222222, 53.9236111111, 190
2709, 1777.77777778, 43.6111111111, 185
2710, 1777.77777778, 52.0138888889, 180
2711, 1777.77777778, 52.0138888889, 185
2712, 1777.77777778, 52.0138888889, 190
2713, 1722.22222222, 45.1388888889, 195
2714, 1722.22222222, 45.1388888889, 200
2715, 1722.22222222, 53.9236111111, 195
2716, 1722.22222222, 53.9236111111, 200
2717, 1777.77777778, 43.6111111111, 195
2718, 1777.77777778, 52.0138888889, 195
2719, 1777.77777778, 52.0138888889, 200
2720, 1833.33333333, -10, 105.333333333
2721, 1833.33333333, -10, 116
2722, 1833.33333333, -5, 105.333333333
2723, 1833.33333333, -5, 116
2724, 1833.33333333, 0, 105.333333333
2725, 1833.33333333, 0, 116
2726, 1888.88888889, -10, 106.888888889
2727, 1888.88888889, -5, 106.888888889
2728, 1888.88888889, -5, 117.333333333
2729, 1888.88888889, 0, 106.888888889
2730, 1833.33333333, -10, 137.333333333
2731, 1833.33333333, -10, 148
2732, 1833.33333333, -5, 137.333333333
2733, 1833.33333333, -5, 148
2734, 1833.33333333, 0, 137.333333333
2735, 1833.33333333, 0, 148
2736, 1888.88888889, -10, 148.666666667
2737, 1888.88888889, -5, 138.222222222
2738, 1888.88888889, -5, 148.666666667
2739, 1888.88888889, 0, 148.666666667
2740, 1833.33333333, 5, 105.333333333
2741, 1833.33333333, 5, 116
2742, 1833.33333333, 10, 105.333333333
2743, 1833.33333333, 10, 116
2744, 1888.88888889, 5, 106.888888889
2745, 1888.88888889, 5, 117.333333333
2746, 1888.88888889, 10, 106.888888889
2747, 1833.33333333, 5, 158.666666667
2748, 1833.33333333, 5, 169.333333333
2749, 1833.33333333, 5, 180
2750, 1833.33333333, 10, 158.666666667
2751, 1833.33333333, 10, 169.333333333
2752, 1833.33333333, 10, 180
2753, 1833.33333333, -101.927083333, 180
2754, 1833.33333333, -101.927083333, 185
2755, 1833.33333333, -101.927083333, 190
2756, 1833.33333333, -83.5416666667, 180
2757, 1833.33333333, -83.5416666667, 185
2758, 1833.33333333, -83.5416666667, 190
2759, 1888.88888889, -103.576388889, 180
2760, 1888.88888889, -103.576388889, 185
2761, 1888.88888889, -103.576388889, 190
2762, 1888.88888889, -84.8611111111, 185
2763, 1833.33333333, -101.927083333, 195
2764, 1833.33333333, -101.927083333, 200
2765, 1833.33333333, -83.5416666667, 195
2766, 1833.33333333, -83.5416666667, 200
2767, 1888.88888889, -103.576388889, 195
2768, 1888.88888889, -103.576388889, 200
2769, 1888.88888889, -84.8611111111, 195
2770, 1833.33333333, -46.7708333333, 180
2771, 1833.33333333, -46.7708333333, 185
2772, 1833.33333333, -46.7708333333, 190
2773, 1833.33333333, -28.3854166667, 180
2774, 1833.33333333, -28.3854166667, 185
2775, 1833.33333333, -28.3854166667, 190
2776, 1833.33333333, -10, 185
2777, 1833.33333333, -10, 190
2778, 1833.33333333, -46.7708333333, 195
2779, 1833.33333333, -46.7708333333, 200
2780, 1833.33333333, -28.3854166667, 195
2781, 1833.33333333, -28.3854166667, 200
2782, 1833.33333333, -10, 195
2783, 1833.33333333, -10, 200
2784, 1833.33333333, 10, 185
2785, 1833.33333333, 18.0208333333, 180
2786, 1833.33333333, 18.0208333333, 185
2787, 1833.33333333, 26.0416666667, 180
2788, 1833.33333333, 26.0416666667, 185
2789, 1888.88888889, 10, 185
2790, 1888.88888889, 17.6388888889, 180
2791, 1888.88888889, 17.6388888889, 185
2792, 1888.88888889, 25.2777777778, 185
2793, 1833.33333333, 42.0833333333, 180
2794, 1833.33333333, 42.0833333333, 185
2795, 1833.33333333, 42.0833333333, 190
2796, 1833.33333333, 50.1041666667, 180
2797, 1833.33333333, 50.1041666667, 185
2798, 1833.33333333, 50.1041666667, 190
2799, 1888.88888889, 40.5555555556, 185
2800, 1888.88888889, 48.1944444444, 180
2801, 1888.88888889, 48.1944444444, 185
2802, 1888.88888889, 48.1944444444, 190
2803, 1833.33333333, 42.0833333333, 195
2804, 1833.33333333, 42.0833333333, 200
2805, 1833.33333333, 50.1041666667, 195
2806, 1833.33333333, 50.1041666667, 200
2807, 1888.88888889, 40.5555555556, 195
2808, 1888.88888889, 48.1944444444, 195
2809, 1888.88888889, 48.1944444444, 200
2810, 1944.44444444, -10, 108.444444444
2811, 1944.44444444, -10, 118.666666667
2812, 1944.44444444, -5, 108.444444444
2813, 1944.44444444, -5, 118.666666667
2814, 1944.44444444, 0, 108.444444444
2815, 1944.44444444, 0, 118.666666667
2816, 2000, -10, 110
2817, 2000, -5, 110
2818, 2000, -5, 120
2819, 2000, 0, 110
2820, 1944.44444444, -10, 139.111111111
2821, 1944.44444444, -10, 149.333333333
2822, 1944.44444444, -5, 139.111111111
2823, 1944.44444444, -5, 149.333333333
2824, 1944.44444444, 0, 139.111111111
2825, 1944.44444444, 0, 149.333333333
2826, 2000, -10, 150
2827, 2000, -5, 140
2828, 2000, -5, 150
2829, 2000, 0, 150
2830, 1944.44444444, 5, 108.444444444
2831, 1944.44444444, 5, 118.666666667
2832, 1944.44444444, 10, 108.444444444
2833, 1944.44444444, 10, 118.666666667
2834, 2000, 5, 110
2835, 2000, 5, 120
2836, 2000, 10, 110
2837, 1888.88888889, 5, 138.222222222
2838, 1888.88888889, 5, 148.666666667
2839, 1888.88888889, 10, 148.666666667
2840, 1944.44444444, 5, 139.111111111
2841, 1944.44444444, 5, 149.333333333
2842, 1944.44444444, 10, 139.111111111
2843, 1944.44444444, 10, 149.333333333
2844, 2000, 5, 140
2845, 2000, 5, 150
2846, 2000, 10, 150
2847, 1944.44444444, -105.225694444, 180
2848, 1944.44444444, -105.225694444, 185
2849, 1944.44444444, -105.225694444, 190
2850, 1944.44444444, -86.1805555556, 180
2851, 1944.44444444, -86.1805555556, 185
2852, 1944.44444444, -86.1805555556, 190
2853, 2000, -106.875, 180
2854, 2000, -106.875, 185
2855, 2000, -106.875, 190
2856, 2000, -87.5, 185
2857, 1944.44444444, -105.225694444, 195
2858, 1944.44444444, -105.225694444, 200
2859, 1944.44444444, -86.1805555556, 195
2860, 1944.44444444, -86.1805555556, 200
2861, 2000, -106.875, 195
2862, 2000, -106.875, 200
2863, 2000, -87.5, 195
2864, 1888.88888889, -66.1458333333, 180
2865, 1888.88888889, -66.1458333333, 185
2866, 1888.88888889, -66.1458333333, 190
2867, 1944.44444444, -67.1354166667, 180
2868, 1944.44444444, -67.1354166667, 185
2869, 1944.44444444, -67.1354166667, 190
2870, 2000, -68.125, 180
2871, 2000, -68.125, 185
2872, 2000, -68.125, 190
2873, 1888.88888889, -66.1458333333, 195
2874, 1888.88888889, -66.1458333333, 200
2875, 1944.44444444, -67.1354166667, 195
2876, 1944.44444444, -67.1354166667, 200
2877, 2000, -68.125, 195
2878, 2000, -68.125, 200
2879, 1888.88888889, 0, 185
2880, 1888.88888889, 5, 185
2881, 1888.88888889, 5, 190
2882, 1944.44444444, 0, 185
2883, 1944.44444444, 0, 190
2884, 1944.44444444, 5, 185
2885, 1944.44444444, 5, 190
2886, 1944.44444444, 10, 185
2887, 1944.44444444, 10, 190
2888, 2000, 0, 185
2889, 2000, 5, 185
2890, 2000, 5, 190
2891, 2000, 10, 185
2892, 1888.88888889, 0, 195
2893, 1888.88888889, 5, 195
2894, 1888.88888889, 5, 200
2895, 1944.44444444, 0, 195
2896, 1944.44444444, 0, 200
2897, 1944.44444444, 5, 195
2898, 1944.44444444, 5, 200
2899, 1944.44444444, 10, 195
2900, 1944.44444444, 10, 200
2901, 2000, 0, 195
2902, 2000, 5, 195
2903, 2000, 5, 200
2904, 2000, 10, 195
2905, 1944.44444444, 17.2569444444, 180
2906, 1944.44444444, 17.2569444444, 185
2907, 1944.44444444, 17.2569444444, 190
2908, 1944.44444444, 24.5138888889, 180
2909, 1944.44444444, 24.5138888889, 185
2910, 1944.44444444, 24.5138888889, 190
2911, 2000, 16.875, 180
2912, 2000, 16.875, 185
2913, 2000, 16.875, 190
2914, 2000, 23.75, 185
2915, 1944.44444444, 17.2569444444, 195
2916, 1944.44444444, 17.2569444444, 200
2917, 1944.44444444, 24.5138888889, 195
2918, 1944.44444444, 24.5138888889, 200
2919, 2000, 16.875, 195
2920, 2000, 16.875, 200
2921, 2000, 23.75, 195
2922, 1944.44444444, 39.0277777778, 180
2923, 1944.44444444, 39.0277777778, 185
2924, 1944.44444444, 39.0277777778, 190
2925, 1944.44444444, 46.2847222222, 180
2926, 1944.44444444, 46.2847222222, 185
2927, 1944.44444444, 46.2847222222, 190
2928, 2000, 37.5, 185
2929, 2000, 44.375, 180
2930, 2000, 44.375, 185
2931, 2000, 44.375, 190
2932, 1944.44444444, 39.0277777778, 195
2933, 1944.44444444, 39.0277777778, 200
2934, 1944.44444444, 46.2847222222, 195
2935, 1944.44444444, 46.2847222222, 200
2936, 2000, 37.5, 195
2937, 2000, 44.375, 195
2938, 2000, 44.375, 200
*ELEMENT, TYPE=C3D8, ELSET=EALL
1, 1, 918, 921, 914, 913, 919, 922, 915
2, 913, 919, 922, 915, 5, 920, 923, 916
3, 914, 921, 924, 4, 915, 922, 925, 917
4, 915, 922, 925, 917, 916, 923, 926, 8
5, 918, 2, 928, 921, 919, 927, 929, 922
6, 919, 927, 929, 922, 920, 6, 930, 923
7, 921, 928, 3, 924, 922, 929, 931, 925
8, 922, 929, 931, 925, 923, 930, 7, 926
9, 5, 920, 923, 916, 1756, 1760, 1762, 1757
10, 1756, 1760, 1762, 1757, 9, 1761, 1763, 1758
11, 916, 923, 926, 8, 1757, 1762, 1764, 1759
12, 1757, 1762, 1764, 1759, 1758, 1763, 1765, 12
13, 920, 6, 930, 923, 1760, 1766, 1767, 1762
14, 1760, 1766, 1767, 1762, 1761, 10, 1768, 1763
15, 923, 930, 7, 926, 1762, 1767, 1769, 1764
16, 1762, 1767, 1769, 1764, 1763, 1768, 11, 1765
17, 9, 10, 11, 12, 13, 14, 15, 16
18, 13, 14, 15, 16, 17, 18, 19, 20
19, 17, 18, 19, 20, 21, 22, 23, 24
20, 4, 924, 936, 932, 917, 925, 937, 933
21, 917, 925, 937, 933, 8, 926, 938, 934
22, 932, 936, 939, 26, 933, 937, 940, 935
23, 933, 937, 940, 935, 934, 938, 941, 28
24, 924, 3, 942, 936, 925, 931, 943, 937
25, 925, 931, 943, 937, 926, 7, 944, 938
26, 936, 1775, 1778, 1771, 1770, 1776, 1779, 1772
27, 1770, 1776, 1779, 1772, 937, 1777, 1780, 1773
28, 1771, 1778, 1781, 939, 1772, 1779, 1782, 1774
29, 1772, 1779, 1782, 1774, 1773, 1780, 1783, 940
30, 1775, 942, 1785, 1778, 1776, 1784, 1786, 1779
31, 1776, 1784, 1786, 1779, 1777, 943, 1787, 1780
32, 1778, 1785, 25, 1781, 1779, 1786, 1788, 1782
33, 1779, 1786, 1788, 1782, 1780, 1787, 945, 1783
34, 937, 943, 945, 940, 938, 944, 27, 941
35, 8, 926, 938, 934, 1759, 1764, 1792, 1789
36, 1759, 1764, 1792, 1789, 12, 1765, 1793, 1790
37, 934, 938, 941, 28, 1789, 1792, 1794, 1791
38, 1789, 1792, 1794, 1791, 1790, 1793, 1795, 30
39, 926, 7, 944, 938, 1764, 1769, 1796, 1792
40, 1764, 1769, 1796, 1792, 1765, 11, 1797, 1793
41, 938, 944, 27, 941, 1792, 1796, 1798, 1794
42, 1792, 1796, 1798, 1794, 1793, 1797, 29, 1795
43, 12, 11, 29, 30, 16, 15, 31, 32
44, 16, 15, 31, 32, 20, 19, 33, 34
45, 20, 19, 33, 34, 24, 23, 35, 36
46, 37, 38, 39, 40, 41, 42, 43, 44
47, 41, 42, 43, 44, 45, 46, 47, 48
48, 40, 39, 49, 50, 44, 43, 51, 52
49, 44, 43, 51, 52, 48, 47, 53, 54
50, 50, 49, 55, 56, 52, 51, 57, 58
51, 52, 51, 57, 58, 54, 53, 59, 60
52, 56, 55, 22, 21, 58, 57, 61, 62
53, 58, 57, 61, 62, 60, 59, 63, 64
54, 21, 22, 23, 24, 62, 61, 65, 66
55, 62, 61, 65, 66, 64, 63, 67, 68
56, 24, 23, 35, 36, 66, 65, 69, 70
57, 66, 65, 69, 70, 68, 67, 71, 72
58, 36, 35, 73, 74, 70, 69, 75, 76
59, 70, 69, 75, 76, 72, 71, 77, 78
60, 74, 73, 79, 80, 76, 75, 81, 82
61, 76, 75, 81, 82, 78, 77, 83, 84
62, 80, 79, 85, 86, 82, 81, 87, 88
63, 82, 81, 87, 88, 84, 83, 89, 90
64, 86, 85, 91, 92, 88, 87, 93, 94
65, 88, 87, 93, 94, 90, 89, 95, 96
66, 2, 946, 949, 928, 927, 947, 950, 929
67, 927, 947, 950, 929, 6, 948, 951, 930
68, 928, 949, 952, 3, 929, 950, 953, 931
69, 929, 950, 953, 931, 930, 951, 954, 7
70, 946, 97, 956, 949, 947, 955, 957, 950
71, 947, 955, 957, 950, 948, 99, 958, 951
72, 949, 956, 98, 952, 950, 957, 959, 953
73, 950, 957, 959, 953, 951, 958, 100, 954
74, 6, 948, 951, 930, 1766, 1799, 1801, 1767
75, 1766, 1799, 1801, 1767, 10, 1800, 1802, 1768
76, 930, 951, 954, 7, 1767, 1801, 1803, 1769
77, 1767, 1801, 1803, 1769, 1768, 1802, 1804, 11
78, 948, 99, 958, 951, 1799, 1805, 1806, 1801
79, 1799, 1805, 1806, 1801, 1800, 101, 1807, 1802
80, 951, 958, 100, 954, 1801, 1806, 1808, 1803
81, 1801, 1806, 1808, 1803, 1802, 1807, 102, 1804
82, 10, 101, 102, 11, 14, 103, 104, 15
83, 14, 103, 104, 15, 18, 105, 106, 19
84, 18, 1814, 1817, 1810, 1809, 1815, 1818, 1811
85, 1809, 1815, 1818, 1811, 22, 1816, 1819, 1812
86, 1810, 1817, 1820, 19, 1811, 1818, 1821, 1813
87, 1811, 1818, 1821, 1813, 1812, 1819, 1822, 23
88, 1814, 105, 1824, 1817, 1815, 1823, 1825, 1818
89, 1815, 1823, 1825, 1818, 1816, 107, 1826, 1819
90, 1817, 1824, 106, 1820, 1818, 1825, 1827, 1821
91, 1818, 1825, 1827, 1821, 1819, 1826, 108, 1822
92, 3, 952, 960, 942, 931, 953, 961, 943
93, 931, 953, 961, 943, 7, 954, 962, 944
94, 942, 960, 963, 25, 943, 961, 964, 945
95, 943, 961, 964, 945, 944, 962, 965, 27
96, 952, 98, 966, 960, 953, 959, 967, 961
97, 953, 959, 967, 961, 954, 100, 968, 962
98, 960, 966, 109, 963, 961, 967, 969, 964
99, 961, 967, 969, 964, 962, 968, 110, 965
100, 7, 954, 962, 944, 1769, 1803, 1828, 1796
101, 1769, 1803, 1828, 1796, 11, 1804, 1829, 1797
102, 944, 962, 965, 27, 1796, 1828, 1830, 1798
103, 1796, 1828, 1830, 1798, 1797, 1829, 1831, 29
104, 954, 100, 968, 962, 1803, 1808, 1832, 1828
105, 1803, 1808, 1832, 1828, 1804, 102, 1833, 1829
106, 962, 968, 110, 965, 1828, 1832, 1834, 1830
107, 1828, 1832, 1834, 1830, 1829, 1833, 111, 1831
108, 11, 102, 111, 29, 15, 104, 112, 31
109, 15, 104, 112, 31, 19, 106, 113, 33
110, 19, 106, 113, 33, 23, 108, 114, 35
111, 38, 115, 116, 39, 42, 117, 118, 43
112, 42, 117, 118, 43, 46, 119, 120, 47
113, 39, 116, 121, 49, 43, 118, 122, 51
114, 43, 118, 122, 51, 47, 120, 123, 53
115, 49, 121, 124, 55, 51, 122, 125, 57
116, 51, 122, 125, 57, 53, 123, 126, 59
117, 55, 124, 107, 22, 57, 125, 127, 61
118, 57, 125, 127, 61, 59, 126, 128, 63
119, 22, 107, 108, 23, 61, 127, 129, 65
120, 61, 127, 129, 65, 63, 128, 130, 67
121, 23, 108, 114, 35, 65, 129, 131, 69
122, 65, 129, 131, 69, 67, 130, 132, 71
123, 35, 114, 133, 73, 69, 131, 134, 75
124, 69, 131, 134, 75, 71, 132, 135, 77
125, 73, 133, 136, 79, 75, 134, 137, 81
126, 75, 134, 137, 81, 77, 135, 138, 83
127, 79, 136, 139, 85, 81, 137, 140, 87
128, 81, 137, 140, 87, 83, 138, 141, 89
129, 85, 139, 142, 91, 87, 140, 143, 93
130, 87, 140, 143, 93, 89, 141, 144, 95
131, 97, 1835, 1838, 956, 955, 1836, 1839, 957
132, 955, 1836, 1839, 957, 99, 1837, 1840, 958
133, 956, 1838, 1841, 98, 957, 1839, 1842, 959
134, 957, 1839, 1842, 959, 958, 1840, 1843, 100
135, 1835, 145, 1845, 1838, 1836, 1844, 1846, 1839
136, 1836, 1844, 1846, 1839, 1837, 147, 1847, 1840
137, 1838, 1845, 146, 1841, 1839, 1846, 970, 1842
138, 1839, 1846, 970, 1842, 1840, 1847, 148, 1843
139, 99, 147, 148, 100, 101, 149, 150, 102
140, 101, 149, 150, 102, 103, 151, 152, 104
141, 103, 151, 152, 104, 105, 153, 154, 106
142, 105, 153, 154, 106, 107, 155, 156, 108
143, 98, 1841, 1848, 966, 959, 1842, 1849, 967
144, 959, 1842, 1849, 967, 100, 1843, 1850, 968
145, 966, 1848, 1851, 109, 967, 1849, 1852, 969
146, 967, 1849, 1852, 969, 968, 1850, 1853, 110
147, 1841, 146, 971, 1848, 1842, 970, 972, 1849
148, 1842, 970, 972, 1849, 1843, 148, 973, 1850
149, 1848, 971, 157, 1851, 1849, 972, 974, 1852
150, 1849, 972, 974, 1852, 1850, 973, 158, 1853
151, 100, 148, 158, 110, 102, 150, 159, 111
152, 102, 150, 159, 111, 104, 152, 160, 112
153, 104, 152, 160, 112, 106, 154, 161, 113
154, 106, 154, 161, 113, 108, 156, 162, 114
155, 115, 163, 164, 116, 117, 165, 166, 118
156, 117, 165, 166, 118, 119, 167, 168, 120
157, 116, 164, 169, 121, 118, 166, 170, 122
158, 118, 166, 170, 122, 120, 168, 171, 123
159, 121, 169, 172, 124, 122, 170, 173, 125
160, 122, 170, 173, 125, 123, 171, 174, 126
161, 124, 172, 155, 107, 125, 173, 175, 127
162, 125, 173, 175, 127, 126, 174, 176, 128
163, 107, 155, 156, 108, 127, 175, 177, 129
164, 127, 175, 177, 129, 128, 176, 178, 130
165, 108, 156, 162, 114, 129, 177, 179, 131
166, 129, 177, 179, 131, 130, 178, 180, 132
167, 114, 162, 181, 133, 131, 179, 182, 134
168, 131, 179, 182, 134, 132, 180, 183, 135
169, 133, 181, 184, 136, 134, 182, 185, 137
170, 134, 182, 185, 137, 135, 183, 186, 138
171, 136, 184, 187, 139, 137, 185, 188, 140
172, 137, 185, 188, 140, 138, 186, 189, 141
173, 139, 187, 190, 142, 140, 188, 191, 143
174, 140, 188, 191, 143, 141, 189, 192, 144
175, 145, 1854, 1857, 1845, 1844, 1855, 1858, 1846
176, 1844, 1855, 1858, 1846, 147, 1856, 1859, 1847
177, 1845, 1857, 975, 146, 1846, 1858, 976, 970
178, 1846, 1858, 976, 970, 1847, 1859, 977, 148
179, 1854, 193, 1861, 1857, 1855, 1860, 1862, 1858
180, 1855, 1860, 1862, 1858, 1856, 195, 1863, 1859
181, 1857, 1861, 194, 975, 1858, 1862, 984, 976
182, 1858, 1862, 984, 976, 1859, 1863, 196, 977
183, 147, 195, 196, 148, 149, 197, 198, 150
184, 149, 197, 198, 150, 151, 199, 200, 152
185, 151, 199, 200, 152, 153, 201, 202, 154
186, 153, 201, 202, 154, 155, 203, 204, 156
187, 146, 975, 978, 971, 970, 976, 979, 972
188, 970, 976, 979, 972, 148, 977, 980, 973
189, 971, 978, 981, 157, 972, 979, 982, 974
190, 972, 979, 982, 974, 973, 980, 983, 158
191, 975, 194, 985, 978, 976, 984, 986, 979
192, 976, 984, 986, 979, 977, 196, 987, 980
193, 978, 985, 205, 981, 979, 986, 988, 982
194, 979, 986, 988, 982, 980, 987, 206, 983
195, 148, 196, 206, 158, 150, 198, 207, 159
196, 150, 198, 207, 159, 152, 200, 208, 160
197, 152, 200, 208, 160, 154, 202, 209, 161
198, 154, 202, 209, 161, 156, 204, 210, 162
199, 163, 211, 212, 164, 165, 213, 214, 166
200, 165, 213, 214, 166, 167, 215, 216, 168
201, 164, 212, 217, 169, 166, 214, 218, 170
202, 166, 214, 218, 170, 168, 216, 219, 171
203, 169, 217, 220, 172, 170, 218, 221, 173
204, 170, 218, 221, 173, 171, 219, 222, 174
205, 172, 220, 203, 155, 173, 221, 223, 175
206, 173, 221, 223, 175, 174, 222, 224, 176
207, 155, 203, 204, 156, 175, 223, 225, 177
208, 175, 223, 225, 177, 176, 224, 226, 178
209, 156, 204, 210, 162, 177, 225, 227, 179
210, 177, 225, 227, 179, 178, 226, 228, 180
211, 162, 210, 229, 181, 179, 227, 230, 182
212, 179, 227, 230, 182, 180, 228, 231, 183
213, 181, 229, 232, 184, 182, 230, 233, 185
214, 182, 230, 233, 185, 183, 231, 234, 186
215, 184, 232, 235, 187, 185, 233, 236, 188
216, 185, 233, 236, 188, 186, 234, 237, 189
217, 187, 235, 238, 190, 188, 236, 239, 191
218, 188, 236, 239, 191, 189, 237, 240, 192
219, 193, 1864, 1867, 1861, 1860, 1865, 1868, 1862
220, 1860, 1865, 1868, 1862, 195, 1866, 1869, 1863
221, 1861, 1867, 1870, 194, 1862, 1868, 1871, 984
222, 1862, 1868, 1871, 984, 1863, 1869, 1872, 196
223, 1864, 241, 1874, 1867, 1865, 1873, 1875, 1868
224, 1865, 1873, 1875, 1868, 1866, 243, 1876, 1869
225, 1867, 1874, 242, 1870, 1868, 1875, 1877, 1871
226, 1868, 1875, 1877, 1871, 1869, 1876, 244, 1872
227, 195, 243, 244, 196, 197, 245, 246, 198
228, 197, 245, 246, 198, 199, 247, 248, 200
229, 199, 247, 248, 200, 201, 249, 250, 202
230, 201, 249, 250, 202, 203, 251, 252, 204
231, 194, 1870, 1878, 985, 984, 1871, 1879, 986
232, 984, 1871, 1879, 986, 196, 1872, 1880, 987
233, 985, 1878, 1881, 205, 986, 1879, 1882, 988
234, 986, 1879, 1882, 988, 987, 1880, 1883, 206
235, 1870, 242, 1884, 1878, 1871, 1877, 1885, 1879
236, 1871, 1877, 1885, 1879, 1872, 244, 1886, 1880
237, 1878, 1884, 253, 1881, 1879, 1885, 1887, 1882
238, 1879, 1885, 1887, 1882, 1880, 1886, 254, 1883
239, 196, 244, 254, 206, 198, 246, 255, 207
240, 198, 246, 255, 207, 200, 248, 256, 208
241, 200, 248, 256, 208, 202, 250, 257, 209
242, 202, 250, 257, 209, 204, 252, 258, 210
243, 211, 259, 260, 212, 213, 261, 262, 214
244, 213, 261, 262, 214, 215, 263, 264, 216
245, 212, 260, 265, 217, 214, 262, 266, 218
246, 214, 262, 266, 218, 216, 264, 267, 219
247, 217, 265, 268, 220, 218, 266, 269, 221
248, 218, 266, 269, 221, 219, 267, 270, 222
249, 220, 268, 251, 203, 221, 269, 271, 223
250, 221, 269, 271, 223, 222, 270, 272, 224
251, 203, 251, 252, 204, 223, 271, 273, 225
252, 223, 271, 273, 225, 224, 272, 274, 226
253, 204, 252, 258, 210, 225, 273, 275, 227
254, 225, 273, 275, 227, 226, 274, 276, 228
255, 210, 258, 277, 229, 227, 275, 278, 230
256, 227, 275, 278, 230, 228, 276, 279, 231
257, 229, 277, 280, 232, 230, 278, 281, 233
258, 230, 278, 281, 233, 231, 279, 282, 234
259, 232, 280, 283, 235, 233, 281, 284, 236
260, 233, 281, 284, 236, 234, 282, 285, 237
261, 235, 283, 286, 238, 236, 284, 287, 239
262, 236, 284, 287, 239, 237, 285, 288, 240
263, 241, 1888, 1891, 1874, 1873, 1889, 1892, 1875
264, 1873, 1889, 1892, 1875, 243, 1890, 1893, 1876
265, 1874, 1891, 1894, 242, 1875, 1892, 1895, 1877
266, 1875, 1892, 1895, 1877, 1876, 1893, 1896, 244
267, 1888, 289, 1898, 1891, 1889, 1897, 1899, 1892
268, 1889, 1897, 1899, 1892, 1890, 291, 1900, 1893
269, 1891, 1898, 290, 1894, 1892, 1899, 1901, 1895
270, 1892, 1899, 1901, 1895, 1893, 1900, 292, 1896
271, 243, 291, 292, 244, 245, 293, 294, 246
272, 245, 293, 294, 246, 247, 295, 296, 248
273, 247, 295, 296, 248, 249, 297, 298, 250
274, 249, 297, 298, 250, 251, 299, 300, 252
275, 242, 1894, 1902, 1884, 1877, 1895, 1903, 1885
276, 1877, 1895, 1903, 1885, 244, 1896, 1904, 1886
277, 1884, 1902, 1905, 253, 1885, 1903, 1906, 1887
278, 1885, 1903, 1906, 1887, 1886, 1904, 1907, 254
279, 1894, 290, 1908, 1902, 1895, 1901, 1909, 1903
280, 1895, 1901, 1909, 1903, 1896, 292, 1910, 1904
281, 1902, 1908, 301, 1905, 1903, 1909, 1911, 1906
282, 1903, 1909, 1911, 1906, 1904, 1910, 302, 1907
283, 244, 292, 302, 254, 246, 294, 303, 255
284, 246, 294, 303, 255, 248, 296, 304, 256
285, 248, 296, 304, 256, 250, 298, 305, 257
286, 250, 298, 305, 257, 252, 300, 306, 258
287, 259, 307, 308, 260, 261, 309, 310, 262
288, 261, 309, 310, 262, 263, 311, 312, 264
289, 260, 308, 313, 265, 262, 310, 314, 266
290, 262, 310, 314, 266, 264, 312, 315, 267
291, 265, 313, 316, 268, 266, 314, 317, 269
292, 266, 314, 317, 269, 267, 315, 318, 270
293, 268, 316, 299, 251, 269, 317, 319, 271
294, 269, 317, 319, 271, 270, 318, 320, 272
295, 251, 299, 300, 252, 271, 319, 321, 273
296, 271, 319, 321, 273, 272, 320, 322, 274
297, 252, 300, 306, 258, 273, 321, 323, 275
298, 273, 321, 323, 275, 274, 322, 324, 276
299, 258, 306, 325, 277, 275, 323, 326, 278
300, 275, 323, 326, 278, 276, 324, 327, 279
301, 277, 325, 328, 280, 278, 326, 329, 281
302, 278, 326, 329, 281, 279, 327, 330, 282
303, 280, 328, 331, 283, 281, 329, 332, 284
304, 281, 329, 332, 284, 282, 330, 333, 285
305, 283, 331, 334, 286, 284, 332, 335, 287
306, 284, 332, 335, 287, 285, 333, 336, 288
307, 289, 1912, 1915, 1898, 1897, 1913, 1916, 1899
308, 1897, 1913, 1916, 1899, 291, 1914, 1917, 1900
309, 1898, 1915, 1918, 290, 1899, 1916, 1919, 1901
310, 1899, 1916, 1919, 1901, 1900, 1917, 1920, 292
311, 1912, 337, 1922, 1915, 1913, 1921, 1923, 1916
312, 1913, 1921, 1923, 1916, 1914, 339, 1924, 1917
313, 1915, 1922, 338, 1918, 1916, 1923, 1925, 1919
314, 1916, 1923, 1925, 1919, 1917, 1924, 340, 1920
315, 291, 339, 340, 292, 293, 341, 342, 294
316, 293, 341, 342, 294, 295, 343, 344, 296
317, 295, 343, 344, 296, 297, 345, 346, 298
318, 297, 345, 346, 298, 299, 347, 348, 300
319, 290, 1918, 1926, 1908, 1901, 1919, 1927, 1909
320, 1901, 1919, 1927, 1909, 292, 1920, 1928, 1910
321, 1908, 1926, 1929, 301, 1909, 1927, 1930, 1911
322, 1909, 1927, 1930, 1911, 1910, 1928, 1931, 302
323, 1918, 338, 1932, 1926, 1919, 1925, 1933, 1927
324, 1919, 1925, 1933, 1927, 1920, 340, 1934, 1928
325, 1926, 1932, 349, 1929, 1927, 1933, 1935, 1930
326, 1927, 1933, 1935, 1930, 1928, 1934, 350, 1931
327, 292, 340, 350, 302, 294, 342, 351, 303
328, 294, 342, 351, 303, 296, 344, 352, 304
329, 296, 344, 352, 304, 298, 346, 353, 305
330, 298, 346, 353, 305, 300, 348, 354, 306
331, 307, 355, 356, 308, 309, 357, 358, 310
332, 309, 357, 358, 310, 311, 359, 360, 312
333, 308, 356, 361, 313, 310, 358, 362, 314
334, 310, 358, 362, 314, 312, 360, 363, 315
335, 313, 361, 364, 316, 314, 362, 365, 317
336, 314, 362, 365, 317, 315, 363, 366, 318
337, 316, 364, 347, 299, 317, 365, 367, 319
338, 317, 365, 367, 319, 318, 366, 368, 320
339, 299, 347, 348, 300, 319, 367, 369, 321
340, 319, 367, 369, 321, 320, 368, 370, 322
341, 300, 348, 354, 306, 321, 369, 371, 323
342, 321, 369, 371, 323, 322, 370, 372, 324
343, 306, 354, 373, 325, 323, 371, 374, 326
344, 323, 371, 374, 326, 324, 372, 375, 327
345, 325, 373, 376, 328, 326, 374, 377, 329
346, 326, 374, 377, 329, 327, 375, 378, 330
347, 328, 376, 379, 331, 329, 377, 380, 332
348, 329, 377, 380, 332, 330, 378, 381, 333
349, 331, 379, 382, 334, 332, 380, 383, 335
350, 332, 380, 383, 335, 333, 381, 384, 336
351, 337, 1936, 1939, 1922, 1921, 1937, 1940, 1923
352, 1921, 1937, 1940, 1923, 339, 1938, 1941, 1924
353, 1922, 1939, 1942, 338, 1923, 1940, 1943, 1925
354, 1923, 1940, 1943, 1925, 1924, 1941, 1944, 340
355, 1936, 385, 990, 1939, 1937, 989, 991, 1940
356, 1937, 989, 991, 1940, 1938, 387, 992, 1941
357, 1939, 990, 386, 1942, 1940, 991, 993, 1943
358, 1940, 991, 993, 1943, 1941, 992, 388, 1944
359, 339, 387, 388, 340, 341, 389, 390, 342
360, 341, 389, 390, 342, 343, 391, 392, 344
361, 343, 391, 392, 344, 345, 393, 394, 346
362, 345, 393, 394, 346, 347, 395, 396, 348
363, 338, 1942, 1945, 1932, 1925, 1943, 1946, 1933
364, 1925, 1943, 1946, 1933, 340, 1944, 1947, 1934
365, 1932, 1945, 1948, 349, 1933, 1946, 1949, 1935
366, 1933, 1946, 1949, 1935, 1934, 1947, 1950, 350
367, 1942, 386, 1008, 1945, 1943, 993, 1009, 1946
368, 1943, 993, 1009, 1946, 1944, 388, 1010, 1947
369, 1945, 1008, 397, 1948, 1946, 1009, 1011, 1949
370, 1946, 1009, 1011, 1949, 1947, 1010, 398, 1950
371, 340, 388, 398, 350, 342, 390, 399, 351
372, 342, 390, 399, 351, 344, 392, 400, 352
373, 344, 392, 400, 352, 346, 394, 401, 353
374, 346, 394, 401, 353, 348, 396, 402, 354
375, 355, 1956, 1959, 1952, 1951, 1957, 1960, 1953
376, 1951, 1957, 1960, 1953, 357, 1958, 1961, 1954
377, 1952, 1959, 1962, 356, 1953, 1960, 1963, 1955
378, 1953, 1960, 1963, 1955, 1954, 1961, 1964, 358
379, 1956, 403, 1966, 1959, 1957, 1965, 1967, 1960
380, 1957, 1965, 1967, 1960, 1958, 405, 1968, 1961
381, 1959, 1966, 404, 1962, 1960, 1967, 1969, 1963
382, 1960, 1967, 1969, 1963, 1961, 1968, 406, 1964
383, 357, 1958, 1961, 1954, 1970, 1974, 1976, 1971
384, 1970, 1974, 1976, 1971, 359, 1975, 1977, 1972
385, 1954, 1961, 1964, 358, 1971, 1976, 1978, 1973
386, 1971, 1976, 1978, 1973, 1972, 1977, 1979, 360
387, 1958, 405, 1968, 1961, 1974, 1980, 1981, 1976
388, 1974, 1980, 1981, 1976, 1975, 407, 1982, 1977
389, 1961, 1968, 406, 1964, 1976, 1981, 1983, 1978
390, 1976, 1981, 1983, 1978, 1977, 1982, 408, 1979
391, 356, 404, 409, 361, 358, 406, 410, 362
392, 358, 406, 410, 362, 360, 408, 411, 363
393, 361, 409, 412, 364, 362, 410, 413, 365
394, 362, 410, 413, 365, 363, 411, 414, 366
395, 364, 412, 395, 347, 365, 413, 415, 367
396, 365, 413, 415, 367, 366, 414, 416, 368
397, 347, 395, 396, 348, 367, 415, 417, 369
398, 367, 415, 417, 369, 368, 416, 418, 370
399, 348, 396, 402, 354, 369, 417, 419, 371
400, 369, 417, 419, 371, 370, 418, 420, 372
401, 354, 402, 421, 373, 371, 419, 422, 374
402, 371, 419, 422, 374, 372, 420, 423, 375
403, 373, 421, 424, 376, 374, 422, 425, 377
404, 374, 422, 425, 377, 375, 423, 426, 378
405, 376, 424, 427, 379, 377, 425, 428, 380
406, 377, 425, 428, 380, 378, 426, 429, 381
407, 379, 427, 430, 382, 380, 428, 431, 383
408, 380, 428, 431, 383, 381, 429, 432, 384
409, 385, 994, 997, 990, 989, 995, 998, 991
410, 989, 995, 998, 991, 387, 996, 999, 992
411, 990, 997, 1000, 386, 991, 998, 1001, 993
412, 991, 998, 1001, 993, 992, 999, 1002, 388
413, 994, 433, 1004, 997, 995, 1003, 1005, 998
414, 995, 1003, 1005, 998, 996, 435, 1006, 999
415, 997, 1004, 434, 1000, 998, 1005, 1007, 1001
416, 998, 1005, 1007, 1001, 999, 1006, 436, 1002
417, 387, 435, 436, 388, 389, 437, 438, 390
418, 389, 437, 438, 390, 391, 439, 440, 392
419, 391, 439, 440, 392, 393, 441, 442, 394
420, 393, 1989, 1992, 1985, 1984, 1990, 1993, 1986
421, 1984, 1990, 1993, 1986, 395, 1991, 1994, 1987
422, 1985, 1992, 1995, 394, 1986, 1993, 1996, 1988
423, 1986, 1993, 1996, 1988, 1987, 1994, 1997, 396
424, 1989, 441, 1999, 1992, 1990, 1998, 2000, 1993
425, 1990, 1998, 2000, 1993, 1991, 443, 2001, 1994
426, 1992, 1999, 442, 1995, 1993, 2000, 2002, 1996
427, 1993, 2000, 2002, 1996, 1994, 2001, 444, 1997
428, 386, 1000, 1012, 1008, 993, 1001, 1013, 1009
429, 993, 1001, 1013, 1009, 388, 1002, 1014, 1010
430, 1008, 1012, 1015, 397, 1009, 1013, 1016, 1011
431, 1009, 1013, 1016, 1011, 1010, 1014, 1017, 398
432, 1000, 434, 1018, 1012, 1001, 1007, 1019, 1013
433, 1001, 1007, 1019, 1013, 1002, 436, 1020, 1014
434, 1012, 1018, 445, 1015, 1013, 1019, 1021, 1016
435, 1013, 1019, 1021, 1016, 1014, 1020, 446, 1017
436, 388, 436, 446, 398, 390, 438, 447, 399
437, 390, 438, 447, 399, 392, 440, 448, 400
438, 392, 440, 448, 400, 394, 442, 449, 401
439, 394, 442, 449, 401, 396, 444, 450, 402
440, 403, 2003, 2006, 1966, 1965, 2004, 2007, 1967
441, 1965, 2004, 2007, 1967, 405, 2005, 2008, 1968
442, 1966, 2006, 2009, 404, 1967, 2007, 2010, 1969
443, 1967, 2007, 2010, 1969, 1968, 2008, 2011, 406
444, 2003, 451, 2013, 2006, 2004, 2012, 2014, 2007
445, 2004, 2012, 2014, 2007, 2005, 453, 2015, 2008
446, 2006, 2013, 452, 2009, 2007, 2014, 2016, 2010
447, 2007, 2014, 2016, 2010, 2008, 2015, 454, 2011
448, 405, 2005, 2008, 1968, 1980, 2017, 2019, 1981
449, 1980, 2017, 2019, 1981, 407, 2018, 2020, 1982
450, 1968, 2008, 2011, 406, 1981, 2019, 2021, 1983
451, 1981, 2019, 2021, 1983, 1982, 2020, 2022, 408
452, 2005, 453, 2015, 2008, 2017, 2023, 2024, 2019
453, 2017, 2023, 2024, 2019, 2018, 455, 2025, 2020
454, 2008, 2015, 454, 2011, 2019, 2024, 2026, 2021
455, 2019, 2024, 2026, 2021, 2020, 2025, 456, 2022
456, 404, 452, 457, 409, 406, 454, 458, 410
457, 406, 454, 458, 410, 408, 456, 459, 411
458, 409, 457, 460, 412, 410, 458, 461, 413
459, 410, 458, 461, 413, 411, 459, 462, 414
460, 412, 460, 443, 395, 413, 461, 463, 415
461, 413, 461, 463, 415, 414, 462, 464, 416
462, 395, 443, 444, 396, 415, 463, 465, 417
463, 415, 463, 465, 417, 416, 464, 466, 418
464, 396, 444, 450, 402, 417, 465, 467, 419
465, 417, 465, 467, 419, 418, 466, 468, 420
466, 402, 450, 469, 421, 419, 467, 470, 422
467, 419, 467, 470, 422, 420, 468, 471, 423
468, 421, 469, 472, 424, 422, 470, 473, 425
469, 422, 470, 473, 425, 423, 471, 474, 426
470, 424, 472, 475, 427, 425, 473, 476, 428
471, 425, 473, 476, 428, 426, 474, 477, 429
472, 427, 475, 478, 430, 428, 476, 479, 431
473, 428, 476, 479, 431, 429, 477, 480, 432
474, 433, 1022, 1025, 1004, 1003, 1023, 1026, 1005
475, 1003, 1023, 1026, 1005, 435, 1024, 1027, 1006
476, 1004, 1025, 1028, 434, 1005, 1026, 1029, 1007
477, 1005, 1026, 1029, 1007, 1006, 1027, 1030, 436
478, 1022, 481, 1032, 1025, 1023, 1031, 1033, 1026
479, 1023, 1031, 1033, 1026, 1024, 483, 1034, 1027
480, 1025, 1032, 482, 1028, 1026, 1033, 1035, 1029
481, 1026, 1033, 1035, 1029, 1027, 1034, 484, 1030
482, 435, 1024, 1027, 1006, 2027, 2031, 2033, 2028
483, 2027, 2031, 2033, 2028, 437, 2032, 2034, 2029
484, 1006, 1027, 1030, 436, 2028, 2033, 2035, 2030
485, 2028, 2033, 2035, 2030, 2029, 2034, 2036, 438
486, 1024, 483, 1034, 1027, 2031, 2037, 2038, 2033
487, 2031, 2037, 2038, 2033, 2032, 485, 2039, 2034
488, 1027, 1034, 484, 1030, 2033, 2038, 2040, 2035
489, 2033, 2038, 2040, 2035, 2034, 2039, 486, 2036
490, 437, 485, 486, 438, 439, 487, 488, 440
491, 439, 487, 488, 440, 441, 489, 490, 442
492, 441, 2041, 2044, 1999, 1998, 2042, 2045, 2000
493, 1998, 2042, 2045, 2000, 443, 2043, 2046, 2001
494, 1999, 2044, 2047, 442, 2000, 2045, 2048, 2002
495, 2000, 2045, 2048, 2002, 2001, 2046, 2049, 444
496, 2041, 489, 2051, 2044, 2042, 2050, 2052, 2045
497, 2042, 2050, 2052, 2045, 2043, 491, 2053, 2046
498, 2044, 2051, 490, 2047, 2045, 2052, 2054, 2048
499, 2045, 2052, 2054, 2048, 2046, 2053, 492, 2049
500, 434, 1028, 1036, 1018, 1007, 1029, 1037, 1019
501, 1007, 1029, 1037, 1019, 436, 1030, 1038, 1020
502, 1018, 1036, 1039, 445, 1019, 1037, 1040, 1021
503, 1019, 1037, 1040, 1021, 1020, 1038, 1041, 446
504, 1028, 482, 1042, 1036, 1029, 1035, 1043, 1037
505, 1029, 1035, 1043, 1037, 1030, 484, 1044, 1038
506, 1036, 1042, 493, 1039, 1037, 1043, 1045, 1040
507, 1037, 1043, 1045, 1040, 1038, 1044, 494, 1041
508, 436, 1030, 1038, 1020, 2030, 2035, 2058, 2055
509, 2030, 2035, 2058, 2055, 438, 2036, 2059, 2056
510, 1020, 1038, 1041, 446, 2055, 2058, 2060, 2057
511, 2055, 2058, 2060, 2057, 2056, 2059, 2061, 447
512, 1030, 484, 1044, 1038, 2035, 2040, 2062, 2058
513, 2035, 2040, 2062, 2058, 2036, 486, 2063, 2059
514, 1038, 1044, 494, 1041, 2058, 2062, 2064, 2060
515, 2058, 2062, 2064, 2060, 2059, 2063, 495, 2061
516, 438, 486, 495, 447, 440, 488, 496, 448
517, 440, 488, 496, 448, 442, 490, 497, 449
518, 442, 490, 497, 449, 444, 492, 498, 450
519, 451, 2065, 2068, 2013, 2012, 2066, 2069, 2014
520, 2012, 2066, 2069, 2014, 453, 2067, 2070, 2015
521, 2013, 2068, 2071, 452, 2014, 2069, 2072, 2016
522, 2014, 2069, 2072, 2016, 2015, 2070, 2073, 454
523, 2065, 499, 1071, 2068, 2066, 1070, 1072, 2069
524, 2066, 1070, 1072, 2069, 2067, 501, 1073, 2070
525, 2068, 1071, 500, 2071, 2069, 1072, 1074, 2072
526, 2069, 1072, 1074, 2072, 2070, 1073, 502, 2073
527, 453, 2067, 2070, 2015, 2023, 2074, 2076, 2024
528, 2023, 2074, 2076, 2024, 455, 2075, 2077, 2025
529, 2015, 2070, 2073, 454, 2024, 2076, 2078, 2026
530, 2024, 2076, 2078, 2026, 2025, 2077, 2079, 456
531, 2067, 501, 1073, 2070, 2074, 1089, 1090, 2076
532, 2074, 1089, 1090, 2076, 2075, 503, 1091, 2077
533, 2070, 1073, 502, 2073, 2076, 1090, 1092, 2078
534, 2076, 1090, 1092, 2078, 2077, 1091, 504, 2079
535, 452, 500, 505, 457, 454, 502, 506, 458
536, 454, 502, 506, 458, 456, 504, 507, 459
537, 457, 505, 508, 460, 458, 506, 509, 461
538, 458, 506, 509, 461, 459, 507, 510, 462
539, 460, 508, 491, 443, 461, 509, 511, 463
540, 461, 509, 511, 463, 462, 510, 512, 464
541, 443, 491, 492, 444, 463, 511, 513, 465
542, 463, 511, 513, 465, 464, 512, 514, 466
543, 444, 492, 498, 450, 465, 513, 515, 467
544, 465, 513, 515, 467, 466, 514, 516, 468
545, 450, 498, 517, 469, 467, 515, 518, 470
546, 467, 515, 518, 470, 468, 516, 519, 471
547, 469, 517, 520, 472, 470, 518, 521, 473
548, 470, 518, 521, 473, 471, 519, 522, 474
549, 472, 520, 523, 475, 473, 521, 524, 476
550, 473, 521, 524, 476, 474, 522, 525, 477
551, 475, 2085, 2088, 2081, 2080, 2086, 2089, 2082
552, 2080, 2086, 2089, 2082, 476, 2087, 2090, 2083
553, 2081, 2088, 2091, 478, 2082, 2089, 2092, 2084
554, 2082, 2089, 2092, 2084, 2083, 2090, 2093, 479
555, 2085, 523, 2095, 2088, 2086, 2094, 2096, 2089
556, 2086, 2094, 2096, 2089, 2087, 524, 2097, 2090
557, 2088, 2095, 526, 2091, 2089, 2096, 2098, 2092
558, 2089, 2096, 2098, 2092, 2090, 2097, 527, 2093
559, 476, 2087, 2090, 2083, 2099, 2103, 2105, 2100
560, 2099, 2103, 2105, 2100, 477, 2104, 2106, 2101
561, 2083, 2090, 2093, 479, 2100, 2105, 2107, 2102
562, 2100, 2105, 2107, 2102, 2101, 2106, 2108, 480
563, 2087, 524, 2097, 2090, 2103, 2109, 2110, 2105
564, 2103, 2109, 2110, 2105, 2104, 525, 2111, 2106
565, 2090, 2097, 527, 2093, 2105, 2110, 2112, 2107
566, 2105, 2110, 2112, 2107, 2106, 2111, 528, 2108
567, 481, 1046, 1049, 1032, 1031, 1047, 1050, 1033
568, 1031, 1047, 1050, 1033, 483, 1048, 1051, 1034
569, 1032, 1049, 1052, 482, 1033, 1050, 1053, 1035
570, 1033, 1050, 1053, 1035, 1034, 1051, 1054, 484
571, 1046, 529, 1056, 1049, 1047, 1055, 1057, 1050
572, 1047, 1055, 1057, 1050, 1048, 531, 1058, 1051
573, 1049, 1056, 530, 1052, 1050, 1057, 1059, 1053
574, 1050, 1057, 1059, 1053, 1051, 1058, 532, 1054
575, 483, 1048, 1051, 1034, 2037, 2113, 2115, 2038
576, 2037, 2113, 2115, 2038, 485, 2114, 2116, 2039
577, 1034, 1051, 1054, 484, 2038, 2115, 2117, 2040
578, 2038, 2115, 2117, 2040, 2039, 2116, 2118, 486
579, 1048, 531, 1058, 1051, 2113, 2119, 2120, 2115
580, 2113, 2119, 2120, 2115, 2114, 533, 2121, 2116
581, 1051, 1058, 532, 1054, 2115, 2120, 2122, 2117
582, 2115, 2120, 2122, 2117, 2116, 2121, 534, 2118
583, 485, 533, 534, 486, 487, 535, 536, 488
584, 487, 535, 536, 488, 489, 537, 538, 490
585, 489, 2123, 2126, 2051, 2050, 2124, 2127, 2052
586, 2050, 2124, 2127, 2052, 491, 2125, 2128, 2053
587, 2051, 2126, 2129, 490, 2052, 2127, 2130, 2054
588, 2052, 2127, 2130, 2054, 2053, 2128, 2131, 492
589, 2123, 537, 2133, 2126, 2124, 2132, 2134, 2127
590, 2124, 2132, 2134, 2127, 2125, 539, 2135, 2128
591, 2126, 2133, 538, 2129, 2127, 2134, 2136, 2130
592, 2127, 2134, 2136, 2130, 2128, 2135, 540, 2131
593, 482, 1052, 1060, 1042, 1035, 1053, 1061, 1043
594, 1035, 1053, 1061, 1043, 484, 1054, 1062, 1044
595, 1042, 1060, 1063, 493, 1043, 1061, 1064, 1045
596, 1043, 1061, 1064, 1045, 1044, 1062, 1065, 494
597, 1052, 530, 1066, 1060, 1053, 1059, 1067, 1061
598, 1053, 1059, 1067, 1061, 1054, 532, 1068, 1062
599, 1060, 1066, 541, 1063, 1061, 1067, 1069, 1064
600, 1061, 1067, 1069, 1064, 1062, 1068, 542, 1065
601, 484, 1054, 1062, 1044, 2040, 2117, 2137, 2062
602, 2040, 2117, 2137, 2062, 486, 2118, 2138, 2063
603, 1044, 1062, 1065, 494, 2062, 2137, 2139, 2064
604, 2062, 2137, 2139, 2064, 2063, 2138, 2140, 495
605, 1054, 532, 1068, 1062, 2117, 2122, 2141, 2137
606, 2117, 2122, 2141, 2137, 2118, 534, 2142, 2138
607, 1062, 1068, 542, 1065, 2137, 2141, 2143, 2139
608, 2137, 2141, 2143, 2139, 2138, 2142, 543, 2140
609, 486, 534, 543, 495, 488, 536, 544, 496
610, 488, 536, 544, 496, 490, 538, 545, 497
611, 490, 538, 545, 497, 492, 540, 546, 498
612, 499, 1075, 1078, 1071, 1070, 1076, 1079, 1072
613, 1070, 1076, 1079, 1072, 501, 1077, 1080, 1073
614, 1071, 1078, 1081, 500, 1072, 1079, 1082, 1074
615, 1072, 1079, 1082, 1074, 1073, 1080, 1083, 502
616, 1075, 547, 1085, 1078, 1076, 1084, 1086, 1079
617, 1076, 1084, 1086, 1079, 1077, 549, 1087, 1080
618, 1078, 1085, 548, 1081, 1079, 1086, 1088, 1082
619, 1079, 1086, 1088, 1082, 1080, 1087, 550, 1083
620, 501, 1077, 1080, 1073, 1089, 1093, 1095, 1090
621, 1089, 1093, 1095, 1090, 503, 1094, 1096, 1091
622, 1073, 1080, 1083, 502, 1090, 1095, 1097, 1092
623, 1090, 1095, 1097, 1092, 1091, 1096, 1098, 504
624, 1077, 549, 1087, 1080, 1093, 1099, 1100, 1095
625, 1093, 1099, 1100, 1095, 1094, 551, 1101, 1096
626, 1080, 1087, 550, 1083, 1095, 1100, 1102, 1097
627, 1095, 1100, 1102, 1097, 1096, 1101, 552, 1098
628, 500, 548, 553, 505, 502, 550, 554, 506
629, 502, 550, 554, 506, 504, 552, 555, 507
630, 505, 553, 556, 508, 506, 554, 557, 509
631, 506, 554, 557, 509, 507, 555, 558, 510
632, 508, 2149, 2152, 2145, 2144, 2150, 2153, 2146
633, 2144, 2150, 2153, 2146, 509, 2151, 2154, 2147
634, 2145, 2152, 2125, 491, 2146, 2153, 2155, 2148
635, 2146, 2153, 2155, 2148, 2147, 2154, 2156, 511
636, 2149, 556, 2158, 2152, 2150, 2157, 2159, 2153
637, 2150, 2157, 2159, 2153, 2151, 557, 2160, 2154
638, 2152, 2158, 539, 2125, 2153, 2159, 2161, 2155
639, 2153, 2159, 2161, 2155, 2154, 2160, 559, 2156
640, 509, 557, 559, 511, 510, 558, 560, 512
641, 491, 539, 540, 492, 511, 559, 561, 513
642, 511, 559, 561, 513, 512, 560, 562, 514
643, 492, 540, 546, 498, 513, 561, 563, 515
644, 513, 561, 563, 515, 514, 562, 564, 516
645, 498, 546, 565, 517, 515, 563, 566, 518
646, 515, 563, 566, 518, 516, 564, 567, 519
647, 517, 565, 568, 520, 518, 566, 569, 521
648, 518, 566, 569, 521, 519, 567, 570, 522
649, 520, 568, 571, 523, 521, 569, 572, 524
650, 521, 569, 572, 524, 522, 570, 573, 525
651, 523, 2162, 2165, 2095, 2094, 2163, 2166, 2096
652, 2094, 2163, 2166, 2096, 524, 2164, 2167, 2097
653, 2095, 2165, 2168, 526, 2096, 2166, 2169, 2098
654, 2096, 2166, 2169, 2098, 2097, 2167, 2170, 527
655, 2162, 571, 1152, 2165, 2163, 1151, 1153, 2166
656, 2163, 1151, 1153, 2166, 2164, 572, 1154, 2167
657, 2165, 1152, 574, 2168, 2166, 1153, 1155, 2169
658, 2166, 1153, 1155, 2169, 2167, 1154, 575, 2170
659, 524, 2164, 2167, 2097, 2109, 2171, 2173, 2110
660, 2109, 2171, 2173, 2110, 525, 2172, 2174, 2111
661, 2097, 2167, 2170, 527, 2110, 2173, 2175, 2112
662, 2110, 2173, 2175, 2112, 2111, 2174, 2176, 528
663, 2164, 572, 1154, 2167, 2171, 1170, 1171, 2173
664, 2171, 1170, 1171, 2173, 2172, 573, 1172, 2174
665, 2167, 1154, 575, 2170, 2173, 1171, 1173, 2175
666, 2173, 1171, 1173, 2175, 2174, 1172, 576, 2176
667, 529, 1103, 1106, 1056, 1055, 1104, 1107, 1057
668, 1055, 1104, 1107, 1057, 531, 1105, 1108, 1058
669, 1056, 1106, 1109, 530, 1057, 1107, 1110, 1059
670, 1057, 1107, 1110, 1059, 1058, 1108, 1111, 532
671, 1103, 577, 1113, 1106, 1104, 1112, 1114, 1107
672, 1104, 1112, 1114, 1107, 1105, 579, 1115, 1108
673, 1106, 1113, 578, 1109, 1107, 1114, 1116, 1110
674, 1107, 1114, 1116, 1110, 1108, 1115, 580, 1111
675, 531, 1105, 1108, 1058, 2119, 2177, 2179, 2120
676, 2119, 2177, 2179, 2120, 533, 2178, 2180, 2121
677, 1058, 1108, 1111, 532, 2120, 2179, 2181, 2122
678, 2120, 2179, 2181, 2122, 2121, 2180, 2182, 534
679, 1105, 579, 1115, 1108, 2177, 2183, 2184, 2179
680, 2177, 2183, 2184, 2179, 2178, 581, 2185, 2180
681, 1108, 1115, 580, 1111, 2179, 2184, 2186, 2181
682, 2179, 2184, 2186, 2181, 2180, 2185, 582, 2182
683, 533, 581, 582, 534, 535, 583, 584, 536
684, 535, 583, 584, 536, 537, 585, 586, 538
685, 537, 2187, 2190, 2133, 2132, 2188, 2191, 2134
686, 2132, 2188, 2191, 2134, 539, 2189, 2192, 2135
687, 2133, 2190, 2193, 538, 2134, 2191, 2194, 2136
688, 2134, 2191, 2194, 2136, 2135, 2192, 2195, 540
689, 2187, 585, 2197, 2190, 2188, 2196, 2198, 2191
690, 2188, 2196, 2198, 2191, 2189, 587, 2199, 2192
691, 2190, 2197, 586, 2193, 2191, 2198, 2200, 2194
692, 2191, 2198, 2200, 2194, 2192, 2199, 588, 2195
693, 530, 1109, 1117, 1066, 1059, 1110, 1118, 1067
694, 1059, 1110, 1118, 1067, 532, 1111, 1119, 1068
695, 1066, 1117, 1120, 541, 1067, 1118, 1121, 1069
696, 1067, 1118, 1121, 1069, 1068, 1119, 1122, 542
697, 1109, 578, 1123, 1117, 1110, 1116, 1124, 1118
698, 1110, 1116, 1124, 1118, 1111, 580, 1125, 1119
699, 1117, 1123, 589, 1120, 1118, 1124, 1126, 1121
700, 1118, 1124, 1126, 1121, 1119, 1125, 590, 1122
701, 532, 1111, 1119, 1068, 2122, 2181, 2201, 2141
702, 2122, 2181, 2201, 2141, 534, 2182, 2202, 2142
703, 1068, 1119, 1122, 542, 2141, 2201, 2203, 2143
704, 2141, 2201, 2203, 2143, 2142, 2202, 2204, 543
705, 1111, 580, 1125, 1119, 2181, 2186, 2205, 2201
706, 2181, 2186, 2205, 2201, 2182, 582, 2206, 2202
707, 1119, 1125, 590, 1122, 2201, 2205, 2207, 2203
708, 2201, 2205, 2207, 2203, 2202, 2206, 591, 2204
709, 534, 582, 591, 543, 536, 584, 592, 544
710, 536, 584, 592, 544, 538, 586, 593, 545
711, 538, 2193, 2212, 2208, 2136, 2194, 2213, 2209
712, 2136, 2194, 2213, 2209, 540, 2195, 2214, 2210
713, 2208, 2212, 2215, 545, 2209, 2213, 2216, 2211
714, 2209, 2213, 2216, 2211, 2210, 2214, 2217, 546
715, 2193, 586, 2218, 2212, 2194, 2200, 2219, 2213
716, 2194, 2200, 2219, 2213, 2195, 588, 2220, 2214
717, 2212, 2218, 593, 2215, 2213, 2219, 2221, 2216
718, 2213, 2219, 2221, 2216, 2214, 2220, 594, 2217
719, 547, 1127, 1130, 1085, 1084, 1128, 1131, 1086
720, 1084, 1128, 1131, 1086, 549, 1129, 1132, 1087
721, 1085, 1130, 1133, 548, 1086, 1131, 1134, 1088
722, 1086, 1131, 1134, 1088, 1087, 1132, 1135, 550
723, 1127, 595, 1137, 1130, 1128, 1136, 1138, 1131
724, 1128, 1136, 1138, 1131, 1129, 597, 1139, 1132
725, 1130, 1137, 596, 1133, 1131, 1138, 1140, 1134
726, 1131, 1138, 1140, 1134, 1132, 1139, 598, 1135
727, 549, 1129, 1132, 1087, 1099, 1141, 1143, 1100
728, 1099, 1141, 1143, 1100, 551, 1142, 1144, 1101
729, 1087, 1132, 1135, 550, 1100, 1143, 1145, 1102
730, 1100, 1143, 1145, 1102, 1101, 1144, 1146, 552
731, 1129, 597, 1139, 1132, 1141, 1147, 1148, 1143
732, 1141, 1147, 1148, 1143, 1142, 599, 1149, 1144
733, 1132, 1139, 598, 1135, 1143, 1148, 1150, 1145
734, 1143, 1148, 1150, 1145, 1144, 1149, 600, 1146
735, 548, 1133, 2226, 2222, 1088, 1134, 2227, 2223
736, 1088, 1134, 2227, 2223, 550, 1135, 2228, 2224
737, 2222, 2226, 2229, 553, 2223, 2227, 2230, 2225
738, 2223, 2227, 2230, 2225, 2224, 2228, 2231, 554
739, 1133, 596, 2232, 2226, 1134, 1140, 2233, 2227
740, 1134, 1140, 2233, 2227, 1135, 598, 2234, 2228
741, 2226, 2232, 601, 2229, 2227, 2233, 2235, 2230
742, 2227, 2233, 2235, 2230, 2228, 2234, 602, 2231
743, 550, 1135, 2228, 2224, 1102, 1145, 2239, 2236
744, 1102, 1145, 2239, 2236, 552, 1146, 2240, 2237
745, 2224, 2228, 2231, 554, 2236, 2239, 2241, 2238
746, 2236, 2239, 2241, 2238, 2237, 2240, 2242, 555
747, 1135, 598, 2234, 2228, 1145, 1150, 2243, 2239
748, 1145, 1150, 2243, 2239, 1146, 600, 2244, 2240
749, 2228, 2234, 602, 2231, 2239, 2243, 2245, 2241
750, 2239, 2243, 2245, 2241, 2240, 2244, 603, 2242
751, 553, 601, 604, 556, 554, 602, 605, 557
752, 554, 602, 605, 557, 555, 603, 606, 558
753, 556, 2246, 2249, 2158, 2157, 2247, 2250, 2159
754, 2157, 2247, 2250, 2159, 557, 2248, 2251, 2160
755, 2158, 2249, 2189, 539, 2159, 2250, 2252, 2161
756, 2159, 2250, 2252, 2161, 2160, 2251, 2253, 559
757, 2246, 604, 2255, 2249, 2247, 2254, 2256, 2250
758, 2247, 2254, 2256, 2250, 2248, 605, 2257, 2251
759, 2249, 2255, 587, 2189, 2250, 2256, 2258, 2252
760, 2250, 2256, 2258, 2252, 2251, 2257, 607, 2253
761, 557, 605, 607, 559, 558, 606, 608, 560
762, 539, 587, 588, 540, 559, 607, 609, 561
763, 559, 607, 609, 561, 560, 608, 610, 562
764, 540, 588, 594, 546, 561, 609, 611, 563
765, 561, 609, 611, 563, 562, 610, 612, 564
766, 546, 594, 613, 565, 563, 611, 614, 566
767, 563, 2264, 2267, 2260, 2259, 2265, 2268, 2261
768, 2259, 2265, 2268, 2261, 564, 2266, 2269, 2262
769, 2260, 2267, 2270, 566, 2261, 2268, 2271, 2263
770, 2261, 2268, 2271, 2263, 2262, 2269, 2272, 567
771, 2264, 611, 2274, 2267, 2265, 2273, 2275, 2268
772, 2265, 2273, 2275, 2268, 2266, 612, 2276, 2269
773, 2267, 2274, 614, 2270, 2268, 2275, 2277, 2271
774, 2268, 2275, 2277, 2271, 2269, 2276, 615, 2272
775, 565, 613, 616, 568, 566, 614, 617, 569
776, 566, 614, 617, 569, 567, 615, 618, 570
777, 568, 616, 619, 571, 569, 617, 620, 572
778, 569, 617, 620, 572, 570, 618, 621, 573
779, 571, 1156, 1159, 1152, 1151, 1157, 1160, 1153
780, 1151, 1157, 1160, 1153, 572, 1158, 1161, 1154
781, 1152, 1159, 1162, 574, 1153, 1160, 1163, 1155
782, 1153, 1160, 1163, 1155, 1154, 1161, 1164, 575
783, 1156, 619, 1166, 1159, 1157, 1165, 1167, 1160
784, 1157, 1165, 1167, 1160, 1158, 620, 1168, 1161
785, 1159, 1166, 622, 1162, 1160, 1167, 1169, 1163
786, 1160, 1167, 1169, 1163, 1161, 1168, 623, 1164
787, 572, 1158, 1161, 1154, 1170, 1174, 1176, 1171
788, 1170, 1174, 1176, 1171, 573, 1175, 1177, 1172
789, 1154, 1161, 1164, 575, 1171, 1176, 1178, 1173
790, 1171, 1176, 1178, 1173, 1172, 1177, 1179, 576
791, 1158, 620, 1168, 1161, 1174, 1180, 1181, 1176
792, 1174, 1180, 1181, 1176, 1175, 621, 1182, 1177
793, 1161, 1168, 623, 1164, 1176, 1181, 1183, 1178
794, 1176, 1181, 1183, 1178, 1177, 1182, 624, 1179
795, 577, 1184, 1187, 1113, 1112, 1185, 1188, 1114
796, 1112, 1185, 1188, 1114, 579, 1186, 1189, 1115
797, 1113, 1187, 1190, 578, 1114, 1188, 1191, 1116
798, 1114, 1188, 1191, 1116, 1115, 1189, 1192, 580
799, 1184, 625, 1194, 1187, 1185, 1193, 1195, 1188
800, 1185, 1193, 1195, 1188, 1186, 627, 1196, 1189
801, 1187, 1194, 626, 1190, 1188, 1195, 1197, 1191
802, 1188, 1195, 1197, 1191, 1189, 1196, 628, 1192
803, 579, 1186, 1189, 1115, 2183, 2278, 2280, 2184
804, 2183, 2278, 2280, 2184, 581, 2279, 2281, 2185
805, 1115, 1189, 1192, 580, 2184, 2280, 2282, 2186
806, 2184, 2280, 2282, 2186, 2185, 2281, 2283, 582
807, 1186, 627, 1196, 1189, 2278, 2284, 2285, 2280
808, 2278, 2284, 2285, 2280, 2279, 629, 2286, 2281
809, 1189, 1196, 628, 1192, 2280, 2285, 2287, 2282
810, 2280, 2285, 2287, 2282, 2281, 2286, 630, 2283
811, 581, 629, 630, 582, 583, 631, 632, 584
812, 583, 631, 632, 584, 585, 633, 634, 586
813, 585, 2288, 2291, 2197, 2196, 2289, 2292, 2198
814, 2196, 2289, 2292, 2198, 587, 2290, 2293, 2199
815, 2197, 2291, 2294, 586, 2198, 2292, 2295, 2200
816, 2198, 2292, 2295, 2200, 2199, 2293, 2296, 588
817, 2288, 633, 2298, 2291, 2289, 2297, 2299, 2292
818, 2289, 2297, 2299, 2292, 2290, 635, 2300, 2293
819, 2291, 2298, 634, 2294, 2292, 2299, 2301, 2295
820, 2292, 2299, 2301, 2295, 2293, 2300, 636, 2296
821, 578, 1190, 1198, 1123, 1116, 1191, 1199, 1124
822, 1116, 1191, 1199, 1124, 580, 1192, 1200, 1125
823, 1123, 1198, 1201, 589, 1124, 1199, 1202, 1126
824, 1124, 1199, 1202, 1126, 1125, 1200, 1203, 590
825, 1190, 626, 1204, 1198, 1191, 1197, 1205, 1199
826, 1191, 1197, 1205, 1199, 1192, 628, 1206, 1200
827, 1198, 1204, 637, 1201, 1199, 1205, 1207, 1202
828, 1199, 1205, 1207, 1202, 1200, 1206, 638, 1203
829, 580, 1192, 1200, 1125, 2186, 2282, 2302, 2205
830, 2186, 2282, 2302, 2205, 582, 2283, 2303, 2206
831, 1125, 1200, 1203, 590, 2205, 2302, 2304, 2207
832, 2205, 2302, 2304, 2207, 2206, 2303, 2305, 591
833, 1192, 628, 1206, 1200, 2282, 2287, 2306, 2302
834, 2282, 2287, 2306, 2302, 2283, 630, 2307, 2303
835, 1200, 1206, 638, 1203, 2302, 2306, 2308, 2304
836, 2302, 2306, 2308, 2304, 2303, 2307, 639, 2305
837, 582, 630, 639, 591, 584, 632, 640, 592
838, 584, 632, 640, 592, 586, 634, 641, 593
839, 586, 2294, 2309, 2218, 2200, 2295, 2310, 2219
840, 2200, 2295, 2310, 2219, 588, 2296, 2311, 2220
841, 2218, 2309, 2312, 593, 2219, 2310, 2313, 2221
842, 2219, 2310, 2313, 2221, 2220, 2311, 2314, 594
843, 2294, 634, 2315, 2309, 2295, 2301, 2316, 2310
844, 2295, 2301, 2316, 2310, 2296, 636, 2317, 2311
845, 2309, 2315, 641, 2312, 2310, 2316, 2318, 2313
846, 2310, 2316, 2318, 2313, 2311, 2317, 642, 2314
847, 595, 1208, 1211, 1137, 1136, 1209, 1212, 1138
848, 1136, 1209, 1212, 1138, 597, 1210, 1213, 1139
849, 1137, 1211, 1214, 596, 1138, 1212, 1215, 1140
850, 1138, 1212, 1215, 1140, 1139, 1213, 1216, 598
851, 1208, 643, 1218, 1211, 1209, 1217, 1219, 1212
852, 1209, 1217, 1219, 1212, 1210, 645, 1220, 1213
853, 1211, 1218, 644, 1214, 1212, 1219, 1221, 1215
854, 1212, 1219, 1221, 1215, 1213, 1220, 646, 1216
855, 597, 1210, 1213, 1139, 1147, 1222, 1224, 1148
856, 1147, 1222, 1224, 1148, 599, 1223, 1225, 1149
857, 1139, 1213, 1216, 598, 1148, 1224, 1226, 1150
858, 1148, 1224, 1226, 1150, 1149, 1225, 1227, 600
859, 1210, 645, 1220, 1213, 1222, 1228, 1229, 1224
860, 1222, 1228, 1229, 1224, 1223, 647, 1230, 1225
861, 1213, 1220, 646, 1216, 1224, 1229, 1231, 1226
862, 1224, 1229, 1231, 1226, 1225, 1230, 648, 1227
863, 596, 1214, 2319, 2232, 1140, 1215, 2320, 2233
864, 1140, 1215, 2320, 2233, 598, 1216, 2321, 2234
865, 2232, 2319, 2322, 601, 2233, 2320, 2323, 2235
866, 2233, 2320, 2323, 2235, 2234, 2321, 2324, 602
867, 1214, 644, 2325, 2319, 1215, 1221, 2326, 2320
868, 1215, 1221, 2326, 2320, 1216, 646, 2327, 2321
869, 2319, 2325, 649, 2322, 2320, 2326, 2328, 2323
870, 2320, 2326, 2328, 2323, 2321, 2327, 650, 2324
871, 598, 1216, 2321, 2234, 1150, 1226, 2329, 2243
872, 1150, 1226, 2329, 2243, 600, 1227, 2330, 2244
873, 2234, 2321, 2324, 602, 2243, 2329, 2331, 2245
874, 2243, 2329, 2331, 2245, 2244, 2330, 2332, 603
875, 1216, 646, 2327, 2321, 1226, 1231, 2333, 2329
876, 1226, 1231, 2333, 2329, 1227, 648, 2334, 2330
877, 2321, 2327, 650, 2324, 2329, 2333, 2335, 2331
878, 2329, 2333, 2335, 2331, 2330, 2334, 651, 2332
879, 601, 649, 652, 604, 602, 650, 653, 605
880, 602, 650, 653, 605, 603, 651, 654, 606
881, 604, 2336, 2339, 2255, 2254, 2337, 2340, 2256
882, 2254, 2337, 2340, 2256, 605, 2338, 2341, 2257
883, 2255, 2339, 2290, 587, 2256, 2340, 2342, 2258
884, 2256, 2340, 2342, 2258, 2257, 2341, 2343, 607
885, 2336, 652, 2345, 2339, 2337, 2344, 2346, 2340
886, 2337, 2344, 2346, 2340, 2338, 653, 2347, 2341
887, 2339, 2345, 635, 2290, 2340, 2346, 2348, 2342
888, 2340, 2346, 2348, 2342, 2341, 2347, 655, 2343
889, 605, 653, 655, 607, 606, 654, 656, 608
890, 587, 635, 636, 588, 607, 655, 657, 609
891, 607, 655, 657, 609, 608, 656, 658, 610
892, 588, 636, 642, 594, 609, 657, 659, 611
893, 609, 657, 659, 611, 610, 658, 660, 612
894, 594, 642, 661, 613, 611, 659, 662, 614
895, 611, 2349, 2352, 2274, 2273, 2350, 2353, 2275
896, 2273, 2350, 2353, 2275, 612, 2351, 2354, 2276
897, 2274, 2352, 2355, 614, 2275, 2353, 2356, 2277
898, 2275, 2353, 2356, 2277, 2276, 2354, 2357, 615
899, 2349, 659, 2359, 2352, 2350, 2358, 2360, 2353
900, 2350, 2358, 2360, 2353, 2351, 660, 2361, 2354
901, 2352, 2359, 662, 2355, 2353, 2360, 2362, 2356
902, 2353, 2360, 2362, 2356, 2354, 2361, 663, 2357
903, 613, 661, 664, 616, 614, 662, 665, 617
904, 614, 662, 665, 617, 615, 663, 666, 618
905, 616, 2367, 2370, 2364, 2363, 2368, 2371, 2365
906, 2363, 2368, 2371, 2365, 617, 2369, 2372, 2366
907, 2364, 2370, 1232, 619, 2365, 2371, 1233, 1165
908, 2365, 2371, 1233, 1165, 2366, 2372, 1234, 620
909, 2367, 664, 2374, 2370, 2368, 2373, 2375, 2371
910, 2368, 2373, 2375, 2371, 2369, 665, 2376, 2372
911, 2370, 2374, 667, 1232, 2371, 2375, 1241, 1233
912, 2371, 2375, 1241, 1233, 2372, 2376, 668, 1234
913, 617, 2369, 2372, 2366, 2377, 2380, 2382, 2378
914, 2377, 2380, 2382, 2378, 618, 2381, 2383, 2379
915, 2366, 2372, 1234, 620, 2378, 2382, 1246, 1180
916, 2378, 2382, 1246, 1180, 2379, 2383, 1247, 621
917, 2369, 665, 2376, 2372, 2380, 2384, 2385, 2382
918, 2380, 2384, 2385, 2382, 2381, 666, 2386, 2383
919, 2372, 2376, 668, 1234, 2382, 2385, 1252, 1246
920, 2382, 2385, 1252, 1246, 2383, 2386, 669, 1247
921, 619, 1232, 1235, 1166, 1165, 1233, 1236, 1167
922, 1165, 1233, 1236, 1167, 620, 1234, 1237, 1168
923, 1166, 1235, 1238, 622, 1167, 1236, 1239, 1169
924, 1167, 1236, 1239, 1169, 1168, 1237, 1240, 623
925, 1232, 667, 1242, 1235, 1233, 1241, 1243, 1236
926, 1233, 1241, 1243, 1236, 1234, 668, 1244, 1237
927, 1235, 1242, 670, 1238, 1236, 1243, 1245, 1239
928, 1236, 1243, 1245, 1239, 1237, 1244, 671, 1240
929, 620, 1234, 1237, 1168, 1180, 1246, 1248, 1181
930, 1180, 1246, 1248, 1181, 621, 1247, 1249, 1182
931, 1168, 1237, 1240, 623, 1181, 1248, 1250, 1183
932, 1181, 1248, 1250, 1183, 1182, 1249, 1251, 624
933, 1234, 668, 1244, 1237, 1246, 1252, 1253, 1248
934, 1246, 1252, 1253, 1248, 1247, 669, 1254, 1249
935, 1237, 1244, 671, 1240, 1248, 1253, 1255, 1250
936, 1248, 1253, 1255, 1250, 1249, 1254, 672, 1251
937, 625, 1256, 1259, 1194, 1193, 1257, 1260, 1195
938, 1193, 1257, 1260, 1195, 627, 1258, 1261, 1196
939, 1194, 1259, 1262, 626, 1195, 1260, 1263, 1197
940, 1195, 1260, 1263, 1197, 1196, 1261, 1264, 628
941, 1256, 673, 1266, 1259, 1257, 1265, 1267, 1260
942, 1257, 1265, 1267, 1260, 1258, 675, 1268, 1261
943, 1259, 1266, 674, 1262, 1260, 1267, 1269, 1263
944, 1260, 1267, 1269, 1263, 1261, 1268, 676, 1264
945, 627, 1258, 1261, 1196, 2284, 2387, 2389, 2285
946, 2284, 2387, 2389, 2285, 629, 2388, 2390, 2286
947, 1196, 1261, 1264, 628, 2285, 2389, 2391, 2287
948, 2285, 2389, 2391, 2287, 2286, 2390, 2392, 630
949, 1258, 675, 1268, 1261, 2387, 2393, 2394, 2389
950, 2387, 2393, 2394, 2389, 2388, 677, 2395, 2390
951, 1261, 1268, 676, 1264, 2389, 2394, 2396, 2391
952, 2389, 2394, 2396, 2391, 2390, 2395, 678, 2392
953, 629, 677, 678, 630, 631, 679, 680, 632
954, 631, 679, 680, 632, 633, 681, 682, 634
955, 633, 2397, 2400, 2298, 2297, 2398, 2401, 2299
956, 2297, 2398, 2401, 2299, 635, 2399, 2402, 2300
957, 2298, 2400, 2403, 634, 2299, 2401, 2404, 2301
958, 2299, 2401, 2404, 2301, 2300, 2402, 2405, 636
959, 2397, 681, 1343, 2400, 2398, 1342, 1344, 2401
960, 2398, 1342, 1344, 2401, 2399, 683, 1345, 2402
961, 2400, 1343, 682, 2403, 2401, 1344, 1346, 2404
962, 2401, 1344, 1346, 2404, 2402, 1345, 684, 2405
963, 626, 1262, 1270, 1204, 1197, 1263, 1271, 1205
964, 1197, 1263, 1271, 1205, 628, 1264, 1272, 1206
965, 1204, 1270, 1273, 637, 1205, 1271, 1274, 1207
966, 1205, 1271, 1274, 1207, 1206, 1272, 1275, 638
967, 1262, 674, 1276, 1270, 1263, 1269, 1277, 1271
968, 1263, 1269, 1277, 1271, 1264, 676, 1278, 1272
969, 1270, 1276, 685, 1273, 1271, 1277, 1279, 1274
970, 1271, 1277, 1279, 1274, 1272, 1278, 686, 1275
971, 628, 1264, 1272, 1206, 2287, 2391, 2406, 2306
972, 2287, 2391, 2406, 2306, 630, 2392, 2407, 2307
973, 1206, 1272, 1275, 638, 2306, 2406, 2408, 2308
974, 2306, 2406, 2408, 2308, 2307, 2407, 2409, 639
975, 1264, 676, 1278, 1272, 2391, 2396, 2410, 2406
976, 2391, 2396, 2410, 2406, 2392, 678, 2411, 2407
977, 1272, 1278, 686, 1275, 2406, 2410, 2412, 2408
978, 2406, 2410, 2412, 2408, 2407, 2411, 687, 2409
979, 630, 678, 687, 639, 632, 680, 688, 640
980, 632, 680, 688, 640, 634, 682, 689, 641
981, 634, 2403, 2413, 2315, 2301, 2404, 2414, 2316
982, 2301, 2404, 2414, 2316, 636, 2405, 2415, 2317
983, 2315, 2413, 2416, 641, 2316, 2414, 2417, 2318
984, 2316, 2414, 2417, 2318, 2317, 2415, 2418, 642
985, 2403, 682, 2419, 2413, 2404, 1346, 2420, 2414
986, 2404, 1346, 2420, 2414, 2405, 684, 2421, 2415
987, 2413, 2419, 689, 2416, 2414, 2420, 2422, 2417
988, 2414, 2420, 2422, 2417, 2415, 2421, 690, 2418
989, 643, 1280, 1283, 1218, 1217, 1281, 1284, 1219
990, 1217, 1281, 1284, 1219, 645, 1282, 1285, 1220
991, 1218, 1283, 1286, 644, 1219, 1284, 1287, 1221
992, 1219, 1284, 1287, 1221, 1220, 1285, 1288, 646
993, 1280, 691, 1290, 1283, 1281, 1289, 1291, 1284
994, 1281, 1289, 1291, 1284, 1282, 693, 1292, 1285
995, 1283, 1290, 692, 1286, 1284, 1291, 1293, 1287
996, 1284, 1291, 1293, 1287, 1285, 1292, 694, 1288
997, 645, 1282, 1285, 1220, 1228, 1294, 1296, 1229
998, 1228, 1294, 1296, 1229, 647, 1295, 1297, 1230
999, 1220, 1285, 1288, 646, 1229, 1296, 1298, 1231
1000, 1229, 1296, 1298, 1231, 1230, 1297, 1299, 648
1001, 1282, 693, 1292, 1285, 1294, 1300, 1301, 1296
1002, 1294, 1300, 1301, 1296, 1295, 695, 1302, 1297
1003, 1285, 1292, 694, 1288, 1296, 1301, 1303, 1298
1004, 1296, 1301, 1303, 1298, 1297, 1302, 696, 1299
1005, 644, 1286, 2423, 2325, 1221, 1287, 2424, 2326
1006, 1221, 1287, 2424, 2326, 646, 1288, 2425, 2327
1007, 2325, 2423, 2426, 649, 2326, 2424, 2427, 2328
1008, 2326, 2424, 2427, 2328, 2327, 2425, 2428, 650
1009, 1286, 692, 2429, 2423, 1287, 1293, 2430, 2424
1010, 1287, 1293, 2430, 2424, 1288, 694, 2431, 2425
1011, 2423, 2429, 697, 2426, 2424, 2430, 2432, 2427
1012, 2424, 2430, 2432, 2427, 2425, 2431, 698, 2428
1013, 646, 1288, 2425, 2327, 1231, 1298, 2433, 2333
1014, 1231, 1298, 2433, 2333, 648, 1299, 2434, 2334
1015, 2327, 2425, 2428, 650, 2333, 2433, 2435, 2335
1016, 2333, 2433, 2435, 2335, 2334, 2434, 2436, 651
1017, 1288, 694, 2431, 2425, 1298, 1303, 2437, 2433
1018, 1298, 1303, 2437, 2433, 1299, 696, 2438, 2434
1019, 2425, 2431, 698, 2428, 2433, 2437, 2439, 2435
1020, 2433, 2437, 2439, 2435, 2434, 2438, 699, 2436
1021, 649, 697, 700, 652, 650, 698, 701, 653
1022, 650, 698, 701, 653, 651, 699, 702, 654
1023, 652, 2440, 2443, 2345, 2344, 2441, 2444, 2346
1024, 2344, 2441, 2444, 2346, 653, 2442, 2445, 2347
1025, 2345, 2443, 2399, 635, 2346, 2444, 2446, 2348
1026, 2346, 2444, 2446, 2348, 2347, 2445, 2447, 655
1027, 2440, 700, 2449, 2443, 2441, 2448, 2450, 2444
1028, 2441, 2448, 2450, 2444, 2442, 701, 2451, 2445
1029, 2443, 2449, 683, 2399, 2444, 2450, 2452, 2446
1030, 2444, 2450, 2452, 2446, 2445, 2451, 703, 2447
1031, 653, 2442, 2445, 2347, 2453, 2457, 2459, 2454
1032, 2453, 2457, 2459, 2454, 654, 2458, 2460, 2455
1033, 2347, 2445, 2447, 655, 2454, 2459, 2461, 2456
1034, 2454, 2459, 2461, 2456, 2455, 2460, 2462, 656
1035, 2442, 701, 2451, 2445, 2457, 2463, 2464, 2459
1036, 2457, 2463, 2464, 2459, 2458, 702, 2465, 2460
1037, 2445, 2451, 703, 2447, 2459, 2464, 2466, 2461
1038, 2459, 2464, 2466, 2461, 2460, 2465, 704, 2462
1039, 635, 683, 684, 636, 655, 703, 705, 657
1040, 655, 703, 705, 657, 656, 704, 706, 658
1041, 636, 684, 690, 642, 657, 705, 707, 659
1042, 657, 705, 707, 659, 658, 706, 708, 660
1043, 642, 2418, 2473, 2468, 2467, 2471, 2474, 2469
1044, 2467, 2471, 2474, 2469, 659, 2472, 2475, 2359
1045, 2468, 2473, 2476, 661, 2469, 2474, 2477, 2470
1046, 2469, 2474, 2477, 2470, 2359, 2475, 2478, 662
1047, 2418, 690, 2480, 2473, 2471, 2479, 2481, 2474
1048, 2471, 2479, 2481, 2474, 2472, 707, 2482, 2475
1049, 2473, 2480, 709, 2476, 2474, 2481, 2483, 2477
1050, 2474, 2481, 2483, 2477, 2475, 2482, 710, 2478
1051, 659, 2472, 2475, 2359, 2358, 2484, 2486, 2360
1052, 2358, 2484, 2486, 2360, 660, 2485, 2487, 2361
1053, 2359, 2475, 2478, 662, 2360, 2486, 2488, 2362
1054, 2360, 2486, 2488, 2362, 2361, 2487, 2489, 663
1055, 2472, 707, 2482, 2475, 2484, 2490, 2491, 2486
1056, 2484, 2490, 2491, 2486, 2485, 708, 2492, 2487
1057, 2475, 2482, 710, 2478, 2486, 2491, 2493, 2488
1058, 2486, 2491, 2493, 2488, 2487, 2492, 711, 2489
1059, 661, 709, 712, 664, 662, 710, 713, 665
1060, 662, 710, 713, 665, 663, 711, 714, 666
1061, 664, 2494, 2497, 2374, 2373, 2495, 2498, 2375
1062, 2373, 2495, 2498, 2375, 665, 2496, 2499, 2376
1063, 2374, 2497, 1304, 667, 2375, 2498, 1305, 1241
1064, 2375, 2498, 1305, 1241, 2376, 2499, 1306, 668
1065, 2494, 712, 2501, 2497, 2495, 2500, 2502, 2498
1066, 2495, 2500, 2502, 2498, 2496, 713, 2503, 2499
1067, 2497, 2501, 715, 1304, 2498, 2502, 1313, 1305
1068, 2498, 2502, 1313, 1305, 2499, 2503, 716, 1306
1069, 665, 2496, 2499, 2376, 2384, 2504, 2506, 2385
1070, 2384, 2504, 2506, 2385, 666, 2505, 2507, 2386
1071, 2376, 2499, 1306, 668, 2385, 2506, 1318, 1252
1072, 2385, 2506, 1318, 1252, 2386, 2507, 1319, 669
1073, 2496, 713, 2503, 2499, 2504, 2508, 2509, 2506
1074, 2504, 2508, 2509, 2506, 2505, 714, 2510, 2507
1075, 2499, 2503, 716, 1306, 2506, 2509, 1324, 1318
1076, 2506, 2509, 1324, 1318, 2507, 2510, 717, 1319
1077, 667, 1304, 1307, 1242, 1241, 1305, 1308, 1243
1078, 1241, 1305, 1308, 1243, 668, 1306, 1309, 1244
1079, 1242, 1307, 1310, 670, 1243, 1308, 1311, 1245
1080, 1243, 1308, 1311, 1245, 1244, 1309, 1312, 671
1081, 1304, 715, 1314, 1307, 1305, 1313, 1315, 1308
1082, 1305, 1313, 1315, 1308, 1306, 716, 1316, 1309
1083, 1307, 1314, 718, 1310, 1308, 1315, 1317, 1311
1084, 1308, 1315, 1317, 1311, 1309, 1316, 719, 1312
1085, 668, 1306, 1309, 1244, 1252, 1318, 1320, 1253
1086, 1252, 1318, 1320, 1253, 669, 1319, 1321, 1254
1087, 1244, 1309, 1312, 671, 1253, 1320, 1322, 1255
1088, 1253, 1320, 1322, 1255, 1254, 1321, 1323, 672
1089, 1306, 716, 1316, 1309, 1318, 1324, 1325, 1320
1090, 1318, 1324, 1325, 1320, 1319, 717, 1326, 1321
1091, 1309, 1316, 719, 1312, 1320, 1325, 1327, 1322
1092, 1320, 1325, 1327, 1322, 1321, 1326, 720, 1323
1093, 673, 1328, 1331, 1266, 1265, 1329, 1332, 1267
1094, 1265, 1329, 1332, 1267, 675, 1330, 1333, 1268
1095, 1266, 1331, 1334, 674, 1267, 1332, 1335, 1269
1096, 1267, 1332, 1335, 1269, 1268, 1333, 1336, 676
1097, 1328, 721, 1338, 1331, 1329, 1337, 1339, 1332
1098, 1329, 1337, 1339, 1332, 1330, 723, 1340, 1333
1099, 1331, 1338, 722, 1334, 1332, 1339, 1341, 1335
1100, 1332, 1339, 1341, 1335, 1333, 1340, 724, 1336
1101, 675, 1330, 1333, 1268, 2393, 2511, 2513, 2394
1102, 2393, 2511, 2513, 2394, 677, 2512, 2514, 2395
1103, 1268, 1333, 1336, 676, 2394, 2513, 2515, 2396
1104, 2394, 2513, 2515, 2396, 2395, 2514, 2516, 678
1105, 1330, 723, 1340, 1333, 2511, 2517, 2518, 2513
1106, 2511, 2517, 2518, 2513, 2512, 725, 2519, 2514
1107, 1333, 1340, 724, 1336, 2513, 2518, 2520, 2515
1108, 2513, 2518, 2520, 2515, 2514, 2519, 726, 2516
1109, 677, 725, 726, 678, 679, 727, 728, 680
1110, 679, 727, 728, 680, 681, 729, 730, 682
1111, 681, 1347, 1350, 1343, 1342, 1348, 1351, 1344
1112, 1342, 1348, 1351, 1344, 683, 1349, 1352, 1345
1113, 1343, 1350, 1353, 682, 1344, 1351, 1354, 1346
1114, 1344, 1351, 1354, 1346, 1345, 1352, 1355, 684
1115, 1347, 729, 1357, 1350, 1348, 1356, 1358, 1351
1116, 1348, 1356, 1358, 1351, 1349, 731, 1359, 1352
1117, 1350, 1357, 730, 1353, 1351, 1358, 1360, 1354
1118, 1351, 1358, 1360, 1354, 1352, 1359, 732, 1355
1119, 674, 1334, 1361, 1276, 1269, 1335, 1362, 1277
1120, 1269, 1335, 1362, 1277, 676, 1336, 1363, 1278
1121, 1276, 1361, 1364, 685, 1277, 1362, 1365, 1279
1122, 1277, 1362, 1365, 1279, 1278, 1363, 1366, 686
1123, 1334, 722, 1367, 1361, 1335, 1341, 1368, 1362
1124, 1335, 1341, 1368, 1362, 1336, 724, 1369, 1363
1125, 1361, 1367, 733, 1364, 1362, 1368, 1370, 1365
1126, 1362, 1368, 1370, 1365, 1363, 1369, 734, 1366
1127, 676, 1336, 1363, 1278, 2396, 2515, 2521, 2410
1128, 2396, 2515, 2521, 2410, 678, 2516, 2522, 2411
1129, 1278, 1363, 1366, 686, 2410, 2521, 2523, 2412
1130, 2410, 2521, 2523, 2412, 2411, 2522, 2524, 687
1131, 1336, 724, 1369, 1363, 2515, 2520, 2525, 2521
1132, 2515, 2520, 2525, 2521, 2516, 726, 2526, 2522
1133, 1363, 1369, 734, 1366, 2521, 2525, 2527, 2523
1134, 2521, 2525, 2527, 2523, 2522, 2526, 735, 2524
1135, 678, 726, 735, 687, 680, 728, 736, 688
1136, 680, 728, 736, 688, 682, 730, 737, 689
1137, 682, 1353, 2528, 2419, 1346, 1354, 2529, 2420
1138, 1346, 1354, 2529, 2420, 684, 1355, 2530, 2421
1139, 2419, 2528, 2531, 689, 2420, 2529, 2532, 2422
1140, 2420, 2529, 2532, 2422, 2421, 2530, 2533, 690
1141, 1353, 730, 2534, 2528, 1354, 1360, 2535, 2529
1142, 1354, 1360, 2535, 2529, 1355, 732, 2536, 2530
1143, 2528, 2534, 737, 2531, 2529, 2535, 2537, 2532
1144, 2529, 2535, 2537, 2532, 2530, 2536, 738, 2533
1145, 691, 1371, 1374, 1290, 1289, 1372, 1375, 1291
1146, 1289, 1372, 1375, 1291, 693, 1373, 1376, 1292
1147, 1290, 1374, 1377, 692, 1291, 1375, 1378, 1293
1148, 1291, 1375, 1378, 1293, 1292, 1376, 1379, 694
1149, 1371, 739, 1381, 1374, 1372, 1380, 1382, 1375
1150, 1372, 1380, 1382, 1375, 1373, 741, 1383, 1376
1151, 1374, 1381, 740, 1377, 1375, 1382, 1384, 1378
1152, 1375, 1382, 1384, 1378, 1376, 1383, 742, 1379
1153, 693, 1373, 1376, 1292, 1300, 1385, 1387, 1301
1154, 1300, 1385, 1387, 1301, 695, 1386, 1388, 1302
1155, 1292, 1376, 1379, 694, 1301, 1387, 1389, 1303
1156, 1301, 1387, 1389, 1303, 1302, 1388, 1390, 696
1157, 1373, 741, 1383, 1376, 1385, 1391, 1392, 1387
1158, 1385, 1391, 1392, 1387, 1386, 743, 1393, 1388
1159, 1376, 1383, 742, 1379, 1387, 1392, 1394, 1389
1160, 1387, 1392, 1394, 1389, 1388, 1393, 744, 1390
1161, 692, 1377, 2538, 2429, 1293, 1378, 2539, 2430
1162, 1293, 1378, 2539, 2430, 694, 1379, 2540, 2431
1163, 2429, 2538, 2541, 697, 2430, 2539, 2542, 2432
1164, 2430, 2539, 2542, 2432, 2431, 2540, 2543, 698
1165, 1377, 740, 2544, 2538, 1378, 1384, 2545, 2539
1166, 1378, 1384, 2545, 2539, 1379, 742, 2546, 2540
1167, 2538, 2544, 745, 2541, 2539, 2545, 2547, 2542
1168, 2539, 2545, 2547, 2542, 2540, 2546, 746, 2543
1169, 694, 1379, 2540, 2431, 1303, 1389, 2548, 2437
1170, 1303, 1389, 2548, 2437, 696, 1390, 2549, 2438
1171, 2431, 2540, 2543, 698, 2437, 2548, 2550, 2439
1172, 2437, 2548, 2550, 2439, 2438, 2549, 2551, 699
1173, 1379, 742, 2546, 2540, 1389, 1394, 2552, 2548
1174, 1389, 1394, 2552, 2548, 1390, 744, 2553, 2549
1175, 2540, 2546, 746, 2543, 2548, 2552, 2554, 2550
1176, 2548, 2552, 2554, 2550, 2549, 2553, 747, 2551
1177, 697, 745, 748, 700, 698, 746, 749, 701
1178, 698, 746, 749, 701, 699, 747, 750, 702
1179, 700, 2555, 2558, 2449, 2448, 2556, 2559, 2450
1180, 2448, 2556, 2559, 2450, 701, 2557, 2560, 2451
1181, 2449, 2558, 1349, 683, 2450, 2559, 2561, 2452
1182, 2450, 2559, 2561, 2452, 2451, 2560, 2562, 703
1183, 2555, 748, 2564, 2558, 2556, 2563, 2565, 2559
1184, 2556, 2563, 2565, 2559, 2557, 749, 2566, 2560
1185, 2558, 2564, 731, 1349, 2559, 2565, 2567, 2561
1186, 2559, 2565, 2567, 2561, 2560, 2566, 751, 2562
1187, 701, 2557, 2560, 2451, 2463, 2568, 2570, 2464
1188, 2463, 2568, 2570, 2464, 702, 2569, 2571, 2465
1189, 2451, 2560, 2562, 703, 2464, 2570, 2572, 2466
1190, 2464, 2570, 2572, 2466, 2465, 2571, 2573, 704
1191, 2557, 749, 2566, 2560, 2568, 2574, 2575, 2570
1192, 2568, 2574, 2575, 2570, 2569, 750, 2576, 2571
1193, 2560, 2566, 751, 2562, 2570, 2575, 2577, 2572
1194, 2570, 2575, 2577, 2572, 2571, 2576, 752, 2573
1195, 683, 731, 732, 684, 703, 751, 753, 705
1196, 703, 751, 753, 705, 704, 752, 754, 706
1197, 684, 732, 738, 690, 705, 753, 755, 707
1198, 705, 753, 755, 707, 706, 754, 756, 708
1199, 690, 2533, 2580, 2480, 2479, 2578, 2581, 2481
1200, 2479, 2578, 2581, 2481, 707, 2579, 2582, 2482
1201, 2480, 2580, 2583, 709, 2481, 2581, 2584, 2483
1202, 2481, 2581, 2584, 2483, 2482, 2582, 2585, 710
1203, 2533, 738, 2587, 2580, 2578, 2586, 2588, 2581
1204, 2578, 2586, 2588, 2581, 2579, 755, 1482, 2582
1205, 2580, 2587, 757, 2583, 2581, 2588, 2589, 2584
1206, 2581, 2588, 2589, 2584, 2582, 1482, 758, 2585
1207, 707, 2579, 2582, 2482, 2490, 2590, 2592, 2491
1208, 2490, 2590, 2592, 2491, 708, 2591, 2593, 2492
1209, 2482, 2582, 2585, 710, 2491, 2592, 2594, 2493
1210, 2491, 2592, 2594, 2493, 2492, 2593, 2595, 711
1211, 2579, 755, 1482, 2582, 2590, 1481, 1483, 2592
1212, 2590, 1481, 1483, 2592, 2591, 756, 1484, 2593
1213, 2582, 1482, 758, 2585, 2592, 1483, 1485, 2594
1214, 2592, 1483, 1485, 2594, 2593, 1484, 759, 2595
1215, 709, 757, 760, 712, 710, 758, 761, 713
1216, 710, 758, 761, 713, 711, 759, 762, 714
1217, 712, 2596, 2599, 2501, 2500, 2597, 2600, 2502
1218, 2500, 2597, 2600, 2502, 713, 2598, 2601, 2503
1219, 2501, 2599, 1395, 715, 2502, 2600, 1396, 1313
1220, 2502, 2600, 1396, 1313, 2503, 2601, 1397, 716
1221, 2596, 760, 2603, 2599, 2597, 2602, 2604, 2600
1222, 2597, 2602, 2604, 2600, 2598, 761, 2605, 2601
1223, 2599, 2603, 763, 1395, 2600, 2604, 1404, 1396
1224, 2600, 2604, 1404, 1396, 2601, 2605, 764, 1397
1225, 713, 2598, 2601, 2503, 2508, 2606, 2608, 2509
1226, 2508, 2606, 2608, 2509, 714, 2607, 2609, 2510
1227, 2503, 2601, 1397, 716, 2509, 2608, 1409, 1324
1228, 2509, 2608, 1409, 1324, 2510, 2609, 1410, 717
1229, 2598, 761, 2605, 2601, 2606, 2610, 2611, 2608
1230, 2606, 2610, 2611, 2608, 2607, 762, 2612, 2609
1231, 2601, 2605, 764, 1397, 2608, 2611, 1415, 1409
1232, 2608, 2611, 1415, 1409, 2609, 2612, 765, 1410
1233, 715, 1395, 1398, 1314, 1313, 1396, 1399, 1315
1234, 1313, 1396, 1399, 1315, 716, 1397, 1400, 1316
1235, 1314, 1398, 1401, 718, 1315, 1399, 1402, 1317
1236, 1315, 1399, 1402, 1317, 1316, 1400, 1403, 719
1237, 1395, 763, 1405, 1398, 1396, 1404, 1406, 1399
1238, 1396, 1404, 1406, 1399, 1397, 764, 1407, 1400
1239, 1398, 1405, 766, 1401, 1399, 1406, 1408, 1402
1240, 1399, 1406, 1408, 1402, 1400, 1407, 767, 1403
1241, 716, 1397, 1400, 1316, 1324, 1409, 1411, 1325
1242, 1324, 1409, 1411, 1325, 717, 1410, 1412, 1326
1243, 1316, 1400, 1403, 719, 1325, 1411, 1413, 1327
1244, 1325, 1411, 1413, 1327, 1326, 1412, 1414, 720
1245, 1397, 764, 1407, 1400, 1409, 1415, 1416, 1411
1246, 1409, 1415, 1416, 1411, 1410, 765, 1417, 1412
1247, 1400, 1407, 767, 1403, 1411, 1416, 1418, 1413
1248, 1411, 1416, 1418, 1413, 1412, 1417, 768, 1414
1249, 721, 1419, 1422, 1338, 1337, 1420, 1423, 1339
1250, 1337, 1420, 1423, 1339, 723, 1421, 1424, 1340
1251, 1338, 1422, 1425, 722, 1339, 1423, 1426, 1341
1252, 1339, 1423, 1426, 1341, 1340, 1424, 1427, 724
1253, 1419, 769, 1429, 1422, 1420, 1428, 1430, 1423
1254, 1420, 1428, 1430, 1423, 1421, 771, 1431, 1424
1255, 1422, 1429, 770, 1425, 1423, 1430, 1432, 1426
1256, 1423, 1430, 1432, 1426, 1424, 1431, 772, 1427
1257, 723, 1421, 1424, 1340, 2517, 2613, 2615, 2518
1258, 2517, 2613, 2615, 2518, 725, 2614, 2616, 2519
1259, 1340, 1424, 1427, 724, 2518, 2615, 2617, 2520
1260, 2518, 2615, 2617, 2520, 2519, 2616, 2618, 726
1261, 1421, 771, 1431, 1424, 2613, 2619, 2620, 2615
1262, 2613, 2619, 2620, 2615, 2614, 773, 2621, 2616
1263, 1424, 1431, 772, 1427, 2615, 2620, 2622, 2617
1264, 2615, 2620, 2622, 2617, 2616, 2621, 774, 2618
1265, 725, 773, 774, 726, 727, 775, 776, 728
1266, 727, 2627, 2629, 2624, 2623, 2628, 2630, 2625
1267, 2623, 2628, 2630, 2625, 729, 1433, 1436, 1357
1268, 2624, 2629, 2631, 728, 2625, 2630, 2632, 2626
1269, 2625, 2630, 2632, 2626, 1357, 1436, 1439, 730
1270, 2627, 775, 2634, 2629, 2628, 2633, 2635, 2630
1271, 2628, 2633, 2635, 2630, 1433, 777, 1443, 1436
1272, 2629, 2634, 776, 2631, 2630, 2635, 2636, 2632
1273, 2630, 2635, 2636, 2632, 1436, 1443, 778, 1439
1274, 729, 1433, 1436, 1357, 1356, 1434, 1437, 1358
1275, 1356, 1434, 1437, 1358, 731, 1435, 1438, 1359
1276, 1357, 1436, 1439, 730, 1358, 1437, 1440, 1360
1277, 1358, 1437, 1440, 1360, 1359, 1438, 1441, 732
1278, 1433, 777, 1443, 1436, 1434, 1442, 1444, 1437
1279, 1434, 1442, 1444, 1437, 1435, 779, 1445, 1438
1280, 1436, 1443, 778, 1439, 1437, 1444, 1446, 1440
1281, 1437, 1444, 1446, 1440, 1438, 1445, 780, 1441
1282, 722, 1425, 1447, 1367, 1341, 1426, 1448, 1368
1283, 1341, 1426, 1448, 1368, 724, 1427, 1449, 1369
1284, 1367, 1447, 1450, 733, 1368, 1448, 1451, 1370
1285, 1368, 1448, 1451, 1370, 1369, 1449, 1452, 734
1286, 1425, 770, 1453, 1447, 1426, 1432, 1454, 1448
1287, 1426, 1432, 1454, 1448, 1427, 772, 1455, 1449
1288, 1447, 1453, 781, 1450, 1448, 1454, 1456, 1451
1289, 1448, 1454, 1456, 1451, 1449, 1455, 782, 1452
1290, 724, 1427, 1449, 1369, 2520, 2617, 2637, 2525
1291, 2520, 2617, 2637, 2525, 726, 2618, 2638, 2526
1292, 1369, 1449, 1452, 734, 2525, 2637, 2639, 2527
1293, 2525, 2637, 2639, 2527, 2526, 2638, 2640, 735
1294, 1427, 772, 1455, 1449, 2617, 2622, 2641, 2637
1295, 2617, 2622, 2641, 2637, 2618, 774, 2642, 2638
1296, 1449, 1455, 782, 1452, 2637, 2641, 2643, 2639
1297, 2637, 2641, 2643, 2639, 2638, 2642, 783, 2640
1298, 726, 774, 783, 735, 728, 776, 784, 736
1299, 728, 776, 784, 736, 730, 778, 785, 737
1300, 730, 1439, 2644, 2534, 1360, 1440, 2645, 2535
1301, 1360, 1440, 2645, 2535, 732, 1441, 2646, 2536
1302, 2534, 2644, 2647, 737, 2535, 2645, 2648, 2537
1303, 2535, 2645, 2648, 2537, 2536, 2646, 2649, 738
1304, 1439, 778, 2650, 2644, 1440, 1446, 2651, 2645
1305, 1440, 1446, 2651, 2645, 1441, 780, 2652, 2646
1306, 2644, 2650, 785, 2647, 2645, 2651, 2653, 2648
1307, 2645, 2651, 2653, 2648, 2646, 2652, 786, 2649
1308, 739, 1457, 1460, 1381, 1380, 1458, 1461, 1382
1309, 1380, 1458, 1461, 1382, 741, 1459, 1462, 1383
1310, 1381, 1460, 1463, 740, 1382, 1461, 1464, 1384
1311, 1382, 1461, 1464, 1384, 1383, 1462, 1465, 742
1312, 1457, 787, 1467, 1460, 1458, 1466, 1468, 1461
1313, 1458, 1466, 1468, 1461, 1459, 789, 1469, 1462
1314, 1460, 1467, 788, 1463, 1461, 1468, 1470, 1464
1315, 1461, 1468, 1470, 1464, 1462, 1469, 790, 1465
1316, 741, 1459, 1462, 1383, 1391, 1471, 1473, 1392
1317, 1391, 1471, 1473, 1392, 743, 1472, 1474, 1393
1318, 1383, 1462, 1465, 742, 1392, 1473, 1475, 1394
1319, 1392, 1473, 1475, 1394, 1393, 1474, 1476, 744
1320, 1459, 789, 1469, 1462, 1471, 1477, 1478, 1473
1321, 1471, 1477, 1478, 1473, 1472, 791, 1479, 1474
1322, 1462, 1469, 790, 1465, 1473, 1478, 1480, 1475
1323, 1473, 1478, 1480, 1475, 1474, 1479, 792, 1476
1324, 740, 1463, 2654, 2544, 1384, 1464, 2655, 2545
1325, 1384, 1464, 2655, 2545, 742, 1465, 2656, 2546
1326, 2544, 2654, 2657, 745, 2545, 2655, 2658, 2547
1327, 2545, 2655, 2658, 2547, 2546, 2656, 2659, 746
1328, 1463, 788, 2660, 2654, 1464, 1470, 2661, 2655
1329, 1464, 1470, 2661, 2655, 1465, 790, 2662, 2656
1330, 2654, 2660, 793, 2657, 2655, 2661, 2663, 2658
1331, 2655, 2661, 2663, 2658, 2656, 2662, 794, 2659
1332, 742, 1465, 2656, 2546, 1394, 1475, 2664, 2552
1333, 1394, 1475, 2664, 2552, 744, 1476, 2665, 2553
1334, 2546, 2656, 2659, 746, 2552, 2664, 2666, 2554
1335, 2552, 2664, 2666, 2554, 2553, 2665, 2667, 747
1336, 1465, 790, 2662, 2656, 1475, 1480, 2668, 2664
1337, 1475, 1480, 2668, 2664, 1476, 792, 2669, 2665
1338, 2656, 2662, 794, 2659, 2664, 2668, 2670, 2666
1339, 2664, 2668, 2670, 2666, 2665, 2669, 795, 2667
1340, 745, 793, 796, 748, 746, 794, 797, 749
1341, 746, 794, 797, 749, 747, 795, 798, 750
1342, 748, 2671, 2674, 2564, 2563, 2672, 2675, 2565
1343, 2563, 2672, 2675, 2565, 749, 2673, 2676, 2566
1344, 2564, 2674, 1435, 731, 2565, 2675, 2677, 2567
1345, 2565, 2675, 2677, 2567, 2566, 2676, 2678, 751
1346, 2671, 796, 2680, 2674, 2672, 2679, 2681, 2675
1347, 2672, 2679, 2681, 2675, 2673, 797, 2682, 2676
1348, 2674, 2680, 779, 1435, 2675, 2681, 2683, 2677
1349, 2675, 2681, 2683, 2677, 2676, 2682, 799, 2678
1350, 749, 2673, 2676, 2566, 2574, 2684, 2686, 2575
1351, 2574, 2684, 2686, 2575, 750, 2685, 2687, 2576
1352, 2566, 2676, 2678, 751, 2575, 2686, 2688, 2577
1353, 2575, 2686, 2688, 2577, 2576, 2687, 2689, 752
1354, 2673, 797, 2682, 2676, 2684, 2690, 2691, 2686
1355, 2684, 2690, 2691, 2686, 2685, 798, 2692, 2687
1356, 2676, 2682, 799, 2678, 2686, 2691, 2693, 2688
1357, 2686, 2691, 2693, 2688, 2687, 2692, 800, 2689
1358, 731, 779, 780, 732, 751, 799, 801, 753
1359, 751, 799, 801, 753, 752, 800, 802, 754
1360, 732, 780, 786, 738, 753, 801, 803, 755
1361, 753, 801, 803, 755, 754, 802, 804, 756
1362, 738, 2649, 2695, 2587, 2586, 2694, 2696, 2588
1363, 2586, 2694, 2696, 2588, 755, 1486, 1489, 1482
1364, 2587, 2695, 2697, 757, 2588, 2696, 2698, 2589
1365, 2588, 2696, 2698, 2589, 1482, 1489, 1492, 758
1366, 2649, 786, 2700, 2695, 2694, 2699, 2701, 2696
1367, 2694, 2699, 2701, 2696, 1486, 803, 1496, 1489
1368, 2695, 2700, 805, 2697, 2696, 2701, 2702, 2698
1369, 2696, 2701, 2702, 2698, 1489, 1496, 806, 1492
1370, 755, 1486, 1489, 1482, 1481, 1487, 1490, 1483
1371, 1481, 1487, 1490, 1483, 756, 1488, 1491, 1484
1372, 1482, 1489, 1492, 758, 1483, 1490, 1493, 1485
1373, 1483, 1490, 1493, 1485, 1484, 1491, 1494, 759
1374, 1486, 803, 1496, 1489, 1487, 1495, 1497, 1490
1375, 1487, 1495, 1497, 1490, 1488, 804, 1498, 1491
1376, 1489, 1496, 806, 1492, 1490, 1497, 1499, 1493
1377, 1490, 1497, 1499, 1493, 1491, 1498, 807, 1494
1378, 757, 805, 808, 760, 758, 806, 809, 761
1379, 758, 806, 809, 761, 759, 807, 810, 762
1380, 760, 2703, 2706, 2603, 2602, 2704, 2707, 2604
1381, 2602, 2704, 2707, 2604, 761, 2705, 2708, 2605
1382, 2603, 2706, 1500, 763, 2604, 2707, 1501, 1404
1383, 2604, 2707, 1501, 1404, 2605, 2708, 1502, 764
1384, 2703, 808, 2710, 2706, 2704, 2709, 2711, 2707
1385, 2704, 2709, 2711, 2707, 2705, 809, 2712, 2708
1386, 2706, 2710, 811, 1500, 2707, 2711, 1509, 1501
1387, 2707, 2711, 1509, 1501, 2708, 2712, 812, 1502
1388, 761, 2705, 2708, 2605, 2610, 2713, 2715, 2611
1389, 2610, 2713, 2715, 2611, 762, 2714, 2716, 2612
1390, 2605, 2708, 1502, 764, 2611, 2715, 1514, 1415
1391, 2611, 2715, 1514, 1415, 2612, 2716, 1515, 765
1392, 2705, 809, 2712, 2708, 2713, 2717, 2718, 2715
1393, 2713, 2717, 2718, 2715, 2714, 810, 2719, 2716
1394, 2708, 2712, 812, 1502, 2715, 2718, 1520, 1514
1395, 2715, 2718, 1520, 1514, 2716, 2719, 813, 1515
1396, 763, 1500, 1503, 1405, 1404, 1501, 1504, 1406
1397, 1404, 1501, 1504, 1406, 764, 1502, 1505, 1407
1398, 1405, 1503, 1506, 766, 1406, 1504, 1507, 1408
1399, 1406, 1504, 1507, 1408, 1407, 1505, 1508, 767
1400, 1500, 811, 1510, 1503, 1501, 1509, 1511, 1504
1401, 1501, 1509, 1511, 1504, 1502, 812, 1512, 1505
1402, 1503, 1510, 814, 1506, 1504, 1511, 1513, 1507
1403, 1504, 1511, 1513, 1507, 1505, 1512, 815, 1508
1404, 764, 1502, 1505, 1407, 1415, 1514, 1516, 1416
1405, 1415, 1514, 1516, 1416, 765, 1515, 1517, 1417
1406, 1407, 1505, 1508, 767, 1416, 1516, 1518, 1418
1407, 1416, 1516, 1518, 1418, 1417, 1517, 1519, 768
1408, 1502, 812, 1512, 1505, 1514, 1520, 1521, 1516
1409, 1514, 1520, 1521, 1516, 1515, 813, 1522, 1517
1410, 1505, 1512, 815, 1508, 1516, 1521, 1523, 1518
1411, 1516, 1521, 1523, 1518, 1517, 1522, 816, 1519
1412, 769, 1524, 1527, 1429, 1428, 1525, 1528, 1430
1413, 1428, 1525, 1528, 1430, 771, 1526, 1529, 1431
1414, 1429, 1527, 1530, 770, 1430, 1528, 1531, 1432
1415, 1430, 1528, 1531, 1432, 1431, 1529, 1532, 772
1416, 1524, 817, 1534, 1527, 1525, 1533, 1535, 1528
1417, 1525, 1533, 1535, 1528, 1526, 819, 1536, 1529
1418, 1527, 1534, 818, 1530, 1528, 1535, 1537, 1531
1419, 1528, 1535, 1537, 1531, 1529, 1536, 820, 1532
1420, 771, 1526, 1529, 1431, 2619, 2720, 2722, 2620
1421, 2619, 2720, 2722, 2620, 773, 2721, 2723, 2621
1422, 1431, 1529, 1532, 772, 2620, 2722, 2724, 2622
1423, 2620, 2722, 2724, 2622, 2621, 2723, 2725, 774
1424, 1526, 819, 1536, 1529, 2720, 2726, 2727, 2722
1425, 2720, 2726, 2727, 2722, 2721, 821, 2728, 2723
1426, 1529, 1536, 820, 1532, 2722, 2727, 2729, 2724
1427, 2722, 2727, 2729, 2724, 2723, 2728, 822, 2725
1428, 773, 821, 822, 774, 775, 823, 824, 776
1429, 775, 2730, 2732, 2634, 2633, 2731, 2733, 2635
1430, 2633, 2731, 2733, 2635, 777, 1538, 1541, 1443
1431, 2634, 2732, 2734, 776, 2635, 2733, 2735, 2636
1432, 2635, 2733, 2735, 2636, 1443, 1541, 1544, 778
1433, 2730, 823, 2737, 2732, 2731, 2736, 2738, 2733
1434, 2731, 2736, 2738, 2733, 1538, 825, 1548, 1541
1435, 2732, 2737, 824, 2734, 2733, 2738, 2739, 2735
1436, 2733, 2738, 2739, 2735, 1541, 1548, 826, 1544
1437, 777, 1538, 1541, 1443, 1442, 1539, 1542, 1444
1438, 1442, 1539, 1542, 1444, 779, 1540, 1543, 1445
1439, 1443, 1541, 1544, 778, 1444, 1542, 1545, 1446
1440, 1444, 1542, 1545, 1446, 1445, 1543, 1546, 780
1441, 1538, 825, 1548, 1541, 1539, 1547, 1549, 1542
1442, 1539, 1547, 1549, 1542, 1540, 827, 1550, 1543
1443, 1541, 1548, 826, 1544, 1542, 1549, 1551, 1545
1444, 1542, 1549, 1551, 1545, 1543, 1550, 828, 1546
1445, 770, 1530, 1552, 1453, 1432, 1531, 1553, 1454
1446, 1432, 1531, 1553, 1454, 772, 1532, 1554, 1455
1447, 1453, 1552, 1555, 781, 1454, 1553, 1556, 1456
1448, 1454, 1553, 1556, 1456, 1455, 1554, 1557, 782
1449, 1530, 818, 1558, 1552, 1531, 1537, 1559, 1553
1450, 1531, 1537, 1559, 1553, 1532, 820, 1560, 1554
1451, 1552, 1558, 829, 1555, 1553, 1559, 1561, 1556
1452, 1553, 1559, 1561, 1556, 1554, 1560, 830, 1557
1453, 772, 1532, 1554, 1455, 2622, 2724, 2740, 2641
1454, 2622, 2724, 2740, 2641, 774, 2725, 2741, 2642
1455, 1455, 1554, 1557, 782, 2641, 2740, 2742, 2643
1456, 2641, 2740, 2742, 2643, 2642, 2741, 2743, 783
1457, 1532, 820, 1560, 1554, 2724, 2729, 2744, 2740
1458, 2724, 2729, 2744, 2740, 2725, 822, 2745, 2741
1459, 1554, 1560, 830, 1557, 2740, 2744, 2746, 2742
1460, 2740, 2744, 2746, 2742, 2741, 2745, 831, 2743
1461, 774, 822, 831, 783, 776, 824, 832, 784
1462, 776, 824, 832, 784, 778, 826, 833, 785
1463, 778, 1544, 2747, 2650, 1446, 1545, 2748, 2651
1464, 1446, 1545, 2748, 2651, 780, 1546, 2749, 2652
1465, 2650, 2747, 2750, 785, 2651, 2748, 2751, 2653
1466, 2651, 2748, 2751, 2653, 2652, 2749, 2752, 786
1467, 1544, 826, 1662, 2747, 1545, 1551, 1663, 2748
1468, 1545, 1551, 1663, 2748, 1546, 828, 1664, 2749
1469, 2747, 1662, 833, 2750, 2748, 1663, 1665, 2751
1470, 2748, 1663, 1665, 2751, 2749, 1664, 834, 2752
1471, 787, 1562, 1565, 1467, 1466, 1563, 1566, 1468
1472, 1466, 1563, 1566, 1468, 789, 1564, 1567, 1469
1473, 1467, 1565, 1568, 788, 1468, 1566, 1569, 1470
1474, 1468, 1566, 1569, 1470, 1469, 1567, 1570, 790
1475, 1562, 835, 1572, 1565, 1563, 1571, 1573, 1566
1476, 1563, 1571, 1573, 1566, 1564, 837, 1574, 1567
1477, 1565, 1572, 836, 1568, 1566, 1573, 1575, 1569
1478, 1566, 1573, 1575, 1569, 1567, 1574, 838, 1570
1479, 789, 1564, 1567, 1469, 1477, 1576, 1578, 1478
1480, 1477, 1576, 1578, 1478, 791, 1577, 1579, 1479
1481, 1469, 1567, 1570, 790, 1478, 1578, 1580, 1480
1482, 1478, 1578, 1580, 1480, 1479, 1579, 1581, 792
1483, 1564, 837, 1574, 1567, 1576, 1582, 1583, 1578
1484, 1576, 1582, 1583, 1578, 1577, 839, 1584, 1579
1485, 1567, 1574, 838, 1570, 1578, 1583, 1585, 1580
1486, 1578, 1583, 1585, 1580, 1579, 1584, 840, 1581
1487, 788, 1568, 2753, 2660, 1470, 1569, 2754, 2661
1488, 1470, 1569, 2754, 2661, 790, 1570, 2755, 2662
1489, 2660, 2753, 2756, 793, 2661, 2754, 2757, 2663
1490, 2661, 2754, 2757, 2663, 2662, 2755, 2758, 794
1491, 1568, 836, 2759, 2753, 1569, 1575, 2760, 2754
1492, 1569, 1575, 2760, 2754, 1570, 838, 2761, 2755
1493, 2753, 2759, 841, 2756, 2754, 2760, 2762, 2757
1494, 2754, 2760, 2762, 2757, 2755, 2761, 842, 2758
1495, 790, 1570, 2755, 2662, 1480, 1580, 2763, 2668
1496, 1480, 1580, 2763, 2668, 792, 1581, 2764, 2669
1497, 2662, 2755, 2758, 794, 2668, 2763, 2765, 2670
1498, 2668, 2763, 2765, 2670, 2669, 2764, 2766, 795
1499, 1570, 838, 2761, 2755, 1580, 1585, 2767, 2763
1500, 1580, 1585, 2767, 2763, 1581, 840, 2768, 2764
1501, 2755, 2761, 842, 2758, 2763, 2767, 2769, 2765
1502, 2763, 2767, 2769, 2765, 2764, 2768, 843, 2766
1503, 793, 841, 844, 796, 794, 842, 845, 797
1504, 794, 842, 845, 797, 795, 843, 846, 798
1505, 796, 2770, 2773, 2680, 2679, 2771, 2774, 2681
1506, 2679, 2771, 2774, 2681, 797, 2772, 2775, 2682
1507, 2680, 2773, 1540, 779, 2681, 2774, 2776, 2683
1508, 2681, 2774, 2776, 2683, 2682, 2775, 2777, 799
1509, 2770, 844, 1701, 2773, 2771, 1700, 1702, 2774
1510, 2771, 1700, 1702, 2774, 2772, 845, 1703, 2775
1511, 2773, 1701, 827, 1540, 2774, 1702, 1704, 2776
1512, 2774, 1702, 1704, 2776, 2775, 1703, 847, 2777
1513, 797, 2772, 2775, 2682, 2690, 2778, 2780, 2691
1514, 2690, 2778, 2780, 2691, 798, 2779, 2781, 2692
1515, 2682, 2775, 2777, 799, 2691, 2780, 2782, 2693
1516, 2691, 2780, 2782, 2693, 2692, 2781, 2783, 800
1517, 2772, 845, 1703, 2775, 2778, 1718, 1719, 2780
1518, 2778, 1718, 1719, 2780, 2779, 846, 1720, 2781
1519, 2775, 1703, 847, 2777, 2780, 1719, 1721, 2782
1520, 2780, 1719, 1721, 2782, 2781, 1720, 848, 2783
1521, 779, 827, 828, 780, 799, 847, 849, 801
1522, 799, 847, 849, 801, 800, 848, 850, 802
1523, 780, 828, 834, 786, 801, 849, 851, 803
1524, 801, 849, 851, 803, 802, 850, 852, 804
1525, 786, 2752, 2785, 2700, 2699, 2784, 2786, 2701
1526, 2699, 2784, 2786, 2701, 803, 1586, 1589, 1496
1527, 2700, 2785, 2787, 805, 2701, 2786, 2788, 2702
1528, 2701, 2786, 2788, 2702, 1496, 1589, 1592, 806
1529, 2752, 834, 2790, 2785, 2784, 2789, 2791, 2786
1530, 2784, 2789, 2791, 2786, 1586, 851, 1596, 1589
1531, 2785, 2790, 853, 2787, 2786, 2791, 2792, 2788
1532, 2786, 2791, 2792, 2788, 1589, 1596, 854, 1592
1533, 803, 1586, 1589, 1496, 1495, 1587, 1590, 1497
1534, 1495, 1587, 1590, 1497, 804, 1588, 1591, 1498
1535, 1496, 1589, 1592, 806, 1497, 1590, 1593, 1499
1536, 1497, 1590, 1593, 1499, 1498, 1591, 1594, 807
1537, 1586, 851, 1596, 1589, 1587, 1595, 1597, 1590
1538, 1587, 1595, 1597, 1590, 1588, 852, 1598, 1591
1539, 1589, 1596, 854, 1592, 1590, 1597, 1599, 1593
1540, 1590, 1597, 1599, 1593, 1591, 1598, 855, 1594
1541, 805, 853, 856, 808, 806, 854, 857, 809
1542, 806, 854, 857, 809, 807, 855, 858, 810
1543, 808, 2793, 2796, 2710, 2709, 2794, 2797, 2711
1544, 2709, 2794, 2797, 2711, 809, 2795, 2798, 2712
1545, 2710, 2796, 1600, 811, 2711, 2797, 1601, 1509
1546, 2711, 2797, 1601, 1509, 2712, 2798, 1602, 812
1547, 2793, 856, 2800, 2796, 2794, 2799, 2801, 2797
1548, 2794, 2799, 2801, 2797, 2795, 857, 2802, 2798
1549, 2796, 2800, 859, 1600, 2797, 2801, 1609, 1601
1550, 2797, 2801, 1609, 1601, 2798, 2802, 860, 1602
1551, 809, 2795, 2798, 2712, 2717, 2803, 2805, 2718
1552, 2717, 2803, 2805, 2718, 810, 2804, 2806, 2719
1553, 2712, 2798, 1602, 812, 2718, 2805, 1614, 1520
1554, 2718, 2805, 1614, 1520, 2719, 2806, 1615, 813
1555, 2795, 857, 2802, 2798, 2803, 2807, 2808, 2805
1556, 2803, 2807, 2808, 2805, 2804, 858, 2809, 2806
1557, 2798, 2802, 860, 1602, 2805, 2808, 1620, 1614
1558, 2805, 2808, 1620, 1614, 2806, 2809, 861, 1615
1559, 811, 1600, 1603, 1510, 1509, 1601, 1604, 1511
1560, 1509, 1601, 1604, 1511, 812, 1602, 1605, 1512
1561, 1510, 1603, 1606, 814, 1511, 1604, 1607, 1513
1562, 1511, 1604, 1607, 1513, 1512, 1605, 1608, 815
1563, 1600, 859, 1610, 1603, 1601, 1609, 1611, 1604
1564, 1601, 1609, 1611, 1604, 1602, 860, 1612, 1605
1565, 1603, 1610, 862, 1606, 1604, 1611, 1613, 1607
1566, 1604, 1611, 1613, 1607, 1605, 1612, 863, 1608
1567, 812, 1602, 1605, 1512, 1520, 1614, 1616, 1521
1568, 1520, 1614, 1616, 1521, 813, 1615, 1617, 1522
1569, 1512, 1605, 1608, 815, 1521, 1616, 1618, 1523
1570, 1521, 1616, 1618, 1523, 1522, 1617, 1619, 816
1571, 1602, 860, 1612, 1605, 1614, 1620, 1621, 1616
1572, 1614, 1620, 1621, 1616, 1615, 861, 1622, 1617
1573, 1605, 1612, 863, 1608, 1616, 1621, 1623, 1618
1574, 1616, 1621, 1623, 1618, 1617, 1622, 864, 1619
1575, 817, 1624, 1627, 1534, 1533, 1625, 1628, 1535
1576, 1533, 1625, 1628, 1535, 819, 1626, 1629, 1536
1577, 1534, 1627, 1630, 818, 1535, 1628, 1631, 1537
1578, 1535, 1628, 1631, 1537, 1536, 1629, 1632, 820
1579, 1624, 865, 1634, 1627, 1625, 1633, 1635, 1628
1580, 1625, 1633, 1635, 1628, 1626, 867, 1636, 1629
1581, 1627, 1634, 866, 1630, 1628, 1635, 1637, 1631
1582, 1628, 1635, 1637, 1631, 1629, 1636, 868, 1632
1583, 819, 1626, 1629, 1536, 2726, 2810, 2812, 2727
1584, 2726, 2810, 2812, 2727, 821, 2811, 2813, 2728
1585, 1536, 1629, 1632, 820, 2727, 2812, 2814, 2729
1586, 2727, 2812, 2814, 2729, 2728, 2813, 2815, 822
1587, 1626, 867, 1636, 1629, 2810, 2816, 2817, 2812
1588, 2810, 2816, 2817, 2812, 2811, 869, 2818, 2813
1589, 1629, 1636, 868, 1632, 2812, 2817, 2819, 2814
1590, 2812, 2817, 2819, 2814, 2813, 2818, 870, 2815
1591, 821, 869, 870, 822, 823, 871, 872, 824
1592, 823, 2820, 2822, 2737, 2736, 2821, 2823, 2738
1593, 2736, 2821, 2823, 2738, 825, 1638, 1641, 1548
1594, 2737, 2822, 2824, 824, 2738, 2823, 2825, 2739
1595, 2738, 2823, 2825, 2739, 1548, 1641, 1644, 826
1596, 2820, 871, 2827, 2822, 2821, 2826, 2828, 2823
1597, 2821, 2826, 2828, 2823, 1638, 873, 1648, 1641
1598, 2822, 2827, 872, 2824, 2823, 2828, 2829, 2825
1599, 2823, 2828, 2829, 2825, 1641, 1648, 874, 1644
1600, 825, 1638, 1641, 1548, 1547, 1639, 1642, 1549
1601, 1547, 1639, 1642, 1549, 827, 1640, 1643, 1550
1602, 1548, 1641, 1644, 826, 1549, 1642, 1645, 1551
1603, 1549, 1642, 1645, 1551, 1550, 1643, 1646, 828
1604, 1638, 873, 1648, 1641, 1639, 1647, 1649, 1642
1605, 1639, 1647, 1649, 1642, 1640, 875, 1650, 1643
1606, 1641, 1648, 874, 1644, 1642, 1649, 1651, 1645
1607, 1642, 1649, 1651, 1645, 1643, 1650, 876, 1646
1608, 818, 1630, 1652, 1558, 1537, 1631, 1653, 1559
1609, 1537, 1631, 1653, 1559, 820, 1632, 1654, 1560
1610, 1558, 1652, 1655, 829, 1559, 1653, 1656, 1561
1611, 1559, 1653, 1656, 1561, 1560, 1654, 1657, 830
1612, 1630, 866, 1658, 1652, 1631, 1637, 1659, 1653
1613, 1631, 1637, 1659, 1653, 1632, 868, 1660, 1654
1614, 1652, 1658, 877, 1655, 1653, 1659, 1661, 1656
1615, 1653, 1659, 1661, 1656, 1654, 1660, 878, 1657
1616, 820, 1632, 1654, 1560, 2729, 2814, 2830, 2744
1617, 2729, 2814, 2830, 2744, 822, 2815, 2831, 2745
1618, 1560, 1654, 1657, 830, 2744, 2830, 2832, 2746
1619, 2744, 2830, 2832, 2746, 2745, 2831, 2833, 831
1620, 1632, 868, 1660, 1654, 2814, 2819, 2834, 2830
1621, 2814, 2819, 2834, 2830, 2815, 870, 2835, 2831
1622, 1654, 1660, 878, 1657, 2830, 2834, 2836, 2832
1623, 2830, 2834, 2836, 2832, 2831, 2835, 879, 2833
1624, 822, 870, 879, 831, 824, 872, 880, 832
1625, 824, 2824, 2840, 2837, 2739, 2825, 2841, 2838
1626, 2739, 2825, 2841, 2838, 826, 1644, 1666, 1662
1627, 2837, 2840, 2842, 832, 2838, 2841, 2843, 2839
1628, 2838, 2841, 2843, 2839, 1662, 1666, 1669, 833
1629, 2824, 872, 2844, 2840, 2825, 2829, 2845, 2841
1630, 2825, 2829, 2845, 2841, 1644, 874, 1672, 1666
1631, 2840, 2844, 880, 2842, 2841, 2845, 2846, 2843
1632, 2841, 2845, 2846, 2843, 1666, 1672, 881, 1669
1633, 826, 1644, 1666, 1662, 1551, 1645, 1667, 1663
1634, 1551, 1645, 1667, 1663, 828, 1646, 1668, 1664
1635, 1662, 1666, 1669, 833, 1663, 1667, 1670, 1665
1636, 1663, 1667, 1670, 1665, 1664, 1668, 1671, 834
1637, 1644, 874, 1672, 1666, 1645, 1651, 1673, 1667
1638, 1645, 1651, 1673, 1667, 1646, 876, 1674, 1668
1639, 1666, 1672, 881, 1669, 1667, 1673, 1675, 1670
1640, 1667, 1673, 1675, 1670, 1668, 1674, 882, 1671
1641, 835, 1676, 1679, 1572, 1571, 1677, 1680, 1573
1642, 1571, 1677, 1680, 1573, 837, 1678, 1681, 1574
1643, 1572, 1679, 1682, 836, 1573, 1680, 1683, 1575
1644, 1573, 1680, 1683, 1575, 1574, 1681, 1684, 838
1645, 1676, 883, 1686, 1679, 1677, 1685, 1687, 1680
1646, 1677, 1685, 1687, 1680, 1678, 885, 1688, 1681
1647, 1679, 1686, 884, 1682, 1680, 1687, 1689, 1683
1648, 1680, 1687, 1689, 1683, 1681, 1688, 886, 1684
1649, 837, 1678, 1681, 1574, 1582, 1690, 1692, 1583
1650, 1582, 1690, 1692, 1583, 839, 1691, 1693, 1584
1651, 1574, 1681, 1684, 838, 1583, 1692, 1694, 1585
1652, 1583, 1692, 1694, 1585, 1584, 1693, 1695, 840
1653, 1678, 885, 1688, 1681, 1690, 1696, 1697, 1692
1654, 1690, 1696, 1697, 1692, 1691, 887, 1698, 1693
1655, 1681, 1688, 886, 1684, 1692, 1697, 1699, 1694
1656, 1692, 1697, 1699, 1694, 1693, 1698, 888, 1695
1657, 836, 1682, 2847, 2759, 1575, 1683, 2848, 2760
1658, 1575, 1683, 2848, 2760, 838, 1684, 2849, 2761
1659, 2759, 2847, 2850, 841, 2760, 2848, 2851, 2762
1660, 2760, 2848, 2851, 2762, 2761, 2849, 2852, 842
1661, 1682, 884, 2853, 2847, 1683, 1689, 2854, 2848
1662, 1683, 1689, 2854, 2848, 1684, 886, 2855, 2849
1663, 2847, 2853, 889, 2850, 2848, 2854, 2856, 2851
1664, 2848, 2854, 2856, 2851, 2849, 2855, 890, 2852
1665, 838, 1684, 2849, 2761, 1585, 1694, 2857, 2767
1666, 1585, 1694, 2857, 2767, 840, 1695, 2858, 2768
1667, 2761, 2849, 2852, 842, 2767, 2857, 2859, 2769
1668, 2767, 2857, 2859, 2769, 2768, 2858, 2860, 843
1669, 1684, 886, 2855, 2849, 1694, 1699, 2861, 2857
1670, 1694, 1699, 2861, 2857, 1695, 888, 2862, 2858
1671, 2849, 2855, 890, 2852, 2857, 2861, 2863, 2859
1672, 2857, 2861, 2863, 2859, 2858, 2862, 891, 2860
1673, 841, 2850, 2867, 2864, 2762, 2851, 2868, 2865
1674, 2762, 2851, 2868, 2865, 842, 2852, 2869, 2866
1675, 2864, 2867, 1705, 844, 2865, 2868, 1706, 1700
1676, 2865, 2868, 1706, 1700, 2866, 2869, 1707, 845
1677, 2850, 889, 2870, 2867, 2851, 2856, 2871, 2868
1678, 2851, 2856, 2871, 2868, 2852, 890, 2872, 2869
1679, 2867, 2870, 892, 1705, 2868, 2871, 1713, 1706
1680, 2868, 2871, 1713, 1706, 2869, 2872, 893, 1707
1681, 842, 2852, 2869, 2866, 2769, 2859, 2875, 2873
1682, 2769, 2859, 2875, 2873, 843, 2860, 2876, 2874
1683, 2866, 2869, 1707, 845, 2873, 2875, 1722, 1718
1684, 2873, 2875, 1722, 1718, 2874, 2876, 1723, 846
1685, 2852, 890, 2872, 2869, 2859, 2863, 2877, 2875
1686, 2859, 2863, 2877, 2875, 2860, 891, 2878, 2876
1687, 2869, 2872, 893, 1707, 2875, 2877, 1728, 1722
1688, 2875, 2877, 1728, 1722, 2876, 2878, 894, 1723
1689, 844, 1705, 1708, 1701, 1700, 1706, 1709, 1702
1690, 1700, 1706, 1709, 1702, 845, 1707, 1710, 1703
1691, 1701, 1708, 1640, 827, 1702, 1709, 1711, 1704
1692, 1702, 1709, 1711, 1704, 1703, 1710, 1712, 847
1693, 1705, 892, 1714, 1708, 1706, 1713, 1715, 1709
1694, 1706, 1713, 1715, 1709, 1707, 893, 1716, 1710
1695, 1708, 1714, 875, 1640, 1709, 1715, 1717, 1711
1696, 1709, 1715, 1717, 1711, 1710, 1716, 895, 1712
1697, 845, 1707, 1710, 1703, 1718, 1722, 1724, 1719
1698, 1718, 1722, 1724, 1719, 846, 1723, 1725, 1720
1699, 1703, 1710, 1712, 847, 1719, 1724, 1726, 1721
1700, 1719, 1724, 1726, 1721, 1720, 1725, 1727, 848
1701, 1707, 893, 1716, 1710, 1722, 1728, 1729, 1724
1702, 1722, 1728, 1729, 1724, 1723, 894, 1730, 1725
1703, 1710, 1716, 895, 1712, 1724, 1729, 1731, 1726
1704, 1724, 1729, 1731, 1726, 1725, 1730, 896, 1727
1705, 827, 875, 876, 828, 847, 895, 897, 849
1706, 847, 895, 897, 849, 848, 896, 898, 850
1707, 828, 1646, 1668, 1664, 2879, 2882, 2884, 2880
1708, 2879, 2882, 2884, 2880, 849, 2883, 2885, 2881
1709, 1664, 1668, 1671, 834, 2880, 2884, 2886, 2789
1710, 2880, 2884, 2886, 2789, 2881, 2885, 2887, 851
1711, 1646, 876, 1674, 1668, 2882, 2888, 2889, 2884
1712, 2882, 2888, 2889, 2884, 2883, 897, 2890, 2885
1713, 1668, 1674, 882, 1671, 2884, 2889, 2891, 2886
1714, 2884, 2889, 2891, 2886, 2885, 2890, 899, 2887
1715, 849, 2883, 2885, 2881, 2892, 2895, 2897, 2893
1716, 2892, 2895, 2897, 2893, 850, 2896, 2898, 2894
1717, 2881, 2885, 2887, 851, 2893, 2897, 2899, 1595
1718, 2893, 2897, 2899, 1595, 2894, 2898, 2900, 852
1719, 2883, 897, 2890, 2885, 2895, 2901, 2902, 2897
1720, 2895, 2901, 2902, 2897, 2896, 898, 2903, 2898
1721, 2885, 2890, 899, 2887, 2897, 2902, 2904, 2899
1722, 2897, 2902, 2904, 2899, 2898, 2903, 900, 2900
1723, 834, 1671, 2905, 2790, 2789, 2886, 2906, 2791
1724, 2789, 2886, 2906, 2791, 851, 2887, 2907, 1596
1725, 2790, 2905, 2908, 853, 2791, 2906, 2909, 2792
1726, 2791, 2906, 2909, 2792, 1596, 2907, 2910, 854
1727, 1671, 882, 2911, 2905, 2886, 2891, 2912, 2906
1728, 2886, 2891, 2912, 2906, 2887, 899, 2913, 2907
1729, 2905, 2911, 901, 2908, 2906, 2912, 2914, 2909
1730, 2906, 2912, 2914, 2909, 2907, 2913, 902, 2910
1731, 851, 2887, 2907, 1596, 1595, 2899, 2915, 1597
1732, 1595, 2899, 2915, 1597, 852, 2900, 2916, 1598
1733, 1596, 2907, 2910, 854, 1597, 2915, 2917, 1599
1734, 1597, 2915, 2917, 1599, 1598, 2916, 2918, 855
1735, 2887, 899, 2913, 2907, 2899, 2904, 2919, 2915
1736, 2899, 2904, 2919, 2915, 2900, 900, 2920, 2916
1737, 2907, 2913, 902, 2910, 2915, 2919, 2921, 2917
1738, 2915, 2919, 2921, 2917, 2916, 2920, 903, 2918
1739, 853, 901, 904, 856, 854, 902, 905, 857
1740, 854, 902, 905, 857, 855, 903, 906, 858
1741, 856, 2922, 2925, 2800, 2799, 2923, 2926, 2801
1742, 2799, 2923, 2926, 2801, 857, 2924, 2927, 2802
1743, 2800, 2925, 1732, 859, 2801, 2926, 1733, 1609
1744, 2801, 2926, 1733, 1609, 2802, 2927, 1734, 860
1745, 2922, 904, 2929, 2925, 2923, 2928, 2930, 2926
1746, 2923, 2928, 2930, 2926, 2924, 905, 2931, 2927
1747, 2925, 2929, 907, 1732, 2926, 2930, 1741, 1733
1748, 2926, 2930, 1741, 1733, 2927, 2931, 908, 1734
1749, 857, 2924, 2927, 2802, 2807, 2932, 2934, 2808
1750, 2807, 2932, 2934, 2808, 858, 2933, 2935, 2809
1751, 2802, 2927, 1734, 860, 2808, 2934, 1746, 1620
1752, 2808, 2934, 1746, 1620, 2809, 2935, 1747, 861
1753, 2924, 905, 2931, 2927, 2932, 2936, 2937, 2934
1754, 2932, 2936, 2937, 2934, 2933, 906, 2938, 2935
1755, 2927, 2931, 908, 1734, 2934, 2937, 1752, 1746
1756, 2934, 2937, 1752, 1746, 2935, 2938, 909, 1747
1757, 859, 1732, 1735, 1610, 1609, 1733, 1736, 1611
1758, 1609, 1733, 1736, 1611, 860, 1734, 1737, 1612
1759, 1610, 1735, 1738, 862, 1611, 1736, 1739, 1613
1760, 1611, 1736, 1739, 1613, 1612, 1737, 1740, 863
1761, 1732, 907, 1742, 1735, 1733, 1741, 1743, 1736
1762, 1733, 1741, 1743, 1736, 1734, 908, 1744, 1737
1763, 1735, 1742, 910, 1738, 1736, 1743, 1745, 1739
1764, 1736, 1743, 1745, 1739, 1737, 1744, 911, 1740
1765, 860, 1734, 1737, 1612, 1620, 1746, 1748, 1621
1766, 1620, 1746, 1748, 1621, 861, 1747, 1749, 1622
1767, 1612, 1737, 1740, 863, 1621, 1748, 1750, 1623
1768, 1621, 1748, 1750, 1623, 1622, 1749, 1751, 864
1769, 1734, 908, 1744, 1737, 1746, 1752, 1753, 1748
1770, 1746, 1752, 1753, 1748, 1747, 909, 1754, 1749
1771, 1737, 1744, 911, 1740, 1748, 1753, 1755, 1750
1772, 1748, 1753, 1755, 1750, 1749, 1754, 912, 1751
*NSET, NSET=CLAMP
1, 4, 5, 8, 9, 12, 13, 16, 17, 20, 21, 24, 26, 28, 30, 32
34, 36, 37, 40, 41, 44, 45, 48, 50, 52, 54, 56, 58, 60, 62, 64
66, 68, 70, 72, 74, 76, 78, 80, 82, 84, 86, 88, 90, 92, 94, 96
913, 914, 915, 916, 917, 932, 933, 934, 935, 1756, 1757, 1758, 1759, 1789, 1790, 1791
*NSET, NSET=TIP_TOP
887, 888, 891, 894, 896, 898, 900, 903, 906, 909, 912, 1698, 1730, 1754, 2862, 2878
2903, 2920, 2938
*MATERIAL, NAME=STEEL
*ELASTIC
210000, 0.3
*SOLID SECTION, ELSET=EALL, MATERIAL=STEEL
*EQUATION
3
958, 1, 1.0, 99, 1, -0.5, 100, 1, -0.5
*EQUATION
3
958, 2, 1.0, 99, 2, -0.5, 100, 2, -0.5
*EQUATION
3
958, 3, 1.0, 99, 3, -0.5, 100, 3, -0.5
*EQUATION
3
968, 1, 1.0, 100, 1, -0.5, 110, 1, -0.5
*EQUATION
3
968, 2, 1.0, 100, 2, -0.5, 110, 2, -0.5
*EQUATION
3
968, 3, 1.0, 100, 3, -0.5, 110, 3, -0.5
*EQUATION
3
973, 1, 1.0, 148, 1, -0.5, 158, 1, -0.5
*EQUATION
3
973, 2, 1.0, 148, 2, -0.5, 158, 2, -0.5
*EQUATION
3
973, 3, 1.0, 148, 3, -0.5, 158, 3, -0.5
*EQUATION
3
977, 1, 1.0, 148, 1, -0.5, 196, 1, -0.5
*EQUATION
3
977, 2, 1.0, 148, 2, -0.5, 196, 2, -0.5
*EQUATION
3
977, 3, 1.0, 148, 3, -0.5, 196, 3, -0.5
*EQUATION
5
980, 1, 1.0, 148, 1, -0.25, 196, 1, -0.25, 206, 1, -0.25, 158, 1, -0.25
*EQUATION
5
980, 2, 1.0, 148, 2, -0.25, 196, 2, -0.25, 206, 2, -0.25, 158, 2, -0.25
*EQUATION
5
980, 3, 1.0, 148, 3, -0.25, 196, 3, -0.25, 206, 3, -0.25, 158, 3, -0.25
*EQUATION
3
983, 1, 1.0, 158, 1, -0.5, 206, 1, -0.5
*EQUATION
3
983, 2, 1.0, 158, 2, -0.5, 206, 2, -0.5
*EQUATION
3
983, 3, 1.0, 158, 3, -0.5, 206, 3, -0.5
*EQUATION
3
987, 1, 1.0, 196, 1, -0.5, 206, 1, -0.5
*EQUATION
3
987, 2, 1.0, 196, 2, -0.5, 206, 2, -0.5
*EQUATION
3
987, 3, 1.0, 196, 3, -0.5, 206, 3, -0.5
*EQUATION
3
992, 1, 1.0, 387, 1, -0.5, 388, 1, -0.5
*EQUATION
3
992, 2, 1.0, 387, 2, -0.5, 388, 2, -0.5
*EQUATION
3
992, 3, 1.0, 387, 3, -0.5, 388, 3, -0.5
*EQUATION
3
996, 1, 1.0, 387, 1, -0.5, 435, 1, -0.5
*EQUATION
3
996, 2, 1.0, 387, 2, -0.5, 435, 2, -0.5
*EQUATION
3
996, 3, 1.0, 387, 3, -0.5, 435, 3, -0.5
*EQUATION
5
999, 1, 1.0, 387, 1, -0.25, 435, 1, -0.25, 436, 1, -0.25, 388, 1, -0.25
*EQUATION
5
999, 2, 1.0, 387, 2, -0.25, 435, 2, -0.25, 436, 2, -0.25, 388, 2, -0.25
*EQUATION
5
999, 3, 1.0, 387, 3, -0.25, 435, 3, -0.25, 436, 3, -0.25, 388, 3, -0.25
*EQUATION
3
1002, 1, 1.0, 388, 1, -0.5, 436, 1, -0.5
*EQUATION
3
1002, 2, 1.0, 388, 2, -0.5, 436, 2, -0.5
*EQUATION
3
1002, 3, 1.0, 388, 3, -0.5, 436, 3, -0.5
*EQUATION
3
1006, 1, 1.0, 435, 1, -0.5, 436, 1, -0.5
*EQUATION
3
1006, 2, 1.0, 435, 2, -0.5, 436, 2, -0.5
*EQUATION
3
1006, 3, 1.0, 435, 3, -0.5, 436, 3, -0.5
*EQUATION
3
1010, 1, 1.0, 388, 1, -0.5, 398, 1, -0.5
*EQUATION
3
1010, 2, 1.0, 388, 2, -0.5, 398, 2, -0.5
*EQUATION
3
1010, 3, 1.0, 388, 3, -0.5, 398, 3, -0.5
*EQUATION
5
1014, 1, 1.0, 388, 1, -0.25, 436, 1, -0.25, 446, 1, -0.25, 398, 1, -0.25
*EQUATION
5
1014, 2, 1.0, 388, 2, -0.25, 436, 2, -0.25, 446, 2, -0.25, 398, 2, -0.25
*EQUATION
5
1014, 3, 1.0, 388, 3, -0.25, 436, 3, -0.25, 446, 3, -0.25, 398, 3, -0.25
*EQUATION
3
1017, 1, 1.0, 398, 1, -0.5, 446, 1, -0.5
*EQUATION
3
1017, 2, 1.0, 398, 2, -0.5, 446, 2, -0.5
*EQUATION
3
1017, 3, 1.0, 398, 3, -0.5, 446, 3, -0.5
*EQUATION
3
1020, 1, 1.0, 436, 1, -0.5, 446, 1, -0.5
*EQUATION
3
1020, 2, 1.0, 436, 2, -0.5, 446, 2, -0.5
*EQUATION
3
1020, 3, 1.0, 436, 3, -0.5, 446, 3, -0.5
*EQUATION
3
1074, 1, 1.0, 500, 1, -0.5, 502, 1, -0.5
*EQUATION
3
1074, 2, 1.0, 500, 2, -0.5, 502, 2, -0.5
*EQUATION
3
1074, 3, 1.0, 500, 3, -0.5, 502, 3, -0.5
*EQUATION
3
1081, 1, 1.0, 500, 1, -0.5, 548, 1, -0.5
*EQUATION
3
1081, 2, 1.0, 500, 2, -0.5, 548, 2, -0.5
*EQUATION
3
1081, 3, 1.0, 500, 3, -0.5, 548, 3, -0.5
*EQUATION
5
1082, 1, 1.0, 500, 1, -0.25, 548, 1, -0.25, 550, 1, -0.25, 502, 1, -0.25
*EQUATION
5
1082, 2, 1.0, 500, 2, -0.25, 548, 2, -0.25, 550, 2, -0.25, 502, 2, -0.25
*EQUATION
5
1082, 3, 1.0, 500, 3, -0.25, 548, 3, -0.25, 550, 3, -0.25, 502, 3, -0.25
*EQUATION
3
1083, 1, 1.0, 502, 1, -0.5, 550, 1, -0.5
*EQUATION
3
1083, 2, 1.0, 502, 2, -0.5, 550, 2, -0.5
*EQUATION
3
1083, 3, 1.0, 502, 3, -0.5, 550, 3, -0.5
*EQUATION
3
1088, 1, 1.0, 548, 1, -0.5, 550, 1, -0.5
*EQUATION
3
1088, 2, 1.0, 548, 2, -0.5, 550, 2, -0.5
*EQUATION
3
1088, 3, 1.0, 548, 3, -0.5, 550, 3, -0.5
*EQUATION
3
1092, 1, 1.0, 502, 1, -0.5, 504, 1, -0.5
*EQUATION
3
1092, 2, 1.0, 502, 2, -0.5, 504, 2, -0.5
*EQUATION
3
1092, 3, 1.0, 502, 3, -0.5, 504, 3, -0.5
*EQUATION
5
1097, 1, 1.0, 502, 1, -0.25, 550, 1, -0.25, 552, 1, -0.25, 504, 1, -0.25
*EQUATION
5
1097, 2, 1.0, 502, 2, -0.25, 550, 2, -0.25, 552, 2, -0.25, 504, 2, -0.25
*EQUATION
5
1097, 3, 1.0, 502, 3, -0.25, 550, 3, -0.25, 552, 3, -0.25, 504, 3, -0.25
*EQUATION
3
1098, 1, 1.0, 504, 1, -0.5, 552, 1, -0.5
*EQUATION
3
1098, 2, 1.0, 504, 2, -0.5, 552, 2, -0.5
*EQUATION
3
1098, 3, 1.0, 504, 3, -0.5, 552, 3, -0.5
*EQUATION
3
1102, 1, 1.0, 550, 1, -0.5, 552, 1, -0.5
*EQUATION
3
1102, 2, 1.0, 550, 2, -0.5, 552, 2, -0.5
*EQUATION
3
1102, 3, 1.0, 550, 3, -0.5, 552, 3, -0.5
*EQUATION
3
1151, 1, 1.0, 571, 1, -0.5, 572, 1, -0.5
*EQUATION
3
1151, 2, 1.0, 571, 2, -0.5, 572, 2, -0.5
*EQUATION
3
1151, 3, 1.0, 571, 3, -0.5, 572, 3, -0.5
*EQUATION
3
1156, 1, 1.0, 571, 1, -0.5, 619, 1, -0.5
*EQUATION
3
1156, 2, 1.0, 571, 2, -0.5, 619, 2, -0.5
*EQUATION
3
1156, 3, 1.0, 571, 3, -0.5, 619, 3, -0.5
*EQUATION
5
1157, 1, 1.0, 571, 1, -0.25, 619, 1, -0.25, 620, 1, -0.25, 572, 1, -0.25
*EQUATION
5
1157, 2, 1.0, 571, 2, -0.25, 619, 2, -0.25, 620, 2, -0.25, 572, 2, -0.25
*EQUATION
5
1157, 3, 1.0, 571, 3, -0.25, 619, 3, -0.25, 620, 3, -0.25, 572, 3, -0.25
*EQUATION
3
1158, 1, 1.0, 572, 1, -0.5, 620, 1, -0.5
*EQUATION
3
1158, 2, 1.0, 572, 2, -0.5, 620, 2, -0.5
*EQUATION
3
1158, 3, 1.0, 572, 3, -0.5, 620, 3, -0.5
*EQUATION
3
1165, 1, 1.0, 619, 1, -0.5, 620, 1, -0.5
*EQUATION
3
1165, 2, 1.0, 619, 2, -0.5, 620, 2, -0.5
*EQUATION
3
1165, 3, 1.0, 619, 3, -0.5, 620, 3, -0.5
*EQUATION
3
1170, 1, 1.0, 572, 1, -0.5, 573, 1, -0.5
*EQUATION
3
1170, 2, 1.0, 572, 2, -0.5, 573, 2, -0.5
*EQUATION
3
1170, 3, 1.0, 572, 3, -0.5, 573, 3, -0.5
*EQUATION
5
1174, 1, 1.0, 572, 1, -0.25, 620, 1, -0.25, 621, 1, -0.25, 573, 1, -0.25
*EQUATION
5
1174, 2, 1.0, 572, 2, -0.25, 620, 2, -0.25, 621, 2, -0.25, 573, 2, -0.25
*EQUATION
5
1174, 3, 1.0, 572, 3, -0.25, 620, 3, -0.25, 621, 3, -0.25, 573, 3, -0.25
*EQUATION
3
1175, 1, 1.0, 573, 1, -0.5, 621, 1, -0.5
*EQUATION
3
1175, 2, 1.0, 573, 2, -0.5, 621, 2, -0.5
*EQUATION
3
1175, 3, 1.0, 573, 3, -0.5, 621, 3, -0.5
*EQUATION
3
1180, 1, 1.0, 620, 1, -0.5, 621, 1, -0.5
*EQUATION
3
1180, 2, 1.0, 620, 2, -0.5, 621, 2, -0.5
*EQUATION
3
1180, 3, 1.0, 620, 3, -0.5, 621, 3, -0.5
*EQUATION
3
1343, 1, 1.0, 681, 1, -0.5, 682, 1, -0.5
*EQUATION
3
1343, 2, 1.0, 681, 2, -0.5, 682, 2, -0.5
*EQUATION
3
1343, 3, 1.0, 681, 3, -0.5, 682, 3, -0.5
*EQUATION
3
1345, 1, 1.0, 683, 1, -0.5, 684, 1, -0.5
*EQUATION
3
1345, 2, 1.0, 683, 2, -0.5, 684, 2, -0.5
*EQUATION
3
1345, 3, 1.0, 683, 3, -0.5, 684, 3, -0.5
*EQUATION
3
1347, 1, 1.0, 681, 1, -0.5, 729, 1, -0.5
*EQUATION
3
1347, 2, 1.0, 681, 2, -0.5, 729, 2, -0.5
*EQUATION
3
1347, 3, 1.0, 681, 3, -0.5, 729, 3, -0.5
*EQUATION
3
1349, 1, 1.0, 683, 1, -0.5, 731, 1, -0.5
*EQUATION
3
1349, 2, 1.0, 683, 2, -0.5, 731, 2, -0.5
*EQUATION
3
1349, 3, 1.0, 683, 3, -0.5, 731, 3, -0.5
*EQUATION
5
1350, 1, 1.0, 681, 1, -0.25, 729, 1, -0.25, 730, 1, -0.25, 682, 1, -0.25
*EQUATION
5
1350, 2, 1.0, 681, 2, -0.25, 729, 2, -0.25, 730, 2, -0.25, 682, 2, -0.25
*EQUATION
5
1350, 3, 1.0, 681, 3, -0.25, 729, 3, -0.25, 730, 3, -0.25, 682, 3, -0.25
*EQUATION
5
1352, 1, 1.0, 683, 1, -0.25, 731, 1, -0.25, 732, 1, -0.25, 684, 1, -0.25
*EQUATION
5
1352, 2, 1.0, 683, 2, -0.25, 731, 2, -0.25, 732, 2, -0.25, 684, 2, -0.25
*EQUATION
5
1352, 3, 1.0, 683, 3, -0.25, 731, 3, -0.25, 732, 3, -0.25, 684, 3, -0.25
*EQUATION
3
1353, 1, 1.0, 682, 1, -0.5, 730, 1, -0.5
*EQUATION
3
1353, 2, 1.0, 682, 2, -0.5, 730, 2, -0.5
*EQUATION
3
1353, 3, 1.0, 682, 3, -0.5, 730, 3, -0.5
*EQUATION
3
1355, 1, 1.0, 684, 1, -0.5, 732, 1, -0.5
*EQUATION
3
1355, 2, 1.0, 684, 2, -0.5, 732, 2, -0.5
*EQUATION
3
1355, 3, 1.0, 684, 3, -0.5, 732, 3, -0.5
*EQUATION
3
1357, 1, 1.0, 729, 1, -0.5, 730, 1, -0.5
*EQUATION
3
1357, 2, 1.0, 729, 2, -0.5, 730, 2, -0.5
*EQUATION
3
1357, 3, 1.0, 729, 3, -0.5, 730, 3, -0.5
*EQUATION
3
1359, 1, 1.0, 731, 1, -0.5, 732, 1, -0.5
*EQUATION
3
1359, 2, 1.0, 731, 2, -0.5, 732, 2, -0.5
*EQUATION
3
1359, 3, 1.0, 731, 3, -0.5, 732, 3, -0.5
*EQUATION
3
1435, 1, 1.0, 731, 1, -0.5, 779, 1, -0.5
*EQUATION
3
1435, 2, 1.0, 731, 2, -0.5, 779, 2, -0.5
*EQUATION
3
1435, 3, 1.0, 731, 3, -0.5, 779, 3, -0.5
*EQUATION
5
1438, 1, 1.0, 731, 1, -0.25, 779, 1, -0.25, 780, 1, -0.25, 732, 1, -0.25
*EQUATION
5
1438, 2, 1.0, 731, 2, -0.25, 779, 2, -0.25, 780, 2, -0.25, 732, 2, -0.25
*EQUATION
5
1438, 3, 1.0, 731, 3, -0.25, 779, 3, -0.25, 780, 3, -0.25, 732, 3, -0.25
*EQUATION
3
1439, 1, 1.0, 730, 1, -0.5, 778, 1, -0.5
*EQUATION
3
1439, 2, 1.0, 730, 2, -0.5, 778, 2, -0.5
*EQUATION
3
1439, 3, 1.0, 730, 3, -0.5, 778, 3, -0.5
*EQUATION
3
1441, 1, 1.0, 732, 1, -0.5, 780, 1, -0.5
*EQUATION
3
1441, 2, 1.0, 732, 2, -0.5, 780, 2, -0.5
*EQUATION
3
1441, 3, 1.0, 732, 3, -0.5, 780, 3, -0.5
*EQUATION
3
1445, 1, 1.0, 779, 1, -0.5, 780, 1, -0.5
*EQUATION
3
1445, 2, 1.0, 779, 2, -0.5, 780, 2, -0.5
*EQUATION
3
1445, 3, 1.0, 779, 3, -0.5, 780, 3, -0.5
*EQUATION
3
1481, 1, 1.0, 755, 1, -0.5, 756, 1, -0.5
*EQUATION
3
1481, 2, 1.0, 755, 2, -0.5, 756, 2, -0.5
*EQUATION
3
1481, 3, 1.0, 755, 3, -0.5, 756, 3, -0.5
*EQUATION
3
1485, 1, 1.0, 758, 1, -0.5, 759, 1, -0.5
*EQUATION
3
1485, 2, 1.0, 758, 2, -0.5, 759, 2, -0.5
*EQUATION
3
1485, 3, 1.0, 758, 3, -0.5, 759, 3, -0.5
*EQUATION
3
1486, 1, 1.0, 755, 1, -0.5, 803, 1, -0.5
*EQUATION
3
1486, 2, 1.0, 755, 2, -0.5, 803, 2, -0.5
*EQUATION
3
1486, 3, 1.0, 755, 3, -0.5, 803, 3, -0.5
*EQUATION
5
1487, 1, 1.0, 755, 1, -0.25, 803, 1, -0.25, 804, 1, -0.25, 756, 1, -0.25
*EQUATION
5
1487, 2, 1.0, 755, 2, -0.25, 803, 2, -0.25, 804, 2, -0.25, 756, 2, -0.25
*EQUATION
5
1487, 3, 1.0, 755, 3, -0.25, 803, 3, -0.25, 804, 3, -0.25, 756, 3, -0.25
*EQUATION
3
1488, 1, 1.0, 756, 1, -0.5, 804, 1, -0.5
*EQUATION
3
1488, 2, 1.0, 756, 2, -0.5, 804, 2, -0.5
*EQUATION
3
1488, 3, 1.0, 756, 3, -0.5, 804, 3, -0.5
*EQUATION
3
1492, 1, 1.0, 758, 1, -0.5, 806, 1, -0.5
*EQUATION
3
1492, 2, 1.0, 758, 2, -0.5, 806, 2, -0.5
*EQUATION
3
1492, 3, 1.0, 758, 3, -0.5, 806, 3, -0.5
*EQUATION
5
1493, 1, 1.0, 758, 1, -0.25, 806, 1, -0.25, 807, 1, -0.25, 759, 1, -0.25
*EQUATION
5
1493, 2, 1.0, 758, 2, -0.25, 806, 2, -0.25, 807, 2, -0.25, 759, 2, -0.25
*EQUATION
5
1493, 3, 1.0, 758, 3, -0.25, 806, 3, -0.25, 807, 3, -0.25, 759, 3, -0.25
*EQUATION
3
1494, 1, 1.0, 759, 1, -0.5, 807, 1, -0.5
*EQUATION
3
1494, 2, 1.0, 759, 2, -0.5, 807, 2, -0.5
*EQUATION
3
1494, 3, 1.0, 759, 3, -0.5, 807, 3, -0.5
*EQUATION
3
1495, 1, 1.0, 803, 1, -0.5, 804, 1, -0.5
*EQUATION
3
1495, 2, 1.0, 803, 2, -0.5, 804, 2, -0.5
*EQUATION
3
1495, 3, 1.0, 803, 3, -0.5, 804, 3, -0.5
*EQUATION
3
1499, 1, 1.0, 806, 1, -0.5, 807, 1, -0.5
*EQUATION
3
1499, 2, 1.0, 806, 2, -0.5, 807, 2, -0.5
*EQUATION
3
1499, 3, 1.0, 806, 3, -0.5, 807, 3, -0.5
*EQUATION
3
1540, 1, 1.0, 779, 1, -0.5, 827, 1, -0.5
*EQUATION
3
1540, 2, 1.0, 779, 2, -0.5, 827, 2, -0.5
*EQUATION
3
1540, 3, 1.0, 779, 3, -0.5, 827, 3, -0.5
*EQUATION
5
1543, 1, 1.0, 779, 1, -0.25, 827, 1, -0.25, 828, 1, -0.25, 780, 1, -0.25
*EQUATION
5
1543, 2, 1.0, 779, 2, -0.25, 827, 2, -0.25, 828, 2, -0.25, 780, 2, -0.25
*EQUATION
5
1543, 3, 1.0, 779, 3, -0.25, 827, 3, -0.25, 828, 3, -0.25, 780, 3, -0.25
*EQUATION
3
1544, 1, 1.0, 778, 1, -0.5, 826, 1, -0.5
*EQUATION
3
1544, 2, 1.0, 778, 2, -0.5, 826, 2, -0.5
*EQUATION
3
1544, 3, 1.0, 778, 3, -0.5, 826, 3, -0.5
*EQUATION
3
1546, 1, 1.0, 780, 1, -0.5, 828, 1, -0.5
*EQUATION
3
1546, 2, 1.0, 780, 2, -0.5, 828, 2, -0.5
*EQUATION
3
1546, 3, 1.0, 780, 3, -0.5, 828, 3, -0.5
*EQUATION
3
1550, 1, 1.0, 827, 1, -0.5, 828, 1, -0.5
*EQUATION
3
1550, 2, 1.0, 827, 2, -0.5, 828, 2, -0.5
*EQUATION
3
1550, 3, 1.0, 827, 3, -0.5, 828, 3, -0.5
*EQUATION
3
1586, 1, 1.0, 803, 1, -0.5, 851, 1, -0.5
*EQUATION
3
1586, 2, 1.0, 803, 2, -0.5, 851, 2, -0.5
*EQUATION
3
1586, 3, 1.0, 803, 3, -0.5, 851, 3, -0.5
*EQUATION
5
1587, 1, 1.0, 803, 1, -0.25, 851, 1, -0.25, 852, 1, -0.25, 804, 1, -0.25
*EQUATION
5
1587, 2, 1.0, 803, 2, -0.25, 851, 2, -0.25, 852, 2, -0.25, 804, 2, -0.25
*EQUATION
5
1587, 3, 1.0, 803, 3, -0.25, 851, 3, -0.25, 852, 3, -0.25, 804, 3, -0.25
*EQUATION
3
1588, 1, 1.0, 804, 1, -0.5, 852, 1, -0.5
*EQUATION
3
1588, 2, 1.0, 804, 2, -0.5, 852, 2, -0.5
*EQUATION
3
1588, 3, 1.0, 804, 3, -0.5, 852, 3, -0.5
*EQUATION
3
1592, 1, 1.0, 806, 1, -0.5, 854, 1, -0.5
*EQUATION
3
1592, 2, 1.0, 806, 2, -0.5, 854, 2, -0.5
*EQUATION
3
1592, 3, 1.0, 806, 3, -0.5, 854, 3, -0.5
*EQUATION
5
1593, 1, 1.0, 806, 1, -0.25, 854, 1, -0.25, 855, 1, -0.25, 807, 1, -0.25
*EQUATION
5
1593, 2, 1.0, 806, 2, -0.25, 854, 2, -0.25, 855, 2, -0.25, 807, 2, -0.25
*EQUATION
5
1593, 3, 1.0, 806, 3, -0.25, 854, 3, -0.25, 855, 3, -0.25, 807, 3, -0.25
*EQUATION
3
1594, 1, 1.0, 807, 1, -0.5, 855, 1, -0.5
*EQUATION
3
1594, 2, 1.0, 807, 2, -0.5, 855, 2, -0.5
*EQUATION
3
1594, 3, 1.0, 807, 3, -0.5, 855, 3, -0.5
*EQUATION
3
1595, 1, 1.0, 851, 1, -0.5, 852, 1, -0.5
*EQUATION
3
1595, 2, 1.0, 851, 2, -0.5, 852, 2, -0.5
*EQUATION
3
1595, 3, 1.0, 851, 3, -0.5, 852, 3, -0.5
*EQUATION
3
1599, 1, 1.0, 854, 1, -0.5, 855, 1, -0.5
*EQUATION
3
1599, 2, 1.0, 854, 2, -0.5, 855, 2, -0.5
*EQUATION
3
1599, 3, 1.0, 854, 3, -0.5, 855, 3, -0.5
*EQUATION
3
1640, 1, 1.0, 827, 1, -0.5, 875, 1, -0.5
*EQUATION
3
1640, 2, 1.0, 827, 2, -0.5, 875, 2, -0.5
*EQUATION
3
1640, 3, 1.0, 827, 3, -0.5, 875, 3, -0.5
*EQUATION
5
1643, 1, 1.0, 827, 1, -0.25, 875, 1, -0.25, 876, 1, -0.25, 828, 1, -0.25
*EQUATION
5
1643, 2, 1.0, 827, 2, -0.25, 875, 2, -0.25, 876, 2, -0.25, 828, 2, -0.25
*EQUATION
5
1643, 3, 1.0, 827, 3, -0.25, 875, 3, -0.25, 876, 3, -0.25, 828, 3, -0.25
*EQUATION
3
1646, 1, 1.0, 828, 1, -0.5, 876, 1, -0.5
*EQUATION
3
1646, 2, 1.0, 828, 2, -0.5, 876, 2, -0.5
*EQUATION
3
1646, 3, 1.0, 828, 3, -0.5, 876, 3, -0.5
*EQUATION
3
1650, 1, 1.0, 875, 1, -0.5, 876, 1, -0.5
*EQUATION
3
1650, 2, 1.0, 875, 2, -0.5, 876, 2, -0.5
*EQUATION
3
1650, 3, 1.0, 875, 3, -0.5, 876, 3, -0.5
*EQUATION
3
1662, 1, 1.0, 826, 1, -0.5, 833, 1, -0.5
*EQUATION
3
1662, 2, 1.0, 826, 2, -0.5, 833, 2, -0.5
*EQUATION
3
1662, 3, 1.0, 826, 3, -0.5, 833, 3, -0.5
*EQUATION
3
1664, 1, 1.0, 828, 1, -0.5, 834, 1, -0.5
*EQUATION
3
1664, 2, 1.0, 828, 2, -0.5, 834, 2, -0.5
*EQUATION
3
1664, 3, 1.0, 828, 3, -0.5, 834, 3, -0.5
*EQUATION
3
1700, 1, 1.0, 844, 1, -0.5, 845, 1, -0.5
*EQUATION
3
1700, 2, 1.0, 844, 2, -0.5, 845, 2, -0.5
*EQUATION
3
1700, 3, 1.0, 844, 3, -0.5, 845, 3, -0.5
*EQUATION
3
1704, 1, 1.0, 827, 1, -0.5, 847, 1, -0.5
*EQUATION
3
1704, 2, 1.0, 827, 2, -0.5, 847, 2, -0.5
*EQUATION
3
1704, 3, 1.0, 827, 3, -0.5, 847, 3, -0.5
*EQUATION
5
1711, 1, 1.0, 827, 1, -0.25, 875, 1, -0.25, 895, 1, -0.25, 847, 1, -0.25
*EQUATION
5
1711, 2, 1.0, 827, 2, -0.25, 875, 2, -0.25, 895, 2, -0.25, 847, 2, -0.25
*EQUATION
5
1711, 3, 1.0, 827, 3, -0.25, 875, 3, -0.25, 895, 3, -0.25, 847, 3, -0.25
*EQUATION
3
1712, 1, 1.0, 847, 1, -0.5, 895, 1, -0.5
*EQUATION
3
1712, 2, 1.0, 847, 2, -0.5, 895, 2, -0.5
*EQUATION
3
1712, 3, 1.0, 847, 3, -0.5, 895, 3, -0.5
*EQUATION
3
1717, 1, 1.0, 875, 1, -0.5, 895, 1, -0.5
*EQUATION
3
1717, 2, 1.0, 875, 2, -0.5, 895, 2, -0.5
*EQUATION
3
1717, 3, 1.0, 875, 3, -0.5, 895, 3, -0.5
*EQUATION
3
1718, 1, 1.0, 845, 1, -0.5, 846, 1, -0.5
*EQUATION
3
1718, 2, 1.0, 845, 2, -0.5, 846, 2, -0.5
*EQUATION
3
1718, 3, 1.0, 845, 3, -0.5, 846, 3, -0.5
*EQUATION
3
1721, 1, 1.0, 847, 1, -0.5, 848, 1, -0.5
*EQUATION
3
1721, 2, 1.0, 847, 2, -0.5, 848, 2, -0.5
*EQUATION
3
1721, 3, 1.0, 847, 3, -0.5, 848, 3, -0.5
*EQUATION
5
1726, 1, 1.0, 847, 1, -0.25, 895, 1, -0.25, 896, 1, -0.25, 848, 1, -0.25
*EQUATION
5
1726, 2, 1.0, 847, 2, -0.25, 895, 2, -0.25, 896, 2, -0.25, 848, 2, -0.25
*EQUATION
5
1726, 3, 1.0, 847, 3, -0.25, 895, 3, -0.25, 896, 3, -0.25, 848, 3, -0.25
*EQUATION
3
1727, 1, 1.0, 848, 1, -0.5, 896, 1, -0.5
*EQUATION
3
1727, 2, 1.0, 848, 2, -0.5, 896, 2, -0.5
*EQUATION
3
1727, 3, 1.0, 848, 3, -0.5, 896, 3, -0.5
*EQUATION
3
1731, 1, 1.0, 895, 1, -0.5, 896, 1, -0.5
*EQUATION
3
1731, 2, 1.0, 895, 2, -0.5, 896, 2, -0.5
*EQUATION
3
1731, 3, 1.0, 895, 3, -0.5, 896, 3, -0.5
*EQUATION
3
1761, 1, 1.0, 9, 1, -0.5, 10, 1, -0.5
*EQUATION
3
1761, 2, 1.0, 9, 2, -0.5, 10, 2, -0.5
*EQUATION
3
1761, 3, 1.0, 9, 3, -0.5, 10, 3, -0.5
*EQUATION
5
1763, 1, 1.0, 9, 1, -0.25, 10, 1, -0.25, 11, 1, -0.25, 12, 1, -0.25
*EQUATION
5
1763, 2, 1.0, 9, 2, -0.25, 10, 2, -0.25, 11, 2, -0.25, 12, 2, -0.25
*EQUATION
5
1763, 3, 1.0, 9, 3, -0.25, 10, 3, -0.25, 11, 3, -0.25, 12, 3, -0.25
*EQUATION
3
1765, 1, 1.0, 11, 1, -0.5, 12, 1, -0.5
*EQUATION
3
1765, 2, 1.0, 11, 2, -0.5, 12, 2, -0.5
*EQUATION
3
1765, 3, 1.0, 11, 3, -0.5, 12, 3, -0.5
*EQUATION
3
1768, 1, 1.0, 10, 1, -0.5, 11, 1, -0.5
*EQUATION
3
1768, 2, 1.0, 10, 2, -0.5, 11, 2, -0.5
*EQUATION
3
1768, 3, 1.0, 10, 3, -0.5, 11, 3, -0.5
*EQUATION
3
1770, 1, 1.0, 936, 1, -0.5, 937, 1, -0.5
*EQUATION
3
1770, 2, 1.0, 936, 2, -0.5, 937, 2, -0.5
*EQUATION
3
1770, 3, 1.0, 936, 3, -0.5, 937, 3, -0.5
*EQUATION
3
1771, 1, 1.0, 936, 1, -0.5, 939, 1, -0.5
*EQUATION
3
1771, 2, 1.0, 936, 2, -0.5, 939, 2, -0.5
*EQUATION
3
1771, 3, 1.0, 936, 3, -0.5, 939, 3, -0.5
*EQUATION
5
1772, 1, 1.0, 936, 1, -0.25, 939, 1, -0.25, 940, 1, -0.25, 937, 1, -0.25
*EQUATION
5
1772, 2, 1.0, 936, 2, -0.25, 939, 2, -0.25, 940, 2, -0.25, 937, 2, -0.25
*EQUATION
5
1772, 3, 1.0, 936, 3, -0.25, 939, 3, -0.25, 940, 3, -0.25, 937, 3, -0.25
*EQUATION
3
1773, 1, 1.0, 937, 1, -0.5, 940, 1, -0.5
*EQUATION
3
1773, 2, 1.0, 937, 2, -0.5, 940, 2, -0.5
*EQUATION
3
1773, 3, 1.0, 937, 3, -0.5, 940, 3, -0.5
*EQUATION
3
1774, 1, 1.0, 939, 1, -0.5, 940, 1, -0.5
*EQUATION
3
1774, 2, 1.0, 939, 2, -0.5, 940, 2, -0.5
*EQUATION
3
1774, 3, 1.0, 939, 3, -0.5, 940, 3, -0.5
*EQUATION
3
1775, 1, 1.0, 936, 1, -0.5, 942, 1, -0.5
*EQUATION
3
1775, 2, 1.0, 936, 2, -0.5, 942, 2, -0.5
*EQUATION
3
1775, 3, 1.0, 936, 3, -0.5, 942, 3, -0.5
*EQUATION
5
1776, 1, 1.0, 936, 1, -0.25, 942, 1, -0.25, 943, 1, -0.25, 937, 1, -0.25
*EQUATION
5
1776, 2, 1.0, 936, 2, -0.25, 942, 2, -0.25, 943, 2, -0.25, 937, 2, -0.25
*EQUATION
5
1776, 3, 1.0, 936, 3, -0.25, 942, 3, -0.25, 943, 3, -0.25, 937, 3, -0.25
*EQUATION
3
1777, 1, 1.0, 937, 1, -0.5, 943, 1, -0.5
*EQUATION
3
1777, 2, 1.0, 937, 2, -0.5, 943, 2, -0.5
*EQUATION
3
1777, 3, 1.0, 937, 3, -0.5, 943, 3, -0.5
*EQUATION
5
1780, 1, 1.0, 937, 1, -0.25, 943, 1, -0.25, 945, 1, -0.25, 940, 1, -0.25
*EQUATION
5
1780, 2, 1.0, 937, 2, -0.25, 943, 2, -0.25, 945, 2, -0.25, 940, 2, -0.25
*EQUATION
5
1780, 3, 1.0, 937, 3, -0.25, 943, 3, -0.25, 945, 3, -0.25, 940, 3, -0.25
*EQUATION
3
1783, 1, 1.0, 940, 1, -0.5, 945, 1, -0.5
*EQUATION
3
1783, 2, 1.0, 940, 2, -0.5, 945, 2, -0.5
*EQUATION
3
1783, 3, 1.0, 940, 3, -0.5, 945, 3, -0.5
*EQUATION
3
1784, 1, 1.0, 942, 1, -0.5, 943, 1, -0.5
*EQUATION
3
1784, 2, 1.0, 942, 2, -0.5, 943, 2, -0.5
*EQUATION
3
1784, 3, 1.0, 942, 3, -0.5, 943, 3, -0.5
*EQUATION
3
1785, 1, 1.0, 25, 1, -0.5, 942, 1, -0.5
*EQUATION
3
1785, 2, 1.0, 25, 2, -0.5, 942, 2, -0.5
*EQUATION
3
1785, 3, 1.0, 25, 3, -0.5, 942, 3, -0.5
*EQUATION
5
1786, 1, 1.0, 942, 1, -0.25, 25, 1, -0.25, 945, 1, -0.25, 943, 1, -0.25
*EQUATION
5
1786, 2, 1.0, 942, 2, -0.25, 25, 2, -0.25, 945, 2, -0.25, 943, 2, -0.25
*EQUATION
5
1786, 3, 1.0, 942, 3, -0.25, 25, 3, -0.25, 945, 3, -0.25, 943, 3, -0.25
*EQUATION
3
1787, 1, 1.0, 943, 1, -0.5, 945, 1, -0.5
*EQUATION
3
1787, 2, 1.0, 943, 2, -0.5, 945, 2, -0.5
*EQUATION
3
1787, 3, 1.0, 943, 3, -0.5, 945, 3, -0.5
*EQUATION
3
1788, 1, 1.0, 25, 1, -0.5, 945, 1, -0.5
*EQUATION
3
1788, 2, 1.0, 25, 2, -0.5, 945, 2, -0.5
*EQUATION
3
1788, 3, 1.0, 25, 3, -0.5, 945, 3, -0.5
*EQUATION
5
1793, 1, 1.0, 12, 1, -0.25, 11, 1, -0.25, 29, 1, -0.25, 30, 1, -0.25
*EQUATION
5
1793, 2, 1.0, 12, 2, -0.25, 11, 2, -0.25, 29, 2, -0.25, 30, 2, -0.25
*EQUATION
5
1793, 3, 1.0, 12, 3, -0.25, 11, 3, -0.25, 29, 3, -0.25, 30, 3, -0.25
*EQUATION
3
1795, 1, 1.0, 29, 1, -0.5, 30, 1, -0.5
*EQUATION
3
1795, 2, 1.0, 29, 2, -0.5, 30, 2, -0.5
*EQUATION
3
1795, 3, 1.0, 29, 3, -0.5, 30, 3, -0.5
*EQUATION
3
1797, 1, 1.0, 11, 1, -0.5, 29, 1, -0.5
*EQUATION
3
1797, 2, 1.0, 11, 2, -0.5, 29, 2, -0.5
*EQUATION
3
1797, 3, 1.0, 11, 3, -0.5, 29, 3, -0.5
*EQUATION
3
1800, 1, 1.0, 10, 1, -0.5, 101, 1, -0.5
*EQUATION
3
1800, 2, 1.0, 10, 2, -0.5, 101, 2, -0.5
*EQUATION
3
1800, 3, 1.0, 10, 3, -0.5, 101, 3, -0.5
*EQUATION
5
1802, 1, 1.0, 10, 1, -0.25, 101, 1, -0.25, 102, 1, -0.25, 11, 1, -0.25
*EQUATION
5
1802, 2, 1.0, 10, 2, -0.25, 101, 2, -0.25, 102, 2, -0.25, 11, 2, -0.25
*EQUATION
5
1802, 3, 1.0, 10, 3, -0.25, 101, 3, -0.25, 102, 3, -0.25, 11, 3, -0.25
*EQUATION
3
1804, 1, 1.0, 11, 1, -0.5, 102, 1, -0.5
*EQUATION
3
1804, 2, 1.0, 11, 2, -0.5, 102, 2, -0.5
*EQUATION
3
1804, 3, 1.0, 11, 3, -0.5, 102, 3, -0.5
*EQUATION
3
1805, 1, 1.0, 99, 1, -0.5, 101, 1, -0.5
*EQUATION
3
1805, 2, 1.0, 99, 2, -0.5, 101, 2, -0.5
*EQUATION
3
1805, 3, 1.0, 99, 3, -0.5, 101, 3, -0.5
*EQUATION
5
1806, 1, 1.0, 99, 1, -0.25, 100, 1, -0.25, 102, 1, -0.25, 101, 1, -0.25
*EQUATION
5
1806, 2, 1.0, 99, 2, -0.25, 100, 2, -0.25, 102, 2, -0.25, 101, 2, -0.25
*EQUATION
5
1806, 3, 1.0, 99, 3, -0.25, 100, 3, -0.25, 102, 3, -0.25, 101, 3, -0.25
*EQUATION
3
1807, 1, 1.0, 101, 1, -0.5, 102, 1, -0.5
*EQUATION
3
1807, 2, 1.0, 101, 2, -0.5, 102, 2, -0.5
*EQUATION
3
1807, 3, 1.0, 101, 3, -0.5, 102, 3, -0.5
*EQUATION
3
1808, 1, 1.0, 100, 1, -0.5, 102, 1, -0.5
*EQUATION
3
1808, 2, 1.0, 100, 2, -0.5, 102, 2, -0.5
*EQUATION
3
1808, 3, 1.0, 100, 3, -0.5, 102, 3, -0.5
*EQUATION
3
1809, 1, 1.0, 18, 1, -0.5, 22, 1, -0.5
*EQUATION
3
1809, 2, 1.0, 18, 2, -0.5, 22, 2, -0.5
*EQUATION
3
1809, 3, 1.0, 18, 3, -0.5, 22, 3, -0.5
*EQUATION
3
1810, 1, 1.0, 18, 1, -0.5, 19, 1, -0.5
*EQUATION
3
1810, 2, 1.0, 18, 2, -0.5, 19, 2, -0.5
*EQUATION
3
1810, 3, 1.0, 18, 3, -0.5, 19, 3, -0.5
*EQUATION
5
1811, 1, 1.0, 18, 1, -0.25, 19, 1, -0.25, 23, 1, -0.25, 22, 1, -0.25
*EQUATION
5
1811, 2, 1.0, 18, 2, -0.25, 19, 2, -0.25, 23, 2, -0.25, 22, 2, -0.25
*EQUATION
5
1811, 3, 1.0, 18, 3, -0.25, 19, 3, -0.25, 23, 3, -0.25, 22, 3, -0.25
*EQUATION
3
1812, 1, 1.0, 22, 1, -0.5, 23, 1, -0.5
*EQUATION
3
1812, 2, 1.0, 22, 2, -0.5, 23, 2, -0.5
*EQUATION
3
1812, 3, 1.0, 22, 3, -0.5, 23, 3, -0.5
*EQUATION
3
1813, 1, 1.0, 19, 1, -0.5, 23, 1, -0.5
*EQUATION
3
1813, 2, 1.0, 19, 2, -0.5, 23, 2, -0.5
*EQUATION
3
1813, 3, 1.0, 19, 3, -0.5, 23, 3, -0.5
*EQUATION
3
1814, 1, 1.0, 18, 1, -0.5, 105, 1, -0.5
*EQUATION
3
1814, 2, 1.0, 18, 2, -0.5, 105, 2, -0.5
*EQUATION
3
1814, 3, 1.0, 18, 3, -0.5, 105, 3, -0.5
*EQUATION
3
1816, 1, 1.0, 22, 1, -0.5, 107, 1, -0.5
*EQUATION
3
1816, 2, 1.0, 22, 2, -0.5, 107, 2, -0.5
*EQUATION
3
1816, 3, 1.0, 22, 3, -0.5, 107, 3, -0.5
*EQUATION
5
1817, 1, 1.0, 18, 1, -0.25, 105, 1, -0.25, 106, 1, -0.25, 19, 1, -0.25
*EQUATION
5
1817, 2, 1.0, 18, 2, -0.25, 105, 2, -0.25, 106, 2, -0.25, 19, 2, -0.25
*EQUATION
5
1817, 3, 1.0, 18, 3, -0.25, 105, 3, -0.25, 106, 3, -0.25, 19, 3, -0.25
*EQUATION
5
1819, 1, 1.0, 22, 1, -0.25, 107, 1, -0.25, 108, 1, -0.25, 23, 1, -0.25
*EQUATION
5
1819, 2, 1.0, 22, 2, -0.25, 107, 2, -0.25, 108, 2, -0.25, 23, 2, -0.25
*EQUATION
5
1819, 3, 1.0, 22, 3, -0.25, 107, 3, -0.25, 108, 3, -0.25, 23, 3, -0.25
*EQUATION
3
1820, 1, 1.0, 19, 1, -0.5, 106, 1, -0.5
*EQUATION
3
1820, 2, 1.0, 19, 2, -0.5, 106, 2, -0.5
*EQUATION
3
1820, 3, 1.0, 19, 3, -0.5, 106, 3, -0.5
*EQUATION
5
1821, 1, 1.0, 19, 1, -0.25, 106, 1, -0.25, 108, 1, -0.25, 23, 1, -0.25
*EQUATION
5
1821, 2, 1.0, 19, 2, -0.25, 106, 2, -0.25, 108, 2, -0.25, 23, 2, -0.25
*EQUATION
5
1821, 3, 1.0, 19, 3, -0.25, 106, 3, -0.25, 108, 3, -0.25, 23, 3, -0.25
*EQUATION
3
1822, 1, 1.0, 23, 1, -0.5, 108, 1, -0.5
*EQUATION
3
1822, 2, 1.0, 23, 2, -0.5, 108, 2, -0.5
*EQUATION
3
1822, 3, 1.0, 23, 3, -0.5, 108, 3, -0.5
*EQUATION
3
1823, 1, 1.0, 105, 1, -0.5, 107, 1, -0.5
*EQUATION
3
1823, 2, 1.0, 105, 2, -0.5, 107, 2, -0.5
*EQUATION
3
1823, 3, 1.0, 105, 3, -0.5, 107, 3, -0.5
*EQUATION
3
1824, 1, 1.0, 105, 1, -0.5, 106, 1, -0.5
*EQUATION
3
1824, 2, 1.0, 105, 2, -0.5, 106, 2, -0.5
*EQUATION
3
1824, 3, 1.0, 105, 3, -0.5, 106, 3, -0.5
*EQUATION
5
1825, 1, 1.0, 105, 1, -0.25, 106, 1, -0.25, 108, 1, -0.25, 107, 1, -0.25
*EQUATION
5
1825, 2, 1.0, 105, 2, -0.25, 106, 2, -0.25, 108, 2, -0.25, 107, 2, -0.25
*EQUATION
5
1825, 3, 1.0, 105, 3, -0.25, 106, 3, -0.25, 108, 3, -0.25, 107, 3, -0.25
*EQUATION
3
1826, 1, 1.0, 107, 1, -0.5, 108, 1, -0.5
*EQUATION
3
1826, 2, 1.0, 107, 2, -0.5, 108, 2, -0.5
*EQUATION
3
1826, 3, 1.0, 107, 3, -0.5, 108, 3, -0.5
*EQUATION
3
1827, 1, 1.0, 106, 1, -0.5, 108, 1, -0.5
*EQUATION
3
1827, 2, 1.0, 106, 2, -0.5, 108, 2, -0.5
*EQUATION
3
1827, 3, 1.0, 106, 3, -0.5, 108, 3, -0.5
*EQUATION
5
1829, 1, 1.0, 11, 1, -0.25, 102, 1, -0.25, 111, 1, -0.25, 29, 1, -0.25
*EQUATION
5
1829, 2, 1.0, 11, 2, -0.25, 102, 2, -0.25, 111, 2, -0.25, 29, 2, -0.25
*EQUATION
5
1829, 3, 1.0, 11, 3, -0.25, 102, 3, -0.25, 111, 3, -0.25, 29, 3, -0.25
*EQUATION
3
1831, 1, 1.0, 29, 1, -0.5, 111, 1, -0.5
*EQUATION
3
1831, 2, 1.0, 29, 2, -0.5, 111, 2, -0.5
*EQUATION
3
1831, 3, 1.0, 29, 3, -0.5, 111, 3, -0.5
*EQUATION
5
1832, 1, 1.0, 100, 1, -0.25, 110, 1, -0.25, 111, 1, -0.25, 102, 1, -0.25
*EQUATION
5
1832, 2, 1.0, 100, 2, -0.25, 110, 2, -0.25, 111, 2, -0.25, 102, 2, -0.25
*EQUATION
5
1832, 3, 1.0, 100, 3, -0.25, 110, 3, -0.25, 111, 3, -0.25, 102, 3, -0.25
*EQUATION
3
1833, 1, 1.0, 102, 1, -0.5, 111, 1, -0.5
*EQUATION
3
1833, 2, 1.0, 102, 2, -0.5, 111, 2, -0.5
*EQUATION
3
1833, 3, 1.0, 102, 3, -0.5, 111, 3, -0.5
*EQUATION
3
1834, 1, 1.0, 110, 1, -0.5, 111, 1, -0.5
*EQUATION
3
1834, 2, 1.0, 110, 2, -0.5, 111, 2, -0.5
*EQUATION
3
1834, 3, 1.0, 110, 3, -0.5, 111, 3, -0.5
*EQUATION
3
1837, 1, 1.0, 99, 1, -0.5, 147, 1, -0.5
*EQUATION
3
1837, 2, 1.0, 99, 2, -0.5, 147, 2, -0.5
*EQUATION
3
1837, 3, 1.0, 99, 3, -0.5, 147, 3, -0.5
*EQUATION
5
1840, 1, 1.0, 99, 1, -0.25, 147, 1, -0.25, 148, 1, -0.25, 100, 1, -0.25
*EQUATION
5
1840, 2, 1.0, 99, 2, -0.25, 147, 2, -0.25, 148, 2, -0.25, 100, 2, -0.25
*EQUATION
5
1840, 3, 1.0, 99, 3, -0.25, 147, 3, -0.25, 148, 3, -0.25, 100, 3, -0.25
*EQUATION
3
1843, 1, 1.0, 100, 1, -0.5, 148, 1, -0.5
*EQUATION
3
1843, 2, 1.0, 100, 2, -0.5, 148, 2, -0.5
*EQUATION
3
1843, 3, 1.0, 100, 3, -0.5, 148, 3, -0.5
*EQUATION
3
1847, 1, 1.0, 147, 1, -0.5, 148, 1, -0.5
*EQUATION
3
1847, 2, 1.0, 147, 2, -0.5, 148, 2, -0.5
*EQUATION
3
1847, 3, 1.0, 147, 3, -0.5, 148, 3, -0.5
*EQUATION
5
1850, 1, 1.0, 100, 1, -0.25, 148, 1, -0.25, 158, 1, -0.25, 110, 1, -0.25
*EQUATION
5
1850, 2, 1.0, 100, 2, -0.25, 148, 2, -0.25, 158, 2, -0.25, 110, 2, -0.25
*EQUATION
5
1850, 3, 1.0, 100, 3, -0.25, 148, 3, -0.25, 158, 3, -0.25, 110, 3, -0.25
*EQUATION
3
1853, 1, 1.0, 110, 1, -0.5, 158, 1, -0.5
*EQUATION
3
1853, 2, 1.0, 110, 2, -0.5, 158, 2, -0.5
*EQUATION
3
1853, 3, 1.0, 110, 3, -0.5, 158, 3, -0.5
*EQUATION
3
1856, 1, 1.0, 147, 1, -0.5, 195, 1, -0.5
*EQUATION
3
1856, 2, 1.0, 147, 2, -0.5, 195, 2, -0.5
*EQUATION
3
1856, 3, 1.0, 147, 3, -0.5, 195, 3, -0.5
*EQUATION
5
1859, 1, 1.0, 147, 1, -0.25, 195, 1, -0.25, 196, 1, -0.25, 148, 1, -0.25
*EQUATION
5
1859, 2, 1.0, 147, 2, -0.25, 195, 2, -0.25, 196, 2, -0.25, 148, 2, -0.25
*EQUATION
5
1859, 3, 1.0, 147, 3, -0.25, 195, 3, -0.25, 196, 3, -0.25, 148, 3, -0.25
*EQUATION
3
1863, 1, 1.0, 195, 1, -0.5, 196, 1, -0.5
*EQUATION
3
1863, 2, 1.0, 195, 2, -0.5, 196, 2, -0.5
*EQUATION
3
1863, 3, 1.0, 195, 3, -0.5, 196, 3, -0.5
*EQUATION
3
1866, 1, 1.0, 195, 1, -0.5, 243, 1, -0.5
*EQUATION
3
1866, 2, 1.0, 195, 2, -0.5, 243, 2, -0.5
*EQUATION
3
1866, 3, 1.0, 195, 3, -0.5, 243, 3, -0.5
*EQUATION
5
1869, 1, 1.0, 195, 1, -0.25, 243, 1, -0.25, 244, 1, -0.25, 196, 1, -0.25
*EQUATION
5
1869, 2, 1.0, 195, 2, -0.25, 243, 2, -0.25, 244, 2, -0.25, 196, 2, -0.25
*EQUATION
5
1869, 3, 1.0, 195, 3, -0.25, 243, 3, -0.25, 244, 3, -0.25, 196, 3, -0.25
*EQUATION
3
1872, 1, 1.0, 196, 1, -0.5, 244, 1, -0.5
*EQUATION
3
1872, 2, 1.0, 196, 2, -0.5, 244, 2, -0.5
*EQUATION
3
1872, 3, 1.0, 196, 3, -0.5, 244, 3, -0.5
*EQUATION
3
1876, 1, 1.0, 243, 1, -0.5, 244, 1, -0.5
*EQUATION
3
1876, 2, 1.0, 243, 2, -0.5, 244, 2, -0.5
*EQUATION
3
1876, 3, 1.0, 243, 3, -0.5, 244, 3, -0.5
*EQUATION
5
1880, 1, 1.0, 196, 1, -0.25, 244, 1, -0.25, 254, 1, -0.25, 206, 1, -0.25
*EQUATION
5
1880, 2, 1.0, 196, 2, -0.25, 244, 2, -0.25, 254, 2, -0.25, 206, 2, -0.25
*EQUATION
5
1880, 3, 1.0, 196, 3, -0.25, 244, 3, -0.25, 254, 3, -0.25, 206, 3, -0.25
*EQUATION
3
1883, 1, 1.0, 206, 1, -0.5, 254, 1, -0.5
*EQUATION
3
1883, 2, 1.0, 206, 2, -0.5, 254, 2, -0.5
*EQUATION
3
1883, 3, 1.0, 206, 3, -0.5, 254, 3, -0.5
*EQUATION
3
1886, 1, 1.0, 244, 1, -0.5, 254, 1, -0.5
*EQUATION
3
1886, 2, 1.0, 244, 2, -0.5, 254, 2, -0.5
*EQUATION
3
1886, 3, 1.0, 244, 3, -0.5, 254, 3, -0.5
*EQUATION
3
1890, 1, 1.0, 243, 1, -0.5, 291, 1, -0.5
*EQUATION
3
1890, 2, 1.0, 243, 2, -0.5, 291, 2, -0.5
*EQUATION
3
1890, 3, 1.0, 243, 3, -0.5, 291, 3, -0.5
*EQUATION
5
1893, 1, 1.0, 243, 1, -0.25, 291, 1, -0.25, 292, 1, -0.25, 244, 1, -0.25
*EQUATION
5
1893, 2, 1.0, 243, 2, -0.25, 291, 2, -0.25, 292, 2, -0.25, 244, 2, -0.25
*EQUATION
5
1893, 3, 1.0, 243, 3, -0.25, 291, 3, -0.25, 292, 3, -0.25, 244, 3, -0.25
*EQUATION
3
1896, 1, 1.0, 244, 1, -0.5, 292, 1, -0.5
*EQUATION
3
1896, 2, 1.0, 244, 2, -0.5, 292, 2, -0.5
*EQUATION
3
1896, 3, 1.0, 244, 3, -0.5, 292, 3, -0.5
*EQUATION
3
1900, 1, 1.0, 291, 1, -0.5, 292, 1, -0.5
*EQUATION
3
1900, 2, 1.0, 291, 2, -0.5, 292, 2, -0.5
*EQUATION
3
1900, 3, 1.0, 291, 3, -0.5, 292, 3, -0.5
*EQUATION
5
1904, 1, 1.0, 244, 1, -0.25, 292, 1, -0.25, 302, 1, -0.25, 254, 1, -0.25
*EQUATION
5
1904, 2, 1.0, 244, 2, -0.25, 292, 2, -0.25, 302, 2, -0.25, 254, 2, -0.25
*EQUATION
5
1904, 3, 1.0, 244, 3, -0.25, 292, 3, -0.25, 302, 3, -0.25, 254, 3, -0.25
*EQUATION
3
1907, 1, 1.0, 254, 1, -0.5, 302, 1, -0.5
*EQUATION
3
1907, 2, 1.0, 254, 2, -0.5, 302, 2, -0.5
*EQUATION
3
1907, 3, 1.0, 254, 3, -0.5, 302, 3, -0.5
*EQUATION
3
1910, 1, 1.0, 292, 1, -0.5, 302, 1, -0.5
*EQUATION
3
1910, 2, 1.0, 292, 2, -0.5, 302, 2, -0.5
*EQUATION
3
1910, 3, 1.0, 292, 3, -0.5, 302, 3, -0.5
*EQUATION
3
1914, 1, 1.0, 291, 1, -0.5, 339, 1, -0.5
*EQUATION
3
1914, 2, 1.0, 291, 2, -0.5, 339, 2, -0.5
*EQUATION
3
1914, 3, 1.0, 291, 3, -0.5, 339, 3, -0.5
*EQUATION
5
1917, 1, 1.0, 291, 1, -0.25, 339, 1, -0.25, 340, 1, -0.25, 292, 1, -0.25
*EQUATION
5
1917, 2, 1.0, 291, 2, -0.25, 339, 2, -0.25, 340, 2, -0.25, 292, 2, -0.25
*EQUATION
5
1917, 3, 1.0, 291, 3, -0.25, 339, 3, -0.25, 340, 3, -0.25, 292, 3, -0.25
*EQUATION
3
1920, 1, 1.0, 292, 1, -0.5, 340, 1, -0.5
*EQUATION
3
1920, 2, 1.0, 292, 2, -0.5, 340, 2, -0.5
*EQUATION
3
1920, 3, 1.0, 292, 3, -0.5, 340, 3, -0.5
*EQUATION
3
1924, 1, 1.0, 339, 1, -0.5, 340, 1, -0.5
*EQUATION
3
1924, 2, 1.0, 339, 2, -0.5, 340, 2, -0.5
*EQUATION
3
1924, 3, 1.0, 339, 3, -0.5, 340, 3, -0.5
*EQUATION
5
1928, 1, 1.0, 292, 1, -0.25, 340, 1, -0.25, 350, 1, -0.25, 302, 1, -0.25
*EQUATION
5
1928, 2, 1.0, 292, 2, -0.25, 340, 2, -0.25, 350, 2, -0.25, 302, 2, -0.25
*EQUATION
5
1928, 3, 1.0, 292, 3, -0.25, 340, 3, -0.25, 350, 3, -0.25, 302, 3, -0.25
*EQUATION
3
1931, 1, 1.0, 302, 1, -0.5, 350, 1, -0.5
*EQUATION
3
1931, 2, 1.0, 302, 2, -0.5, 350, 2, -0.5
*EQUATION
3
1931, 3, 1.0, 302, 3, -0.5, 350, 3, -0.5
*EQUATION
3
1934, 1, 1.0, 340, 1, -0.5, 350, 1, -0.5
*EQUATION
3
1934, 2, 1.0, 340, 2, -0.5, 350, 2, -0.5
*EQUATION
3
1934, 3, 1.0, 340, 3, -0.5, 350, 3, -0.5
*EQUATION
3
1938, 1, 1.0, 339, 1, -0.5, 387, 1, -0.5
*EQUATION
3
1938, 2, 1.0, 339, 2, -0.5, 387, 2, -0.5
*EQUATION
3
1938, 3, 1.0, 339, 3, -0.5, 387, 3, -0.5
*EQUATION
5
1941, 1, 1.0, 339, 1, -0.25, 387, 1, -0.25, 388, 1, -0.25, 340, 1, -0.25
*EQUATION
5
1941, 2, 1.0, 339, 2, -0.25, 387, 2, -0.25, 388, 2, -0.25, 340, 2, -0.25
*EQUATION
5
1941, 3, 1.0, 339, 3, -0.25, 387, 3, -0.25, 388, 3, -0.25, 340, 3, -0.25
*EQUATION
3
1944, 1, 1.0, 340, 1, -0.5, 388, 1, -0.5
*EQUATION
3
1944, 2, 1.0, 340, 2, -0.5, 388, 2, -0.5
*EQUATION
3
1944, 3, 1.0, 340, 3, -0.5, 388, 3, -0.5
*EQUATION
5
1947, 1, 1.0, 340, 1, -0.25, 388, 1, -0.25, 398, 1, -0.25, 350, 1, -0.25
*EQUATION
5
1947, 2, 1.0, 340, 2, -0.25, 388, 2, -0.25, 398, 2, -0.25, 350, 2, -0.25
*EQUATION
5
1947, 3, 1.0, 340, 3, -0.25, 388, 3, -0.25, 398, 3, -0.25, 350, 3, -0.25
*EQUATION
3
1950, 1, 1.0, 350, 1, -0.5, 398, 1, -0.5
*EQUATION
3
1950, 2, 1.0, 350, 2, -0.5, 398, 2, -0.5
*EQUATION
3
1950, 3, 1.0, 350, 3, -0.5, 398, 3, -0.5
*EQUATION
3
1951, 1, 1.0, 355, 1, -0.5, 357, 1, -0.5
*EQUATION
3
1951, 2, 1.0, 355, 2, -0.5, 357, 2, -0.5
*EQUATION
3
1951, 3, 1.0, 355, 3, -0.5, 357, 3, -0.5
*EQUATION
3
1952, 1, 1.0, 355, 1, -0.5, 356, 1, -0.5
*EQUATION
3
1952, 2, 1.0, 355, 2, -0.5, 356, 2, -0.5
*EQUATION
3
1952, 3, 1.0, 355, 3, -0.5, 356, 3, -0.5
*EQUATION
5
1953, 1, 1.0, 355, 1, -0.25, 356, 1, -0.25, 358, 1, -0.25, 357, 1, -0.25
*EQUATION
5
1953, 2, 1.0, 355, 2, -0.25, 356, 2, -0.25, 358, 2, -0.25, 357, 2, -0.25
*EQUATION
5
1953, 3, 1.0, 355, 3, -0.25, 356, 3, -0.25, 358, 3, -0.25, 357, 3, -0.25
*EQUATION
3
1954, 1, 1.0, 357, 1, -0.5, 358, 1, -0.5
*EQUATION
3
1954, 2, 1.0, 357, 2, -0.5, 358, 2, -0.5
*EQUATION
3
1954, 3, 1.0, 357, 3, -0.5, 358, 3, -0.5
*EQUATION
3
1955, 1, 1.0, 356, 1, -0.5, 358, 1, -0.5
*EQUATION
3
1955, 2, 1.0, 356, 2, -0.5, 358, 2, -0.5
*EQUATION
3
1955, 3, 1.0, 356, 3, -0.5, 358, 3, -0.5
*EQUATION
3
1962, 1, 1.0, 356, 1, -0.5, 404, 1, -0.5
*EQUATION
3
1962, 2, 1.0, 356, 2, -0.5, 404, 2, -0.5
*EQUATION
3
1962, 3, 1.0, 356, 3, -0.5, 404, 3, -0.5
*EQUATION
5
1963, 1, 1.0, 356, 1, -0.25, 404, 1, -0.25, 406, 1, -0.25, 358, 1, -0.25
*EQUATION
5
1963, 2, 1.0, 356, 2, -0.25, 404, 2, -0.25, 406, 2, -0.25, 358, 2, -0.25
*EQUATION
5
1963, 3, 1.0, 356, 3, -0.25, 404, 3, -0.25, 406, 3, -0.25, 358, 3, -0.25
*EQUATION
3
1964, 1, 1.0, 358, 1, -0.5, 406, 1, -0.5
*EQUATION
3
1964, 2, 1.0, 358, 2, -0.5, 406, 2, -0.5
*EQUATION
3
1964, 3, 1.0, 358, 3, -0.5, 406, 3, -0.5
*EQUATION
3
1969, 1, 1.0, 404, 1, -0.5, 406, 1, -0.5
*EQUATION
3
1969, 2, 1.0, 404, 2, -0.5, 406, 2, -0.5
*EQUATION
3
1969, 3, 1.0, 404, 3, -0.5, 406, 3, -0.5
*EQUATION
3
1970, 1, 1.0, 357, 1, -0.5, 359, 1, -0.5
*EQUATION
3
1970, 2, 1.0, 357, 2, -0.5, 359, 2, -0.5
*EQUATION
3
1970, 3, 1.0, 357, 3, -0.5, 359, 3, -0.5
*EQUATION
5
1971, 1, 1.0, 357, 1, -0.25, 358, 1, -0.25, 360, 1, -0.25, 359, 1, -0.25
*EQUATION
5
1971, 2, 1.0, 357, 2, -0.25, 358, 2, -0.25, 360, 2, -0.25, 359, 2, -0.25
*EQUATION
5
1971, 3, 1.0, 357, 3, -0.25, 358, 3, -0.25, 360, 3, -0.25, 359, 3, -0.25
*EQUATION
3
1972, 1, 1.0, 359, 1, -0.5, 360, 1, -0.5
*EQUATION
3
1972, 2, 1.0, 359, 2, -0.5, 360, 2, -0.5
*EQUATION
3
1972, 3, 1.0, 359, 3, -0.5, 360, 3, -0.5
*EQUATION
3
1973, 1, 1.0, 358, 1, -0.5, 360, 1, -0.5
*EQUATION
3
1973, 2, 1.0, 358, 2, -0.5, 360, 2, -0.5
*EQUATION
3
1973, 3, 1.0, 358, 3, -0.5, 360, 3, -0.5
*EQUATION
5
1978, 1, 1.0, 358, 1, -0.25, 406, 1, -0.25, 408, 1, -0.25, 360, 1, -0.25
*EQUATION
5
1978, 2, 1.0, 358, 2, -0.25, 406, 2, -0.25, 408, 2, -0.25, 360, 2, -0.25
*EQUATION
5
1978, 3, 1.0, 358, 3, -0.25, 406, 3, -0.25, 408, 3, -0.25, 360, 3, -0.25
*EQUATION
3
1979, 1, 1.0, 360, 1, -0.5, 408, 1, -0.5
*EQUATION
3
1979, 2, 1.0, 360, 2, -0.5, 408, 2, -0.5
*EQUATION
3
1979, 3, 1.0, 360, 3, -0.5, 408, 3, -0.5
*EQUATION
3
1983, 1, 1.0, 406, 1, -0.5, 408, 1, -0.5
*EQUATION
3
1983, 2, 1.0, 406, 2, -0.5, 408, 2, -0.5
*EQUATION
3
1983, 3, 1.0, 406, 3, -0.5, 408, 3, -0.5
*EQUATION
3
1984, 1, 1.0, 393, 1, -0.5, 395, 1, -0.5
*EQUATION
3
1984, 2, 1.0, 393, 2, -0.5, 395, 2, -0.5
*EQUATION
3
1984, 3, 1.0, 393, 3, -0.5, 395, 3, -0.5
*EQUATION
3
1985, 1, 1.0, 393, 1, -0.5, 394, 1, -0.5
*EQUATION
3
1985, 2, 1.0, 393, 2, -0.5, 394, 2, -0.5
*EQUATION
3
1985, 3, 1.0, 393, 3, -0.5, 394, 3, -0.5
*EQUATION
5
1986, 1, 1.0, 393, 1, -0.25, 394, 1, -0.25, 396, 1, -0.25, 395, 1, -0.25
*EQUATION
5
1986, 2, 1.0, 393, 2, -0.25, 394, 2, -0.25, 396, 2, -0.25, 395, 2, -0.25
*EQUATION
5
1986, 3, 1.0, 393, 3, -0.25, 394, 3, -0.25, 396, 3, -0.25, 395, 3, -0.25
*EQUATION
3
1987, 1, 1.0, 395, 1, -0.5, 396, 1, -0.5
*EQUATION
3
1987, 2, 1.0, 395, 2, -0.5, 396, 2, -0.5
*EQUATION
3
1987, 3, 1.0, 395, 3, -0.5, 396, 3, -0.5
*EQUATION
3
1988, 1, 1.0, 394, 1, -0.5, 396, 1, -0.5
*EQUATION
3
1988, 2, 1.0, 394, 2, -0.5, 396, 2, -0.5
*EQUATION
3
1988, 3, 1.0, 394, 3, -0.5, 396, 3, -0.5
*EQUATION
3
1989, 1, 1.0, 393, 1, -0.5, 441, 1, -0.5
*EQUATION
3
1989, 2, 1.0, 393, 2, -0.5, 441, 2, -0.5
*EQUATION
3
1989, 3, 1.0, 393, 3, -0.5, 441, 3, -0.5
*EQUATION
3
1991, 1, 1.0, 395, 1, -0.5, 443, 1, -0.5
*EQUATION
3
1991, 2, 1.0, 395, 2, -0.5, 443, 2, -0.5
*EQUATION
3
1991, 3, 1.0, 395, 3, -0.5, 443, 3, -0.5
*EQUATION
5
1992, 1, 1.0, 393, 1, -0.25, 441, 1, -0.25, 442, 1, -0.25, 394, 1, -0.25
*EQUATION
5
1992, 2, 1.0, 393, 2, -0.25, 441, 2, -0.25, 442, 2, -0.25, 394, 2, -0.25
*EQUATION
5
1992, 3, 1.0, 393, 3, -0.25, 441, 3, -0.25, 442, 3, -0.25, 394, 3, -0.25
*EQUATION
5
1994, 1, 1.0, 395, 1, -0.25, 443, 1, -0.25, 444, 1, -0.25, 396, 1, -0.25
*EQUATION
5
1994, 2, 1.0, 395, 2, -0.25, 443, 2, -0.25, 444, 2, -0.25, 396, 2, -0.25
*EQUATION
5
1994, 3, 1.0, 395, 3, -0.25, 443, 3, -0.25, 444, 3, -0.25, 396, 3, -0.25
*EQUATION
3
1995, 1, 1.0, 394, 1, -0.5, 442, 1, -0.5
*EQUATION
3
1995, 2, 1.0, 394, 2, -0.5, 442, 2, -0.5
*EQUATION
3
1995, 3, 1.0, 394, 3, -0.5, 442, 3, -0.5
*EQUATION
5
1996, 1, 1.0, 394, 1, -0.25, 442, 1, -0.25, 444, 1, -0.25, 396, 1, -0.25
*EQUATION
5
1996, 2, 1.0, 394, 2, -0.25, 442, 2, -0.25, 444, 2, -0.25, 396, 2, -0.25
*EQUATION
5
1996, 3, 1.0, 394, 3, -0.25, 442, 3, -0.25, 444, 3, -0.25, 396, 3, -0.25
*EQUATION
3
1997, 1, 1.0, 396, 1, -0.5, 444, 1, -0.5
*EQUATION
3
1997, 2, 1.0, 396, 2, -0.5, 444, 2, -0.5
*EQUATION
3
1997, 3, 1.0, 396, 3, -0.5, 444, 3, -0.5
*EQUATION
3
1999, 1, 1.0, 441, 1, -0.5, 442, 1, -0.5
*EQUATION
3
1999, 2, 1.0, 441, 2, -0.5, 442, 2, -0.5
*EQUATION
3
1999, 3, 1.0, 441, 3, -0.5, 442, 3, -0.5
*EQUATION
3
2001, 1, 1.0, 443, 1, -0.5, 444, 1, -0.5
*EQUATION
3
2001, 2, 1.0, 443, 2, -0.5, 444, 2, -0.5
*EQUATION
3
2001, 3, 1.0, 443, 3, -0.5, 444, 3, -0.5
*EQUATION
3
2002, 1, 1.0, 442, 1, -0.5, 444, 1, -0.5
*EQUATION
3
2002, 2, 1.0, 442, 2, -0.5, 444, 2, -0.5
*EQUATION
3
2002, 3, 1.0, 442, 3, -0.5, 444, 3, -0.5
*EQUATION
3
2009, 1, 1.0, 404, 1, -0.5, 452, 1, -0.5
*EQUATION
3
2009, 2, 1.0, 404, 2, -0.5, 452, 2, -0.5
*EQUATION
3
2009, 3, 1.0, 404, 3, -0.5, 452, 3, -0.5
*EQUATION
5
2010, 1, 1.0, 404, 1, -0.25, 452, 1, -0.25, 454, 1, -0.25, 406, 1, -0.25
*EQUATION
5
2010, 2, 1.0, 404, 2, -0.25, 452, 2, -0.25, 454, 2, -0.25, 406, 2, -0.25
*EQUATION
5
2010, 3, 1.0, 404, 3, -0.25, 452, 3, -0.25, 454, 3, -0.25, 406, 3, -0.25
*EQUATION
3
2011, 1, 1.0, 406, 1, -0.5, 454, 1, -0.5
*EQUATION
3
2011, 2, 1.0, 406, 2, -0.5, 454, 2, -0.5
*EQUATION
3
2011, 3, 1.0, 406, 3, -0.5, 454, 3, -0.5
*EQUATION
3
2016, 1, 1.0, 452, 1, -0.5, 454, 1, -0.5
*EQUATION
3
2016, 2, 1.0, 452, 2, -0.5, 454, 2, -0.5
*EQUATION
3
2016, 3, 1.0, 452, 3, -0.5, 454, 3, -0.5
*EQUATION
5
2021, 1, 1.0, 406, 1, -0.25, 454, 1, -0.25, 456, 1, -0.25, 408, 1, -0.25
*EQUATION
5
2021, 2, 1.0, 406, 2, -0.25, 454, 2, -0.25, 456, 2, -0.25, 408, 2, -0.25
*EQUATION
5
2021, 3, 1.0, 406, 3, -0.25, 454, 3, -0.25, 456, 3, -0.25, 408, 3, -0.25
*EQUATION
3
2022, 1, 1.0, 408, 1, -0.5, 456, 1, -0.5
*EQUATION
3
2022, 2, 1.0, 408, 2, -0.5, 456, 2, -0.5
*EQUATION
3
2022, 3, 1.0, 408, 3, -0.5, 456, 3, -0.5
*EQUATION
3
2026, 1, 1.0, 454, 1, -0.5, 456, 1, -0.5
*EQUATION
3
2026, 2, 1.0, 454, 2, -0.5, 456, 2, -0.5
*EQUATION
3
2026, 3, 1.0, 454, 3, -0.5, 456, 3, -0.5
*EQUATION
3
2027, 1, 1.0, 435, 1, -0.5, 437, 1, -0.5
*EQUATION
3
2027, 2, 1.0, 435, 2, -0.5, 437, 2, -0.5
*EQUATION
3
2027, 3, 1.0, 435, 3, -0.5, 437, 3, -0.5
*EQUATION
5
2028, 1, 1.0, 435, 1, -0.25, 436, 1, -0.25, 438, 1, -0.25, 437, 1, -0.25
*EQUATION
5
2028, 2, 1.0, 435, 2, -0.25, 436, 2, -0.25, 438, 2, -0.25, 437, 2, -0.25
*EQUATION
5
2028, 3, 1.0, 435, 3, -0.25, 436, 3, -0.25, 438, 3, -0.25, 437, 3, -0.25
*EQUATION
3
2029, 1, 1.0, 437, 1, -0.5, 438, 1, -0.5
*EQUATION
3
2029, 2, 1.0, 437, 2, -0.5, 438, 2, -0.5
*EQUATION
3
2029, 3, 1.0, 437, 3, -0.5, 438, 3, -0.5
*EQUATION
3
2030, 1, 1.0, 436, 1, -0.5, 438, 1, -0.5
*EQUATION
3
2030, 2, 1.0, 436, 2, -0.5, 438, 2, -0.5
*EQUATION
3
2030, 3, 1.0, 436, 3, -0.5, 438, 3, -0.5
*EQUATION
3
2032, 1, 1.0, 437, 1, -0.5, 485, 1, -0.5
*EQUATION
3
2032, 2, 1.0, 437, 2, -0.5, 485, 2, -0.5
*EQUATION
3
2032, 3, 1.0, 437, 3, -0.5, 485, 3, -0.5
*EQUATION
5
2034, 1, 1.0, 437, 1, -0.25, 485, 1, -0.25, 486, 1, -0.25, 438, 1, -0.25
*EQUATION
5
2034, 2, 1.0, 437, 2, -0.25, 485, 2, -0.25, 486, 2, -0.25, 438, 2, -0.25
*EQUATION
5
2034, 3, 1.0, 437, 3, -0.25, 485, 3, -0.25, 486, 3, -0.25, 438, 3, -0.25
*EQUATION
3
2036, 1, 1.0, 438, 1, -0.5, 486, 1, -0.5
*EQUATION
3
2036, 2, 1.0, 438, 2, -0.5, 486, 2, -0.5
*EQUATION
3
2036, 3, 1.0, 438, 3, -0.5, 486, 3, -0.5
*EQUATION
3
2039, 1, 1.0, 485, 1, -0.5, 486, 1, -0.5
*EQUATION
3
2039, 2, 1.0, 485, 2, -0.5, 486, 2, -0.5
*EQUATION
3
2039, 3, 1.0, 485, 3, -0.5, 486, 3, -0.5
*EQUATION
3
2041, 1, 1.0, 441, 1, -0.5, 489, 1, -0.5
*EQUATION
3
2041, 2, 1.0, 441, 2, -0.5, 489, 2, -0.5
*EQUATION
3
2041, 3, 1.0, 441, 3, -0.5, 489, 3, -0.5
*EQUATION
3
2043, 1, 1.0, 443, 1, -0.5, 491, 1, -0.5
*EQUATION
3
2043, 2, 1.0, 443, 2, -0.5, 491, 2, -0.5
*EQUATION
3
2043, 3, 1.0, 443, 3, -0.5, 491, 3, -0.5
*EQUATION
5
2044, 1, 1.0, 441, 1, -0.25, 489, 1, -0.25, 490, 1, -0.25, 442, 1, -0.25
*EQUATION
5
2044, 2, 1.0, 441, 2, -0.25, 489, 2, -0.25, 490, 2, -0.25, 442, 2, -0.25
*EQUATION
5
2044, 3, 1.0, 441, 3, -0.25, 489, 3, -0.25, 490, 3, -0.25, 442, 3, -0.25
*EQUATION
5
2046, 1, 1.0, 443, 1, -0.25, 491, 1, -0.25, 492, 1, -0.25, 444, 1, -0.25
*EQUATION
5
2046, 2, 1.0, 443, 2, -0.25, 491, 2, -0.25, 492, 2, -0.25, 444, 2, -0.25
*EQUATION
5
2046, 3, 1.0, 443, 3, -0.25, 491, 3, -0.25, 492, 3, -0.25, 444, 3, -0.25
*EQUATION
3
2047, 1, 1.0, 442, 1, -0.5, 490, 1, -0.5
*EQUATION
3
2047, 2, 1.0, 442, 2, -0.5, 490, 2, -0.5
*EQUATION
3
2047, 3, 1.0, 442, 3, -0.5, 490, 3, -0.5
*EQUATION
5
2048, 1, 1.0, 442, 1, -0.25, 490, 1, -0.25, 492, 1, -0.25, 444, 1, -0.25
*EQUATION
5
2048, 2, 1.0, 442, 2, -0.25, 490, 2, -0.25, 492, 2, -0.25, 444, 2, -0.25
*EQUATION
5
2048, 3, 1.0, 442, 3, -0.25, 490, 3, -0.25, 492, 3, -0.25, 444, 3, -0.25
*EQUATION
3
2049, 1, 1.0, 444, 1, -0.5, 492, 1, -0.5
*EQUATION
3
2049, 2, 1.0, 444, 2, -0.5, 492, 2, -0.5
*EQUATION
3
2049, 3, 1.0, 444, 3, -0.5, 492, 3, -0.5
*EQUATION
3
2051, 1, 1.0, 489, 1, -0.5, 490, 1, -0.5
*EQUATION
3
2051, 2, 1.0, 489, 2, -0.5, 490, 2, -0.5
*EQUATION
3
2051, 3, 1.0, 489, 3, -0.5, 490, 3, -0.5
*EQUATION
3
2053, 1, 1.0, 491, 1, -0.5, 492, 1, -0.5
*EQUATION
3
2053, 2, 1.0, 491, 2, -0.5, 492, 2, -0.5
*EQUATION
3
2053, 3, 1.0, 491, 3, -0.5, 492, 3, -0.5
*EQUATION
3
2054, 1, 1.0, 490, 1, -0.5, 492, 1, -0.5
*EQUATION
3
2054, 2, 1.0, 490, 2, -0.5, 492, 2, -0.5
*EQUATION
3
2054, 3, 1.0, 490, 3, -0.5, 492, 3, -0.5
*EQUATION
5
2055, 1, 1.0, 436, 1, -0.25, 446, 1, -0.25, 447, 1, -0.25, 438, 1, -0.25
*EQUATION
5
2055, 2, 1.0, 436, 2, -0.25, 446, 2, -0.25, 447, 2, -0.25, 438, 2, -0.25
*EQUATION
5
2055, 3, 1.0, 436, 3, -0.25, 446, 3, -0.25, 447, 3, -0.25, 438, 3, -0.25
*EQUATION
3
2056, 1, 1.0, 438, 1, -0.5, 447, 1, -0.5
*EQUATION
3
2056, 2, 1.0, 438, 2, -0.5, 447, 2, -0.5
*EQUATION
3
2056, 3, 1.0, 438, 3, -0.5, 447, 3, -0.5
*EQUATION
3
2057, 1, 1.0, 446, 1, -0.5, 447, 1, -0.5
*EQUATION
3
2057, 2, 1.0, 446, 2, -0.5, 447, 2, -0.5
*EQUATION
3
2057, 3, 1.0, 446, 3, -0.5, 447, 3, -0.5
*EQUATION
5
2059, 1, 1.0, 438, 1, -0.25, 486, 1, -0.25, 495, 1, -0.25, 447, 1, -0.25
*EQUATION
5
2059, 2, 1.0, 438, 2, -0.25, 486, 2, -0.25, 495, 2, -0.25, 447, 2, -0.25
*EQUATION
5
2059, 3, 1.0, 438, 3, -0.25, 486, 3, -0.25, 495, 3, -0.25, 447, 3, -0.25
*EQUATION
3
2061, 1, 1.0, 447, 1, -0.5, 495, 1, -0.5
*EQUATION
3
2061, 2, 1.0, 447, 2, -0.5, 495, 2, -0.5
*EQUATION
3
2061, 3, 1.0, 447, 3, -0.5, 495, 3, -0.5
*EQUATION
3
2063, 1, 1.0, 486, 1, -0.5, 495, 1, -0.5
*EQUATION
3
2063, 2, 1.0, 486, 2, -0.5, 495, 2, -0.5
*EQUATION
3
2063, 3, 1.0, 486, 3, -0.5, 495, 3, -0.5
*EQUATION
3
2071, 1, 1.0, 452, 1, -0.5, 500, 1, -0.5
*EQUATION
3
2071, 2, 1.0, 452, 2, -0.5, 500, 2, -0.5
*EQUATION
3
2071, 3, 1.0, 452, 3, -0.5, 500, 3, -0.5
*EQUATION
5
2072, 1, 1.0, 452, 1, -0.25, 500, 1, -0.25, 502, 1, -0.25, 454, 1, -0.25
*EQUATION
5
2072, 2, 1.0, 452, 2, -0.25, 500, 2, -0.25, 502, 2, -0.25, 454, 2, -0.25
*EQUATION
5
2072, 3, 1.0, 452, 3, -0.25, 500, 3, -0.25, 502, 3, -0.25, 454, 3, -0.25
*EQUATION
3
2073, 1, 1.0, 454, 1, -0.5, 502, 1, -0.5
*EQUATION
3
2073, 2, 1.0, 454, 2, -0.5, 502, 2, -0.5
*EQUATION
3
2073, 3, 1.0, 454, 3, -0.5, 502, 3, -0.5
*EQUATION
5
2078, 1, 1.0, 454, 1, -0.25, 502, 1, -0.25, 504, 1, -0.25, 456, 1, -0.25
*EQUATION
5
2078, 2, 1.0, 454, 2, -0.25, 502, 2, -0.25, 504, 2, -0.25, 456, 2, -0.25
*EQUATION
5
2078, 3, 1.0, 454, 3, -0.25, 502, 3, -0.25, 504, 3, -0.25, 456, 3, -0.25
*EQUATION
3
2079, 1, 1.0, 456, 1, -0.5, 504, 1, -0.5
*EQUATION
3
2079, 2, 1.0, 456, 2, -0.5, 504, 2, -0.5
*EQUATION
3
2079, 3, 1.0, 456, 3, -0.5, 504, 3, -0.5
*EQUATION
3
2080, 1, 1.0, 475, 1, -0.5, 476, 1, -0.5
*EQUATION
3
2080, 2, 1.0, 475, 2, -0.5, 476, 2, -0.5
*EQUATION
3
2080, 3, 1.0, 475, 3, -0.5, 476, 3, -0.5
*EQUATION
3
2081, 1, 1.0, 475, 1, -0.5, 478, 1, -0.5
*EQUATION
3
2081, 2, 1.0, 475, 2, -0.5, 478, 2, -0.5
*EQUATION
3
2081, 3, 1.0, 475, 3, -0.5, 478, 3, -0.5
*EQUATION
5
2082, 1, 1.0, 475, 1, -0.25, 478, 1, -0.25, 479, 1, -0.25, 476, 1, -0.25
*EQUATION
5
2082, 2, 1.0, 475, 2, -0.25, 478, 2, -0.25, 479, 2, -0.25, 476, 2, -0.25
*EQUATION
5
2082, 3, 1.0, 475, 3, -0.25, 478, 3, -0.25, 479, 3, -0.25, 476, 3, -0.25
*EQUATION
3
2083, 1, 1.0, 476, 1, -0.5, 479, 1, -0.5
*EQUATION
3
2083, 2, 1.0, 476, 2, -0.5, 479, 2, -0.5
*EQUATION
3
2083, 3, 1.0, 476, 3, -0.5, 479, 3, -0.5
*EQUATION
3
2084, 1, 1.0, 478, 1, -0.5, 479, 1, -0.5
*EQUATION
3
2084, 2, 1.0, 478, 2, -0.5, 479, 2, -0.5
*EQUATION
3
2084, 3, 1.0, 478, 3, -0.5, 479, 3, -0.5
*EQUATION
3
2085, 1, 1.0, 475, 1, -0.5, 523, 1, -0.5
*EQUATION
3
2085, 2, 1.0, 475, 2, -0.5, 523, 2, -0.5
*EQUATION
3
2085, 3, 1.0, 475, 3, -0.5, 523, 3, -0.5
*EQUATION
5
2086, 1, 1.0, 475, 1, -0.25, 523, 1, -0.25, 524, 1, -0.25, 476, 1, -0.25
*EQUATION
5
2086, 2, 1.0, 475, 2, -0.25, 523, 2, -0.25, 524, 2, -0.25, 476, 2, -0.25
*EQUATION
5
2086, 3, 1.0, 475, 3, -0.25, 523, 3, -0.25, 524, 3, -0.25, 476, 3, -0.25
*EQUATION
3
2087, 1, 1.0, 476, 1, -0.5, 524, 1, -0.5
*EQUATION
3
2087, 2, 1.0, 476, 2, -0.5, 524, 2, -0.5
*EQUATION
3
2087, 3, 1.0, 476, 3, -0.5, 524, 3, -0.5
*EQUATION
3
2094, 1, 1.0, 523, 1, -0.5, 524, 1, -0.5
*EQUATION
3
2094, 2, 1.0, 523, 2, -0.5, 524, 2, -0.5
*EQUATION
3
2094, 3, 1.0, 523, 3, -0.5, 524, 3, -0.5
*EQUATION
3
2099, 1, 1.0, 476, 1, -0.5, 477, 1, -0.5
*EQUATION
3
2099, 2, 1.0, 476, 2, -0.5, 477, 2, -0.5
*EQUATION
3
2099, 3, 1.0, 476, 3, -0.5, 477, 3, -0.5
*EQUATION
5
2100, 1, 1.0, 476, 1, -0.25, 479, 1, -0.25, 480, 1, -0.25, 477, 1, -0.25
*EQUATION
5
2100, 2, 1.0, 476, 2, -0.25, 479, 2, -0.25, 480, 2, -0.25, 477, 2, -0.25
*EQUATION
5
2100, 3, 1.0, 476, 3, -0.25, 479, 3, -0.25, 480, 3, -0.25, 477, 3, -0.25
*EQUATION
3
2101, 1, 1.0, 477, 1, -0.5, 480, 1, -0.5
*EQUATION
3
2101, 2, 1.0, 477, 2, -0.5, 480, 2, -0.5
*EQUATION
3
2101, 3, 1.0, 477, 3, -0.5, 480, 3, -0.5
*EQUATION
3
2102, 1, 1.0, 479, 1, -0.5, 480, 1, -0.5
*EQUATION
3
2102, 2, 1.0, 479, 2, -0.5, 480, 2, -0.5
*EQUATION
3
2102, 3, 1.0, 479, 3, -0.5, 480, 3, -0.5
*EQUATION
5
2103, 1, 1.0, 476, 1, -0.25, 524, 1, -0.25, 525, 1, -0.25, 477, 1, -0.25
*EQUATION
5
2103, 2, 1.0, 476, 2, -0.25, 524, 2, -0.25, 525, 2, -0.25, 477, 2, -0.25
*EQUATION
5
2103, 3, 1.0, 476, 3, -0.25, 524, 3, -0.25, 525, 3, -0.25, 477, 3, -0.25
*EQUATION
3
2104, 1, 1.0, 477, 1, -0.5, 525, 1, -0.5
*EQUATION
3
2104, 2, 1.0, 477, 2, -0.5, 525, 2, -0.5
*EQUATION
3
2104, 3, 1.0, 477, 3, -0.5, 525, 3, -0.5
*EQUATION
3
2109, 1, 1.0, 524, 1, -0.5, 525, 1, -0.5
*EQUATION
3
2109, 2, 1.0, 524, 2, -0.5, 525, 2, -0.5
*EQUATION
3
2109, 3, 1.0, 524, 3, -0.5, 525, 3, -0.5
*EQUATION
3
2114, 1, 1.0, 485, 1, -0.5, 533, 1, -0.5
*EQUATION
3
2114, 2, 1.0, 485, 2, -0.5, 533, 2, -0.5
*EQUATION
3
2114, 3, 1.0, 485, 3, -0.5, 533, 3, -0.5
*EQUATION
5
2116, 1, 1.0, 485, 1, -0.25, 533, 1, -0.25, 534, 1, -0.25, 486, 1, -0.25
*EQUATION
5
2116, 2, 1.0, 485, 2, -0.25, 533, 2, -0.25, 534, 2, -0.25, 486, 2, -0.25
*EQUATION
5
2116, 3, 1.0, 485, 3, -0.25, 533, 3, -0.25, 534, 3, -0.25, 486, 3, -0.25
*EQUATION
3
2118, 1, 1.0, 486, 1, -0.5, 534, 1, -0.5
*EQUATION
3
2118, 2, 1.0, 486, 2, -0.5, 534, 2, -0.5
*EQUATION
3
2118, 3, 1.0, 486, 3, -0.5, 534, 3, -0.5
*EQUATION
3
2121, 1, 1.0, 533, 1, -0.5, 534, 1, -0.5
*EQUATION
3
2121, 2, 1.0, 533, 2, -0.5, 534, 2, -0.5
*EQUATION
3
2121, 3, 1.0, 533, 3, -0.5, 534, 3, -0.5
*EQUATION
3
2123, 1, 1.0, 489, 1, -0.5, 537, 1, -0.5
*EQUATION
3
2123, 2, 1.0, 489, 2, -0.5, 537, 2, -0.5
*EQUATION
3
2123, 3, 1.0, 489, 3, -0.5, 537, 3, -0.5
*EQUATION
3
2125, 1, 1.0, 491, 1, -0.5, 539, 1, -0.5
*EQUATION
3
2125, 2, 1.0, 491, 2, -0.5, 539, 2, -0.5
*EQUATION
3
2125, 3, 1.0, 491, 3, -0.5, 539, 3, -0.5
*EQUATION
5
2126, 1, 1.0, 489, 1, -0.25, 537, 1, -0.25, 538, 1, -0.25, 490, 1, -0.25
*EQUATION
5
2126, 2, 1.0, 489, 2, -0.25, 537, 2, -0.25, 538, 2, -0.25, 490, 2, -0.25
*EQUATION
5
2126, 3, 1.0, 489, 3, -0.25, 537, 3, -0.25, 538, 3, -0.25, 490, 3, -0.25
*EQUATION
5
2128, 1, 1.0, 491, 1, -0.25, 539, 1, -0.25, 540, 1, -0.25, 492, 1, -0.25
*EQUATION
5
2128, 2, 1.0, 491, 2, -0.25, 539, 2, -0.25, 540, 2, -0.25, 492, 2, -0.25
*EQUATION
5
2128, 3, 1.0, 491, 3, -0.25, 539, 3, -0.25, 540, 3, -0.25, 492, 3, -0.25
*EQUATION
3
2129, 1, 1.0, 490, 1, -0.5, 538, 1, -0.5
*EQUATION
3
2129, 2, 1.0, 490, 2, -0.5, 538, 2, -0.5
*EQUATION
3
2129, 3, 1.0, 490, 3, -0.5, 538, 3, -0.5
*EQUATION
5
2130, 1, 1.0, 490, 1, -0.25, 538, 1, -0.25, 540, 1, -0.25, 492, 1, -0.25
*EQUATION
5
2130, 2, 1.0, 490, 2, -0.25, 538, 2, -0.25, 540, 2, -0.25, 492, 2, -0.25
*EQUATION
5
2130, 3, 1.0, 490, 3, -0.25, 538, 3, -0.25, 540, 3, -0.25, 492, 3, -0.25
*EQUATION
3
2131, 1, 1.0, 492, 1, -0.5, 540, 1, -0.5
*EQUATION
3
2131, 2, 1.0, 492, 2, -0.5, 540, 2, -0.5
*EQUATION
3
2131, 3, 1.0, 492, 3, -0.5, 540, 3, -0.5
*EQUATION
3
2133, 1, 1.0, 537, 1, -0.5, 538, 1, -0.5
*EQUATION
3
2133, 2, 1.0, 537, 2, -0.5, 538, 2, -0.5
*EQUATION
3
2133, 3, 1.0, 537, 3, -0.5, 538, 3, -0.5
*EQUATION
3
2135, 1, 1.0, 539, 1, -0.5, 540, 1, -0.5
*EQUATION
3
2135, 2, 1.0, 539, 2, -0.5, 540, 2, -0.5
*EQUATION
3
2135, 3, 1.0, 539, 3, -0.5, 540, 3, -0.5
*EQUATION
3
2136, 1, 1.0, 538, 1, -0.5, 540, 1, -0.5
*EQUATION
3
2136, 2, 1.0, 538, 2, -0.5, 540, 2, -0.5
*EQUATION
3
2136, 3, 1.0, 538, 3, -0.5, 540, 3, -0.5
*EQUATION
5
2138, 1, 1.0, 486, 1, -0.25, 534, 1, -0.25, 543, 1, -0.25, 495, 1, -0.25
*EQUATION
5
2138, 2, 1.0, 486, 2, -0.25, 534, 2, -0.25, 543, 2, -0.25, 495, 2, -0.25
*EQUATION
5
2138, 3, 1.0, 486, 3, -0.25, 534, 3, -0.25, 543, 3, -0.25, 495, 3, -0.25
*EQUATION
3
2140, 1, 1.0, 495, 1, -0.5, 543, 1, -0.5
*EQUATION
3
2140, 2, 1.0, 495, 2, -0.5, 543, 2, -0.5
*EQUATION
3
2140, 3, 1.0, 495, 3, -0.5, 543, 3, -0.5
*EQUATION
3
2142, 1, 1.0, 534, 1, -0.5, 543, 1, -0.5
*EQUATION
3
2142, 2, 1.0, 534, 2, -0.5, 543, 2, -0.5
*EQUATION
3
2142, 3, 1.0, 534, 3, -0.5, 543, 3, -0.5
*EQUATION
3
2144, 1, 1.0, 508, 1, -0.5, 509, 1, -0.5
*EQUATION
3
2144, 2, 1.0, 508, 2, -0.5, 509, 2, -0.5
*EQUATION
3
2144, 3, 1.0, 508, 3, -0.5, 509, 3, -0.5
*EQUATION
3
2145, 1, 1.0, 491, 1, -0.5, 508, 1, -0.5
*EQUATION
3
2145, 2, 1.0, 491, 2, -0.5, 508, 2, -0.5
*EQUATION
3
2145, 3, 1.0, 491, 3, -0.5, 508, 3, -0.5
*EQUATION
5
2146, 1, 1.0, 508, 1, -0.25, 491, 1, -0.25, 511, 1, -0.25, 509, 1, -0.25
*EQUATION
5
2146, 2, 1.0, 508, 2, -0.25, 491, 2, -0.25, 511, 2, -0.25, 509, 2, -0.25
*EQUATION
5
2146, 3, 1.0, 508, 3, -0.25, 491, 3, -0.25, 511, 3, -0.25, 509, 3, -0.25
*EQUATION
3
2147, 1, 1.0, 509, 1, -0.5, 511, 1, -0.5
*EQUATION
3
2147, 2, 1.0, 509, 2, -0.5, 511, 2, -0.5
*EQUATION
3
2147, 3, 1.0, 509, 3, -0.5, 511, 3, -0.5
*EQUATION
3
2148, 1, 1.0, 491, 1, -0.5, 511, 1, -0.5
*EQUATION
3
2148, 2, 1.0, 491, 2, -0.5, 511, 2, -0.5
*EQUATION
3
2148, 3, 1.0, 491, 3, -0.5, 511, 3, -0.5
*EQUATION
3
2149, 1, 1.0, 508, 1, -0.5, 556, 1, -0.5
*EQUATION
3
2149, 2, 1.0, 508, 2, -0.5, 556, 2, -0.5
*EQUATION
3
2149, 3, 1.0, 508, 3, -0.5, 556, 3, -0.5
*EQUATION
5
2150, 1, 1.0, 508, 1, -0.25, 556, 1, -0.25, 557, 1, -0.25, 509, 1, -0.25
*EQUATION
5
2150, 2, 1.0, 508, 2, -0.25, 556, 2, -0.25, 557, 2, -0.25, 509, 2, -0.25
*EQUATION
5
2150, 3, 1.0, 508, 3, -0.25, 556, 3, -0.25, 557, 3, -0.25, 509, 3, -0.25
*EQUATION
3
2151, 1, 1.0, 509, 1, -0.5, 557, 1, -0.5
*EQUATION
3
2151, 2, 1.0, 509, 2, -0.5, 557, 2, -0.5
*EQUATION
3
2151, 3, 1.0, 509, 3, -0.5, 557, 3, -0.5
*EQUATION
5
2154, 1, 1.0, 509, 1, -0.25, 557, 1, -0.25, 559, 1, -0.25, 511, 1, -0.25
*EQUATION
5
2154, 2, 1.0, 509, 2, -0.25, 557, 2, -0.25, 559, 2, -0.25, 511, 2, -0.25
*EQUATION
5
2154, 3, 1.0, 509, 3, -0.25, 557, 3, -0.25, 559, 3, -0.25, 511, 3, -0.25
*EQUATION
5
2155, 1, 1.0, 491, 1, -0.25, 539, 1, -0.25, 559, 1, -0.25, 511, 1, -0.25
*EQUATION
5
2155, 2, 1.0, 491, 2, -0.25, 539, 2, -0.25, 559, 2, -0.25, 511, 2, -0.25
*EQUATION
5
2155, 3, 1.0, 491, 3, -0.25, 539, 3, -0.25, 559, 3, -0.25, 511, 3, -0.25
*EQUATION
3
2156, 1, 1.0, 511, 1, -0.5, 559, 1, -0.5
*EQUATION
3
2156, 2, 1.0, 511, 2, -0.5, 559, 2, -0.5
*EQUATION
3
2156, 3, 1.0, 511, 3, -0.5, 559, 3, -0.5
*EQUATION
3
2157, 1, 1.0, 556, 1, -0.5, 557, 1, -0.5
*EQUATION
3
2157, 2, 1.0, 556, 2, -0.5, 557, 2, -0.5
*EQUATION
3
2157, 3, 1.0, 556, 3, -0.5, 557, 3, -0.5
*EQUATION
3
2160, 1, 1.0, 557, 1, -0.5, 559, 1, -0.5
*EQUATION
3
2160, 2, 1.0, 557, 2, -0.5, 559, 2, -0.5
*EQUATION
3
2160, 3, 1.0, 557, 3, -0.5, 559, 3, -0.5
*EQUATION
3
2161, 1, 1.0, 539, 1, -0.5, 559, 1, -0.5
*EQUATION
3
2161, 2, 1.0, 539, 2, -0.5, 559, 2, -0.5
*EQUATION
3
2161, 3, 1.0, 539, 3, -0.5, 559, 3, -0.5
*EQUATION
3
2162, 1, 1.0, 523, 1, -0.5, 571, 1, -0.5
*EQUATION
3
2162, 2, 1.0, 523, 2, -0.5, 571, 2, -0.5
*EQUATION
3
2162, 3, 1.0, 523, 3, -0.5, 571, 3, -0.5
*EQUATION
5
2163, 1, 1.0, 523, 1, -0.25, 571, 1, -0.25, 572, 1, -0.25, 524, 1, -0.25
*EQUATION
5
2163, 2, 1.0, 523, 2, -0.25, 571, 2, -0.25, 572, 2, -0.25, 524, 2, -0.25
*EQUATION
5
2163, 3, 1.0, 523, 3, -0.25, 571, 3, -0.25, 572, 3, -0.25, 524, 3, -0.25
*EQUATION
3
2164, 1, 1.0, 524, 1, -0.5, 572, 1, -0.5
*EQUATION
3
2164, 2, 1.0, 524, 2, -0.5, 572, 2, -0.5
*EQUATION
3
2164, 3, 1.0, 524, 3, -0.5, 572, 3, -0.5
*EQUATION
5
2171, 1, 1.0, 524, 1, -0.25, 572, 1, -0.25, 573, 1, -0.25, 525, 1, -0.25
*EQUATION
5
2171, 2, 1.0, 524, 2, -0.25, 572, 2, -0.25, 573, 2, -0.25, 525, 2, -0.25
*EQUATION
5
2171, 3, 1.0, 524, 3, -0.25, 572, 3, -0.25, 573, 3, -0.25, 525, 3, -0.25
*EQUATION
3
2172, 1, 1.0, 525, 1, -0.5, 573, 1, -0.5
*EQUATION
3
2172, 2, 1.0, 525, 2, -0.5, 573, 2, -0.5
*EQUATION
3
2172, 3, 1.0, 525, 3, -0.5, 573, 3, -0.5
*EQUATION
3
2178, 1, 1.0, 533, 1, -0.5, 581, 1, -0.5
*EQUATION
3
2178, 2, 1.0, 533, 2, -0.5, 581, 2, -0.5
*EQUATION
3
2178, 3, 1.0, 533, 3, -0.5, 581, 3, -0.5
*EQUATION
5
2180, 1, 1.0, 533, 1, -0.25, 581, 1, -0.25, 582, 1, -0.25, 534, 1, -0.25
*EQUATION
5
2180, 2, 1.0, 533, 2, -0.25, 581, 2, -0.25, 582, 2, -0.25, 534, 2, -0.25
*EQUATION
5
2180, 3, 1.0, 533, 3, -0.25, 581, 3, -0.25, 582, 3, -0.25, 534, 3, -0.25
*EQUATION
3
2182, 1, 1.0, 534, 1, -0.5, 582, 1, -0.5
*EQUATION
3
2182, 2, 1.0, 534, 2, -0.5, 582, 2, -0.5
*EQUATION
3
2182, 3, 1.0, 534, 3, -0.5, 582, 3, -0.5
*EQUATION
3
2185, 1, 1.0, 581, 1, -0.5, 582, 1, -0.5
*EQUATION
3
2185, 2, 1.0, 581, 2, -0.5, 582, 2, -0.5
*EQUATION
3
2185, 3, 1.0, 581, 3, -0.5, 582, 3, -0.5
*EQUATION
3
2187, 1, 1.0, 537, 1, -0.5, 585, 1, -0.5
*EQUATION
3
2187, 2, 1.0, 537, 2, -0.5, 585, 2, -0.5
*EQUATION
3
2187, 3, 1.0, 537, 3, -0.5, 585, 3, -0.5
*EQUATION
3
2189, 1, 1.0, 539, 1, -0.5, 587, 1, -0.5
*EQUATION
3
2189, 2, 1.0, 539, 2, -0.5, 587, 2, -0.5
*EQUATION
3
2189, 3, 1.0, 539, 3, -0.5, 587, 3, -0.5
*EQUATION
5
2190, 1, 1.0, 537, 1, -0.25, 585, 1, -0.25, 586, 1, -0.25, 538, 1, -0.25
*EQUATION
5
2190, 2, 1.0, 537, 2, -0.25, 585, 2, -0.25, 586, 2, -0.25, 538, 2, -0.25
*EQUATION
5
2190, 3, 1.0, 537, 3, -0.25, 585, 3, -0.25, 586, 3, -0.25, 538, 3, -0.25
*EQUATION
5
2192, 1, 1.0, 539, 1, -0.25, 587, 1, -0.25, 588, 1, -0.25, 540, 1, -0.25
*EQUATION
5
2192, 2, 1.0, 539, 2, -0.25, 587, 2, -0.25, 588, 2, -0.25, 540, 2, -0.25
*EQUATION
5
2192, 3, 1.0, 539, 3, -0.25, 587, 3, -0.25, 588, 3, -0.25, 540, 3, -0.25
*EQUATION
3
2193, 1, 1.0, 538, 1, -0.5, 586, 1, -0.5
*EQUATION
3
2193, 2, 1.0, 538, 2, -0.5, 586, 2, -0.5
*EQUATION
3
2193, 3, 1.0, 538, 3, -0.5, 586, 3, -0.5
*EQUATION
3
2195, 1, 1.0, 540, 1, -0.5, 588, 1, -0.5
*EQUATION
3
2195, 2, 1.0, 540, 2, -0.5, 588, 2, -0.5
*EQUATION
3
2195, 3, 1.0, 540, 3, -0.5, 588, 3, -0.5
*EQUATION
3
2197, 1, 1.0, 585, 1, -0.5, 586, 1, -0.5
*EQUATION
3
2197, 2, 1.0, 585, 2, -0.5, 586, 2, -0.5
*EQUATION
3
2197, 3, 1.0, 585, 3, -0.5, 586, 3, -0.5
*EQUATION
3
2199, 1, 1.0, 587, 1, -0.5, 588, 1, -0.5
*EQUATION
3
2199, 2, 1.0, 587, 2, -0.5, 588, 2, -0.5
*EQUATION
3
2199, 3, 1.0, 587, 3, -0.5, 588, 3, -0.5
*EQUATION
5
2202, 1, 1.0, 534, 1, -0.25, 582, 1, -0.25, 591, 1, -0.25, 543, 1, -0.25
*EQUATION
5
2202, 2, 1.0, 534, 2, -0.25, 582, 2, -0.25, 591, 2, -0.25, 543, 2, -0.25
*EQUATION
5
2202, 3, 1.0, 534, 3, -0.25, 582, 3, -0.25, 591, 3, -0.25, 543, 3, -0.25
*EQUATION
3
2204, 1, 1.0, 543, 1, -0.5, 591, 1, -0.5
*EQUATION
3
2204, 2, 1.0, 543, 2, -0.5, 591, 2, -0.5
*EQUATION
3
2204, 3, 1.0, 543, 3, -0.5, 591, 3, -0.5
*EQUATION
3
2206, 1, 1.0, 582, 1, -0.5, 591, 1, -0.5
*EQUATION
3
2206, 2, 1.0, 582, 2, -0.5, 591, 2, -0.5
*EQUATION
3
2206, 3, 1.0, 582, 3, -0.5, 591, 3, -0.5
*EQUATION
3
2208, 1, 1.0, 538, 1, -0.5, 545, 1, -0.5
*EQUATION
3
2208, 2, 1.0, 538, 2, -0.5, 545, 2, -0.5
*EQUATION
3
2208, 3, 1.0, 538, 3, -0.5, 545, 3, -0.5
*EQUATION
5
2209, 1, 1.0, 538, 1, -0.25, 545, 1, -0.25, 546, 1, -0.25, 540, 1, -0.25
*EQUATION
5
2209, 2, 1.0, 538, 2, -0.25, 545, 2, -0.25, 546, 2, -0.25, 540, 2, -0.25
*EQUATION
5
2209, 3, 1.0, 538, 3, -0.25, 545, 3, -0.25, 546, 3, -0.25, 540, 3, -0.25
*EQUATION
3
2210, 1, 1.0, 540, 1, -0.5, 546, 1, -0.5
*EQUATION
3
2210, 2, 1.0, 540, 2, -0.5, 546, 2, -0.5
*EQUATION
3
2210, 3, 1.0, 540, 3, -0.5, 546, 3, -0.5
*EQUATION
3
2211, 1, 1.0, 545, 1, -0.5, 546, 1, -0.5
*EQUATION
3
2211, 2, 1.0, 545, 2, -0.5, 546, 2, -0.5
*EQUATION
3
2211, 3, 1.0, 545, 3, -0.5, 546, 3, -0.5
*EQUATION
5
2212, 1, 1.0, 538, 1, -0.25, 586, 1, -0.25, 593, 1, -0.25, 545, 1, -0.25
*EQUATION
5
2212, 2, 1.0, 538, 2, -0.25, 586, 2, -0.25, 593, 2, -0.25, 545, 2, -0.25
*EQUATION
5
2212, 3, 1.0, 538, 3, -0.25, 586, 3, -0.25, 593, 3, -0.25, 545, 3, -0.25
*EQUATION
5
2214, 1, 1.0, 540, 1, -0.25, 588, 1, -0.25, 594, 1, -0.25, 546, 1, -0.25
*EQUATION
5
2214, 2, 1.0, 540, 2, -0.25, 588, 2, -0.25, 594, 2, -0.25, 546, 2, -0.25
*EQUATION
5
2214, 3, 1.0, 540, 3, -0.25, 588, 3, -0.25, 594, 3, -0.25, 546, 3, -0.25
*EQUATION
3
2215, 1, 1.0, 545, 1, -0.5, 593, 1, -0.5
*EQUATION
3
2215, 2, 1.0, 545, 2, -0.5, 593, 2, -0.5
*EQUATION
3
2215, 3, 1.0, 545, 3, -0.5, 593, 3, -0.5
*EQUATION
3
2217, 1, 1.0, 546, 1, -0.5, 594, 1, -0.5
*EQUATION
3
2217, 2, 1.0, 546, 2, -0.5, 594, 2, -0.5
*EQUATION
3
2217, 3, 1.0, 546, 3, -0.5, 594, 3, -0.5
*EQUATION
3
2218, 1, 1.0, 586, 1, -0.5, 593, 1, -0.5
*EQUATION
3
2218, 2, 1.0, 586, 2, -0.5, 593, 2, -0.5
*EQUATION
3
2218, 3, 1.0, 586, 3, -0.5, 593, 3, -0.5
*EQUATION
3
2220, 1, 1.0, 588, 1, -0.5, 594, 1, -0.5
*EQUATION
3
2220, 2, 1.0, 588, 2, -0.5, 594, 2, -0.5
*EQUATION
3
2220, 3, 1.0, 588, 3, -0.5, 594, 3, -0.5
*EQUATION
3
2222, 1, 1.0, 548, 1, -0.5, 553, 1, -0.5
*EQUATION
3
2222, 2, 1.0, 548, 2, -0.5, 553, 2, -0.5
*EQUATION
3
2222, 3, 1.0, 548, 3, -0.5, 553, 3, -0.5
*EQUATION
5
2223, 1, 1.0, 548, 1, -0.25, 553, 1, -0.25, 554, 1, -0.25, 550, 1, -0.25
*EQUATION
5
2223, 2, 1.0, 548, 2, -0.25, 553, 2, -0.25, 554, 2, -0.25, 550, 2, -0.25
*EQUATION
5
2223, 3, 1.0, 548, 3, -0.25, 553, 3, -0.25, 554, 3, -0.25, 550, 3, -0.25
*EQUATION
3
2224, 1, 1.0, 550, 1, -0.5, 554, 1, -0.5
*EQUATION
3
2224, 2, 1.0, 550, 2, -0.5, 554, 2, -0.5
*EQUATION
3
2224, 3, 1.0, 550, 3, -0.5, 554, 3, -0.5
*EQUATION
3
2225, 1, 1.0, 553, 1, -0.5, 554, 1, -0.5
*EQUATION
3
2225, 2, 1.0, 553, 2, -0.5, 554, 2, -0.5
*EQUATION
3
2225, 3, 1.0, 553, 3, -0.5, 554, 3, -0.5
*EQUATION
3
2229, 1, 1.0, 553, 1, -0.5, 601, 1, -0.5
*EQUATION
3
2229, 2, 1.0, 553, 2, -0.5, 601, 2, -0.5
*EQUATION
3
2229, 3, 1.0, 553, 3, -0.5, 601, 3, -0.5
*EQUATION
5
2230, 1, 1.0, 553, 1, -0.25, 601, 1, -0.25, 602, 1, -0.25, 554, 1, -0.25
*EQUATION
5
2230, 2, 1.0, 553, 2, -0.25, 601, 2, -0.25, 602, 2, -0.25, 554, 2, -0.25
*EQUATION
5
2230, 3, 1.0, 553, 3, -0.25, 601, 3, -0.25, 602, 3, -0.25, 554, 3, -0.25
*EQUATION
3
2231, 1, 1.0, 554, 1, -0.5, 602, 1, -0.5
*EQUATION
3
2231, 2, 1.0, 554, 2, -0.5, 602, 2, -0.5
*EQUATION
3
2231, 3, 1.0, 554, 3, -0.5, 602, 3, -0.5
*EQUATION
3
2235, 1, 1.0, 601, 1, -0.5, 602, 1, -0.5
*EQUATION
3
2235, 2, 1.0, 601, 2, -0.5, 602, 2, -0.5
*EQUATION
3
2235, 3, 1.0, 601, 3, -0.5, 602, 3, -0.5
*EQUATION
5
2236, 1, 1.0, 550, 1, -0.25, 554, 1, -0.25, 555, 1, -0.25, 552, 1, -0.25
*EQUATION
5
2236, 2, 1.0, 550, 2, -0.25, 554, 2, -0.25, 555, 2, -0.25, 552, 2, -0.25
*EQUATION
5
2236, 3, 1.0, 550, 3, -0.25, 554, 3, -0.25, 555, 3, -0.25, 552, 3, -0.25
*EQUATION
3
2237, 1, 1.0, 552, 1, -0.5, 555, 1, -0.5
*EQUATION
3
2237, 2, 1.0, 552, 2, -0.5, 555, 2, -0.5
*EQUATION
3
2237, 3, 1.0, 552, 3, -0.5, 555, 3, -0.5
*EQUATION
3
2238, 1, 1.0, 554, 1, -0.5, 555, 1, -0.5
*EQUATION
3
2238, 2, 1.0, 554, 2, -0.5, 555, 2, -0.5
*EQUATION
3
2238, 3, 1.0, 554, 3, -0.5, 555, 3, -0.5
*EQUATION
5
2241, 1, 1.0, 554, 1, -0.25, 602, 1, -0.25, 603, 1, -0.25, 555, 1, -0.25
*EQUATION
5
2241, 2, 1.0, 554, 2, -0.25, 602, 2, -0.25, 603, 2, -0.25, 555, 2, -0.25
*EQUATION
5
2241, 3, 1.0, 554, 3, -0.25, 602, 3, -0.25, 603, 3, -0.25, 555, 3, -0.25
*EQUATION
3
2242, 1, 1.0, 555, 1, -0.5, 603, 1, -0.5
*EQUATION
3
2242, 2, 1.0, 555, 2, -0.5, 603, 2, -0.5
*EQUATION
3
2242, 3, 1.0, 555, 3, -0.5, 603, 3, -0.5
*EQUATION
3
2245, 1, 1.0, 602, 1, -0.5, 603, 1, -0.5
*EQUATION
3
2245, 2, 1.0, 602, 2, -0.5, 603, 2, -0.5
*EQUATION
3
2245, 3, 1.0, 602, 3, -0.5, 603, 3, -0.5
*EQUATION
3
2246, 1, 1.0, 556, 1, -0.5, 604, 1, -0.5
*EQUATION
3
2246, 2, 1.0, 556, 2, -0.5, 604, 2, -0.5
*EQUATION
3
2246, 3, 1.0, 556, 3, -0.5, 604, 3, -0.5
*EQUATION
5
2247, 1, 1.0, 556, 1, -0.25, 604, 1, -0.25, 605, 1, -0.25, 557, 1, -0.25
*EQUATION
5
2247, 2, 1.0, 556, 2, -0.25, 604, 2, -0.25, 605, 2, -0.25, 557, 2, -0.25
*EQUATION
5
2247, 3, 1.0, 556, 3, -0.25, 604, 3, -0.25, 605, 3, -0.25, 557, 3, -0.25
*EQUATION
3
2248, 1, 1.0, 557, 1, -0.5, 605, 1, -0.5
*EQUATION
3
2248, 2, 1.0, 557, 2, -0.5, 605, 2, -0.5
*EQUATION
3
2248, 3, 1.0, 557, 3, -0.5, 605, 3, -0.5
*EQUATION
5
2251, 1, 1.0, 557, 1, -0.25, 605, 1, -0.25, 607, 1, -0.25, 559, 1, -0.25
*EQUATION
5
2251, 2, 1.0, 557, 2, -0.25, 605, 2, -0.25, 607, 2, -0.25, 559, 2, -0.25
*EQUATION
5
2251, 3, 1.0, 557, 3, -0.25, 605, 3, -0.25, 607, 3, -0.25, 559, 3, -0.25
*EQUATION
5
2252, 1, 1.0, 539, 1, -0.25, 587, 1, -0.25, 607, 1, -0.25, 559, 1, -0.25
*EQUATION
5
2252, 2, 1.0, 539, 2, -0.25, 587, 2, -0.25, 607, 2, -0.25, 559, 2, -0.25
*EQUATION
5
2252, 3, 1.0, 539, 3, -0.25, 587, 3, -0.25, 607, 3, -0.25, 559, 3, -0.25
*EQUATION
3
2253, 1, 1.0, 559, 1, -0.5, 607, 1, -0.5
*EQUATION
3
2253, 2, 1.0, 559, 2, -0.5, 607, 2, -0.5
*EQUATION
3
2253, 3, 1.0, 559, 3, -0.5, 607, 3, -0.5
*EQUATION
3
2254, 1, 1.0, 604, 1, -0.5, 605, 1, -0.5
*EQUATION
3
2254, 2, 1.0, 604, 2, -0.5, 605, 2, -0.5
*EQUATION
3
2254, 3, 1.0, 604, 3, -0.5, 605, 3, -0.5
*EQUATION
3
2257, 1, 1.0, 605, 1, -0.5, 607, 1, -0.5
*EQUATION
3
2257, 2, 1.0, 605, 2, -0.5, 607, 2, -0.5
*EQUATION
3
2257, 3, 1.0, 605, 3, -0.5, 607, 3, -0.5
*EQUATION
3
2258, 1, 1.0, 587, 1, -0.5, 607, 1, -0.5
*EQUATION
3
2258, 2, 1.0, 587, 2, -0.5, 607, 2, -0.5
*EQUATION
3
2258, 3, 1.0, 587, 3, -0.5, 607, 3, -0.5
*EQUATION
3
2259, 1, 1.0, 563, 1, -0.5, 564, 1, -0.5
*EQUATION
3
2259, 2, 1.0, 563, 2, -0.5, 564, 2, -0.5
*EQUATION
3
2259, 3, 1.0, 563, 3, -0.5, 564, 3, -0.5
*EQUATION
3
2260, 1, 1.0, 563, 1, -0.5, 566, 1, -0.5
*EQUATION
3
2260, 2, 1.0, 563, 2, -0.5, 566, 2, -0.5
*EQUATION
3
2260, 3, 1.0, 563, 3, -0.5, 566, 3, -0.5
*EQUATION
5
2261, 1, 1.0, 563, 1, -0.25, 566, 1, -0.25, 567, 1, -0.25, 564, 1, -0.25
*EQUATION
5
2261, 2, 1.0, 563, 2, -0.25, 566, 2, -0.25, 567, 2, -0.25, 564, 2, -0.25
*EQUATION
5
2261, 3, 1.0, 563, 3, -0.25, 566, 3, -0.25, 567, 3, -0.25, 564, 3, -0.25
*EQUATION
3
2262, 1, 1.0, 564, 1, -0.5, 567, 1, -0.5
*EQUATION
3
2262, 2, 1.0, 564, 2, -0.5, 567, 2, -0.5
*EQUATION
3
2262, 3, 1.0, 564, 3, -0.5, 567, 3, -0.5
*EQUATION
3
2263, 1, 1.0, 566, 1, -0.5, 567, 1, -0.5
*EQUATION
3
2263, 2, 1.0, 566, 2, -0.5, 567, 2, -0.5
*EQUATION
3
2263, 3, 1.0, 566, 3, -0.5, 567, 3, -0.5
*EQUATION
3
2264, 1, 1.0, 563, 1, -0.5, 611, 1, -0.5
*EQUATION
3
2264, 2, 1.0, 563, 2, -0.5, 611, 2, -0.5
*EQUATION
3
2264, 3, 1.0, 563, 3, -0.5, 611, 3, -0.5
*EQUATION
5
2265, 1, 1.0, 563, 1, -0.25, 611, 1, -0.25, 612, 1, -0.25, 564, 1, -0.25
*EQUATION
5
2265, 2, 1.0, 563, 2, -0.25, 611, 2, -0.25, 612, 2, -0.25, 564, 2, -0.25
*EQUATION
5
2265, 3, 1.0, 563, 3, -0.25, 611, 3, -0.25, 612, 3, -0.25, 564, 3, -0.25
*EQUATION
3
2266, 1, 1.0, 564, 1, -0.5, 612, 1, -0.5
*EQUATION
3
2266, 2, 1.0, 564, 2, -0.5, 612, 2, -0.5
*EQUATION
3
2266, 3, 1.0, 564, 3, -0.5, 612, 3, -0.5
*EQUATION
5
2267, 1, 1.0, 563, 1, -0.25, 611, 1, -0.25, 614, 1, -0.25, 566, 1, -0.25
*EQUATION
5
2267, 2, 1.0, 563, 2, -0.25, 611, 2, -0.25, 614, 2, -0.25, 566, 2, -0.25
*EQUATION
5
2267, 3, 1.0, 563, 3, -0.25, 611, 3, -0.25, 614, 3, -0.25, 566, 3, -0.25
*EQUATION
3
2270, 1, 1.0, 566, 1, -0.5, 614, 1, -0.5
*EQUATION
3
2270, 2, 1.0, 566, 2, -0.5, 614, 2, -0.5
*EQUATION
3
2270, 3, 1.0, 566, 3, -0.5, 614, 3, -0.5
*EQUATION
5
2271, 1, 1.0, 566, 1, -0.25, 614, 1, -0.25, 615, 1, -0.25, 567, 1, -0.25
*EQUATION
5
2271, 2, 1.0, 566, 2, -0.25, 614, 2, -0.25, 615, 2, -0.25, 567, 2, -0.25
*EQUATION
5
2271, 3, 1.0, 566, 3, -0.25, 614, 3, -0.25, 615, 3, -0.25, 567, 3, -0.25
*EQUATION
3
2272, 1, 1.0, 567, 1, -0.5, 615, 1, -0.5
*EQUATION
3
2272, 2, 1.0, 567, 2, -0.5, 615, 2, -0.5
*EQUATION
3
2272, 3, 1.0, 567, 3, -0.5, 615, 3, -0.5
*EQUATION
3
2273, 1, 1.0, 611, 1, -0.5, 612, 1, -0.5
*EQUATION
3
2273, 2, 1.0, 611, 2, -0.5, 612, 2, -0.5
*EQUATION
3
2273, 3, 1.0, 611, 3, -0.5, 612, 3, -0.5
*EQUATION
3
2274, 1, 1.0, 611, 1, -0.5, 614, 1, -0.5
*EQUATION
3
2274, 2, 1.0, 611, 2, -0.5, 614, 2, -0.5
*EQUATION
3
2274, 3, 1.0, 611, 3, -0.5, 614, 3, -0.5
*EQUATION
3
2277, 1, 1.0, 614, 1, -0.5, 615, 1, -0.5
*EQUATION
3
2277, 2, 1.0, 614, 2, -0.5, 615, 2, -0.5
*EQUATION
3
2277, 3, 1.0, 614, 3, -0.5, 615, 3, -0.5
*EQUATION
3
2279, 1, 1.0, 581, 1, -0.5, 629, 1, -0.5
*EQUATION
3
2279, 2, 1.0, 581, 2, -0.5, 629, 2, -0.5
*EQUATION
3
2279, 3, 1.0, 581, 3, -0.5, 629, 3, -0.5
*EQUATION
5
2281, 1, 1.0, 581, 1, -0.25, 629, 1, -0.25, 630, 1, -0.25, 582, 1, -0.25
*EQUATION
5
2281, 2, 1.0, 581, 2, -0.25, 629, 2, -0.25, 630, 2, -0.25, 582, 2, -0.25
*EQUATION
5
2281, 3, 1.0, 581, 3, -0.25, 629, 3, -0.25, 630, 3, -0.25, 582, 3, -0.25
*EQUATION
3
2283, 1, 1.0, 582, 1, -0.5, 630, 1, -0.5
*EQUATION
3
2283, 2, 1.0, 582, 2, -0.5, 630, 2, -0.5
*EQUATION
3
2283, 3, 1.0, 582, 3, -0.5, 630, 3, -0.5
*EQUATION
3
2286, 1, 1.0, 629, 1, -0.5, 630, 1, -0.5
*EQUATION
3
2286, 2, 1.0, 629, 2, -0.5, 630, 2, -0.5
*EQUATION
3
2286, 3, 1.0, 629, 3, -0.5, 630, 3, -0.5
*EQUATION
3
2288, 1, 1.0, 585, 1, -0.5, 633, 1, -0.5
*EQUATION
3
2288, 2, 1.0, 585, 2, -0.5, 633, 2, -0.5
*EQUATION
3
2288, 3, 1.0, 585, 3, -0.5, 633, 3, -0.5
*EQUATION
3
2290, 1, 1.0, 587, 1, -0.5, 635, 1, -0.5
*EQUATION
3
2290, 2, 1.0, 587, 2, -0.5, 635, 2, -0.5
*EQUATION
3
2290, 3, 1.0, 587, 3, -0.5, 635, 3, -0.5
*EQUATION
5
2291, 1, 1.0, 585, 1, -0.25, 633, 1, -0.25, 634, 1, -0.25, 586, 1, -0.25
*EQUATION
5
2291, 2, 1.0, 585, 2, -0.25, 633, 2, -0.25, 634, 2, -0.25, 586, 2, -0.25
*EQUATION
5
2291, 3, 1.0, 585, 3, -0.25, 633, 3, -0.25, 634, 3, -0.25, 586, 3, -0.25
*EQUATION
5
2293, 1, 1.0, 587, 1, -0.25, 635, 1, -0.25, 636, 1, -0.25, 588, 1, -0.25
*EQUATION
5
2293, 2, 1.0, 587, 2, -0.25, 635, 2, -0.25, 636, 2, -0.25, 588, 2, -0.25
*EQUATION
5
2293, 3, 1.0, 587, 3, -0.25, 635, 3, -0.25, 636, 3, -0.25, 588, 3, -0.25
*EQUATION
3
2294, 1, 1.0, 586, 1, -0.5, 634, 1, -0.5
*EQUATION
3
2294, 2, 1.0, 586, 2, -0.5, 634, 2, -0.5
*EQUATION
3
2294, 3, 1.0, 586, 3, -0.5, 634, 3, -0.5
*EQUATION
3
2296, 1, 1.0, 588, 1, -0.5, 636, 1, -0.5
*EQUATION
3
2296, 2, 1.0, 588, 2, -0.5, 636, 2, -0.5
*EQUATION
3
2296, 3, 1.0, 588, 3, -0.5, 636, 3, -0.5
*EQUATION
3
2298, 1, 1.0, 633, 1, -0.5, 634, 1, -0.5
*EQUATION
3
2298, 2, 1.0, 633, 2, -0.5, 634, 2, -0.5
*EQUATION
3
2298, 3, 1.0, 633, 3, -0.5, 634, 3, -0.5
*EQUATION
3
2300, 1, 1.0, 635, 1, -0.5, 636, 1, -0.5
*EQUATION
3
2300, 2, 1.0, 635, 2, -0.5, 636, 2, -0.5
*EQUATION
3
2300, 3, 1.0, 635, 3, -0.5, 636, 3, -0.5
*EQUATION
5
2303, 1, 1.0, 582, 1, -0.25, 630, 1, -0.25, 639, 1, -0.25, 591, 1, -0.25
*EQUATION
5
2303, 2, 1.0, 582, 2, -0.25, 630, 2, -0.25, 639, 2, -0.25, 591, 2, -0.25
*EQUATION
5
2303, 3, 1.0, 582, 3, -0.25, 630, 3, -0.25, 639, 3, -0.25, 591, 3, -0.25
*EQUATION
3
2305, 1, 1.0, 591, 1, -0.5, 639, 1, -0.5
*EQUATION
3
2305, 2, 1.0, 591, 2, -0.5, 639, 2, -0.5
*EQUATION
3
2305, 3, 1.0, 591, 3, -0.5, 639, 3, -0.5
*EQUATION
3
2307, 1, 1.0, 630, 1, -0.5, 639, 1, -0.5
*EQUATION
3
2307, 2, 1.0, 630, 2, -0.5, 639, 2, -0.5
*EQUATION
3
2307, 3, 1.0, 630, 3, -0.5, 639, 3, -0.5
*EQUATION
5
2309, 1, 1.0, 586, 1, -0.25, 634, 1, -0.25, 641, 1, -0.25, 593, 1, -0.25
*EQUATION
5
2309, 2, 1.0, 586, 2, -0.25, 634, 2, -0.25, 641, 2, -0.25, 593, 2, -0.25
*EQUATION
5
2309, 3, 1.0, 586, 3, -0.25, 634, 3, -0.25, 641, 3, -0.25, 593, 3, -0.25
*EQUATION
5
2311, 1, 1.0, 588, 1, -0.25, 636, 1, -0.25, 642, 1, -0.25, 594, 1, -0.25
*EQUATION
5
2311, 2, 1.0, 588, 2, -0.25, 636, 2, -0.25, 642, 2, -0.25, 594, 2, -0.25
*EQUATION
5
2311, 3, 1.0, 588, 3, -0.25, 636, 3, -0.25, 642, 3, -0.25, 594, 3, -0.25
*EQUATION
3
2312, 1, 1.0, 593, 1, -0.5, 641, 1, -0.5
*EQUATION
3
2312, 2, 1.0, 593, 2, -0.5, 641, 2, -0.5
*EQUATION
3
2312, 3, 1.0, 593, 3, -0.5, 641, 3, -0.5
*EQUATION
3
2314, 1, 1.0, 594, 1, -0.5, 642, 1, -0.5
*EQUATION
3
2314, 2, 1.0, 594, 2, -0.5, 642, 2, -0.5
*EQUATION
3
2314, 3, 1.0, 594, 3, -0.5, 642, 3, -0.5
*EQUATION
3
2315, 1, 1.0, 634, 1, -0.5, 641, 1, -0.5
*EQUATION
3
2315, 2, 1.0, 634, 2, -0.5, 641, 2, -0.5
*EQUATION
3
2315, 3, 1.0, 634, 3, -0.5, 641, 3, -0.5
*EQUATION
3
2317, 1, 1.0, 636, 1, -0.5, 642, 1, -0.5
*EQUATION
3
2317, 2, 1.0, 636, 2, -0.5, 642, 2, -0.5
*EQUATION
3
2317, 3, 1.0, 636, 3, -0.5, 642, 3, -0.5
*EQUATION
3
2322, 1, 1.0, 601, 1, -0.5, 649, 1, -0.5
*EQUATION
3
2322, 2, 1.0, 601, 2, -0.5, 649, 2, -0.5
*EQUATION
3
2322, 3, 1.0, 601, 3, -0.5, 649, 3, -0.5
*EQUATION
5
2323, 1, 1.0, 601, 1, -0.25, 649, 1, -0.25, 650, 1, -0.25, 602, 1, -0.25
*EQUATION
5
2323, 2, 1.0, 601, 2, -0.25, 649, 2, -0.25, 650, 2, -0.25, 602, 2, -0.25
*EQUATION
5
2323, 3, 1.0, 601, 3, -0.25, 649, 3, -0.25, 650, 3, -0.25, 602, 3, -0.25
*EQUATION
3
2324, 1, 1.0, 602, 1, -0.5, 650, 1, -0.5
*EQUATION
3
2324, 2, 1.0, 602, 2, -0.5, 650, 2, -0.5
*EQUATION
3
2324, 3, 1.0, 602, 3, -0.5, 650, 3, -0.5
*EQUATION
3
2328, 1, 1.0, 649, 1, -0.5, 650, 1, -0.5
*EQUATION
3
2328, 2, 1.0, 649, 2, -0.5, 650, 2, -0.5
*EQUATION
3
2328, 3, 1.0, 649, 3, -0.5, 650, 3, -0.5
*EQUATION
5
2331, 1, 1.0, 602, 1, -0.25, 650, 1, -0.25, 651, 1, -0.25, 603, 1, -0.25
*EQUATION
5
2331, 2, 1.0, 602, 2, -0.25, 650, 2, -0.25, 651, 2, -0.25, 603, 2, -0.25
*EQUATION
5
2331, 3, 1.0, 602, 3, -0.25, 650, 3, -0.25, 651, 3, -0.25, 603, 3, -0.25
*EQUATION
3
2332, 1, 1.0, 603, 1, -0.5, 651, 1, -0.5
*EQUATION
3
2332, 2, 1.0, 603, 2, -0.5, 651, 2, -0.5
*EQUATION
3
2332, 3, 1.0, 603, 3, -0.5, 651, 3, -0.5
*EQUATION
3
2335, 1, 1.0, 650, 1, -0.5, 651, 1, -0.5
*EQUATION
3
2335, 2, 1.0, 650, 2, -0.5, 651, 2, -0.5
*EQUATION
3
2335, 3, 1.0, 650, 3, -0.5, 651, 3, -0.5
*EQUATION
3
2336, 1, 1.0, 604, 1, -0.5, 652, 1, -0.5
*EQUATION
3
2336, 2, 1.0, 604, 2, -0.5, 652, 2, -0.5
*EQUATION
3
2336, 3, 1.0, 604, 3, -0.5, 652, 3, -0.5
*EQUATION
5
2337, 1, 1.0, 604, 1, -0.25, 652, 1, -0.25, 653, 1, -0.25, 605, 1, -0.25
*EQUATION
5
2337, 2, 1.0, 604, 2, -0.25, 652, 2, -0.25, 653, 2, -0.25, 605, 2, -0.25
*EQUATION
5
2337, 3, 1.0, 604, 3, -0.25, 652, 3, -0.25, 653, 3, -0.25, 605, 3, -0.25
*EQUATION
3
2338, 1, 1.0, 605, 1, -0.5, 653, 1, -0.5
*EQUATION
3
2338, 2, 1.0, 605, 2, -0.5, 653, 2, -0.5
*EQUATION
3
2338, 3, 1.0, 605, 3, -0.5, 653, 3, -0.5
*EQUATION
5
2341, 1, 1.0, 605, 1, -0.25, 653, 1, -0.25, 655, 1, -0.25, 607, 1, -0.25
*EQUATION
5
2341, 2, 1.0, 605, 2, -0.25, 653, 2, -0.25, 655, 2, -0.25, 607, 2, -0.25
*EQUATION
5
2341, 3, 1.0, 605, 3, -0.25, 653, 3, -0.25, 655, 3, -0.25, 607, 3, -0.25
*EQUATION
5
2342, 1, 1.0, 587, 1, -0.25, 635, 1, -0.25, 655, 1, -0.25, 607, 1, -0.25
*EQUATION
5
2342, 2, 1.0, 587, 2, -0.25, 635, 2, -0.25, 655, 2, -0.25, 607, 2, -0.25
*EQUATION
5
2342, 3, 1.0, 587, 3, -0.25, 635, 3, -0.25, 655, 3, -0.25, 607, 3, -0.25
*EQUATION
3
2343, 1, 1.0, 607, 1, -0.5, 655, 1, -0.5
*EQUATION
3
2343, 2, 1.0, 607, 2, -0.5, 655, 2, -0.5
*EQUATION
3
2343, 3, 1.0, 607, 3, -0.5, 655, 3, -0.5
*EQUATION
3
2344, 1, 1.0, 652, 1, -0.5, 653, 1, -0.5
*EQUATION
3
2344, 2, 1.0, 652, 2, -0.5, 653, 2, -0.5
*EQUATION
3
2344, 3, 1.0, 652, 3, -0.5, 653, 3, -0.5
*EQUATION
3
2347, 1, 1.0, 653, 1, -0.5, 655, 1, -0.5
*EQUATION
3
2347, 2, 1.0, 653, 2, -0.5, 655, 2, -0.5
*EQUATION
3
2347, 3, 1.0, 653, 3, -0.5, 655, 3, -0.5
*EQUATION
3
2348, 1, 1.0, 635, 1, -0.5, 655, 1, -0.5
*EQUATION
3
2348, 2, 1.0, 635, 2, -0.5, 655, 2, -0.5
*EQUATION
3
2348, 3, 1.0, 635, 3, -0.5, 655, 3, -0.5
*EQUATION
3
2349, 1, 1.0, 611, 1, -0.5, 659, 1, -0.5
*EQUATION
3
2349, 2, 1.0, 611, 2, -0.5, 659, 2, -0.5
*EQUATION
3
2349, 3, 1.0, 611, 3, -0.5, 659, 3, -0.5
*EQUATION
5
2350, 1, 1.0, 611, 1, -0.25, 659, 1, -0.25, 660, 1, -0.25, 612, 1, -0.25
*EQUATION
5
2350, 2, 1.0, 611, 2, -0.25, 659, 2, -0.25, 660, 2, -0.25, 612, 2, -0.25
*EQUATION
5
2350, 3, 1.0, 611, 3, -0.25, 659, 3, -0.25, 660, 3, -0.25, 612, 3, -0.25
*EQUATION
3
2351, 1, 1.0, 612, 1, -0.5, 660, 1, -0.5
*EQUATION
3
2351, 2, 1.0, 612, 2, -0.5, 660, 2, -0.5
*EQUATION
3
2351, 3, 1.0, 612, 3, -0.5, 660, 3, -0.5
*EQUATION
5
2352, 1, 1.0, 611, 1, -0.25, 659, 1, -0.25, 662, 1, -0.25, 614, 1, -0.25
*EQUATION
5
2352, 2, 1.0, 611, 2, -0.25, 659, 2, -0.25, 662, 2, -0.25, 614, 2, -0.25
*EQUATION
5
2352, 3, 1.0, 611, 3, -0.25, 659, 3, -0.25, 662, 3, -0.25, 614, 3, -0.25
*EQUATION
3
2355, 1, 1.0, 614, 1, -0.5, 662, 1, -0.5
*EQUATION
3
2355, 2, 1.0, 614, 2, -0.5, 662, 2, -0.5
*EQUATION
3
2355, 3, 1.0, 614, 3, -0.5, 662, 3, -0.5
*EQUATION
5
2356, 1, 1.0, 614, 1, -0.25, 662, 1, -0.25, 663, 1, -0.25, 615, 1, -0.25
*EQUATION
5
2356, 2, 1.0, 614, 2, -0.25, 662, 2, -0.25, 663, 2, -0.25, 615, 2, -0.25
*EQUATION
5
2356, 3, 1.0, 614, 3, -0.25, 662, 3, -0.25, 663, 3, -0.25, 615, 3, -0.25
*EQUATION
3
2357, 1, 1.0, 615, 1, -0.5, 663, 1, -0.5
*EQUATION
3
2357, 2, 1.0, 615, 2, -0.5, 663, 2, -0.5
*EQUATION
3
2357, 3, 1.0, 615, 3, -0.5, 663, 3, -0.5
*EQUATION
3
2358, 1, 1.0, 659, 1, -0.5, 660, 1, -0.5
*EQUATION
3
2358, 2, 1.0, 659, 2, -0.5, 660, 2, -0.5
*EQUATION
3
2358, 3, 1.0, 659, 3, -0.5, 660, 3, -0.5
*EQUATION
3
2359, 1, 1.0, 659, 1, -0.5, 662, 1, -0.5
*EQUATION
3
2359, 2, 1.0, 659, 2, -0.5, 662, 2, -0.5
*EQUATION
3
2359, 3, 1.0, 659, 3, -0.5, 662, 3, -0.5
*EQUATION
3
2362, 1, 1.0, 662, 1, -0.5, 663, 1, -0.5
*EQUATION
3
2362, 2, 1.0, 662, 2, -0.5, 663, 2, -0.5
*EQUATION
3
2362, 3, 1.0, 662, 3, -0.5, 663, 3, -0.5
*EQUATION
3
2363, 1, 1.0, 616, 1, -0.5, 617, 1, -0.5
*EQUATION
3
2363, 2, 1.0, 616, 2, -0.5, 617, 2, -0.5
*EQUATION
3
2363, 3, 1.0, 616, 3, -0.5, 617, 3, -0.5
*EQUATION
3
2364, 1, 1.0, 616, 1, -0.5, 619, 1, -0.5
*EQUATION
3
2364, 2, 1.0, 616, 2, -0.5, 619, 2, -0.5
*EQUATION
3
2364, 3, 1.0, 616, 3, -0.5, 619, 3, -0.5
*EQUATION
5
2365, 1, 1.0, 616, 1, -0.25, 619, 1, -0.25, 620, 1, -0.25, 617, 1, -0.25
*EQUATION
5
2365, 2, 1.0, 616, 2, -0.25, 619, 2, -0.25, 620, 2, -0.25, 617, 2, -0.25
*EQUATION
5
2365, 3, 1.0, 616, 3, -0.25, 619, 3, -0.25, 620, 3, -0.25, 617, 3, -0.25
*EQUATION
3
2366, 1, 1.0, 617, 1, -0.5, 620, 1, -0.5
*EQUATION
3
2366, 2, 1.0, 617, 2, -0.5, 620, 2, -0.5
*EQUATION
3
2366, 3, 1.0, 617, 3, -0.5, 620, 3, -0.5
*EQUATION
3
2367, 1, 1.0, 616, 1, -0.5, 664, 1, -0.5
*EQUATION
3
2367, 2, 1.0, 616, 2, -0.5, 664, 2, -0.5
*EQUATION
3
2367, 3, 1.0, 616, 3, -0.5, 664, 3, -0.5
*EQUATION
5
2368, 1, 1.0, 616, 1, -0.25, 664, 1, -0.25, 665, 1, -0.25, 617, 1, -0.25
*EQUATION
5
2368, 2, 1.0, 616, 2, -0.25, 664, 2, -0.25, 665, 2, -0.25, 617, 2, -0.25
*EQUATION
5
2368, 3, 1.0, 616, 3, -0.25, 664, 3, -0.25, 665, 3, -0.25, 617, 3, -0.25
*EQUATION
3
2369, 1, 1.0, 617, 1, -0.5, 665, 1, -0.5
*EQUATION
3
2369, 2, 1.0, 617, 2, -0.5, 665, 2, -0.5
*EQUATION
3
2369, 3, 1.0, 617, 3, -0.5, 665, 3, -0.5
*EQUATION
3
2373, 1, 1.0, 664, 1, -0.5, 665, 1, -0.5
*EQUATION
3
2373, 2, 1.0, 664, 2, -0.5, 665, 2, -0.5
*EQUATION
3
2373, 3, 1.0, 664, 3, -0.5, 665, 3, -0.5
*EQUATION
3
2377, 1, 1.0, 617, 1, -0.5, 618, 1, -0.5
*EQUATION
3
2377, 2, 1.0, 617, 2, -0.5, 618, 2, -0.5
*EQUATION
3
2377, 3, 1.0, 617, 3, -0.5, 618, 3, -0.5
*EQUATION
5
2378, 1, 1.0, 617, 1, -0.25, 620, 1, -0.25, 621, 1, -0.25, 618, 1, -0.25
*EQUATION
5
2378, 2, 1.0, 617, 2, -0.25, 620, 2, -0.25, 621, 2, -0.25, 618, 2, -0.25
*EQUATION
5
2378, 3, 1.0, 617, 3, -0.25, 620, 3, -0.25, 621, 3, -0.25, 618, 3, -0.25
*EQUATION
3
2379, 1, 1.0, 618, 1, -0.5, 621, 1, -0.5
*EQUATION
3
2379, 2, 1.0, 618, 2, -0.5, 621, 2, -0.5
*EQUATION
3
2379, 3, 1.0, 618, 3, -0.5, 621, 3, -0.5
*EQUATION
5
2380, 1, 1.0, 617, 1, -0.25, 665, 1, -0.25, 666, 1, -0.25, 618, 1, -0.25
*EQUATION
5
2380, 2, 1.0, 617, 2, -0.25, 665, 2, -0.25, 666, 2, -0.25, 618, 2, -0.25
*EQUATION
5
2380, 3, 1.0, 617, 3, -0.25, 665, 3, -0.25, 666, 3, -0.25, 618, 3, -0.25
*EQUATION
3
2381, 1, 1.0, 618, 1, -0.5, 666, 1, -0.5
*EQUATION
3
2381, 2, 1.0, 618, 2, -0.5, 666, 2, -0.5
*EQUATION
3
2381, 3, 1.0, 618, 3, -0.5, 666, 3, -0.5
*EQUATION
3
2384, 1, 1.0, 665, 1, -0.5, 666, 1, -0.5
*EQUATION
3
2384, 2, 1.0, 665, 2, -0.5, 666, 2, -0.5
*EQUATION
3
2384, 3, 1.0, 665, 3, -0.5, 666, 3, -0.5
*EQUATION
3
2388, 1, 1.0, 629, 1, -0.5, 677, 1, -0.5
*EQUATION
3
2388, 2, 1.0, 629, 2, -0.5, 677, 2, -0.5
*EQUATION
3
2388, 3, 1.0, 629, 3, -0.5, 677, 3, -0.5
*EQUATION
5
2390, 1, 1.0, 629, 1, -0.25, 677, 1, -0.25, 678, 1, -0.25, 630, 1, -0.25
*EQUATION
5
2390, 2, 1.0, 629, 2, -0.25, 677, 2, -0.25, 678, 2, -0.25, 630, 2, -0.25
*EQUATION
5
2390, 3, 1.0, 629, 3, -0.25, 677, 3, -0.25, 678, 3, -0.25, 630, 3, -0.25
*EQUATION
3
2392, 1, 1.0, 630, 1, -0.5, 678, 1, -0.5
*EQUATION
3
2392, 2, 1.0, 630, 2, -0.5, 678, 2, -0.5
*EQUATION
3
2392, 3, 1.0, 630, 3, -0.5, 678, 3, -0.5
*EQUATION
3
2395, 1, 1.0, 677, 1, -0.5, 678, 1, -0.5
*EQUATION
3
2395, 2, 1.0, 677, 2, -0.5, 678, 2, -0.5
*EQUATION
3
2395, 3, 1.0, 677, 3, -0.5, 678, 3, -0.5
*EQUATION
3
2397, 1, 1.0, 633, 1, -0.5, 681, 1, -0.5
*EQUATION
3
2397, 2, 1.0, 633, 2, -0.5, 681, 2, -0.5
*EQUATION
3
2397, 3, 1.0, 633, 3, -0.5, 681, 3, -0.5
*EQUATION
3
2399, 1, 1.0, 635, 1, -0.5, 683, 1, -0.5
*EQUATION
3
2399, 2, 1.0, 635, 2, -0.5, 683, 2, -0.5
*EQUATION
3
2399, 3, 1.0, 635, 3, -0.5, 683, 3, -0.5
*EQUATION
5
2400, 1, 1.0, 633, 1, -0.25, 681, 1, -0.25, 682, 1, -0.25, 634, 1, -0.25
*EQUATION
5
2400, 2, 1.0, 633, 2, -0.25, 681, 2, -0.25, 682, 2, -0.25, 634, 2, -0.25
*EQUATION
5
2400, 3, 1.0, 633, 3, -0.25, 681, 3, -0.25, 682, 3, -0.25, 634, 3, -0.25
*EQUATION
5
2402, 1, 1.0, 635, 1, -0.25, 683, 1, -0.25, 684, 1, -0.25, 636, 1, -0.25
*EQUATION
5
2402, 2, 1.0, 635, 2, -0.25, 683, 2, -0.25, 684, 2, -0.25, 636, 2, -0.25
*EQUATION
5
2402, 3, 1.0, 635, 3, -0.25, 683, 3, -0.25, 684, 3, -0.25, 636, 3, -0.25
*EQUATION
3
2403, 1, 1.0, 634, 1, -0.5, 682, 1, -0.5
*EQUATION
3
2403, 2, 1.0, 634, 2, -0.5, 682, 2, -0.5
*EQUATION
3
2403, 3, 1.0, 634, 3, -0.5, 682, 3, -0.5
*EQUATION
3
2405, 1, 1.0, 636, 1, -0.5, 684, 1, -0.5
*EQUATION
3
2405, 2, 1.0, 636, 2, -0.5, 684, 2, -0.5
*EQUATION
3
2405, 3, 1.0, 636, 3, -0.5, 684, 3, -0.5
*EQUATION
5
2407, 1, 1.0, 630, 1, -0.25, 678, 1, -0.25, 687, 1, -0.25, 639, 1, -0.25
*EQUATION
5
2407, 2, 1.0, 630, 2, -0.25, 678, 2, -0.25, 687, 2, -0.25, 639, 2, -0.25
*EQUATION
5
2407, 3, 1.0, 630, 3, -0.25, 678, 3, -0.25, 687, 3, -0.25, 639, 3, -0.25
*EQUATION
3
2409, 1, 1.0, 639, 1, -0.5, 687, 1, -0.5
*EQUATION
3
2409, 2, 1.0, 639, 2, -0.5, 687, 2, -0.5
*EQUATION
3
2409, 3, 1.0, 639, 3, -0.5, 687, 3, -0.5
*EQUATION
3
2411, 1, 1.0, 678, 1, -0.5, 687, 1, -0.5
*EQUATION
3
2411, 2, 1.0, 678, 2, -0.5, 687, 2, -0.5
*EQUATION
3
2411, 3, 1.0, 678, 3, -0.5, 687, 3, -0.5
*EQUATION
5
2413, 1, 1.0, 634, 1, -0.25, 682, 1, -0.25, 689, 1, -0.25, 641, 1, -0.25
*EQUATION
5
2413, 2, 1.0, 634, 2, -0.25, 682, 2, -0.25, 689, 2, -0.25, 641, 2, -0.25
*EQUATION
5
2413, 3, 1.0, 634, 3, -0.25, 682, 3, -0.25, 689, 3, -0.25, 641, 3, -0.25
*EQUATION
5
2415, 1, 1.0, 636, 1, -0.25, 684, 1, -0.25, 690, 1, -0.25, 642, 1, -0.25
*EQUATION
5
2415, 2, 1.0, 636, 2, -0.25, 684, 2, -0.25, 690, 2, -0.25, 642, 2, -0.25
*EQUATION
5
2415, 3, 1.0, 636, 3, -0.25, 684, 3, -0.25, 690, 3, -0.25, 642, 3, -0.25
*EQUATION
3
2416, 1, 1.0, 641, 1, -0.5, 689, 1, -0.5
*EQUATION
3
2416, 2, 1.0, 641, 2, -0.5, 689, 2, -0.5
*EQUATION
3
2416, 3, 1.0, 641, 3, -0.5, 689, 3, -0.5
*EQUATION
3
2418, 1, 1.0, 642, 1, -0.5, 690, 1, -0.5
*EQUATION
3
2418, 2, 1.0, 642, 2, -0.5, 690, 2, -0.5
*EQUATION
3
2418, 3, 1.0, 642, 3, -0.5, 690, 3, -0.5
*EQUATION
3
2419, 1, 1.0, 682, 1, -0.5, 689, 1, -0.5
*EQUATION
3
2419, 2, 1.0, 682, 2, -0.5, 689, 2, -0.5
*EQUATION
3
2419, 3, 1.0, 682, 3, -0.5, 689, 3, -0.5
*EQUATION
3
2421, 1, 1.0, 684, 1, -0.5, 690, 1, -0.5
*EQUATION
3
2421, 2, 1.0, 684, 2, -0.5, 690, 2, -0.5
*EQUATION
3
2421, 3, 1.0, 684, 3, -0.5, 690, 3, -0.5
*EQUATION
3
2426, 1, 1.0, 649, 1, -0.5, 697, 1, -0.5
*EQUATION
3
2426, 2, 1.0, 649, 2, -0.5, 697, 2, -0.5
*EQUATION
3
2426, 3, 1.0, 649, 3, -0.5, 697, 3, -0.5
*EQUATION
5
2427, 1, 1.0, 649, 1, -0.25, 697, 1, -0.25, 698, 1, -0.25, 650, 1, -0.25
*EQUATION
5
2427, 2, 1.0, 649, 2, -0.25, 697, 2, -0.25, 698, 2, -0.25, 650, 2, -0.25
*EQUATION
5
2427, 3, 1.0, 649, 3, -0.25, 697, 3, -0.25, 698, 3, -0.25, 650, 3, -0.25
*EQUATION
3
2428, 1, 1.0, 650, 1, -0.5, 698, 1, -0.5
*EQUATION
3
2428, 2, 1.0, 650, 2, -0.5, 698, 2, -0.5
*EQUATION
3
2428, 3, 1.0, 650, 3, -0.5, 698, 3, -0.5
*EQUATION
3
2432, 1, 1.0, 697, 1, -0.5, 698, 1, -0.5
*EQUATION
3
2432, 2, 1.0, 697, 2, -0.5, 698, 2, -0.5
*EQUATION
3
2432, 3, 1.0, 697, 3, -0.5, 698, 3, -0.5
*EQUATION
5
2435, 1, 1.0, 650, 1, -0.25, 698, 1, -0.25, 699, 1, -0.25, 651, 1, -0.25
*EQUATION
5
2435, 2, 1.0, 650, 2, -0.25, 698, 2, -0.25, 699, 2, -0.25, 651, 2, -0.25
*EQUATION
5
2435, 3, 1.0, 650, 3, -0.25, 698, 3, -0.25, 699, 3, -0.25, 651, 3, -0.25
*EQUATION
3
2436, 1, 1.0, 651, 1, -0.5, 699, 1, -0.5
*EQUATION
3
2436, 2, 1.0, 651, 2, -0.5, 699, 2, -0.5
*EQUATION
3
2436, 3, 1.0, 651, 3, -0.5, 699, 3, -0.5
*EQUATION
3
2439, 1, 1.0, 698, 1, -0.5, 699, 1, -0.5
*EQUATION
3
2439, 2, 1.0, 698, 2, -0.5, 699, 2, -0.5
*EQUATION
3
2439, 3, 1.0, 698, 3, -0.5, 699, 3, -0.5
*EQUATION
3
2440, 1, 1.0, 652, 1, -0.5, 700, 1, -0.5
*EQUATION
3
2440, 2, 1.0, 652, 2, -0.5, 700, 2, -0.5
*EQUATION
3
2440, 3, 1.0, 652, 3, -0.5, 700, 3, -0.5
*EQUATION
5
2441, 1, 1.0, 652, 1, -0.25, 700, 1, -0.25, 701, 1, -0.25, 653, 1, -0.25
*EQUATION
5
2441, 2, 1.0, 652, 2, -0.25, 700, 2, -0.25, 701, 2, -0.25, 653, 2, -0.25
*EQUATION
5
2441, 3, 1.0, 652, 3, -0.25, 700, 3, -0.25, 701, 3, -0.25, 653, 3, -0.25
*EQUATION
3
2442, 1, 1.0, 653, 1, -0.5, 701, 1, -0.5
*EQUATION
3
2442, 2, 1.0, 653, 2, -0.5, 701, 2, -0.5
*EQUATION
3
2442, 3, 1.0, 653, 3, -0.5, 701, 3, -0.5
*EQUATION
5
2446, 1, 1.0, 635, 1, -0.25, 683, 1, -0.25, 703, 1, -0.25, 655, 1, -0.25
*EQUATION
5
2446, 2, 1.0, 635, 2, -0.25, 683, 2, -0.25, 703, 2, -0.25, 655, 2, -0.25
*EQUATION
5
2446, 3, 1.0, 635, 3, -0.25, 683, 3, -0.25, 703, 3, -0.25, 655, 3, -0.25
*EQUATION
3
2447, 1, 1.0, 655, 1, -0.5, 703, 1, -0.5
*EQUATION
3
2447, 2, 1.0, 655, 2, -0.5, 703, 2, -0.5
*EQUATION
3
2447, 3, 1.0, 655, 3, -0.5, 703, 3, -0.5
*EQUATION
3
2448, 1, 1.0, 700, 1, -0.5, 701, 1, -0.5
*EQUATION
3
2448, 2, 1.0, 700, 2, -0.5, 701, 2, -0.5
*EQUATION
3
2448, 3, 1.0, 700, 3, -0.5, 701, 3, -0.5
*EQUATION
3
2452, 1, 1.0, 683, 1, -0.5, 703, 1, -0.5
*EQUATION
3
2452, 2, 1.0, 683, 2, -0.5, 703, 2, -0.5
*EQUATION
3
2452, 3, 1.0, 683, 3, -0.5, 703, 3, -0.5
*EQUATION
3
2453, 1, 1.0, 653, 1, -0.5, 654, 1, -0.5
*EQUATION
3
2453, 2, 1.0, 653, 2, -0.5, 654, 2, -0.5
*EQUATION
3
2453, 3, 1.0, 653, 3, -0.5, 654, 3, -0.5
*EQUATION
5
2454, 1, 1.0, 653, 1, -0.25, 655, 1, -0.25, 656, 1, -0.25, 654, 1, -0.25
*EQUATION
5
2454, 2, 1.0, 653, 2, -0.25, 655, 2, -0.25, 656, 2, -0.25, 654, 2, -0.25
*EQUATION
5
2454, 3, 1.0, 653, 3, -0.25, 655, 3, -0.25, 656, 3, -0.25, 654, 3, -0.25
*EQUATION
3
2455, 1, 1.0, 654, 1, -0.5, 656, 1, -0.5
*EQUATION
3
2455, 2, 1.0, 654, 2, -0.5, 656, 2, -0.5
*EQUATION
3
2455, 3, 1.0, 654, 3, -0.5, 656, 3, -0.5
*EQUATION
3
2456, 1, 1.0, 655, 1, -0.5, 656, 1, -0.5
*EQUATION
3
2456, 2, 1.0, 655, 2, -0.5, 656, 2, -0.5
*EQUATION
3
2456, 3, 1.0, 655, 3, -0.5, 656, 3, -0.5
*EQUATION
5
2457, 1, 1.0, 653, 1, -0.25, 701, 1, -0.25, 702, 1, -0.25, 654, 1, -0.25
*EQUATION
5
2457, 2, 1.0, 653, 2, -0.25, 701, 2, -0.25, 702, 2, -0.25, 654, 2, -0.25
*EQUATION
5
2457, 3, 1.0, 653, 3, -0.25, 701, 3, -0.25, 702, 3, -0.25, 654, 3, -0.25
*EQUATION
3
2458, 1, 1.0, 654, 1, -0.5, 702, 1, -0.5
*EQUATION
3
2458, 2, 1.0, 654, 2, -0.5, 702, 2, -0.5
*EQUATION
3
2458, 3, 1.0, 654, 3, -0.5, 702, 3, -0.5
*EQUATION
5
2461, 1, 1.0, 655, 1, -0.25, 703, 1, -0.25, 704, 1, -0.25, 656, 1, -0.25
*EQUATION
5
2461, 2, 1.0, 655, 2, -0.25, 703, 2, -0.25, 704, 2, -0.25, 656, 2, -0.25
*EQUATION
5
2461, 3, 1.0, 655, 3, -0.25, 703, 3, -0.25, 704, 3, -0.25, 656, 3, -0.25
*EQUATION
3
2462, 1, 1.0, 656, 1, -0.5, 704, 1, -0.5
*EQUATION
3
2462, 2, 1.0, 656, 2, -0.5, 704, 2, -0.5
*EQUATION
3
2462, 3, 1.0, 656, 3, -0.5, 704, 3, -0.5
*EQUATION
3
2463, 1, 1.0, 701, 1, -0.5, 702, 1, -0.5
*EQUATION
3
2463, 2, 1.0, 701, 2, -0.5, 702, 2, -0.5
*EQUATION
3
2463, 3, 1.0, 701, 3, -0.5, 702, 3, -0.5
*EQUATION
3
2466, 1, 1.0, 703, 1, -0.5, 704, 1, -0.5
*EQUATION
3
2466, 2, 1.0, 703, 2, -0.5, 704, 2, -0.5
*EQUATION
3
2466, 3, 1.0, 703, 3, -0.5, 704, 3, -0.5
*EQUATION
3
2467, 1, 1.0, 642, 1, -0.5, 659, 1, -0.5
*EQUATION
3
2467, 2, 1.0, 642, 2, -0.5, 659, 2, -0.5
*EQUATION
3
2467, 3, 1.0, 642, 3, -0.5, 659, 3, -0.5
*EQUATION
3
2468, 1, 1.0, 642, 1, -0.5, 661, 1, -0.5
*EQUATION
3
2468, 2, 1.0, 642, 2, -0.5, 661, 2, -0.5
*EQUATION
3
2468, 3, 1.0, 642, 3, -0.5, 661, 3, -0.5
*EQUATION
5
2469, 1, 1.0, 642, 1, -0.25, 661, 1, -0.25, 662, 1, -0.25, 659, 1, -0.25
*EQUATION
5
2469, 2, 1.0, 642, 2, -0.25, 661, 2, -0.25, 662, 2, -0.25, 659, 2, -0.25
*EQUATION
5
2469, 3, 1.0, 642, 3, -0.25, 661, 3, -0.25, 662, 3, -0.25, 659, 3, -0.25
*EQUATION
3
2470, 1, 1.0, 661, 1, -0.5, 662, 1, -0.5
*EQUATION
3
2470, 2, 1.0, 661, 2, -0.5, 662, 2, -0.5
*EQUATION
3
2470, 3, 1.0, 661, 3, -0.5, 662, 3, -0.5
*EQUATION
5
2471, 1, 1.0, 642, 1, -0.25, 690, 1, -0.25, 707, 1, -0.25, 659, 1, -0.25
*EQUATION
5
2471, 2, 1.0, 642, 2, -0.25, 690, 2, -0.25, 707, 2, -0.25, 659, 2, -0.25
*EQUATION
5
2471, 3, 1.0, 642, 3, -0.25, 690, 3, -0.25, 707, 3, -0.25, 659, 3, -0.25
*EQUATION
3
2472, 1, 1.0, 659, 1, -0.5, 707, 1, -0.5
*EQUATION
3
2472, 2, 1.0, 659, 2, -0.5, 707, 2, -0.5
*EQUATION
3
2472, 3, 1.0, 659, 3, -0.5, 707, 3, -0.5
*EQUATION
3
2476, 1, 1.0, 661, 1, -0.5, 709, 1, -0.5
*EQUATION
3
2476, 2, 1.0, 661, 2, -0.5, 709, 2, -0.5
*EQUATION
3
2476, 3, 1.0, 661, 3, -0.5, 709, 3, -0.5
*EQUATION
5
2477, 1, 1.0, 661, 1, -0.25, 709, 1, -0.25, 710, 1, -0.25, 662, 1, -0.25
*EQUATION
5
2477, 2, 1.0, 661, 2, -0.25, 709, 2, -0.25, 710, 2, -0.25, 662, 2, -0.25
*EQUATION
5
2477, 3, 1.0, 661, 3, -0.25, 709, 3, -0.25, 710, 3, -0.25, 662, 3, -0.25
*EQUATION
3
2478, 1, 1.0, 662, 1, -0.5, 710, 1, -0.5
*EQUATION
3
2478, 2, 1.0, 662, 2, -0.5, 710, 2, -0.5
*EQUATION
3
2478, 3, 1.0, 662, 3, -0.5, 710, 3, -0.5
*EQUATION
3
2479, 1, 1.0, 690, 1, -0.5, 707, 1, -0.5
*EQUATION
3
2479, 2, 1.0, 690, 2, -0.5, 707, 2, -0.5
*EQUATION
3
2479, 3, 1.0, 690, 3, -0.5, 707, 3, -0.5
*EQUATION
3
2483, 1, 1.0, 709, 1, -0.5, 710, 1, -0.5
*EQUATION
3
2483, 2, 1.0, 709, 2, -0.5, 710, 2, -0.5
*EQUATION
3
2483, 3, 1.0, 709, 3, -0.5, 710, 3, -0.5
*EQUATION
5
2484, 1, 1.0, 659, 1, -0.25, 707, 1, -0.25, 708, 1, -0.25, 660, 1, -0.25
*EQUATION
5
2484, 2, 1.0, 659, 2, -0.25, 707, 2, -0.25, 708, 2, -0.25, 660, 2, -0.25
*EQUATION
5
2484, 3, 1.0, 659, 3, -0.25, 707, 3, -0.25, 708, 3, -0.25, 660, 3, -0.25
*EQUATION
3
2485, 1, 1.0, 660, 1, -0.5, 708, 1, -0.5
*EQUATION
3
2485, 2, 1.0, 660, 2, -0.5, 708, 2, -0.5
*EQUATION
3
2485, 3, 1.0, 660, 3, -0.5, 708, 3, -0.5
*EQUATION
5
2488, 1, 1.0, 662, 1, -0.25, 710, 1, -0.25, 711, 1, -0.25, 663, 1, -0.25
*EQUATION
5
2488, 2, 1.0, 662, 2, -0.25, 710, 2, -0.25, 711, 2, -0.25, 663, 2, -0.25
*EQUATION
5
2488, 3, 1.0, 662, 3, -0.25, 710, 3, -0.25, 711, 3, -0.25, 663, 3, -0.25
*EQUATION
3
2489, 1, 1.0, 663, 1, -0.5, 711, 1, -0.5
*EQUATION
3
2489, 2, 1.0, 663, 2, -0.5, 711, 2, -0.5
*EQUATION
3
2489, 3, 1.0, 663, 3, -0.5, 711, 3, -0.5
*EQUATION
3
2490, 1, 1.0, 707, 1, -0.5, 708, 1, -0.5
*EQUATION
3
2490, 2, 1.0, 707, 2, -0.5, 708, 2, -0.5
*EQUATION
3
2490, 3, 1.0, 707, 3, -0.5, 708, 3, -0.5
*EQUATION
3
2493, 1, 1.0, 710, 1, -0.5, 711, 1, -0.5
*EQUATION
3
2493, 2, 1.0, 710, 2, -0.5, 711, 2, -0.5
*EQUATION
3
2493, 3, 1.0, 710, 3, -0.5, 711, 3, -0.5
*EQUATION
3
2494, 1, 1.0, 664, 1, -0.5, 712, 1, -0.5
*EQUATION
3
2494, 2, 1.0, 664, 2, -0.5, 712, 2, -0.5
*EQUATION
3
2494, 3, 1.0, 664, 3, -0.5, 712, 3, -0.5
*EQUATION
5
2495, 1, 1.0, 664, 1, -0.25, 712, 1, -0.25, 713, 1, -0.25, 665, 1, -0.25
*EQUATION
5
2495, 2, 1.0, 664, 2, -0.25, 712, 2, -0.25, 713, 2, -0.25, 665, 2, -0.25
*EQUATION
5
2495, 3, 1.0, 664, 3, -0.25, 712, 3, -0.25, 713, 3, -0.25, 665, 3, -0.25
*EQUATION
3
2496, 1, 1.0, 665, 1, -0.5, 713, 1, -0.5
*EQUATION
3
2496, 2, 1.0, 665, 2, -0.5, 713, 2, -0.5
*EQUATION
3
2496, 3, 1.0, 665, 3, -0.5, 713, 3, -0.5
*EQUATION
3
2500, 1, 1.0, 712, 1, -0.5, 713, 1, -0.5
*EQUATION
3
2500, 2, 1.0, 712, 2, -0.5, 713, 2, -0.5
*EQUATION
3
2500, 3, 1.0, 712, 3, -0.5, 713, 3, -0.5
*EQUATION
5
2504, 1, 1.0, 665, 1, -0.25, 713, 1, -0.25, 714, 1, -0.25, 666, 1, -0.25
*EQUATION
5
2504, 2, 1.0, 665, 2, -0.25, 713, 2, -0.25, 714, 2, -0.25, 666, 2, -0.25
*EQUATION
5
2504, 3, 1.0, 665, 3, -0.25, 713, 3, -0.25, 714, 3, -0.25, 666, 3, -0.25
*EQUATION
3
2505, 1, 1.0, 666, 1, -0.5, 714, 1, -0.5
*EQUATION
3
2505, 2, 1.0, 666, 2, -0.5, 714, 2, -0.5
*EQUATION
3
2505, 3, 1.0, 666, 3, -0.5, 714, 3, -0.5
*EQUATION
3
2508, 1, 1.0, 713, 1, -0.5, 714, 1, -0.5
*EQUATION
3
2508, 2, 1.0, 713, 2, -0.5, 714, 2, -0.5
*EQUATION
3
2508, 3, 1.0, 713, 3, -0.5, 714, 3, -0.5
*EQUATION
3
2512, 1, 1.0, 677, 1, -0.5, 725, 1, -0.5
*EQUATION
3
2512, 2, 1.0, 677, 2, -0.5, 725, 2, -0.5
*EQUATION
3
2512, 3, 1.0, 677, 3, -0.5, 725, 3, -0.5
*EQUATION
5
2514, 1, 1.0, 677, 1, -0.25, 725, 1, -0.25, 726, 1, -0.25, 678, 1, -0.25
*EQUATION
5
2514, 2, 1.0, 677, 2, -0.25, 725, 2, -0.25, 726, 2, -0.25, 678, 2, -0.25
*EQUATION
5
2514, 3, 1.0, 677, 3, -0.25, 725, 3, -0.25, 726, 3, -0.25, 678, 3, -0.25
*EQUATION
3
2516, 1, 1.0, 678, 1, -0.5, 726, 1, -0.5
*EQUATION
3
2516, 2, 1.0, 678, 2, -0.5, 726, 2, -0.5
*EQUATION
3
2516, 3, 1.0, 678, 3, -0.5, 726, 3, -0.5
*EQUATION
3
2519, 1, 1.0, 725, 1, -0.5, 726, 1, -0.5
*EQUATION
3
2519, 2, 1.0, 725, 2, -0.5, 726, 2, -0.5
*EQUATION
3
2519, 3, 1.0, 725, 3, -0.5, 726, 3, -0.5
*EQUATION
5
2522, 1, 1.0, 678, 1, -0.25, 726, 1, -0.25, 735, 1, -0.25, 687, 1, -0.25
*EQUATION
5
2522, 2, 1.0, 678, 2, -0.25, 726, 2, -0.25, 735, 2, -0.25, 687, 2, -0.25
*EQUATION
5
2522, 3, 1.0, 678, 3, -0.25, 726, 3, -0.25, 735, 3, -0.25, 687, 3, -0.25
*EQUATION
3
2524, 1, 1.0, 687, 1, -0.5, 735, 1, -0.5
*EQUATION
3
2524, 2, 1.0, 687, 2, -0.5, 735, 2, -0.5
*EQUATION
3
2524, 3, 1.0, 687, 3, -0.5, 735, 3, -0.5
*EQUATION
3
2526, 1, 1.0, 726, 1, -0.5, 735, 1, -0.5
*EQUATION
3
2526, 2, 1.0, 726, 2, -0.5, 735, 2, -0.5
*EQUATION
3
2526, 3, 1.0, 726, 3, -0.5, 735, 3, -0.5
*EQUATION
5
2528, 1, 1.0, 682, 1, -0.25, 730, 1, -0.25, 737, 1, -0.25, 689, 1, -0.25
*EQUATION
5
2528, 2, 1.0, 682, 2, -0.25, 730, 2, -0.25, 737, 2, -0.25, 689, 2, -0.25
*EQUATION
5
2528, 3, 1.0, 682, 3, -0.25, 730, 3, -0.25, 737, 3, -0.25, 689, 3, -0.25
*EQUATION
5
2530, 1, 1.0, 684, 1, -0.25, 732, 1, -0.25, 738, 1, -0.25, 690, 1, -0.25
*EQUATION
5
2530, 2, 1.0, 684, 2, -0.25, 732, 2, -0.25, 738, 2, -0.25, 690, 2, -0.25
*EQUATION
5
2530, 3, 1.0, 684, 3, -0.25, 732, 3, -0.25, 738, 3, -0.25, 690, 3, -0.25
*EQUATION
3
2531, 1, 1.0, 689, 1, -0.5, 737, 1, -0.5
*EQUATION
3
2531, 2, 1.0, 689, 2, -0.5, 737, 2, -0.5
*EQUATION
3
2531, 3, 1.0, 689, 3, -0.5, 737, 3, -0.5
*EQUATION
3
2533, 1, 1.0, 690, 1, -0.5, 738, 1, -0.5
*EQUATION
3
2533, 2, 1.0, 690, 2, -0.5, 738, 2, -0.5
*EQUATION
3
2533, 3, 1.0, 690, 3, -0.5, 738, 3, -0.5
*EQUATION
3
2534, 1, 1.0, 730, 1, -0.5, 737, 1, -0.5
*EQUATION
3
2534, 2, 1.0, 730, 2, -0.5, 737, 2, -0.5
*EQUATION
3
2534, 3, 1.0, 730, 3, -0.5, 737, 3, -0.5
*EQUATION
3
2536, 1, 1.0, 732, 1, -0.5, 738, 1, -0.5
*EQUATION
3
2536, 2, 1.0, 732, 2, -0.5, 738, 2, -0.5
*EQUATION
3
2536, 3, 1.0, 732, 3, -0.5, 738, 3, -0.5
*EQUATION
3
2541, 1, 1.0, 697, 1, -0.5, 745, 1, -0.5
*EQUATION
3
2541, 2, 1.0, 697, 2, -0.5, 745, 2, -0.5
*EQUATION
3
2541, 3, 1.0, 697, 3, -0.5, 745, 3, -0.5
*EQUATION
5
2542, 1, 1.0, 697, 1, -0.25, 745, 1, -0.25, 746, 1, -0.25, 698, 1, -0.25
*EQUATION
5
2542, 2, 1.0, 697, 2, -0.25, 745, 2, -0.25, 746, 2, -0.25, 698, 2, -0.25
*EQUATION
5
2542, 3, 1.0, 697, 3, -0.25, 745, 3, -0.25, 746, 3, -0.25, 698, 3, -0.25
*EQUATION
3
2543, 1, 1.0, 698, 1, -0.5, 746, 1, -0.5
*EQUATION
3
2543, 2, 1.0, 698, 2, -0.5, 746, 2, -0.5
*EQUATION
3
2543, 3, 1.0, 698, 3, -0.5, 746, 3, -0.5
*EQUATION
3
2547, 1, 1.0, 745, 1, -0.5, 746, 1, -0.5
*EQUATION
3
2547, 2, 1.0, 745, 2, -0.5, 746, 2, -0.5
*EQUATION
3
2547, 3, 1.0, 745, 3, -0.5, 746, 3, -0.5
*EQUATION
5
2550, 1, 1.0, 698, 1, -0.25, 746, 1, -0.25, 747, 1, -0.25, 699, 1, -0.25
*EQUATION
5
2550, 2, 1.0, 698, 2, -0.25, 746, 2, -0.25, 747, 2, -0.25, 699, 2, -0.25
*EQUATION
5
2550, 3, 1.0, 698, 3, -0.25, 746, 3, -0.25, 747, 3, -0.25, 699, 3, -0.25
*EQUATION
3
2551, 1, 1.0, 699, 1, -0.5, 747, 1, -0.5
*EQUATION
3
2551, 2, 1.0, 699, 2, -0.5, 747, 2, -0.5
*EQUATION
3
2551, 3, 1.0, 699, 3, -0.5, 747, 3, -0.5
*EQUATION
3
2554, 1, 1.0, 746, 1, -0.5, 747, 1, -0.5
*EQUATION
3
2554, 2, 1.0, 746, 2, -0.5, 747, 2, -0.5
*EQUATION
3
2554, 3, 1.0, 746, 3, -0.5, 747, 3, -0.5
*EQUATION
3
2555, 1, 1.0, 700, 1, -0.5, 748, 1, -0.5
*EQUATION
3
2555, 2, 1.0, 700, 2, -0.5, 748, 2, -0.5
*EQUATION
3
2555, 3, 1.0, 700, 3, -0.5, 748, 3, -0.5
*EQUATION
5
2556, 1, 1.0, 700, 1, -0.25, 748, 1, -0.25, 749, 1, -0.25, 701, 1, -0.25
*EQUATION
5
2556, 2, 1.0, 700, 2, -0.25, 748, 2, -0.25, 749, 2, -0.25, 701, 2, -0.25
*EQUATION
5
2556, 3, 1.0, 700, 3, -0.25, 748, 3, -0.25, 749, 3, -0.25, 701, 3, -0.25
*EQUATION
3
2557, 1, 1.0, 701, 1, -0.5, 749, 1, -0.5
*EQUATION
3
2557, 2, 1.0, 701, 2, -0.5, 749, 2, -0.5
*EQUATION
3
2557, 3, 1.0, 701, 3, -0.5, 749, 3, -0.5
*EQUATION
5
2561, 1, 1.0, 683, 1, -0.25, 731, 1, -0.25, 751, 1, -0.25, 703, 1, -0.25
*EQUATION
5
2561, 2, 1.0, 683, 2, -0.25, 731, 2, -0.25, 751, 2, -0.25, 703, 2, -0.25
*EQUATION
5
2561, 3, 1.0, 683, 3, -0.25, 731, 3, -0.25, 751, 3, -0.25, 703, 3, -0.25
*EQUATION
3
2562, 1, 1.0, 703, 1, -0.5, 751, 1, -0.5
*EQUATION
3
2562, 2, 1.0, 703, 2, -0.5, 751, 2, -0.5
*EQUATION
3
2562, 3, 1.0, 703, 3, -0.5, 751, 3, -0.5
*EQUATION
3
2563, 1, 1.0, 748, 1, -0.5, 749, 1, -0.5
*EQUATION
3
2563, 2, 1.0, 748, 2, -0.5, 749, 2, -0.5
*EQUATION
3
2563, 3, 1.0, 748, 3, -0.5, 749, 3, -0.5
*EQUATION
3
2567, 1, 1.0, 731, 1, -0.5, 751, 1, -0.5
*EQUATION
3
2567, 2, 1.0, 731, 2, -0.5, 751, 2, -0.5
*EQUATION
3
2567, 3, 1.0, 731, 3, -0.5, 751, 3, -0.5
*EQUATION
5
2568, 1, 1.0, 701, 1, -0.25, 749, 1, -0.25, 750, 1, -0.25, 702, 1, -0.25
*EQUATION
5
2568, 2, 1.0, 701, 2, -0.25, 749, 2, -0.25, 750, 2, -0.25, 702, 2, -0.25
*EQUATION
5
2568, 3, 1.0, 701, 3, -0.25, 749, 3, -0.25, 750, 3, -0.25, 702, 3, -0.25
*EQUATION
3
2569, 1, 1.0, 702, 1, -0.5, 750, 1, -0.5
*EQUATION
3
2569, 2, 1.0, 702, 2, -0.5, 750, 2, -0.5
*EQUATION
3
2569, 3, 1.0, 702, 3, -0.5, 750, 3, -0.5
*EQUATION
5
2572, 1, 1.0, 703, 1, -0.25, 751, 1, -0.25, 752, 1, -0.25, 704, 1, -0.25
*EQUATION
5
2572, 2, 1.0, 703, 2, -0.25, 751, 2, -0.25, 752, 2, -0.25, 704, 2, -0.25
*EQUATION
5
2572, 3, 1.0, 703, 3, -0.25, 751, 3, -0.25, 752, 3, -0.25, 704, 3, -0.25
*EQUATION
3
2573, 1, 1.0, 704, 1, -0.5, 752, 1, -0.5
*EQUATION
3
2573, 2, 1.0, 704, 2, -0.5, 752, 2, -0.5
*EQUATION
3
2573, 3, 1.0, 704, 3, -0.5, 752, 3, -0.5
*EQUATION
3
2574, 1, 1.0, 749, 1, -0.5, 750, 1, -0.5
*EQUATION
3
2574, 2, 1.0, 749, 2, -0.5, 750, 2, -0.5
*EQUATION
3
2574, 3, 1.0, 749, 3, -0.5, 750, 3, -0.5
*EQUATION
3
2577, 1, 1.0, 751, 1, -0.5, 752, 1, -0.5
*EQUATION
3
2577, 2, 1.0, 751, 2, -0.5, 752, 2, -0.5
*EQUATION
3
2577, 3, 1.0, 751, 3, -0.5, 752, 3, -0.5
*EQUATION
5
2578, 1, 1.0, 690, 1, -0.25, 738, 1, -0.25, 755, 1, -0.25, 707, 1, -0.25
*EQUATION
5
2578, 2, 1.0, 690, 2, -0.25, 738, 2, -0.25, 755, 2, -0.25, 707, 2, -0.25
*EQUATION
5
2578, 3, 1.0, 690, 3, -0.25, 738, 3, -0.25, 755, 3, -0.25, 707, 3, -0.25
*EQUATION
3
2579, 1, 1.0, 707, 1, -0.5, 755, 1, -0.5
*EQUATION
3
2579, 2, 1.0, 707, 2, -0.5, 755, 2, -0.5
*EQUATION
3
2579, 3, 1.0, 707, 3, -0.5, 755, 3, -0.5
*EQUATION
3
2583, 1, 1.0, 709, 1, -0.5, 757, 1, -0.5
*EQUATION
3
2583, 2, 1.0, 709, 2, -0.5, 757, 2, -0.5
*EQUATION
3
2583, 3, 1.0, 709, 3, -0.5, 757, 3, -0.5
*EQUATION
5
2584, 1, 1.0, 709, 1, -0.25, 757, 1, -0.25, 758, 1, -0.25, 710, 1, -0.25
*EQUATION
5
2584, 2, 1.0, 709, 2, -0.25, 757, 2, -0.25, 758, 2, -0.25, 710, 2, -0.25
*EQUATION
5
2584, 3, 1.0, 709, 3, -0.25, 757, 3, -0.25, 758, 3, -0.25, 710, 3, -0.25
*EQUATION
3
2585, 1, 1.0, 710, 1, -0.5, 758, 1, -0.5
*EQUATION
3
2585, 2, 1.0, 710, 2, -0.5, 758, 2, -0.5
*EQUATION
3
2585, 3, 1.0, 710, 3, -0.5, 758, 3, -0.5
*EQUATION
3
2586, 1, 1.0, 738, 1, -0.5, 755, 1, -0.5
*EQUATION
3
2586, 2, 1.0, 738, 2, -0.5, 755, 2, -0.5
*EQUATION
3
2586, 3, 1.0, 738, 3, -0.5, 755, 3, -0.5
*EQUATION
3
2589, 1, 1.0, 757, 1, -0.5, 758, 1, -0.5
*EQUATION
3
2589, 2, 1.0, 757, 2, -0.5, 758, 2, -0.5
*EQUATION
3
2589, 3, 1.0, 757, 3, -0.5, 758, 3, -0.5
*EQUATION
5
2590, 1, 1.0, 707, 1, -0.25, 755, 1, -0.25, 756, 1, -0.25, 708, 1, -0.25
*EQUATION
5
2590, 2, 1.0, 707, 2, -0.25, 755, 2, -0.25, 756, 2, -0.25, 708, 2, -0.25
*EQUATION
5
2590, 3, 1.0, 707, 3, -0.25, 755, 3, -0.25, 756, 3, -0.25, 708, 3, -0.25
*EQUATION
3
2591, 1, 1.0, 708, 1, -0.5, 756, 1, -0.5
*EQUATION
3
2591, 2, 1.0, 708, 2, -0.5, 756, 2, -0.5
*EQUATION
3
2591, 3, 1.0, 708, 3, -0.5, 756, 3, -0.5
*EQUATION
5
2594, 1, 1.0, 710, 1, -0.25, 758, 1, -0.25, 759, 1, -0.25, 711, 1, -0.25
*EQUATION
5
2594, 2, 1.0, 710, 2, -0.25, 758, 2, -0.25, 759, 2, -0.25, 711, 2, -0.25
*EQUATION
5
2594, 3, 1.0, 710, 3, -0.25, 758, 3, -0.25, 759, 3, -0.25, 711, 3, -0.25
*EQUATION
3
2595, 1, 1.0, 711, 1, -0.5, 759, 1, -0.5
*EQUATION
3
2595, 2, 1.0, 711, 2, -0.5, 759, 2, -0.5
*EQUATION
3
2595, 3, 1.0, 711, 3, -0.5, 759, 3, -0.5
*EQUATION
3
2596, 1, 1.0, 712, 1, -0.5, 760, 1, -0.5
*EQUATION
3
2596, 2, 1.0, 712, 2, -0.5, 760, 2, -0.5
*EQUATION
3
2596, 3, 1.0, 712, 3, -0.5, 760, 3, -0.5
*EQUATION
5
2597, 1, 1.0, 712, 1, -0.25, 760, 1, -0.25, 761, 1, -0.25, 713, 1, -0.25
*EQUATION
5
2597, 2, 1.0, 712, 2, -0.25, 760, 2, -0.25, 761, 2, -0.25, 713, 2, -0.25
*EQUATION
5
2597, 3, 1.0, 712, 3, -0.25, 760, 3, -0.25, 761, 3, -0.25, 713, 3, -0.25
*EQUATION
3
2598, 1, 1.0, 713, 1, -0.5, 761, 1, -0.5
*EQUATION
3
2598, 2, 1.0, 713, 2, -0.5, 761, 2, -0.5
*EQUATION
3
2598, 3, 1.0, 713, 3, -0.5, 761, 3, -0.5
*EQUATION
3
2602, 1, 1.0, 760, 1, -0.5, 761, 1, -0.5
*EQUATION
3
2602, 2, 1.0, 760, 2, -0.5, 761, 2, -0.5
*EQUATION
3
2602, 3, 1.0, 760, 3, -0.5, 761, 3, -0.5
*EQUATION
5
2606, 1, 1.0, 713, 1, -0.25, 761, 1, -0.25, 762, 1, -0.25, 714, 1, -0.25
*EQUATION
5
2606, 2, 1.0, 713, 2, -0.25, 761, 2, -0.25, 762, 2, -0.25, 714, 2, -0.25
*EQUATION
5
2606, 3, 1.0, 713, 3, -0.25, 761, 3, -0.25, 762, 3, -0.25, 714, 3, -0.25
*EQUATION
3
2607, 1, 1.0, 714, 1, -0.5, 762, 1, -0.5
*EQUATION
3
2607, 2, 1.0, 714, 2, -0.5, 762, 2, -0.5
*EQUATION
3
2607, 3, 1.0, 714, 3, -0.5, 762, 3, -0.5
*EQUATION
3
2610, 1, 1.0, 761, 1, -0.5, 762, 1, -0.5
*EQUATION
3
2610, 2, 1.0, 761, 2, -0.5, 762, 2, -0.5
*EQUATION
3
2610, 3, 1.0, 761, 3, -0.5, 762, 3, -0.5
*EQUATION
3
2614, 1, 1.0, 725, 1, -0.5, 773, 1, -0.5
*EQUATION
3
2614, 2, 1.0, 725, 2, -0.5, 773, 2, -0.5
*EQUATION
3
2614, 3, 1.0, 725, 3, -0.5, 773, 3, -0.5
*EQUATION
5
2616, 1, 1.0, 725, 1, -0.25, 773, 1, -0.25, 774, 1, -0.25, 726, 1, -0.25
*EQUATION
5
2616, 2, 1.0, 725, 2, -0.25, 773, 2, -0.25, 774, 2, -0.25, 726, 2, -0.25
*EQUATION
5
2616, 3, 1.0, 725, 3, -0.25, 773, 3, -0.25, 774, 3, -0.25, 726, 3, -0.25
*EQUATION
3
2618, 1, 1.0, 726, 1, -0.5, 774, 1, -0.5
*EQUATION
3
2618, 2, 1.0, 726, 2, -0.5, 774, 2, -0.5
*EQUATION
3
2618, 3, 1.0, 726, 3, -0.5, 774, 3, -0.5
*EQUATION
3
2621, 1, 1.0, 773, 1, -0.5, 774, 1, -0.5
*EQUATION
3
2621, 2, 1.0, 773, 2, -0.5, 774, 2, -0.5
*EQUATION
3
2621, 3, 1.0, 773, 3, -0.5, 774, 3, -0.5
*EQUATION
3
2623, 1, 1.0, 727, 1, -0.5, 729, 1, -0.5
*EQUATION
3
2623, 2, 1.0, 727, 2, -0.5, 729, 2, -0.5
*EQUATION
3
2623, 3, 1.0, 727, 3, -0.5, 729, 3, -0.5
*EQUATION
3
2624, 1, 1.0, 727, 1, -0.5, 728, 1, -0.5
*EQUATION
3
2624, 2, 1.0, 727, 2, -0.5, 728, 2, -0.5
*EQUATION
3
2624, 3, 1.0, 727, 3, -0.5, 728, 3, -0.5
*EQUATION
5
2625, 1, 1.0, 727, 1, -0.25, 728, 1, -0.25, 730, 1, -0.25, 729, 1, -0.25
*EQUATION
5
2625, 2, 1.0, 727, 2, -0.25, 728, 2, -0.25, 730, 2, -0.25, 729, 2, -0.25
*EQUATION
5
2625, 3, 1.0, 727, 3, -0.25, 728, 3, -0.25, 730, 3, -0.25, 729, 3, -0.25
*EQUATION
3
2626, 1, 1.0, 728, 1, -0.5, 730, 1, -0.5
*EQUATION
3
2626, 2, 1.0, 728, 2, -0.5, 730, 2, -0.5
*EQUATION
3
2626, 3, 1.0, 728, 3, -0.5, 730, 3, -0.5
*EQUATION
3
2627, 1, 1.0, 727, 1, -0.5, 775, 1, -0.5
*EQUATION
3
2627, 2, 1.0, 727, 2, -0.5, 775, 2, -0.5
*EQUATION
3
2627, 3, 1.0, 727, 3, -0.5, 775, 3, -0.5
*EQUATION
5
2629, 1, 1.0, 727, 1, -0.25, 775, 1, -0.25, 776, 1, -0.25, 728, 1, -0.25
*EQUATION
5
2629, 2, 1.0, 727, 2, -0.25, 775, 2, -0.25, 776, 2, -0.25, 728, 2, -0.25
*EQUATION
5
2629, 3, 1.0, 727, 3, -0.25, 775, 3, -0.25, 776, 3, -0.25, 728, 3, -0.25
*EQUATION
3
2631, 1, 1.0, 728, 1, -0.5, 776, 1, -0.5
*EQUATION
3
2631, 2, 1.0, 728, 2, -0.5, 776, 2, -0.5
*EQUATION
3
2631, 3, 1.0, 728, 3, -0.5, 776, 3, -0.5
*EQUATION
5
2632, 1, 1.0, 728, 1, -0.25, 776, 1, -0.25, 778, 1, -0.25, 730, 1, -0.25
*EQUATION
5
2632, 2, 1.0, 728, 2, -0.25, 776, 2, -0.25, 778, 2, -0.25, 730, 2, -0.25
*EQUATION
5
2632, 3, 1.0, 728, 3, -0.25, 776, 3, -0.25, 778, 3, -0.25, 730, 3, -0.25
*EQUATION
3
2634, 1, 1.0, 775, 1, -0.5, 776, 1, -0.5
*EQUATION
3
2634, 2, 1.0, 775, 2, -0.5, 776, 2, -0.5
*EQUATION
3
2634, 3, 1.0, 775, 3, -0.5, 776, 3, -0.5
*EQUATION
3
2636, 1, 1.0, 776, 1, -0.5, 778, 1, -0.5
*EQUATION
3
2636, 2, 1.0, 776, 2, -0.5, 778, 2, -0.5
*EQUATION
3
2636, 3, 1.0, 776, 3, -0.5, 778, 3, -0.5
*EQUATION
5
2638, 1, 1.0, 726, 1, -0.25, 774, 1, -0.25, 783, 1, -0.25, 735, 1, -0.25
*EQUATION
5
2638, 2, 1.0, 726, 2, -0.25, 774, 2, -0.25, 783, 2, -0.25, 735, 2, -0.25
*EQUATION
5
2638, 3, 1.0, 726, 3, -0.25, 774, 3, -0.25, 783, 3, -0.25, 735, 3, -0.25
*EQUATION
3
2640, 1, 1.0, 735, 1, -0.5, 783, 1, -0.5
*EQUATION
3
2640, 2, 1.0, 735, 2, -0.5, 783, 2, -0.5
*EQUATION
3
2640, 3, 1.0, 735, 3, -0.5, 783, 3, -0.5
*EQUATION
3
2642, 1, 1.0, 774, 1, -0.5, 783, 1, -0.5
*EQUATION
3
2642, 2, 1.0, 774, 2, -0.5, 783, 2, -0.5
*EQUATION
3
2642, 3, 1.0, 774, 3, -0.5, 783, 3, -0.5
*EQUATION
5
2644, 1, 1.0, 730, 1, -0.25, 778, 1, -0.25, 785, 1, -0.25, 737, 1, -0.25
*EQUATION
5
2644, 2, 1.0, 730, 2, -0.25, 778, 2, -0.25, 785, 2, -0.25, 737, 2, -0.25
*EQUATION
5
2644, 3, 1.0, 730, 3, -0.25, 778, 3, -0.25, 785, 3, -0.25, 737, 3, -0.25
*EQUATION
5
2646, 1, 1.0, 732, 1, -0.25, 780, 1, -0.25, 786, 1, -0.25, 738, 1, -0.25
*EQUATION
5
2646, 2, 1.0, 732, 2, -0.25, 780, 2, -0.25, 786, 2, -0.25, 738, 2, -0.25
*EQUATION
5
2646, 3, 1.0, 732, 3, -0.25, 780, 3, -0.25, 786, 3, -0.25, 738, 3, -0.25
*EQUATION
3
2647, 1, 1.0, 737, 1, -0.5, 785, 1, -0.5
*EQUATION
3
2647, 2, 1.0, 737, 2, -0.5, 785, 2, -0.5
*EQUATION
3
2647, 3, 1.0, 737, 3, -0.5, 785, 3, -0.5
*EQUATION
3
2649, 1, 1.0, 738, 1, -0.5, 786, 1, -0.5
*EQUATION
3
2649, 2, 1.0, 738, 2, -0.5, 786, 2, -0.5
*EQUATION
3
2649, 3, 1.0, 738, 3, -0.5, 786, 3, -0.5
*EQUATION
3
2650, 1, 1.0, 778, 1, -0.5, 785, 1, -0.5
*EQUATION
3
2650, 2, 1.0, 778, 2, -0.5, 785, 2, -0.5
*EQUATION
3
2650, 3, 1.0, 778, 3, -0.5, 785, 3, -0.5
*EQUATION
3
2652, 1, 1.0, 780, 1, -0.5, 786, 1, -0.5
*EQUATION
3
2652, 2, 1.0, 780, 2, -0.5, 786, 2, -0.5
*EQUATION
3
2652, 3, 1.0, 780, 3, -0.5, 786, 3, -0.5
*EQUATION
3
2657, 1, 1.0, 745, 1, -0.5, 793, 1, -0.5
*EQUATION
3
2657, 2, 1.0, 745, 2, -0.5, 793, 2, -0.5
*EQUATION
3
2657, 3, 1.0, 745, 3, -0.5, 793, 3, -0.5
*EQUATION
5
2658, 1, 1.0, 745, 1, -0.25, 793, 1, -0.25, 794, 1, -0.25, 746, 1, -0.25
*EQUATION
5
2658, 2, 1.0, 745, 2, -0.25, 793, 2, -0.25, 794, 2, -0.25, 746, 2, -0.25
*EQUATION
5
2658, 3, 1.0, 745, 3, -0.25, 793, 3, -0.25, 794, 3, -0.25, 746, 3, -0.25
*EQUATION
3
2659, 1, 1.0, 746, 1, -0.5, 794, 1, -0.5
*EQUATION
3
2659, 2, 1.0, 746, 2, -0.5, 794, 2, -0.5
*EQUATION
3
2659, 3, 1.0, 746, 3, -0.5, 794, 3, -0.5
*EQUATION
3
2663, 1, 1.0, 793, 1, -0.5, 794, 1, -0.5
*EQUATION
3
2663, 2, 1.0, 793, 2, -0.5, 794, 2, -0.5
*EQUATION
3
2663, 3, 1.0, 793, 3, -0.5, 794, 3, -0.5
*EQUATION
5
2666, 1, 1.0, 746, 1, -0.25, 794, 1, -0.25, 795, 1, -0.25, 747, 1, -0.25
*EQUATION
5
2666, 2, 1.0, 746, 2, -0.25, 794, 2, -0.25, 795, 2, -0.25, 747, 2, -0.25
*EQUATION
5
2666, 3, 1.0, 746, 3, -0.25, 794, 3, -0.25, 795, 3, -0.25, 747, 3, -0.25
*EQUATION
3
2667, 1, 1.0, 747, 1, -0.5, 795, 1, -0.5
*EQUATION
3
2667, 2, 1.0, 747, 2, -0.5, 795, 2, -0.5
*EQUATION
3
2667, 3, 1.0, 747, 3, -0.5, 795, 3, -0.5
*EQUATION
3
2670, 1, 1.0, 794, 1, -0.5, 795, 1, -0.5
*EQUATION
3
2670, 2, 1.0, 794, 2, -0.5, 795, 2, -0.5
*EQUATION
3
2670, 3, 1.0, 794, 3, -0.5, 795, 3, -0.5
*EQUATION
3
2671, 1, 1.0, 748, 1, -0.5, 796, 1, -0.5
*EQUATION
3
2671, 2, 1.0, 748, 2, -0.5, 796, 2, -0.5
*EQUATION
3
2671, 3, 1.0, 748, 3, -0.5, 796, 3, -0.5
*EQUATION
5
2672, 1, 1.0, 748, 1, -0.25, 796, 1, -0.25, 797, 1, -0.25, 749, 1, -0.25
*EQUATION
5
2672, 2, 1.0, 748, 2, -0.25, 796, 2, -0.25, 797, 2, -0.25, 749, 2, -0.25
*EQUATION
5
2672, 3, 1.0, 748, 3, -0.25, 796, 3, -0.25, 797, 3, -0.25, 749, 3, -0.25
*EQUATION
3
2673, 1, 1.0, 749, 1, -0.5, 797, 1, -0.5
*EQUATION
3
2673, 2, 1.0, 749, 2, -0.5, 797, 2, -0.5
*EQUATION
3
2673, 3, 1.0, 749, 3, -0.5, 797, 3, -0.5
*EQUATION
5
2677, 1, 1.0, 731, 1, -0.25, 779, 1, -0.25, 799, 1, -0.25, 751, 1, -0.25
*EQUATION
5
2677, 2, 1.0, 731, 2, -0.25, 779, 2, -0.25, 799, 2, -0.25, 751, 2, -0.25
*EQUATION
5
2677, 3, 1.0, 731, 3, -0.25, 779, 3, -0.25, 799, 3, -0.25, 751, 3, -0.25
*EQUATION
3
2678, 1, 1.0, 751, 1, -0.5, 799, 1, -0.5
*EQUATION
3
2678, 2, 1.0, 751, 2, -0.5, 799, 2, -0.5
*EQUATION
3
2678, 3, 1.0, 751, 3, -0.5, 799, 3, -0.5
*EQUATION
3
2679, 1, 1.0, 796, 1, -0.5, 797, 1, -0.5
*EQUATION
3
2679, 2, 1.0, 796, 2, -0.5, 797, 2, -0.5
*EQUATION
3
2679, 3, 1.0, 796, 3, -0.5, 797, 3, -0.5
*EQUATION
3
2683, 1, 1.0, 779, 1, -0.5, 799, 1, -0.5
*EQUATION
3
2683, 2, 1.0, 779, 2, -0.5, 799, 2, -0.5
*EQUATION
3
2683, 3, 1.0, 779, 3, -0.5, 799, 3, -0.5
*EQUATION
5
2684, 1, 1.0, 749, 1, -0.25, 797, 1, -0.25, 798, 1, -0.25, 750, 1, -0.25
*EQUATION
5
2684, 2, 1.0, 749, 2, -0.25, 797, 2, -0.25, 798, 2, -0.25, 750, 2, -0.25
*EQUATION
5
2684, 3, 1.0, 749, 3, -0.25, 797, 3, -0.25, 798, 3, -0.25, 750, 3, -0.25
*EQUATION
3
2685, 1, 1.0, 750, 1, -0.5, 798, 1, -0.5
*EQUATION
3
2685, 2, 1.0, 750, 2, -0.5, 798, 2, -0.5
*EQUATION
3
2685, 3, 1.0, 750, 3, -0.5, 798, 3, -0.5
*EQUATION
5
2688, 1, 1.0, 751, 1, -0.25, 799, 1, -0.25, 800, 1, -0.25, 752, 1, -0.25
*EQUATION
5
2688, 2, 1.0, 751, 2, -0.25, 799, 2, -0.25, 800, 2, -0.25, 752, 2, -0.25
*EQUATION
5
2688, 3, 1.0, 751, 3, -0.25, 799, 3, -0.25, 800, 3, -0.25, 752, 3, -0.25
*EQUATION
3
2689, 1, 1.0, 752, 1, -0.5, 800, 1, -0.5
*EQUATION
3
2689, 2, 1.0, 752, 2, -0.5, 800, 2, -0.5
*EQUATION
3
2689, 3, 1.0, 752, 3, -0.5, 800, 3, -0.5
*EQUATION
3
2690, 1, 1.0, 797, 1, -0.5, 798, 1, -0.5
*EQUATION
3
2690, 2, 1.0, 797, 2, -0.5, 798, 2, -0.5
*EQUATION
3
2690, 3, 1.0, 797, 3, -0.5, 798, 3, -0.5
*EQUATION
3
2693, 1, 1.0, 799, 1, -0.5, 800, 1, -0.5
*EQUATION
3
2693, 2, 1.0, 799, 2, -0.5, 800, 2, -0.5
*EQUATION
3
2693, 3, 1.0, 799, 3, -0.5, 800, 3, -0.5
*EQUATION
5
2694, 1, 1.0, 738, 1, -0.25, 786, 1, -0.25, 803, 1, -0.25, 755, 1, -0.25
*EQUATION
5
2694, 2, 1.0, 738, 2, -0.25, 786, 2, -0.25, 803, 2, -0.25, 755, 2, -0.25
*EQUATION
5
2694, 3, 1.0, 738, 3, -0.25, 786, 3, -0.25, 803, 3, -0.25, 755, 3, -0.25
*EQUATION
3
2697, 1, 1.0, 757, 1, -0.5, 805, 1, -0.5
*EQUATION
3
2697, 2, 1.0, 757, 2, -0.5, 805, 2, -0.5
*EQUATION
3
2697, 3, 1.0, 757, 3, -0.5, 805, 3, -0.5
*EQUATION
5
2698, 1, 1.0, 757, 1, -0.25, 805, 1, -0.25, 806, 1, -0.25, 758, 1, -0.25
*EQUATION
5
2698, 2, 1.0, 757, 2, -0.25, 805, 2, -0.25, 806, 2, -0.25, 758, 2, -0.25
*EQUATION
5
2698, 3, 1.0, 757, 3, -0.25, 805, 3, -0.25, 806, 3, -0.25, 758, 3, -0.25
*EQUATION
3
2699, 1, 1.0, 786, 1, -0.5, 803, 1, -0.5
*EQUATION
3
2699, 2, 1.0, 786, 2, -0.5, 803, 2, -0.5
*EQUATION
3
2699, 3, 1.0, 786, 3, -0.5, 803, 3, -0.5
*EQUATION
3
2702, 1, 1.0, 805, 1, -0.5, 806, 1, -0.5
*EQUATION
3
2702, 2, 1.0, 805, 2, -0.5, 806, 2, -0.5
*EQUATION
3
2702, 3, 1.0, 805, 3, -0.5, 806, 3, -0.5
*EQUATION
3
2703, 1, 1.0, 760, 1, -0.5, 808, 1, -0.5
*EQUATION
3
2703, 2, 1.0, 760, 2, -0.5, 808, 2, -0.5
*EQUATION
3
2703, 3, 1.0, 760, 3, -0.5, 808, 3, -0.5
*EQUATION
5
2704, 1, 1.0, 760, 1, -0.25, 808, 1, -0.25, 809, 1, -0.25, 761, 1, -0.25
*EQUATION
5
2704, 2, 1.0, 760, 2, -0.25, 808, 2, -0.25, 809, 2, -0.25, 761, 2, -0.25
*EQUATION
5
2704, 3, 1.0, 760, 3, -0.25, 808, 3, -0.25, 809, 3, -0.25, 761, 3, -0.25
*EQUATION
3
2705, 1, 1.0, 761, 1, -0.5, 809, 1, -0.5
*EQUATION
3
2705, 2, 1.0, 761, 2, -0.5, 809, 2, -0.5
*EQUATION
3
2705, 3, 1.0, 761, 3, -0.5, 809, 3, -0.5
*EQUATION
3
2709, 1, 1.0, 808, 1, -0.5, 809, 1, -0.5
*EQUATION
3
2709, 2, 1.0, 808, 2, -0.5, 809, 2, -0.5
*EQUATION
3
2709, 3, 1.0, 808, 3, -0.5, 809, 3, -0.5
*EQUATION
5
2713, 1, 1.0, 761, 1, -0.25, 809, 1, -0.25, 810, 1, -0.25, 762, 1, -0.25
*EQUATION
5
2713, 2, 1.0, 761, 2, -0.25, 809, 2, -0.25, 810, 2, -0.25, 762, 2, -0.25
*EQUATION
5
2713, 3, 1.0, 761, 3, -0.25, 809, 3, -0.25, 810, 3, -0.25, 762, 3, -0.25
*EQUATION
3
2714, 1, 1.0, 762, 1, -0.5, 810, 1, -0.5
*EQUATION
3
2714, 2, 1.0, 762, 2, -0.5, 810, 2, -0.5
*EQUATION
3
2714, 3, 1.0, 762, 3, -0.5, 810, 3, -0.5
*EQUATION
3
2717, 1, 1.0, 809, 1, -0.5, 810, 1, -0.5
*EQUATION
3
2717, 2, 1.0, 809, 2, -0.5, 810, 2, -0.5
*EQUATION
3
2717, 3, 1.0, 809, 3, -0.5, 810, 3, -0.5
*EQUATION
3
2721, 1, 1.0, 773, 1, -0.5, 821, 1, -0.5
*EQUATION
3
2721, 2, 1.0, 773, 2, -0.5, 821, 2, -0.5
*EQUATION
3
2721, 3, 1.0, 773, 3, -0.5, 821, 3, -0.5
*EQUATION
5
2723, 1, 1.0, 773, 1, -0.25, 821, 1, -0.25, 822, 1, -0.25, 774, 1, -0.25
*EQUATION
5
2723, 2, 1.0, 773, 2, -0.25, 821, 2, -0.25, 822, 2, -0.25, 774, 2, -0.25
*EQUATION
5
2723, 3, 1.0, 773, 3, -0.25, 821, 3, -0.25, 822, 3, -0.25, 774, 3, -0.25
*EQUATION
3
2725, 1, 1.0, 774, 1, -0.5, 822, 1, -0.5
*EQUATION
3
2725, 2, 1.0, 774, 2, -0.5, 822, 2, -0.5
*EQUATION
3
2725, 3, 1.0, 774, 3, -0.5, 822, 3, -0.5
*EQUATION
3
2728, 1, 1.0, 821, 1, -0.5, 822, 1, -0.5
*EQUATION
3
2728, 2, 1.0, 821, 2, -0.5, 822, 2, -0.5
*EQUATION
3
2728, 3, 1.0, 821, 3, -0.5, 822, 3, -0.5
*EQUATION
3
2730, 1, 1.0, 775, 1, -0.5, 823, 1, -0.5
*EQUATION
3
2730, 2, 1.0, 775, 2, -0.5, 823, 2, -0.5
*EQUATION
3
2730, 3, 1.0, 775, 3, -0.5, 823, 3, -0.5
*EQUATION
5
2732, 1, 1.0, 775, 1, -0.25, 823, 1, -0.25, 824, 1, -0.25, 776, 1, -0.25
*EQUATION
5
2732, 2, 1.0, 775, 2, -0.25, 823, 2, -0.25, 824, 2, -0.25, 776, 2, -0.25
*EQUATION
5
2732, 3, 1.0, 775, 3, -0.25, 823, 3, -0.25, 824, 3, -0.25, 776, 3, -0.25
*EQUATION
3
2734, 1, 1.0, 776, 1, -0.5, 824, 1, -0.5
*EQUATION
3
2734, 2, 1.0, 776, 2, -0.5, 824, 2, -0.5
*EQUATION
3
2734, 3, 1.0, 776, 3, -0.5, 824, 3, -0.5
*EQUATION
5
2735, 1, 1.0, 776, 1, -0.25, 824, 1, -0.25, 826, 1, -0.25, 778, 1, -0.25
*EQUATION
5
2735, 2, 1.0, 776, 2, -0.25, 824, 2, -0.25, 826, 2, -0.25, 778, 2, -0.25
*EQUATION
5
2735, 3, 1.0, 776, 3, -0.25, 824, 3, -0.25, 826, 3, -0.25, 778, 3, -0.25
*EQUATION
3
2737, 1, 1.0, 823, 1, -0.5, 824, 1, -0.5
*EQUATION
3
2737, 2, 1.0, 823, 2, -0.5, 824, 2, -0.5
*EQUATION
3
2737, 3, 1.0, 823, 3, -0.5, 824, 3, -0.5
*EQUATION
3
2739, 1, 1.0, 824, 1, -0.5, 826, 1, -0.5
*EQUATION
3
2739, 2, 1.0, 824, 2, -0.5, 826, 2, -0.5
*EQUATION
3
2739, 3, 1.0, 824, 3, -0.5, 826, 3, -0.5
*EQUATION
5
2741, 1, 1.0, 774, 1, -0.25, 822, 1, -0.25, 831, 1, -0.25, 783, 1, -0.25
*EQUATION
5
2741, 2, 1.0, 774, 2, -0.25, 822, 2, -0.25, 831, 2, -0.25, 783, 2, -0.25
*EQUATION
5
2741, 3, 1.0, 774, 3, -0.25, 822, 3, -0.25, 831, 3, -0.25, 783, 3, -0.25
*EQUATION
3
2743, 1, 1.0, 783, 1, -0.5, 831, 1, -0.5
*EQUATION
3
2743, 2, 1.0, 783, 2, -0.5, 831, 2, -0.5
*EQUATION
3
2743, 3, 1.0, 783, 3, -0.5, 831, 3, -0.5
*EQUATION
3
2745, 1, 1.0, 822, 1, -0.5, 831, 1, -0.5
*EQUATION
3
2745, 2, 1.0, 822, 2, -0.5, 831, 2, -0.5
*EQUATION
3
2745, 3, 1.0, 822, 3, -0.5, 831, 3, -0.5
*EQUATION
5
2747, 1, 1.0, 778, 1, -0.25, 826, 1, -0.25, 833, 1, -0.25, 785, 1, -0.25
*EQUATION
5
2747, 2, 1.0, 778, 2, -0.25, 826, 2, -0.25, 833, 2, -0.25, 785, 2, -0.25
*EQUATION
5
2747, 3, 1.0, 778, 3, -0.25, 826, 3, -0.25, 833, 3, -0.25, 785, 3, -0.25
*EQUATION
5
2749, 1, 1.0, 780, 1, -0.25, 828, 1, -0.25, 834, 1, -0.25, 786, 1, -0.25
*EQUATION
5
2749, 2, 1.0, 780, 2, -0.25, 828, 2, -0.25, 834, 2, -0.25, 786, 2, -0.25
*EQUATION
5
2749, 3, 1.0, 780, 3, -0.25, 828, 3, -0.25, 834, 3, -0.25, 786, 3, -0.25
*EQUATION
3
2750, 1, 1.0, 785, 1, -0.5, 833, 1, -0.5
*EQUATION
3
2750, 2, 1.0, 785, 2, -0.5, 833, 2, -0.5
*EQUATION
3
2750, 3, 1.0, 785, 3, -0.5, 833, 3, -0.5
*EQUATION
3
2752, 1, 1.0, 786, 1, -0.5, 834, 1, -0.5
*EQUATION
3
2752, 2, 1.0, 786, 2, -0.5, 834, 2, -0.5
*EQUATION
3
2752, 3, 1.0, 786, 3, -0.5, 834, 3, -0.5
*EQUATION
3
2756, 1, 1.0, 793, 1, -0.5, 841, 1, -0.5
*EQUATION
3
2756, 2, 1.0, 793, 2, -0.5, 841, 2, -0.5
*EQUATION
3
2756, 3, 1.0, 793, 3, -0.5, 841, 3, -0.5
*EQUATION
5
2757, 1, 1.0, 793, 1, -0.25, 841, 1, -0.25, 842, 1, -0.25, 794, 1, -0.25
*EQUATION
5
2757, 2, 1.0, 793, 2, -0.25, 841, 2, -0.25, 842, 2, -0.25, 794, 2, -0.25
*EQUATION
5
2757, 3, 1.0, 793, 3, -0.25, 841, 3, -0.25, 842, 3, -0.25, 794, 3, -0.25
*EQUATION
3
2758, 1, 1.0, 794, 1, -0.5, 842, 1, -0.5
*EQUATION
3
2758, 2, 1.0, 794, 2, -0.5, 842, 2, -0.5
*EQUATION
3
2758, 3, 1.0, 794, 3, -0.5, 842, 3, -0.5
*EQUATION
3
2762, 1, 1.0, 841, 1, -0.5, 842, 1, -0.5
*EQUATION
3
2762, 2, 1.0, 841, 2, -0.5, 842, 2, -0.5
*EQUATION
3
2762, 3, 1.0, 841, 3, -0.5, 842, 3, -0.5
*EQUATION
5
2765, 1, 1.0, 794, 1, -0.25, 842, 1, -0.25, 843, 1, -0.25, 795, 1, -0.25
*EQUATION
5
2765, 2, 1.0, 794, 2, -0.25, 842, 2, -0.25, 843, 2, -0.25, 795, 2, -0.25
*EQUATION
5
2765, 3, 1.0, 794, 3, -0.25, 842, 3, -0.25, 843, 3, -0.25, 795, 3, -0.25
*EQUATION
3
2766, 1, 1.0, 795, 1, -0.5, 843, 1, -0.5
*EQUATION
3
2766, 2, 1.0, 795, 2, -0.5, 843, 2, -0.5
*EQUATION
3
2766, 3, 1.0, 795, 3, -0.5, 843, 3, -0.5
*EQUATION
3
2769, 1, 1.0, 842, 1, -0.5, 843, 1, -0.5
*EQUATION
3
2769, 2, 1.0, 842, 2, -0.5, 843, 2, -0.5
*EQUATION
3
2769, 3, 1.0, 842, 3, -0.5, 843, 3, -0.5
*EQUATION
3
2770, 1, 1.0, 796, 1, -0.5, 844, 1, -0.5
*EQUATION
3
2770, 2, 1.0, 796, 2, -0.5, 844, 2, -0.5
*EQUATION
3
2770, 3, 1.0, 796, 3, -0.5, 844, 3, -0.5
*EQUATION
5
2771, 1, 1.0, 796, 1, -0.25, 844, 1, -0.25, 845, 1, -0.25, 797, 1, -0.25
*EQUATION
5
2771, 2, 1.0, 796, 2, -0.25, 844, 2, -0.25, 845, 2, -0.25, 797, 2, -0.25
*EQUATION
5
2771, 3, 1.0, 796, 3, -0.25, 844, 3, -0.25, 845, 3, -0.25, 797, 3, -0.25
*EQUATION
3
2772, 1, 1.0, 797, 1, -0.5, 845, 1, -0.5
*EQUATION
3
2772, 2, 1.0, 797, 2, -0.5, 845, 2, -0.5
*EQUATION
3
2772, 3, 1.0, 797, 3, -0.5, 845, 3, -0.5
*EQUATION
5
2776, 1, 1.0, 779, 1, -0.25, 827, 1, -0.25, 847, 1, -0.25, 799, 1, -0.25
*EQUATION
5
2776, 2, 1.0, 779, 2, -0.25, 827, 2, -0.25, 847, 2, -0.25, 799, 2, -0.25
*EQUATION
5
2776, 3, 1.0, 779, 3, -0.25, 827, 3, -0.25, 847, 3, -0.25, 799, 3, -0.25
*EQUATION
3
2777, 1, 1.0, 799, 1, -0.5, 847, 1, -0.5
*EQUATION
3
2777, 2, 1.0, 799, 2, -0.5, 847, 2, -0.5
*EQUATION
3
2777, 3, 1.0, 799, 3, -0.5, 847, 3, -0.5
*EQUATION
5
2778, 1, 1.0, 797, 1, -0.25, 845, 1, -0.25, 846, 1, -0.25, 798, 1, -0.25
*EQUATION
5
2778, 2, 1.0, 797, 2, -0.25, 845, 2, -0.25, 846, 2, -0.25, 798, 2, -0.25
*EQUATION
5
2778, 3, 1.0, 797, 3, -0.25, 845, 3, -0.25, 846, 3, -0.25, 798, 3, -0.25
*EQUATION
3
2779, 1, 1.0, 798, 1, -0.5, 846, 1, -0.5
*EQUATION
3
2779, 2, 1.0, 798, 2, -0.5, 846, 2, -0.5
*EQUATION
3
2779, 3, 1.0, 798, 3, -0.5, 846, 3, -0.5
*EQUATION
5
2782, 1, 1.0, 799, 1, -0.25, 847, 1, -0.25, 848, 1, -0.25, 800, 1, -0.25
*EQUATION
5
2782, 2, 1.0, 799, 2, -0.25, 847, 2, -0.25, 848, 2, -0.25, 800, 2, -0.25
*EQUATION
5
2782, 3, 1.0, 799, 3, -0.25, 847, 3, -0.25, 848, 3, -0.25, 800, 3, -0.25
*EQUATION
3
2783, 1, 1.0, 800, 1, -0.5, 848, 1, -0.5
*EQUATION
3
2783, 2, 1.0, 800, 2, -0.5, 848, 2, -0.5
*EQUATION
3
2783, 3, 1.0, 800, 3, -0.5, 848, 3, -0.5
*EQUATION
5
2784, 1, 1.0, 786, 1, -0.25, 834, 1, -0.25, 851, 1, -0.25, 803, 1, -0.25
*EQUATION
5
2784, 2, 1.0, 786, 2, -0.25, 834, 2, -0.25, 851, 2, -0.25, 803, 2, -0.25
*EQUATION
5
2784, 3, 1.0, 786, 3, -0.25, 834, 3, -0.25, 851, 3, -0.25, 803, 3, -0.25
*EQUATION
3
2787, 1, 1.0, 805, 1, -0.5, 853, 1, -0.5
*EQUATION
3
2787, 2, 1.0, 805, 2, -0.5, 853, 2, -0.5
*EQUATION
3
2787, 3, 1.0, 805, 3, -0.5, 853, 3, -0.5
*EQUATION
5
2788, 1, 1.0, 805, 1, -0.25, 853, 1, -0.25, 854, 1, -0.25, 806, 1, -0.25
*EQUATION
5
2788, 2, 1.0, 805, 2, -0.25, 853, 2, -0.25, 854, 2, -0.25, 806, 2, -0.25
*EQUATION
5
2788, 3, 1.0, 805, 3, -0.25, 853, 3, -0.25, 854, 3, -0.25, 806, 3, -0.25
*EQUATION
3
2789, 1, 1.0, 834, 1, -0.5, 851, 1, -0.5
*EQUATION
3
2789, 2, 1.0, 834, 2, -0.5, 851, 2, -0.5
*EQUATION
3
2789, 3, 1.0, 834, 3, -0.5, 851, 3, -0.5
*EQUATION
3
2792, 1, 1.0, 853, 1, -0.5, 854, 1, -0.5
*EQUATION
3
2792, 2, 1.0, 853, 2, -0.5, 854, 2, -0.5
*EQUATION
3
2792, 3, 1.0, 853, 3, -0.5, 854, 3, -0.5
*EQUATION
3
2793, 1, 1.0, 808, 1, -0.5, 856, 1, -0.5
*EQUATION
3
2793, 2, 1.0, 808, 2, -0.5, 856, 2, -0.5
*EQUATION
3
2793, 3, 1.0, 808, 3, -0.5, 856, 3, -0.5
*EQUATION
5
2794, 1, 1.0, 808, 1, -0.25, 856, 1, -0.25, 857, 1, -0.25, 809, 1, -0.25
*EQUATION
5
2794, 2, 1.0, 808, 2, -0.25, 856, 2, -0.25, 857, 2, -0.25, 809, 2, -0.25
*EQUATION
5
2794, 3, 1.0, 808, 3, -0.25, 856, 3, -0.25, 857, 3, -0.25, 809, 3, -0.25
*EQUATION
3
2795, 1, 1.0, 809, 1, -0.5, 857, 1, -0.5
*EQUATION
3
2795, 2, 1.0, 809, 2, -0.5, 857, 2, -0.5
*EQUATION
3
2795, 3, 1.0, 809, 3, -0.5, 857, 3, -0.5
*EQUATION
3
2799, 1, 1.0, 856, 1, -0.5, 857, 1, -0.5
*EQUATION
3
2799, 2, 1.0, 856, 2, -0.5, 857, 2, -0.5
*EQUATION
3
2799, 3, 1.0, 856, 3, -0.5, 857, 3, -0.5
*EQUATION
5
2803, 1, 1.0, 809, 1, -0.25, 857, 1, -0.25, 858, 1, -0.25, 810, 1, -0.25
*EQUATION
5
2803, 2, 1.0, 809, 2, -0.25, 857, 2, -0.25, 858, 2, -0.25, 810, 2, -0.25
*EQUATION
5
2803, 3, 1.0, 809, 3, -0.25, 857, 3, -0.25, 858, 3, -0.25, 810, 3, -0.25
*EQUATION
3
2804, 1, 1.0, 810, 1, -0.5, 858, 1, -0.5
*EQUATION
3
2804, 2, 1.0, 810, 2, -0.5, 858, 2, -0.5
*EQUATION
3
2804, 3, 1.0, 810, 3, -0.5, 858, 3, -0.5
*EQUATION
3
2807, 1, 1.0, 857, 1, -0.5, 858, 1, -0.5
*EQUATION
3
2807, 2, 1.0, 857, 2, -0.5, 858, 2, -0.5
*EQUATION
3
2807, 3, 1.0, 857, 3, -0.5, 858, 3, -0.5
*EQUATION
3
2811, 1, 1.0, 821, 1, -0.5, 869, 1, -0.5
*EQUATION
3
2811, 2, 1.0, 821, 2, -0.5, 869, 2, -0.5
*EQUATION
3
2811, 3, 1.0, 821, 3, -0.5, 869, 3, -0.5
*EQUATION
5
2813, 1, 1.0, 821, 1, -0.25, 869, 1, -0.25, 870, 1, -0.25, 822, 1, -0.25
*EQUATION
5
2813, 2, 1.0, 821, 2, -0.25, 869, 2, -0.25, 870, 2, -0.25, 822, 2, -0.25
*EQUATION
5
2813, 3, 1.0, 821, 3, -0.25, 869, 3, -0.25, 870, 3, -0.25, 822, 3, -0.25
*EQUATION
3
2815, 1, 1.0, 822, 1, -0.5, 870, 1, -0.5
*EQUATION
3
2815, 2, 1.0, 822, 2, -0.5, 870, 2, -0.5
*EQUATION
3
2815, 3, 1.0, 822, 3, -0.5, 870, 3, -0.5
*EQUATION
3
2818, 1, 1.0, 869, 1, -0.5, 870, 1, -0.5
*EQUATION
3
2818, 2, 1.0, 869, 2, -0.5, 870, 2, -0.5
*EQUATION
3
2818, 3, 1.0, 869, 3, -0.5, 870, 3, -0.5
*EQUATION
3
2820, 1, 1.0, 823, 1, -0.5, 871, 1, -0.5
*EQUATION
3
2820, 2, 1.0, 823, 2, -0.5, 871, 2, -0.5
*EQUATION
3
2820, 3, 1.0, 823, 3, -0.5, 871, 3, -0.5
*EQUATION
5
2822, 1, 1.0, 823, 1, -0.25, 871, 1, -0.25, 872, 1, -0.25, 824, 1, -0.25
*EQUATION
5
2822, 2, 1.0, 823, 2, -0.25, 871, 2, -0.25, 872, 2, -0.25, 824, 2, -0.25
*EQUATION
5
2822, 3, 1.0, 823, 3, -0.25, 871, 3, -0.25, 872, 3, -0.25, 824, 3, -0.25
*EQUATION
3
2824, 1, 1.0, 824, 1, -0.5, 872, 1, -0.5
*EQUATION
3
2824, 2, 1.0, 824, 2, -0.5, 872, 2, -0.5
*EQUATION
3
2824, 3, 1.0, 824, 3, -0.5, 872, 3, -0.5
*EQUATION
3
2827, 1, 1.0, 871, 1, -0.5, 872, 1, -0.5
*EQUATION
3
2827, 2, 1.0, 871, 2, -0.5, 872, 2, -0.5
*EQUATION
3
2827, 3, 1.0, 871, 3, -0.5, 872, 3, -0.5
*EQUATION
5
2831, 1, 1.0, 822, 1, -0.25, 870, 1, -0.25, 879, 1, -0.25, 831, 1, -0.25
*EQUATION
5
2831, 2, 1.0, 822, 2, -0.25, 870, 2, -0.25, 879, 2, -0.25, 831, 2, -0.25
*EQUATION
5
2831, 3, 1.0, 822, 3, -0.25, 870, 3, -0.25, 879, 3, -0.25, 831, 3, -0.25
*EQUATION
3
2833, 1, 1.0, 831, 1, -0.5, 879, 1, -0.5
*EQUATION
3
2833, 2, 1.0, 831, 2, -0.5, 879, 2, -0.5
*EQUATION
3
2833, 3, 1.0, 831, 3, -0.5, 879, 3, -0.5
*EQUATION
3
2835, 1, 1.0, 870, 1, -0.5, 879, 1, -0.5
*EQUATION
3
2835, 2, 1.0, 870, 2, -0.5, 879, 2, -0.5
*EQUATION
3
2835, 3, 1.0, 870, 3, -0.5, 879, 3, -0.5
*EQUATION
3
2837, 1, 1.0, 824, 1, -0.5, 832, 1, -0.5
*EQUATION
3
2837, 2, 1.0, 824, 2, -0.5, 832, 2, -0.5
*EQUATION
3
2837, 3, 1.0, 824, 3, -0.5, 832, 3, -0.5
*EQUATION
5
2838, 1, 1.0, 824, 1, -0.25, 832, 1, -0.25, 833, 1, -0.25, 826, 1, -0.25
*EQUATION
5
2838, 2, 1.0, 824, 2, -0.25, 832, 2, -0.25, 833, 2, -0.25, 826, 2, -0.25
*EQUATION
5
2838, 3, 1.0, 824, 3, -0.25, 832, 3, -0.25, 833, 3, -0.25, 826, 3, -0.25
*EQUATION
3
2839, 1, 1.0, 832, 1, -0.5, 833, 1, -0.5
*EQUATION
3
2839, 2, 1.0, 832, 2, -0.5, 833, 2, -0.5
*EQUATION
3
2839, 3, 1.0, 832, 3, -0.5, 833, 3, -0.5
*EQUATION
5
2840, 1, 1.0, 824, 1, -0.25, 872, 1, -0.25, 880, 1, -0.25, 832, 1, -0.25
*EQUATION
5
2840, 2, 1.0, 824, 2, -0.25, 872, 2, -0.25, 880, 2, -0.25, 832, 2, -0.25
*EQUATION
5
2840, 3, 1.0, 824, 3, -0.25, 872, 3, -0.25, 880, 3, -0.25, 832, 3, -0.25
*EQUATION
3
2842, 1, 1.0, 832, 1, -0.5, 880, 1, -0.5
*EQUATION
3
2842, 2, 1.0, 832, 2, -0.5, 880, 2, -0.5
*EQUATION
3
2842, 3, 1.0, 832, 3, -0.5, 880, 3, -0.5
*EQUATION
3
2844, 1, 1.0, 872, 1, -0.5, 880, 1, -0.5
*EQUATION
3
2844, 2, 1.0, 872, 2, -0.5, 880, 2, -0.5
*EQUATION
3
2844, 3, 1.0, 872, 3, -0.5, 880, 3, -0.5
*EQUATION
3
2864, 1, 1.0, 841, 1, -0.5, 844, 1, -0.5
*EQUATION
3
2864, 2, 1.0, 841, 2, -0.5, 844, 2, -0.5
*EQUATION
3
2864, 3, 1.0, 841, 3, -0.5, 844, 3, -0.5
*EQUATION
5
2865, 1, 1.0, 841, 1, -0.25, 844, 1, -0.25, 845, 1, -0.25, 842, 1, -0.25
*EQUATION
5
2865, 2, 1.0, 841, 2, -0.25, 844, 2, -0.25, 845, 2, -0.25, 842, 2, -0.25
*EQUATION
5
2865, 3, 1.0, 841, 3, -0.25, 844, 3, -0.25, 845, 3, -0.25, 842, 3, -0.25
*EQUATION
3
2866, 1, 1.0, 842, 1, -0.5, 845, 1, -0.5
*EQUATION
3
2866, 2, 1.0, 842, 2, -0.5, 845, 2, -0.5
*EQUATION
3
2866, 3, 1.0, 842, 3, -0.5, 845, 3, -0.5
*EQUATION
5
2873, 1, 1.0, 842, 1, -0.25, 845, 1, -0.25, 846, 1, -0.25, 843, 1, -0.25
*EQUATION
5
2873, 2, 1.0, 842, 2, -0.25, 845, 2, -0.25, 846, 2, -0.25, 843, 2, -0.25
*EQUATION
5
2873, 3, 1.0, 842, 3, -0.25, 845, 3, -0.25, 846, 3, -0.25, 843, 3, -0.25
*EQUATION
3
2874, 1, 1.0, 843, 1, -0.5, 846, 1, -0.5
*EQUATION
3
2874, 2, 1.0, 843, 2, -0.5, 846, 2, -0.5
*EQUATION
3
2874, 3, 1.0, 843, 3, -0.5, 846, 3, -0.5
*EQUATION
3
2879, 1, 1.0, 828, 1, -0.5, 849, 1, -0.5
*EQUATION
3
2879, 2, 1.0, 828, 2, -0.5, 849, 2, -0.5
*EQUATION
3
2879, 3, 1.0, 828, 3, -0.5, 849, 3, -0.5
*EQUATION
5
2880, 1, 1.0, 828, 1, -0.25, 834, 1, -0.25, 851, 1, -0.25, 849, 1, -0.25
*EQUATION
5
2880, 2, 1.0, 828, 2, -0.25, 834, 2, -0.25, 851, 2, -0.25, 849, 2, -0.25
*EQUATION
5
2880, 3, 1.0, 828, 3, -0.25, 834, 3, -0.25, 851, 3, -0.25, 849, 3, -0.25
*EQUATION
3
2881, 1, 1.0, 849, 1, -0.5, 851, 1, -0.5
*EQUATION
3
2881, 2, 1.0, 849, 2, -0.5, 851, 2, -0.5
*EQUATION
3
2881, 3, 1.0, 849, 3, -0.5, 851, 3, -0.5
*EQUATION
5
2882, 1, 1.0, 828, 1, -0.25, 876, 1, -0.25, 897, 1, -0.25, 849, 1, -0.25
*EQUATION
5
2882, 2, 1.0, 828, 2, -0.25, 876, 2, -0.25, 897, 2, -0.25, 849, 2, -0.25
*EQUATION
5
2882, 3, 1.0, 828, 3, -0.25, 876, 3, -0.25, 897, 3, -0.25, 849, 3, -0.25
*EQUATION
3
2883, 1, 1.0, 849, 1, -0.5, 897, 1, -0.5
*EQUATION
3
2883, 2, 1.0, 849, 2, -0.5, 897, 2, -0.5
*EQUATION
3
2883, 3, 1.0, 849, 3, -0.5, 897, 3, -0.5
*EQUATION
3
2888, 1, 1.0, 876, 1, -0.5, 897, 1, -0.5
*EQUATION
3
2888, 2, 1.0, 876, 2, -0.5, 897, 2, -0.5
*EQUATION
3
2888, 3, 1.0, 876, 3, -0.5, 897, 3, -0.5
*EQUATION
3
2892, 1, 1.0, 849, 1, -0.5, 850, 1, -0.5
*EQUATION
3
2892, 2, 1.0, 849, 2, -0.5, 850, 2, -0.5
*EQUATION
3
2892, 3, 1.0, 849, 3, -0.5, 850, 3, -0.5
*EQUATION
5
2893, 1, 1.0, 849, 1, -0.25, 851, 1, -0.25, 852, 1, -0.25, 850, 1, -0.25
*EQUATION
5
2893, 2, 1.0, 849, 2, -0.25, 851, 2, -0.25, 852, 2, -0.25, 850, 2, -0.25
*EQUATION
5
2893, 3, 1.0, 849, 3, -0.25, 851, 3, -0.25, 852, 3, -0.25, 850, 3, -0.25
*EQUATION
3
2894, 1, 1.0, 850, 1, -0.5, 852, 1, -0.5
*EQUATION
3
2894, 2, 1.0, 850, 2, -0.5, 852, 2, -0.5
*EQUATION
3
2894, 3, 1.0, 850, 3, -0.5, 852, 3, -0.5
*EQUATION
5
2895, 1, 1.0, 849, 1, -0.25, 897, 1, -0.25, 898, 1, -0.25, 850, 1, -0.25
*EQUATION
5
2895, 2, 1.0, 849, 2, -0.25, 897, 2, -0.25, 898, 2, -0.25, 850, 2, -0.25
*EQUATION
5
2895, 3, 1.0, 849, 3, -0.25, 897, 3, -0.25, 898, 3, -0.25, 850, 3, -0.25
*EQUATION
3
2896, 1, 1.0, 850, 1, -0.5, 898, 1, -0.5
*EQUATION
3
2896, 2, 1.0, 850, 2, -0.5, 898, 2, -0.5
*EQUATION
3
2896, 3, 1.0, 850, 3, -0.5, 898, 3, -0.5
*EQUATION
3
2901, 1, 1.0, 897, 1, -0.5, 898, 1, -0.5
*EQUATION
3
2901, 2, 1.0, 897, 2, -0.5, 898, 2, -0.5
*EQUATION
3
2901, 3, 1.0, 897, 3, -0.5, 898, 3, -0.5
*EQUATION
3
2908, 1, 1.0, 853, 1, -0.5, 901, 1, -0.5
*EQUATION
3
2908, 2, 1.0, 853, 2, -0.5, 901, 2, -0.5
*EQUATION
3
2908, 3, 1.0, 853, 3, -0.5, 901, 3, -0.5
*EQUATION
5
2909, 1, 1.0, 853, 1, -0.25, 901, 1, -0.25, 902, 1, -0.25, 854, 1, -0.25
*EQUATION
5
2909, 2, 1.0, 853, 2, -0.25, 901, 2, -0.25, 902, 2, -0.25, 854, 2, -0.25
*EQUATION
5
2909, 3, 1.0, 853, 3, -0.25, 901, 3, -0.25, 902, 3, -0.25, 854, 3, -0.25
*EQUATION
3
2910, 1, 1.0, 854, 1, -0.5, 902, 1, -0.5
*EQUATION
3
2910, 2, 1.0, 854, 2, -0.5, 902, 2, -0.5
*EQUATION
3
2910, 3, 1.0, 854, 3, -0.5, 902, 3, -0.5
*EQUATION
3
2914, 1, 1.0, 901, 1, -0.5, 902, 1, -0.5
*EQUATION
3
2914, 2, 1.0, 901, 2, -0.5, 902, 2, -0.5
*EQUATION
3
2914, 3, 1.0, 901, 3, -0.5, 902, 3, -0.5
*EQUATION
5
2917, 1, 1.0, 854, 1, -0.25, 902, 1, -0.25, 903, 1, -0.25, 855, 1, -0.25
*EQUATION
5
2917, 2, 1.0, 854, 2, -0.25, 902, 2, -0.25, 903, 2, -0.25, 855, 2, -0.25
*EQUATION
5
2917, 3, 1.0, 854, 3, -0.25, 902, 3, -0.25, 903, 3, -0.25, 855, 3, -0.25
*EQUATION
3
2918, 1, 1.0, 855, 1, -0.5, 903, 1, -0.5
*EQUATION
3
2918, 2, 1.0, 855, 2, -0.5, 903, 2, -0.5
*EQUATION
3
2918, 3, 1.0, 855, 3, -0.5, 903, 3, -0.5
*EQUATION
3
2921, 1, 1.0, 902, 1, -0.5, 903, 1, -0.5
*EQUATION
3
2921, 2, 1.0, 902, 2, -0.5, 903, 2, -0.5
*EQUATION
3
2921, 3, 1.0, 902, 3, -0.5, 903, 3, -0.5
*EQUATION
3
2922, 1, 1.0, 856, 1, -0.5, 904, 1, -0.5
*EQUATION
3
2922, 2, 1.0, 856, 2, -0.5, 904, 2, -0.5
*EQUATION
3
2922, 3, 1.0, 856, 3, -0.5, 904, 3, -0.5
*EQUATION
5
2923, 1, 1.0, 856, 1, -0.25, 904, 1, -0.25, 905, 1, -0.25, 857, 1, -0.25
*EQUATION
5
2923, 2, 1.0, 856, 2, -0.25, 904, 2, -0.25, 905, 2, -0.25, 857, 2, -0.25
*EQUATION
5
2923, 3, 1.0, 856, 3, -0.25, 904, 3, -0.25, 905, 3, -0.25, 857, 3, -0.25
*EQUATION
3
2924, 1, 1.0, 857, 1, -0.5, 905, 1, -0.5
*EQUATION
3
2924, 2, 1.0, 857, 2, -0.5, 905, 2, -0.5
*EQUATION
3
2924, 3, 1.0, 857, 3, -0.5, 905, 3, -0.5
*EQUATION
3
2928, 1, 1.0, 904, 1, -0.5, 905, 1, -0.5
*EQUATION
3
2928, 2, 1.0, 904, 2, -0.5, 905, 2, -0.5
*EQUATION
3
2928, 3, 1.0, 904, 3, -0.5, 905, 3, -0.5
*EQUATION
5
2932, 1, 1.0, 857, 1, -0.25, 905, 1, -0.25, 906, 1, -0.25, 858, 1, -0.25
*EQUATION
5
2932, 2, 1.0, 857, 2, -0.25, 905, 2, -0.25, 906, 2, -0.25, 858, 2, -0.25
*EQUATION
5
2932, 3, 1.0, 857, 3, -0.25, 905, 3, -0.25, 906, 3, -0.25, 858, 3, -0.25
*EQUATION
3
2933, 1, 1.0, 858, 1, -0.5, 906, 1, -0.5
*EQUATION
3
2933, 2, 1.0, 858, 2, -0.5, 906, 2, -0.5
*EQUATION
3
2933, 3, 1.0, 858, 3, -0.5, 906, 3, -0.5
*EQUATION
3
2936, 1, 1.0, 905, 1, -0.5, 906, 1, -0.5
*EQUATION
3
2936, 2, 1.0, 905, 2, -0.5, 906, 2, -0.5
*EQUATION
3
2936, 3, 1.0, 905, 3, -0.5, 906, 3, -0.5
*BOUNDARY
CLAMP, 1, 3, 0.0
*STEP
*STATIC
*CLOAD
887, 3, -263.157894737
888, 3, -263.157894737
891, 3, -263.157894737
894, 3, -263.157894737
896, 3, -263.157894737
898, 3, -263.157894737
900, 3, -263.157894737
903, 3, -263.157894737
906, 3, -263.157894737
909, 3, -263.157894737
912, 3, -263.157894737
1698, 3, -263.157894737
1730, 3, -263.157894737
1754, 3, -263.157894737
2862, 3, -263.157894737
2878, 3, -263.157894737
2903, 3, -263.157894737
2920, 3, -263.157894737
2938, 3, -263.157894737
*NODE FILE
U
*EL FILE
S, ENER
*NODE PRINT, NSET=TIP_TOP
U
*NODE PRINT, NSET=CLAMP
RF
*EL PRINT, ELSET=EALL
ELSE
*ENERGY PRINT
*END STEP
