*HEADING
Normalized cross-passage space-truss torsion benchmark
*NODE
1,-1.200000000000e+00,0.000000000000e+00,0.000000000000e+00
2,1.200000000000e+00,0.000000000000e+00,0.000000000000e+00
3,-1.200000000000e+00,0.000000000000e+00,2.000000000000e+00
4,1.200000000000e+00,0.000000000000e+00,2.000000000000e+00
5,-1.200000000000e+00,1.000000000000e+01,0.000000000000e+00
6,1.200000000000e+00,1.000000000000e+01,0.000000000000e+00
7,-1.200000000000e+00,1.000000000000e+01,2.000000000000e+00
8,1.200000000000e+00,1.000000000000e+01,2.000000000000e+00
9,-1.200000000000e+00,2.000000000000e+01,0.000000000000e+00
10,1.200000000000e+00,2.000000000000e+01,0.000000000000e+00
11,-1.200000000000e+00,2.000000000000e+01,2.000000000000e+00
12,1.200000000000e+00,2.000000000000e+01,2.000000000000e+00
13,-1.200000000000e+00,3.000000000000e+01,0.000000000000e+00
14,1.200000000000e+00,3.000000000000e+01,0.000000000000e+00
15,-1.200000000000e+00,3.000000000000e+01,2.000000000000e+00
16,1.200000000000e+00,3.000000000000e+01,2.000000000000e+00
17,-1.200000000000e+00,4.000000000000e+01,0.000000000000e+00
18,1.200000000000e+00,4.000000000000e+01,0.000000000000e+00
19,-1.200000000000e+00,4.000000000000e+01,2.000000000000e+00
20,1.200000000000e+00,4.000000000000e+01,2.000000000000e+00
21,-1.200000000000e+00,5.000000000000e+01,0.000000000000e+00
22,1.200000000000e+00,5.000000000000e+01,0.000000000000e+00
23,-1.200000000000e+00,5.000000000000e+01,2.000000000000e+00
24,1.200000000000e+00,5.000000000000e+01,2.000000000000e+00
25,-1.200000000000e+00,5.000000000000e+00,-1.500000000000e-01
26,1.200000000000e+00,5.000000000000e+00,1.500000000000e-01
27,-1.200000000000e+00,5.000000000000e+00,1.850000000000e+00
28,1.200000000000e+00,5.000000000000e+00,2.150000000000e+00
29,-1.200000000000e+00,1.500000000000e+01,-1.500000000000e-01
30,1.200000000000e+00,1.500000000000e+01,1.500000000000e-01
31,-1.200000000000e+00,1.500000000000e+01,1.850000000000e+00
32,1.200000000000e+00,1.500000000000e+01,2.150000000000e+00
33,-1.200000000000e+00,3.500000000000e+01,-1.500000000000e-01
34,1.200000000000e+00,3.500000000000e+01,1.500000000000e-01
35,-1.200000000000e+00,3.500000000000e+01,1.850000000000e+00
36,1.200000000000e+00,3.500000000000e+01,2.150000000000e+00
37,-1.200000000000e+00,4.125000000000e+01,-5.740251485476e-02
38,-1.200000000000e+00,4.250000000000e+01,-1.060660171780e-01
39,-1.200000000000e+00,4.375000000000e+01,-1.385819298767e-01
40,-1.200000000000e+00,4.500000000000e+01,-1.500000000000e-01
41,-1.200000000000e+00,4.625000000000e+01,-1.385819298767e-01
42,-1.200000000000e+00,4.750000000000e+01,-1.060660171780e-01
43,-1.200000000000e+00,4.875000000000e+01,-5.740251485476e-02
44,1.200000000000e+00,4.125000000000e+01,5.740251485476e-02
45,1.200000000000e+00,4.250000000000e+01,1.060660171780e-01
46,1.200000000000e+00,4.375000000000e+01,1.385819298767e-01
47,1.200000000000e+00,4.500000000000e+01,1.500000000000e-01
48,1.200000000000e+00,4.625000000000e+01,1.385819298767e-01
49,1.200000000000e+00,4.750000000000e+01,1.060660171780e-01
50,1.200000000000e+00,4.875000000000e+01,5.740251485476e-02
51,-1.200000000000e+00,4.125000000000e+01,1.942597485145e+00
52,-1.200000000000e+00,4.250000000000e+01,1.893933982822e+00
53,-1.200000000000e+00,4.375000000000e+01,1.861418070123e+00
54,-1.200000000000e+00,4.500000000000e+01,1.850000000000e+00
55,-1.200000000000e+00,4.625000000000e+01,1.861418070123e+00
56,-1.200000000000e+00,4.750000000000e+01,1.893933982822e+00
57,-1.200000000000e+00,4.875000000000e+01,1.942597485145e+00
58,1.200000000000e+00,4.125000000000e+01,2.057402514855e+00
59,1.200000000000e+00,4.250000000000e+01,2.106066017178e+00
60,1.200000000000e+00,4.375000000000e+01,2.138581929877e+00
61,1.200000000000e+00,4.500000000000e+01,2.150000000000e+00
62,1.200000000000e+00,4.625000000000e+01,2.138581929877e+00
63,1.200000000000e+00,4.750000000000e+01,2.106066017178e+00
64,1.200000000000e+00,4.875000000000e+01,2.057402514855e+00
65,0.000000000000e+00,-3.600000000000e-02,0.000000000000e+00
66,0.000000000000e+00,3.600000000000e-02,2.000000000000e+00
67,-1.200000000000e+00,3.000000000000e-02,1.000000000000e+00
68,1.200000000000e+00,-3.000000000000e-02,1.000000000000e+00
69,0.000000000000e+00,1.996400000000e+01,0.000000000000e+00
70,0.000000000000e+00,2.003600000000e+01,2.000000000000e+00
71,-1.200000000000e+00,2.003000000000e+01,1.000000000000e+00
72,1.200000000000e+00,1.997000000000e+01,1.000000000000e+00
73,-6.000000000000e-01,2.997454415588e+01,0.000000000000e+00
74,0.000000000000e+00,2.996400000000e+01,0.000000000000e+00
75,6.000000000000e-01,2.997454415588e+01,0.000000000000e+00
76,-6.000000000000e-01,3.002545584412e+01,2.000000000000e+00
77,0.000000000000e+00,3.003600000000e+01,2.000000000000e+00
78,6.000000000000e-01,3.002545584412e+01,2.000000000000e+00
79,-1.200000000000e+00,3.002121320344e+01,5.000000000000e-01
80,-1.200000000000e+00,3.003000000000e+01,1.000000000000e+00
81,-1.200000000000e+00,3.002121320344e+01,1.500000000000e+00
82,1.200000000000e+00,2.997878679656e+01,5.000000000000e-01
83,1.200000000000e+00,2.997000000000e+01,1.000000000000e+00
84,1.200000000000e+00,2.997878679656e+01,1.500000000000e+00
85,0.000000000000e+00,3.996400000000e+01,0.000000000000e+00
86,0.000000000000e+00,4.003600000000e+01,2.000000000000e+00
87,-1.200000000000e+00,4.003000000000e+01,1.000000000000e+00
88,1.200000000000e+00,3.997000000000e+01,1.000000000000e+00
89,0.000000000000e+00,4.996400000000e+01,0.000000000000e+00
90,0.000000000000e+00,5.003600000000e+01,2.000000000000e+00
91,-1.200000000000e+00,5.003000000000e+01,1.000000000000e+00
92,1.200000000000e+00,4.997000000000e+01,1.000000000000e+00
93,-1.200000000000e+00,1.261480502971e+00,1.925974851452e-01
94,-1.200000000000e+00,2.521213203436e+00,3.939339828220e-01
95,-1.200000000000e+00,3.777716385975e+00,6.114180701233e-01
96,-1.200000000000e+00,5.030000000000e+00,8.500000000000e-01
97,-1.200000000000e+00,6.277716385975e+00,1.111418070123e+00
98,-1.200000000000e+00,7.521213203436e+00,1.393933982822e+00
99,-1.200000000000e+00,8.761480502971e+00,1.692597485145e+00
100,-1.200000000000e+00,1.261480502971e+00,1.807402514855e+00
101,-1.200000000000e+00,2.521213203436e+00,1.606066017178e+00
102,-1.200000000000e+00,3.777716385975e+00,1.388581929877e+00
103,-1.200000000000e+00,5.030000000000e+00,1.150000000000e+00
104,-1.200000000000e+00,6.277716385975e+00,8.885819298767e-01
105,-1.200000000000e+00,7.521213203436e+00,6.060660171780e-01
106,-1.200000000000e+00,8.761480502971e+00,3.074025148548e-01
107,1.200000000000e+00,1.261480502971e+00,1.925974851452e-01
108,1.200000000000e+00,2.521213203436e+00,3.939339828220e-01
109,1.200000000000e+00,3.777716385975e+00,6.114180701233e-01
110,1.200000000000e+00,5.030000000000e+00,8.500000000000e-01
111,1.200000000000e+00,6.277716385975e+00,1.111418070123e+00
112,1.200000000000e+00,7.521213203436e+00,1.393933982822e+00
113,1.200000000000e+00,8.761480502971e+00,1.692597485145e+00
114,1.200000000000e+00,1.261480502971e+00,1.807402514855e+00
115,1.200000000000e+00,2.521213203436e+00,1.606066017178e+00
116,1.200000000000e+00,3.777716385975e+00,1.388581929877e+00
117,1.200000000000e+00,5.030000000000e+00,1.150000000000e+00
118,1.200000000000e+00,6.277716385975e+00,8.885819298767e-01
119,1.200000000000e+00,7.521213203436e+00,6.060660171780e-01
120,1.200000000000e+00,8.761480502971e+00,3.074025148548e-01
121,-8.425974851452e-01,1.236223396435e+00,0.000000000000e+00
122,-4.939339828220e-01,2.474544155877e+00,0.000000000000e+00
123,-1.614180701233e-01,3.716740336830e+00,0.000000000000e+00
124,1.500000000000e-01,4.964000000000e+00,0.000000000000e+00
125,4.385819298767e-01,6.216740336830e+00,0.000000000000e+00
126,7.060660171780e-01,7.474544155877e+00,0.000000000000e+00
127,9.574025148548e-01,8.736223396435e+00,0.000000000000e+00
128,8.425974851452e-01,1.236223396435e+00,0.000000000000e+00
129,4.939339828220e-01,2.474544155877e+00,0.000000000000e+00
130,1.614180701233e-01,3.716740336830e+00,0.000000000000e+00
131,-1.500000000000e-01,4.964000000000e+00,0.000000000000e+00
132,-4.385819298767e-01,6.216740336830e+00,0.000000000000e+00
133,-7.060660171780e-01,7.474544155877e+00,0.000000000000e+00
134,-9.574025148548e-01,8.736223396435e+00,0.000000000000e+00
135,-8.425974851452e-01,1.236223396435e+00,2.000000000000e+00
136,-4.939339828220e-01,2.474544155877e+00,2.000000000000e+00
137,-1.614180701233e-01,3.716740336830e+00,2.000000000000e+00
138,1.500000000000e-01,4.964000000000e+00,2.000000000000e+00
139,4.385819298767e-01,6.216740336830e+00,2.000000000000e+00
140,7.060660171780e-01,7.474544155877e+00,2.000000000000e+00
141,9.574025148548e-01,8.736223396435e+00,2.000000000000e+00
142,8.425974851452e-01,1.236223396435e+00,2.000000000000e+00
143,4.939339828220e-01,2.474544155877e+00,2.000000000000e+00
144,1.614180701233e-01,3.716740336830e+00,2.000000000000e+00
145,-1.500000000000e-01,4.964000000000e+00,2.000000000000e+00
146,-4.385819298767e-01,6.216740336830e+00,2.000000000000e+00
147,-7.060660171780e-01,7.474544155877e+00,2.000000000000e+00
148,-9.574025148548e-01,8.736223396435e+00,2.000000000000e+00
149,-1.200000000000e+00,1.252121320344e+01,3.939339828220e-01
150,-1.200000000000e+00,1.503000000000e+01,8.500000000000e-01
151,-1.200000000000e+00,1.752121320344e+01,1.393933982822e+00
152,-1.200000000000e+00,1.252121320344e+01,1.606066017178e+00
153,-1.200000000000e+00,1.503000000000e+01,1.150000000000e+00
154,-1.200000000000e+00,1.752121320344e+01,6.060660171780e-01
155,1.200000000000e+00,1.252121320344e+01,3.939339828220e-01
156,1.200000000000e+00,1.503000000000e+01,8.500000000000e-01
157,1.200000000000e+00,1.752121320344e+01,1.393933982822e+00
158,1.200000000000e+00,1.252121320344e+01,1.606066017178e+00
159,1.200000000000e+00,1.503000000000e+01,1.150000000000e+00
160,1.200000000000e+00,1.752121320344e+01,6.060660171780e-01
161,-4.939339828220e-01,1.247454415588e+01,0.000000000000e+00
162,1.500000000000e-01,1.496400000000e+01,0.000000000000e+00
163,7.060660171780e-01,1.747454415588e+01,0.000000000000e+00
164,4.939339828220e-01,1.247454415588e+01,0.000000000000e+00
165,-1.500000000000e-01,1.496400000000e+01,0.000000000000e+00
166,-7.060660171780e-01,1.747454415588e+01,0.000000000000e+00
167,-4.939339828220e-01,1.247454415588e+01,2.000000000000e+00
168,1.500000000000e-01,1.496400000000e+01,2.000000000000e+00
169,7.060660171780e-01,1.747454415588e+01,2.000000000000e+00
170,4.939339828220e-01,1.247454415588e+01,2.000000000000e+00
171,-1.500000000000e-01,1.496400000000e+01,2.000000000000e+00
172,-7.060660171780e-01,1.747454415588e+01,2.000000000000e+00
173,-1.200000000000e+00,3.252121320344e+01,3.939339828220e-01
174,-1.200000000000e+00,3.503000000000e+01,8.500000000000e-01
175,-1.200000000000e+00,3.752121320344e+01,1.393933982822e+00
176,-1.200000000000e+00,3.252121320344e+01,1.606066017178e+00
177,-1.200000000000e+00,3.503000000000e+01,1.150000000000e+00
178,-1.200000000000e+00,3.752121320344e+01,6.060660171780e-01
179,1.200000000000e+00,3.252121320344e+01,3.939339828220e-01
180,1.200000000000e+00,3.503000000000e+01,8.500000000000e-01
181,1.200000000000e+00,3.752121320344e+01,1.393933982822e+00
182,1.200000000000e+00,3.252121320344e+01,1.606066017178e+00
183,1.200000000000e+00,3.503000000000e+01,1.150000000000e+00
184,1.200000000000e+00,3.752121320344e+01,6.060660171780e-01
185,-4.939339828220e-01,3.247454415588e+01,0.000000000000e+00
186,1.500000000000e-01,3.496400000000e+01,0.000000000000e+00
187,7.060660171780e-01,3.747454415588e+01,0.000000000000e+00
188,4.939339828220e-01,3.247454415588e+01,0.000000000000e+00
189,-1.500000000000e-01,3.496400000000e+01,0.000000000000e+00
190,-7.060660171780e-01,3.747454415588e+01,0.000000000000e+00
191,-4.939339828220e-01,3.247454415588e+01,2.000000000000e+00
192,1.500000000000e-01,3.496400000000e+01,2.000000000000e+00
193,7.060660171780e-01,3.747454415588e+01,2.000000000000e+00
194,4.939339828220e-01,3.247454415588e+01,2.000000000000e+00
195,-1.500000000000e-01,3.496400000000e+01,2.000000000000e+00
196,-7.060660171780e-01,3.747454415588e+01,2.000000000000e+00
197,-1.200000000000e+00,4.126148050297e+01,1.925974851452e-01
198,-1.200000000000e+00,4.252121320344e+01,3.939339828220e-01
199,-1.200000000000e+00,4.377771638598e+01,6.114180701233e-01
200,-1.200000000000e+00,4.503000000000e+01,8.500000000000e-01
201,-1.200000000000e+00,4.627771638598e+01,1.111418070123e+00
202,-1.200000000000e+00,4.752121320344e+01,1.393933982822e+00
203,-1.200000000000e+00,4.876148050297e+01,1.692597485145e+00
204,-1.200000000000e+00,4.126148050297e+01,1.807402514855e+00
205,-1.200000000000e+00,4.252121320344e+01,1.606066017178e+00
206,-1.200000000000e+00,4.377771638598e+01,1.388581929877e+00
207,-1.200000000000e+00,4.503000000000e+01,1.150000000000e+00
208,-1.200000000000e+00,4.627771638598e+01,8.885819298767e-01
209,-1.200000000000e+00,4.752121320344e+01,6.060660171780e-01
210,-1.200000000000e+00,4.876148050297e+01,3.074025148548e-01
211,1.200000000000e+00,4.126148050297e+01,1.925974851452e-01
212,1.200000000000e+00,4.252121320344e+01,3.939339828220e-01
213,1.200000000000e+00,4.377771638598e+01,6.114180701233e-01
214,1.200000000000e+00,4.503000000000e+01,8.500000000000e-01
215,1.200000000000e+00,4.627771638598e+01,1.111418070123e+00
216,1.200000000000e+00,4.752121320344e+01,1.393933982822e+00
217,1.200000000000e+00,4.876148050297e+01,1.692597485145e+00
218,1.200000000000e+00,4.126148050297e+01,1.807402514855e+00
219,1.200000000000e+00,4.252121320344e+01,1.606066017178e+00
220,1.200000000000e+00,4.377771638598e+01,1.388581929877e+00
221,1.200000000000e+00,4.503000000000e+01,1.150000000000e+00
222,1.200000000000e+00,4.627771638598e+01,8.885819298767e-01
223,1.200000000000e+00,4.752121320344e+01,6.060660171780e-01
224,1.200000000000e+00,4.876148050297e+01,3.074025148548e-01
225,-8.425974851452e-01,4.123622339643e+01,0.000000000000e+00
226,-4.939339828220e-01,4.247454415588e+01,0.000000000000e+00
227,-1.614180701233e-01,4.371674033683e+01,0.000000000000e+00
228,1.500000000000e-01,4.496400000000e+01,0.000000000000e+00
229,4.385819298767e-01,4.621674033683e+01,0.000000000000e+00
230,7.060660171780e-01,4.747454415588e+01,0.000000000000e+00
231,9.574025148548e-01,4.873622339643e+01,0.000000000000e+00
232,8.425974851452e-01,4.123622339643e+01,0.000000000000e+00
233,4.939339828220e-01,4.247454415588e+01,0.000000000000e+00
234,1.614180701233e-01,4.371674033683e+01,0.000000000000e+00
235,-1.500000000000e-01,4.496400000000e+01,0.000000000000e+00
236,-4.385819298767e-01,4.621674033683e+01,0.000000000000e+00
237,-7.060660171780e-01,4.747454415588e+01,0.000000000000e+00
238,-9.574025148548e-01,4.873622339643e+01,0.000000000000e+00
239,-8.425974851452e-01,4.123622339643e+01,2.000000000000e+00
240,-4.939339828220e-01,4.247454415588e+01,2.000000000000e+00
241,-1.614180701233e-01,4.371674033683e+01,2.000000000000e+00
242,1.500000000000e-01,4.496400000000e+01,2.000000000000e+00
243,4.385819298767e-01,4.621674033683e+01,2.000000000000e+00
244,7.060660171780e-01,4.747454415588e+01,2.000000000000e+00
245,9.574025148548e-01,4.873622339643e+01,2.000000000000e+00
246,8.425974851452e-01,4.123622339643e+01,2.000000000000e+00
247,4.939339828220e-01,4.247454415588e+01,2.000000000000e+00
248,1.614180701233e-01,4.371674033683e+01,2.000000000000e+00
249,-1.500000000000e-01,4.496400000000e+01,2.000000000000e+00
250,-4.385819298767e-01,4.621674033683e+01,2.000000000000e+00
251,-7.060660171780e-01,4.747454415588e+01,2.000000000000e+00
252,-9.574025148548e-01,4.873622339643e+01,2.000000000000e+00
*ELEMENT,TYPE=B31,ELSET=ALL
1,1,25
2,25,5
3,2,26
4,26,6
5,3,27
6,27,7
7,4,28
8,28,8
9,5,29
10,29,9
11,6,30
12,30,10
13,7,31
14,31,11
15,8,32
16,32,12
17,9,13
18,10,14
19,11,15
20,12,16
21,13,33
22,33,17
23,14,34
24,34,18
25,15,35
26,35,19
27,16,36
28,36,20
29,17,37
30,37,38
31,38,39
32,39,40
33,40,41
34,41,42
35,42,43
36,43,21
37,18,44
38,44,45
39,45,46
40,46,47
41,47,48
42,48,49
43,49,50
44,50,22
45,19,51
46,51,52
47,52,53
48,53,54
49,54,55
50,55,56
51,56,57
52,57,23
53,20,58
54,58,59
55,59,60
56,60,61
57,61,62
58,62,63
59,63,64
60,64,24
61,1,65
62,65,2
63,3,66
64,66,4
65,1,67
66,67,3
67,2,68
68,68,4
69,5,6
70,7,8
71,5,7
72,6,8
73,9,69
74,69,10
75,11,70
76,70,12
77,9,71
78,71,11
79,10,72
80,72,12
81,13,73
82,73,74
83,74,75
84,75,14
85,15,76
86,76,77
87,77,78
88,78,16
89,13,79
90,79,80
91,80,81
92,81,15
93,14,82
94,82,83
95,83,84
96,84,16
97,17,85
98,85,18
99,19,86
100,86,20
101,17,87
102,87,19
103,18,88
104,88,20
105,21,89
106,89,22
107,23,90
108,90,24
109,21,91
110,91,23
111,22,92
112,92,24
113,1,93
114,93,94
115,94,95
116,95,96
117,96,97
118,97,98
119,98,99
120,99,7
121,3,100
122,100,101
123,101,102
124,102,103
125,103,104
126,104,105
127,105,106
128,106,5
129,2,107
130,107,108
131,108,109
132,109,110
133,110,111
134,111,112
135,112,113
136,113,8
137,4,114
138,114,115
139,115,116
140,116,117
141,117,118
142,118,119
143,119,120
144,120,6
145,1,121
146,121,122
147,122,123
148,123,124
149,124,125
150,125,126
151,126,127
152,127,6
153,2,128
154,128,129
155,129,130
156,130,131
157,131,132
158,132,133
159,133,134
160,134,5
161,3,135
162,135,136
163,136,137
164,137,138
165,138,139
166,139,140
167,140,141
168,141,8
169,4,142
170,142,143
171,143,144
172,144,145
173,145,146
174,146,147
175,147,148
176,148,7
177,5,149
178,149,150
179,150,151
180,151,11
181,7,152
182,152,153
183,153,154
184,154,9
185,6,155
186,155,156
187,156,157
188,157,12
189,8,158
190,158,159
191,159,160
192,160,10
193,5,161
194,161,162
195,162,163
196,163,10
197,6,164
198,164,165
199,165,166
200,166,9
201,7,167
202,167,168
203,168,169
204,169,12
205,8,170
206,170,171
207,171,172
208,172,11
209,9,15
210,11,13
211,10,16
212,12,14
213,9,14
214,10,13
215,11,16
216,12,15
217,13,173
218,173,174
219,174,175
220,175,19
221,15,176
222,176,177
223,177,178
224,178,17
225,14,179
226,179,180
227,180,181
228,181,20
229,16,182
230,182,183
231,183,184
232,184,18
233,13,185
234,185,186
235,186,187
236,187,18
237,14,188
238,188,189
239,189,190
240,190,17
241,15,191
242,191,192
243,192,193
244,193,20
245,16,194
246,194,195
247,195,196
248,196,19
249,17,197
250,197,198
251,198,199
252,199,200
253,200,201
254,201,202
255,202,203
256,203,23
257,19,204
258,204,205
259,205,206
260,206,207
261,207,208
262,208,209
263,209,210
264,210,21
265,18,211
266,211,212
267,212,213
268,213,214
269,214,215
270,215,216
271,216,217
272,217,24
273,20,218
274,218,219
275,219,220
276,220,221
277,221,222
278,222,223
279,223,224
280,224,22
281,17,225
282,225,226
283,226,227
284,227,228
285,228,229
286,229,230
287,230,231
288,231,22
289,18,232
290,232,233
291,233,234
292,234,235
293,235,236
294,236,237
295,237,238
296,238,21
297,19,239
298,239,240
299,240,241
300,241,242
301,242,243
302,243,244
303,244,245
304,245,24
305,20,246
306,246,247
307,247,248
308,248,249
309,249,250
310,250,251
311,251,252
312,252,23
*NSET,NSET=NALL,GENERATE
1,252,1
*NSET,NSET=LEFT
1,2,3,4
*NSET,NSET=RIGHT
21,22,23,24
*MATERIAL,NAME=STEEL
*ELASTIC
2.100000000000e+11,0.300000000000
*BEAM SECTION,ELSET=ALL,MATERIAL=STEEL,SECTION=RECT
6.000000000000e-02,4.000000000000e-02
0.371390676354,0.557086014531,0.742781352708
*BOUNDARY
LEFT,1,6,0.0
*STEP
*STATIC
*BOUNDARY
21,1,1,5.000000000000e-03
21,2,2,0.0
21,3,3,-6.000000000000e-03
*BOUNDARY
22,1,1,5.000000000000e-03
22,2,2,0.0
22,3,3,6.000000000000e-03
*BOUNDARY
23,1,1,-5.000000000000e-03
23,2,2,0.0
23,3,3,-6.000000000000e-03
*BOUNDARY
24,1,1,-5.000000000000e-03
24,2,2,0.0
24,3,3,6.000000000000e-03
*NODE FILE,NSET=NALL
U
*NODE PRINT,NSET=NALL
U
*NODE PRINT,NSET=RIGHT
RF
*EL PRINT,ELSET=ALL,TOTALS=YES
ELSE
*END STEP
