*HEADING
Normalized cross-passage space-truss torsion benchmark
*NODE
1,-1.200000000000e+00,0.000000000000e+00,0.000000000000e+00
2,1.200000000000e+00,0.000000000000e+00,0.000000000000e+00
3,-1.200000000000e+00,0.000000000000e+00,2.000000000000e+00
4,1.200000000000e+00,0.000000000000e+00,2.000000000000e+00
5,-1.200000000000e+00,1.000000000000e+01,0.000000000000e+00
6,1.200000000000e+00,1.000000000000e+01,0.000000000000e+00
7,-1.200000000000e+00,1.000000000000e+01,2.000000000000e+00
8,1.200000000000e+00,1.000000000000e+01,2.000000000000e+00
9,-1.200000000000e+00,2.000000000000e+01,0.000000000000e+00
10,1.200000000000e+00,2.000000000000e+01,0.000000000000e+00
11,-1.200000000000e+00,2.000000000000e+01,2.000000000000e+00
12,1.200000000000e+00,2.000000000000e+01,2.000000000000e+00
13,-1.200000000000e+00,3.000000000000e+01,0.000000000000e+00
14,1.200000000000e+00,3.000000000000e+01,0.000000000000e+00
15,-1.200000000000e+00,3.000000000000e+01,2.000000000000e+00
16,1.200000000000e+00,3.000000000000e+01,2.000000000000e+00
17,-1.200000000000e+00,4.000000000000e+01,0.000000000000e+00
18,1.200000000000e+00,4.000000000000e+01,0.000000000000e+00
19,-1.200000000000e+00,4.000000000000e+01,2.000000000000e+00
20,1.200000000000e+00,4.000000000000e+01,2.000000000000e+00
21,-1.200000000000e+00,5.000000000000e+01,0.000000000000e+00
22,1.200000000000e+00,5.000000000000e+01,0.000000000000e+00
23,-1.200000000000e+00,5.000000000000e+01,2.000000000000e+00
24,1.200000000000e+00,5.000000000000e+01,2.000000000000e+00
25,-1.200000000000e+00,5.000000000000e+00,-1.500000000000e-01
26,1.200000000000e+00,5.000000000000e+00,1.500000000000e-01
27,-1.200000000000e+00,5.000000000000e+00,1.850000000000e+00
28,1.200000000000e+00,5.000000000000e+00,2.150000000000e+00
29,-1.200000000000e+00,1.500000000000e+01,-1.500000000000e-01
30,1.200000000000e+00,1.500000000000e+01,1.500000000000e-01
31,-1.200000000000e+00,1.500000000000e+01,1.850000000000e+00
32,1.200000000000e+00,1.500000000000e+01,2.150000000000e+00
33,-1.200000000000e+00,2.250000000000e+01,-1.060660171780e-01
34,-1.200000000000e+00,2.500000000000e+01,-1.500000000000e-01
35,-1.200000000000e+00,2.750000000000e+01,-1.060660171780e-01
36,1.200000000000e+00,2.250000000000e+01,1.060660171780e-01
37,1.200000000000e+00,2.500000000000e+01,1.500000000000e-01
38,1.200000000000e+00,2.750000000000e+01,1.060660171780e-01
39,-1.200000000000e+00,2.250000000000e+01,1.893933982822e+00
40,-1.200000000000e+00,2.500000000000e+01,1.850000000000e+00
41,-1.200000000000e+00,2.750000000000e+01,1.893933982822e+00
42,1.200000000000e+00,2.250000000000e+01,2.106066017178e+00
43,1.200000000000e+00,2.500000000000e+01,2.150000000000e+00
44,1.200000000000e+00,2.750000000000e+01,2.106066017178e+00
45,-1.200000000000e+00,3.500000000000e+01,-1.500000000000e-01
46,1.200000000000e+00,3.500000000000e+01,1.500000000000e-01
47,-1.200000000000e+00,3.500000000000e+01,1.850000000000e+00
48,1.200000000000e+00,3.500000000000e+01,2.150000000000e+00
49,-1.200000000000e+00,4.250000000000e+01,-1.060660171780e-01
50,-1.200000000000e+00,4.500000000000e+01,-1.500000000000e-01
51,-1.200000000000e+00,4.750000000000e+01,-1.060660171780e-01
52,1.200000000000e+00,4.250000000000e+01,1.060660171780e-01
53,1.200000000000e+00,4.500000000000e+01,1.500000000000e-01
54,1.200000000000e+00,4.750000000000e+01,1.060660171780e-01
55,-1.200000000000e+00,4.250000000000e+01,1.893933982822e+00
56,-1.200000000000e+00,4.500000000000e+01,1.850000000000e+00
57,-1.200000000000e+00,4.750000000000e+01,1.893933982822e+00
58,1.200000000000e+00,4.250000000000e+01,2.106066017178e+00
59,1.200000000000e+00,4.500000000000e+01,2.150000000000e+00
60,1.200000000000e+00,4.750000000000e+01,2.106066017178e+00
61,-6.000000000000e-01,-2.545584412272e-02,0.000000000000e+00
62,0.000000000000e+00,-3.600000000000e-02,0.000000000000e+00
63,6.000000000000e-01,-2.545584412272e-02,0.000000000000e+00
64,-6.000000000000e-01,2.545584412272e-02,2.000000000000e+00
65,0.000000000000e+00,3.600000000000e-02,2.000000000000e+00
66,6.000000000000e-01,2.545584412272e-02,2.000000000000e+00
67,-1.200000000000e+00,2.121320343560e-02,5.000000000000e-01
68,-1.200000000000e+00,3.000000000000e-02,1.000000000000e+00
69,-1.200000000000e+00,2.121320343560e-02,1.500000000000e+00
70,1.200000000000e+00,-2.121320343560e-02,5.000000000000e-01
71,1.200000000000e+00,-3.000000000000e-02,1.000000000000e+00
72,1.200000000000e+00,-2.121320343560e-02,1.500000000000e+00
73,-6.000000000000e-01,9.974544155877e+00,0.000000000000e+00
74,0.000000000000e+00,9.964000000000e+00,0.000000000000e+00
75,6.000000000000e-01,9.974544155877e+00,0.000000000000e+00
76,-6.000000000000e-01,1.002545584412e+01,2.000000000000e+00
77,0.000000000000e+00,1.003600000000e+01,2.000000000000e+00
78,6.000000000000e-01,1.002545584412e+01,2.000000000000e+00
79,-1.200000000000e+00,1.002121320344e+01,5.000000000000e-01
80,-1.200000000000e+00,1.003000000000e+01,1.000000000000e+00
81,-1.200000000000e+00,1.002121320344e+01,1.500000000000e+00
82,1.200000000000e+00,9.978786796564e+00,5.000000000000e-01
83,1.200000000000e+00,9.970000000000e+00,1.000000000000e+00
84,1.200000000000e+00,9.978786796564e+00,1.500000000000e+00
85,-6.000000000000e-01,1.997454415588e+01,0.000000000000e+00
86,0.000000000000e+00,1.996400000000e+01,0.000000000000e+00
87,6.000000000000e-01,1.997454415588e+01,0.000000000000e+00
88,-6.000000000000e-01,2.002545584412e+01,2.000000000000e+00
89,0.000000000000e+00,2.003600000000e+01,2.000000000000e+00
90,6.000000000000e-01,2.002545584412e+01,2.000000000000e+00
91,-1.200000000000e+00,2.002121320344e+01,5.000000000000e-01
92,-1.200000000000e+00,2.003000000000e+01,1.000000000000e+00
93,-1.200000000000e+00,2.002121320344e+01,1.500000000000e+00
94,1.200000000000e+00,1.997878679656e+01,5.000000000000e-01
95,1.200000000000e+00,1.997000000000e+01,1.000000000000e+00
96,1.200000000000e+00,1.997878679656e+01,1.500000000000e+00
97,-6.000000000000e-01,2.997454415588e+01,0.000000000000e+00
98,0.000000000000e+00,2.996400000000e+01,0.000000000000e+00
99,6.000000000000e-01,2.997454415588e+01,0.000000000000e+00
100,-6.000000000000e-01,3.002545584412e+01,2.000000000000e+00
101,0.000000000000e+00,3.003600000000e+01,2.000000000000e+00
102,6.000000000000e-01,3.002545584412e+01,2.000000000000e+00
103,-1.200000000000e+00,3.002121320344e+01,5.000000000000e-01
104,-1.200000000000e+00,3.003000000000e+01,1.000000000000e+00
105,-1.200000000000e+00,3.002121320344e+01,1.500000000000e+00
106,1.200000000000e+00,2.997878679656e+01,5.000000000000e-01
107,1.200000000000e+00,2.997000000000e+01,1.000000000000e+00
108,1.200000000000e+00,2.997878679656e+01,1.500000000000e+00
109,-6.000000000000e-01,3.997454415588e+01,0.000000000000e+00
110,0.000000000000e+00,3.996400000000e+01,0.000000000000e+00
111,6.000000000000e-01,3.997454415588e+01,0.000000000000e+00
112,-6.000000000000e-01,4.002545584412e+01,2.000000000000e+00
113,0.000000000000e+00,4.003600000000e+01,2.000000000000e+00
114,6.000000000000e-01,4.002545584412e+01,2.000000000000e+00
115,-1.200000000000e+00,4.002121320344e+01,5.000000000000e-01
116,-1.200000000000e+00,4.003000000000e+01,1.000000000000e+00
117,-1.200000000000e+00,4.002121320344e+01,1.500000000000e+00
118,1.200000000000e+00,3.997878679656e+01,5.000000000000e-01
119,1.200000000000e+00,3.997000000000e+01,1.000000000000e+00
120,1.200000000000e+00,3.997878679656e+01,1.500000000000e+00
121,-1.200000000000e+00,5.030000000000e+00,8.500000000000e-01
122,-1.200000000000e+00,5.030000000000e+00,1.150000000000e+00
123,1.200000000000e+00,5.030000000000e+00,8.500000000000e-01
124,1.200000000000e+00,5.030000000000e+00,1.150000000000e+00
125,1.500000000000e-01,4.964000000000e+00,0.000000000000e+00
126,-1.500000000000e-01,4.964000000000e+00,0.000000000000e+00
127,1.500000000000e-01,4.964000000000e+00,2.000000000000e+00
128,-1.500000000000e-01,4.964000000000e+00,2.000000000000e+00
129,-1.200000000000e+00,1.252121320344e+01,3.939339828220e-01
130,-1.200000000000e+00,1.503000000000e+01,8.500000000000e-01
131,-1.200000000000e+00,1.752121320344e+01,1.393933982822e+00
132,-1.200000000000e+00,1.252121320344e+01,1.606066017178e+00
133,-1.200000000000e+00,1.503000000000e+01,1.150000000000e+00
134,-1.200000000000e+00,1.752121320344e+01,6.060660171780e-01
135,1.200000000000e+00,1.252121320344e+01,3.939339828220e-01
136,1.200000000000e+00,1.503000000000e+01,8.500000000000e-01
137,1.200000000000e+00,1.752121320344e+01,1.393933982822e+00
138,1.200000000000e+00,1.252121320344e+01,1.606066017178e+00
139,1.200000000000e+00,1.503000000000e+01,1.150000000000e+00
140,1.200000000000e+00,1.752121320344e+01,6.060660171780e-01
141,-4.939339828220e-01,1.247454415588e+01,0.000000000000e+00
142,1.500000000000e-01,1.496400000000e+01,0.000000000000e+00
143,7.060660171780e-01,1.747454415588e+01,0.000000000000e+00
144,4.939339828220e-01,1.247454415588e+01,0.000000000000e+00
145,-1.500000000000e-01,1.496400000000e+01,0.000000000000e+00
146,-7.060660171780e-01,1.747454415588e+01,0.000000000000e+00
147,-4.939339828220e-01,1.247454415588e+01,2.000000000000e+00
148,1.500000000000e-01,1.496400000000e+01,2.000000000000e+00
149,7.060660171780e-01,1.747454415588e+01,2.000000000000e+00
150,4.939339828220e-01,1.247454415588e+01,2.000000000000e+00
151,-1.500000000000e-01,1.496400000000e+01,2.000000000000e+00
152,-7.060660171780e-01,1.747454415588e+01,2.000000000000e+00
153,-1.200000000000e+00,2.252121320344e+01,3.939339828220e-01
154,-1.200000000000e+00,2.503000000000e+01,8.500000000000e-01
155,-1.200000000000e+00,2.752121320344e+01,1.393933982822e+00
156,-1.200000000000e+00,2.252121320344e+01,1.606066017178e+00
157,-1.200000000000e+00,2.503000000000e+01,1.150000000000e+00
158,-1.200000000000e+00,2.752121320344e+01,6.060660171780e-01
159,1.200000000000e+00,2.252121320344e+01,3.939339828220e-01
160,1.200000000000e+00,2.503000000000e+01,8.500000000000e-01
161,1.200000000000e+00,2.752121320344e+01,1.393933982822e+00
162,1.200000000000e+00,2.252121320344e+01,1.606066017178e+00
163,1.200000000000e+00,2.503000000000e+01,1.150000000000e+00
164,1.200000000000e+00,2.752121320344e+01,6.060660171780e-01
165,-4.939339828220e-01,2.247454415588e+01,0.000000000000e+00
166,1.500000000000e-01,2.496400000000e+01,0.000000000000e+00
167,7.060660171780e-01,2.747454415588e+01,0.000000000000e+00
168,4.939339828220e-01,2.247454415588e+01,0.000000000000e+00
169,-1.500000000000e-01,2.496400000000e+01,0.000000000000e+00
170,-7.060660171780e-01,2.747454415588e+01,0.000000000000e+00
171,-4.939339828220e-01,2.247454415588e+01,2.000000000000e+00
172,1.500000000000e-01,2.496400000000e+01,2.000000000000e+00
173,7.060660171780e-01,2.747454415588e+01,2.000000000000e+00
174,4.939339828220e-01,2.247454415588e+01,2.000000000000e+00
175,-1.500000000000e-01,2.496400000000e+01,2.000000000000e+00
176,-7.060660171780e-01,2.747454415588e+01,2.000000000000e+00
177,-1.200000000000e+00,3.126148050297e+01,1.925974851452e-01
178,-1.200000000000e+00,3.252121320344e+01,3.939339828220e-01
179,-1.200000000000e+00,3.377771638598e+01,6.114180701233e-01
180,-1.200000000000e+00,3.503000000000e+01,8.500000000000e-01
181,-1.200000000000e+00,3.627771638598e+01,1.111418070123e+00
182,-1.200000000000e+00,3.752121320344e+01,1.393933982822e+00
183,-1.200000000000e+00,3.876148050297e+01,1.692597485145e+00
184,-1.200000000000e+00,3.126148050297e+01,1.807402514855e+00
185,-1.200000000000e+00,3.252121320344e+01,1.606066017178e+00
186,-1.200000000000e+00,3.377771638598e+01,1.388581929877e+00
187,-1.200000000000e+00,3.503000000000e+01,1.150000000000e+00
188,-1.200000000000e+00,3.627771638598e+01,8.885819298767e-01
189,-1.200000000000e+00,3.752121320344e+01,6.060660171780e-01
190,-1.200000000000e+00,3.876148050297e+01,3.074025148548e-01
191,1.200000000000e+00,3.126148050297e+01,1.925974851452e-01
192,1.200000000000e+00,3.252121320344e+01,3.939339828220e-01
193,1.200000000000e+00,3.377771638598e+01,6.114180701233e-01
194,1.200000000000e+00,3.503000000000e+01,8.500000000000e-01
195,1.200000000000e+00,3.627771638598e+01,1.111418070123e+00
196,1.200000000000e+00,3.752121320344e+01,1.393933982822e+00
197,1.200000000000e+00,3.876148050297e+01,1.692597485145e+00
198,1.200000000000e+00,3.126148050297e+01,1.807402514855e+00
199,1.200000000000e+00,3.252121320344e+01,1.606066017178e+00
200,1.200000000000e+00,3.377771638598e+01,1.388581929877e+00
201,1.200000000000e+00,3.503000000000e+01,1.150000000000e+00
202,1.200000000000e+00,3.627771638598e+01,8.885819298767e-01
203,1.200000000000e+00,3.752121320344e+01,6.060660171780e-01
204,1.200000000000e+00,3.876148050297e+01,3.074025148548e-01
205,-8.425974851452e-01,3.123622339643e+01,0.000000000000e+00
206,-4.939339828220e-01,3.247454415588e+01,0.000000000000e+00
207,-1.614180701233e-01,3.371674033683e+01,0.000000000000e+00
208,1.500000000000e-01,3.496400000000e+01,0.000000000000e+00
209,4.385819298767e-01,3.621674033683e+01,0.000000000000e+00
210,7.060660171780e-01,3.747454415588e+01,0.000000000000e+00
211,9.574025148548e-01,3.873622339643e+01,0.000000000000e+00
212,8.425974851452e-01,3.123622339643e+01,0.000000000000e+00
213,4.939339828220e-01,3.247454415588e+01,0.000000000000e+00
214,1.614180701233e-01,3.371674033683e+01,0.000000000000e+00
215,-1.500000000000e-01,3.496400000000e+01,0.000000000000e+00
216,-4.385819298767e-01,3.621674033683e+01,0.000000000000e+00
217,-7.060660171780e-01,3.747454415588e+01,0.000000000000e+00
218,-9.574025148548e-01,3.873622339643e+01,0.000000000000e+00
219,-8.425974851452e-01,3.123622339643e+01,2.000000000000e+00
220,-4.939339828220e-01,3.247454415588e+01,2.000000000000e+00
221,-1.614180701233e-01,3.371674033683e+01,2.000000000000e+00
222,1.500000000000e-01,3.496400000000e+01,2.000000000000e+00
223,4.385819298767e-01,3.621674033683e+01,2.000000000000e+00
224,7.060660171780e-01,3.747454415588e+01,2.000000000000e+00
225,9.574025148548e-01,3.873622339643e+01,2.000000000000e+00
226,8.425974851452e-01,3.123622339643e+01,2.000000000000e+00
227,4.939339828220e-01,3.247454415588e+01,2.000000000000e+00
228,1.614180701233e-01,3.371674033683e+01,2.000000000000e+00
229,-1.500000000000e-01,3.496400000000e+01,2.000000000000e+00
230,-4.385819298767e-01,3.621674033683e+01,2.000000000000e+00
231,-7.060660171780e-01,3.747454415588e+01,2.000000000000e+00
232,-9.574025148548e-01,3.873622339643e+01,2.000000000000e+00
233,-1.200000000000e+00,4.503000000000e+01,8.500000000000e-01
234,-1.200000000000e+00,4.503000000000e+01,1.150000000000e+00
235,1.200000000000e+00,4.503000000000e+01,8.500000000000e-01
236,1.200000000000e+00,4.503000000000e+01,1.150000000000e+00
237,1.500000000000e-01,4.496400000000e+01,0.000000000000e+00
238,-1.500000000000e-01,4.496400000000e+01,0.000000000000e+00
239,1.500000000000e-01,4.496400000000e+01,2.000000000000e+00
240,-1.500000000000e-01,4.496400000000e+01,2.000000000000e+00
*ELEMENT,TYPE=B31,ELSET=ALL
1,1,25
2,25,5
3,2,26
4,26,6
5,3,27
6,27,7
7,4,28
8,28,8
9,5,29
10,29,9
11,6,30
12,30,10
13,7,31
14,31,11
15,8,32
16,32,12
17,9,33
18,33,34
19,34,35
20,35,13
21,10,36
22,36,37
23,37,38
24,38,14
25,11,39
26,39,40
27,40,41
28,41,15
29,12,42
30,42,43
31,43,44
32,44,16
33,13,45
34,45,17
35,14,46
36,46,18
37,15,47
38,47,19
39,16,48
40,48,20
41,17,49
42,49,50
43,50,51
44,51,21
45,18,52
46,52,53
47,53,54
48,54,22
49,19,55
50,55,56
51,56,57
52,57,23
53,20,58
54,58,59
55,59,60
56,60,24
57,1,61
58,61,62
59,62,63
60,63,2
61,3,64
62,64,65
63,65,66
64,66,4
65,1,67
66,67,68
67,68,69
68,69,3
69,2,70
70,70,71
71,71,72
72,72,4
73,5,73
74,73,74
75,74,75
76,75,6
77,7,76
78,76,77
79,77,78
80,78,8
81,5,79
82,79,80
83,80,81
84,81,7
85,6,82
86,82,83
87,83,84
88,84,8
89,9,85
90,85,86
91,86,87
92,87,10
93,11,88
94,88,89
95,89,90
96,90,12
97,9,91
98,91,92
99,92,93
100,93,11
101,10,94
102,94,95
103,95,96
104,96,12
105,13,97
106,97,98
107,98,99
108,99,14
109,15,100
110,100,101
111,101,102
112,102,16
113,13,103
114,103,104
115,104,105
116,105,15
117,14,106
118,106,107
119,107,108
120,108,16
121,17,109
122,109,110
123,110,111
124,111,18
125,19,112
126,112,113
127,113,114
128,114,20
129,17,115
130,115,116
131,116,117
132,117,19
133,18,118
134,118,119
135,119,120
136,120,20
137,21,22
138,23,24
139,21,23
140,22,24
141,1,121
142,121,7
143,3,122
144,122,5
145,2,123
146,123,8
147,4,124
148,124,6
149,1,125
150,125,6
151,2,126
152,126,5
153,3,127
154,127,8
155,4,128
156,128,7
157,5,129
158,129,130
159,130,131
160,131,11
161,7,132
162,132,133
163,133,134
164,134,9
165,6,135
166,135,136
167,136,137
168,137,12
169,8,138
170,138,139
171,139,140
172,140,10
173,5,141
174,141,142
175,142,143
176,143,10
177,6,144
178,144,145
179,145,146
180,146,9
181,7,147
182,147,148
183,148,149
184,149,12
185,8,150
186,150,151
187,151,152
188,152,11
189,9,153
190,153,154
191,154,155
192,155,15
193,11,156
194,156,157
195,157,158
196,158,13
197,10,159
198,159,160
199,160,161
200,161,16
201,12,162
202,162,163
203,163,164
204,164,14
205,9,165
206,165,166
207,166,167
208,167,14
209,10,168
210,168,169
211,169,170
212,170,13
213,11,171
214,171,172
215,172,173
216,173,16
217,12,174
218,174,175
219,175,176
220,176,15
221,13,177
222,177,178
223,178,179
224,179,180
225,180,181
226,181,182
227,182,183
228,183,19
229,15,184
230,184,185
231,185,186
232,186,187
233,187,188
234,188,189
235,189,190
236,190,17
237,14,191
238,191,192
239,192,193
240,193,194
241,194,195
242,195,196
243,196,197
244,197,20
245,16,198
246,198,199
247,199,200
248,200,201
249,201,202
250,202,203
251,203,204
252,204,18
253,13,205
254,205,206
255,206,207
256,207,208
257,208,209
258,209,210
259,210,211
260,211,18
261,14,212
262,212,213
263,213,214
264,214,215
265,215,216
266,216,217
267,217,218
268,218,17
269,15,219
270,219,220
271,220,221
272,221,222
273,222,223
274,223,224
275,224,225
276,225,20
277,16,226
278,226,227
279,227,228
280,228,229
281,229,230
282,230,231
283,231,232
284,232,19
285,17,233
286,233,23
287,19,234
288,234,21
289,18,235
290,235,24
291,20,236
292,236,22
293,17,237
294,237,22
295,18,238
296,238,21
297,19,239
298,239,24
299,20,240
300,240,23
*NSET,NSET=NALL,GENERATE
1,240,1
*NSET,NSET=LEFT
1,2,3,4
*NSET,NSET=RIGHT
21,22,23,24
*MATERIAL,NAME=STEEL
*ELASTIC
2.100000000000e+11,0.300000000000
*BEAM SECTION,ELSET=ALL,MATERIAL=STEEL,SECTION=RECT
6.000000000000e-02,4.000000000000e-02
0.371390676354,0.557086014531,0.742781352708
*BOUNDARY
LEFT,1,6,0.0
*STEP
*STATIC
*BOUNDARY
21,1,1,5.000000000000e-03
21,2,2,0.0
21,3,3,-6.000000000000e-03
*BOUNDARY
22,1,1,5.000000000000e-03
22,2,2,0.0
22,3,3,6.000000000000e-03
*BOUNDARY
23,1,1,-5.000000000000e-03
23,2,2,0.0
23,3,3,-6.000000000000e-03
*BOUNDARY
24,1,1,-5.000000000000e-03
24,2,2,0.0
24,3,3,6.000000000000e-03
*NODE FILE,NSET=NALL
U
*NODE PRINT,NSET=NALL
U
*NODE PRINT,NSET=RIGHT
RF
*EL PRINT,ELSET=ALL,TOTALS=YES
ELSE
*END STEP
