*HEADING
Normalized cross-passage space-truss torsion benchmark
*NODE
1,-1.200000000000e+00,0.000000000000e+00,0.000000000000e+00
2,1.200000000000e+00,0.000000000000e+00,0.000000000000e+00
3,-1.200000000000e+00,0.000000000000e+00,2.000000000000e+00
4,1.200000000000e+00,0.000000000000e+00,2.000000000000e+00
5,-1.200000000000e+00,1.000000000000e+01,0.000000000000e+00
6,1.200000000000e+00,1.000000000000e+01,0.000000000000e+00
7,-1.200000000000e+00,1.000000000000e+01,2.000000000000e+00
8,1.200000000000e+00,1.000000000000e+01,2.000000000000e+00
9,-1.200000000000e+00,2.000000000000e+01,0.000000000000e+00
10,1.200000000000e+00,2.000000000000e+01,0.000000000000e+00
11,-1.200000000000e+00,2.000000000000e+01,2.000000000000e+00
12,1.200000000000e+00,2.000000000000e+01,2.000000000000e+00
13,-1.200000000000e+00,3.000000000000e+01,0.000000000000e+00
14,1.200000000000e+00,3.000000000000e+01,0.000000000000e+00
15,-1.200000000000e+00,3.000000000000e+01,2.000000000000e+00
16,1.200000000000e+00,3.000000000000e+01,2.000000000000e+00
17,-1.200000000000e+00,4.000000000000e+01,0.000000000000e+00
18,1.200000000000e+00,4.000000000000e+01,0.000000000000e+00
19,-1.200000000000e+00,4.000000000000e+01,2.000000000000e+00
20,1.200000000000e+00,4.000000000000e+01,2.000000000000e+00
21,-1.200000000000e+00,5.000000000000e+01,0.000000000000e+00
22,1.200000000000e+00,5.000000000000e+01,0.000000000000e+00
23,-1.200000000000e+00,5.000000000000e+01,2.000000000000e+00
24,1.200000000000e+00,5.000000000000e+01,2.000000000000e+00
25,-1.200000000000e+00,4.500000000000e+01,-1.500000000000e-01
26,1.200000000000e+00,4.500000000000e+01,1.500000000000e-01
27,-1.200000000000e+00,4.500000000000e+01,1.850000000000e+00
28,1.200000000000e+00,4.500000000000e+01,2.150000000000e+00
29,-6.000000000000e-01,3.997454415588e+01,0.000000000000e+00
30,0.000000000000e+00,3.996400000000e+01,0.000000000000e+00
31,6.000000000000e-01,3.997454415588e+01,0.000000000000e+00
32,-6.000000000000e-01,4.002545584412e+01,2.000000000000e+00
33,0.000000000000e+00,4.003600000000e+01,2.000000000000e+00
34,6.000000000000e-01,4.002545584412e+01,2.000000000000e+00
35,-1.200000000000e+00,4.002121320344e+01,5.000000000000e-01
36,-1.200000000000e+00,4.003000000000e+01,1.000000000000e+00
37,-1.200000000000e+00,4.002121320344e+01,1.500000000000e+00
38,1.200000000000e+00,3.997878679656e+01,5.000000000000e-01
39,1.200000000000e+00,3.997000000000e+01,1.000000000000e+00
40,1.200000000000e+00,3.997878679656e+01,1.500000000000e+00
41,-6.000000000000e-01,4.997454415588e+01,0.000000000000e+00
42,0.000000000000e+00,4.996400000000e+01,0.000000000000e+00
43,6.000000000000e-01,4.997454415588e+01,0.000000000000e+00
44,-6.000000000000e-01,5.002545584412e+01,2.000000000000e+00
45,0.000000000000e+00,5.003600000000e+01,2.000000000000e+00
46,6.000000000000e-01,5.002545584412e+01,2.000000000000e+00
47,-1.200000000000e+00,5.002121320344e+01,5.000000000000e-01
48,-1.200000000000e+00,5.003000000000e+01,1.000000000000e+00
49,-1.200000000000e+00,5.002121320344e+01,1.500000000000e+00
50,1.200000000000e+00,4.997878679656e+01,5.000000000000e-01
51,1.200000000000e+00,4.997000000000e+01,1.000000000000e+00
52,1.200000000000e+00,4.997878679656e+01,1.500000000000e+00
53,-1.200000000000e+00,1.261480502971e+00,1.925974851452e-01
54,-1.200000000000e+00,2.521213203436e+00,3.939339828220e-01
55,-1.200000000000e+00,3.777716385975e+00,6.114180701233e-01
56,-1.200000000000e+00,5.030000000000e+00,8.500000000000e-01
57,-1.200000000000e+00,6.277716385975e+00,1.111418070123e+00
58,-1.200000000000e+00,7.521213203436e+00,1.393933982822e+00
59,-1.200000000000e+00,8.761480502971e+00,1.692597485145e+00
60,-1.200000000000e+00,1.261480502971e+00,1.807402514855e+00
61,-1.200000000000e+00,2.521213203436e+00,1.606066017178e+00
62,-1.200000000000e+00,3.777716385975e+00,1.388581929877e+00
63,-1.200000000000e+00,5.030000000000e+00,1.150000000000e+00
64,-1.200000000000e+00,6.277716385975e+00,8.885819298767e-01
65,-1.200000000000e+00,7.521213203436e+00,6.060660171780e-01
66,-1.200000000000e+00,8.761480502971e+00,3.074025148548e-01
67,1.200000000000e+00,1.261480502971e+00,1.925974851452e-01
68,1.200000000000e+00,2.521213203436e+00,3.939339828220e-01
69,1.200000000000e+00,3.777716385975e+00,6.114180701233e-01
70,1.200000000000e+00,5.030000000000e+00,8.500000000000e-01
71,1.200000000000e+00,6.277716385975e+00,1.111418070123e+00
72,1.200000000000e+00,7.521213203436e+00,1.393933982822e+00
73,1.200000000000e+00,8.761480502971e+00,1.692597485145e+00
74,1.200000000000e+00,1.261480502971e+00,1.807402514855e+00
75,1.200000000000e+00,2.521213203436e+00,1.606066017178e+00
76,1.200000000000e+00,3.777716385975e+00,1.388581929877e+00
77,1.200000000000e+00,5.030000000000e+00,1.150000000000e+00
78,1.200000000000e+00,6.277716385975e+00,8.885819298767e-01
79,1.200000000000e+00,7.521213203436e+00,6.060660171780e-01
80,1.200000000000e+00,8.761480502971e+00,3.074025148548e-01
81,-8.425974851452e-01,1.236223396435e+00,0.000000000000e+00
82,-4.939339828220e-01,2.474544155877e+00,0.000000000000e+00
83,-1.614180701233e-01,3.716740336830e+00,0.000000000000e+00
84,1.500000000000e-01,4.964000000000e+00,0.000000000000e+00
85,4.385819298767e-01,6.216740336830e+00,0.000000000000e+00
86,7.060660171780e-01,7.474544155877e+00,0.000000000000e+00
87,9.574025148548e-01,8.736223396435e+00,0.000000000000e+00
88,8.425974851452e-01,1.236223396435e+00,0.000000000000e+00
89,4.939339828220e-01,2.474544155877e+00,0.000000000000e+00
90,1.614180701233e-01,3.716740336830e+00,0.000000000000e+00
91,-1.500000000000e-01,4.964000000000e+00,0.000000000000e+00
92,-4.385819298767e-01,6.216740336830e+00,0.000000000000e+00
93,-7.060660171780e-01,7.474544155877e+00,0.000000000000e+00
94,-9.574025148548e-01,8.736223396435e+00,0.000000000000e+00
95,-8.425974851452e-01,1.236223396435e+00,2.000000000000e+00
96,-4.939339828220e-01,2.474544155877e+00,2.000000000000e+00
97,-1.614180701233e-01,3.716740336830e+00,2.000000000000e+00
98,1.500000000000e-01,4.964000000000e+00,2.000000000000e+00
99,4.385819298767e-01,6.216740336830e+00,2.000000000000e+00
100,7.060660171780e-01,7.474544155877e+00,2.000000000000e+00
101,9.574025148548e-01,8.736223396435e+00,2.000000000000e+00
102,8.425974851452e-01,1.236223396435e+00,2.000000000000e+00
103,4.939339828220e-01,2.474544155877e+00,2.000000000000e+00
104,1.614180701233e-01,3.716740336830e+00,2.000000000000e+00
105,-1.500000000000e-01,4.964000000000e+00,2.000000000000e+00
106,-4.385819298767e-01,6.216740336830e+00,2.000000000000e+00
107,-7.060660171780e-01,7.474544155877e+00,2.000000000000e+00
108,-9.574025148548e-01,8.736223396435e+00,2.000000000000e+00
109,-1.200000000000e+00,1.126148050297e+01,1.925974851452e-01
110,-1.200000000000e+00,1.252121320344e+01,3.939339828220e-01
111,-1.200000000000e+00,1.377771638598e+01,6.114180701233e-01
112,-1.200000000000e+00,1.503000000000e+01,8.500000000000e-01
113,-1.200000000000e+00,1.627771638598e+01,1.111418070123e+00
114,-1.200000000000e+00,1.752121320344e+01,1.393933982822e+00
115,-1.200000000000e+00,1.876148050297e+01,1.692597485145e+00
116,-1.200000000000e+00,1.126148050297e+01,1.807402514855e+00
117,-1.200000000000e+00,1.252121320344e+01,1.606066017178e+00
118,-1.200000000000e+00,1.377771638598e+01,1.388581929877e+00
119,-1.200000000000e+00,1.503000000000e+01,1.150000000000e+00
120,-1.200000000000e+00,1.627771638598e+01,8.885819298767e-01
121,-1.200000000000e+00,1.752121320344e+01,6.060660171780e-01
122,-1.200000000000e+00,1.876148050297e+01,3.074025148548e-01
123,1.200000000000e+00,1.126148050297e+01,1.925974851452e-01
124,1.200000000000e+00,1.252121320344e+01,3.939339828220e-01
125,1.200000000000e+00,1.377771638598e+01,6.114180701233e-01
126,1.200000000000e+00,1.503000000000e+01,8.500000000000e-01
127,1.200000000000e+00,1.627771638598e+01,1.111418070123e+00
128,1.200000000000e+00,1.752121320344e+01,1.393933982822e+00
129,1.200000000000e+00,1.876148050297e+01,1.692597485145e+00
130,1.200000000000e+00,1.126148050297e+01,1.807402514855e+00
131,1.200000000000e+00,1.252121320344e+01,1.606066017178e+00
132,1.200000000000e+00,1.377771638598e+01,1.388581929877e+00
133,1.200000000000e+00,1.503000000000e+01,1.150000000000e+00
134,1.200000000000e+00,1.627771638598e+01,8.885819298767e-01
135,1.200000000000e+00,1.752121320344e+01,6.060660171780e-01
136,1.200000000000e+00,1.876148050297e+01,3.074025148548e-01
137,-8.425974851452e-01,1.123622339643e+01,0.000000000000e+00
138,-4.939339828220e-01,1.247454415588e+01,0.000000000000e+00
139,-1.614180701233e-01,1.371674033683e+01,0.000000000000e+00
140,1.500000000000e-01,1.496400000000e+01,0.000000000000e+00
141,4.385819298767e-01,1.621674033683e+01,0.000000000000e+00
142,7.060660171780e-01,1.747454415588e+01,0.000000000000e+00
143,9.574025148548e-01,1.873622339643e+01,0.000000000000e+00
144,8.425974851452e-01,1.123622339643e+01,0.000000000000e+00
145,4.939339828220e-01,1.247454415588e+01,0.000000000000e+00
146,1.614180701233e-01,1.371674033683e+01,0.000000000000e+00
147,-1.500000000000e-01,1.496400000000e+01,0.000000000000e+00
148,-4.385819298767e-01,1.621674033683e+01,0.000000000000e+00
149,-7.060660171780e-01,1.747454415588e+01,0.000000000000e+00
150,-9.574025148548e-01,1.873622339643e+01,0.000000000000e+00
151,-8.425974851452e-01,1.123622339643e+01,2.000000000000e+00
152,-4.939339828220e-01,1.247454415588e+01,2.000000000000e+00
153,-1.614180701233e-01,1.371674033683e+01,2.000000000000e+00
154,1.500000000000e-01,1.496400000000e+01,2.000000000000e+00
155,4.385819298767e-01,1.621674033683e+01,2.000000000000e+00
156,7.060660171780e-01,1.747454415588e+01,2.000000000000e+00
157,9.574025148548e-01,1.873622339643e+01,2.000000000000e+00
158,8.425974851452e-01,1.123622339643e+01,2.000000000000e+00
159,4.939339828220e-01,1.247454415588e+01,2.000000000000e+00
160,1.614180701233e-01,1.371674033683e+01,2.000000000000e+00
161,-1.500000000000e-01,1.496400000000e+01,2.000000000000e+00
162,-4.385819298767e-01,1.621674033683e+01,2.000000000000e+00
163,-7.060660171780e-01,1.747454415588e+01,2.000000000000e+00
164,-9.574025148548e-01,1.873622339643e+01,2.000000000000e+00
165,-1.200000000000e+00,3.126148050297e+01,1.925974851452e-01
166,-1.200000000000e+00,3.252121320344e+01,3.939339828220e-01
167,-1.200000000000e+00,3.377771638598e+01,6.114180701233e-01
168,-1.200000000000e+00,3.503000000000e+01,8.500000000000e-01
169,-1.200000000000e+00,3.627771638598e+01,1.111418070123e+00
170,-1.200000000000e+00,3.752121320344e+01,1.393933982822e+00
171,-1.200000000000e+00,3.876148050297e+01,1.692597485145e+00
172,-1.200000000000e+00,3.126148050297e+01,1.807402514855e+00
173,-1.200000000000e+00,3.252121320344e+01,1.606066017178e+00
174,-1.200000000000e+00,3.377771638598e+01,1.388581929877e+00
175,-1.200000000000e+00,3.503000000000e+01,1.150000000000e+00
176,-1.200000000000e+00,3.627771638598e+01,8.885819298767e-01
177,-1.200000000000e+00,3.752121320344e+01,6.060660171780e-01
178,-1.200000000000e+00,3.876148050297e+01,3.074025148548e-01
179,1.200000000000e+00,3.126148050297e+01,1.925974851452e-01
180,1.200000000000e+00,3.252121320344e+01,3.939339828220e-01
181,1.200000000000e+00,3.377771638598e+01,6.114180701233e-01
182,1.200000000000e+00,3.503000000000e+01,8.500000000000e-01
183,1.200000000000e+00,3.627771638598e+01,1.111418070123e+00
184,1.200000000000e+00,3.752121320344e+01,1.393933982822e+00
185,1.200000000000e+00,3.876148050297e+01,1.692597485145e+00
186,1.200000000000e+00,3.126148050297e+01,1.807402514855e+00
187,1.200000000000e+00,3.252121320344e+01,1.606066017178e+00
188,1.200000000000e+00,3.377771638598e+01,1.388581929877e+00
189,1.200000000000e+00,3.503000000000e+01,1.150000000000e+00
190,1.200000000000e+00,3.627771638598e+01,8.885819298767e-01
191,1.200000000000e+00,3.752121320344e+01,6.060660171780e-01
192,1.200000000000e+00,3.876148050297e+01,3.074025148548e-01
193,-8.425974851452e-01,3.123622339643e+01,0.000000000000e+00
194,-4.939339828220e-01,3.247454415588e+01,0.000000000000e+00
195,-1.614180701233e-01,3.371674033683e+01,0.000000000000e+00
196,1.500000000000e-01,3.496400000000e+01,0.000000000000e+00
197,4.385819298767e-01,3.621674033683e+01,0.000000000000e+00
198,7.060660171780e-01,3.747454415588e+01,0.000000000000e+00
199,9.574025148548e-01,3.873622339643e+01,0.000000000000e+00
200,8.425974851452e-01,3.123622339643e+01,0.000000000000e+00
201,4.939339828220e-01,3.247454415588e+01,0.000000000000e+00
202,1.614180701233e-01,3.371674033683e+01,0.000000000000e+00
203,-1.500000000000e-01,3.496400000000e+01,0.000000000000e+00
204,-4.385819298767e-01,3.621674033683e+01,0.000000000000e+00
205,-7.060660171780e-01,3.747454415588e+01,0.000000000000e+00
206,-9.574025148548e-01,3.873622339643e+01,0.000000000000e+00
207,-8.425974851452e-01,3.123622339643e+01,2.000000000000e+00
208,-4.939339828220e-01,3.247454415588e+01,2.000000000000e+00
209,-1.614180701233e-01,3.371674033683e+01,2.000000000000e+00
210,1.500000000000e-01,3.496400000000e+01,2.000000000000e+00
211,4.385819298767e-01,3.621674033683e+01,2.000000000000e+00
212,7.060660171780e-01,3.747454415588e+01,2.000000000000e+00
213,9.574025148548e-01,3.873622339643e+01,2.000000000000e+00
214,8.425974851452e-01,3.123622339643e+01,2.000000000000e+00
215,4.939339828220e-01,3.247454415588e+01,2.000000000000e+00
216,1.614180701233e-01,3.371674033683e+01,2.000000000000e+00
217,-1.500000000000e-01,3.496400000000e+01,2.000000000000e+00
218,-4.385819298767e-01,3.621674033683e+01,2.000000000000e+00
219,-7.060660171780e-01,3.747454415588e+01,2.000000000000e+00
220,-9.574025148548e-01,3.873622339643e+01,2.000000000000e+00
221,-1.200000000000e+00,4.126148050297e+01,1.925974851452e-01
222,-1.200000000000e+00,4.252121320344e+01,3.939339828220e-01
223,-1.200000000000e+00,4.377771638598e+01,6.114180701233e-01
224,-1.200000000000e+00,4.503000000000e+01,8.500000000000e-01
225,-1.200000000000e+00,4.627771638598e+01,1.111418070123e+00
226,-1.200000000000e+00,4.752121320344e+01,1.393933982822e+00
227,-1.200000000000e+00,4.876148050297e+01,1.692597485145e+00
228,-1.200000000000e+00,4.126148050297e+01,1.807402514855e+00
229,-1.200000000000e+00,4.252121320344e+01,1.606066017178e+00
230,-1.200000000000e+00,4.377771638598e+01,1.388581929877e+00
231,-1.200000000000e+00,4.503000000000e+01,1.150000000000e+00
232,-1.200000000000e+00,4.627771638598e+01,8.885819298767e-01
233,-1.200000000000e+00,4.752121320344e+01,6.060660171780e-01
234,-1.200000000000e+00,4.876148050297e+01,3.074025148548e-01
235,1.200000000000e+00,4.126148050297e+01,1.925974851452e-01
236,1.200000000000e+00,4.252121320344e+01,3.939339828220e-01
237,1.200000000000e+00,4.377771638598e+01,6.114180701233e-01
238,1.200000000000e+00,4.503000000000e+01,8.500000000000e-01
239,1.200000000000e+00,4.627771638598e+01,1.111418070123e+00
240,1.200000000000e+00,4.752121320344e+01,1.393933982822e+00
241,1.200000000000e+00,4.876148050297e+01,1.692597485145e+00
242,1.200000000000e+00,4.126148050297e+01,1.807402514855e+00
243,1.200000000000e+00,4.252121320344e+01,1.606066017178e+00
244,1.200000000000e+00,4.377771638598e+01,1.388581929877e+00
245,1.200000000000e+00,4.503000000000e+01,1.150000000000e+00
246,1.200000000000e+00,4.627771638598e+01,8.885819298767e-01
247,1.200000000000e+00,4.752121320344e+01,6.060660171780e-01
248,1.200000000000e+00,4.876148050297e+01,3.074025148548e-01
249,-8.425974851452e-01,4.123622339643e+01,0.000000000000e+00
250,-4.939339828220e-01,4.247454415588e+01,0.000000000000e+00
251,-1.614180701233e-01,4.371674033683e+01,0.000000000000e+00
252,1.500000000000e-01,4.496400000000e+01,0.000000000000e+00
253,4.385819298767e-01,4.621674033683e+01,0.000000000000e+00
254,7.060660171780e-01,4.747454415588e+01,0.000000000000e+00
255,9.574025148548e-01,4.873622339643e+01,0.000000000000e+00
256,8.425974851452e-01,4.123622339643e+01,0.000000000000e+00
257,4.939339828220e-01,4.247454415588e+01,0.000000000000e+00
258,1.614180701233e-01,4.371674033683e+01,0.000000000000e+00
259,-1.500000000000e-01,4.496400000000e+01,0.000000000000e+00
260,-4.385819298767e-01,4.621674033683e+01,0.000000000000e+00
261,-7.060660171780e-01,4.747454415588e+01,0.000000000000e+00
262,-9.574025148548e-01,4.873622339643e+01,0.000000000000e+00
263,-8.425974851452e-01,4.123622339643e+01,2.000000000000e+00
264,-4.939339828220e-01,4.247454415588e+01,2.000000000000e+00
265,-1.614180701233e-01,4.371674033683e+01,2.000000000000e+00
266,1.500000000000e-01,4.496400000000e+01,2.000000000000e+00
267,4.385819298767e-01,4.621674033683e+01,2.000000000000e+00
268,7.060660171780e-01,4.747454415588e+01,2.000000000000e+00
269,9.574025148548e-01,4.873622339643e+01,2.000000000000e+00
270,8.425974851452e-01,4.123622339643e+01,2.000000000000e+00
271,4.939339828220e-01,4.247454415588e+01,2.000000000000e+00
272,1.614180701233e-01,4.371674033683e+01,2.000000000000e+00
273,-1.500000000000e-01,4.496400000000e+01,2.000000000000e+00
274,-4.385819298767e-01,4.621674033683e+01,2.000000000000e+00
275,-7.060660171780e-01,4.747454415588e+01,2.000000000000e+00
276,-9.574025148548e-01,4.873622339643e+01,2.000000000000e+00
*ELEMENT,TYPE=B31,ELSET=ALL
1,1,5
2,2,6
3,3,7
4,4,8
5,5,9
6,6,10
7,7,11
8,8,12
9,9,13
10,10,14
11,11,15
12,12,16
13,13,17
14,14,18
15,15,19
16,16,20
17,17,25
18,25,21
19,18,26
20,26,22
21,19,27
22,27,23
23,20,28
24,28,24
25,1,2
26,3,4
27,1,3
28,2,4
29,5,6
30,7,8
31,5,7
32,6,8
33,9,10
34,11,12
35,9,11
36,10,12
37,13,14
38,15,16
39,13,15
40,14,16
41,17,29
42,29,30
43,30,31
44,31,18
45,19,32
46,32,33
47,33,34
48,34,20
49,17,35
50,35,36
51,36,37
52,37,19
53,18,38
54,38,39
55,39,40
56,40,20
57,21,41
58,41,42
59,42,43
60,43,22
61,23,44
62,44,45
63,45,46
64,46,24
65,21,47
66,47,48
67,48,49
68,49,23
69,22,50
70,50,51
71,51,52
72,52,24
73,1,53
74,53,54
75,54,55
76,55,56
77,56,57
78,57,58
79,58,59
80,59,7
81,3,60
82,60,61
83,61,62
84,62,63
85,63,64
86,64,65
87,65,66
88,66,5
89,2,67
90,67,68
91,68,69
92,69,70
93,70,71
94,71,72
95,72,73
96,73,8
97,4,74
98,74,75
99,75,76
100,76,77
101,77,78
102,78,79
103,79,80
104,80,6
105,1,81
106,81,82
107,82,83
108,83,84
109,84,85
110,85,86
111,86,87
112,87,6
113,2,88
114,88,89
115,89,90
116,90,91
117,91,92
118,92,93
119,93,94
120,94,5
121,3,95
122,95,96
123,96,97
124,97,98
125,98,99
126,99,100
127,100,101
128,101,8
129,4,102
130,102,103
131,103,104
132,104,105
133,105,106
134,106,107
135,107,108
136,108,7
137,5,109
138,109,110
139,110,111
140,111,112
141,112,113
142,113,114
143,114,115
144,115,11
145,7,116
146,116,117
147,117,118
148,118,119
149,119,120
150,120,121
151,121,122
152,122,9
153,6,123
154,123,124
155,124,125
156,125,126
157,126,127
158,127,128
159,128,129
160,129,12
161,8,130
162,130,131
163,131,132
164,132,133
165,133,134
166,134,135
167,135,136
168,136,10
169,5,137
170,137,138
171,138,139
172,139,140
173,140,141
174,141,142
175,142,143
176,143,10
177,6,144
178,144,145
179,145,146
180,146,147
181,147,148
182,148,149
183,149,150
184,150,9
185,7,151
186,151,152
187,152,153
188,153,154
189,154,155
190,155,156
191,156,157
192,157,12
193,8,158
194,158,159
195,159,160
196,160,161
197,161,162
198,162,163
199,163,164
200,164,11
201,9,15
202,11,13
203,10,16
204,12,14
205,9,14
206,10,13
207,11,16
208,12,15
209,13,165
210,165,166
211,166,167
212,167,168
213,168,169
214,169,170
215,170,171
216,171,19
217,15,172
218,172,173
219,173,174
220,174,175
221,175,176
222,176,177
223,177,178
224,178,17
225,14,179
226,179,180
227,180,181
228,181,182
229,182,183
230,183,184
231,184,185
232,185,20
233,16,186
234,186,187
235,187,188
236,188,189
237,189,190
238,190,191
239,191,192
240,192,18
241,13,193
242,193,194
243,194,195
244,195,196
245,196,197
246,197,198
247,198,199
248,199,18
249,14,200
250,200,201
251,201,202
252,202,203
253,203,204
254,204,205
255,205,206
256,206,17
257,15,207
258,207,208
259,208,209
260,209,210
261,210,211
262,211,212
263,212,213
264,213,20
265,16,214
266,214,215
267,215,216
268,216,217
269,217,218
270,218,219
271,219,220
272,220,19
273,17,221
274,221,222
275,222,223
276,223,224
277,224,225
278,225,226
279,226,227
280,227,23
281,19,228
282,228,229
283,229,230
284,230,231
285,231,232
286,232,233
287,233,234
288,234,21
289,18,235
290,235,236
291,236,237
292,237,238
293,238,239
294,239,240
295,240,241
296,241,24
297,20,242
298,242,243
299,243,244
300,244,245
301,245,246
302,246,247
303,247,248
304,248,22
305,17,249
306,249,250
307,250,251
308,251,252
309,252,253
310,253,254
311,254,255
312,255,22
313,18,256
314,256,257
315,257,258
316,258,259
317,259,260
318,260,261
319,261,262
320,262,21
321,19,263
322,263,264
323,264,265
324,265,266
325,266,267
326,267,268
327,268,269
328,269,24
329,20,270
330,270,271
331,271,272
332,272,273
333,273,274
334,274,275
335,275,276
336,276,23
*NSET,NSET=NALL,GENERATE
1,276,1
*NSET,NSET=LEFT
1,2,3,4
*NSET,NSET=RIGHT
21,22,23,24
*MATERIAL,NAME=STEEL
*ELASTIC
2.100000000000e+11,0.300000000000
*BEAM SECTION,ELSET=ALL,MATERIAL=STEEL,SECTION=RECT
6.000000000000e-02,4.000000000000e-02
0.371390676354,0.557086014531,0.742781352708
*BOUNDARY
LEFT,1,6,0.0
*STEP
*STATIC
*BOUNDARY
21,1,1,5.000000000000e-03
21,2,2,0.0
21,3,3,-6.000000000000e-03
*BOUNDARY
22,1,1,5.000000000000e-03
22,2,2,0.0
22,3,3,6.000000000000e-03
*BOUNDARY
23,1,1,-5.000000000000e-03
23,2,2,0.0
23,3,3,-6.000000000000e-03
*BOUNDARY
24,1,1,-5.000000000000e-03
24,2,2,0.0
24,3,3,6.000000000000e-03
*NODE FILE,NSET=NALL
U
*NODE PRINT,NSET=NALL
U
*NODE PRINT,NSET=RIGHT
RF
*EL PRINT,ELSET=ALL,TOTALS=YES
ELSE
*END STEP
