*HEADING
G01 D-NLG g01_d-nlg_delegated conforming C3D8 frozen T
units: mm, N, s, MPa, t. Illustrative steel, not a coupon card.
beam=G01 case=D-NLG job=g01_d-nlg_delegated type=C3D8
E=210000.0 nu=0.3 fy=235.0 load=-30000.0 N on TIP_TOP
*NODE, NSET=NALL
1, 0, -10, 0
2, 58, -10, 0
3, 58, 0, 0
4, 0, 0, 0
5, 0, -10, 28
6, 58, -10, 28
7, 58, 0, 28
8, 0, 0, 28
9, 0, -10, 56
10, 58, -10, 56
11, 58, 0, 56
12, 0, 0, 56
13, 0, -10, 84
14, 58, -10, 84
15, 58, 0, 84
16, 0, 0, 84
17, 0, -10, 112
18, 58, -10, 112
19, 58, 0, 112
20, 0, 0, 112
21, 0, -10, 140
22, 58, -10, 140
23, 58, 0, 140
24, 0, 0, 140
25, 58, 10, 0
26, 0, 10, 0
27, 58, 10, 28
28, 0, 10, 28
29, 58, 10, 56
30, 0, 10, 56
31, 58, 10, 84
32, 0, 10, 84
33, 58, 10, 112
34, 0, 10, 112
35, 58, 10, 140
36, 0, 10, 140
37, 0, -120, 140
38, 58, -120, 140
39, 58, -92.5, 140
40, 0, -92.5, 140
41, 0, -120, 150
42, 58, -120, 150
43, 58, -92.5, 150
44, 0, -92.5, 150
45, 0, -120, 160
46, 58, -120, 160
47, 58, -92.5, 160
48, 0, -92.5, 160
49, 58, -65, 140
50, 0, -65, 140
51, 58, -65, 150
52, 0, -65, 150
53, 58, -65, 160
54, 0, -65, 160
55, 58, -37.5, 140
56, 0, -37.5, 140
57, 58, -37.5, 150
58, 0, -37.5, 150
59, 58, -37.5, 160
60, 0, -37.5, 160
61, 58, -10, 150
62, 0, -10, 150
63, 58, -10, 160
64, 0, -10, 160
65, 58, 0, 150
66, 0, 0, 150
67, 58, 0, 160
68, 0, 0, 160
69, 58, 10, 150
70, 0, 10, 150
71, 58, 10, 160
72, 0, 10, 160
73, 58, 37.5, 140
74, 0, 37.5, 140
75, 58, 37.5, 150
76, 0, 37.5, 150
77, 58, 37.5, 160
78, 0, 37.5, 160
79, 58, 65, 140
80, 0, 65, 140
81, 58, 65, 150
82, 0, 65, 150
83, 58, 65, 160
84, 0, 65, 160
85, 58, 92.5, 140
86, 0, 92.5, 140
87, 58, 92.5, 150
88, 0, 92.5, 150
89, 58, 92.5, 160
90, 0, 92.5, 160
91, 58, 120, 140
92, 0, 120, 140
93, 58, 120, 150
94, 0, 120, 150
95, 58, 120, 160
96, 0, 120, 160
97, 118.113387281, -10, 0
98, 118.113387281, 0, 0
99, 118.113387281, -10, 28
100, 118.113387281, 0, 28
101, 118.113387281, -10, 56
102, 118.113387281, 0, 56
103, 118.113387281, -10, 84
104, 118.113387281, 0, 84
105, 118.113387281, -10, 112
106, 118.113387281, 0, 112
107, 118.113387281, -10, 140
108, 118.113387281, 0, 140
109, 118.113387281, 10, 0
110, 118.113387281, 10, 28
111, 118.113387281, 10, 56
112, 118.113387281, 10, 84
113, 118.113387281, 10, 112
114, 118.113387281, 10, 140
115, 118.113387281, -120, 140
116, 118.113387281, -92.5, 140
117, 118.113387281, -120, 150
118, 118.113387281, -92.5, 150
119, 118.113387281, -120, 160
120, 118.113387281, -92.5, 160
121, 118.113387281, -65, 140
122, 118.113387281, -65, 150
123, 118.113387281, -65, 160
124, 118.113387281, -37.5, 140
125, 118.113387281, -37.5, 150
126, 118.113387281, -37.5, 160
127, 118.113387281, -10, 150
128, 118.113387281, -10, 160
129, 118.113387281, 0, 150
130, 118.113387281, 0, 160
131, 118.113387281, 10, 150
132, 118.113387281, 10, 160
133, 118.113387281, 37.5, 140
134, 118.113387281, 37.5, 150
135, 118.113387281, 37.5, 160
136, 118.113387281, 65, 140
137, 118.113387281, 65, 150
138, 118.113387281, 65, 160
139, 118.113387281, 92.5, 140
140, 118.113387281, 92.5, 150
141, 118.113387281, 92.5, 160
142, 118.113387281, 120, 140
143, 118.113387281, 120, 150
144, 118.113387281, 120, 160
145, 185.858785652, -10, 0
146, 185.858785652, 0, 0
147, 185.858785652, -10, 28
148, 185.858785652, 0, 28
149, 185.858785652, -10, 56
150, 185.858785652, 0, 56
151, 185.858785652, -10, 84
152, 185.858785652, 0, 84
153, 185.858785652, -10, 112
154, 185.858785652, 0, 112
155, 185.858785652, -10, 140
156, 185.858785652, 0, 140
157, 185.858785652, 10, 0
158, 185.858785652, 10, 28
159, 185.858785652, 10, 56
160, 185.858785652, 10, 84
161, 185.858785652, 10, 112
162, 185.858785652, 10, 140
163, 185.858785652, -120, 140
164, 185.858785652, -92.5, 140
165, 185.858785652, -120, 150
166, 185.858785652, -92.5, 150
167, 185.858785652, -120, 160
168, 185.858785652, -92.5, 160
169, 185.858785652, -65, 140
170, 185.858785652, -65, 150
171, 185.858785652, -65, 160
172, 185.858785652, -37.5, 140
173, 185.858785652, -37.5, 150
174, 185.858785652, -37.5, 160
175, 185.858785652, -10, 150
176, 185.858785652, -10, 160
177, 185.858785652, 0, 150
178, 185.858785652, 0, 160
179, 185.858785652, 10, 150
180, 185.858785652, 10, 160
181, 185.858785652, 37.5, 140
182, 185.858785652, 37.5, 150
183, 185.858785652, 37.5, 160
184, 185.858785652, 65, 140
185, 185.858785652, 65, 150
186, 185.858785652, 65, 160
187, 185.858785652, 92.5, 140
188, 185.858785652, 92.5, 150
189, 185.858785652, 92.5, 160
190, 185.858785652, 120, 140
191, 185.858785652, 120, 150
192, 185.858785652, 120, 160
193, 254.004383401, -10, 0
194, 254.004383401, 0, 0
195, 254.004383401, -10, 28
196, 254.004383401, 0, 28
197, 254.004383401, -10, 56
198, 254.004383401, 0, 56
199, 254.004383401, -10, 84
200, 254.004383401, 0, 84
201, 254.004383401, -10, 112
202, 254.004383401, 0, 112
203, 254.004383401, -10, 140
204, 254.004383401, 0, 140
205, 254.004383401, 10, 0
206, 254.004383401, 10, 28
207, 254.004383401, 10, 56
208, 254.004383401, 10, 84
209, 254.004383401, 10, 112
210, 254.004383401, 10, 140
211, 254.004383401, -120, 140
212, 254.004383401, -92.5, 140
213, 254.004383401, -120, 150
214, 254.004383401, -92.5, 150
215, 254.004383401, -120, 160
216, 254.004383401, -92.5, 160
217, 254.004383401, -65, 140
218, 254.004383401, -65, 150
219, 254.004383401, -65, 160
220, 254.004383401, -37.5, 140
221, 254.004383401, -37.5, 150
222, 254.004383401, -37.5, 160
223, 254.004383401, -10, 150
224, 254.004383401, -10, 160
225, 254.004383401, 0, 150
226, 254.004383401, 0, 160
227, 254.004383401, 10, 150
228, 254.004383401, 10, 160
229, 254.004383401, 37.5, 140
230, 254.004383401, 37.5, 150
231, 254.004383401, 37.5, 160
232, 254.004383401, 65, 140
233, 254.004383401, 65, 150
234, 254.004383401, 65, 160
235, 254.004383401, 92.5, 140
236, 254.004383401, 92.5, 150
237, 254.004383401, 92.5, 160
238, 254.004383401, 120, 140
239, 254.004383401, 120, 150
240, 254.004383401, 120, 160
241, 322.300962663, -10, 0
242, 322.300962663, 0, 0
243, 322.300962663, -10, 28
244, 322.300962663, 0, 28
245, 322.300962663, -10, 56
246, 322.300962663, 0, 56
247, 322.300962663, -10, 84
248, 322.300962663, 0, 84
249, 322.300962663, -10, 112
250, 322.300962663, 0, 112
251, 322.300962663, -10, 140
252, 322.300962663, 0, 140
253, 322.300962663, 10, 0
254, 322.300962663, 10, 28
255, 322.300962663, 10, 56
256, 322.300962663, 10, 84
257, 322.300962663, 10, 112
258, 322.300962663, 10, 140
259, 322.300962663, -120, 140
260, 322.300962663, -92.5, 140
261, 322.300962663, -120, 150
262, 322.300962663, -92.5, 150
263, 322.300962663, -120, 160
264, 322.300962663, -92.5, 160
265, 322.300962663, -65, 140
266, 322.300962663, -65, 150
267, 322.300962663, -65, 160
268, 322.300962663, -37.5, 140
269, 322.300962663, -37.5, 150
270, 322.300962663, -37.5, 160
271, 322.300962663, -10, 150
272, 322.300962663, -10, 160
273, 322.300962663, 0, 150
274, 322.300962663, 0, 160
275, 322.300962663, 10, 150
276, 322.300962663, 10, 160
277, 322.300962663, 37.5, 140
278, 322.300962663, 37.5, 150
279, 322.300962663, 37.5, 160
280, 322.300962663, 65, 140
281, 322.300962663, 65, 150
282, 322.300962663, 65, 160
283, 322.300962663, 92.5, 140
284, 322.300962663, 92.5, 150
285, 322.300962663, 92.5, 160
286, 322.300962663, 120, 140
287, 322.300962663, 120, 150
288, 322.300962663, 120, 160
289, 390.749193573, -10, 0
290, 390.749193573, 0, 0
291, 390.749193573, -10, 28
292, 390.749193573, 0, 28
293, 390.749193573, -10, 56
294, 390.749193573, 0, 56
295, 390.749193573, -10, 84
296, 390.749193573, 0, 84
297, 390.749193573, -10, 112
298, 390.749193573, 0, 112
299, 390.749193573, -10, 140
300, 390.749193573, 0, 140
301, 390.749193573, 10, 0
302, 390.749193573, 10, 28
303, 390.749193573, 10, 56
304, 390.749193573, 10, 84
305, 390.749193573, 10, 112
306, 390.749193573, 10, 140
307, 390.749193573, -120, 140
308, 390.749193573, -92.5, 140
309, 390.749193573, -120, 150
310, 390.749193573, -92.5, 150
311, 390.749193573, -120, 160
312, 390.749193573, -92.5, 160
313, 390.749193573, -65, 140
314, 390.749193573, -65, 150
315, 390.749193573, -65, 160
316, 390.749193573, -37.5, 140
317, 390.749193573, -37.5, 150
318, 390.749193573, -37.5, 160
319, 390.749193573, -10, 150
320, 390.749193573, -10, 160
321, 390.749193573, 0, 150
322, 390.749193573, 0, 160
323, 390.749193573, 10, 150
324, 390.749193573, 10, 160
325, 390.749193573, 37.5, 140
326, 390.749193573, 37.5, 150
327, 390.749193573, 37.5, 160
328, 390.749193573, 65, 140
329, 390.749193573, 65, 150
330, 390.749193573, 65, 160
331, 390.749193573, 92.5, 140
332, 390.749193573, 92.5, 150
333, 390.749193573, 92.5, 160
334, 390.749193573, 120, 140
335, 390.749193573, 120, 150
336, 390.749193573, 120, 160
337, 459.349750733, -10, 0
338, 459.349750733, 0, 0
339, 459.349750733, -10, 28
340, 459.349750733, 0, 28
341, 459.349750733, -10, 56
342, 459.349750733, 0, 56
343, 459.349750733, -10, 84
344, 459.349750733, 0, 84
345, 459.349750733, -10, 112
346, 459.349750733, 0, 112
347, 459.349750733, -10, 140
348, 459.349750733, 0, 140
349, 459.349750733, 10, 0
350, 459.349750733, 10, 28
351, 459.349750733, 10, 56
352, 459.349750733, 10, 84
353, 459.349750733, 10, 112
354, 459.349750733, 10, 140
355, 459.349750733, -120, 140
356, 459.349750733, -92.5, 140
357, 459.349750733, -120, 150
358, 459.349750733, -92.5, 150
359, 459.349750733, -120, 160
360, 459.349750733, -92.5, 160
361, 459.349750733, -65, 140
362, 459.349750733, -65, 150
363, 459.349750733, -65, 160
364, 459.349750733, -37.5, 140
365, 459.349750733, -37.5, 150
366, 459.349750733, -37.5, 160
367, 459.349750733, -10, 150
368, 459.349750733, -10, 160
369, 459.349750733, 0, 150
370, 459.349750733, 0, 160
371, 459.349750733, 10, 150
372, 459.349750733, 10, 160
373, 459.349750733, 37.5, 140
374, 459.349750733, 37.5, 150
375, 459.349750733, 37.5, 160
376, 459.349750733, 65, 140
377, 459.349750733, 65, 150
378, 459.349750733, 65, 160
379, 459.349750733, 92.5, 140
380, 459.349750733, 92.5, 150
381, 459.349750733, 92.5, 160
382, 459.349750733, 120, 140
383, 459.349750733, 120, 150
384, 459.349750733, 120, 160
385, 528.103313258, -10, 0
386, 528.103313258, 0, 0
387, 528.103313258, -10, 28
388, 528.103313258, 0, 28
389, 528.103313258, -10, 56
390, 528.103313258, 0, 56
391, 528.103313258, -10, 84
392, 528.103313258, 0, 84
393, 528.103313258, -10, 112
394, 528.103313258, 0, 112
395, 528.103313258, -10, 140
396, 528.103313258, 0, 140
397, 528.103313258, 10, 0
398, 528.103313258, 10, 28
399, 528.103313258, 10, 56
400, 528.103313258, 10, 84
401, 528.103313258, 10, 112
402, 528.103313258, 10, 140
403, 528.103313258, -120, 140
404, 528.103313258, -92.5, 140
405, 528.103313258, -120, 150
406, 528.103313258, -92.5, 150
407, 528.103313258, -120, 160
408, 528.103313258, -92.5, 160
409, 528.103313258, -65, 140
410, 528.103313258, -65, 150
411, 528.103313258, -65, 160
412, 528.103313258, -37.5, 140
413, 528.103313258, -37.5, 150
414, 528.103313258, -37.5, 160
415, 528.103313258, -10, 150
416, 528.103313258, -10, 160
417, 528.103313258, 0, 150
418, 528.103313258, 0, 160
419, 528.103313258, 10, 150
420, 528.103313258, 10, 160
421, 528.103313258, 37.5, 140
422, 528.103313258, 37.5, 150
423, 528.103313258, 37.5, 160
424, 528.103313258, 65, 140
425, 528.103313258, 65, 150
426, 528.103313258, 65, 160
427, 528.103313258, 92.5, 140
428, 528.103313258, 92.5, 150
429, 528.103313258, 92.5, 160
430, 528.103313258, 120, 140
431, 528.103313258, 120, 150
432, 528.103313258, 120, 160
433, 597.010564811, -10, 0
434, 597.010564811, 0, 0
435, 597.010564811, -10, 28
436, 597.010564811, 0, 28
437, 597.010564811, -10, 56
438, 597.010564811, 0, 56
439, 597.010564811, -10, 84
440, 597.010564811, 0, 84
441, 597.010564811, -10, 112
442, 597.010564811, 0, 112
443, 597.010564811, -10, 140
444, 597.010564811, 0, 140
445, 597.010564811, 10, 0
446, 597.010564811, 10, 28
447, 597.010564811, 10, 56
448, 597.010564811, 10, 84
449, 597.010564811, 10, 112
450, 597.010564811, 10, 140
451, 597.010564811, -120, 140
452, 597.010564811, -92.5, 140
453, 597.010564811, -120, 150
454, 597.010564811, -92.5, 150
455, 597.010564811, -120, 160
456, 597.010564811, -92.5, 160
457, 597.010564811, -65, 140
458, 597.010564811, -65, 150
459, 597.010564811, -65, 160
460, 597.010564811, -37.5, 140
461, 597.010564811, -37.5, 150
462, 597.010564811, -37.5, 160
463, 597.010564811, -10, 150
464, 597.010564811, -10, 160
465, 597.010564811, 0, 150
466, 597.010564811, 0, 160
467, 597.010564811, 10, 150
468, 597.010564811, 10, 160
469, 597.010564811, 37.5, 140
470, 597.010564811, 37.5, 150
471, 597.010564811, 37.5, 160
472, 597.010564811, 65, 140
473, 597.010564811, 65, 150
474, 597.010564811, 65, 160
475, 597.010564811, 92.5, 140
476, 597.010564811, 92.5, 150
477, 597.010564811, 92.5, 160
478, 597.010564811, 120, 140
479, 597.010564811, 120, 150
480, 597.010564811, 120, 160
481, 666.072193647, -10, 0
482, 666.072193647, 0, 0
483, 666.072193647, -10, 28
484, 666.072193647, 0, 28
485, 666.072193647, -10, 56
486, 666.072193647, 0, 56
487, 666.072193647, -10, 84
488, 666.072193647, 0, 84
489, 666.072193647, -10, 112
490, 666.072193647, 0, 112
491, 666.072193647, -10, 140
492, 666.072193647, 0, 140
493, 666.072193647, 10, 0
494, 666.072193647, 10, 28
495, 666.072193647, 10, 56
496, 666.072193647, 10, 84
497, 666.072193647, 10, 112
498, 666.072193647, 10, 140
499, 666.072193647, -120, 140
500, 666.072193647, -92.5, 140
501, 666.072193647, -120, 150
502, 666.072193647, -92.5, 150
503, 666.072193647, -120, 160
504, 666.072193647, -92.5, 160
505, 666.072193647, -65, 140
506, 666.072193647, -65, 150
507, 666.072193647, -65, 160
508, 666.072193647, -37.5, 140
509, 666.072193647, -37.5, 150
510, 666.072193647, -37.5, 160
511, 666.072193647, -10, 150
512, 666.072193647, -10, 160
513, 666.072193647, 0, 150
514, 666.072193647, 0, 160
515, 666.072193647, 10, 150
516, 666.072193647, 10, 160
517, 666.072193647, 37.5, 140
518, 666.072193647, 37.5, 150
519, 666.072193647, 37.5, 160
520, 666.072193647, 65, 140
521, 666.072193647, 65, 150
522, 666.072193647, 65, 160
523, 666.072193647, 92.5, 140
524, 666.072193647, 92.5, 150
525, 666.072193647, 92.5, 160
526, 666.072193647, 120, 140
527, 666.072193647, 120, 150
528, 666.072193647, 120, 160
529, 735.288892651, -10, 0
530, 735.288892651, 0, 0
531, 735.288892651, -10, 28
532, 735.288892651, 0, 28
533, 735.288892651, -10, 56
534, 735.288892651, 0, 56
535, 735.288892651, -10, 84
536, 735.288892651, 0, 84
537, 735.288892651, -10, 112
538, 735.288892651, 0, 112
539, 735.288892651, -10, 140
540, 735.288892651, 0, 140
541, 735.288892651, 10, 0
542, 735.288892651, 10, 28
543, 735.288892651, 10, 56
544, 735.288892651, 10, 84
545, 735.288892651, 10, 112
546, 735.288892651, 10, 140
547, 735.288892651, -120, 140
548, 735.288892651, -92.5, 140
549, 735.288892651, -120, 150
550, 735.288892651, -92.5, 150
551, 735.288892651, -120, 160
552, 735.288892651, -92.5, 160
553, 735.288892651, -65, 140
554, 735.288892651, -65, 150
555, 735.288892651, -65, 160
556, 735.288892651, -37.5, 140
557, 735.288892651, -37.5, 150
558, 735.288892651, -37.5, 160
559, 735.288892651, -10, 150
560, 735.288892651, -10, 160
561, 735.288892651, 0, 150
562, 735.288892651, 0, 160
563, 735.288892651, 10, 150
564, 735.288892651, 10, 160
565, 735.288892651, 37.5, 140
566, 735.288892651, 37.5, 150
567, 735.288892651, 37.5, 160
568, 735.288892651, 65, 140
569, 735.288892651, 65, 150
570, 735.288892651, 65, 160
571, 735.288892651, 92.5, 140
572, 735.288892651, 92.5, 150
573, 735.288892651, 92.5, 160
574, 735.288892651, 120, 140
575, 735.288892651, 120, 150
576, 735.288892651, 120, 160
577, 804.661359384, -10, 0
578, 804.661359384, 0, 0
579, 804.661359384, -10, 28
580, 804.661359384, 0, 28
581, 804.661359384, -10, 56
582, 804.661359384, 0, 56
583, 804.661359384, -10, 84
584, 804.661359384, 0, 84
585, 804.661359384, -10, 112
586, 804.661359384, 0, 112
587, 804.661359384, -10, 140
588, 804.661359384, 0, 140
589, 804.661359384, 10, 0
590, 804.661359384, 10, 28
591, 804.661359384, 10, 56
592, 804.661359384, 10, 84
593, 804.661359384, 10, 112
594, 804.661359384, 10, 140
595, 804.661359384, -120, 140
596, 804.661359384, -92.5, 140
597, 804.661359384, -120, 150
598, 804.661359384, -92.5, 150
599, 804.661359384, -120, 160
600, 804.661359384, -92.5, 160
601, 804.661359384, -65, 140
602, 804.661359384, -65, 150
603, 804.661359384, -65, 160
604, 804.661359384, -37.5, 140
605, 804.661359384, -37.5, 150
606, 804.661359384, -37.5, 160
607, 804.661359384, -10, 150
608, 804.661359384, -10, 160
609, 804.661359384, 0, 150
610, 804.661359384, 0, 160
611, 804.661359384, 10, 150
612, 804.661359384, 10, 160
613, 804.661359384, 37.5, 140
614, 804.661359384, 37.5, 150
615, 804.661359384, 37.5, 160
616, 804.661359384, 65, 140
617, 804.661359384, 65, 150
618, 804.661359384, 65, 160
619, 804.661359384, 92.5, 140
620, 804.661359384, 92.5, 150
621, 804.661359384, 92.5, 160
622, 804.661359384, 120, 140
623, 804.661359384, 120, 150
624, 804.661359384, 120, 160
625, 874.19029612, -10, 0
626, 874.19029612, 0, 0
627, 874.19029612, -10, 28
628, 874.19029612, 0, 28
629, 874.19029612, -10, 56
630, 874.19029612, 0, 56
631, 874.19029612, -10, 84
632, 874.19029612, 0, 84
633, 874.19029612, -10, 112
634, 874.19029612, 0, 112
635, 874.19029612, -10, 140
636, 874.19029612, 0, 140
637, 874.19029612, 10, 0
638, 874.19029612, 10, 28
639, 874.19029612, 10, 56
640, 874.19029612, 10, 84
641, 874.19029612, 10, 112
642, 874.19029612, 10, 140
643, 874.19029612, -120, 140
644, 874.19029612, -92.5, 140
645, 874.19029612, -120, 150
646, 874.19029612, -92.5, 150
647, 874.19029612, -120, 160
648, 874.19029612, -92.5, 160
649, 874.19029612, -65, 140
650, 874.19029612, -65, 150
651, 874.19029612, -65, 160
652, 874.19029612, -37.5, 140
653, 874.19029612, -37.5, 150
654, 874.19029612, -37.5, 160
655, 874.19029612, -10, 150
656, 874.19029612, -10, 160
657, 874.19029612, 0, 150
658, 874.19029612, 0, 160
659, 874.19029612, 10, 150
660, 874.19029612, 10, 160
661, 874.19029612, 37.5, 140
662, 874.19029612, 37.5, 150
663, 874.19029612, 37.5, 160
664, 874.19029612, 65, 140
665, 874.19029612, 65, 150
666, 874.19029612, 65, 160
667, 874.19029612, 92.5, 140
668, 874.19029612, 92.5, 150
669, 874.19029612, 92.5, 160
670, 874.19029612, 120, 140
671, 874.19029612, 120, 150
672, 874.19029612, 120, 160
673, 943.876409893, -10, 0
674, 943.876409893, 0, 0
675, 943.876409893, -10, 28
676, 943.876409893, 0, 28
677, 943.876409893, -10, 56
678, 943.876409893, 0, 56
679, 943.876409893, -10, 84
680, 943.876409893, 0, 84
681, 943.876409893, -10, 112
682, 943.876409893, 0, 112
683, 943.876409893, -10, 140
684, 943.876409893, 0, 140
685, 943.876409893, 10, 0
686, 943.876409893, 10, 28
687, 943.876409893, 10, 56
688, 943.876409893, 10, 84
689, 943.876409893, 10, 112
690, 943.876409893, 10, 140
691, 943.876409893, -120, 140
692, 943.876409893, -92.5, 140
693, 943.876409893, -120, 150
694, 943.876409893, -92.5, 150
695, 943.876409893, -120, 160
696, 943.876409893, -92.5, 160
697, 943.876409893, -65, 140
698, 943.876409893, -65, 150
699, 943.876409893, -65, 160
700, 943.876409893, -37.5, 140
701, 943.876409893, -37.5, 150
702, 943.876409893, -37.5, 160
703, 943.876409893, -10, 150
704, 943.876409893, -10, 160
705, 943.876409893, 0, 150
706, 943.876409893, 0, 160
707, 943.876409893, 10, 150
708, 943.876409893, 10, 160
709, 943.876409893, 37.5, 140
710, 943.876409893, 37.5, 150
711, 943.876409893, 37.5, 160
712, 943.876409893, 65, 140
713, 943.876409893, 65, 150
714, 943.876409893, 65, 160
715, 943.876409893, 92.5, 140
716, 943.876409893, 92.5, 150
717, 943.876409893, 92.5, 160
718, 943.876409893, 120, 140
719, 943.876409893, 120, 150
720, 943.876409893, 120, 160
721, 1013.72041254, -10, 0
722, 1013.72041254, 0, 0
723, 1013.72041254, -10, 28
724, 1013.72041254, 0, 28
725, 1013.72041254, -10, 56
726, 1013.72041254, 0, 56
727, 1013.72041254, -10, 84
728, 1013.72041254, 0, 84
729, 1013.72041254, -10, 112
730, 1013.72041254, 0, 112
731, 1013.72041254, -10, 140
732, 1013.72041254, 0, 140
733, 1013.72041254, 10, 0
734, 1013.72041254, 10, 28
735, 1013.72041254, 10, 56
736, 1013.72041254, 10, 84
737, 1013.72041254, 10, 112
738, 1013.72041254, 10, 140
739, 1013.72041254, -120, 140
740, 1013.72041254, -92.5, 140
741, 1013.72041254, -120, 150
742, 1013.72041254, -92.5, 150
743, 1013.72041254, -120, 160
744, 1013.72041254, -92.5, 160
745, 1013.72041254, -65, 140
746, 1013.72041254, -65, 150
747, 1013.72041254, -65, 160
748, 1013.72041254, -37.5, 140
749, 1013.72041254, -37.5, 150
750, 1013.72041254, -37.5, 160
751, 1013.72041254, -10, 150
752, 1013.72041254, -10, 160
753, 1013.72041254, 0, 150
754, 1013.72041254, 0, 160
755, 1013.72041254, 10, 150
756, 1013.72041254, 10, 160
757, 1013.72041254, 37.5, 140
758, 1013.72041254, 37.5, 150
759, 1013.72041254, 37.5, 160
760, 1013.72041254, 65, 140
761, 1013.72041254, 65, 150
762, 1013.72041254, 65, 160
763, 1013.72041254, 92.5, 140
764, 1013.72041254, 92.5, 150
765, 1013.72041254, 92.5, 160
766, 1013.72041254, 120, 140
767, 1013.72041254, 120, 150
768, 1013.72041254, 120, 160
769, 1083.72302074, -10, 0
770, 1083.72302074, 0, 0
771, 1083.72302074, -10, 28
772, 1083.72302074, 0, 28
773, 1083.72302074, -10, 56
774, 1083.72302074, 0, 56
775, 1083.72302074, -10, 84
776, 1083.72302074, 0, 84
777, 1083.72302074, -10, 112
778, 1083.72302074, 0, 112
779, 1083.72302074, -10, 140
780, 1083.72302074, 0, 140
781, 1083.72302074, 10, 0
782, 1083.72302074, 10, 28
783, 1083.72302074, 10, 56
784, 1083.72302074, 10, 84
785, 1083.72302074, 10, 112
786, 1083.72302074, 10, 140
787, 1083.72302074, -120, 140
788, 1083.72302074, -92.5, 140
789, 1083.72302074, -120, 150
790, 1083.72302074, -92.5, 150
791, 1083.72302074, -120, 160
792, 1083.72302074, -92.5, 160
793, 1083.72302074, -65, 140
794, 1083.72302074, -65, 150
795, 1083.72302074, -65, 160
796, 1083.72302074, -37.5, 140
797, 1083.72302074, -37.5, 150
798, 1083.72302074, -37.5, 160
799, 1083.72302074, -10, 150
800, 1083.72302074, -10, 160
801, 1083.72302074, 0, 150
802, 1083.72302074, 0, 160
803, 1083.72302074, 10, 150
804, 1083.72302074, 10, 160
805, 1083.72302074, 37.5, 140
806, 1083.72302074, 37.5, 150
807, 1083.72302074, 37.5, 160
808, 1083.72302074, 65, 140
809, 1083.72302074, 65, 150
810, 1083.72302074, 65, 160
811, 1083.72302074, 92.5, 140
812, 1083.72302074, 92.5, 150
813, 1083.72302074, 92.5, 160
814, 1083.72302074, 120, 140
815, 1083.72302074, 120, 150
816, 1083.72302074, 120, 160
817, 1153.88495605, -10, 0
818, 1153.88495605, 0, 0
819, 1153.88495605, -10, 28
820, 1153.88495605, 0, 28
821, 1153.88495605, -10, 56
822, 1153.88495605, 0, 56
823, 1153.88495605, -10, 84
824, 1153.88495605, 0, 84
825, 1153.88495605, -10, 112
826, 1153.88495605, 0, 112
827, 1153.88495605, -10, 140
828, 1153.88495605, 0, 140
829, 1153.88495605, 10, 0
830, 1153.88495605, 10, 28
831, 1153.88495605, 10, 56
832, 1153.88495605, 10, 84
833, 1153.88495605, 10, 112
834, 1153.88495605, 10, 140
835, 1153.88495605, -120, 140
836, 1153.88495605, -92.5, 140
837, 1153.88495605, -120, 150
838, 1153.88495605, -92.5, 150
839, 1153.88495605, -120, 160
840, 1153.88495605, -92.5, 160
841, 1153.88495605, -65, 140
842, 1153.88495605, -65, 150
843, 1153.88495605, -65, 160
844, 1153.88495605, -37.5, 140
845, 1153.88495605, -37.5, 150
846, 1153.88495605, -37.5, 160
847, 1153.88495605, -10, 150
848, 1153.88495605, -10, 160
849, 1153.88495605, 0, 150
850, 1153.88495605, 0, 160
851, 1153.88495605, 10, 150
852, 1153.88495605, 10, 160
853, 1153.88495605, 37.5, 140
854, 1153.88495605, 37.5, 150
855, 1153.88495605, 37.5, 160
856, 1153.88495605, 65, 140
857, 1153.88495605, 65, 150
858, 1153.88495605, 65, 160
859, 1153.88495605, 92.5, 140
860, 1153.88495605, 92.5, 150
861, 1153.88495605, 92.5, 160
862, 1153.88495605, 120, 140
863, 1153.88495605, 120, 150
864, 1153.88495605, 120, 160
865, 1224.20694499, -10, 0
866, 1224.20694499, 0, 0
867, 1224.20694499, -10, 28
868, 1224.20694499, 0, 28
869, 1224.20694499, -10, 56
870, 1224.20694499, 0, 56
871, 1224.20694499, -10, 84
872, 1224.20694499, 0, 84
873, 1224.20694499, -10, 112
874, 1224.20694499, 0, 112
875, 1224.20694499, -10, 140
876, 1224.20694499, 0, 140
877, 1224.20694499, 10, 0
878, 1224.20694499, 10, 28
879, 1224.20694499, 10, 56
880, 1224.20694499, 10, 84
881, 1224.20694499, 10, 112
882, 1224.20694499, 10, 140
883, 1224.20694499, -120, 140
884, 1224.20694499, -92.5, 140
885, 1224.20694499, -120, 150
886, 1224.20694499, -92.5, 150
887, 1224.20694499, -120, 160
888, 1224.20694499, -92.5, 160
889, 1224.20694499, -65, 140
890, 1224.20694499, -65, 150
891, 1224.20694499, -65, 160
892, 1224.20694499, -37.5, 140
893, 1224.20694499, -37.5, 150
894, 1224.20694499, -37.5, 160
895, 1224.20694499, -10, 150
896, 1224.20694499, -10, 160
897, 1224.20694499, 0, 150
898, 1224.20694499, 0, 160
899, 1224.20694499, 10, 150
900, 1224.20694499, 10, 160
901, 1224.20694499, 37.5, 140
902, 1224.20694499, 37.5, 150
903, 1224.20694499, 37.5, 160
904, 1224.20694499, 65, 140
905, 1224.20694499, 65, 150
906, 1224.20694499, 65, 160
907, 1224.20694499, 92.5, 140
908, 1224.20694499, 92.5, 150
909, 1224.20694499, 92.5, 160
910, 1224.20694499, 120, 140
911, 1224.20694499, 120, 150
912, 1224.20694499, 120, 160
913, 1294.68971903, -10, 0
914, 1294.68971903, 0, 0
915, 1294.68971903, -10, 28
916, 1294.68971903, 0, 28
917, 1294.68971903, -10, 56
918, 1294.68971903, 0, 56
919, 1294.68971903, -10, 84
920, 1294.68971903, 0, 84
921, 1294.68971903, -10, 112
922, 1294.68971903, 0, 112
923, 1294.68971903, -10, 140
924, 1294.68971903, 0, 140
925, 1294.68971903, 10, 0
926, 1294.68971903, 10, 28
927, 1294.68971903, 10, 56
928, 1294.68971903, 10, 84
929, 1294.68971903, 10, 112
930, 1294.68971903, 10, 140
931, 1294.68971903, -120, 140
932, 1294.68971903, -92.5, 140
933, 1294.68971903, -120, 150
934, 1294.68971903, -92.5, 150
935, 1294.68971903, -120, 160
936, 1294.68971903, -92.5, 160
937, 1294.68971903, -65, 140
938, 1294.68971903, -65, 150
939, 1294.68971903, -65, 160
940, 1294.68971903, -37.5, 140
941, 1294.68971903, -37.5, 150
942, 1294.68971903, -37.5, 160
943, 1294.68971903, -10, 150
944, 1294.68971903, -10, 160
945, 1294.68971903, 0, 150
946, 1294.68971903, 0, 160
947, 1294.68971903, 10, 150
948, 1294.68971903, 10, 160
949, 1294.68971903, 37.5, 140
950, 1294.68971903, 37.5, 150
951, 1294.68971903, 37.5, 160
952, 1294.68971903, 65, 140
953, 1294.68971903, 65, 150
954, 1294.68971903, 65, 160
955, 1294.68971903, 92.5, 140
956, 1294.68971903, 92.5, 150
957, 1294.68971903, 92.5, 160
958, 1294.68971903, 120, 140
959, 1294.68971903, 120, 150
960, 1294.68971903, 120, 160
961, 1365.33401468, -10, 0
962, 1365.33401468, 0, 0
963, 1365.33401468, -10, 28
964, 1365.33401468, 0, 28
965, 1365.33401468, -10, 56
966, 1365.33401468, 0, 56
967, 1365.33401468, -10, 84
968, 1365.33401468, 0, 84
969, 1365.33401468, -10, 112
970, 1365.33401468, 0, 112
971, 1365.33401468, -10, 140
972, 1365.33401468, 0, 140
973, 1365.33401468, 10, 0
974, 1365.33401468, 10, 28
975, 1365.33401468, 10, 56
976, 1365.33401468, 10, 84
977, 1365.33401468, 10, 112
978, 1365.33401468, 10, 140
979, 1365.33401468, -120, 140
980, 1365.33401468, -92.5, 140
981, 1365.33401468, -120, 150
982, 1365.33401468, -92.5, 150
983, 1365.33401468, -120, 160
984, 1365.33401468, -92.5, 160
985, 1365.33401468, -65, 140
986, 1365.33401468, -65, 150
987, 1365.33401468, -65, 160
988, 1365.33401468, -37.5, 140
989, 1365.33401468, -37.5, 150
990, 1365.33401468, -37.5, 160
991, 1365.33401468, -10, 150
992, 1365.33401468, -10, 160
993, 1365.33401468, 0, 150
994, 1365.33401468, 0, 160
995, 1365.33401468, 10, 150
996, 1365.33401468, 10, 160
997, 1365.33401468, 37.5, 140
998, 1365.33401468, 37.5, 150
999, 1365.33401468, 37.5, 160
1000, 1365.33401468, 65, 140
1001, 1365.33401468, 65, 150
1002, 1365.33401468, 65, 160
1003, 1365.33401468, 92.5, 140
1004, 1365.33401468, 92.5, 150
1005, 1365.33401468, 92.5, 160
1006, 1365.33401468, 120, 140
1007, 1365.33401468, 120, 150
1008, 1365.33401468, 120, 160
1009, 1436.14057352, -10, 0
1010, 1436.14057352, 0, 0
1011, 1436.14057352, -10, 28
1012, 1436.14057352, 0, 28
1013, 1436.14057352, -10, 56
1014, 1436.14057352, 0, 56
1015, 1436.14057352, -10, 84
1016, 1436.14057352, 0, 84
1017, 1436.14057352, -10, 112
1018, 1436.14057352, 0, 112
1019, 1436.14057352, -10, 140
1020, 1436.14057352, 0, 140
1021, 1436.14057352, 10, 0
1022, 1436.14057352, 10, 28
1023, 1436.14057352, 10, 56
1024, 1436.14057352, 10, 84
1025, 1436.14057352, 10, 112
1026, 1436.14057352, 10, 140
1027, 1436.14057352, -120, 140
1028, 1436.14057352, -92.5, 140
1029, 1436.14057352, -120, 150
1030, 1436.14057352, -92.5, 150
1031, 1436.14057352, -120, 160
1032, 1436.14057352, -92.5, 160
1033, 1436.14057352, -65, 140
1034, 1436.14057352, -65, 150
1035, 1436.14057352, -65, 160
1036, 1436.14057352, -37.5, 140
1037, 1436.14057352, -37.5, 150
1038, 1436.14057352, -37.5, 160
1039, 1436.14057352, -10, 150
1040, 1436.14057352, -10, 160
1041, 1436.14057352, 0, 150
1042, 1436.14057352, 0, 160
1043, 1436.14057352, 10, 150
1044, 1436.14057352, 10, 160
1045, 1436.14057352, 37.5, 140
1046, 1436.14057352, 37.5, 150
1047, 1436.14057352, 37.5, 160
1048, 1436.14057352, 65, 140
1049, 1436.14057352, 65, 150
1050, 1436.14057352, 65, 160
1051, 1436.14057352, 92.5, 140
1052, 1436.14057352, 92.5, 150
1053, 1436.14057352, 92.5, 160
1054, 1436.14057352, 120, 140
1055, 1436.14057352, 120, 150
1056, 1436.14057352, 120, 160
1057, 1507.11014222, -10, 0
1058, 1507.11014222, 0, 0
1059, 1507.11014222, -10, 28
1060, 1507.11014222, 0, 28
1061, 1507.11014222, -10, 56
1062, 1507.11014222, 0, 56
1063, 1507.11014222, -10, 84
1064, 1507.11014222, 0, 84
1065, 1507.11014222, -10, 112
1066, 1507.11014222, 0, 112
1067, 1507.11014222, -10, 140
1068, 1507.11014222, 0, 140
1069, 1507.11014222, 10, 0
1070, 1507.11014222, 10, 28
1071, 1507.11014222, 10, 56
1072, 1507.11014222, 10, 84
1073, 1507.11014222, 10, 112
1074, 1507.11014222, 10, 140
1075, 1507.11014222, -120, 140
1076, 1507.11014222, -92.5, 140
1077, 1507.11014222, -120, 150
1078, 1507.11014222, -92.5, 150
1079, 1507.11014222, -120, 160
1080, 1507.11014222, -92.5, 160
1081, 1507.11014222, -65, 140
1082, 1507.11014222, -65, 150
1083, 1507.11014222, -65, 160
1084, 1507.11014222, -37.5, 140
1085, 1507.11014222, -37.5, 150
1086, 1507.11014222, -37.5, 160
1087, 1507.11014222, -10, 150
1088, 1507.11014222, -10, 160
1089, 1507.11014222, 0, 150
1090, 1507.11014222, 0, 160
1091, 1507.11014222, 10, 150
1092, 1507.11014222, 10, 160
1093, 1507.11014222, 37.5, 140
1094, 1507.11014222, 37.5, 150
1095, 1507.11014222, 37.5, 160
1096, 1507.11014222, 65, 140
1097, 1507.11014222, 65, 150
1098, 1507.11014222, 65, 160
1099, 1507.11014222, 92.5, 140
1100, 1507.11014222, 92.5, 150
1101, 1507.11014222, 92.5, 160
1102, 1507.11014222, 120, 140
1103, 1507.11014222, 120, 150
1104, 1507.11014222, 120, 160
1105, 1578.24347266, -10, 0
1106, 1578.24347266, 0, 0
1107, 1578.24347266, -10, 28
1108, 1578.24347266, 0, 28
1109, 1578.24347266, -10, 56
1110, 1578.24347266, 0, 56
1111, 1578.24347266, -10, 84
1112, 1578.24347266, 0, 84
1113, 1578.24347266, -10, 112
1114, 1578.24347266, 0, 112
1115, 1578.24347266, -10, 140
1116, 1578.24347266, 0, 140
1117, 1578.24347266, 10, 0
1118, 1578.24347266, 10, 28
1119, 1578.24347266, 10, 56
1120, 1578.24347266, 10, 84
1121, 1578.24347266, 10, 112
1122, 1578.24347266, 10, 140
1123, 1578.24347266, -120, 140
1124, 1578.24347266, -92.5, 140
1125, 1578.24347266, -120, 150
1126, 1578.24347266, -92.5, 150
1127, 1578.24347266, -120, 160
1128, 1578.24347266, -92.5, 160
1129, 1578.24347266, -65, 140
1130, 1578.24347266, -65, 150
1131, 1578.24347266, -65, 160
1132, 1578.24347266, -37.5, 140
1133, 1578.24347266, -37.5, 150
1134, 1578.24347266, -37.5, 160
1135, 1578.24347266, -10, 150
1136, 1578.24347266, -10, 160
1137, 1578.24347266, 0, 150
1138, 1578.24347266, 0, 160
1139, 1578.24347266, 10, 150
1140, 1578.24347266, 10, 160
1141, 1578.24347266, 37.5, 140
1142, 1578.24347266, 37.5, 150
1143, 1578.24347266, 37.5, 160
1144, 1578.24347266, 65, 140
1145, 1578.24347266, 65, 150
1146, 1578.24347266, 65, 160
1147, 1578.24347266, 92.5, 140
1148, 1578.24347266, 92.5, 150
1149, 1578.24347266, 92.5, 160
1150, 1578.24347266, 120, 140
1151, 1578.24347266, 120, 150
1152, 1578.24347266, 120, 160
1153, 1649.54132189, -10, 0
1154, 1649.54132189, 0, 0
1155, 1649.54132189, -10, 28
1156, 1649.54132189, 0, 28
1157, 1649.54132189, -10, 56
1158, 1649.54132189, 0, 56
1159, 1649.54132189, -10, 84
1160, 1649.54132189, 0, 84
1161, 1649.54132189, -10, 112
1162, 1649.54132189, 0, 112
1163, 1649.54132189, -10, 140
1164, 1649.54132189, 0, 140
1165, 1649.54132189, 10, 0
1166, 1649.54132189, 10, 28
1167, 1649.54132189, 10, 56
1168, 1649.54132189, 10, 84
1169, 1649.54132189, 10, 112
1170, 1649.54132189, 10, 140
1171, 1649.54132189, -120, 140
1172, 1649.54132189, -92.5, 140
1173, 1649.54132189, -120, 150
1174, 1649.54132189, -92.5, 150
1175, 1649.54132189, -120, 160
1176, 1649.54132189, -92.5, 160
1177, 1649.54132189, -65, 140
1178, 1649.54132189, -65, 150
1179, 1649.54132189, -65, 160
1180, 1649.54132189, -37.5, 140
1181, 1649.54132189, -37.5, 150
1182, 1649.54132189, -37.5, 160
1183, 1649.54132189, -10, 150
1184, 1649.54132189, -10, 160
1185, 1649.54132189, 0, 150
1186, 1649.54132189, 0, 160
1187, 1649.54132189, 10, 150
1188, 1649.54132189, 10, 160
1189, 1649.54132189, 37.5, 140
1190, 1649.54132189, 37.5, 150
1191, 1649.54132189, 37.5, 160
1192, 1649.54132189, 65, 140
1193, 1649.54132189, 65, 150
1194, 1649.54132189, 65, 160
1195, 1649.54132189, 92.5, 140
1196, 1649.54132189, 92.5, 150
1197, 1649.54132189, 92.5, 160
1198, 1649.54132189, 120, 140
1199, 1649.54132189, 120, 150
1200, 1649.54132189, 120, 160
1201, 1721.00445225, -10, 0
1202, 1721.00445225, 0, 0
1203, 1721.00445225, -10, 28
1204, 1721.00445225, 0, 28
1205, 1721.00445225, -10, 56
1206, 1721.00445225, 0, 56
1207, 1721.00445225, -10, 84
1208, 1721.00445225, 0, 84
1209, 1721.00445225, -10, 112
1210, 1721.00445225, 0, 112
1211, 1721.00445225, -10, 140
1212, 1721.00445225, 0, 140
1213, 1721.00445225, 10, 0
1214, 1721.00445225, 10, 28
1215, 1721.00445225, 10, 56
1216, 1721.00445225, 10, 84
1217, 1721.00445225, 10, 112
1218, 1721.00445225, 10, 140
1219, 1721.00445225, -120, 140
1220, 1721.00445225, -92.5, 140
1221, 1721.00445225, -120, 150
1222, 1721.00445225, -92.5, 150
1223, 1721.00445225, -120, 160
1224, 1721.00445225, -92.5, 160
1225, 1721.00445225, -65, 140
1226, 1721.00445225, -65, 150
1227, 1721.00445225, -65, 160
1228, 1721.00445225, -37.5, 140
1229, 1721.00445225, -37.5, 150
1230, 1721.00445225, -37.5, 160
1231, 1721.00445225, -10, 150
1232, 1721.00445225, -10, 160
1233, 1721.00445225, 0, 150
1234, 1721.00445225, 0, 160
1235, 1721.00445225, 10, 150
1236, 1721.00445225, 10, 160
1237, 1721.00445225, 37.5, 140
1238, 1721.00445225, 37.5, 150
1239, 1721.00445225, 37.5, 160
1240, 1721.00445225, 65, 140
1241, 1721.00445225, 65, 150
1242, 1721.00445225, 65, 160
1243, 1721.00445225, 92.5, 140
1244, 1721.00445225, 92.5, 150
1245, 1721.00445225, 92.5, 160
1246, 1721.00445225, 120, 140
1247, 1721.00445225, 120, 150
1248, 1721.00445225, 120, 160
1249, 1792.63363137, -10, 0
1250, 1792.63363137, 0, 0
1251, 1792.63363137, -10, 28
1252, 1792.63363137, 0, 28
1253, 1792.63363137, -10, 56
1254, 1792.63363137, 0, 56
1255, 1792.63363137, -10, 84
1256, 1792.63363137, 0, 84
1257, 1792.63363137, -10, 112
1258, 1792.63363137, 0, 112
1259, 1792.63363137, -10, 140
1260, 1792.63363137, 0, 140
1261, 1792.63363137, 10, 0
1262, 1792.63363137, 10, 28
1263, 1792.63363137, 10, 56
1264, 1792.63363137, 10, 84
1265, 1792.63363137, 10, 112
1266, 1792.63363137, 10, 140
1267, 1792.63363137, -120, 140
1268, 1792.63363137, -92.5, 140
1269, 1792.63363137, -120, 150
1270, 1792.63363137, -92.5, 150
1271, 1792.63363137, -120, 160
1272, 1792.63363137, -92.5, 160
1273, 1792.63363137, -65, 140
1274, 1792.63363137, -65, 150
1275, 1792.63363137, -65, 160
1276, 1792.63363137, -37.5, 140
1277, 1792.63363137, -37.5, 150
1278, 1792.63363137, -37.5, 160
1279, 1792.63363137, -10, 150
1280, 1792.63363137, -10, 160
1281, 1792.63363137, 0, 150
1282, 1792.63363137, 0, 160
1283, 1792.63363137, 10, 150
1284, 1792.63363137, 10, 160
1285, 1792.63363137, 37.5, 140
1286, 1792.63363137, 37.5, 150
1287, 1792.63363137, 37.5, 160
1288, 1792.63363137, 65, 140
1289, 1792.63363137, 65, 150
1290, 1792.63363137, 65, 160
1291, 1792.63363137, 92.5, 140
1292, 1792.63363137, 92.5, 150
1293, 1792.63363137, 92.5, 160
1294, 1792.63363137, 120, 140
1295, 1792.63363137, 120, 150
1296, 1792.63363137, 120, 160
1297, 1864.42963224, -10, 0
1298, 1864.42963224, 0, 0
1299, 1864.42963224, -10, 28
1300, 1864.42963224, 0, 28
1301, 1864.42963224, -10, 56
1302, 1864.42963224, 0, 56
1303, 1864.42963224, -10, 84
1304, 1864.42963224, 0, 84
1305, 1864.42963224, -10, 112
1306, 1864.42963224, 0, 112
1307, 1864.42963224, -10, 140
1308, 1864.42963224, 0, 140
1309, 1864.42963224, 10, 0
1310, 1864.42963224, 10, 28
1311, 1864.42963224, 10, 56
1312, 1864.42963224, 10, 84
1313, 1864.42963224, 10, 112
1314, 1864.42963224, 10, 140
1315, 1864.42963224, -120, 140
1316, 1864.42963224, -92.5, 140
1317, 1864.42963224, -120, 150
1318, 1864.42963224, -92.5, 150
1319, 1864.42963224, -120, 160
1320, 1864.42963224, -92.5, 160
1321, 1864.42963224, -65, 140
1322, 1864.42963224, -65, 150
1323, 1864.42963224, -65, 160
1324, 1864.42963224, -37.5, 140
1325, 1864.42963224, -37.5, 150
1326, 1864.42963224, -37.5, 160
1327, 1864.42963224, -10, 150
1328, 1864.42963224, -10, 160
1329, 1864.42963224, 0, 150
1330, 1864.42963224, 0, 160
1331, 1864.42963224, 10, 150
1332, 1864.42963224, 10, 160
1333, 1864.42963224, 37.5, 140
1334, 1864.42963224, 37.5, 150
1335, 1864.42963224, 37.5, 160
1336, 1864.42963224, 65, 140
1337, 1864.42963224, 65, 150
1338, 1864.42963224, 65, 160
1339, 1864.42963224, 92.5, 140
1340, 1864.42963224, 92.5, 150
1341, 1864.42963224, 92.5, 160
1342, 1864.42963224, 120, 140
1343, 1864.42963224, 120, 150
1344, 1864.42963224, 120, 160
1345, 1936.39323327, -10, 0
1346, 1936.39323327, 0, 0
1347, 1936.39323327, -10, 28
1348, 1936.39323327, 0, 28
1349, 1936.39323327, -10, 56
1350, 1936.39323327, 0, 56
1351, 1936.39323327, -10, 84
1352, 1936.39323327, 0, 84
1353, 1936.39323327, -10, 112
1354, 1936.39323327, 0, 112
1355, 1936.39323327, -10, 140
1356, 1936.39323327, 0, 140
1357, 1936.39323327, 10, 0
1358, 1936.39323327, 10, 28
1359, 1936.39323327, 10, 56
1360, 1936.39323327, 10, 84
1361, 1936.39323327, 10, 112
1362, 1936.39323327, 10, 140
1363, 1936.39323327, -120, 140
1364, 1936.39323327, -92.5, 140
1365, 1936.39323327, -120, 150
1366, 1936.39323327, -92.5, 150
1367, 1936.39323327, -120, 160
1368, 1936.39323327, -92.5, 160
1369, 1936.39323327, -65, 140
1370, 1936.39323327, -65, 150
1371, 1936.39323327, -65, 160
1372, 1936.39323327, -37.5, 140
1373, 1936.39323327, -37.5, 150
1374, 1936.39323327, -37.5, 160
1375, 1936.39323327, -10, 150
1376, 1936.39323327, -10, 160
1377, 1936.39323327, 0, 150
1378, 1936.39323327, 0, 160
1379, 1936.39323327, 10, 150
1380, 1936.39323327, 10, 160
1381, 1936.39323327, 37.5, 140
1382, 1936.39323327, 37.5, 150
1383, 1936.39323327, 37.5, 160
1384, 1936.39323327, 65, 140
1385, 1936.39323327, 65, 150
1386, 1936.39323327, 65, 160
1387, 1936.39323327, 92.5, 140
1388, 1936.39323327, 92.5, 150
1389, 1936.39323327, 92.5, 160
1390, 1936.39323327, 120, 140
1391, 1936.39323327, 120, 150
1392, 1936.39323327, 120, 160
1393, 2000, -10, 0
1394, 2000, 0, 0
1395, 2000, -10, 28
1396, 2000, 0, 28
1397, 2000, -10, 56
1398, 2000, 0, 56
1399, 2000, -10, 84
1400, 2000, 0, 84
1401, 2000, -10, 112
1402, 2000, 0, 112
1403, 2000, -10, 140
1404, 2000, 0, 140
1405, 2000, 10, 0
1406, 2000, 10, 28
1407, 2000, 10, 56
1408, 2000, 10, 84
1409, 2000, 10, 112
1410, 2000, 10, 140
1411, 2000, -120, 140
1412, 2000, -92.5, 140
1413, 2000, -120, 150
1414, 2000, -92.5, 150
1415, 2000, -120, 160
1416, 2000, -92.5, 160
1417, 2000, -65, 140
1418, 2000, -65, 150
1419, 2000, -65, 160
1420, 2000, -37.5, 140
1421, 2000, -37.5, 150
1422, 2000, -37.5, 160
1423, 2000, -10, 150
1424, 2000, -10, 160
1425, 2000, 0, 150
1426, 2000, 0, 160
1427, 2000, 10, 150
1428, 2000, 10, 160
1429, 2000, 37.5, 140
1430, 2000, 37.5, 150
1431, 2000, 37.5, 160
1432, 2000, 65, 140
1433, 2000, 65, 150
1434, 2000, 65, 160
1435, 2000, 92.5, 140
1436, 2000, 92.5, 150
1437, 2000, 92.5, 160
1438, 2000, 120, 140
1439, 2000, 120, 150
1440, 2000, 120, 160
*ELEMENT, TYPE=C3D8, ELSET=EALL
1, 1, 2, 3, 4, 5, 6, 7, 8
2, 5, 6, 7, 8, 9, 10, 11, 12
3, 9, 10, 11, 12, 13, 14, 15, 16
4, 13, 14, 15, 16, 17, 18, 19, 20
5, 17, 18, 19, 20, 21, 22, 23, 24
6, 4, 3, 25, 26, 8, 7, 27, 28
7, 8, 7, 27, 28, 12, 11, 29, 30
8, 12, 11, 29, 30, 16, 15, 31, 32
9, 16, 15, 31, 32, 20, 19, 33, 34
10, 20, 19, 33, 34, 24, 23, 35, 36
11, 37, 38, 39, 40, 41, 42, 43, 44
12, 41, 42, 43, 44, 45, 46, 47, 48
13, 40, 39, 49, 50, 44, 43, 51, 52
14, 44, 43, 51, 52, 48, 47, 53, 54
15, 50, 49, 55, 56, 52, 51, 57, 58
16, 52, 51, 57, 58, 54, 53, 59, 60
17, 56, 55, 22, 21, 58, 57, 61, 62
18, 58, 57, 61, 62, 60, 59, 63, 64
19, 21, 22, 23, 24, 62, 61, 65, 66
20, 62, 61, 65, 66, 64, 63, 67, 68
21, 24, 23, 35, 36, 66, 65, 69, 70
22, 66, 65, 69, 70, 68, 67, 71, 72
23, 36, 35, 73, 74, 70, 69, 75, 76
24, 70, 69, 75, 76, 72, 71, 77, 78
25, 74, 73, 79, 80, 76, 75, 81, 82
26, 76, 75, 81, 82, 78, 77, 83, 84
27, 80, 79, 85, 86, 82, 81, 87, 88
28, 82, 81, 87, 88, 84, 83, 89, 90
29, 86, 85, 91, 92, 88, 87, 93, 94
30, 88, 87, 93, 94, 90, 89, 95, 96
31, 2, 97, 98, 3, 6, 99, 100, 7
32, 6, 99, 100, 7, 10, 101, 102, 11
33, 10, 101, 102, 11, 14, 103, 104, 15
34, 14, 103, 104, 15, 18, 105, 106, 19
35, 18, 105, 106, 19, 22, 107, 108, 23
36, 3, 98, 109, 25, 7, 100, 110, 27
37, 7, 100, 110, 27, 11, 102, 111, 29
38, 11, 102, 111, 29, 15, 104, 112, 31
39, 15, 104, 112, 31, 19, 106, 113, 33
40, 19, 106, 113, 33, 23, 108, 114, 35
41, 38, 115, 116, 39, 42, 117, 118, 43
42, 42, 117, 118, 43, 46, 119, 120, 47
43, 39, 116, 121, 49, 43, 118, 122, 51
44, 43, 118, 122, 51, 47, 120, 123, 53
45, 49, 121, 124, 55, 51, 122, 125, 57
46, 51, 122, 125, 57, 53, 123, 126, 59
47, 55, 124, 107, 22, 57, 125, 127, 61
48, 57, 125, 127, 61, 59, 126, 128, 63
49, 22, 107, 108, 23, 61, 127, 129, 65
50, 61, 127, 129, 65, 63, 128, 130, 67
51, 23, 108, 114, 35, 65, 129, 131, 69
52, 65, 129, 131, 69, 67, 130, 132, 71
53, 35, 114, 133, 73, 69, 131, 134, 75
54, 69, 131, 134, 75, 71, 132, 135, 77
55, 73, 133, 136, 79, 75, 134, 137, 81
56, 75, 134, 137, 81, 77, 135, 138, 83
57, 79, 136, 139, 85, 81, 137, 140, 87
58, 81, 137, 140, 87, 83, 138, 141, 89
59, 85, 139, 142, 91, 87, 140, 143, 93
60, 87, 140, 143, 93, 89, 141, 144, 95
61, 97, 145, 146, 98, 99, 147, 148, 100
62, 99, 147, 148, 100, 101, 149, 150, 102
63, 101, 149, 150, 102, 103, 151, 152, 104
64, 103, 151, 152, 104, 105, 153, 154, 106
65, 105, 153, 154, 106, 107, 155, 156, 108
66, 98, 146, 157, 109, 100, 148, 158, 110
67, 100, 148, 158, 110, 102, 150, 159, 111
68, 102, 150, 159, 111, 104, 152, 160, 112
69, 104, 152, 160, 112, 106, 154, 161, 113
70, 106, 154, 161, 113, 108, 156, 162, 114
71, 115, 163, 164, 116, 117, 165, 166, 118
72, 117, 165, 166, 118, 119, 167, 168, 120
73, 116, 164, 169, 121, 118, 166, 170, 122
74, 118, 166, 170, 122, 120, 168, 171, 123
75, 121, 169, 172, 124, 122, 170, 173, 125
76, 122, 170, 173, 125, 123, 171, 174, 126
77, 124, 172, 155, 107, 125, 173, 175, 127
78, 125, 173, 175, 127, 126, 174, 176, 128
79, 107, 155, 156, 108, 127, 175, 177, 129
80, 127, 175, 177, 129, 128, 176, 178, 130
81, 108, 156, 162, 114, 129, 177, 179, 131
82, 129, 177, 179, 131, 130, 178, 180, 132
83, 114, 162, 181, 133, 131, 179, 182, 134
84, 131, 179, 182, 134, 132, 180, 183, 135
85, 133, 181, 184, 136, 134, 182, 185, 137
86, 134, 182, 185, 137, 135, 183, 186, 138
87, 136, 184, 187, 139, 137, 185, 188, 140
88, 137, 185, 188, 140, 138, 186, 189, 141
89, 139, 187, 190, 142, 140, 188, 191, 143
90, 140, 188, 191, 143, 141, 189, 192, 144
91, 145, 193, 194, 146, 147, 195, 196, 148
92, 147, 195, 196, 148, 149, 197, 198, 150
93, 149, 197, 198, 150, 151, 199, 200, 152
94, 151, 199, 200, 152, 153, 201, 202, 154
95, 153, 201, 202, 154, 155, 203, 204, 156
96, 146, 194, 205, 157, 148, 196, 206, 158
97, 148, 196, 206, 158, 150, 198, 207, 159
98, 150, 198, 207, 159, 152, 200, 208, 160
99, 152, 200, 208, 160, 154, 202, 209, 161
100, 154, 202, 209, 161, 156, 204, 210, 162
101, 163, 211, 212, 164, 165, 213, 214, 166
102, 165, 213, 214, 166, 167, 215, 216, 168
103, 164, 212, 217, 169, 166, 214, 218, 170
104, 166, 214, 218, 170, 168, 216, 219, 171
105, 169, 217, 220, 172, 170, 218, 221, 173
106, 170, 218, 221, 173, 171, 219, 222, 174
107, 172, 220, 203, 155, 173, 221, 223, 175
108, 173, 221, 223, 175, 174, 222, 224, 176
109, 155, 203, 204, 156, 175, 223, 225, 177
110, 175, 223, 225, 177, 176, 224, 226, 178
111, 156, 204, 210, 162, 177, 225, 227, 179
112, 177, 225, 227, 179, 178, 226, 228, 180
113, 162, 210, 229, 181, 179, 227, 230, 182
114, 179, 227, 230, 182, 180, 228, 231, 183
115, 181, 229, 232, 184, 182, 230, 233, 185
116, 182, 230, 233, 185, 183, 231, 234, 186
117, 184, 232, 235, 187, 185, 233, 236, 188
118, 185, 233, 236, 188, 186, 234, 237, 189
119, 187, 235, 238, 190, 188, 236, 239, 191
120, 188, 236, 239, 191, 189, 237, 240, 192
121, 193, 241, 242, 194, 195, 243, 244, 196
122, 195, 243, 244, 196, 197, 245, 246, 198
123, 197, 245, 246, 198, 199, 247, 248, 200
124, 199, 247, 248, 200, 201, 249, 250, 202
125, 201, 249, 250, 202, 203, 251, 252, 204
126, 194, 242, 253, 205, 196, 244, 254, 206
127, 196, 244, 254, 206, 198, 246, 255, 207
128, 198, 246, 255, 207, 200, 248, 256, 208
129, 200, 248, 256, 208, 202, 250, 257, 209
130, 202, 250, 257, 209, 204, 252, 258, 210
131, 211, 259, 260, 212, 213, 261, 262, 214
132, 213, 261, 262, 214, 215, 263, 264, 216
133, 212, 260, 265, 217, 214, 262, 266, 218
134, 214, 262, 266, 218, 216, 264, 267, 219
135, 217, 265, 268, 220, 218, 266, 269, 221
136, 218, 266, 269, 221, 219, 267, 270, 222
137, 220, 268, 251, 203, 221, 269, 271, 223
138, 221, 269, 271, 223, 222, 270, 272, 224
139, 203, 251, 252, 204, 223, 271, 273, 225
140, 223, 271, 273, 225, 224, 272, 274, 226
141, 204, 252, 258, 210, 225, 273, 275, 227
142, 225, 273, 275, 227, 226, 274, 276, 228
143, 210, 258, 277, 229, 227, 275, 278, 230
144, 227, 275, 278, 230, 228, 276, 279, 231
145, 229, 277, 280, 232, 230, 278, 281, 233
146, 230, 278, 281, 233, 231, 279, 282, 234
147, 232, 280, 283, 235, 233, 281, 284, 236
148, 233, 281, 284, 236, 234, 282, 285, 237
149, 235, 283, 286, 238, 236, 284, 287, 239
150, 236, 284, 287, 239, 237, 285, 288, 240
151, 241, 289, 290, 242, 243, 291, 292, 244
152, 243, 291, 292, 244, 245, 293, 294, 246
153, 245, 293, 294, 246, 247, 295, 296, 248
154, 247, 295, 296, 248, 249, 297, 298, 250
155, 249, 297, 298, 250, 251, 299, 300, 252
156, 242, 290, 301, 253, 244, 292, 302, 254
157, 244, 292, 302, 254, 246, 294, 303, 255
158, 246, 294, 303, 255, 248, 296, 304, 256
159, 248, 296, 304, 256, 250, 298, 305, 257
160, 250, 298, 305, 257, 252, 300, 306, 258
161, 259, 307, 308, 260, 261, 309, 310, 262
162, 261, 309, 310, 262, 263, 311, 312, 264
163, 260, 308, 313, 265, 262, 310, 314, 266
164, 262, 310, 314, 266, 264, 312, 315, 267
165, 265, 313, 316, 268, 266, 314, 317, 269
166, 266, 314, 317, 269, 267, 315, 318, 270
167, 268, 316, 299, 251, 269, 317, 319, 271
168, 269, 317, 319, 271, 270, 318, 320, 272
169, 251, 299, 300, 252, 271, 319, 321, 273
170, 271, 319, 321, 273, 272, 320, 322, 274
171, 252, 300, 306, 258, 273, 321, 323, 275
172, 273, 321, 323, 275, 274, 322, 324, 276
173, 258, 306, 325, 277, 275, 323, 326, 278
174, 275, 323, 326, 278, 276, 324, 327, 279
175, 277, 325, 328, 280, 278, 326, 329, 281
176, 278, 326, 329, 281, 279, 327, 330, 282
177, 280, 328, 331, 283, 281, 329, 332, 284
178, 281, 329, 332, 284, 282, 330, 333, 285
179, 283, 331, 334, 286, 284, 332, 335, 287
180, 284, 332, 335, 287, 285, 333, 336, 288
181, 289, 337, 338, 290, 291, 339, 340, 292
182, 291, 339, 340, 292, 293, 341, 342, 294
183, 293, 341, 342, 294, 295, 343, 344, 296
184, 295, 343, 344, 296, 297, 345, 346, 298
185, 297, 345, 346, 298, 299, 347, 348, 300
186, 290, 338, 349, 301, 292, 340, 350, 302
187, 292, 340, 350, 302, 294, 342, 351, 303
188, 294, 342, 351, 303, 296, 344, 352, 304
189, 296, 344, 352, 304, 298, 346, 353, 305
190, 298, 346, 353, 305, 300, 348, 354, 306
191, 307, 355, 356, 308, 309, 357, 358, 310
192, 309, 357, 358, 310, 311, 359, 360, 312
193, 308, 356, 361, 313, 310, 358, 362, 314
194, 310, 358, 362, 314, 312, 360, 363, 315
195, 313, 361, 364, 316, 314, 362, 365, 317
196, 314, 362, 365, 317, 315, 363, 366, 318
197, 316, 364, 347, 299, 317, 365, 367, 319
198, 317, 365, 367, 319, 318, 366, 368, 320
199, 299, 347, 348, 300, 319, 367, 369, 321
200, 319, 367, 369, 321, 320, 368, 370, 322
201, 300, 348, 354, 306, 321, 369, 371, 323
202, 321, 369, 371, 323, 322, 370, 372, 324
203, 306, 354, 373, 325, 323, 371, 374, 326
204, 323, 371, 374, 326, 324, 372, 375, 327
205, 325, 373, 376, 328, 326, 374, 377, 329
206, 326, 374, 377, 329, 327, 375, 378, 330
207, 328, 376, 379, 331, 329, 377, 380, 332
208, 329, 377, 380, 332, 330, 378, 381, 333
209, 331, 379, 382, 334, 332, 380, 383, 335
210, 332, 380, 383, 335, 333, 381, 384, 336
211, 337, 385, 386, 338, 339, 387, 388, 340
212, 339, 387, 388, 340, 341, 389, 390, 342
213, 341, 389, 390, 342, 343, 391, 392, 344
214, 343, 391, 392, 344, 345, 393, 394, 346
215, 345, 393, 394, 346, 347, 395, 396, 348
216, 338, 386, 397, 349, 340, 388, 398, 350
217, 340, 388, 398, 350, 342, 390, 399, 351
218, 342, 390, 399, 351, 344, 392, 400, 352
219, 344, 392, 400, 352, 346, 394, 401, 353
220, 346, 394, 401, 353, 348, 396, 402, 354
221, 355, 403, 404, 356, 357, 405, 406, 358
222, 357, 405, 406, 358, 359, 407, 408, 360
223, 356, 404, 409, 361, 358, 406, 410, 362
224, 358, 406, 410, 362, 360, 408, 411, 363
225, 361, 409, 412, 364, 362, 410, 413, 365
226, 362, 410, 413, 365, 363, 411, 414, 366
227, 364, 412, 395, 347, 365, 413, 415, 367
228, 365, 413, 415, 367, 366, 414, 416, 368
229, 347, 395, 396, 348, 367, 415, 417, 369
230, 367, 415, 417, 369, 368, 416, 418, 370
231, 348, 396, 402, 354, 369, 417, 419, 371
232, 369, 417, 419, 371, 370, 418, 420, 372
233, 354, 402, 421, 373, 371, 419, 422, 374
234, 371, 419, 422, 374, 372, 420, 423, 375
235, 373, 421, 424, 376, 374, 422, 425, 377
236, 374, 422, 425, 377, 375, 423, 426, 378
237, 376, 424, 427, 379, 377, 425, 428, 380
238, 377, 425, 428, 380, 378, 426, 429, 381
239, 379, 427, 430, 382, 380, 428, 431, 383
240, 380, 428, 431, 383, 381, 429, 432, 384
241, 385, 433, 434, 386, 387, 435, 436, 388
242, 387, 435, 436, 388, 389, 437, 438, 390
243, 389, 437, 438, 390, 391, 439, 440, 392
244, 391, 439, 440, 392, 393, 441, 442, 394
245, 393, 441, 442, 394, 395, 443, 444, 396
246, 386, 434, 445, 397, 388, 436, 446, 398
247, 388, 436, 446, 398, 390, 438, 447, 399
248, 390, 438, 447, 399, 392, 440, 448, 400
249, 392, 440, 448, 400, 394, 442, 449, 401
250, 394, 442, 449, 401, 396, 444, 450, 402
251, 403, 451, 452, 404, 405, 453, 454, 406
252, 405, 453, 454, 406, 407, 455, 456, 408
253, 404, 452, 457, 409, 406, 454, 458, 410
254, 406, 454, 458, 410, 408, 456, 459, 411
255, 409, 457, 460, 412, 410, 458, 461, 413
256, 410, 458, 461, 413, 411, 459, 462, 414
257, 412, 460, 443, 395, 413, 461, 463, 415
258, 413, 461, 463, 415, 414, 462, 464, 416
259, 395, 443, 444, 396, 415, 463, 465, 417
260, 415, 463, 465, 417, 416, 464, 466, 418
261, 396, 444, 450, 402, 417, 465, 467, 419
262, 417, 465, 467, 419, 418, 466, 468, 420
263, 402, 450, 469, 421, 419, 467, 470, 422
264, 419, 467, 470, 422, 420, 468, 471, 423
265, 421, 469, 472, 424, 422, 470, 473, 425
266, 422, 470, 473, 425, 423, 471, 474, 426
267, 424, 472, 475, 427, 425, 473, 476, 428
268, 425, 473, 476, 428, 426, 474, 477, 429
269, 427, 475, 478, 430, 428, 476, 479, 431
270, 428, 476, 479, 431, 429, 477, 480, 432
271, 433, 481, 482, 434, 435, 483, 484, 436
272, 435, 483, 484, 436, 437, 485, 486, 438
273, 437, 485, 486, 438, 439, 487, 488, 440
274, 439, 487, 488, 440, 441, 489, 490, 442
275, 441, 489, 490, 442, 443, 491, 492, 444
276, 434, 482, 493, 445, 436, 484, 494, 446
277, 436, 484, 494, 446, 438, 486, 495, 447
278, 438, 486, 495, 447, 440, 488, 496, 448
279, 440, 488, 496, 448, 442, 490, 497, 449
280, 442, 490, 497, 449, 444, 492, 498, 450
281, 451, 499, 500, 452, 453, 501, 502, 454
282, 453, 501, 502, 454, 455, 503, 504, 456
283, 452, 500, 505, 457, 454, 502, 506, 458
284, 454, 502, 506, 458, 456, 504, 507, 459
285, 457, 505, 508, 460, 458, 506, 509, 461
286, 458, 506, 509, 461, 459, 507, 510, 462
287, 460, 508, 491, 443, 461, 509, 511, 463
288, 461, 509, 511, 463, 462, 510, 512, 464
289, 443, 491, 492, 444, 463, 511, 513, 465
290, 463, 511, 513, 465, 464, 512, 514, 466
291, 444, 492, 498, 450, 465, 513, 515, 467
292, 465, 513, 515, 467, 466, 514, 516, 468
293, 450, 498, 517, 469, 467, 515, 518, 470
294, 467, 515, 518, 470, 468, 516, 519, 471
295, 469, 517, 520, 472, 470, 518, 521, 473
296, 470, 518, 521, 473, 471, 519, 522, 474
297, 472, 520, 523, 475, 473, 521, 524, 476
298, 473, 521, 524, 476, 474, 522, 525, 477
299, 475, 523, 526, 478, 476, 524, 527, 479
300, 476, 524, 527, 479, 477, 525, 528, 480
301, 481, 529, 530, 482, 483, 531, 532, 484
302, 483, 531, 532, 484, 485, 533, 534, 486
303, 485, 533, 534, 486, 487, 535, 536, 488
304, 487, 535, 536, 488, 489, 537, 538, 490
305, 489, 537, 538, 490, 491, 539, 540, 492
306, 482, 530, 541, 493, 484, 532, 542, 494
307, 484, 532, 542, 494, 486, 534, 543, 495
308, 486, 534, 543, 495, 488, 536, 544, 496
309, 488, 536, 544, 496, 490, 538, 545, 497
310, 490, 538, 545, 497, 492, 540, 546, 498
311, 499, 547, 548, 500, 501, 549, 550, 502
312, 501, 549, 550, 502, 503, 551, 552, 504
313, 500, 548, 553, 505, 502, 550, 554, 506
314, 502, 550, 554, 506, 504, 552, 555, 507
315, 505, 553, 556, 508, 506, 554, 557, 509
316, 506, 554, 557, 509, 507, 555, 558, 510
317, 508, 556, 539, 491, 509, 557, 559, 511
318, 509, 557, 559, 511, 510, 558, 560, 512
319, 491, 539, 540, 492, 511, 559, 561, 513
320, 511, 559, 561, 513, 512, 560, 562, 514
321, 492, 540, 546, 498, 513, 561, 563, 515
322, 513, 561, 563, 515, 514, 562, 564, 516
323, 498, 546, 565, 517, 515, 563, 566, 518
324, 515, 563, 566, 518, 516, 564, 567, 519
325, 517, 565, 568, 520, 518, 566, 569, 521
326, 518, 566, 569, 521, 519, 567, 570, 522
327, 520, 568, 571, 523, 521, 569, 572, 524
328, 521, 569, 572, 524, 522, 570, 573, 525
329, 523, 571, 574, 526, 524, 572, 575, 527
330, 524, 572, 575, 527, 525, 573, 576, 528
331, 529, 577, 578, 530, 531, 579, 580, 532
332, 531, 579, 580, 532, 533, 581, 582, 534
333, 533, 581, 582, 534, 535, 583, 584, 536
334, 535, 583, 584, 536, 537, 585, 586, 538
335, 537, 585, 586, 538, 539, 587, 588, 540
336, 530, 578, 589, 541, 532, 580, 590, 542
337, 532, 580, 590, 542, 534, 582, 591, 543
338, 534, 582, 591, 543, 536, 584, 592, 544
339, 536, 584, 592, 544, 538, 586, 593, 545
340, 538, 586, 593, 545, 540, 588, 594, 546
341, 547, 595, 596, 548, 549, 597, 598, 550
342, 549, 597, 598, 550, 551, 599, 600, 552
343, 548, 596, 601, 553, 550, 598, 602, 554
344, 550, 598, 602, 554, 552, 600, 603, 555
345, 553, 601, 604, 556, 554, 602, 605, 557
346, 554, 602, 605, 557, 555, 603, 606, 558
347, 556, 604, 587, 539, 557, 605, 607, 559
348, 557, 605, 607, 559, 558, 606, 608, 560
349, 539, 587, 588, 540, 559, 607, 609, 561
350, 559, 607, 609, 561, 560, 608, 610, 562
351, 540, 588, 594, 546, 561, 609, 611, 563
352, 561, 609, 611, 563, 562, 610, 612, 564
353, 546, 594, 613, 565, 563, 611, 614, 566
354, 563, 611, 614, 566, 564, 612, 615, 567
355, 565, 613, 616, 568, 566, 614, 617, 569
356, 566, 614, 617, 569, 567, 615, 618, 570
357, 568, 616, 619, 571, 569, 617, 620, 572
358, 569, 617, 620, 572, 570, 618, 621, 573
359, 571, 619, 622, 574, 572, 620, 623, 575
360, 572, 620, 623, 575, 573, 621, 624, 576
361, 577, 625, 626, 578, 579, 627, 628, 580
362, 579, 627, 628, 580, 581, 629, 630, 582
363, 581, 629, 630, 582, 583, 631, 632, 584
364, 583, 631, 632, 584, 585, 633, 634, 586
365, 585, 633, 634, 586, 587, 635, 636, 588
366, 578, 626, 637, 589, 580, 628, 638, 590
367, 580, 628, 638, 590, 582, 630, 639, 591
368, 582, 630, 639, 591, 584, 632, 640, 592
369, 584, 632, 640, 592, 586, 634, 641, 593
370, 586, 634, 641, 593, 588, 636, 642, 594
371, 595, 643, 644, 596, 597, 645, 646, 598
372, 597, 645, 646, 598, 599, 647, 648, 600
373, 596, 644, 649, 601, 598, 646, 650, 602
374, 598, 646, 650, 602, 600, 648, 651, 603
375, 601, 649, 652, 604, 602, 650, 653, 605
376, 602, 650, 653, 605, 603, 651, 654, 606
377, 604, 652, 635, 587, 605, 653, 655, 607
378, 605, 653, 655, 607, 606, 654, 656, 608
379, 587, 635, 636, 588, 607, 655, 657, 609
380, 607, 655, 657, 609, 608, 656, 658, 610
381, 588, 636, 642, 594, 609, 657, 659, 611
382, 609, 657, 659, 611, 610, 658, 660, 612
383, 594, 642, 661, 613, 611, 659, 662, 614
384, 611, 659, 662, 614, 612, 660, 663, 615
385, 613, 661, 664, 616, 614, 662, 665, 617
386, 614, 662, 665, 617, 615, 663, 666, 618
387, 616, 664, 667, 619, 617, 665, 668, 620
388, 617, 665, 668, 620, 618, 666, 669, 621
389, 619, 667, 670, 622, 620, 668, 671, 623
390, 620, 668, 671, 623, 621, 669, 672, 624
391, 625, 673, 674, 626, 627, 675, 676, 628
392, 627, 675, 676, 628, 629, 677, 678, 630
393, 629, 677, 678, 630, 631, 679, 680, 632
394, 631, 679, 680, 632, 633, 681, 682, 634
395, 633, 681, 682, 634, 635, 683, 684, 636
396, 626, 674, 685, 637, 628, 676, 686, 638
397, 628, 676, 686, 638, 630, 678, 687, 639
398, 630, 678, 687, 639, 632, 680, 688, 640
399, 632, 680, 688, 640, 634, 682, 689, 641
400, 634, 682, 689, 641, 636, 684, 690, 642
401, 643, 691, 692, 644, 645, 693, 694, 646
402, 645, 693, 694, 646, 647, 695, 696, 648
403, 644, 692, 697, 649, 646, 694, 698, 650
404, 646, 694, 698, 650, 648, 696, 699, 651
405, 649, 697, 700, 652, 650, 698, 701, 653
406, 650, 698, 701, 653, 651, 699, 702, 654
407, 652, 700, 683, 635, 653, 701, 703, 655
408, 653, 701, 703, 655, 654, 702, 704, 656
409, 635, 683, 684, 636, 655, 703, 705, 657
410, 655, 703, 705, 657, 656, 704, 706, 658
411, 636, 684, 690, 642, 657, 705, 707, 659
412, 657, 705, 707, 659, 658, 706, 708, 660
413, 642, 690, 709, 661, 659, 707, 710, 662
414, 659, 707, 710, 662, 660, 708, 711, 663
415, 661, 709, 712, 664, 662, 710, 713, 665
416, 662, 710, 713, 665, 663, 711, 714, 666
417, 664, 712, 715, 667, 665, 713, 716, 668
418, 665, 713, 716, 668, 666, 714, 717, 669
419, 667, 715, 718, 670, 668, 716, 719, 671
420, 668, 716, 719, 671, 669, 717, 720, 672
421, 673, 721, 722, 674, 675, 723, 724, 676
422, 675, 723, 724, 676, 677, 725, 726, 678
423, 677, 725, 726, 678, 679, 727, 728, 680
424, 679, 727, 728, 680, 681, 729, 730, 682
425, 681, 729, 730, 682, 683, 731, 732, 684
426, 674, 722, 733, 685, 676, 724, 734, 686
427, 676, 724, 734, 686, 678, 726, 735, 687
428, 678, 726, 735, 687, 680, 728, 736, 688
429, 680, 728, 736, 688, 682, 730, 737, 689
430, 682, 730, 737, 689, 684, 732, 738, 690
431, 691, 739, 740, 692, 693, 741, 742, 694
432, 693, 741, 742, 694, 695, 743, 744, 696
433, 692, 740, 745, 697, 694, 742, 746, 698
434, 694, 742, 746, 698, 696, 744, 747, 699
435, 697, 745, 748, 700, 698, 746, 749, 701
436, 698, 746, 749, 701, 699, 747, 750, 702
437, 700, 748, 731, 683, 701, 749, 751, 703
438, 701, 749, 751, 703, 702, 750, 752, 704
439, 683, 731, 732, 684, 703, 751, 753, 705
440, 703, 751, 753, 705, 704, 752, 754, 706
441, 684, 732, 738, 690, 705, 753, 755, 707
442, 705, 753, 755, 707, 706, 754, 756, 708
443, 690, 738, 757, 709, 707, 755, 758, 710
444, 707, 755, 758, 710, 708, 756, 759, 711
445, 709, 757, 760, 712, 710, 758, 761, 713
446, 710, 758, 761, 713, 711, 759, 762, 714
447, 712, 760, 763, 715, 713, 761, 764, 716
448, 713, 761, 764, 716, 714, 762, 765, 717
449, 715, 763, 766, 718, 716, 764, 767, 719
450, 716, 764, 767, 719, 717, 765, 768, 720
451, 721, 769, 770, 722, 723, 771, 772, 724
452, 723, 771, 772, 724, 725, 773, 774, 726
453, 725, 773, 774, 726, 727, 775, 776, 728
454, 727, 775, 776, 728, 729, 777, 778, 730
455, 729, 777, 778, 730, 731, 779, 780, 732
456, 722, 770, 781, 733, 724, 772, 782, 734
457, 724, 772, 782, 734, 726, 774, 783, 735
458, 726, 774, 783, 735, 728, 776, 784, 736
459, 728, 776, 784, 736, 730, 778, 785, 737
460, 730, 778, 785, 737, 732, 780, 786, 738
461, 739, 787, 788, 740, 741, 789, 790, 742
462, 741, 789, 790, 742, 743, 791, 792, 744
463, 740, 788, 793, 745, 742, 790, 794, 746
464, 742, 790, 794, 746, 744, 792, 795, 747
465, 745, 793, 796, 748, 746, 794, 797, 749
466, 746, 794, 797, 749, 747, 795, 798, 750
467, 748, 796, 779, 731, 749, 797, 799, 751
468, 749, 797, 799, 751, 750, 798, 800, 752
469, 731, 779, 780, 732, 751, 799, 801, 753
470, 751, 799, 801, 753, 752, 800, 802, 754
471, 732, 780, 786, 738, 753, 801, 803, 755
472, 753, 801, 803, 755, 754, 802, 804, 756
473, 738, 786, 805, 757, 755, 803, 806, 758
474, 755, 803, 806, 758, 756, 804, 807, 759
475, 757, 805, 808, 760, 758, 806, 809, 761
476, 758, 806, 809, 761, 759, 807, 810, 762
477, 760, 808, 811, 763, 761, 809, 812, 764
478, 761, 809, 812, 764, 762, 810, 813, 765
479, 763, 811, 814, 766, 764, 812, 815, 767
480, 764, 812, 815, 767, 765, 813, 816, 768
481, 769, 817, 818, 770, 771, 819, 820, 772
482, 771, 819, 820, 772, 773, 821, 822, 774
483, 773, 821, 822, 774, 775, 823, 824, 776
484, 775, 823, 824, 776, 777, 825, 826, 778
485, 777, 825, 826, 778, 779, 827, 828, 780
486, 770, 818, 829, 781, 772, 820, 830, 782
487, 772, 820, 830, 782, 774, 822, 831, 783
488, 774, 822, 831, 783, 776, 824, 832, 784
489, 776, 824, 832, 784, 778, 826, 833, 785
490, 778, 826, 833, 785, 780, 828, 834, 786
491, 787, 835, 836, 788, 789, 837, 838, 790
492, 789, 837, 838, 790, 791, 839, 840, 792
493, 788, 836, 841, 793, 790, 838, 842, 794
494, 790, 838, 842, 794, 792, 840, 843, 795
495, 793, 841, 844, 796, 794, 842, 845, 797
496, 794, 842, 845, 797, 795, 843, 846, 798
497, 796, 844, 827, 779, 797, 845, 847, 799
498, 797, 845, 847, 799, 798, 846, 848, 800
499, 779, 827, 828, 780, 799, 847, 849, 801
500, 799, 847, 849, 801, 800, 848, 850, 802
501, 780, 828, 834, 786, 801, 849, 851, 803
502, 801, 849, 851, 803, 802, 850, 852, 804
503, 786, 834, 853, 805, 803, 851, 854, 806
504, 803, 851, 854, 806, 804, 852, 855, 807
505, 805, 853, 856, 808, 806, 854, 857, 809
506, 806, 854, 857, 809, 807, 855, 858, 810
507, 808, 856, 859, 811, 809, 857, 860, 812
508, 809, 857, 860, 812, 810, 858, 861, 813
509, 811, 859, 862, 814, 812, 860, 863, 815
510, 812, 860, 863, 815, 813, 861, 864, 816
511, 817, 865, 866, 818, 819, 867, 868, 820
512, 819, 867, 868, 820, 821, 869, 870, 822
513, 821, 869, 870, 822, 823, 871, 872, 824
514, 823, 871, 872, 824, 825, 873, 874, 826
515, 825, 873, 874, 826, 827, 875, 876, 828
516, 818, 866, 877, 829, 820, 868, 878, 830
517, 820, 868, 878, 830, 822, 870, 879, 831
518, 822, 870, 879, 831, 824, 872, 880, 832
519, 824, 872, 880, 832, 826, 874, 881, 833
520, 826, 874, 881, 833, 828, 876, 882, 834
521, 835, 883, 884, 836, 837, 885, 886, 838
522, 837, 885, 886, 838, 839, 887, 888, 840
523, 836, 884, 889, 841, 838, 886, 890, 842
524, 838, 886, 890, 842, 840, 888, 891, 843
525, 841, 889, 892, 844, 842, 890, 893, 845
526, 842, 890, 893, 845, 843, 891, 894, 846
527, 844, 892, 875, 827, 845, 893, 895, 847
528, 845, 893, 895, 847, 846, 894, 896, 848
529, 827, 875, 876, 828, 847, 895, 897, 849
530, 847, 895, 897, 849, 848, 896, 898, 850
531, 828, 876, 882, 834, 849, 897, 899, 851
532, 849, 897, 899, 851, 850, 898, 900, 852
533, 834, 882, 901, 853, 851, 899, 902, 854
534, 851, 899, 902, 854, 852, 900, 903, 855
535, 853, 901, 904, 856, 854, 902, 905, 857
536, 854, 902, 905, 857, 855, 903, 906, 858
537, 856, 904, 907, 859, 857, 905, 908, 860
538, 857, 905, 908, 860, 858, 906, 909, 861
539, 859, 907, 910, 862, 860, 908, 911, 863
540, 860, 908, 911, 863, 861, 909, 912, 864
541, 865, 913, 914, 866, 867, 915, 916, 868
542, 867, 915, 916, 868, 869, 917, 918, 870
543, 869, 917, 918, 870, 871, 919, 920, 872
544, 871, 919, 920, 872, 873, 921, 922, 874
545, 873, 921, 922, 874, 875, 923, 924, 876
546, 866, 914, 925, 877, 868, 916, 926, 878
547, 868, 916, 926, 878, 870, 918, 927, 879
548, 870, 918, 927, 879, 872, 920, 928, 880
549, 872, 920, 928, 880, 874, 922, 929, 881
550, 874, 922, 929, 881, 876, 924, 930, 882
551, 883, 931, 932, 884, 885, 933, 934, 886
552, 885, 933, 934, 886, 887, 935, 936, 888
553, 884, 932, 937, 889, 886, 934, 938, 890
554, 886, 934, 938, 890, 888, 936, 939, 891
555, 889, 937, 940, 892, 890, 938, 941, 893
556, 890, 938, 941, 893, 891, 939, 942, 894
557, 892, 940, 923, 875, 893, 941, 943, 895
558, 893, 941, 943, 895, 894, 942, 944, 896
559, 875, 923, 924, 876, 895, 943, 945, 897
560, 895, 943, 945, 897, 896, 944, 946, 898
561, 876, 924, 930, 882, 897, 945, 947, 899
562, 897, 945, 947, 899, 898, 946, 948, 900
563, 882, 930, 949, 901, 899, 947, 950, 902
564, 899, 947, 950, 902, 900, 948, 951, 903
565, 901, 949, 952, 904, 902, 950, 953, 905
566, 902, 950, 953, 905, 903, 951, 954, 906
567, 904, 952, 955, 907, 905, 953, 956, 908
568, 905, 953, 956, 908, 906, 954, 957, 909
569, 907, 955, 958, 910, 908, 956, 959, 911
570, 908, 956, 959, 911, 909, 957, 960, 912
571, 913, 961, 962, 914, 915, 963, 964, 916
572, 915, 963, 964, 916, 917, 965, 966, 918
573, 917, 965, 966, 918, 919, 967, 968, 920
574, 919, 967, 968, 920, 921, 969, 970, 922
575, 921, 969, 970, 922, 923, 971, 972, 924
576, 914, 962, 973, 925, 916, 964, 974, 926
577, 916, 964, 974, 926, 918, 966, 975, 927
578, 918, 966, 975, 927, 920, 968, 976, 928
579, 920, 968, 976, 928, 922, 970, 977, 929
580, 922, 970, 977, 929, 924, 972, 978, 930
581, 931, 979, 980, 932, 933, 981, 982, 934
582, 933, 981, 982, 934, 935, 983, 984, 936
583, 932, 980, 985, 937, 934, 982, 986, 938
584, 934, 982, 986, 938, 936, 984, 987, 939
585, 937, 985, 988, 940, 938, 986, 989, 941
586, 938, 986, 989, 941, 939, 987, 990, 942
587, 940, 988, 971, 923, 941, 989, 991, 943
588, 941, 989, 991, 943, 942, 990, 992, 944
589, 923, 971, 972, 924, 943, 991, 993, 945
590, 943, 991, 993, 945, 944, 992, 994, 946
591, 924, 972, 978, 930, 945, 993, 995, 947
592, 945, 993, 995, 947, 946, 994, 996, 948
593, 930, 978, 997, 949, 947, 995, 998, 950
594, 947, 995, 998, 950, 948, 996, 999, 951
595, 949, 997, 1000, 952, 950, 998, 1001, 953
596, 950, 998, 1001, 953, 951, 999, 1002, 954
597, 952, 1000, 1003, 955, 953, 1001, 1004, 956
598, 953, 1001, 1004, 956, 954, 1002, 1005, 957
599, 955, 1003, 1006, 958, 956, 1004, 1007, 959
600, 956, 1004, 1007, 959, 957, 1005, 1008, 960
601, 961, 1009, 1010, 962, 963, 1011, 1012, 964
602, 963, 1011, 1012, 964, 965, 1013, 1014, 966
603, 965, 1013, 1014, 966, 967, 1015, 1016, 968
604, 967, 1015, 1016, 968, 969, 1017, 1018, 970
605, 969, 1017, 1018, 970, 971, 1019, 1020, 972
606, 962, 1010, 1021, 973, 964, 1012, 1022, 974
607, 964, 1012, 1022, 974, 966, 1014, 1023, 975
608, 966, 1014, 1023, 975, 968, 1016, 1024, 976
609, 968, 1016, 1024, 976, 970, 1018, 1025, 977
610, 970, 1018, 1025, 977, 972, 1020, 1026, 978
611, 979, 1027, 1028, 980, 981, 1029, 1030, 982
612, 981, 1029, 1030, 982, 983, 1031, 1032, 984
613, 980, 1028, 1033, 985, 982, 1030, 1034, 986
614, 982, 1030, 1034, 986, 984, 1032, 1035, 987
615, 985, 1033, 1036, 988, 986, 1034, 1037, 989
616, 986, 1034, 1037, 989, 987, 1035, 1038, 990
617, 988, 1036, 1019, 971, 989, 1037, 1039, 991
618, 989, 1037, 1039, 991, 990, 1038, 1040, 992
619, 971, 1019, 1020, 972, 991, 1039, 1041, 993
620, 991, 1039, 1041, 993, 992, 1040, 1042, 994
621, 972, 1020, 1026, 978, 993, 1041, 1043, 995
622, 993, 1041, 1043, 995, 994, 1042, 1044, 996
623, 978, 1026, 1045, 997, 995, 1043, 1046, 998
624, 995, 1043, 1046, 998, 996, 1044, 1047, 999
625, 997, 1045, 1048, 1000, 998, 1046, 1049, 1001
626, 998, 1046, 1049, 1001, 999, 1047, 1050, 1002
627, 1000, 1048, 1051, 1003, 1001, 1049, 1052, 1004
628, 1001, 1049, 1052, 1004, 1002, 1050, 1053, 1005
629, 1003, 1051, 1054, 1006, 1004, 1052, 1055, 1007
630, 1004, 1052, 1055, 1007, 1005, 1053, 1056, 1008
631, 1009, 1057, 1058, 1010, 1011, 1059, 1060, 1012
632, 1011, 1059, 1060, 1012, 1013, 1061, 1062, 1014
633, 1013, 1061, 1062, 1014, 1015, 1063, 1064, 1016
634, 1015, 1063, 1064, 1016, 1017, 1065, 1066, 1018
635, 1017, 1065, 1066, 1018, 1019, 1067, 1068, 1020
636, 1010, 1058, 1069, 1021, 1012, 1060, 1070, 1022
637, 1012, 1060, 1070, 1022, 1014, 1062, 1071, 1023
638, 1014, 1062, 1071, 1023, 1016, 1064, 1072, 1024
639, 1016, 1064, 1072, 1024, 1018, 1066, 1073, 1025
640, 1018, 1066, 1073, 1025, 1020, 1068, 1074, 1026
641, 1027, 1075, 1076, 1028, 1029, 1077, 1078, 1030
642, 1029, 1077, 1078, 1030, 1031, 1079, 1080, 1032
643, 1028, 1076, 1081, 1033, 1030, 1078, 1082, 1034
644, 1030, 1078, 1082, 1034, 1032, 1080, 1083, 1035
645, 1033, 1081, 1084, 1036, 1034, 1082, 1085, 1037
646, 1034, 1082, 1085, 1037, 1035, 1083, 1086, 1038
647, 1036, 1084, 1067, 1019, 1037, 1085, 1087, 1039
648, 1037, 1085, 1087, 1039, 1038, 1086, 1088, 1040
649, 1019, 1067, 1068, 1020, 1039, 1087, 1089, 1041
650, 1039, 1087, 1089, 1041, 1040, 1088, 1090, 1042
651, 1020, 1068, 1074, 1026, 1041, 1089, 1091, 1043
652, 1041, 1089, 1091, 1043, 1042, 1090, 1092, 1044
653, 1026, 1074, 1093, 1045, 1043, 1091, 1094, 1046
654, 1043, 1091, 1094, 1046, 1044, 1092, 1095, 1047
655, 1045, 1093, 1096, 1048, 1046, 1094, 1097, 1049
656, 1046, 1094, 1097, 1049, 1047, 1095, 1098, 1050
657, 1048, 1096, 1099, 1051, 1049, 1097, 1100, 1052
658, 1049, 1097, 1100, 1052, 1050, 1098, 1101, 1053
659, 1051, 1099, 1102, 1054, 1052, 1100, 1103, 1055
660, 1052, 1100, 1103, 1055, 1053, 1101, 1104, 1056
661, 1057, 1105, 1106, 1058, 1059, 1107, 1108, 1060
662, 1059, 1107, 1108, 1060, 1061, 1109, 1110, 1062
663, 1061, 1109, 1110, 1062, 1063, 1111, 1112, 1064
664, 1063, 1111, 1112, 1064, 1065, 1113, 1114, 1066
665, 1065, 1113, 1114, 1066, 1067, 1115, 1116, 1068
666, 1058, 1106, 1117, 1069, 1060, 1108, 1118, 1070
667, 1060, 1108, 1118, 1070, 1062, 1110, 1119, 1071
668, 1062, 1110, 1119, 1071, 1064, 1112, 1120, 1072
669, 1064, 1112, 1120, 1072, 1066, 1114, 1121, 1073
670, 1066, 1114, 1121, 1073, 1068, 1116, 1122, 1074
671, 1075, 1123, 1124, 1076, 1077, 1125, 1126, 1078
672, 1077, 1125, 1126, 1078, 1079, 1127, 1128, 1080
673, 1076, 1124, 1129, 1081, 1078, 1126, 1130, 1082
674, 1078, 1126, 1130, 1082, 1080, 1128, 1131, 1083
675, 1081, 1129, 1132, 1084, 1082, 1130, 1133, 1085
676, 1082, 1130, 1133, 1085, 1083, 1131, 1134, 1086
677, 1084, 1132, 1115, 1067, 1085, 1133, 1135, 1087
678, 1085, 1133, 1135, 1087, 1086, 1134, 1136, 1088
679, 1067, 1115, 1116, 1068, 1087, 1135, 1137, 1089
680, 1087, 1135, 1137, 1089, 1088, 1136, 1138, 1090
681, 1068, 1116, 1122, 1074, 1089, 1137, 1139, 1091
682, 1089, 1137, 1139, 1091, 1090, 1138, 1140, 1092
683, 1074, 1122, 1141, 1093, 1091, 1139, 1142, 1094
684, 1091, 1139, 1142, 1094, 1092, 1140, 1143, 1095
685, 1093, 1141, 1144, 1096, 1094, 1142, 1145, 1097
686, 1094, 1142, 1145, 1097, 1095, 1143, 1146, 1098
687, 1096, 1144, 1147, 1099, 1097, 1145, 1148, 1100
688, 1097, 1145, 1148, 1100, 1098, 1146, 1149, 1101
689, 1099, 1147, 1150, 1102, 1100, 1148, 1151, 1103
690, 1100, 1148, 1151, 1103, 1101, 1149, 1152, 1104
691, 1105, 1153, 1154, 1106, 1107, 1155, 1156, 1108
692, 1107, 1155, 1156, 1108, 1109, 1157, 1158, 1110
693, 1109, 1157, 1158, 1110, 1111, 1159, 1160, 1112
694, 1111, 1159, 1160, 1112, 1113, 1161, 1162, 1114
695, 1113, 1161, 1162, 1114, 1115, 1163, 1164, 1116
696, 1106, 1154, 1165, 1117, 1108, 1156, 1166, 1118
697, 1108, 1156, 1166, 1118, 1110, 1158, 1167, 1119
698, 1110, 1158, 1167, 1119, 1112, 1160, 1168, 1120
699, 1112, 1160, 1168, 1120, 1114, 1162, 1169, 1121
700, 1114, 1162, 1169, 1121, 1116, 1164, 1170, 1122
701, 1123, 1171, 1172, 1124, 1125, 1173, 1174, 1126
702, 1125, 1173, 1174, 1126, 1127, 1175, 1176, 1128
703, 1124, 1172, 1177, 1129, 1126, 1174, 1178, 1130
704, 1126, 1174, 1178, 1130, 1128, 1176, 1179, 1131
705, 1129, 1177, 1180, 1132, 1130, 1178, 1181, 1133
706, 1130, 1178, 1181, 1133, 1131, 1179, 1182, 1134
707, 1132, 1180, 1163, 1115, 1133, 1181, 1183, 1135
708, 1133, 1181, 1183, 1135, 1134, 1182, 1184, 1136
709, 1115, 1163, 1164, 1116, 1135, 1183, 1185, 1137
710, 1135, 1183, 1185, 1137, 1136, 1184, 1186, 1138
711, 1116, 1164, 1170, 1122, 1137, 1185, 1187, 1139
712, 1137, 1185, 1187, 1139, 1138, 1186, 1188, 1140
713, 1122, 1170, 1189, 1141, 1139, 1187, 1190, 1142
714, 1139, 1187, 1190, 1142, 1140, 1188, 1191, 1143
715, 1141, 1189, 1192, 1144, 1142, 1190, 1193, 1145
716, 1142, 1190, 1193, 1145, 1143, 1191, 1194, 1146
717, 1144, 1192, 1195, 1147, 1145, 1193, 1196, 1148
718, 1145, 1193, 1196, 1148, 1146, 1194, 1197, 1149
719, 1147, 1195, 1198, 1150, 1148, 1196, 1199, 1151
720, 1148, 1196, 1199, 1151, 1149, 1197, 1200, 1152
721, 1153, 1201, 1202, 1154, 1155, 1203, 1204, 1156
722, 1155, 1203, 1204, 1156, 1157, 1205, 1206, 1158
723, 1157, 1205, 1206, 1158, 1159, 1207, 1208, 1160
724, 1159, 1207, 1208, 1160, 1161, 1209, 1210, 1162
725, 1161, 1209, 1210, 1162, 1163, 1211, 1212, 1164
726, 1154, 1202, 1213, 1165, 1156, 1204, 1214, 1166
727, 1156, 1204, 1214, 1166, 1158, 1206, 1215, 1167
728, 1158, 1206, 1215, 1167, 1160, 1208, 1216, 1168
729, 1160, 1208, 1216, 1168, 1162, 1210, 1217, 1169
730, 1162, 1210, 1217, 1169, 1164, 1212, 1218, 1170
731, 1171, 1219, 1220, 1172, 1173, 1221, 1222, 1174
732, 1173, 1221, 1222, 1174, 1175, 1223, 1224, 1176
733, 1172, 1220, 1225, 1177, 1174, 1222, 1226, 1178
734, 1174, 1222, 1226, 1178, 1176, 1224, 1227, 1179
735, 1177, 1225, 1228, 1180, 1178, 1226, 1229, 1181
736, 1178, 1226, 1229, 1181, 1179, 1227, 1230, 1182
737, 1180, 1228, 1211, 1163, 1181, 1229, 1231, 1183
738, 1181, 1229, 1231, 1183, 1182, 1230, 1232, 1184
739, 1163, 1211, 1212, 1164, 1183, 1231, 1233, 1185
740, 1183, 1231, 1233, 1185, 1184, 1232, 1234, 1186
741, 1164, 1212, 1218, 1170, 1185, 1233, 1235, 1187
742, 1185, 1233, 1235, 1187, 1186, 1234, 1236, 1188
743, 1170, 1218, 1237, 1189, 1187, 1235, 1238, 1190
744, 1187, 1235, 1238, 1190, 1188, 1236, 1239, 1191
745, 1189, 1237, 1240, 1192, 1190, 1238, 1241, 1193
746, 1190, 1238, 1241, 1193, 1191, 1239, 1242, 1194
747, 1192, 1240, 1243, 1195, 1193, 1241, 1244, 1196
748, 1193, 1241, 1244, 1196, 1194, 1242, 1245, 1197
749, 1195, 1243, 1246, 1198, 1196, 1244, 1247, 1199
750, 1196, 1244, 1247, 1199, 1197, 1245, 1248, 1200
751, 1201, 1249, 1250, 1202, 1203, 1251, 1252, 1204
752, 1203, 1251, 1252, 1204, 1205, 1253, 1254, 1206
753, 1205, 1253, 1254, 1206, 1207, 1255, 1256, 1208
754, 1207, 1255, 1256, 1208, 1209, 1257, 1258, 1210
755, 1209, 1257, 1258, 1210, 1211, 1259, 1260, 1212
756, 1202, 1250, 1261, 1213, 1204, 1252, 1262, 1214
757, 1204, 1252, 1262, 1214, 1206, 1254, 1263, 1215
758, 1206, 1254, 1263, 1215, 1208, 1256, 1264, 1216
759, 1208, 1256, 1264, 1216, 1210, 1258, 1265, 1217
760, 1210, 1258, 1265, 1217, 1212, 1260, 1266, 1218
761, 1219, 1267, 1268, 1220, 1221, 1269, 1270, 1222
762, 1221, 1269, 1270, 1222, 1223, 1271, 1272, 1224
763, 1220, 1268, 1273, 1225, 1222, 1270, 1274, 1226
764, 1222, 1270, 1274, 1226, 1224, 1272, 1275, 1227
765, 1225, 1273, 1276, 1228, 1226, 1274, 1277, 1229
766, 1226, 1274, 1277, 1229, 1227, 1275, 1278, 1230
767, 1228, 1276, 1259, 1211, 1229, 1277, 1279, 1231
768, 1229, 1277, 1279, 1231, 1230, 1278, 1280, 1232
769, 1211, 1259, 1260, 1212, 1231, 1279, 1281, 1233
770, 1231, 1279, 1281, 1233, 1232, 1280, 1282, 1234
771, 1212, 1260, 1266, 1218, 1233, 1281, 1283, 1235
772, 1233, 1281, 1283, 1235, 1234, 1282, 1284, 1236
773, 1218, 1266, 1285, 1237, 1235, 1283, 1286, 1238
774, 1235, 1283, 1286, 1238, 1236, 1284, 1287, 1239
775, 1237, 1285, 1288, 1240, 1238, 1286, 1289, 1241
776, 1238, 1286, 1289, 1241, 1239, 1287, 1290, 1242
777, 1240, 1288, 1291, 1243, 1241, 1289, 1292, 1244
778, 1241, 1289, 1292, 1244, 1242, 1290, 1293, 1245
779, 1243, 1291, 1294, 1246, 1244, 1292, 1295, 1247
780, 1244, 1292, 1295, 1247, 1245, 1293, 1296, 1248
781, 1249, 1297, 1298, 1250, 1251, 1299, 1300, 1252
782, 1251, 1299, 1300, 1252, 1253, 1301, 1302, 1254
783, 1253, 1301, 1302, 1254, 1255, 1303, 1304, 1256
784, 1255, 1303, 1304, 1256, 1257, 1305, 1306, 1258
785, 1257, 1305, 1306, 1258, 1259, 1307, 1308, 1260
786, 1250, 1298, 1309, 1261, 1252, 1300, 1310, 1262
787, 1252, 1300, 1310, 1262, 1254, 1302, 1311, 1263
788, 1254, 1302, 1311, 1263, 1256, 1304, 1312, 1264
789, 1256, 1304, 1312, 1264, 1258, 1306, 1313, 1265
790, 1258, 1306, 1313, 1265, 1260, 1308, 1314, 1266
791, 1267, 1315, 1316, 1268, 1269, 1317, 1318, 1270
792, 1269, 1317, 1318, 1270, 1271, 1319, 1320, 1272
793, 1268, 1316, 1321, 1273, 1270, 1318, 1322, 1274
794, 1270, 1318, 1322, 1274, 1272, 1320, 1323, 1275
795, 1273, 1321, 1324, 1276, 1274, 1322, 1325, 1277
796, 1274, 1322, 1325, 1277, 1275, 1323, 1326, 1278
797, 1276, 1324, 1307, 1259, 1277, 1325, 1327, 1279
798, 1277, 1325, 1327, 1279, 1278, 1326, 1328, 1280
799, 1259, 1307, 1308, 1260, 1279, 1327, 1329, 1281
800, 1279, 1327, 1329, 1281, 1280, 1328, 1330, 1282
801, 1260, 1308, 1314, 1266, 1281, 1329, 1331, 1283
802, 1281, 1329, 1331, 1283, 1282, 1330, 1332, 1284
803, 1266, 1314, 1333, 1285, 1283, 1331, 1334, 1286
804, 1283, 1331, 1334, 1286, 1284, 1332, 1335, 1287
805, 1285, 1333, 1336, 1288, 1286, 1334, 1337, 1289
806, 1286, 1334, 1337, 1289, 1287, 1335, 1338, 1290
807, 1288, 1336, 1339, 1291, 1289, 1337, 1340, 1292
808, 1289, 1337, 1340, 1292, 1290, 1338, 1341, 1293
809, 1291, 1339, 1342, 1294, 1292, 1340, 1343, 1295
810, 1292, 1340, 1343, 1295, 1293, 1341, 1344, 1296
811, 1297, 1345, 1346, 1298, 1299, 1347, 1348, 1300
812, 1299, 1347, 1348, 1300, 1301, 1349, 1350, 1302
813, 1301, 1349, 1350, 1302, 1303, 1351, 1352, 1304
814, 1303, 1351, 1352, 1304, 1305, 1353, 1354, 1306
815, 1305, 1353, 1354, 1306, 1307, 1355, 1356, 1308
816, 1298, 1346, 1357, 1309, 1300, 1348, 1358, 1310
817, 1300, 1348, 1358, 1310, 1302, 1350, 1359, 1311
818, 1302, 1350, 1359, 1311, 1304, 1352, 1360, 1312
819, 1304, 1352, 1360, 1312, 1306, 1354, 1361, 1313
820, 1306, 1354, 1361, 1313, 1308, 1356, 1362, 1314
821, 1315, 1363, 1364, 1316, 1317, 1365, 1366, 1318
822, 1317, 1365, 1366, 1318, 1319, 1367, 1368, 1320
823, 1316, 1364, 1369, 1321, 1318, 1366, 1370, 1322
824, 1318, 1366, 1370, 1322, 1320, 1368, 1371, 1323
825, 1321, 1369, 1372, 1324, 1322, 1370, 1373, 1325
826, 1322, 1370, 1373, 1325, 1323, 1371, 1374, 1326
827, 1324, 1372, 1355, 1307, 1325, 1373, 1375, 1327
828, 1325, 1373, 1375, 1327, 1326, 1374, 1376, 1328
829, 1307, 1355, 1356, 1308, 1327, 1375, 1377, 1329
830, 1327, 1375, 1377, 1329, 1328, 1376, 1378, 1330
831, 1308, 1356, 1362, 1314, 1329, 1377, 1379, 1331
832, 1329, 1377, 1379, 1331, 1330, 1378, 1380, 1332
833, 1314, 1362, 1381, 1333, 1331, 1379, 1382, 1334
834, 1331, 1379, 1382, 1334, 1332, 1380, 1383, 1335
835, 1333, 1381, 1384, 1336, 1334, 1382, 1385, 1337
836, 1334, 1382, 1385, 1337, 1335, 1383, 1386, 1338
837, 1336, 1384, 1387, 1339, 1337, 1385, 1388, 1340
838, 1337, 1385, 1388, 1340, 1338, 1386, 1389, 1341
839, 1339, 1387, 1390, 1342, 1340, 1388, 1391, 1343
840, 1340, 1388, 1391, 1343, 1341, 1389, 1392, 1344
841, 1345, 1393, 1394, 1346, 1347, 1395, 1396, 1348
842, 1347, 1395, 1396, 1348, 1349, 1397, 1398, 1350
843, 1349, 1397, 1398, 1350, 1351, 1399, 1400, 1352
844, 1351, 1399, 1400, 1352, 1353, 1401, 1402, 1354
845, 1353, 1401, 1402, 1354, 1355, 1403, 1404, 1356
846, 1346, 1394, 1405, 1357, 1348, 1396, 1406, 1358
847, 1348, 1396, 1406, 1358, 1350, 1398, 1407, 1359
848, 1350, 1398, 1407, 1359, 1352, 1400, 1408, 1360
849, 1352, 1400, 1408, 1360, 1354, 1402, 1409, 1361
850, 1354, 1402, 1409, 1361, 1356, 1404, 1410, 1362
851, 1363, 1411, 1412, 1364, 1365, 1413, 1414, 1366
852, 1365, 1413, 1414, 1366, 1367, 1415, 1416, 1368
853, 1364, 1412, 1417, 1369, 1366, 1414, 1418, 1370
854, 1366, 1414, 1418, 1370, 1368, 1416, 1419, 1371
855, 1369, 1417, 1420, 1372, 1370, 1418, 1421, 1373
856, 1370, 1418, 1421, 1373, 1371, 1419, 1422, 1374
857, 1372, 1420, 1403, 1355, 1373, 1421, 1423, 1375
858, 1373, 1421, 1423, 1375, 1374, 1422, 1424, 1376
859, 1355, 1403, 1404, 1356, 1375, 1423, 1425, 1377
860, 1375, 1423, 1425, 1377, 1376, 1424, 1426, 1378
861, 1356, 1404, 1410, 1362, 1377, 1425, 1427, 1379
862, 1377, 1425, 1427, 1379, 1378, 1426, 1428, 1380
863, 1362, 1410, 1429, 1381, 1379, 1427, 1430, 1382
864, 1379, 1427, 1430, 1382, 1380, 1428, 1431, 1383
865, 1381, 1429, 1432, 1384, 1382, 1430, 1433, 1385
866, 1382, 1430, 1433, 1385, 1383, 1431, 1434, 1386
867, 1384, 1432, 1435, 1387, 1385, 1433, 1436, 1388
868, 1385, 1433, 1436, 1388, 1386, 1434, 1437, 1389
869, 1387, 1435, 1438, 1390, 1388, 1436, 1439, 1391
870, 1388, 1436, 1439, 1391, 1389, 1437, 1440, 1392
*NSET, NSET=CLAMP
1, 4, 5, 8, 9, 12, 13, 16, 17, 20, 21, 24, 26, 28, 30, 32
34, 36, 37, 40, 41, 44, 45, 48, 50, 52, 54, 56, 58, 60, 62, 64
66, 68, 70, 72, 74, 76, 78, 80, 82, 84, 86, 88, 90, 92, 94, 96
*NSET, NSET=TIP_TOP
1415, 1416, 1419, 1422, 1424, 1426, 1428, 1431, 1434, 1437, 1440
*NSET, NSET=TIP_FLANGE
1415, 1416, 1419, 1422, 1424, 1426, 1428, 1431, 1434, 1437, 1440
*MATERIAL, NAME=STEEL
*ELASTIC
210000, 0.3
*DENSITY
7.85e-09
*SOLID SECTION, ELSET=EALL, MATERIAL=STEEL
*BOUNDARY
CLAMP, 1, 3, 0.0
*AMPLITUDE, NAME=PULSE
0, 0, 0.004, 1, 0.02, 0, 0.05, 0
*STEP, NLGEOM, INC=80
*DYNAMIC
5.0e-4, 0.050, 1.0e-6, 2.0e-3
*CLOAD, AMPLITUDE=PULSE
1415, 3, -2727.27272727
1416, 3, -2727.27272727
1419, 3, -2727.27272727
1422, 3, -2727.27272727
1424, 3, -2727.27272727
1426, 3, -2727.27272727
1428, 3, -2727.27272727
1431, 3, -2727.27272727
1434, 3, -2727.27272727
1437, 3, -2727.27272727
1440, 3, -2727.27272727
*NODE FILE, FREQUENCY=5
U
*EL FILE, FREQUENCY=5
S, ENER
*NODE PRINT, NSET=TIP_TOP
U
*NODE PRINT, NSET=CLAMP
RF
*EL PRINT, ELSET=EALL
ELSE
*ENERGY PRINT
*END STEP
