*HEADING
Normalized cross-passage space-truss torsion benchmark
*NODE
1,-1.200000000000e+00,0.000000000000e+00,0.000000000000e+00
2,1.200000000000e+00,0.000000000000e+00,0.000000000000e+00
3,-1.200000000000e+00,0.000000000000e+00,2.000000000000e+00
4,1.200000000000e+00,0.000000000000e+00,2.000000000000e+00
5,-1.200000000000e+00,1.000000000000e+01,0.000000000000e+00
6,1.200000000000e+00,1.000000000000e+01,0.000000000000e+00
7,-1.200000000000e+00,1.000000000000e+01,2.000000000000e+00
8,1.200000000000e+00,1.000000000000e+01,2.000000000000e+00
9,-1.200000000000e+00,2.000000000000e+01,0.000000000000e+00
10,1.200000000000e+00,2.000000000000e+01,0.000000000000e+00
11,-1.200000000000e+00,2.000000000000e+01,2.000000000000e+00
12,1.200000000000e+00,2.000000000000e+01,2.000000000000e+00
13,-1.200000000000e+00,3.000000000000e+01,0.000000000000e+00
14,1.200000000000e+00,3.000000000000e+01,0.000000000000e+00
15,-1.200000000000e+00,3.000000000000e+01,2.000000000000e+00
16,1.200000000000e+00,3.000000000000e+01,2.000000000000e+00
17,-1.200000000000e+00,4.000000000000e+01,0.000000000000e+00
18,1.200000000000e+00,4.000000000000e+01,0.000000000000e+00
19,-1.200000000000e+00,4.000000000000e+01,2.000000000000e+00
20,1.200000000000e+00,4.000000000000e+01,2.000000000000e+00
21,-1.200000000000e+00,5.000000000000e+01,0.000000000000e+00
22,1.200000000000e+00,5.000000000000e+01,0.000000000000e+00
23,-1.200000000000e+00,5.000000000000e+01,2.000000000000e+00
24,1.200000000000e+00,5.000000000000e+01,2.000000000000e+00
25,-1.200000000000e+00,5.000000000000e+00,-1.500000000000e-01
26,1.200000000000e+00,5.000000000000e+00,1.500000000000e-01
27,-1.200000000000e+00,5.000000000000e+00,1.850000000000e+00
28,1.200000000000e+00,5.000000000000e+00,2.150000000000e+00
29,-1.200000000000e+00,1.250000000000e+01,-1.060660171780e-01
30,-1.200000000000e+00,1.500000000000e+01,-1.500000000000e-01
31,-1.200000000000e+00,1.750000000000e+01,-1.060660171780e-01
32,1.200000000000e+00,1.250000000000e+01,1.060660171780e-01
33,1.200000000000e+00,1.500000000000e+01,1.500000000000e-01
34,1.200000000000e+00,1.750000000000e+01,1.060660171780e-01
35,-1.200000000000e+00,1.250000000000e+01,1.893933982822e+00
36,-1.200000000000e+00,1.500000000000e+01,1.850000000000e+00
37,-1.200000000000e+00,1.750000000000e+01,1.893933982822e+00
38,1.200000000000e+00,1.250000000000e+01,2.106066017178e+00
39,1.200000000000e+00,1.500000000000e+01,2.150000000000e+00
40,1.200000000000e+00,1.750000000000e+01,2.106066017178e+00
41,-1.200000000000e+00,2.500000000000e+01,-1.500000000000e-01
42,1.200000000000e+00,2.500000000000e+01,1.500000000000e-01
43,-1.200000000000e+00,2.500000000000e+01,1.850000000000e+00
44,1.200000000000e+00,2.500000000000e+01,2.150000000000e+00
45,-1.200000000000e+00,3.500000000000e+01,-1.500000000000e-01
46,1.200000000000e+00,3.500000000000e+01,1.500000000000e-01
47,-1.200000000000e+00,3.500000000000e+01,1.850000000000e+00
48,1.200000000000e+00,3.500000000000e+01,2.150000000000e+00
49,-6.000000000000e-01,-2.545584412272e-02,0.000000000000e+00
50,0.000000000000e+00,-3.600000000000e-02,0.000000000000e+00
51,6.000000000000e-01,-2.545584412272e-02,0.000000000000e+00
52,-6.000000000000e-01,2.545584412272e-02,2.000000000000e+00
53,0.000000000000e+00,3.600000000000e-02,2.000000000000e+00
54,6.000000000000e-01,2.545584412272e-02,2.000000000000e+00
55,-1.200000000000e+00,2.121320343560e-02,5.000000000000e-01
56,-1.200000000000e+00,3.000000000000e-02,1.000000000000e+00
57,-1.200000000000e+00,2.121320343560e-02,1.500000000000e+00
58,1.200000000000e+00,-2.121320343560e-02,5.000000000000e-01
59,1.200000000000e+00,-3.000000000000e-02,1.000000000000e+00
60,1.200000000000e+00,-2.121320343560e-02,1.500000000000e+00
61,-6.000000000000e-01,1.997454415588e+01,0.000000000000e+00
62,0.000000000000e+00,1.996400000000e+01,0.000000000000e+00
63,6.000000000000e-01,1.997454415588e+01,0.000000000000e+00
64,-6.000000000000e-01,2.002545584412e+01,2.000000000000e+00
65,0.000000000000e+00,2.003600000000e+01,2.000000000000e+00
66,6.000000000000e-01,2.002545584412e+01,2.000000000000e+00
67,-1.200000000000e+00,2.002121320344e+01,5.000000000000e-01
68,-1.200000000000e+00,2.003000000000e+01,1.000000000000e+00
69,-1.200000000000e+00,2.002121320344e+01,1.500000000000e+00
70,1.200000000000e+00,1.997878679656e+01,5.000000000000e-01
71,1.200000000000e+00,1.997000000000e+01,1.000000000000e+00
72,1.200000000000e+00,1.997878679656e+01,1.500000000000e+00
73,-6.000000000000e-01,2.997454415588e+01,0.000000000000e+00
74,0.000000000000e+00,2.996400000000e+01,0.000000000000e+00
75,6.000000000000e-01,2.997454415588e+01,0.000000000000e+00
76,-6.000000000000e-01,3.002545584412e+01,2.000000000000e+00
77,0.000000000000e+00,3.003600000000e+01,2.000000000000e+00
78,6.000000000000e-01,3.002545584412e+01,2.000000000000e+00
79,-1.200000000000e+00,3.002121320344e+01,5.000000000000e-01
80,-1.200000000000e+00,3.003000000000e+01,1.000000000000e+00
81,-1.200000000000e+00,3.002121320344e+01,1.500000000000e+00
82,1.200000000000e+00,2.997878679656e+01,5.000000000000e-01
83,1.200000000000e+00,2.997000000000e+01,1.000000000000e+00
84,1.200000000000e+00,2.997878679656e+01,1.500000000000e+00
85,-6.000000000000e-01,3.997454415588e+01,0.000000000000e+00
86,0.000000000000e+00,3.996400000000e+01,0.000000000000e+00
87,6.000000000000e-01,3.997454415588e+01,0.000000000000e+00
88,-6.000000000000e-01,4.002545584412e+01,2.000000000000e+00
89,0.000000000000e+00,4.003600000000e+01,2.000000000000e+00
90,6.000000000000e-01,4.002545584412e+01,2.000000000000e+00
91,-1.200000000000e+00,4.002121320344e+01,5.000000000000e-01
92,-1.200000000000e+00,4.003000000000e+01,1.000000000000e+00
93,-1.200000000000e+00,4.002121320344e+01,1.500000000000e+00
94,1.200000000000e+00,3.997878679656e+01,5.000000000000e-01
95,1.200000000000e+00,3.997000000000e+01,1.000000000000e+00
96,1.200000000000e+00,3.997878679656e+01,1.500000000000e+00
97,-6.000000000000e-01,4.997454415588e+01,0.000000000000e+00
98,0.000000000000e+00,4.996400000000e+01,0.000000000000e+00
99,6.000000000000e-01,4.997454415588e+01,0.000000000000e+00
100,-6.000000000000e-01,5.002545584412e+01,2.000000000000e+00
101,0.000000000000e+00,5.003600000000e+01,2.000000000000e+00
102,6.000000000000e-01,5.002545584412e+01,2.000000000000e+00
103,-1.200000000000e+00,5.002121320344e+01,5.000000000000e-01
104,-1.200000000000e+00,5.003000000000e+01,1.000000000000e+00
105,-1.200000000000e+00,5.002121320344e+01,1.500000000000e+00
106,1.200000000000e+00,4.997878679656e+01,5.000000000000e-01
107,1.200000000000e+00,4.997000000000e+01,1.000000000000e+00
108,1.200000000000e+00,4.997878679656e+01,1.500000000000e+00
109,-1.200000000000e+00,1.503000000000e+01,8.500000000000e-01
110,-1.200000000000e+00,1.503000000000e+01,1.150000000000e+00
111,1.200000000000e+00,1.503000000000e+01,8.500000000000e-01
112,1.200000000000e+00,1.503000000000e+01,1.150000000000e+00
113,1.500000000000e-01,1.496400000000e+01,0.000000000000e+00
114,-1.500000000000e-01,1.496400000000e+01,0.000000000000e+00
115,1.500000000000e-01,1.496400000000e+01,2.000000000000e+00
116,-1.500000000000e-01,1.496400000000e+01,2.000000000000e+00
117,-1.200000000000e+00,2.126148050297e+01,1.925974851452e-01
118,-1.200000000000e+00,2.252121320344e+01,3.939339828220e-01
119,-1.200000000000e+00,2.377771638598e+01,6.114180701233e-01
120,-1.200000000000e+00,2.503000000000e+01,8.500000000000e-01
121,-1.200000000000e+00,2.627771638598e+01,1.111418070123e+00
122,-1.200000000000e+00,2.752121320344e+01,1.393933982822e+00
123,-1.200000000000e+00,2.876148050297e+01,1.692597485145e+00
124,-1.200000000000e+00,2.126148050297e+01,1.807402514855e+00
125,-1.200000000000e+00,2.252121320344e+01,1.606066017178e+00
126,-1.200000000000e+00,2.377771638598e+01,1.388581929877e+00
127,-1.200000000000e+00,2.503000000000e+01,1.150000000000e+00
128,-1.200000000000e+00,2.627771638598e+01,8.885819298767e-01
129,-1.200000000000e+00,2.752121320344e+01,6.060660171780e-01
130,-1.200000000000e+00,2.876148050297e+01,3.074025148548e-01
131,1.200000000000e+00,2.126148050297e+01,1.925974851452e-01
132,1.200000000000e+00,2.252121320344e+01,3.939339828220e-01
133,1.200000000000e+00,2.377771638598e+01,6.114180701233e-01
134,1.200000000000e+00,2.503000000000e+01,8.500000000000e-01
135,1.200000000000e+00,2.627771638598e+01,1.111418070123e+00
136,1.200000000000e+00,2.752121320344e+01,1.393933982822e+00
137,1.200000000000e+00,2.876148050297e+01,1.692597485145e+00
138,1.200000000000e+00,2.126148050297e+01,1.807402514855e+00
139,1.200000000000e+00,2.252121320344e+01,1.606066017178e+00
140,1.200000000000e+00,2.377771638598e+01,1.388581929877e+00
141,1.200000000000e+00,2.503000000000e+01,1.150000000000e+00
142,1.200000000000e+00,2.627771638598e+01,8.885819298767e-01
143,1.200000000000e+00,2.752121320344e+01,6.060660171780e-01
144,1.200000000000e+00,2.876148050297e+01,3.074025148548e-01
145,-8.425974851452e-01,2.123622339643e+01,0.000000000000e+00
146,-4.939339828220e-01,2.247454415588e+01,0.000000000000e+00
147,-1.614180701233e-01,2.371674033683e+01,0.000000000000e+00
148,1.500000000000e-01,2.496400000000e+01,0.000000000000e+00
149,4.385819298767e-01,2.621674033683e+01,0.000000000000e+00
150,7.060660171780e-01,2.747454415588e+01,0.000000000000e+00
151,9.574025148548e-01,2.873622339643e+01,0.000000000000e+00
152,8.425974851452e-01,2.123622339643e+01,0.000000000000e+00
153,4.939339828220e-01,2.247454415588e+01,0.000000000000e+00
154,1.614180701233e-01,2.371674033683e+01,0.000000000000e+00
155,-1.500000000000e-01,2.496400000000e+01,0.000000000000e+00
156,-4.385819298767e-01,2.621674033683e+01,0.000000000000e+00
157,-7.060660171780e-01,2.747454415588e+01,0.000000000000e+00
158,-9.574025148548e-01,2.873622339643e+01,0.000000000000e+00
159,-8.425974851452e-01,2.123622339643e+01,2.000000000000e+00
160,-4.939339828220e-01,2.247454415588e+01,2.000000000000e+00
161,-1.614180701233e-01,2.371674033683e+01,2.000000000000e+00
162,1.500000000000e-01,2.496400000000e+01,2.000000000000e+00
163,4.385819298767e-01,2.621674033683e+01,2.000000000000e+00
164,7.060660171780e-01,2.747454415588e+01,2.000000000000e+00
165,9.574025148548e-01,2.873622339643e+01,2.000000000000e+00
166,8.425974851452e-01,2.123622339643e+01,2.000000000000e+00
167,4.939339828220e-01,2.247454415588e+01,2.000000000000e+00
168,1.614180701233e-01,2.371674033683e+01,2.000000000000e+00
169,-1.500000000000e-01,2.496400000000e+01,2.000000000000e+00
170,-4.385819298767e-01,2.621674033683e+01,2.000000000000e+00
171,-7.060660171780e-01,2.747454415588e+01,2.000000000000e+00
172,-9.574025148548e-01,2.873622339643e+01,2.000000000000e+00
*ELEMENT,TYPE=B31,ELSET=ALL
1,1,25
2,25,5
3,2,26
4,26,6
5,3,27
6,27,7
7,4,28
8,28,8
9,5,29
10,29,30
11,30,31
12,31,9
13,6,32
14,32,33
15,33,34
16,34,10
17,7,35
18,35,36
19,36,37
20,37,11
21,8,38
22,38,39
23,39,40
24,40,12
25,9,41
26,41,13
27,10,42
28,42,14
29,11,43
30,43,15
31,12,44
32,44,16
33,13,45
34,45,17
35,14,46
36,46,18
37,15,47
38,47,19
39,16,48
40,48,20
41,17,21
42,18,22
43,19,23
44,20,24
45,1,49
46,49,50
47,50,51
48,51,2
49,3,52
50,52,53
51,53,54
52,54,4
53,1,55
54,55,56
55,56,57
56,57,3
57,2,58
58,58,59
59,59,60
60,60,4
61,5,6
62,7,8
63,5,7
64,6,8
65,9,61
66,61,62
67,62,63
68,63,10
69,11,64
70,64,65
71,65,66
72,66,12
73,9,67
74,67,68
75,68,69
76,69,11
77,10,70
78,70,71
79,71,72
80,72,12
81,13,73
82,73,74
83,74,75
84,75,14
85,15,76
86,76,77
87,77,78
88,78,16
89,13,79
90,79,80
91,80,81
92,81,15
93,14,82
94,82,83
95,83,84
96,84,16
97,17,85
98,85,86
99,86,87
100,87,18
101,19,88
102,88,89
103,89,90
104,90,20
105,17,91
106,91,92
107,92,93
108,93,19
109,18,94
110,94,95
111,95,96
112,96,20
113,21,97
114,97,98
115,98,99
116,99,22
117,23,100
118,100,101
119,101,102
120,102,24
121,21,103
122,103,104
123,104,105
124,105,23
125,22,106
126,106,107
127,107,108
128,108,24
129,1,7
130,3,5
131,2,8
132,4,6
133,1,6
134,2,5
135,3,8
136,4,7
137,5,109
138,109,11
139,7,110
140,110,9
141,6,111
142,111,12
143,8,112
144,112,10
145,5,113
146,113,10
147,6,114
148,114,9
149,7,115
150,115,12
151,8,116
152,116,11
153,9,117
154,117,118
155,118,119
156,119,120
157,120,121
158,121,122
159,122,123
160,123,15
161,11,124
162,124,125
163,125,126
164,126,127
165,127,128
166,128,129
167,129,130
168,130,13
169,10,131
170,131,132
171,132,133
172,133,134
173,134,135
174,135,136
175,136,137
176,137,16
177,12,138
178,138,139
179,139,140
180,140,141
181,141,142
182,142,143
183,143,144
184,144,14
185,9,145
186,145,146
187,146,147
188,147,148
189,148,149
190,149,150
191,150,151
192,151,14
193,10,152
194,152,153
195,153,154
196,154,155
197,155,156
198,156,157
199,157,158
200,158,13
201,11,159
202,159,160
203,160,161
204,161,162
205,162,163
206,163,164
207,164,165
208,165,16
209,12,166
210,166,167
211,167,168
212,168,169
213,169,170
214,170,171
215,171,172
216,172,15
217,13,19
218,15,17
219,14,20
220,16,18
221,13,18
222,14,17
223,15,20
224,16,19
225,17,23
226,19,21
227,18,24
228,20,22
229,17,22
230,18,21
231,19,24
232,20,23
*NSET,NSET=NALL,GENERATE
1,172,1
*NSET,NSET=LEFT
1,2,3,4
*NSET,NSET=RIGHT
21,22,23,24
*MATERIAL,NAME=STEEL
*ELASTIC
2.100000000000e+11,0.300000000000
*BEAM SECTION,ELSET=ALL,MATERIAL=STEEL,SECTION=RECT
6.000000000000e-02,4.000000000000e-02
0.371390676354,0.557086014531,0.742781352708
*BOUNDARY
LEFT,1,6,0.0
*STEP
*STATIC
*BOUNDARY
21,1,1,5.000000000000e-03
21,2,2,0.0
21,3,3,-6.000000000000e-03
*BOUNDARY
22,1,1,5.000000000000e-03
22,2,2,0.0
22,3,3,6.000000000000e-03
*BOUNDARY
23,1,1,-5.000000000000e-03
23,2,2,0.0
23,3,3,-6.000000000000e-03
*BOUNDARY
24,1,1,-5.000000000000e-03
24,2,2,0.0
24,3,3,6.000000000000e-03
*NODE FILE,NSET=NALL
U
*NODE PRINT,NSET=NALL
U
*NODE PRINT,NSET=RIGHT
RF
*EL PRINT,ELSET=ALL,TOTALS=YES
ELSE
*END STEP
