*HEADING
Normalized cross-passage space-truss torsion benchmark
*NODE
1,-1.200000000000e+00,0.000000000000e+00,0.000000000000e+00
2,1.200000000000e+00,0.000000000000e+00,0.000000000000e+00
3,-1.200000000000e+00,0.000000000000e+00,2.000000000000e+00
4,1.200000000000e+00,0.000000000000e+00,2.000000000000e+00
5,-1.200000000000e+00,1.000000000000e+01,0.000000000000e+00
6,1.200000000000e+00,1.000000000000e+01,0.000000000000e+00
7,-1.200000000000e+00,1.000000000000e+01,2.000000000000e+00
8,1.200000000000e+00,1.000000000000e+01,2.000000000000e+00
9,-1.200000000000e+00,2.000000000000e+01,0.000000000000e+00
10,1.200000000000e+00,2.000000000000e+01,0.000000000000e+00
11,-1.200000000000e+00,2.000000000000e+01,2.000000000000e+00
12,1.200000000000e+00,2.000000000000e+01,2.000000000000e+00
13,-1.200000000000e+00,3.000000000000e+01,0.000000000000e+00
14,1.200000000000e+00,3.000000000000e+01,0.000000000000e+00
15,-1.200000000000e+00,3.000000000000e+01,2.000000000000e+00
16,1.200000000000e+00,3.000000000000e+01,2.000000000000e+00
17,-1.200000000000e+00,4.000000000000e+01,0.000000000000e+00
18,1.200000000000e+00,4.000000000000e+01,0.000000000000e+00
19,-1.200000000000e+00,4.000000000000e+01,2.000000000000e+00
20,1.200000000000e+00,4.000000000000e+01,2.000000000000e+00
21,-1.200000000000e+00,5.000000000000e+01,0.000000000000e+00
22,1.200000000000e+00,5.000000000000e+01,0.000000000000e+00
23,-1.200000000000e+00,5.000000000000e+01,2.000000000000e+00
24,1.200000000000e+00,5.000000000000e+01,2.000000000000e+00
25,-1.200000000000e+00,2.500000000000e+01,-1.500000000000e-01
26,1.200000000000e+00,2.500000000000e+01,1.500000000000e-01
27,-1.200000000000e+00,2.500000000000e+01,1.850000000000e+00
28,1.200000000000e+00,2.500000000000e+01,2.150000000000e+00
29,-1.200000000000e+00,3.125000000000e+01,-5.740251485476e-02
30,-1.200000000000e+00,3.250000000000e+01,-1.060660171780e-01
31,-1.200000000000e+00,3.375000000000e+01,-1.385819298767e-01
32,-1.200000000000e+00,3.500000000000e+01,-1.500000000000e-01
33,-1.200000000000e+00,3.625000000000e+01,-1.385819298767e-01
34,-1.200000000000e+00,3.750000000000e+01,-1.060660171780e-01
35,-1.200000000000e+00,3.875000000000e+01,-5.740251485476e-02
36,1.200000000000e+00,3.125000000000e+01,5.740251485476e-02
37,1.200000000000e+00,3.250000000000e+01,1.060660171780e-01
38,1.200000000000e+00,3.375000000000e+01,1.385819298767e-01
39,1.200000000000e+00,3.500000000000e+01,1.500000000000e-01
40,1.200000000000e+00,3.625000000000e+01,1.385819298767e-01
41,1.200000000000e+00,3.750000000000e+01,1.060660171780e-01
42,1.200000000000e+00,3.875000000000e+01,5.740251485476e-02
43,-1.200000000000e+00,3.125000000000e+01,1.942597485145e+00
44,-1.200000000000e+00,3.250000000000e+01,1.893933982822e+00
45,-1.200000000000e+00,3.375000000000e+01,1.861418070123e+00
46,-1.200000000000e+00,3.500000000000e+01,1.850000000000e+00
47,-1.200000000000e+00,3.625000000000e+01,1.861418070123e+00
48,-1.200000000000e+00,3.750000000000e+01,1.893933982822e+00
49,-1.200000000000e+00,3.875000000000e+01,1.942597485145e+00
50,1.200000000000e+00,3.125000000000e+01,2.057402514855e+00
51,1.200000000000e+00,3.250000000000e+01,2.106066017178e+00
52,1.200000000000e+00,3.375000000000e+01,2.138581929877e+00
53,1.200000000000e+00,3.500000000000e+01,2.150000000000e+00
54,1.200000000000e+00,3.625000000000e+01,2.138581929877e+00
55,1.200000000000e+00,3.750000000000e+01,2.106066017178e+00
56,1.200000000000e+00,3.875000000000e+01,2.057402514855e+00
57,-1.200000000000e+00,4.250000000000e+01,-1.060660171780e-01
58,-1.200000000000e+00,4.500000000000e+01,-1.500000000000e-01
59,-1.200000000000e+00,4.750000000000e+01,-1.060660171780e-01
60,1.200000000000e+00,4.250000000000e+01,1.060660171780e-01
61,1.200000000000e+00,4.500000000000e+01,1.500000000000e-01
62,1.200000000000e+00,4.750000000000e+01,1.060660171780e-01
63,-1.200000000000e+00,4.250000000000e+01,1.893933982822e+00
64,-1.200000000000e+00,4.500000000000e+01,1.850000000000e+00
65,-1.200000000000e+00,4.750000000000e+01,1.893933982822e+00
66,1.200000000000e+00,4.250000000000e+01,2.106066017178e+00
67,1.200000000000e+00,4.500000000000e+01,2.150000000000e+00
68,1.200000000000e+00,4.750000000000e+01,2.106066017178e+00
69,-6.000000000000e-01,-2.545584412272e-02,0.000000000000e+00
70,0.000000000000e+00,-3.600000000000e-02,0.000000000000e+00
71,6.000000000000e-01,-2.545584412272e-02,0.000000000000e+00
72,-6.000000000000e-01,2.545584412272e-02,2.000000000000e+00
73,0.000000000000e+00,3.600000000000e-02,2.000000000000e+00
74,6.000000000000e-01,2.545584412272e-02,2.000000000000e+00
75,-1.200000000000e+00,2.121320343560e-02,5.000000000000e-01
76,-1.200000000000e+00,3.000000000000e-02,1.000000000000e+00
77,-1.200000000000e+00,2.121320343560e-02,1.500000000000e+00
78,1.200000000000e+00,-2.121320343560e-02,5.000000000000e-01
79,1.200000000000e+00,-3.000000000000e-02,1.000000000000e+00
80,1.200000000000e+00,-2.121320343560e-02,1.500000000000e+00
81,-9.000000000000e-01,9.986223396435e+00,0.000000000000e+00
82,-6.000000000000e-01,9.974544155877e+00,0.000000000000e+00
83,-3.000000000000e-01,9.966740336830e+00,0.000000000000e+00
84,0.000000000000e+00,9.964000000000e+00,0.000000000000e+00
85,3.000000000000e-01,9.966740336830e+00,0.000000000000e+00
86,6.000000000000e-01,9.974544155877e+00,0.000000000000e+00
87,9.000000000000e-01,9.986223396435e+00,0.000000000000e+00
88,-9.000000000000e-01,1.001377660357e+01,2.000000000000e+00
89,-6.000000000000e-01,1.002545584412e+01,2.000000000000e+00
90,-3.000000000000e-01,1.003325966317e+01,2.000000000000e+00
91,0.000000000000e+00,1.003600000000e+01,2.000000000000e+00
92,3.000000000000e-01,1.003325966317e+01,2.000000000000e+00
93,6.000000000000e-01,1.002545584412e+01,2.000000000000e+00
94,9.000000000000e-01,1.001377660357e+01,2.000000000000e+00
95,-1.200000000000e+00,1.001148050297e+01,2.500000000000e-01
96,-1.200000000000e+00,1.002121320344e+01,5.000000000000e-01
97,-1.200000000000e+00,1.002771638598e+01,7.500000000000e-01
98,-1.200000000000e+00,1.003000000000e+01,1.000000000000e+00
99,-1.200000000000e+00,1.002771638598e+01,1.250000000000e+00
100,-1.200000000000e+00,1.002121320344e+01,1.500000000000e+00
101,-1.200000000000e+00,1.001148050297e+01,1.750000000000e+00
102,1.200000000000e+00,9.988519497029e+00,2.500000000000e-01
103,1.200000000000e+00,9.978786796564e+00,5.000000000000e-01
104,1.200000000000e+00,9.972283614025e+00,7.500000000000e-01
105,1.200000000000e+00,9.970000000000e+00,1.000000000000e+00
106,1.200000000000e+00,9.972283614025e+00,1.250000000000e+00
107,1.200000000000e+00,9.978786796564e+00,1.500000000000e+00
108,1.200000000000e+00,9.988519497029e+00,1.750000000000e+00
109,0.000000000000e+00,1.996400000000e+01,0.000000000000e+00
110,0.000000000000e+00,2.003600000000e+01,2.000000000000e+00
111,-1.200000000000e+00,2.003000000000e+01,1.000000000000e+00
112,1.200000000000e+00,1.997000000000e+01,1.000000000000e+00
113,0.000000000000e+00,2.996400000000e+01,0.000000000000e+00
114,0.000000000000e+00,3.003600000000e+01,2.000000000000e+00
115,-1.200000000000e+00,3.003000000000e+01,1.000000000000e+00
116,1.200000000000e+00,2.997000000000e+01,1.000000000000e+00
117,0.000000000000e+00,3.996400000000e+01,0.000000000000e+00
118,0.000000000000e+00,4.003600000000e+01,2.000000000000e+00
119,-1.200000000000e+00,4.003000000000e+01,1.000000000000e+00
120,1.200000000000e+00,3.997000000000e+01,1.000000000000e+00
121,-6.000000000000e-01,4.997454415588e+01,0.000000000000e+00
122,0.000000000000e+00,4.996400000000e+01,0.000000000000e+00
123,6.000000000000e-01,4.997454415588e+01,0.000000000000e+00
124,-6.000000000000e-01,5.002545584412e+01,2.000000000000e+00
125,0.000000000000e+00,5.003600000000e+01,2.000000000000e+00
126,6.000000000000e-01,5.002545584412e+01,2.000000000000e+00
127,-1.200000000000e+00,5.002121320344e+01,5.000000000000e-01
128,-1.200000000000e+00,5.003000000000e+01,1.000000000000e+00
129,-1.200000000000e+00,5.002121320344e+01,1.500000000000e+00
130,1.200000000000e+00,4.997878679656e+01,5.000000000000e-01
131,1.200000000000e+00,4.997000000000e+01,1.000000000000e+00
132,1.200000000000e+00,4.997878679656e+01,1.500000000000e+00
133,-1.200000000000e+00,2.521213203436e+00,3.939339828220e-01
134,-1.200000000000e+00,5.030000000000e+00,8.500000000000e-01
135,-1.200000000000e+00,7.521213203436e+00,1.393933982822e+00
136,-1.200000000000e+00,2.521213203436e+00,1.606066017178e+00
137,-1.200000000000e+00,5.030000000000e+00,1.150000000000e+00
138,-1.200000000000e+00,7.521213203436e+00,6.060660171780e-01
139,1.200000000000e+00,2.521213203436e+00,3.939339828220e-01
140,1.200000000000e+00,5.030000000000e+00,8.500000000000e-01
141,1.200000000000e+00,7.521213203436e+00,1.393933982822e+00
142,1.200000000000e+00,2.521213203436e+00,1.606066017178e+00
143,1.200000000000e+00,5.030000000000e+00,1.150000000000e+00
144,1.200000000000e+00,7.521213203436e+00,6.060660171780e-01
145,-4.939339828220e-01,2.474544155877e+00,0.000000000000e+00
146,1.500000000000e-01,4.964000000000e+00,0.000000000000e+00
147,7.060660171780e-01,7.474544155877e+00,0.000000000000e+00
148,4.939339828220e-01,2.474544155877e+00,0.000000000000e+00
149,-1.500000000000e-01,4.964000000000e+00,0.000000000000e+00
150,-7.060660171780e-01,7.474544155877e+00,0.000000000000e+00
151,-4.939339828220e-01,2.474544155877e+00,2.000000000000e+00
152,1.500000000000e-01,4.964000000000e+00,2.000000000000e+00
153,7.060660171780e-01,7.474544155877e+00,2.000000000000e+00
154,4.939339828220e-01,2.474544155877e+00,2.000000000000e+00
155,-1.500000000000e-01,4.964000000000e+00,2.000000000000e+00
156,-7.060660171780e-01,7.474544155877e+00,2.000000000000e+00
157,-1.200000000000e+00,2.126148050297e+01,1.925974851452e-01
158,-1.200000000000e+00,2.252121320344e+01,3.939339828220e-01
159,-1.200000000000e+00,2.377771638598e+01,6.114180701233e-01
160,-1.200000000000e+00,2.503000000000e+01,8.500000000000e-01
161,-1.200000000000e+00,2.627771638598e+01,1.111418070123e+00
162,-1.200000000000e+00,2.752121320344e+01,1.393933982822e+00
163,-1.200000000000e+00,2.876148050297e+01,1.692597485145e+00
164,-1.200000000000e+00,2.126148050297e+01,1.807402514855e+00
165,-1.200000000000e+00,2.252121320344e+01,1.606066017178e+00
166,-1.200000000000e+00,2.377771638598e+01,1.388581929877e+00
167,-1.200000000000e+00,2.503000000000e+01,1.150000000000e+00
168,-1.200000000000e+00,2.627771638598e+01,8.885819298767e-01
169,-1.200000000000e+00,2.752121320344e+01,6.060660171780e-01
170,-1.200000000000e+00,2.876148050297e+01,3.074025148548e-01
171,1.200000000000e+00,2.126148050297e+01,1.925974851452e-01
172,1.200000000000e+00,2.252121320344e+01,3.939339828220e-01
173,1.200000000000e+00,2.377771638598e+01,6.114180701233e-01
174,1.200000000000e+00,2.503000000000e+01,8.500000000000e-01
175,1.200000000000e+00,2.627771638598e+01,1.111418070123e+00
176,1.200000000000e+00,2.752121320344e+01,1.393933982822e+00
177,1.200000000000e+00,2.876148050297e+01,1.692597485145e+00
178,1.200000000000e+00,2.126148050297e+01,1.807402514855e+00
179,1.200000000000e+00,2.252121320344e+01,1.606066017178e+00
180,1.200000000000e+00,2.377771638598e+01,1.388581929877e+00
181,1.200000000000e+00,2.503000000000e+01,1.150000000000e+00
182,1.200000000000e+00,2.627771638598e+01,8.885819298767e-01
183,1.200000000000e+00,2.752121320344e+01,6.060660171780e-01
184,1.200000000000e+00,2.876148050297e+01,3.074025148548e-01
185,-8.425974851452e-01,2.123622339643e+01,0.000000000000e+00
186,-4.939339828220e-01,2.247454415588e+01,0.000000000000e+00
187,-1.614180701233e-01,2.371674033683e+01,0.000000000000e+00
188,1.500000000000e-01,2.496400000000e+01,0.000000000000e+00
189,4.385819298767e-01,2.621674033683e+01,0.000000000000e+00
190,7.060660171780e-01,2.747454415588e+01,0.000000000000e+00
191,9.574025148548e-01,2.873622339643e+01,0.000000000000e+00
192,8.425974851452e-01,2.123622339643e+01,0.000000000000e+00
193,4.939339828220e-01,2.247454415588e+01,0.000000000000e+00
194,1.614180701233e-01,2.371674033683e+01,0.000000000000e+00
195,-1.500000000000e-01,2.496400000000e+01,0.000000000000e+00
196,-4.385819298767e-01,2.621674033683e+01,0.000000000000e+00
197,-7.060660171780e-01,2.747454415588e+01,0.000000000000e+00
198,-9.574025148548e-01,2.873622339643e+01,0.000000000000e+00
199,-8.425974851452e-01,2.123622339643e+01,2.000000000000e+00
200,-4.939339828220e-01,2.247454415588e+01,2.000000000000e+00
201,-1.614180701233e-01,2.371674033683e+01,2.000000000000e+00
202,1.500000000000e-01,2.496400000000e+01,2.000000000000e+00
203,4.385819298767e-01,2.621674033683e+01,2.000000000000e+00
204,7.060660171780e-01,2.747454415588e+01,2.000000000000e+00
205,9.574025148548e-01,2.873622339643e+01,2.000000000000e+00
206,8.425974851452e-01,2.123622339643e+01,2.000000000000e+00
207,4.939339828220e-01,2.247454415588e+01,2.000000000000e+00
208,1.614180701233e-01,2.371674033683e+01,2.000000000000e+00
209,-1.500000000000e-01,2.496400000000e+01,2.000000000000e+00
210,-4.385819298767e-01,2.621674033683e+01,2.000000000000e+00
211,-7.060660171780e-01,2.747454415588e+01,2.000000000000e+00
212,-9.574025148548e-01,2.873622339643e+01,2.000000000000e+00
213,-1.200000000000e+00,3.126148050297e+01,1.925974851452e-01
214,-1.200000000000e+00,3.252121320344e+01,3.939339828220e-01
215,-1.200000000000e+00,3.377771638598e+01,6.114180701233e-01
216,-1.200000000000e+00,3.503000000000e+01,8.500000000000e-01
217,-1.200000000000e+00,3.627771638598e+01,1.111418070123e+00
218,-1.200000000000e+00,3.752121320344e+01,1.393933982822e+00
219,-1.200000000000e+00,3.876148050297e+01,1.692597485145e+00
220,-1.200000000000e+00,3.126148050297e+01,1.807402514855e+00
221,-1.200000000000e+00,3.252121320344e+01,1.606066017178e+00
222,-1.200000000000e+00,3.377771638598e+01,1.388581929877e+00
223,-1.200000000000e+00,3.503000000000e+01,1.150000000000e+00
224,-1.200000000000e+00,3.627771638598e+01,8.885819298767e-01
225,-1.200000000000e+00,3.752121320344e+01,6.060660171780e-01
226,-1.200000000000e+00,3.876148050297e+01,3.074025148548e-01
227,1.200000000000e+00,3.126148050297e+01,1.925974851452e-01
228,1.200000000000e+00,3.252121320344e+01,3.939339828220e-01
229,1.200000000000e+00,3.377771638598e+01,6.114180701233e-01
230,1.200000000000e+00,3.503000000000e+01,8.500000000000e-01
231,1.200000000000e+00,3.627771638598e+01,1.111418070123e+00
232,1.200000000000e+00,3.752121320344e+01,1.393933982822e+00
233,1.200000000000e+00,3.876148050297e+01,1.692597485145e+00
234,1.200000000000e+00,3.126148050297e+01,1.807402514855e+00
235,1.200000000000e+00,3.252121320344e+01,1.606066017178e+00
236,1.200000000000e+00,3.377771638598e+01,1.388581929877e+00
237,1.200000000000e+00,3.503000000000e+01,1.150000000000e+00
238,1.200000000000e+00,3.627771638598e+01,8.885819298767e-01
239,1.200000000000e+00,3.752121320344e+01,6.060660171780e-01
240,1.200000000000e+00,3.876148050297e+01,3.074025148548e-01
241,-8.425974851452e-01,3.123622339643e+01,0.000000000000e+00
242,-4.939339828220e-01,3.247454415588e+01,0.000000000000e+00
243,-1.614180701233e-01,3.371674033683e+01,0.000000000000e+00
244,1.500000000000e-01,3.496400000000e+01,0.000000000000e+00
245,4.385819298767e-01,3.621674033683e+01,0.000000000000e+00
246,7.060660171780e-01,3.747454415588e+01,0.000000000000e+00
247,9.574025148548e-01,3.873622339643e+01,0.000000000000e+00
248,8.425974851452e-01,3.123622339643e+01,0.000000000000e+00
249,4.939339828220e-01,3.247454415588e+01,0.000000000000e+00
250,1.614180701233e-01,3.371674033683e+01,0.000000000000e+00
251,-1.500000000000e-01,3.496400000000e+01,0.000000000000e+00
252,-4.385819298767e-01,3.621674033683e+01,0.000000000000e+00
253,-7.060660171780e-01,3.747454415588e+01,0.000000000000e+00
254,-9.574025148548e-01,3.873622339643e+01,0.000000000000e+00
255,-8.425974851452e-01,3.123622339643e+01,2.000000000000e+00
256,-4.939339828220e-01,3.247454415588e+01,2.000000000000e+00
257,-1.614180701233e-01,3.371674033683e+01,2.000000000000e+00
258,1.500000000000e-01,3.496400000000e+01,2.000000000000e+00
259,4.385819298767e-01,3.621674033683e+01,2.000000000000e+00
260,7.060660171780e-01,3.747454415588e+01,2.000000000000e+00
261,9.574025148548e-01,3.873622339643e+01,2.000000000000e+00
262,8.425974851452e-01,3.123622339643e+01,2.000000000000e+00
263,4.939339828220e-01,3.247454415588e+01,2.000000000000e+00
264,1.614180701233e-01,3.371674033683e+01,2.000000000000e+00
265,-1.500000000000e-01,3.496400000000e+01,2.000000000000e+00
266,-4.385819298767e-01,3.621674033683e+01,2.000000000000e+00
267,-7.060660171780e-01,3.747454415588e+01,2.000000000000e+00
268,-9.574025148548e-01,3.873622339643e+01,2.000000000000e+00
269,-1.200000000000e+00,4.503000000000e+01,8.500000000000e-01
270,-1.200000000000e+00,4.503000000000e+01,1.150000000000e+00
271,1.200000000000e+00,4.503000000000e+01,8.500000000000e-01
272,1.200000000000e+00,4.503000000000e+01,1.150000000000e+00
273,1.500000000000e-01,4.496400000000e+01,0.000000000000e+00
274,-1.500000000000e-01,4.496400000000e+01,0.000000000000e+00
275,1.500000000000e-01,4.496400000000e+01,2.000000000000e+00
276,-1.500000000000e-01,4.496400000000e+01,2.000000000000e+00
*ELEMENT,TYPE=B31,ELSET=ALL
1,1,5
2,2,6
3,3,7
4,4,8
5,5,9
6,6,10
7,7,11
8,8,12
9,9,25
10,25,13
11,10,26
12,26,14
13,11,27
14,27,15
15,12,28
16,28,16
17,13,29
18,29,30
19,30,31
20,31,32
21,32,33
22,33,34
23,34,35
24,35,17
25,14,36
26,36,37
27,37,38
28,38,39
29,39,40
30,40,41
31,41,42
32,42,18
33,15,43
34,43,44
35,44,45
36,45,46
37,46,47
38,47,48
39,48,49
40,49,19
41,16,50
42,50,51
43,51,52
44,52,53
45,53,54
46,54,55
47,55,56
48,56,20
49,17,57
50,57,58
51,58,59
52,59,21
53,18,60
54,60,61
55,61,62
56,62,22
57,19,63
58,63,64
59,64,65
60,65,23
61,20,66
62,66,67
63,67,68
64,68,24
65,1,69
66,69,70
67,70,71
68,71,2
69,3,72
70,72,73
71,73,74
72,74,4
73,1,75
74,75,76
75,76,77
76,77,3
77,2,78
78,78,79
79,79,80
80,80,4
81,5,81
82,81,82
83,82,83
84,83,84
85,84,85
86,85,86
87,86,87
88,87,6
89,7,88
90,88,89
91,89,90
92,90,91
93,91,92
94,92,93
95,93,94
96,94,8
97,5,95
98,95,96
99,96,97
100,97,98
101,98,99
102,99,100
103,100,101
104,101,7
105,6,102
106,102,103
107,103,104
108,104,105
109,105,106
110,106,107
111,107,108
112,108,8
113,9,109
114,109,10
115,11,110
116,110,12
117,9,111
118,111,11
119,10,112
120,112,12
121,13,113
122,113,14
123,15,114
124,114,16
125,13,115
126,115,15
127,14,116
128,116,16
129,17,117
130,117,18
131,19,118
132,118,20
133,17,119
134,119,19
135,18,120
136,120,20
137,21,121
138,121,122
139,122,123
140,123,22
141,23,124
142,124,125
143,125,126
144,126,24
145,21,127
146,127,128
147,128,129
148,129,23
149,22,130
150,130,131
151,131,132
152,132,24
153,1,133
154,133,134
155,134,135
156,135,7
157,3,136
158,136,137
159,137,138
160,138,5
161,2,139
162,139,140
163,140,141
164,141,8
165,4,142
166,142,143
167,143,144
168,144,6
169,1,145
170,145,146
171,146,147
172,147,6
173,2,148
174,148,149
175,149,150
176,150,5
177,3,151
178,151,152
179,152,153
180,153,8
181,4,154
182,154,155
183,155,156
184,156,7
185,5,11
186,7,9
187,6,12
188,8,10
189,5,10
190,6,9
191,7,12
192,8,11
193,9,157
194,157,158
195,158,159
196,159,160
197,160,161
198,161,162
199,162,163
200,163,15
201,11,164
202,164,165
203,165,166
204,166,167
205,167,168
206,168,169
207,169,170
208,170,13
209,10,171
210,171,172
211,172,173
212,173,174
213,174,175
214,175,176
215,176,177
216,177,16
217,12,178
218,178,179
219,179,180
220,180,181
221,181,182
222,182,183
223,183,184
224,184,14
225,9,185
226,185,186
227,186,187
228,187,188
229,188,189
230,189,190
231,190,191
232,191,14
233,10,192
234,192,193
235,193,194
236,194,195
237,195,196
238,196,197
239,197,198
240,198,13
241,11,199
242,199,200
243,200,201
244,201,202
245,202,203
246,203,204
247,204,205
248,205,16
249,12,206
250,206,207
251,207,208
252,208,209
253,209,210
254,210,211
255,211,212
256,212,15
257,13,213
258,213,214
259,214,215
260,215,216
261,216,217
262,217,218
263,218,219
264,219,19
265,15,220
266,220,221
267,221,222
268,222,223
269,223,224
270,224,225
271,225,226
272,226,17
273,14,227
274,227,228
275,228,229
276,229,230
277,230,231
278,231,232
279,232,233
280,233,20
281,16,234
282,234,235
283,235,236
284,236,237
285,237,238
286,238,239
287,239,240
288,240,18
289,13,241
290,241,242
291,242,243
292,243,244
293,244,245
294,245,246
295,246,247
296,247,18
297,14,248
298,248,249
299,249,250
300,250,251
301,251,252
302,252,253
303,253,254
304,254,17
305,15,255
306,255,256
307,256,257
308,257,258
309,258,259
310,259,260
311,260,261
312,261,20
313,16,262
314,262,263
315,263,264
316,264,265
317,265,266
318,266,267
319,267,268
320,268,19
321,17,269
322,269,23
323,19,270
324,270,21
325,18,271
326,271,24
327,20,272
328,272,22
329,17,273
330,273,22
331,18,274
332,274,21
333,19,275
334,275,24
335,20,276
336,276,23
*NSET,NSET=NALL,GENERATE
1,276,1
*NSET,NSET=LEFT
1,2,3,4
*NSET,NSET=RIGHT
21,22,23,24
*MATERIAL,NAME=STEEL
*ELASTIC
2.100000000000e+11,0.300000000000
*BEAM SECTION,ELSET=ALL,MATERIAL=STEEL,SECTION=RECT
6.000000000000e-02,4.000000000000e-02
0.371390676354,0.557086014531,0.742781352708
*BOUNDARY
LEFT,1,6,0.0
*STEP
*STATIC
*BOUNDARY
21,1,1,5.000000000000e-03
21,2,2,0.0
21,3,3,-6.000000000000e-03
*BOUNDARY
22,1,1,5.000000000000e-03
22,2,2,0.0
22,3,3,6.000000000000e-03
*BOUNDARY
23,1,1,-5.000000000000e-03
23,2,2,0.0
23,3,3,-6.000000000000e-03
*BOUNDARY
24,1,1,-5.000000000000e-03
24,2,2,0.0
24,3,3,6.000000000000e-03
*NODE FILE,NSET=NALL
U
*NODE PRINT,NSET=NALL
U
*NODE PRINT,NSET=RIGHT
RF
*EL PRINT,ELSET=ALL,TOTALS=YES
ELSE
*END STEP
