*HEADING
Normalized cross-passage space-truss torsion benchmark
*NODE
1,-1.200000000000e+00,0.000000000000e+00,0.000000000000e+00
2,1.200000000000e+00,0.000000000000e+00,0.000000000000e+00
3,-1.200000000000e+00,0.000000000000e+00,2.000000000000e+00
4,1.200000000000e+00,0.000000000000e+00,2.000000000000e+00
5,-1.200000000000e+00,1.000000000000e+01,0.000000000000e+00
6,1.200000000000e+00,1.000000000000e+01,0.000000000000e+00
7,-1.200000000000e+00,1.000000000000e+01,2.000000000000e+00
8,1.200000000000e+00,1.000000000000e+01,2.000000000000e+00
9,-1.200000000000e+00,2.000000000000e+01,0.000000000000e+00
10,1.200000000000e+00,2.000000000000e+01,0.000000000000e+00
11,-1.200000000000e+00,2.000000000000e+01,2.000000000000e+00
12,1.200000000000e+00,2.000000000000e+01,2.000000000000e+00
13,-1.200000000000e+00,3.000000000000e+01,0.000000000000e+00
14,1.200000000000e+00,3.000000000000e+01,0.000000000000e+00
15,-1.200000000000e+00,3.000000000000e+01,2.000000000000e+00
16,1.200000000000e+00,3.000000000000e+01,2.000000000000e+00
17,-1.200000000000e+00,4.000000000000e+01,0.000000000000e+00
18,1.200000000000e+00,4.000000000000e+01,0.000000000000e+00
19,-1.200000000000e+00,4.000000000000e+01,2.000000000000e+00
20,1.200000000000e+00,4.000000000000e+01,2.000000000000e+00
21,-1.200000000000e+00,5.000000000000e+01,0.000000000000e+00
22,1.200000000000e+00,5.000000000000e+01,0.000000000000e+00
23,-1.200000000000e+00,5.000000000000e+01,2.000000000000e+00
24,1.200000000000e+00,5.000000000000e+01,2.000000000000e+00
25,-1.200000000000e+00,1.500000000000e+01,-1.500000000000e-01
26,1.200000000000e+00,1.500000000000e+01,1.500000000000e-01
27,-1.200000000000e+00,1.500000000000e+01,1.850000000000e+00
28,1.200000000000e+00,1.500000000000e+01,2.150000000000e+00
29,-1.200000000000e+00,3.500000000000e+01,-1.500000000000e-01
30,1.200000000000e+00,3.500000000000e+01,1.500000000000e-01
31,-1.200000000000e+00,3.500000000000e+01,1.850000000000e+00
32,1.200000000000e+00,3.500000000000e+01,2.150000000000e+00
33,-1.200000000000e+00,4.250000000000e+01,-1.060660171780e-01
34,-1.200000000000e+00,4.500000000000e+01,-1.500000000000e-01
35,-1.200000000000e+00,4.750000000000e+01,-1.060660171780e-01
36,1.200000000000e+00,4.250000000000e+01,1.060660171780e-01
37,1.200000000000e+00,4.500000000000e+01,1.500000000000e-01
38,1.200000000000e+00,4.750000000000e+01,1.060660171780e-01
39,-1.200000000000e+00,4.250000000000e+01,1.893933982822e+00
40,-1.200000000000e+00,4.500000000000e+01,1.850000000000e+00
41,-1.200000000000e+00,4.750000000000e+01,1.893933982822e+00
42,1.200000000000e+00,4.250000000000e+01,2.106066017178e+00
43,1.200000000000e+00,4.500000000000e+01,2.150000000000e+00
44,1.200000000000e+00,4.750000000000e+01,2.106066017178e+00
45,0.000000000000e+00,9.964000000000e+00,0.000000000000e+00
46,0.000000000000e+00,1.003600000000e+01,2.000000000000e+00
47,-1.200000000000e+00,1.003000000000e+01,1.000000000000e+00
48,1.200000000000e+00,9.970000000000e+00,1.000000000000e+00
49,-6.000000000000e-01,2.997454415588e+01,0.000000000000e+00
50,0.000000000000e+00,2.996400000000e+01,0.000000000000e+00
51,6.000000000000e-01,2.997454415588e+01,0.000000000000e+00
52,-6.000000000000e-01,3.002545584412e+01,2.000000000000e+00
53,0.000000000000e+00,3.003600000000e+01,2.000000000000e+00
54,6.000000000000e-01,3.002545584412e+01,2.000000000000e+00
55,-1.200000000000e+00,3.002121320344e+01,5.000000000000e-01
56,-1.200000000000e+00,3.003000000000e+01,1.000000000000e+00
57,-1.200000000000e+00,3.002121320344e+01,1.500000000000e+00
58,1.200000000000e+00,2.997878679656e+01,5.000000000000e-01
59,1.200000000000e+00,2.997000000000e+01,1.000000000000e+00
60,1.200000000000e+00,2.997878679656e+01,1.500000000000e+00
61,-1.200000000000e+00,1.261480502971e+00,1.925974851452e-01
62,-1.200000000000e+00,2.521213203436e+00,3.939339828220e-01
63,-1.200000000000e+00,3.777716385975e+00,6.114180701233e-01
64,-1.200000000000e+00,5.030000000000e+00,8.500000000000e-01
65,-1.200000000000e+00,6.277716385975e+00,1.111418070123e+00
66,-1.200000000000e+00,7.521213203436e+00,1.393933982822e+00
67,-1.200000000000e+00,8.761480502971e+00,1.692597485145e+00
68,-1.200000000000e+00,1.261480502971e+00,1.807402514855e+00
69,-1.200000000000e+00,2.521213203436e+00,1.606066017178e+00
70,-1.200000000000e+00,3.777716385975e+00,1.388581929877e+00
71,-1.200000000000e+00,5.030000000000e+00,1.150000000000e+00
72,-1.200000000000e+00,6.277716385975e+00,8.885819298767e-01
73,-1.200000000000e+00,7.521213203436e+00,6.060660171780e-01
74,-1.200000000000e+00,8.761480502971e+00,3.074025148548e-01
75,1.200000000000e+00,1.261480502971e+00,1.925974851452e-01
76,1.200000000000e+00,2.521213203436e+00,3.939339828220e-01
77,1.200000000000e+00,3.777716385975e+00,6.114180701233e-01
78,1.200000000000e+00,5.030000000000e+00,8.500000000000e-01
79,1.200000000000e+00,6.277716385975e+00,1.111418070123e+00
80,1.200000000000e+00,7.521213203436e+00,1.393933982822e+00
81,1.200000000000e+00,8.761480502971e+00,1.692597485145e+00
82,1.200000000000e+00,1.261480502971e+00,1.807402514855e+00
83,1.200000000000e+00,2.521213203436e+00,1.606066017178e+00
84,1.200000000000e+00,3.777716385975e+00,1.388581929877e+00
85,1.200000000000e+00,5.030000000000e+00,1.150000000000e+00
86,1.200000000000e+00,6.277716385975e+00,8.885819298767e-01
87,1.200000000000e+00,7.521213203436e+00,6.060660171780e-01
88,1.200000000000e+00,8.761480502971e+00,3.074025148548e-01
89,-8.425974851452e-01,1.236223396435e+00,0.000000000000e+00
90,-4.939339828220e-01,2.474544155877e+00,0.000000000000e+00
91,-1.614180701233e-01,3.716740336830e+00,0.000000000000e+00
92,1.500000000000e-01,4.964000000000e+00,0.000000000000e+00
93,4.385819298767e-01,6.216740336830e+00,0.000000000000e+00
94,7.060660171780e-01,7.474544155877e+00,0.000000000000e+00
95,9.574025148548e-01,8.736223396435e+00,0.000000000000e+00
96,8.425974851452e-01,1.236223396435e+00,0.000000000000e+00
97,4.939339828220e-01,2.474544155877e+00,0.000000000000e+00
98,1.614180701233e-01,3.716740336830e+00,0.000000000000e+00
99,-1.500000000000e-01,4.964000000000e+00,0.000000000000e+00
100,-4.385819298767e-01,6.216740336830e+00,0.000000000000e+00
101,-7.060660171780e-01,7.474544155877e+00,0.000000000000e+00
102,-9.574025148548e-01,8.736223396435e+00,0.000000000000e+00
103,-8.425974851452e-01,1.236223396435e+00,2.000000000000e+00
104,-4.939339828220e-01,2.474544155877e+00,2.000000000000e+00
105,-1.614180701233e-01,3.716740336830e+00,2.000000000000e+00
106,1.500000000000e-01,4.964000000000e+00,2.000000000000e+00
107,4.385819298767e-01,6.216740336830e+00,2.000000000000e+00
108,7.060660171780e-01,7.474544155877e+00,2.000000000000e+00
109,9.574025148548e-01,8.736223396435e+00,2.000000000000e+00
110,8.425974851452e-01,1.236223396435e+00,2.000000000000e+00
111,4.939339828220e-01,2.474544155877e+00,2.000000000000e+00
112,1.614180701233e-01,3.716740336830e+00,2.000000000000e+00
113,-1.500000000000e-01,4.964000000000e+00,2.000000000000e+00
114,-4.385819298767e-01,6.216740336830e+00,2.000000000000e+00
115,-7.060660171780e-01,7.474544155877e+00,2.000000000000e+00
116,-9.574025148548e-01,8.736223396435e+00,2.000000000000e+00
117,-1.200000000000e+00,2.252121320344e+01,3.939339828220e-01
118,-1.200000000000e+00,2.503000000000e+01,8.500000000000e-01
119,-1.200000000000e+00,2.752121320344e+01,1.393933982822e+00
120,-1.200000000000e+00,2.252121320344e+01,1.606066017178e+00
121,-1.200000000000e+00,2.503000000000e+01,1.150000000000e+00
122,-1.200000000000e+00,2.752121320344e+01,6.060660171780e-01
123,1.200000000000e+00,2.252121320344e+01,3.939339828220e-01
124,1.200000000000e+00,2.503000000000e+01,8.500000000000e-01
125,1.200000000000e+00,2.752121320344e+01,1.393933982822e+00
126,1.200000000000e+00,2.252121320344e+01,1.606066017178e+00
127,1.200000000000e+00,2.503000000000e+01,1.150000000000e+00
128,1.200000000000e+00,2.752121320344e+01,6.060660171780e-01
129,-4.939339828220e-01,2.247454415588e+01,0.000000000000e+00
130,1.500000000000e-01,2.496400000000e+01,0.000000000000e+00
131,7.060660171780e-01,2.747454415588e+01,0.000000000000e+00
132,4.939339828220e-01,2.247454415588e+01,0.000000000000e+00
133,-1.500000000000e-01,2.496400000000e+01,0.000000000000e+00
134,-7.060660171780e-01,2.747454415588e+01,0.000000000000e+00
135,-4.939339828220e-01,2.247454415588e+01,2.000000000000e+00
136,1.500000000000e-01,2.496400000000e+01,2.000000000000e+00
137,7.060660171780e-01,2.747454415588e+01,2.000000000000e+00
138,4.939339828220e-01,2.247454415588e+01,2.000000000000e+00
139,-1.500000000000e-01,2.496400000000e+01,2.000000000000e+00
140,-7.060660171780e-01,2.747454415588e+01,2.000000000000e+00
141,-1.200000000000e+00,3.126148050297e+01,1.925974851452e-01
142,-1.200000000000e+00,3.252121320344e+01,3.939339828220e-01
143,-1.200000000000e+00,3.377771638598e+01,6.114180701233e-01
144,-1.200000000000e+00,3.503000000000e+01,8.500000000000e-01
145,-1.200000000000e+00,3.627771638598e+01,1.111418070123e+00
146,-1.200000000000e+00,3.752121320344e+01,1.393933982822e+00
147,-1.200000000000e+00,3.876148050297e+01,1.692597485145e+00
148,-1.200000000000e+00,3.126148050297e+01,1.807402514855e+00
149,-1.200000000000e+00,3.252121320344e+01,1.606066017178e+00
150,-1.200000000000e+00,3.377771638598e+01,1.388581929877e+00
151,-1.200000000000e+00,3.503000000000e+01,1.150000000000e+00
152,-1.200000000000e+00,3.627771638598e+01,8.885819298767e-01
153,-1.200000000000e+00,3.752121320344e+01,6.060660171780e-01
154,-1.200000000000e+00,3.876148050297e+01,3.074025148548e-01
155,1.200000000000e+00,3.126148050297e+01,1.925974851452e-01
156,1.200000000000e+00,3.252121320344e+01,3.939339828220e-01
157,1.200000000000e+00,3.377771638598e+01,6.114180701233e-01
158,1.200000000000e+00,3.503000000000e+01,8.500000000000e-01
159,1.200000000000e+00,3.627771638598e+01,1.111418070123e+00
160,1.200000000000e+00,3.752121320344e+01,1.393933982822e+00
161,1.200000000000e+00,3.876148050297e+01,1.692597485145e+00
162,1.200000000000e+00,3.126148050297e+01,1.807402514855e+00
163,1.200000000000e+00,3.252121320344e+01,1.606066017178e+00
164,1.200000000000e+00,3.377771638598e+01,1.388581929877e+00
165,1.200000000000e+00,3.503000000000e+01,1.150000000000e+00
166,1.200000000000e+00,3.627771638598e+01,8.885819298767e-01
167,1.200000000000e+00,3.752121320344e+01,6.060660171780e-01
168,1.200000000000e+00,3.876148050297e+01,3.074025148548e-01
169,-8.425974851452e-01,3.123622339643e+01,0.000000000000e+00
170,-4.939339828220e-01,3.247454415588e+01,0.000000000000e+00
171,-1.614180701233e-01,3.371674033683e+01,0.000000000000e+00
172,1.500000000000e-01,3.496400000000e+01,0.000000000000e+00
173,4.385819298767e-01,3.621674033683e+01,0.000000000000e+00
174,7.060660171780e-01,3.747454415588e+01,0.000000000000e+00
175,9.574025148548e-01,3.873622339643e+01,0.000000000000e+00
176,8.425974851452e-01,3.123622339643e+01,0.000000000000e+00
177,4.939339828220e-01,3.247454415588e+01,0.000000000000e+00
178,1.614180701233e-01,3.371674033683e+01,0.000000000000e+00
179,-1.500000000000e-01,3.496400000000e+01,0.000000000000e+00
180,-4.385819298767e-01,3.621674033683e+01,0.000000000000e+00
181,-7.060660171780e-01,3.747454415588e+01,0.000000000000e+00
182,-9.574025148548e-01,3.873622339643e+01,0.000000000000e+00
183,-8.425974851452e-01,3.123622339643e+01,2.000000000000e+00
184,-4.939339828220e-01,3.247454415588e+01,2.000000000000e+00
185,-1.614180701233e-01,3.371674033683e+01,2.000000000000e+00
186,1.500000000000e-01,3.496400000000e+01,2.000000000000e+00
187,4.385819298767e-01,3.621674033683e+01,2.000000000000e+00
188,7.060660171780e-01,3.747454415588e+01,2.000000000000e+00
189,9.574025148548e-01,3.873622339643e+01,2.000000000000e+00
190,8.425974851452e-01,3.123622339643e+01,2.000000000000e+00
191,4.939339828220e-01,3.247454415588e+01,2.000000000000e+00
192,1.614180701233e-01,3.371674033683e+01,2.000000000000e+00
193,-1.500000000000e-01,3.496400000000e+01,2.000000000000e+00
194,-4.385819298767e-01,3.621674033683e+01,2.000000000000e+00
195,-7.060660171780e-01,3.747454415588e+01,2.000000000000e+00
196,-9.574025148548e-01,3.873622339643e+01,2.000000000000e+00
197,-1.200000000000e+00,4.503000000000e+01,8.500000000000e-01
198,-1.200000000000e+00,4.503000000000e+01,1.150000000000e+00
199,1.200000000000e+00,4.503000000000e+01,8.500000000000e-01
200,1.200000000000e+00,4.503000000000e+01,1.150000000000e+00
201,1.500000000000e-01,4.496400000000e+01,0.000000000000e+00
202,-1.500000000000e-01,4.496400000000e+01,0.000000000000e+00
203,1.500000000000e-01,4.496400000000e+01,2.000000000000e+00
204,-1.500000000000e-01,4.496400000000e+01,2.000000000000e+00
*ELEMENT,TYPE=B31,ELSET=ALL
1,1,5
2,2,6
3,3,7
4,4,8
5,5,25
6,25,9
7,6,26
8,26,10
9,7,27
10,27,11
11,8,28
12,28,12
13,9,13
14,10,14
15,11,15
16,12,16
17,13,29
18,29,17
19,14,30
20,30,18
21,15,31
22,31,19
23,16,32
24,32,20
25,17,33
26,33,34
27,34,35
28,35,21
29,18,36
30,36,37
31,37,38
32,38,22
33,19,39
34,39,40
35,40,41
36,41,23
37,20,42
38,42,43
39,43,44
40,44,24
41,1,2
42,3,4
43,1,3
44,2,4
45,5,45
46,45,6
47,7,46
48,46,8
49,5,47
50,47,7
51,6,48
52,48,8
53,9,10
54,11,12
55,9,11
56,10,12
57,13,49
58,49,50
59,50,51
60,51,14
61,15,52
62,52,53
63,53,54
64,54,16
65,13,55
66,55,56
67,56,57
68,57,15
69,14,58
70,58,59
71,59,60
72,60,16
73,17,18
74,19,20
75,17,19
76,18,20
77,21,22
78,23,24
79,21,23
80,22,24
81,1,61
82,61,62
83,62,63
84,63,64
85,64,65
86,65,66
87,66,67
88,67,7
89,3,68
90,68,69
91,69,70
92,70,71
93,71,72
94,72,73
95,73,74
96,74,5
97,2,75
98,75,76
99,76,77
100,77,78
101,78,79
102,79,80
103,80,81
104,81,8
105,4,82
106,82,83
107,83,84
108,84,85
109,85,86
110,86,87
111,87,88
112,88,6
113,1,89
114,89,90
115,90,91
116,91,92
117,92,93
118,93,94
119,94,95
120,95,6
121,2,96
122,96,97
123,97,98
124,98,99
125,99,100
126,100,101
127,101,102
128,102,5
129,3,103
130,103,104
131,104,105
132,105,106
133,106,107
134,107,108
135,108,109
136,109,8
137,4,110
138,110,111
139,111,112
140,112,113
141,113,114
142,114,115
143,115,116
144,116,7
145,5,11
146,7,9
147,6,12
148,8,10
149,5,10
150,6,9
151,7,12
152,8,11
153,9,117
154,117,118
155,118,119
156,119,15
157,11,120
158,120,121
159,121,122
160,122,13
161,10,123
162,123,124
163,124,125
164,125,16
165,12,126
166,126,127
167,127,128
168,128,14
169,9,129
170,129,130
171,130,131
172,131,14
173,10,132
174,132,133
175,133,134
176,134,13
177,11,135
178,135,136
179,136,137
180,137,16
181,12,138
182,138,139
183,139,140
184,140,15
185,13,141
186,141,142
187,142,143
188,143,144
189,144,145
190,145,146
191,146,147
192,147,19
193,15,148
194,148,149
195,149,150
196,150,151
197,151,152
198,152,153
199,153,154
200,154,17
201,14,155
202,155,156
203,156,157
204,157,158
205,158,159
206,159,160
207,160,161
208,161,20
209,16,162
210,162,163
211,163,164
212,164,165
213,165,166
214,166,167
215,167,168
216,168,18
217,13,169
218,169,170
219,170,171
220,171,172
221,172,173
222,173,174
223,174,175
224,175,18
225,14,176
226,176,177
227,177,178
228,178,179
229,179,180
230,180,181
231,181,182
232,182,17
233,15,183
234,183,184
235,184,185
236,185,186
237,186,187
238,187,188
239,188,189
240,189,20
241,16,190
242,190,191
243,191,192
244,192,193
245,193,194
246,194,195
247,195,196
248,196,19
249,17,197
250,197,23
251,19,198
252,198,21
253,18,199
254,199,24
255,20,200
256,200,22
257,17,201
258,201,22
259,18,202
260,202,21
261,19,203
262,203,24
263,20,204
264,204,23
*NSET,NSET=NALL,GENERATE
1,204,1
*NSET,NSET=LEFT
1,2,3,4
*NSET,NSET=RIGHT
21,22,23,24
*MATERIAL,NAME=STEEL
*ELASTIC
2.100000000000e+11,0.300000000000
*BEAM SECTION,ELSET=ALL,MATERIAL=STEEL,SECTION=RECT
6.000000000000e-02,4.000000000000e-02
0.371390676354,0.557086014531,0.742781352708
*BOUNDARY
LEFT,1,6,0.0
*STEP
*STATIC
*BOUNDARY
21,1,1,5.000000000000e-03
21,2,2,0.0
21,3,3,-6.000000000000e-03
*BOUNDARY
22,1,1,5.000000000000e-03
22,2,2,0.0
22,3,3,6.000000000000e-03
*BOUNDARY
23,1,1,-5.000000000000e-03
23,2,2,0.0
23,3,3,-6.000000000000e-03
*BOUNDARY
24,1,1,-5.000000000000e-03
24,2,2,0.0
24,3,3,6.000000000000e-03
*NODE FILE,NSET=NALL
U
*NODE PRINT,NSET=NALL
U
*NODE PRINT,NSET=RIGHT
RF
*EL PRINT,ELSET=ALL,TOTALS=YES
ELSE
*END STEP
