*HEADING
Normalized cross-passage space-truss torsion benchmark
*NODE
1,-1.200000000000e+00,0.000000000000e+00,0.000000000000e+00
2,1.200000000000e+00,0.000000000000e+00,0.000000000000e+00
3,-1.200000000000e+00,0.000000000000e+00,2.000000000000e+00
4,1.200000000000e+00,0.000000000000e+00,2.000000000000e+00
5,-1.200000000000e+00,1.000000000000e+01,0.000000000000e+00
6,1.200000000000e+00,1.000000000000e+01,0.000000000000e+00
7,-1.200000000000e+00,1.000000000000e+01,2.000000000000e+00
8,1.200000000000e+00,1.000000000000e+01,2.000000000000e+00
9,-1.200000000000e+00,2.000000000000e+01,0.000000000000e+00
10,1.200000000000e+00,2.000000000000e+01,0.000000000000e+00
11,-1.200000000000e+00,2.000000000000e+01,2.000000000000e+00
12,1.200000000000e+00,2.000000000000e+01,2.000000000000e+00
13,-1.200000000000e+00,3.000000000000e+01,0.000000000000e+00
14,1.200000000000e+00,3.000000000000e+01,0.000000000000e+00
15,-1.200000000000e+00,3.000000000000e+01,2.000000000000e+00
16,1.200000000000e+00,3.000000000000e+01,2.000000000000e+00
17,-1.200000000000e+00,4.000000000000e+01,0.000000000000e+00
18,1.200000000000e+00,4.000000000000e+01,0.000000000000e+00
19,-1.200000000000e+00,4.000000000000e+01,2.000000000000e+00
20,1.200000000000e+00,4.000000000000e+01,2.000000000000e+00
21,-1.200000000000e+00,5.000000000000e+01,0.000000000000e+00
22,1.200000000000e+00,5.000000000000e+01,0.000000000000e+00
23,-1.200000000000e+00,5.000000000000e+01,2.000000000000e+00
24,1.200000000000e+00,5.000000000000e+01,2.000000000000e+00
25,-1.200000000000e+00,5.000000000000e+00,-1.500000000000e-01
26,1.200000000000e+00,5.000000000000e+00,1.500000000000e-01
27,-1.200000000000e+00,5.000000000000e+00,1.850000000000e+00
28,1.200000000000e+00,5.000000000000e+00,2.150000000000e+00
29,-1.200000000000e+00,1.500000000000e+01,-1.500000000000e-01
30,1.200000000000e+00,1.500000000000e+01,1.500000000000e-01
31,-1.200000000000e+00,1.500000000000e+01,1.850000000000e+00
32,1.200000000000e+00,1.500000000000e+01,2.150000000000e+00
33,-1.200000000000e+00,2.500000000000e+01,-1.500000000000e-01
34,1.200000000000e+00,2.500000000000e+01,1.500000000000e-01
35,-1.200000000000e+00,2.500000000000e+01,1.850000000000e+00
36,1.200000000000e+00,2.500000000000e+01,2.150000000000e+00
37,-1.200000000000e+00,3.500000000000e+01,-1.500000000000e-01
38,1.200000000000e+00,3.500000000000e+01,1.500000000000e-01
39,-1.200000000000e+00,3.500000000000e+01,1.850000000000e+00
40,1.200000000000e+00,3.500000000000e+01,2.150000000000e+00
41,-1.200000000000e+00,4.500000000000e+01,-1.500000000000e-01
42,1.200000000000e+00,4.500000000000e+01,1.500000000000e-01
43,-1.200000000000e+00,4.500000000000e+01,1.850000000000e+00
44,1.200000000000e+00,4.500000000000e+01,2.150000000000e+00
45,0.000000000000e+00,-3.600000000000e-02,0.000000000000e+00
46,0.000000000000e+00,3.600000000000e-02,2.000000000000e+00
47,-1.200000000000e+00,3.000000000000e-02,1.000000000000e+00
48,1.200000000000e+00,-3.000000000000e-02,1.000000000000e+00
49,0.000000000000e+00,9.964000000000e+00,0.000000000000e+00
50,0.000000000000e+00,1.003600000000e+01,2.000000000000e+00
51,-1.200000000000e+00,1.003000000000e+01,1.000000000000e+00
52,1.200000000000e+00,9.970000000000e+00,1.000000000000e+00
53,-9.000000000000e-01,1.998622339643e+01,0.000000000000e+00
54,-6.000000000000e-01,1.997454415588e+01,0.000000000000e+00
55,-3.000000000000e-01,1.996674033683e+01,0.000000000000e+00
56,0.000000000000e+00,1.996400000000e+01,0.000000000000e+00
57,3.000000000000e-01,1.996674033683e+01,0.000000000000e+00
58,6.000000000000e-01,1.997454415588e+01,0.000000000000e+00
59,9.000000000000e-01,1.998622339643e+01,0.000000000000e+00
60,-9.000000000000e-01,2.001377660357e+01,2.000000000000e+00
61,-6.000000000000e-01,2.002545584412e+01,2.000000000000e+00
62,-3.000000000000e-01,2.003325966317e+01,2.000000000000e+00
63,0.000000000000e+00,2.003600000000e+01,2.000000000000e+00
64,3.000000000000e-01,2.003325966317e+01,2.000000000000e+00
65,6.000000000000e-01,2.002545584412e+01,2.000000000000e+00
66,9.000000000000e-01,2.001377660357e+01,2.000000000000e+00
67,-1.200000000000e+00,2.001148050297e+01,2.500000000000e-01
68,-1.200000000000e+00,2.002121320344e+01,5.000000000000e-01
69,-1.200000000000e+00,2.002771638598e+01,7.500000000000e-01
70,-1.200000000000e+00,2.003000000000e+01,1.000000000000e+00
71,-1.200000000000e+00,2.002771638598e+01,1.250000000000e+00
72,-1.200000000000e+00,2.002121320344e+01,1.500000000000e+00
73,-1.200000000000e+00,2.001148050297e+01,1.750000000000e+00
74,1.200000000000e+00,1.998851949703e+01,2.500000000000e-01
75,1.200000000000e+00,1.997878679656e+01,5.000000000000e-01
76,1.200000000000e+00,1.997228361402e+01,7.500000000000e-01
77,1.200000000000e+00,1.997000000000e+01,1.000000000000e+00
78,1.200000000000e+00,1.997228361402e+01,1.250000000000e+00
79,1.200000000000e+00,1.997878679656e+01,1.500000000000e+00
80,1.200000000000e+00,1.998851949703e+01,1.750000000000e+00
81,-6.000000000000e-01,3.997454415588e+01,0.000000000000e+00
82,0.000000000000e+00,3.996400000000e+01,0.000000000000e+00
83,6.000000000000e-01,3.997454415588e+01,0.000000000000e+00
84,-6.000000000000e-01,4.002545584412e+01,2.000000000000e+00
85,0.000000000000e+00,4.003600000000e+01,2.000000000000e+00
86,6.000000000000e-01,4.002545584412e+01,2.000000000000e+00
87,-1.200000000000e+00,4.002121320344e+01,5.000000000000e-01
88,-1.200000000000e+00,4.003000000000e+01,1.000000000000e+00
89,-1.200000000000e+00,4.002121320344e+01,1.500000000000e+00
90,1.200000000000e+00,3.997878679656e+01,5.000000000000e-01
91,1.200000000000e+00,3.997000000000e+01,1.000000000000e+00
92,1.200000000000e+00,3.997878679656e+01,1.500000000000e+00
93,0.000000000000e+00,4.996400000000e+01,0.000000000000e+00
94,0.000000000000e+00,5.003600000000e+01,2.000000000000e+00
95,-1.200000000000e+00,5.003000000000e+01,1.000000000000e+00
96,1.200000000000e+00,4.997000000000e+01,1.000000000000e+00
97,-1.200000000000e+00,5.030000000000e+00,8.500000000000e-01
98,-1.200000000000e+00,5.030000000000e+00,1.150000000000e+00
99,1.200000000000e+00,5.030000000000e+00,8.500000000000e-01
100,1.200000000000e+00,5.030000000000e+00,1.150000000000e+00
101,1.500000000000e-01,4.964000000000e+00,0.000000000000e+00
102,-1.500000000000e-01,4.964000000000e+00,0.000000000000e+00
103,1.500000000000e-01,4.964000000000e+00,2.000000000000e+00
104,-1.500000000000e-01,4.964000000000e+00,2.000000000000e+00
105,-1.200000000000e+00,1.503000000000e+01,8.500000000000e-01
106,-1.200000000000e+00,1.503000000000e+01,1.150000000000e+00
107,1.200000000000e+00,1.503000000000e+01,8.500000000000e-01
108,1.200000000000e+00,1.503000000000e+01,1.150000000000e+00
109,1.500000000000e-01,1.496400000000e+01,0.000000000000e+00
110,-1.500000000000e-01,1.496400000000e+01,0.000000000000e+00
111,1.500000000000e-01,1.496400000000e+01,2.000000000000e+00
112,-1.500000000000e-01,1.496400000000e+01,2.000000000000e+00
113,-1.200000000000e+00,2.252121320344e+01,3.939339828220e-01
114,-1.200000000000e+00,2.503000000000e+01,8.500000000000e-01
115,-1.200000000000e+00,2.752121320344e+01,1.393933982822e+00
116,-1.200000000000e+00,2.252121320344e+01,1.606066017178e+00
117,-1.200000000000e+00,2.503000000000e+01,1.150000000000e+00
118,-1.200000000000e+00,2.752121320344e+01,6.060660171780e-01
119,1.200000000000e+00,2.252121320344e+01,3.939339828220e-01
120,1.200000000000e+00,2.503000000000e+01,8.500000000000e-01
121,1.200000000000e+00,2.752121320344e+01,1.393933982822e+00
122,1.200000000000e+00,2.252121320344e+01,1.606066017178e+00
123,1.200000000000e+00,2.503000000000e+01,1.150000000000e+00
124,1.200000000000e+00,2.752121320344e+01,6.060660171780e-01
125,-4.939339828220e-01,2.247454415588e+01,0.000000000000e+00
126,1.500000000000e-01,2.496400000000e+01,0.000000000000e+00
127,7.060660171780e-01,2.747454415588e+01,0.000000000000e+00
128,4.939339828220e-01,2.247454415588e+01,0.000000000000e+00
129,-1.500000000000e-01,2.496400000000e+01,0.000000000000e+00
130,-7.060660171780e-01,2.747454415588e+01,0.000000000000e+00
131,-4.939339828220e-01,2.247454415588e+01,2.000000000000e+00
132,1.500000000000e-01,2.496400000000e+01,2.000000000000e+00
133,7.060660171780e-01,2.747454415588e+01,2.000000000000e+00
134,4.939339828220e-01,2.247454415588e+01,2.000000000000e+00
135,-1.500000000000e-01,2.496400000000e+01,2.000000000000e+00
136,-7.060660171780e-01,2.747454415588e+01,2.000000000000e+00
137,-1.200000000000e+00,3.252121320344e+01,3.939339828220e-01
138,-1.200000000000e+00,3.503000000000e+01,8.500000000000e-01
139,-1.200000000000e+00,3.752121320344e+01,1.393933982822e+00
140,-1.200000000000e+00,3.252121320344e+01,1.606066017178e+00
141,-1.200000000000e+00,3.503000000000e+01,1.150000000000e+00
142,-1.200000000000e+00,3.752121320344e+01,6.060660171780e-01
143,1.200000000000e+00,3.252121320344e+01,3.939339828220e-01
144,1.200000000000e+00,3.503000000000e+01,8.500000000000e-01
145,1.200000000000e+00,3.752121320344e+01,1.393933982822e+00
146,1.200000000000e+00,3.252121320344e+01,1.606066017178e+00
147,1.200000000000e+00,3.503000000000e+01,1.150000000000e+00
148,1.200000000000e+00,3.752121320344e+01,6.060660171780e-01
149,-4.939339828220e-01,3.247454415588e+01,0.000000000000e+00
150,1.500000000000e-01,3.496400000000e+01,0.000000000000e+00
151,7.060660171780e-01,3.747454415588e+01,0.000000000000e+00
152,4.939339828220e-01,3.247454415588e+01,0.000000000000e+00
153,-1.500000000000e-01,3.496400000000e+01,0.000000000000e+00
154,-7.060660171780e-01,3.747454415588e+01,0.000000000000e+00
155,-4.939339828220e-01,3.247454415588e+01,2.000000000000e+00
156,1.500000000000e-01,3.496400000000e+01,2.000000000000e+00
157,7.060660171780e-01,3.747454415588e+01,2.000000000000e+00
158,4.939339828220e-01,3.247454415588e+01,2.000000000000e+00
159,-1.500000000000e-01,3.496400000000e+01,2.000000000000e+00
160,-7.060660171780e-01,3.747454415588e+01,2.000000000000e+00
161,-1.200000000000e+00,4.252121320344e+01,3.939339828220e-01
162,-1.200000000000e+00,4.503000000000e+01,8.500000000000e-01
163,-1.200000000000e+00,4.752121320344e+01,1.393933982822e+00
164,-1.200000000000e+00,4.252121320344e+01,1.606066017178e+00
165,-1.200000000000e+00,4.503000000000e+01,1.150000000000e+00
166,-1.200000000000e+00,4.752121320344e+01,6.060660171780e-01
167,1.200000000000e+00,4.252121320344e+01,3.939339828220e-01
168,1.200000000000e+00,4.503000000000e+01,8.500000000000e-01
169,1.200000000000e+00,4.752121320344e+01,1.393933982822e+00
170,1.200000000000e+00,4.252121320344e+01,1.606066017178e+00
171,1.200000000000e+00,4.503000000000e+01,1.150000000000e+00
172,1.200000000000e+00,4.752121320344e+01,6.060660171780e-01
173,-4.939339828220e-01,4.247454415588e+01,0.000000000000e+00
174,1.500000000000e-01,4.496400000000e+01,0.000000000000e+00
175,7.060660171780e-01,4.747454415588e+01,0.000000000000e+00
176,4.939339828220e-01,4.247454415588e+01,0.000000000000e+00
177,-1.500000000000e-01,4.496400000000e+01,0.000000000000e+00
178,-7.060660171780e-01,4.747454415588e+01,0.000000000000e+00
179,-4.939339828220e-01,4.247454415588e+01,2.000000000000e+00
180,1.500000000000e-01,4.496400000000e+01,2.000000000000e+00
181,7.060660171780e-01,4.747454415588e+01,2.000000000000e+00
182,4.939339828220e-01,4.247454415588e+01,2.000000000000e+00
183,-1.500000000000e-01,4.496400000000e+01,2.000000000000e+00
184,-7.060660171780e-01,4.747454415588e+01,2.000000000000e+00
*ELEMENT,TYPE=B31,ELSET=ALL
1,1,25
2,25,5
3,2,26
4,26,6
5,3,27
6,27,7
7,4,28
8,28,8
9,5,29
10,29,9
11,6,30
12,30,10
13,7,31
14,31,11
15,8,32
16,32,12
17,9,33
18,33,13
19,10,34
20,34,14
21,11,35
22,35,15
23,12,36
24,36,16
25,13,37
26,37,17
27,14,38
28,38,18
29,15,39
30,39,19
31,16,40
32,40,20
33,17,41
34,41,21
35,18,42
36,42,22
37,19,43
38,43,23
39,20,44
40,44,24
41,1,45
42,45,2
43,3,46
44,46,4
45,1,47
46,47,3
47,2,48
48,48,4
49,5,49
50,49,6
51,7,50
52,50,8
53,5,51
54,51,7
55,6,52
56,52,8
57,9,53
58,53,54
59,54,55
60,55,56
61,56,57
62,57,58
63,58,59
64,59,10
65,11,60
66,60,61
67,61,62
68,62,63
69,63,64
70,64,65
71,65,66
72,66,12
73,9,67
74,67,68
75,68,69
76,69,70
77,70,71
78,71,72
79,72,73
80,73,11
81,10,74
82,74,75
83,75,76
84,76,77
85,77,78
86,78,79
87,79,80
88,80,12
89,13,14
90,15,16
91,13,15
92,14,16
93,17,81
94,81,82
95,82,83
96,83,18
97,19,84
98,84,85
99,85,86
100,86,20
101,17,87
102,87,88
103,88,89
104,89,19
105,18,90
106,90,91
107,91,92
108,92,20
109,21,93
110,93,22
111,23,94
112,94,24
113,21,95
114,95,23
115,22,96
116,96,24
117,1,97
118,97,7
119,3,98
120,98,5
121,2,99
122,99,8
123,4,100
124,100,6
125,1,101
126,101,6
127,2,102
128,102,5
129,3,103
130,103,8
131,4,104
132,104,7
133,5,105
134,105,11
135,7,106
136,106,9
137,6,107
138,107,12
139,8,108
140,108,10
141,5,109
142,109,10
143,6,110
144,110,9
145,7,111
146,111,12
147,8,112
148,112,11
149,9,113
150,113,114
151,114,115
152,115,15
153,11,116
154,116,117
155,117,118
156,118,13
157,10,119
158,119,120
159,120,121
160,121,16
161,12,122
162,122,123
163,123,124
164,124,14
165,9,125
166,125,126
167,126,127
168,127,14
169,10,128
170,128,129
171,129,130
172,130,13
173,11,131
174,131,132
175,132,133
176,133,16
177,12,134
178,134,135
179,135,136
180,136,15
181,13,137
182,137,138
183,138,139
184,139,19
185,15,140
186,140,141
187,141,142
188,142,17
189,14,143
190,143,144
191,144,145
192,145,20
193,16,146
194,146,147
195,147,148
196,148,18
197,13,149
198,149,150
199,150,151
200,151,18
201,14,152
202,152,153
203,153,154
204,154,17
205,15,155
206,155,156
207,156,157
208,157,20
209,16,158
210,158,159
211,159,160
212,160,19
213,17,161
214,161,162
215,162,163
216,163,23
217,19,164
218,164,165
219,165,166
220,166,21
221,18,167
222,167,168
223,168,169
224,169,24
225,20,170
226,170,171
227,171,172
228,172,22
229,17,173
230,173,174
231,174,175
232,175,22
233,18,176
234,176,177
235,177,178
236,178,21
237,19,179
238,179,180
239,180,181
240,181,24
241,20,182
242,182,183
243,183,184
244,184,23
*NSET,NSET=NALL,GENERATE
1,184,1
*NSET,NSET=LEFT
1,2,3,4
*NSET,NSET=RIGHT
21,22,23,24
*MATERIAL,NAME=STEEL
*ELASTIC
2.100000000000e+11,0.300000000000
*BEAM SECTION,ELSET=ALL,MATERIAL=STEEL,SECTION=RECT
6.000000000000e-02,4.000000000000e-02
0.371390676354,0.557086014531,0.742781352708
*BOUNDARY
LEFT,1,6,0.0
*STEP
*STATIC
*BOUNDARY
21,1,1,5.000000000000e-03
21,2,2,0.0
21,3,3,-6.000000000000e-03
*BOUNDARY
22,1,1,5.000000000000e-03
22,2,2,0.0
22,3,3,6.000000000000e-03
*BOUNDARY
23,1,1,-5.000000000000e-03
23,2,2,0.0
23,3,3,-6.000000000000e-03
*BOUNDARY
24,1,1,-5.000000000000e-03
24,2,2,0.0
24,3,3,6.000000000000e-03
*NODE FILE,NSET=NALL
U
*NODE PRINT,NSET=NALL
U
*NODE PRINT,NSET=RIGHT
RF
*EL PRINT,ELSET=ALL,TOTALS=YES
ELSE
*END STEP
