*HEADING
T01 S-LIN t01_slin_href20 conforming C3D8 frozen T
units: mm, N, s, MPa, t. Illustrative steel, not a coupon card.
beam=T01 case=S-LIN job=t01_slin_href20 type=C3D8
E=210000.0 nu=0.3 fy=235.0 load=-5000.0 N on TIP_TOP
*NODE, NSET=NALL
1, 0, -10, 0
2, 20, -10, 1.2
3, 20, 0, 1.2
4, 0, 0, 0
5, 0, -10, 40
6, 20, -10, 40.96
7, 20, 0, 40.96
8, 0, 0, 40
9, 0, -10, 80
10, 20, -10, 80.72
11, 20, 0, 80.72
12, 0, 0, 80
13, 0, -10, 120
14, 20, -10, 120.48
15, 20, 0, 120.48
16, 0, 0, 120
17, 0, -10, 160
18, 20, -10, 160.24
19, 20, 0, 160.24
20, 0, 0, 160
21, 0, -10, 200
22, 20, -10, 200
23, 20, 0, 200
24, 0, 0, 200
25, 20, 10, 1.2
26, 0, 10, 0
27, 20, 10, 40.96
28, 0, 10, 40
29, 20, 10, 80.72
30, 0, 10, 80
31, 20, 10, 120.48
32, 0, 10, 120
33, 20, 10, 160.24
34, 0, 10, 160
35, 20, 10, 200
36, 0, 10, 200
37, 0, -120, 200
38, 20, -120, 200
39, 20, -92.5, 200
40, 0, -92.5, 200
41, 0, -120, 210
42, 20, -120, 210
43, 20, -92.5, 210
44, 0, -92.5, 210
45, 0, -120, 220
46, 20, -120, 220
47, 20, -92.5, 220
48, 0, -92.5, 220
49, 20, -65, 200
50, 0, -65, 200
51, 20, -65, 210
52, 0, -65, 210
53, 20, -65, 220
54, 0, -65, 220
55, 20, -37.5, 200
56, 0, -37.5, 200
57, 20, -37.5, 210
58, 0, -37.5, 210
59, 20, -37.5, 220
60, 0, -37.5, 220
61, 20, -10, 210
62, 0, -10, 210
63, 20, -10, 220
64, 0, -10, 220
65, 20, 0, 210
66, 0, 0, 210
67, 20, 0, 220
68, 0, 0, 220
69, 20, 10, 210
70, 0, 10, 210
71, 20, 10, 220
72, 0, 10, 220
73, 20, 37.5, 200
74, 0, 37.5, 200
75, 20, 37.5, 210
76, 0, 37.5, 210
77, 20, 37.5, 220
78, 0, 37.5, 220
79, 20, 65, 200
80, 0, 65, 200
81, 20, 65, 210
82, 0, 65, 210
83, 20, 65, 220
84, 0, 65, 220
85, 20, 92.5, 200
86, 0, 92.5, 200
87, 20, 92.5, 210
88, 0, 92.5, 210
89, 20, 92.5, 220
90, 0, 92.5, 220
91, 20, 120, 200
92, 0, 120, 200
93, 20, 120, 210
94, 0, 120, 210
95, 20, 120, 220
96, 0, 120, 220
97, 40, -10, 2.4
98, 40, 0, 2.4
99, 40, -10, 41.92
100, 40, 0, 41.92
101, 40, -10, 81.44
102, 40, 0, 81.44
103, 40, -10, 120.96
104, 40, 0, 120.96
105, 40, -10, 160.48
106, 40, 0, 160.48
107, 40, -10, 200
108, 40, 0, 200
109, 40, 10, 2.4
110, 40, 10, 41.92
111, 40, 10, 81.44
112, 40, 10, 120.96
113, 40, 10, 160.48
114, 40, 10, 200
115, 40, -120, 200
116, 40, -92.5, 200
117, 40, -120, 210
118, 40, -92.5, 210
119, 40, -120, 220
120, 40, -92.5, 220
121, 40, -65, 200
122, 40, -65, 210
123, 40, -65, 220
124, 40, -37.5, 200
125, 40, -37.5, 210
126, 40, -37.5, 220
127, 40, -10, 210
128, 40, -10, 220
129, 40, 0, 210
130, 40, 0, 220
131, 40, 10, 210
132, 40, 10, 220
133, 40, 37.5, 200
134, 40, 37.5, 210
135, 40, 37.5, 220
136, 40, 65, 200
137, 40, 65, 210
138, 40, 65, 220
139, 40, 92.5, 200
140, 40, 92.5, 210
141, 40, 92.5, 220
142, 40, 120, 200
143, 40, 120, 210
144, 40, 120, 220
145, 60, -10, 3.6
146, 60, 0, 3.6
147, 60, -10, 42.88
148, 60, 0, 42.88
149, 60, -10, 82.16
150, 60, 0, 82.16
151, 60, -10, 121.44
152, 60, 0, 121.44
153, 60, -10, 160.72
154, 60, 0, 160.72
155, 60, -10, 200
156, 60, 0, 200
157, 60, 10, 3.6
158, 60, 10, 42.88
159, 60, 10, 82.16
160, 60, 10, 121.44
161, 60, 10, 160.72
162, 60, 10, 200
163, 60, -120, 200
164, 60, -92.5, 200
165, 60, -120, 210
166, 60, -92.5, 210
167, 60, -120, 220
168, 60, -92.5, 220
169, 60, -65, 200
170, 60, -65, 210
171, 60, -65, 220
172, 60, -37.5, 200
173, 60, -37.5, 210
174, 60, -37.5, 220
175, 60, -10, 210
176, 60, -10, 220
177, 60, 0, 210
178, 60, 0, 220
179, 60, 10, 210
180, 60, 10, 220
181, 60, 37.5, 200
182, 60, 37.5, 210
183, 60, 37.5, 220
184, 60, 65, 200
185, 60, 65, 210
186, 60, 65, 220
187, 60, 92.5, 200
188, 60, 92.5, 210
189, 60, 92.5, 220
190, 60, 120, 200
191, 60, 120, 210
192, 60, 120, 220
193, 80, -10, 4.8
194, 80, 0, 4.8
195, 80, -10, 43.84
196, 80, 0, 43.84
197, 80, -10, 82.88
198, 80, 0, 82.88
199, 80, -10, 121.92
200, 80, 0, 121.92
201, 80, -10, 160.96
202, 80, 0, 160.96
203, 80, -10, 200
204, 80, 0, 200
205, 80, 10, 4.8
206, 80, 10, 43.84
207, 80, 10, 82.88
208, 80, 10, 121.92
209, 80, 10, 160.96
210, 80, 10, 200
211, 80, -120, 200
212, 80, -92.5, 200
213, 80, -120, 210
214, 80, -92.5, 210
215, 80, -120, 220
216, 80, -92.5, 220
217, 80, -65, 200
218, 80, -65, 210
219, 80, -65, 220
220, 80, -37.5, 200
221, 80, -37.5, 210
222, 80, -37.5, 220
223, 80, -10, 210
224, 80, -10, 220
225, 80, 0, 210
226, 80, 0, 220
227, 80, 10, 210
228, 80, 10, 220
229, 80, 37.5, 200
230, 80, 37.5, 210
231, 80, 37.5, 220
232, 80, 65, 200
233, 80, 65, 210
234, 80, 65, 220
235, 80, 92.5, 200
236, 80, 92.5, 210
237, 80, 92.5, 220
238, 80, 120, 200
239, 80, 120, 210
240, 80, 120, 220
241, 100, -10, 6
242, 100, 0, 6
243, 100, -10, 44.8
244, 100, 0, 44.8
245, 100, -10, 83.6
246, 100, 0, 83.6
247, 100, -10, 122.4
248, 100, 0, 122.4
249, 100, -10, 161.2
250, 100, 0, 161.2
251, 100, -10, 200
252, 100, 0, 200
253, 100, 10, 6
254, 100, 10, 44.8
255, 100, 10, 83.6
256, 100, 10, 122.4
257, 100, 10, 161.2
258, 100, 10, 200
259, 100, -120, 200
260, 100, -92.5, 200
261, 100, -120, 210
262, 100, -92.5, 210
263, 100, -120, 220
264, 100, -92.5, 220
265, 100, -65, 200
266, 100, -65, 210
267, 100, -65, 220
268, 100, -37.5, 200
269, 100, -37.5, 210
270, 100, -37.5, 220
271, 100, -10, 210
272, 100, -10, 220
273, 100, 0, 210
274, 100, 0, 220
275, 100, 10, 210
276, 100, 10, 220
277, 100, 37.5, 200
278, 100, 37.5, 210
279, 100, 37.5, 220
280, 100, 65, 200
281, 100, 65, 210
282, 100, 65, 220
283, 100, 92.5, 200
284, 100, 92.5, 210
285, 100, 92.5, 220
286, 100, 120, 200
287, 100, 120, 210
288, 100, 120, 220
289, 120, -10, 7.2
290, 120, 0, 7.2
291, 120, -10, 45.76
292, 120, 0, 45.76
293, 120, -10, 84.32
294, 120, 0, 84.32
295, 120, -10, 122.88
296, 120, 0, 122.88
297, 120, -10, 161.44
298, 120, 0, 161.44
299, 120, -10, 200
300, 120, 0, 200
301, 120, 10, 7.2
302, 120, 10, 45.76
303, 120, 10, 84.32
304, 120, 10, 122.88
305, 120, 10, 161.44
306, 120, 10, 200
307, 120, -120, 200
308, 120, -92.5, 200
309, 120, -120, 210
310, 120, -92.5, 210
311, 120, -120, 220
312, 120, -92.5, 220
313, 120, -65, 200
314, 120, -65, 210
315, 120, -65, 220
316, 120, -37.5, 200
317, 120, -37.5, 210
318, 120, -37.5, 220
319, 120, -10, 210
320, 120, -10, 220
321, 120, 0, 210
322, 120, 0, 220
323, 120, 10, 210
324, 120, 10, 220
325, 120, 37.5, 200
326, 120, 37.5, 210
327, 120, 37.5, 220
328, 120, 65, 200
329, 120, 65, 210
330, 120, 65, 220
331, 120, 92.5, 200
332, 120, 92.5, 210
333, 120, 92.5, 220
334, 120, 120, 200
335, 120, 120, 210
336, 120, 120, 220
337, 140, -10, 8.4
338, 140, 0, 8.4
339, 140, -10, 46.72
340, 140, 0, 46.72
341, 140, -10, 85.04
342, 140, 0, 85.04
343, 140, -10, 123.36
344, 140, 0, 123.36
345, 140, -10, 161.68
346, 140, 0, 161.68
347, 140, -10, 200
348, 140, 0, 200
349, 140, 10, 8.4
350, 140, 10, 46.72
351, 140, 10, 85.04
352, 140, 10, 123.36
353, 140, 10, 161.68
354, 140, 10, 200
355, 140, -120, 200
356, 140, -92.5, 200
357, 140, -120, 210
358, 140, -92.5, 210
359, 140, -120, 220
360, 140, -92.5, 220
361, 140, -65, 200
362, 140, -65, 210
363, 140, -65, 220
364, 140, -37.5, 200
365, 140, -37.5, 210
366, 140, -37.5, 220
367, 140, -10, 210
368, 140, -10, 220
369, 140, 0, 210
370, 140, 0, 220
371, 140, 10, 210
372, 140, 10, 220
373, 140, 37.5, 200
374, 140, 37.5, 210
375, 140, 37.5, 220
376, 140, 65, 200
377, 140, 65, 210
378, 140, 65, 220
379, 140, 92.5, 200
380, 140, 92.5, 210
381, 140, 92.5, 220
382, 140, 120, 200
383, 140, 120, 210
384, 140, 120, 220
385, 160, -10, 9.6
386, 160, 0, 9.6
387, 160, -10, 47.68
388, 160, 0, 47.68
389, 160, -10, 85.76
390, 160, 0, 85.76
391, 160, -10, 123.84
392, 160, 0, 123.84
393, 160, -10, 161.92
394, 160, 0, 161.92
395, 160, -10, 200
396, 160, 0, 200
397, 160, 10, 9.6
398, 160, 10, 47.68
399, 160, 10, 85.76
400, 160, 10, 123.84
401, 160, 10, 161.92
402, 160, 10, 200
403, 160, -120, 200
404, 160, -92.5, 200
405, 160, -120, 210
406, 160, -92.5, 210
407, 160, -120, 220
408, 160, -92.5, 220
409, 160, -65, 200
410, 160, -65, 210
411, 160, -65, 220
412, 160, -37.5, 200
413, 160, -37.5, 210
414, 160, -37.5, 220
415, 160, -10, 210
416, 160, -10, 220
417, 160, 0, 210
418, 160, 0, 220
419, 160, 10, 210
420, 160, 10, 220
421, 160, 37.5, 200
422, 160, 37.5, 210
423, 160, 37.5, 220
424, 160, 65, 200
425, 160, 65, 210
426, 160, 65, 220
427, 160, 92.5, 200
428, 160, 92.5, 210
429, 160, 92.5, 220
430, 160, 120, 200
431, 160, 120, 210
432, 160, 120, 220
433, 180, -10, 10.8
434, 180, 0, 10.8
435, 180, -10, 48.64
436, 180, 0, 48.64
437, 180, -10, 86.48
438, 180, 0, 86.48
439, 180, -10, 124.32
440, 180, 0, 124.32
441, 180, -10, 162.16
442, 180, 0, 162.16
443, 180, -10, 200
444, 180, 0, 200
445, 180, 10, 10.8
446, 180, 10, 48.64
447, 180, 10, 86.48
448, 180, 10, 124.32
449, 180, 10, 162.16
450, 180, 10, 200
451, 180, -120, 200
452, 180, -92.5, 200
453, 180, -120, 210
454, 180, -92.5, 210
455, 180, -120, 220
456, 180, -92.5, 220
457, 180, -65, 200
458, 180, -65, 210
459, 180, -65, 220
460, 180, -37.5, 200
461, 180, -37.5, 210
462, 180, -37.5, 220
463, 180, -10, 210
464, 180, -10, 220
465, 180, 0, 210
466, 180, 0, 220
467, 180, 10, 210
468, 180, 10, 220
469, 180, 37.5, 200
470, 180, 37.5, 210
471, 180, 37.5, 220
472, 180, 65, 200
473, 180, 65, 210
474, 180, 65, 220
475, 180, 92.5, 200
476, 180, 92.5, 210
477, 180, 92.5, 220
478, 180, 120, 200
479, 180, 120, 210
480, 180, 120, 220
481, 200, -10, 12
482, 200, 0, 12
483, 200, -10, 49.6
484, 200, 0, 49.6
485, 200, -10, 87.2
486, 200, 0, 87.2
487, 200, -10, 124.8
488, 200, 0, 124.8
489, 200, -10, 162.4
490, 200, 0, 162.4
491, 200, -10, 200
492, 200, 0, 200
493, 200, 10, 12
494, 200, 10, 49.6
495, 200, 10, 87.2
496, 200, 10, 124.8
497, 200, 10, 162.4
498, 200, 10, 200
499, 200, -120, 200
500, 200, -92.5, 200
501, 200, -120, 210
502, 200, -92.5, 210
503, 200, -120, 220
504, 200, -92.5, 220
505, 200, -65, 200
506, 200, -65, 210
507, 200, -65, 220
508, 200, -37.5, 200
509, 200, -37.5, 210
510, 200, -37.5, 220
511, 200, -10, 210
512, 200, -10, 220
513, 200, 0, 210
514, 200, 0, 220
515, 200, 10, 210
516, 200, 10, 220
517, 200, 37.5, 200
518, 200, 37.5, 210
519, 200, 37.5, 220
520, 200, 65, 200
521, 200, 65, 210
522, 200, 65, 220
523, 200, 92.5, 200
524, 200, 92.5, 210
525, 200, 92.5, 220
526, 200, 120, 200
527, 200, 120, 210
528, 200, 120, 220
529, 220, -10, 13.2
530, 220, 0, 13.2
531, 220, -10, 50.56
532, 220, 0, 50.56
533, 220, -10, 87.92
534, 220, 0, 87.92
535, 220, -10, 125.28
536, 220, 0, 125.28
537, 220, -10, 162.64
538, 220, 0, 162.64
539, 220, -10, 200
540, 220, 0, 200
541, 220, 10, 13.2
542, 220, 10, 50.56
543, 220, 10, 87.92
544, 220, 10, 125.28
545, 220, 10, 162.64
546, 220, 10, 200
547, 220, -120, 200
548, 220, -92.5, 200
549, 220, -120, 210
550, 220, -92.5, 210
551, 220, -120, 220
552, 220, -92.5, 220
553, 220, -65, 200
554, 220, -65, 210
555, 220, -65, 220
556, 220, -37.5, 200
557, 220, -37.5, 210
558, 220, -37.5, 220
559, 220, -10, 210
560, 220, -10, 220
561, 220, 0, 210
562, 220, 0, 220
563, 220, 10, 210
564, 220, 10, 220
565, 220, 37.5, 200
566, 220, 37.5, 210
567, 220, 37.5, 220
568, 220, 65, 200
569, 220, 65, 210
570, 220, 65, 220
571, 220, 92.5, 200
572, 220, 92.5, 210
573, 220, 92.5, 220
574, 220, 120, 200
575, 220, 120, 210
576, 220, 120, 220
577, 240, -10, 14.4
578, 240, 0, 14.4
579, 240, -10, 51.52
580, 240, 0, 51.52
581, 240, -10, 88.64
582, 240, 0, 88.64
583, 240, -10, 125.76
584, 240, 0, 125.76
585, 240, -10, 162.88
586, 240, 0, 162.88
587, 240, -10, 200
588, 240, 0, 200
589, 240, 10, 14.4
590, 240, 10, 51.52
591, 240, 10, 88.64
592, 240, 10, 125.76
593, 240, 10, 162.88
594, 240, 10, 200
595, 240, -120, 200
596, 240, -92.5, 200
597, 240, -120, 210
598, 240, -92.5, 210
599, 240, -120, 220
600, 240, -92.5, 220
601, 240, -65, 200
602, 240, -65, 210
603, 240, -65, 220
604, 240, -37.5, 200
605, 240, -37.5, 210
606, 240, -37.5, 220
607, 240, -10, 210
608, 240, -10, 220
609, 240, 0, 210
610, 240, 0, 220
611, 240, 10, 210
612, 240, 10, 220
613, 240, 37.5, 200
614, 240, 37.5, 210
615, 240, 37.5, 220
616, 240, 65, 200
617, 240, 65, 210
618, 240, 65, 220
619, 240, 92.5, 200
620, 240, 92.5, 210
621, 240, 92.5, 220
622, 240, 120, 200
623, 240, 120, 210
624, 240, 120, 220
625, 260, -10, 15.6
626, 260, 0, 15.6
627, 260, -10, 52.48
628, 260, 0, 52.48
629, 260, -10, 89.36
630, 260, 0, 89.36
631, 260, -10, 126.24
632, 260, 0, 126.24
633, 260, -10, 163.12
634, 260, 0, 163.12
635, 260, -10, 200
636, 260, 0, 200
637, 260, 10, 15.6
638, 260, 10, 52.48
639, 260, 10, 89.36
640, 260, 10, 126.24
641, 260, 10, 163.12
642, 260, 10, 200
643, 260, -120, 200
644, 260, -92.5, 200
645, 260, -120, 210
646, 260, -92.5, 210
647, 260, -120, 220
648, 260, -92.5, 220
649, 260, -65, 200
650, 260, -65, 210
651, 260, -65, 220
652, 260, -37.5, 200
653, 260, -37.5, 210
654, 260, -37.5, 220
655, 260, -10, 210
656, 260, -10, 220
657, 260, 0, 210
658, 260, 0, 220
659, 260, 10, 210
660, 260, 10, 220
661, 260, 37.5, 200
662, 260, 37.5, 210
663, 260, 37.5, 220
664, 260, 65, 200
665, 260, 65, 210
666, 260, 65, 220
667, 260, 92.5, 200
668, 260, 92.5, 210
669, 260, 92.5, 220
670, 260, 120, 200
671, 260, 120, 210
672, 260, 120, 220
673, 280, -10, 16.8
674, 280, 0, 16.8
675, 280, -10, 53.44
676, 280, 0, 53.44
677, 280, -10, 90.08
678, 280, 0, 90.08
679, 280, -10, 126.72
680, 280, 0, 126.72
681, 280, -10, 163.36
682, 280, 0, 163.36
683, 280, -10, 200
684, 280, 0, 200
685, 280, 10, 16.8
686, 280, 10, 53.44
687, 280, 10, 90.08
688, 280, 10, 126.72
689, 280, 10, 163.36
690, 280, 10, 200
691, 280, -120, 200
692, 280, -92.5, 200
693, 280, -120, 210
694, 280, -92.5, 210
695, 280, -120, 220
696, 280, -92.5, 220
697, 280, -65, 200
698, 280, -65, 210
699, 280, -65, 220
700, 280, -37.5, 200
701, 280, -37.5, 210
702, 280, -37.5, 220
703, 280, -10, 210
704, 280, -10, 220
705, 280, 0, 210
706, 280, 0, 220
707, 280, 10, 210
708, 280, 10, 220
709, 280, 37.5, 200
710, 280, 37.5, 210
711, 280, 37.5, 220
712, 280, 65, 200
713, 280, 65, 210
714, 280, 65, 220
715, 280, 92.5, 200
716, 280, 92.5, 210
717, 280, 92.5, 220
718, 280, 120, 200
719, 280, 120, 210
720, 280, 120, 220
721, 300, -10, 18
722, 300, 0, 18
723, 300, -10, 54.4
724, 300, 0, 54.4
725, 300, -10, 90.8
726, 300, 0, 90.8
727, 300, -10, 127.2
728, 300, 0, 127.2
729, 300, -10, 163.6
730, 300, 0, 163.6
731, 300, -10, 200
732, 300, 0, 200
733, 300, 10, 18
734, 300, 10, 54.4
735, 300, 10, 90.8
736, 300, 10, 127.2
737, 300, 10, 163.6
738, 300, 10, 200
739, 300, -120, 200
740, 300, -92.5, 200
741, 300, -120, 210
742, 300, -92.5, 210
743, 300, -120, 220
744, 300, -92.5, 220
745, 300, -65, 200
746, 300, -65, 210
747, 300, -65, 220
748, 300, -37.5, 200
749, 300, -37.5, 210
750, 300, -37.5, 220
751, 300, -10, 210
752, 300, -10, 220
753, 300, 0, 210
754, 300, 0, 220
755, 300, 10, 210
756, 300, 10, 220
757, 300, 37.5, 200
758, 300, 37.5, 210
759, 300, 37.5, 220
760, 300, 65, 200
761, 300, 65, 210
762, 300, 65, 220
763, 300, 92.5, 200
764, 300, 92.5, 210
765, 300, 92.5, 220
766, 300, 120, 200
767, 300, 120, 210
768, 300, 120, 220
769, 320, -10, 19.2
770, 320, 0, 19.2
771, 320, -10, 55.36
772, 320, 0, 55.36
773, 320, -10, 91.52
774, 320, 0, 91.52
775, 320, -10, 127.68
776, 320, 0, 127.68
777, 320, -10, 163.84
778, 320, 0, 163.84
779, 320, -10, 200
780, 320, 0, 200
781, 320, 10, 19.2
782, 320, 10, 55.36
783, 320, 10, 91.52
784, 320, 10, 127.68
785, 320, 10, 163.84
786, 320, 10, 200
787, 320, -120, 200
788, 320, -92.5, 200
789, 320, -120, 210
790, 320, -92.5, 210
791, 320, -120, 220
792, 320, -92.5, 220
793, 320, -65, 200
794, 320, -65, 210
795, 320, -65, 220
796, 320, -37.5, 200
797, 320, -37.5, 210
798, 320, -37.5, 220
799, 320, -10, 210
800, 320, -10, 220
801, 320, 0, 210
802, 320, 0, 220
803, 320, 10, 210
804, 320, 10, 220
805, 320, 37.5, 200
806, 320, 37.5, 210
807, 320, 37.5, 220
808, 320, 65, 200
809, 320, 65, 210
810, 320, 65, 220
811, 320, 92.5, 200
812, 320, 92.5, 210
813, 320, 92.5, 220
814, 320, 120, 200
815, 320, 120, 210
816, 320, 120, 220
817, 340, -10, 20.4
818, 340, 0, 20.4
819, 340, -10, 56.32
820, 340, 0, 56.32
821, 340, -10, 92.24
822, 340, 0, 92.24
823, 340, -10, 128.16
824, 340, 0, 128.16
825, 340, -10, 164.08
826, 340, 0, 164.08
827, 340, -10, 200
828, 340, 0, 200
829, 340, 10, 20.4
830, 340, 10, 56.32
831, 340, 10, 92.24
832, 340, 10, 128.16
833, 340, 10, 164.08
834, 340, 10, 200
835, 340, -120, 200
836, 340, -92.5, 200
837, 340, -120, 210
838, 340, -92.5, 210
839, 340, -120, 220
840, 340, -92.5, 220
841, 340, -65, 200
842, 340, -65, 210
843, 340, -65, 220
844, 340, -37.5, 200
845, 340, -37.5, 210
846, 340, -37.5, 220
847, 340, -10, 210
848, 340, -10, 220
849, 340, 0, 210
850, 340, 0, 220
851, 340, 10, 210
852, 340, 10, 220
853, 340, 37.5, 200
854, 340, 37.5, 210
855, 340, 37.5, 220
856, 340, 65, 200
857, 340, 65, 210
858, 340, 65, 220
859, 340, 92.5, 200
860, 340, 92.5, 210
861, 340, 92.5, 220
862, 340, 120, 200
863, 340, 120, 210
864, 340, 120, 220
865, 360, -10, 21.6
866, 360, 0, 21.6
867, 360, -10, 57.28
868, 360, 0, 57.28
869, 360, -10, 92.96
870, 360, 0, 92.96
871, 360, -10, 128.64
872, 360, 0, 128.64
873, 360, -10, 164.32
874, 360, 0, 164.32
875, 360, -10, 200
876, 360, 0, 200
877, 360, 10, 21.6
878, 360, 10, 57.28
879, 360, 10, 92.96
880, 360, 10, 128.64
881, 360, 10, 164.32
882, 360, 10, 200
883, 360, -120, 200
884, 360, -92.5, 200
885, 360, -120, 210
886, 360, -92.5, 210
887, 360, -120, 220
888, 360, -92.5, 220
889, 360, -65, 200
890, 360, -65, 210
891, 360, -65, 220
892, 360, -37.5, 200
893, 360, -37.5, 210
894, 360, -37.5, 220
895, 360, -10, 210
896, 360, -10, 220
897, 360, 0, 210
898, 360, 0, 220
899, 360, 10, 210
900, 360, 10, 220
901, 360, 37.5, 200
902, 360, 37.5, 210
903, 360, 37.5, 220
904, 360, 65, 200
905, 360, 65, 210
906, 360, 65, 220
907, 360, 92.5, 200
908, 360, 92.5, 210
909, 360, 92.5, 220
910, 360, 120, 200
911, 360, 120, 210
912, 360, 120, 220
913, 380, -10, 22.8
914, 380, 0, 22.8
915, 380, -10, 58.24
916, 380, 0, 58.24
917, 380, -10, 93.68
918, 380, 0, 93.68
919, 380, -10, 129.12
920, 380, 0, 129.12
921, 380, -10, 164.56
922, 380, 0, 164.56
923, 380, -10, 200
924, 380, 0, 200
925, 380, 10, 22.8
926, 380, 10, 58.24
927, 380, 10, 93.68
928, 380, 10, 129.12
929, 380, 10, 164.56
930, 380, 10, 200
931, 380, -120, 200
932, 380, -92.5, 200
933, 380, -120, 210
934, 380, -92.5, 210
935, 380, -120, 220
936, 380, -92.5, 220
937, 380, -65, 200
938, 380, -65, 210
939, 380, -65, 220
940, 380, -37.5, 200
941, 380, -37.5, 210
942, 380, -37.5, 220
943, 380, -10, 210
944, 380, -10, 220
945, 380, 0, 210
946, 380, 0, 220
947, 380, 10, 210
948, 380, 10, 220
949, 380, 37.5, 200
950, 380, 37.5, 210
951, 380, 37.5, 220
952, 380, 65, 200
953, 380, 65, 210
954, 380, 65, 220
955, 380, 92.5, 200
956, 380, 92.5, 210
957, 380, 92.5, 220
958, 380, 120, 200
959, 380, 120, 210
960, 380, 120, 220
961, 400, -10, 24
962, 400, 0, 24
963, 400, -10, 59.2
964, 400, 0, 59.2
965, 400, -10, 94.4
966, 400, 0, 94.4
967, 400, -10, 129.6
968, 400, 0, 129.6
969, 400, -10, 164.8
970, 400, 0, 164.8
971, 400, -10, 200
972, 400, 0, 200
973, 400, 10, 24
974, 400, 10, 59.2
975, 400, 10, 94.4
976, 400, 10, 129.6
977, 400, 10, 164.8
978, 400, 10, 200
979, 400, -120, 200
980, 400, -92.5, 200
981, 400, -120, 210
982, 400, -92.5, 210
983, 400, -120, 220
984, 400, -92.5, 220
985, 400, -65, 200
986, 400, -65, 210
987, 400, -65, 220
988, 400, -37.5, 200
989, 400, -37.5, 210
990, 400, -37.5, 220
991, 400, -10, 210
992, 400, -10, 220
993, 400, 0, 210
994, 400, 0, 220
995, 400, 10, 210
996, 400, 10, 220
997, 400, 37.5, 200
998, 400, 37.5, 210
999, 400, 37.5, 220
1000, 400, 65, 200
1001, 400, 65, 210
1002, 400, 65, 220
1003, 400, 92.5, 200
1004, 400, 92.5, 210
1005, 400, 92.5, 220
1006, 400, 120, 200
1007, 400, 120, 210
1008, 400, 120, 220
1009, 420, -10, 25.2
1010, 420, 0, 25.2
1011, 420, -10, 60.16
1012, 420, 0, 60.16
1013, 420, -10, 95.12
1014, 420, 0, 95.12
1015, 420, -10, 130.08
1016, 420, 0, 130.08
1017, 420, -10, 165.04
1018, 420, 0, 165.04
1019, 420, -10, 200
1020, 420, 0, 200
1021, 420, 10, 25.2
1022, 420, 10, 60.16
1023, 420, 10, 95.12
1024, 420, 10, 130.08
1025, 420, 10, 165.04
1026, 420, 10, 200
1027, 420, -120, 200
1028, 420, -92.5, 200
1029, 420, -120, 210
1030, 420, -92.5, 210
1031, 420, -120, 220
1032, 420, -92.5, 220
1033, 420, -65, 200
1034, 420, -65, 210
1035, 420, -65, 220
1036, 420, -37.5, 200
1037, 420, -37.5, 210
1038, 420, -37.5, 220
1039, 420, -10, 210
1040, 420, -10, 220
1041, 420, 0, 210
1042, 420, 0, 220
1043, 420, 10, 210
1044, 420, 10, 220
1045, 420, 37.5, 200
1046, 420, 37.5, 210
1047, 420, 37.5, 220
1048, 420, 65, 200
1049, 420, 65, 210
1050, 420, 65, 220
1051, 420, 92.5, 200
1052, 420, 92.5, 210
1053, 420, 92.5, 220
1054, 420, 120, 200
1055, 420, 120, 210
1056, 420, 120, 220
1057, 440, -10, 26.4
1058, 440, 0, 26.4
1059, 440, -10, 61.12
1060, 440, 0, 61.12
1061, 440, -10, 95.84
1062, 440, 0, 95.84
1063, 440, -10, 130.56
1064, 440, 0, 130.56
1065, 440, -10, 165.28
1066, 440, 0, 165.28
1067, 440, -10, 200
1068, 440, 0, 200
1069, 440, 10, 26.4
1070, 440, 10, 61.12
1071, 440, 10, 95.84
1072, 440, 10, 130.56
1073, 440, 10, 165.28
1074, 440, 10, 200
1075, 440, -120, 200
1076, 440, -92.5, 200
1077, 440, -120, 210
1078, 440, -92.5, 210
1079, 440, -120, 220
1080, 440, -92.5, 220
1081, 440, -65, 200
1082, 440, -65, 210
1083, 440, -65, 220
1084, 440, -37.5, 200
1085, 440, -37.5, 210
1086, 440, -37.5, 220
1087, 440, -10, 210
1088, 440, -10, 220
1089, 440, 0, 210
1090, 440, 0, 220
1091, 440, 10, 210
1092, 440, 10, 220
1093, 440, 37.5, 200
1094, 440, 37.5, 210
1095, 440, 37.5, 220
1096, 440, 65, 200
1097, 440, 65, 210
1098, 440, 65, 220
1099, 440, 92.5, 200
1100, 440, 92.5, 210
1101, 440, 92.5, 220
1102, 440, 120, 200
1103, 440, 120, 210
1104, 440, 120, 220
1105, 460, -10, 27.6
1106, 460, 0, 27.6
1107, 460, -10, 62.08
1108, 460, 0, 62.08
1109, 460, -10, 96.56
1110, 460, 0, 96.56
1111, 460, -10, 131.04
1112, 460, 0, 131.04
1113, 460, -10, 165.52
1114, 460, 0, 165.52
1115, 460, -10, 200
1116, 460, 0, 200
1117, 460, 10, 27.6
1118, 460, 10, 62.08
1119, 460, 10, 96.56
1120, 460, 10, 131.04
1121, 460, 10, 165.52
1122, 460, 10, 200
1123, 460, -120, 200
1124, 460, -92.5, 200
1125, 460, -120, 210
1126, 460, -92.5, 210
1127, 460, -120, 220
1128, 460, -92.5, 220
1129, 460, -65, 200
1130, 460, -65, 210
1131, 460, -65, 220
1132, 460, -37.5, 200
1133, 460, -37.5, 210
1134, 460, -37.5, 220
1135, 460, -10, 210
1136, 460, -10, 220
1137, 460, 0, 210
1138, 460, 0, 220
1139, 460, 10, 210
1140, 460, 10, 220
1141, 460, 37.5, 200
1142, 460, 37.5, 210
1143, 460, 37.5, 220
1144, 460, 65, 200
1145, 460, 65, 210
1146, 460, 65, 220
1147, 460, 92.5, 200
1148, 460, 92.5, 210
1149, 460, 92.5, 220
1150, 460, 120, 200
1151, 460, 120, 210
1152, 460, 120, 220
1153, 480, -10, 28.8
1154, 480, 0, 28.8
1155, 480, -10, 63.04
1156, 480, 0, 63.04
1157, 480, -10, 97.28
1158, 480, 0, 97.28
1159, 480, -10, 131.52
1160, 480, 0, 131.52
1161, 480, -10, 165.76
1162, 480, 0, 165.76
1163, 480, -10, 200
1164, 480, 0, 200
1165, 480, 10, 28.8
1166, 480, 10, 63.04
1167, 480, 10, 97.28
1168, 480, 10, 131.52
1169, 480, 10, 165.76
1170, 480, 10, 200
1171, 480, -120, 200
1172, 480, -92.5, 200
1173, 480, -120, 210
1174, 480, -92.5, 210
1175, 480, -120, 220
1176, 480, -92.5, 220
1177, 480, -65, 200
1178, 480, -65, 210
1179, 480, -65, 220
1180, 480, -37.5, 200
1181, 480, -37.5, 210
1182, 480, -37.5, 220
1183, 480, -10, 210
1184, 480, -10, 220
1185, 480, 0, 210
1186, 480, 0, 220
1187, 480, 10, 210
1188, 480, 10, 220
1189, 480, 37.5, 200
1190, 480, 37.5, 210
1191, 480, 37.5, 220
1192, 480, 65, 200
1193, 480, 65, 210
1194, 480, 65, 220
1195, 480, 92.5, 200
1196, 480, 92.5, 210
1197, 480, 92.5, 220
1198, 480, 120, 200
1199, 480, 120, 210
1200, 480, 120, 220
1201, 500, -10, 30
1202, 500, 0, 30
1203, 500, -10, 64
1204, 500, 0, 64
1205, 500, -10, 98
1206, 500, 0, 98
1207, 500, -10, 132
1208, 500, 0, 132
1209, 500, -10, 166
1210, 500, 0, 166
1211, 500, -10, 200
1212, 500, 0, 200
1213, 500, 10, 30
1214, 500, 10, 64
1215, 500, 10, 98
1216, 500, 10, 132
1217, 500, 10, 166
1218, 500, 10, 200
1219, 500, -120, 200
1220, 500, -92.5, 200
1221, 500, -120, 210
1222, 500, -92.5, 210
1223, 500, -120, 220
1224, 500, -92.5, 220
1225, 500, -65, 200
1226, 500, -65, 210
1227, 500, -65, 220
1228, 500, -37.5, 200
1229, 500, -37.5, 210
1230, 500, -37.5, 220
1231, 500, -10, 210
1232, 500, -10, 220
1233, 500, 0, 210
1234, 500, 0, 220
1235, 500, 10, 210
1236, 500, 10, 220
1237, 500, 37.5, 200
1238, 500, 37.5, 210
1239, 500, 37.5, 220
1240, 500, 65, 200
1241, 500, 65, 210
1242, 500, 65, 220
1243, 500, 92.5, 200
1244, 500, 92.5, 210
1245, 500, 92.5, 220
1246, 500, 120, 200
1247, 500, 120, 210
1248, 500, 120, 220
1249, 520, -10, 31.2
1250, 520, 0, 31.2
1251, 520, -10, 64.96
1252, 520, 0, 64.96
1253, 520, -10, 98.72
1254, 520, 0, 98.72
1255, 520, -10, 132.48
1256, 520, 0, 132.48
1257, 520, -10, 166.24
1258, 520, 0, 166.24
1259, 520, -10, 200
1260, 520, 0, 200
1261, 520, 10, 31.2
1262, 520, 10, 64.96
1263, 520, 10, 98.72
1264, 520, 10, 132.48
1265, 520, 10, 166.24
1266, 520, 10, 200
1267, 520, -120, 200
1268, 520, -92.5, 200
1269, 520, -120, 210
1270, 520, -92.5, 210
1271, 520, -120, 220
1272, 520, -92.5, 220
1273, 520, -65, 200
1274, 520, -65, 210
1275, 520, -65, 220
1276, 520, -37.5, 200
1277, 520, -37.5, 210
1278, 520, -37.5, 220
1279, 520, -10, 210
1280, 520, -10, 220
1281, 520, 0, 210
1282, 520, 0, 220
1283, 520, 10, 210
1284, 520, 10, 220
1285, 520, 37.5, 200
1286, 520, 37.5, 210
1287, 520, 37.5, 220
1288, 520, 65, 200
1289, 520, 65, 210
1290, 520, 65, 220
1291, 520, 92.5, 200
1292, 520, 92.5, 210
1293, 520, 92.5, 220
1294, 520, 120, 200
1295, 520, 120, 210
1296, 520, 120, 220
1297, 540, -10, 32.4
1298, 540, 0, 32.4
1299, 540, -10, 65.92
1300, 540, 0, 65.92
1301, 540, -10, 99.44
1302, 540, 0, 99.44
1303, 540, -10, 132.96
1304, 540, 0, 132.96
1305, 540, -10, 166.48
1306, 540, 0, 166.48
1307, 540, -10, 200
1308, 540, 0, 200
1309, 540, 10, 32.4
1310, 540, 10, 65.92
1311, 540, 10, 99.44
1312, 540, 10, 132.96
1313, 540, 10, 166.48
1314, 540, 10, 200
1315, 540, -120, 200
1316, 540, -92.5, 200
1317, 540, -120, 210
1318, 540, -92.5, 210
1319, 540, -120, 220
1320, 540, -92.5, 220
1321, 540, -65, 200
1322, 540, -65, 210
1323, 540, -65, 220
1324, 540, -37.5, 200
1325, 540, -37.5, 210
1326, 540, -37.5, 220
1327, 540, -10, 210
1328, 540, -10, 220
1329, 540, 0, 210
1330, 540, 0, 220
1331, 540, 10, 210
1332, 540, 10, 220
1333, 540, 37.5, 200
1334, 540, 37.5, 210
1335, 540, 37.5, 220
1336, 540, 65, 200
1337, 540, 65, 210
1338, 540, 65, 220
1339, 540, 92.5, 200
1340, 540, 92.5, 210
1341, 540, 92.5, 220
1342, 540, 120, 200
1343, 540, 120, 210
1344, 540, 120, 220
1345, 560, -10, 33.6
1346, 560, 0, 33.6
1347, 560, -10, 66.88
1348, 560, 0, 66.88
1349, 560, -10, 100.16
1350, 560, 0, 100.16
1351, 560, -10, 133.44
1352, 560, 0, 133.44
1353, 560, -10, 166.72
1354, 560, 0, 166.72
1355, 560, -10, 200
1356, 560, 0, 200
1357, 560, 10, 33.6
1358, 560, 10, 66.88
1359, 560, 10, 100.16
1360, 560, 10, 133.44
1361, 560, 10, 166.72
1362, 560, 10, 200
1363, 560, -120, 200
1364, 560, -92.5, 200
1365, 560, -120, 210
1366, 560, -92.5, 210
1367, 560, -120, 220
1368, 560, -92.5, 220
1369, 560, -65, 200
1370, 560, -65, 210
1371, 560, -65, 220
1372, 560, -37.5, 200
1373, 560, -37.5, 210
1374, 560, -37.5, 220
1375, 560, -10, 210
1376, 560, -10, 220
1377, 560, 0, 210
1378, 560, 0, 220
1379, 560, 10, 210
1380, 560, 10, 220
1381, 560, 37.5, 200
1382, 560, 37.5, 210
1383, 560, 37.5, 220
1384, 560, 65, 200
1385, 560, 65, 210
1386, 560, 65, 220
1387, 560, 92.5, 200
1388, 560, 92.5, 210
1389, 560, 92.5, 220
1390, 560, 120, 200
1391, 560, 120, 210
1392, 560, 120, 220
1393, 580, -10, 34.8
1394, 580, 0, 34.8
1395, 580, -10, 67.84
1396, 580, 0, 67.84
1397, 580, -10, 100.88
1398, 580, 0, 100.88
1399, 580, -10, 133.92
1400, 580, 0, 133.92
1401, 580, -10, 166.96
1402, 580, 0, 166.96
1403, 580, -10, 200
1404, 580, 0, 200
1405, 580, 10, 34.8
1406, 580, 10, 67.84
1407, 580, 10, 100.88
1408, 580, 10, 133.92
1409, 580, 10, 166.96
1410, 580, 10, 200
1411, 580, -120, 200
1412, 580, -92.5, 200
1413, 580, -120, 210
1414, 580, -92.5, 210
1415, 580, -120, 220
1416, 580, -92.5, 220
1417, 580, -65, 200
1418, 580, -65, 210
1419, 580, -65, 220
1420, 580, -37.5, 200
1421, 580, -37.5, 210
1422, 580, -37.5, 220
1423, 580, -10, 210
1424, 580, -10, 220
1425, 580, 0, 210
1426, 580, 0, 220
1427, 580, 10, 210
1428, 580, 10, 220
1429, 580, 37.5, 200
1430, 580, 37.5, 210
1431, 580, 37.5, 220
1432, 580, 65, 200
1433, 580, 65, 210
1434, 580, 65, 220
1435, 580, 92.5, 200
1436, 580, 92.5, 210
1437, 580, 92.5, 220
1438, 580, 120, 200
1439, 580, 120, 210
1440, 580, 120, 220
1441, 600, -10, 36
1442, 600, 0, 36
1443, 600, -10, 68.8
1444, 600, 0, 68.8
1445, 600, -10, 101.6
1446, 600, 0, 101.6
1447, 600, -10, 134.4
1448, 600, 0, 134.4
1449, 600, -10, 167.2
1450, 600, 0, 167.2
1451, 600, -10, 200
1452, 600, 0, 200
1453, 600, 10, 36
1454, 600, 10, 68.8
1455, 600, 10, 101.6
1456, 600, 10, 134.4
1457, 600, 10, 167.2
1458, 600, 10, 200
1459, 600, -120, 200
1460, 600, -92.5, 200
1461, 600, -120, 210
1462, 600, -92.5, 210
1463, 600, -120, 220
1464, 600, -92.5, 220
1465, 600, -65, 200
1466, 600, -65, 210
1467, 600, -65, 220
1468, 600, -37.5, 200
1469, 600, -37.5, 210
1470, 600, -37.5, 220
1471, 600, -10, 210
1472, 600, -10, 220
1473, 600, 0, 210
1474, 600, 0, 220
1475, 600, 10, 210
1476, 600, 10, 220
1477, 600, 37.5, 200
1478, 600, 37.5, 210
1479, 600, 37.5, 220
1480, 600, 65, 200
1481, 600, 65, 210
1482, 600, 65, 220
1483, 600, 92.5, 200
1484, 600, 92.5, 210
1485, 600, 92.5, 220
1486, 600, 120, 200
1487, 600, 120, 210
1488, 600, 120, 220
1489, 620, -10, 37.2
1490, 620, 0, 37.2
1491, 620, -10, 69.76
1492, 620, 0, 69.76
1493, 620, -10, 102.32
1494, 620, 0, 102.32
1495, 620, -10, 134.88
1496, 620, 0, 134.88
1497, 620, -10, 167.44
1498, 620, 0, 167.44
1499, 620, -10, 200
1500, 620, 0, 200
1501, 620, 10, 37.2
1502, 620, 10, 69.76
1503, 620, 10, 102.32
1504, 620, 10, 134.88
1505, 620, 10, 167.44
1506, 620, 10, 200
1507, 620, -120, 200
1508, 620, -92.5, 200
1509, 620, -120, 210
1510, 620, -92.5, 210
1511, 620, -120, 220
1512, 620, -92.5, 220
1513, 620, -65, 200
1514, 620, -65, 210
1515, 620, -65, 220
1516, 620, -37.5, 200
1517, 620, -37.5, 210
1518, 620, -37.5, 220
1519, 620, -10, 210
1520, 620, -10, 220
1521, 620, 0, 210
1522, 620, 0, 220
1523, 620, 10, 210
1524, 620, 10, 220
1525, 620, 37.5, 200
1526, 620, 37.5, 210
1527, 620, 37.5, 220
1528, 620, 65, 200
1529, 620, 65, 210
1530, 620, 65, 220
1531, 620, 92.5, 200
1532, 620, 92.5, 210
1533, 620, 92.5, 220
1534, 620, 120, 200
1535, 620, 120, 210
1536, 620, 120, 220
1537, 640, -10, 38.4
1538, 640, 0, 38.4
1539, 640, -10, 70.72
1540, 640, 0, 70.72
1541, 640, -10, 103.04
1542, 640, 0, 103.04
1543, 640, -10, 135.36
1544, 640, 0, 135.36
1545, 640, -10, 167.68
1546, 640, 0, 167.68
1547, 640, -10, 200
1548, 640, 0, 200
1549, 640, 10, 38.4
1550, 640, 10, 70.72
1551, 640, 10, 103.04
1552, 640, 10, 135.36
1553, 640, 10, 167.68
1554, 640, 10, 200
1555, 640, -120, 200
1556, 640, -92.5, 200
1557, 640, -120, 210
1558, 640, -92.5, 210
1559, 640, -120, 220
1560, 640, -92.5, 220
1561, 640, -65, 200
1562, 640, -65, 210
1563, 640, -65, 220
1564, 640, -37.5, 200
1565, 640, -37.5, 210
1566, 640, -37.5, 220
1567, 640, -10, 210
1568, 640, -10, 220
1569, 640, 0, 210
1570, 640, 0, 220
1571, 640, 10, 210
1572, 640, 10, 220
1573, 640, 37.5, 200
1574, 640, 37.5, 210
1575, 640, 37.5, 220
1576, 640, 65, 200
1577, 640, 65, 210
1578, 640, 65, 220
1579, 640, 92.5, 200
1580, 640, 92.5, 210
1581, 640, 92.5, 220
1582, 640, 120, 200
1583, 640, 120, 210
1584, 640, 120, 220
1585, 660, -10, 39.6
1586, 660, 0, 39.6
1587, 660, -10, 71.68
1588, 660, 0, 71.68
1589, 660, -10, 103.76
1590, 660, 0, 103.76
1591, 660, -10, 135.84
1592, 660, 0, 135.84
1593, 660, -10, 167.92
1594, 660, 0, 167.92
1595, 660, -10, 200
1596, 660, 0, 200
1597, 660, 10, 39.6
1598, 660, 10, 71.68
1599, 660, 10, 103.76
1600, 660, 10, 135.84
1601, 660, 10, 167.92
1602, 660, 10, 200
1603, 660, -120, 200
1604, 660, -92.5, 200
1605, 660, -120, 210
1606, 660, -92.5, 210
1607, 660, -120, 220
1608, 660, -92.5, 220
1609, 660, -65, 200
1610, 660, -65, 210
1611, 660, -65, 220
1612, 660, -37.5, 200
1613, 660, -37.5, 210
1614, 660, -37.5, 220
1615, 660, -10, 210
1616, 660, -10, 220
1617, 660, 0, 210
1618, 660, 0, 220
1619, 660, 10, 210
1620, 660, 10, 220
1621, 660, 37.5, 200
1622, 660, 37.5, 210
1623, 660, 37.5, 220
1624, 660, 65, 200
1625, 660, 65, 210
1626, 660, 65, 220
1627, 660, 92.5, 200
1628, 660, 92.5, 210
1629, 660, 92.5, 220
1630, 660, 120, 200
1631, 660, 120, 210
1632, 660, 120, 220
1633, 680, -10, 40.8
1634, 680, 0, 40.8
1635, 680, -10, 72.64
1636, 680, 0, 72.64
1637, 680, -10, 104.48
1638, 680, 0, 104.48
1639, 680, -10, 136.32
1640, 680, 0, 136.32
1641, 680, -10, 168.16
1642, 680, 0, 168.16
1643, 680, -10, 200
1644, 680, 0, 200
1645, 680, 10, 40.8
1646, 680, 10, 72.64
1647, 680, 10, 104.48
1648, 680, 10, 136.32
1649, 680, 10, 168.16
1650, 680, 10, 200
1651, 680, -120, 200
1652, 680, -92.5, 200
1653, 680, -120, 210
1654, 680, -92.5, 210
1655, 680, -120, 220
1656, 680, -92.5, 220
1657, 680, -65, 200
1658, 680, -65, 210
1659, 680, -65, 220
1660, 680, -37.5, 200
1661, 680, -37.5, 210
1662, 680, -37.5, 220
1663, 680, -10, 210
1664, 680, -10, 220
1665, 680, 0, 210
1666, 680, 0, 220
1667, 680, 10, 210
1668, 680, 10, 220
1669, 680, 37.5, 200
1670, 680, 37.5, 210
1671, 680, 37.5, 220
1672, 680, 65, 200
1673, 680, 65, 210
1674, 680, 65, 220
1675, 680, 92.5, 200
1676, 680, 92.5, 210
1677, 680, 92.5, 220
1678, 680, 120, 200
1679, 680, 120, 210
1680, 680, 120, 220
1681, 700, -10, 42
1682, 700, 0, 42
1683, 700, -10, 73.6
1684, 700, 0, 73.6
1685, 700, -10, 105.2
1686, 700, 0, 105.2
1687, 700, -10, 136.8
1688, 700, 0, 136.8
1689, 700, -10, 168.4
1690, 700, 0, 168.4
1691, 700, -10, 200
1692, 700, 0, 200
1693, 700, 10, 42
1694, 700, 10, 73.6
1695, 700, 10, 105.2
1696, 700, 10, 136.8
1697, 700, 10, 168.4
1698, 700, 10, 200
1699, 700, -120, 200
1700, 700, -92.5, 200
1701, 700, -120, 210
1702, 700, -92.5, 210
1703, 700, -120, 220
1704, 700, -92.5, 220
1705, 700, -65, 200
1706, 700, -65, 210
1707, 700, -65, 220
1708, 700, -37.5, 200
1709, 700, -37.5, 210
1710, 700, -37.5, 220
1711, 700, -10, 210
1712, 700, -10, 220
1713, 700, 0, 210
1714, 700, 0, 220
1715, 700, 10, 210
1716, 700, 10, 220
1717, 700, 37.5, 200
1718, 700, 37.5, 210
1719, 700, 37.5, 220
1720, 700, 65, 200
1721, 700, 65, 210
1722, 700, 65, 220
1723, 700, 92.5, 200
1724, 700, 92.5, 210
1725, 700, 92.5, 220
1726, 700, 120, 200
1727, 700, 120, 210
1728, 700, 120, 220
1729, 720, -10, 43.2
1730, 720, 0, 43.2
1731, 720, -10, 74.56
1732, 720, 0, 74.56
1733, 720, -10, 105.92
1734, 720, 0, 105.92
1735, 720, -10, 137.28
1736, 720, 0, 137.28
1737, 720, -10, 168.64
1738, 720, 0, 168.64
1739, 720, -10, 200
1740, 720, 0, 200
1741, 720, 10, 43.2
1742, 720, 10, 74.56
1743, 720, 10, 105.92
1744, 720, 10, 137.28
1745, 720, 10, 168.64
1746, 720, 10, 200
1747, 720, -120, 200
1748, 720, -92.5, 200
1749, 720, -120, 210
1750, 720, -92.5, 210
1751, 720, -120, 220
1752, 720, -92.5, 220
1753, 720, -65, 200
1754, 720, -65, 210
1755, 720, -65, 220
1756, 720, -37.5, 200
1757, 720, -37.5, 210
1758, 720, -37.5, 220
1759, 720, -10, 210
1760, 720, -10, 220
1761, 720, 0, 210
1762, 720, 0, 220
1763, 720, 10, 210
1764, 720, 10, 220
1765, 720, 37.5, 200
1766, 720, 37.5, 210
1767, 720, 37.5, 220
1768, 720, 65, 200
1769, 720, 65, 210
1770, 720, 65, 220
1771, 720, 92.5, 200
1772, 720, 92.5, 210
1773, 720, 92.5, 220
1774, 720, 120, 200
1775, 720, 120, 210
1776, 720, 120, 220
1777, 740, -10, 44.4
1778, 740, 0, 44.4
1779, 740, -10, 75.52
1780, 740, 0, 75.52
1781, 740, -10, 106.64
1782, 740, 0, 106.64
1783, 740, -10, 137.76
1784, 740, 0, 137.76
1785, 740, -10, 168.88
1786, 740, 0, 168.88
1787, 740, -10, 200
1788, 740, 0, 200
1789, 740, 10, 44.4
1790, 740, 10, 75.52
1791, 740, 10, 106.64
1792, 740, 10, 137.76
1793, 740, 10, 168.88
1794, 740, 10, 200
1795, 740, -120, 200
1796, 740, -92.5, 200
1797, 740, -120, 210
1798, 740, -92.5, 210
1799, 740, -120, 220
1800, 740, -92.5, 220
1801, 740, -65, 200
1802, 740, -65, 210
1803, 740, -65, 220
1804, 740, -37.5, 200
1805, 740, -37.5, 210
1806, 740, -37.5, 220
1807, 740, -10, 210
1808, 740, -10, 220
1809, 740, 0, 210
1810, 740, 0, 220
1811, 740, 10, 210
1812, 740, 10, 220
1813, 740, 37.5, 200
1814, 740, 37.5, 210
1815, 740, 37.5, 220
1816, 740, 65, 200
1817, 740, 65, 210
1818, 740, 65, 220
1819, 740, 92.5, 200
1820, 740, 92.5, 210
1821, 740, 92.5, 220
1822, 740, 120, 200
1823, 740, 120, 210
1824, 740, 120, 220
1825, 760, -10, 45.6
1826, 760, 0, 45.6
1827, 760, -10, 76.48
1828, 760, 0, 76.48
1829, 760, -10, 107.36
1830, 760, 0, 107.36
1831, 760, -10, 138.24
1832, 760, 0, 138.24
1833, 760, -10, 169.12
1834, 760, 0, 169.12
1835, 760, -10, 200
1836, 760, 0, 200
1837, 760, 10, 45.6
1838, 760, 10, 76.48
1839, 760, 10, 107.36
1840, 760, 10, 138.24
1841, 760, 10, 169.12
1842, 760, 10, 200
1843, 760, -120, 200
1844, 760, -92.5, 200
1845, 760, -120, 210
1846, 760, -92.5, 210
1847, 760, -120, 220
1848, 760, -92.5, 220
1849, 760, -65, 200
1850, 760, -65, 210
1851, 760, -65, 220
1852, 760, -37.5, 200
1853, 760, -37.5, 210
1854, 760, -37.5, 220
1855, 760, -10, 210
1856, 760, -10, 220
1857, 760, 0, 210
1858, 760, 0, 220
1859, 760, 10, 210
1860, 760, 10, 220
1861, 760, 37.5, 200
1862, 760, 37.5, 210
1863, 760, 37.5, 220
1864, 760, 65, 200
1865, 760, 65, 210
1866, 760, 65, 220
1867, 760, 92.5, 200
1868, 760, 92.5, 210
1869, 760, 92.5, 220
1870, 760, 120, 200
1871, 760, 120, 210
1872, 760, 120, 220
1873, 780, -10, 46.8
1874, 780, 0, 46.8
1875, 780, -10, 77.44
1876, 780, 0, 77.44
1877, 780, -10, 108.08
1878, 780, 0, 108.08
1879, 780, -10, 138.72
1880, 780, 0, 138.72
1881, 780, -10, 169.36
1882, 780, 0, 169.36
1883, 780, -10, 200
1884, 780, 0, 200
1885, 780, 10, 46.8
1886, 780, 10, 77.44
1887, 780, 10, 108.08
1888, 780, 10, 138.72
1889, 780, 10, 169.36
1890, 780, 10, 200
1891, 780, -120, 200
1892, 780, -92.5, 200
1893, 780, -120, 210
1894, 780, -92.5, 210
1895, 780, -120, 220
1896, 780, -92.5, 220
1897, 780, -65, 200
1898, 780, -65, 210
1899, 780, -65, 220
1900, 780, -37.5, 200
1901, 780, -37.5, 210
1902, 780, -37.5, 220
1903, 780, -10, 210
1904, 780, -10, 220
1905, 780, 0, 210
1906, 780, 0, 220
1907, 780, 10, 210
1908, 780, 10, 220
1909, 780, 37.5, 200
1910, 780, 37.5, 210
1911, 780, 37.5, 220
1912, 780, 65, 200
1913, 780, 65, 210
1914, 780, 65, 220
1915, 780, 92.5, 200
1916, 780, 92.5, 210
1917, 780, 92.5, 220
1918, 780, 120, 200
1919, 780, 120, 210
1920, 780, 120, 220
1921, 800, -10, 48
1922, 800, 0, 48
1923, 800, -10, 78.4
1924, 800, 0, 78.4
1925, 800, -10, 108.8
1926, 800, 0, 108.8
1927, 800, -10, 139.2
1928, 800, 0, 139.2
1929, 800, -10, 169.6
1930, 800, 0, 169.6
1931, 800, -10, 200
1932, 800, 0, 200
1933, 800, 10, 48
1934, 800, 10, 78.4
1935, 800, 10, 108.8
1936, 800, 10, 139.2
1937, 800, 10, 169.6
1938, 800, 10, 200
1939, 800, -120, 200
1940, 800, -92.5, 200
1941, 800, -120, 210
1942, 800, -92.5, 210
1943, 800, -120, 220
1944, 800, -92.5, 220
1945, 800, -65, 200
1946, 800, -65, 210
1947, 800, -65, 220
1948, 800, -37.5, 200
1949, 800, -37.5, 210
1950, 800, -37.5, 220
1951, 800, -10, 210
1952, 800, -10, 220
1953, 800, 0, 210
1954, 800, 0, 220
1955, 800, 10, 210
1956, 800, 10, 220
1957, 800, 37.5, 200
1958, 800, 37.5, 210
1959, 800, 37.5, 220
1960, 800, 65, 200
1961, 800, 65, 210
1962, 800, 65, 220
1963, 800, 92.5, 200
1964, 800, 92.5, 210
1965, 800, 92.5, 220
1966, 800, 120, 200
1967, 800, 120, 210
1968, 800, 120, 220
1969, 820, -10, 49.2
1970, 820, 0, 49.2
1971, 820, -10, 79.36
1972, 820, 0, 79.36
1973, 820, -10, 109.52
1974, 820, 0, 109.52
1975, 820, -10, 139.68
1976, 820, 0, 139.68
1977, 820, -10, 169.84
1978, 820, 0, 169.84
1979, 820, -10, 200
1980, 820, 0, 200
1981, 820, 10, 49.2
1982, 820, 10, 79.36
1983, 820, 10, 109.52
1984, 820, 10, 139.68
1985, 820, 10, 169.84
1986, 820, 10, 200
1987, 820, -120, 200
1988, 820, -92.5, 200
1989, 820, -120, 210
1990, 820, -92.5, 210
1991, 820, -120, 220
1992, 820, -92.5, 220
1993, 820, -65, 200
1994, 820, -65, 210
1995, 820, -65, 220
1996, 820, -37.5, 200
1997, 820, -37.5, 210
1998, 820, -37.5, 220
1999, 820, -10, 210
2000, 820, -10, 220
2001, 820, 0, 210
2002, 820, 0, 220
2003, 820, 10, 210
2004, 820, 10, 220
2005, 820, 37.5, 200
2006, 820, 37.5, 210
2007, 820, 37.5, 220
2008, 820, 65, 200
2009, 820, 65, 210
2010, 820, 65, 220
2011, 820, 92.5, 200
2012, 820, 92.5, 210
2013, 820, 92.5, 220
2014, 820, 120, 200
2015, 820, 120, 210
2016, 820, 120, 220
2017, 840, -10, 50.4
2018, 840, 0, 50.4
2019, 840, -10, 80.32
2020, 840, 0, 80.32
2021, 840, -10, 110.24
2022, 840, 0, 110.24
2023, 840, -10, 140.16
2024, 840, 0, 140.16
2025, 840, -10, 170.08
2026, 840, 0, 170.08
2027, 840, -10, 200
2028, 840, 0, 200
2029, 840, 10, 50.4
2030, 840, 10, 80.32
2031, 840, 10, 110.24
2032, 840, 10, 140.16
2033, 840, 10, 170.08
2034, 840, 10, 200
2035, 840, -120, 200
2036, 840, -92.5, 200
2037, 840, -120, 210
2038, 840, -92.5, 210
2039, 840, -120, 220
2040, 840, -92.5, 220
2041, 840, -65, 200
2042, 840, -65, 210
2043, 840, -65, 220
2044, 840, -37.5, 200
2045, 840, -37.5, 210
2046, 840, -37.5, 220
2047, 840, -10, 210
2048, 840, -10, 220
2049, 840, 0, 210
2050, 840, 0, 220
2051, 840, 10, 210
2052, 840, 10, 220
2053, 840, 37.5, 200
2054, 840, 37.5, 210
2055, 840, 37.5, 220
2056, 840, 65, 200
2057, 840, 65, 210
2058, 840, 65, 220
2059, 840, 92.5, 200
2060, 840, 92.5, 210
2061, 840, 92.5, 220
2062, 840, 120, 200
2063, 840, 120, 210
2064, 840, 120, 220
2065, 860, -10, 51.6
2066, 860, 0, 51.6
2067, 860, -10, 81.28
2068, 860, 0, 81.28
2069, 860, -10, 110.96
2070, 860, 0, 110.96
2071, 860, -10, 140.64
2072, 860, 0, 140.64
2073, 860, -10, 170.32
2074, 860, 0, 170.32
2075, 860, -10, 200
2076, 860, 0, 200
2077, 860, 10, 51.6
2078, 860, 10, 81.28
2079, 860, 10, 110.96
2080, 860, 10, 140.64
2081, 860, 10, 170.32
2082, 860, 10, 200
2083, 860, -120, 200
2084, 860, -92.5, 200
2085, 860, -120, 210
2086, 860, -92.5, 210
2087, 860, -120, 220
2088, 860, -92.5, 220
2089, 860, -65, 200
2090, 860, -65, 210
2091, 860, -65, 220
2092, 860, -37.5, 200
2093, 860, -37.5, 210
2094, 860, -37.5, 220
2095, 860, -10, 210
2096, 860, -10, 220
2097, 860, 0, 210
2098, 860, 0, 220
2099, 860, 10, 210
2100, 860, 10, 220
2101, 860, 37.5, 200
2102, 860, 37.5, 210
2103, 860, 37.5, 220
2104, 860, 65, 200
2105, 860, 65, 210
2106, 860, 65, 220
2107, 860, 92.5, 200
2108, 860, 92.5, 210
2109, 860, 92.5, 220
2110, 860, 120, 200
2111, 860, 120, 210
2112, 860, 120, 220
2113, 880, -10, 52.8
2114, 880, 0, 52.8
2115, 880, -10, 82.24
2116, 880, 0, 82.24
2117, 880, -10, 111.68
2118, 880, 0, 111.68
2119, 880, -10, 141.12
2120, 880, 0, 141.12
2121, 880, -10, 170.56
2122, 880, 0, 170.56
2123, 880, -10, 200
2124, 880, 0, 200
2125, 880, 10, 52.8
2126, 880, 10, 82.24
2127, 880, 10, 111.68
2128, 880, 10, 141.12
2129, 880, 10, 170.56
2130, 880, 10, 200
2131, 880, -120, 200
2132, 880, -92.5, 200
2133, 880, -120, 210
2134, 880, -92.5, 210
2135, 880, -120, 220
2136, 880, -92.5, 220
2137, 880, -65, 200
2138, 880, -65, 210
2139, 880, -65, 220
2140, 880, -37.5, 200
2141, 880, -37.5, 210
2142, 880, -37.5, 220
2143, 880, -10, 210
2144, 880, -10, 220
2145, 880, 0, 210
2146, 880, 0, 220
2147, 880, 10, 210
2148, 880, 10, 220
2149, 880, 37.5, 200
2150, 880, 37.5, 210
2151, 880, 37.5, 220
2152, 880, 65, 200
2153, 880, 65, 210
2154, 880, 65, 220
2155, 880, 92.5, 200
2156, 880, 92.5, 210
2157, 880, 92.5, 220
2158, 880, 120, 200
2159, 880, 120, 210
2160, 880, 120, 220
2161, 900, -10, 54
2162, 900, 0, 54
2163, 900, -10, 83.2
2164, 900, 0, 83.2
2165, 900, -10, 112.4
2166, 900, 0, 112.4
2167, 900, -10, 141.6
2168, 900, 0, 141.6
2169, 900, -10, 170.8
2170, 900, 0, 170.8
2171, 900, -10, 200
2172, 900, 0, 200
2173, 900, 10, 54
2174, 900, 10, 83.2
2175, 900, 10, 112.4
2176, 900, 10, 141.6
2177, 900, 10, 170.8
2178, 900, 10, 200
2179, 900, -120, 200
2180, 900, -92.5, 200
2181, 900, -120, 210
2182, 900, -92.5, 210
2183, 900, -120, 220
2184, 900, -92.5, 220
2185, 900, -65, 200
2186, 900, -65, 210
2187, 900, -65, 220
2188, 900, -37.5, 200
2189, 900, -37.5, 210
2190, 900, -37.5, 220
2191, 900, -10, 210
2192, 900, -10, 220
2193, 900, 0, 210
2194, 900, 0, 220
2195, 900, 10, 210
2196, 900, 10, 220
2197, 900, 37.5, 200
2198, 900, 37.5, 210
2199, 900, 37.5, 220
2200, 900, 65, 200
2201, 900, 65, 210
2202, 900, 65, 220
2203, 900, 92.5, 200
2204, 900, 92.5, 210
2205, 900, 92.5, 220
2206, 900, 120, 200
2207, 900, 120, 210
2208, 900, 120, 220
2209, 920, -10, 55.2
2210, 920, 0, 55.2
2211, 920, -10, 84.16
2212, 920, 0, 84.16
2213, 920, -10, 113.12
2214, 920, 0, 113.12
2215, 920, -10, 142.08
2216, 920, 0, 142.08
2217, 920, -10, 171.04
2218, 920, 0, 171.04
2219, 920, -10, 200
2220, 920, 0, 200
2221, 920, 10, 55.2
2222, 920, 10, 84.16
2223, 920, 10, 113.12
2224, 920, 10, 142.08
2225, 920, 10, 171.04
2226, 920, 10, 200
2227, 920, -120, 200
2228, 920, -92.5, 200
2229, 920, -120, 210
2230, 920, -92.5, 210
2231, 920, -120, 220
2232, 920, -92.5, 220
2233, 920, -65, 200
2234, 920, -65, 210
2235, 920, -65, 220
2236, 920, -37.5, 200
2237, 920, -37.5, 210
2238, 920, -37.5, 220
2239, 920, -10, 210
2240, 920, -10, 220
2241, 920, 0, 210
2242, 920, 0, 220
2243, 920, 10, 210
2244, 920, 10, 220
2245, 920, 37.5, 200
2246, 920, 37.5, 210
2247, 920, 37.5, 220
2248, 920, 65, 200
2249, 920, 65, 210
2250, 920, 65, 220
2251, 920, 92.5, 200
2252, 920, 92.5, 210
2253, 920, 92.5, 220
2254, 920, 120, 200
2255, 920, 120, 210
2256, 920, 120, 220
2257, 940, -10, 56.4
2258, 940, 0, 56.4
2259, 940, -10, 85.12
2260, 940, 0, 85.12
2261, 940, -10, 113.84
2262, 940, 0, 113.84
2263, 940, -10, 142.56
2264, 940, 0, 142.56
2265, 940, -10, 171.28
2266, 940, 0, 171.28
2267, 940, -10, 200
2268, 940, 0, 200
2269, 940, 10, 56.4
2270, 940, 10, 85.12
2271, 940, 10, 113.84
2272, 940, 10, 142.56
2273, 940, 10, 171.28
2274, 940, 10, 200
2275, 940, -120, 200
2276, 940, -92.5, 200
2277, 940, -120, 210
2278, 940, -92.5, 210
2279, 940, -120, 220
2280, 940, -92.5, 220
2281, 940, -65, 200
2282, 940, -65, 210
2283, 940, -65, 220
2284, 940, -37.5, 200
2285, 940, -37.5, 210
2286, 940, -37.5, 220
2287, 940, -10, 210
2288, 940, -10, 220
2289, 940, 0, 210
2290, 940, 0, 220
2291, 940, 10, 210
2292, 940, 10, 220
2293, 940, 37.5, 200
2294, 940, 37.5, 210
2295, 940, 37.5, 220
2296, 940, 65, 200
2297, 940, 65, 210
2298, 940, 65, 220
2299, 940, 92.5, 200
2300, 940, 92.5, 210
2301, 940, 92.5, 220
2302, 940, 120, 200
2303, 940, 120, 210
2304, 940, 120, 220
2305, 960, -10, 57.6
2306, 960, 0, 57.6
2307, 960, -10, 86.08
2308, 960, 0, 86.08
2309, 960, -10, 114.56
2310, 960, 0, 114.56
2311, 960, -10, 143.04
2312, 960, 0, 143.04
2313, 960, -10, 171.52
2314, 960, 0, 171.52
2315, 960, -10, 200
2316, 960, 0, 200
2317, 960, 10, 57.6
2318, 960, 10, 86.08
2319, 960, 10, 114.56
2320, 960, 10, 143.04
2321, 960, 10, 171.52
2322, 960, 10, 200
2323, 960, -120, 200
2324, 960, -92.5, 200
2325, 960, -120, 210
2326, 960, -92.5, 210
2327, 960, -120, 220
2328, 960, -92.5, 220
2329, 960, -65, 200
2330, 960, -65, 210
2331, 960, -65, 220
2332, 960, -37.5, 200
2333, 960, -37.5, 210
2334, 960, -37.5, 220
2335, 960, -10, 210
2336, 960, -10, 220
2337, 960, 0, 210
2338, 960, 0, 220
2339, 960, 10, 210
2340, 960, 10, 220
2341, 960, 37.5, 200
2342, 960, 37.5, 210
2343, 960, 37.5, 220
2344, 960, 65, 200
2345, 960, 65, 210
2346, 960, 65, 220
2347, 960, 92.5, 200
2348, 960, 92.5, 210
2349, 960, 92.5, 220
2350, 960, 120, 200
2351, 960, 120, 210
2352, 960, 120, 220
2353, 980, -10, 58.8
2354, 980, 0, 58.8
2355, 980, -10, 87.04
2356, 980, 0, 87.04
2357, 980, -10, 115.28
2358, 980, 0, 115.28
2359, 980, -10, 143.52
2360, 980, 0, 143.52
2361, 980, -10, 171.76
2362, 980, 0, 171.76
2363, 980, -10, 200
2364, 980, 0, 200
2365, 980, 10, 58.8
2366, 980, 10, 87.04
2367, 980, 10, 115.28
2368, 980, 10, 143.52
2369, 980, 10, 171.76
2370, 980, 10, 200
2371, 980, -120, 200
2372, 980, -92.5, 200
2373, 980, -120, 210
2374, 980, -92.5, 210
2375, 980, -120, 220
2376, 980, -92.5, 220
2377, 980, -65, 200
2378, 980, -65, 210
2379, 980, -65, 220
2380, 980, -37.5, 200
2381, 980, -37.5, 210
2382, 980, -37.5, 220
2383, 980, -10, 210
2384, 980, -10, 220
2385, 980, 0, 210
2386, 980, 0, 220
2387, 980, 10, 210
2388, 980, 10, 220
2389, 980, 37.5, 200
2390, 980, 37.5, 210
2391, 980, 37.5, 220
2392, 980, 65, 200
2393, 980, 65, 210
2394, 980, 65, 220
2395, 980, 92.5, 200
2396, 980, 92.5, 210
2397, 980, 92.5, 220
2398, 980, 120, 200
2399, 980, 120, 210
2400, 980, 120, 220
2401, 1000, -10, 60
2402, 1000, 0, 60
2403, 1000, -10, 88
2404, 1000, 0, 88
2405, 1000, -10, 116
2406, 1000, 0, 116
2407, 1000, -10, 144
2408, 1000, 0, 144
2409, 1000, -10, 172
2410, 1000, 0, 172
2411, 1000, -10, 200
2412, 1000, 0, 200
2413, 1000, 10, 60
2414, 1000, 10, 88
2415, 1000, 10, 116
2416, 1000, 10, 144
2417, 1000, 10, 172
2418, 1000, 10, 200
2419, 1000, -120, 200
2420, 1000, -92.5, 200
2421, 1000, -120, 210
2422, 1000, -92.5, 210
2423, 1000, -120, 220
2424, 1000, -92.5, 220
2425, 1000, -65, 200
2426, 1000, -65, 210
2427, 1000, -65, 220
2428, 1000, -37.5, 200
2429, 1000, -37.5, 210
2430, 1000, -37.5, 220
2431, 1000, -10, 210
2432, 1000, -10, 220
2433, 1000, 0, 210
2434, 1000, 0, 220
2435, 1000, 10, 210
2436, 1000, 10, 220
2437, 1000, 37.5, 200
2438, 1000, 37.5, 210
2439, 1000, 37.5, 220
2440, 1000, 65, 200
2441, 1000, 65, 210
2442, 1000, 65, 220
2443, 1000, 92.5, 200
2444, 1000, 92.5, 210
2445, 1000, 92.5, 220
2446, 1000, 120, 200
2447, 1000, 120, 210
2448, 1000, 120, 220
2449, 1020, -10, 61.2
2450, 1020, 0, 61.2
2451, 1020, -10, 88.96
2452, 1020, 0, 88.96
2453, 1020, -10, 116.72
2454, 1020, 0, 116.72
2455, 1020, -10, 144.48
2456, 1020, 0, 144.48
2457, 1020, -10, 172.24
2458, 1020, 0, 172.24
2459, 1020, -10, 200
2460, 1020, 0, 200
2461, 1020, 10, 61.2
2462, 1020, 10, 88.96
2463, 1020, 10, 116.72
2464, 1020, 10, 144.48
2465, 1020, 10, 172.24
2466, 1020, 10, 200
2467, 1020, -120, 200
2468, 1020, -92.5, 200
2469, 1020, -120, 210
2470, 1020, -92.5, 210
2471, 1020, -120, 220
2472, 1020, -92.5, 220
2473, 1020, -65, 200
2474, 1020, -65, 210
2475, 1020, -65, 220
2476, 1020, -37.5, 200
2477, 1020, -37.5, 210
2478, 1020, -37.5, 220
2479, 1020, -10, 210
2480, 1020, -10, 220
2481, 1020, 0, 210
2482, 1020, 0, 220
2483, 1020, 10, 210
2484, 1020, 10, 220
2485, 1020, 37.5, 200
2486, 1020, 37.5, 210
2487, 1020, 37.5, 220
2488, 1020, 65, 200
2489, 1020, 65, 210
2490, 1020, 65, 220
2491, 1020, 92.5, 200
2492, 1020, 92.5, 210
2493, 1020, 92.5, 220
2494, 1020, 120, 200
2495, 1020, 120, 210
2496, 1020, 120, 220
2497, 1040, -10, 62.4
2498, 1040, 0, 62.4
2499, 1040, -10, 89.92
2500, 1040, 0, 89.92
2501, 1040, -10, 117.44
2502, 1040, 0, 117.44
2503, 1040, -10, 144.96
2504, 1040, 0, 144.96
2505, 1040, -10, 172.48
2506, 1040, 0, 172.48
2507, 1040, -10, 200
2508, 1040, 0, 200
2509, 1040, 10, 62.4
2510, 1040, 10, 89.92
2511, 1040, 10, 117.44
2512, 1040, 10, 144.96
2513, 1040, 10, 172.48
2514, 1040, 10, 200
2515, 1040, -120, 200
2516, 1040, -92.5, 200
2517, 1040, -120, 210
2518, 1040, -92.5, 210
2519, 1040, -120, 220
2520, 1040, -92.5, 220
2521, 1040, -65, 200
2522, 1040, -65, 210
2523, 1040, -65, 220
2524, 1040, -37.5, 200
2525, 1040, -37.5, 210
2526, 1040, -37.5, 220
2527, 1040, -10, 210
2528, 1040, -10, 220
2529, 1040, 0, 210
2530, 1040, 0, 220
2531, 1040, 10, 210
2532, 1040, 10, 220
2533, 1040, 37.5, 200
2534, 1040, 37.5, 210
2535, 1040, 37.5, 220
2536, 1040, 65, 200
2537, 1040, 65, 210
2538, 1040, 65, 220
2539, 1040, 92.5, 200
2540, 1040, 92.5, 210
2541, 1040, 92.5, 220
2542, 1040, 120, 200
2543, 1040, 120, 210
2544, 1040, 120, 220
2545, 1060, -10, 63.6
2546, 1060, 0, 63.6
2547, 1060, -10, 90.88
2548, 1060, 0, 90.88
2549, 1060, -10, 118.16
2550, 1060, 0, 118.16
2551, 1060, -10, 145.44
2552, 1060, 0, 145.44
2553, 1060, -10, 172.72
2554, 1060, 0, 172.72
2555, 1060, -10, 200
2556, 1060, 0, 200
2557, 1060, 10, 63.6
2558, 1060, 10, 90.88
2559, 1060, 10, 118.16
2560, 1060, 10, 145.44
2561, 1060, 10, 172.72
2562, 1060, 10, 200
2563, 1060, -120, 200
2564, 1060, -92.5, 200
2565, 1060, -120, 210
2566, 1060, -92.5, 210
2567, 1060, -120, 220
2568, 1060, -92.5, 220
2569, 1060, -65, 200
2570, 1060, -65, 210
2571, 1060, -65, 220
2572, 1060, -37.5, 200
2573, 1060, -37.5, 210
2574, 1060, -37.5, 220
2575, 1060, -10, 210
2576, 1060, -10, 220
2577, 1060, 0, 210
2578, 1060, 0, 220
2579, 1060, 10, 210
2580, 1060, 10, 220
2581, 1060, 37.5, 200
2582, 1060, 37.5, 210
2583, 1060, 37.5, 220
2584, 1060, 65, 200
2585, 1060, 65, 210
2586, 1060, 65, 220
2587, 1060, 92.5, 200
2588, 1060, 92.5, 210
2589, 1060, 92.5, 220
2590, 1060, 120, 200
2591, 1060, 120, 210
2592, 1060, 120, 220
2593, 1080, -10, 64.8
2594, 1080, 0, 64.8
2595, 1080, -10, 91.84
2596, 1080, 0, 91.84
2597, 1080, -10, 118.88
2598, 1080, 0, 118.88
2599, 1080, -10, 145.92
2600, 1080, 0, 145.92
2601, 1080, -10, 172.96
2602, 1080, 0, 172.96
2603, 1080, -10, 200
2604, 1080, 0, 200
2605, 1080, 10, 64.8
2606, 1080, 10, 91.84
2607, 1080, 10, 118.88
2608, 1080, 10, 145.92
2609, 1080, 10, 172.96
2610, 1080, 10, 200
2611, 1080, -120, 200
2612, 1080, -92.5, 200
2613, 1080, -120, 210
2614, 1080, -92.5, 210
2615, 1080, -120, 220
2616, 1080, -92.5, 220
2617, 1080, -65, 200
2618, 1080, -65, 210
2619, 1080, -65, 220
2620, 1080, -37.5, 200
2621, 1080, -37.5, 210
2622, 1080, -37.5, 220
2623, 1080, -10, 210
2624, 1080, -10, 220
2625, 1080, 0, 210
2626, 1080, 0, 220
2627, 1080, 10, 210
2628, 1080, 10, 220
2629, 1080, 37.5, 200
2630, 1080, 37.5, 210
2631, 1080, 37.5, 220
2632, 1080, 65, 200
2633, 1080, 65, 210
2634, 1080, 65, 220
2635, 1080, 92.5, 200
2636, 1080, 92.5, 210
2637, 1080, 92.5, 220
2638, 1080, 120, 200
2639, 1080, 120, 210
2640, 1080, 120, 220
2641, 1100, -10, 66
2642, 1100, 0, 66
2643, 1100, -10, 92.8
2644, 1100, 0, 92.8
2645, 1100, -10, 119.6
2646, 1100, 0, 119.6
2647, 1100, -10, 146.4
2648, 1100, 0, 146.4
2649, 1100, -10, 173.2
2650, 1100, 0, 173.2
2651, 1100, -10, 200
2652, 1100, 0, 200
2653, 1100, 10, 66
2654, 1100, 10, 92.8
2655, 1100, 10, 119.6
2656, 1100, 10, 146.4
2657, 1100, 10, 173.2
2658, 1100, 10, 200
2659, 1100, -120, 200
2660, 1100, -92.5, 200
2661, 1100, -120, 210
2662, 1100, -92.5, 210
2663, 1100, -120, 220
2664, 1100, -92.5, 220
2665, 1100, -65, 200
2666, 1100, -65, 210
2667, 1100, -65, 220
2668, 1100, -37.5, 200
2669, 1100, -37.5, 210
2670, 1100, -37.5, 220
2671, 1100, -10, 210
2672, 1100, -10, 220
2673, 1100, 0, 210
2674, 1100, 0, 220
2675, 1100, 10, 210
2676, 1100, 10, 220
2677, 1100, 37.5, 200
2678, 1100, 37.5, 210
2679, 1100, 37.5, 220
2680, 1100, 65, 200
2681, 1100, 65, 210
2682, 1100, 65, 220
2683, 1100, 92.5, 200
2684, 1100, 92.5, 210
2685, 1100, 92.5, 220
2686, 1100, 120, 200
2687, 1100, 120, 210
2688, 1100, 120, 220
2689, 1120, -10, 67.2
2690, 1120, 0, 67.2
2691, 1120, -10, 93.76
2692, 1120, 0, 93.76
2693, 1120, -10, 120.32
2694, 1120, 0, 120.32
2695, 1120, -10, 146.88
2696, 1120, 0, 146.88
2697, 1120, -10, 173.44
2698, 1120, 0, 173.44
2699, 1120, -10, 200
2700, 1120, 0, 200
2701, 1120, 10, 67.2
2702, 1120, 10, 93.76
2703, 1120, 10, 120.32
2704, 1120, 10, 146.88
2705, 1120, 10, 173.44
2706, 1120, 10, 200
2707, 1120, -120, 200
2708, 1120, -92.5, 200
2709, 1120, -120, 210
2710, 1120, -92.5, 210
2711, 1120, -120, 220
2712, 1120, -92.5, 220
2713, 1120, -65, 200
2714, 1120, -65, 210
2715, 1120, -65, 220
2716, 1120, -37.5, 200
2717, 1120, -37.5, 210
2718, 1120, -37.5, 220
2719, 1120, -10, 210
2720, 1120, -10, 220
2721, 1120, 0, 210
2722, 1120, 0, 220
2723, 1120, 10, 210
2724, 1120, 10, 220
2725, 1120, 37.5, 200
2726, 1120, 37.5, 210
2727, 1120, 37.5, 220
2728, 1120, 65, 200
2729, 1120, 65, 210
2730, 1120, 65, 220
2731, 1120, 92.5, 200
2732, 1120, 92.5, 210
2733, 1120, 92.5, 220
2734, 1120, 120, 200
2735, 1120, 120, 210
2736, 1120, 120, 220
2737, 1140, -10, 68.4
2738, 1140, 0, 68.4
2739, 1140, -10, 94.72
2740, 1140, 0, 94.72
2741, 1140, -10, 121.04
2742, 1140, 0, 121.04
2743, 1140, -10, 147.36
2744, 1140, 0, 147.36
2745, 1140, -10, 173.68
2746, 1140, 0, 173.68
2747, 1140, -10, 200
2748, 1140, 0, 200
2749, 1140, 10, 68.4
2750, 1140, 10, 94.72
2751, 1140, 10, 121.04
2752, 1140, 10, 147.36
2753, 1140, 10, 173.68
2754, 1140, 10, 200
2755, 1140, -120, 200
2756, 1140, -92.5, 200
2757, 1140, -120, 210
2758, 1140, -92.5, 210
2759, 1140, -120, 220
2760, 1140, -92.5, 220
2761, 1140, -65, 200
2762, 1140, -65, 210
2763, 1140, -65, 220
2764, 1140, -37.5, 200
2765, 1140, -37.5, 210
2766, 1140, -37.5, 220
2767, 1140, -10, 210
2768, 1140, -10, 220
2769, 1140, 0, 210
2770, 1140, 0, 220
2771, 1140, 10, 210
2772, 1140, 10, 220
2773, 1140, 37.5, 200
2774, 1140, 37.5, 210
2775, 1140, 37.5, 220
2776, 1140, 65, 200
2777, 1140, 65, 210
2778, 1140, 65, 220
2779, 1140, 92.5, 200
2780, 1140, 92.5, 210
2781, 1140, 92.5, 220
2782, 1140, 120, 200
2783, 1140, 120, 210
2784, 1140, 120, 220
2785, 1160, -10, 69.6
2786, 1160, 0, 69.6
2787, 1160, -10, 95.68
2788, 1160, 0, 95.68
2789, 1160, -10, 121.76
2790, 1160, 0, 121.76
2791, 1160, -10, 147.84
2792, 1160, 0, 147.84
2793, 1160, -10, 173.92
2794, 1160, 0, 173.92
2795, 1160, -10, 200
2796, 1160, 0, 200
2797, 1160, 10, 69.6
2798, 1160, 10, 95.68
2799, 1160, 10, 121.76
2800, 1160, 10, 147.84
2801, 1160, 10, 173.92
2802, 1160, 10, 200
2803, 1160, -120, 200
2804, 1160, -92.5, 200
2805, 1160, -120, 210
2806, 1160, -92.5, 210
2807, 1160, -120, 220
2808, 1160, -92.5, 220
2809, 1160, -65, 200
2810, 1160, -65, 210
2811, 1160, -65, 220
2812, 1160, -37.5, 200
2813, 1160, -37.5, 210
2814, 1160, -37.5, 220
2815, 1160, -10, 210
2816, 1160, -10, 220
2817, 1160, 0, 210
2818, 1160, 0, 220
2819, 1160, 10, 210
2820, 1160, 10, 220
2821, 1160, 37.5, 200
2822, 1160, 37.5, 210
2823, 1160, 37.5, 220
2824, 1160, 65, 200
2825, 1160, 65, 210
2826, 1160, 65, 220
2827, 1160, 92.5, 200
2828, 1160, 92.5, 210
2829, 1160, 92.5, 220
2830, 1160, 120, 200
2831, 1160, 120, 210
2832, 1160, 120, 220
2833, 1180, -10, 70.8
2834, 1180, 0, 70.8
2835, 1180, -10, 96.64
2836, 1180, 0, 96.64
2837, 1180, -10, 122.48
2838, 1180, 0, 122.48
2839, 1180, -10, 148.32
2840, 1180, 0, 148.32
2841, 1180, -10, 174.16
2842, 1180, 0, 174.16
2843, 1180, -10, 200
2844, 1180, 0, 200
2845, 1180, 10, 70.8
2846, 1180, 10, 96.64
2847, 1180, 10, 122.48
2848, 1180, 10, 148.32
2849, 1180, 10, 174.16
2850, 1180, 10, 200
2851, 1180, -120, 200
2852, 1180, -92.5, 200
2853, 1180, -120, 210
2854, 1180, -92.5, 210
2855, 1180, -120, 220
2856, 1180, -92.5, 220
2857, 1180, -65, 200
2858, 1180, -65, 210
2859, 1180, -65, 220
2860, 1180, -37.5, 200
2861, 1180, -37.5, 210
2862, 1180, -37.5, 220
2863, 1180, -10, 210
2864, 1180, -10, 220
2865, 1180, 0, 210
2866, 1180, 0, 220
2867, 1180, 10, 210
2868, 1180, 10, 220
2869, 1180, 37.5, 200
2870, 1180, 37.5, 210
2871, 1180, 37.5, 220
2872, 1180, 65, 200
2873, 1180, 65, 210
2874, 1180, 65, 220
2875, 1180, 92.5, 200
2876, 1180, 92.5, 210
2877, 1180, 92.5, 220
2878, 1180, 120, 200
2879, 1180, 120, 210
2880, 1180, 120, 220
2881, 1200, -10, 72
2882, 1200, 0, 72
2883, 1200, -10, 97.6
2884, 1200, 0, 97.6
2885, 1200, -10, 123.2
2886, 1200, 0, 123.2
2887, 1200, -10, 148.8
2888, 1200, 0, 148.8
2889, 1200, -10, 174.4
2890, 1200, 0, 174.4
2891, 1200, -10, 200
2892, 1200, 0, 200
2893, 1200, 10, 72
2894, 1200, 10, 97.6
2895, 1200, 10, 123.2
2896, 1200, 10, 148.8
2897, 1200, 10, 174.4
2898, 1200, 10, 200
2899, 1200, -120, 200
2900, 1200, -92.5, 200
2901, 1200, -120, 210
2902, 1200, -92.5, 210
2903, 1200, -120, 220
2904, 1200, -92.5, 220
2905, 1200, -65, 200
2906, 1200, -65, 210
2907, 1200, -65, 220
2908, 1200, -37.5, 200
2909, 1200, -37.5, 210
2910, 1200, -37.5, 220
2911, 1200, -10, 210
2912, 1200, -10, 220
2913, 1200, 0, 210
2914, 1200, 0, 220
2915, 1200, 10, 210
2916, 1200, 10, 220
2917, 1200, 37.5, 200
2918, 1200, 37.5, 210
2919, 1200, 37.5, 220
2920, 1200, 65, 200
2921, 1200, 65, 210
2922, 1200, 65, 220
2923, 1200, 92.5, 200
2924, 1200, 92.5, 210
2925, 1200, 92.5, 220
2926, 1200, 120, 200
2927, 1200, 120, 210
2928, 1200, 120, 220
2929, 1220, -10, 73.2
2930, 1220, 0, 73.2
2931, 1220, -10, 98.56
2932, 1220, 0, 98.56
2933, 1220, -10, 123.92
2934, 1220, 0, 123.92
2935, 1220, -10, 149.28
2936, 1220, 0, 149.28
2937, 1220, -10, 174.64
2938, 1220, 0, 174.64
2939, 1220, -10, 200
2940, 1220, 0, 200
2941, 1220, 10, 73.2
2942, 1220, 10, 98.56
2943, 1220, 10, 123.92
2944, 1220, 10, 149.28
2945, 1220, 10, 174.64
2946, 1220, 10, 200
2947, 1220, -120, 200
2948, 1220, -92.5, 200
2949, 1220, -120, 210
2950, 1220, -92.5, 210
2951, 1220, -120, 220
2952, 1220, -92.5, 220
2953, 1220, -65, 200
2954, 1220, -65, 210
2955, 1220, -65, 220
2956, 1220, -37.5, 200
2957, 1220, -37.5, 210
2958, 1220, -37.5, 220
2959, 1220, -10, 210
2960, 1220, -10, 220
2961, 1220, 0, 210
2962, 1220, 0, 220
2963, 1220, 10, 210
2964, 1220, 10, 220
2965, 1220, 37.5, 200
2966, 1220, 37.5, 210
2967, 1220, 37.5, 220
2968, 1220, 65, 200
2969, 1220, 65, 210
2970, 1220, 65, 220
2971, 1220, 92.5, 200
2972, 1220, 92.5, 210
2973, 1220, 92.5, 220
2974, 1220, 120, 200
2975, 1220, 120, 210
2976, 1220, 120, 220
2977, 1240, -10, 74.4
2978, 1240, 0, 74.4
2979, 1240, -10, 99.52
2980, 1240, 0, 99.52
2981, 1240, -10, 124.64
2982, 1240, 0, 124.64
2983, 1240, -10, 149.76
2984, 1240, 0, 149.76
2985, 1240, -10, 174.88
2986, 1240, 0, 174.88
2987, 1240, -10, 200
2988, 1240, 0, 200
2989, 1240, 10, 74.4
2990, 1240, 10, 99.52
2991, 1240, 10, 124.64
2992, 1240, 10, 149.76
2993, 1240, 10, 174.88
2994, 1240, 10, 200
2995, 1240, -120, 200
2996, 1240, -92.5, 200
2997, 1240, -120, 210
2998, 1240, -92.5, 210
2999, 1240, -120, 220
3000, 1240, -92.5, 220
3001, 1240, -65, 200
3002, 1240, -65, 210
3003, 1240, -65, 220
3004, 1240, -37.5, 200
3005, 1240, -37.5, 210
3006, 1240, -37.5, 220
3007, 1240, -10, 210
3008, 1240, -10, 220
3009, 1240, 0, 210
3010, 1240, 0, 220
3011, 1240, 10, 210
3012, 1240, 10, 220
3013, 1240, 37.5, 200
3014, 1240, 37.5, 210
3015, 1240, 37.5, 220
3016, 1240, 65, 200
3017, 1240, 65, 210
3018, 1240, 65, 220
3019, 1240, 92.5, 200
3020, 1240, 92.5, 210
3021, 1240, 92.5, 220
3022, 1240, 120, 200
3023, 1240, 120, 210
3024, 1240, 120, 220
3025, 1260, -10, 75.6
3026, 1260, 0, 75.6
3027, 1260, -10, 100.48
3028, 1260, 0, 100.48
3029, 1260, -10, 125.36
3030, 1260, 0, 125.36
3031, 1260, -10, 150.24
3032, 1260, 0, 150.24
3033, 1260, -10, 175.12
3034, 1260, 0, 175.12
3035, 1260, -10, 200
3036, 1260, 0, 200
3037, 1260, 10, 75.6
3038, 1260, 10, 100.48
3039, 1260, 10, 125.36
3040, 1260, 10, 150.24
3041, 1260, 10, 175.12
3042, 1260, 10, 200
3043, 1260, -120, 200
3044, 1260, -92.5, 200
3045, 1260, -120, 210
3046, 1260, -92.5, 210
3047, 1260, -120, 220
3048, 1260, -92.5, 220
3049, 1260, -65, 200
3050, 1260, -65, 210
3051, 1260, -65, 220
3052, 1260, -37.5, 200
3053, 1260, -37.5, 210
3054, 1260, -37.5, 220
3055, 1260, -10, 210
3056, 1260, -10, 220
3057, 1260, 0, 210
3058, 1260, 0, 220
3059, 1260, 10, 210
3060, 1260, 10, 220
3061, 1260, 37.5, 200
3062, 1260, 37.5, 210
3063, 1260, 37.5, 220
3064, 1260, 65, 200
3065, 1260, 65, 210
3066, 1260, 65, 220
3067, 1260, 92.5, 200
3068, 1260, 92.5, 210
3069, 1260, 92.5, 220
3070, 1260, 120, 200
3071, 1260, 120, 210
3072, 1260, 120, 220
3073, 1280, -10, 76.8
3074, 1280, 0, 76.8
3075, 1280, -10, 101.44
3076, 1280, 0, 101.44
3077, 1280, -10, 126.08
3078, 1280, 0, 126.08
3079, 1280, -10, 150.72
3080, 1280, 0, 150.72
3081, 1280, -10, 175.36
3082, 1280, 0, 175.36
3083, 1280, -10, 200
3084, 1280, 0, 200
3085, 1280, 10, 76.8
3086, 1280, 10, 101.44
3087, 1280, 10, 126.08
3088, 1280, 10, 150.72
3089, 1280, 10, 175.36
3090, 1280, 10, 200
3091, 1280, -120, 200
3092, 1280, -92.5, 200
3093, 1280, -120, 210
3094, 1280, -92.5, 210
3095, 1280, -120, 220
3096, 1280, -92.5, 220
3097, 1280, -65, 200
3098, 1280, -65, 210
3099, 1280, -65, 220
3100, 1280, -37.5, 200
3101, 1280, -37.5, 210
3102, 1280, -37.5, 220
3103, 1280, -10, 210
3104, 1280, -10, 220
3105, 1280, 0, 210
3106, 1280, 0, 220
3107, 1280, 10, 210
3108, 1280, 10, 220
3109, 1280, 37.5, 200
3110, 1280, 37.5, 210
3111, 1280, 37.5, 220
3112, 1280, 65, 200
3113, 1280, 65, 210
3114, 1280, 65, 220
3115, 1280, 92.5, 200
3116, 1280, 92.5, 210
3117, 1280, 92.5, 220
3118, 1280, 120, 200
3119, 1280, 120, 210
3120, 1280, 120, 220
3121, 1300, -10, 78
3122, 1300, 0, 78
3123, 1300, -10, 102.4
3124, 1300, 0, 102.4
3125, 1300, -10, 126.8
3126, 1300, 0, 126.8
3127, 1300, -10, 151.2
3128, 1300, 0, 151.2
3129, 1300, -10, 175.6
3130, 1300, 0, 175.6
3131, 1300, -10, 200
3132, 1300, 0, 200
3133, 1300, 10, 78
3134, 1300, 10, 102.4
3135, 1300, 10, 126.8
3136, 1300, 10, 151.2
3137, 1300, 10, 175.6
3138, 1300, 10, 200
3139, 1300, -120, 200
3140, 1300, -92.5, 200
3141, 1300, -120, 210
3142, 1300, -92.5, 210
3143, 1300, -120, 220
3144, 1300, -92.5, 220
3145, 1300, -65, 200
3146, 1300, -65, 210
3147, 1300, -65, 220
3148, 1300, -37.5, 200
3149, 1300, -37.5, 210
3150, 1300, -37.5, 220
3151, 1300, -10, 210
3152, 1300, -10, 220
3153, 1300, 0, 210
3154, 1300, 0, 220
3155, 1300, 10, 210
3156, 1300, 10, 220
3157, 1300, 37.5, 200
3158, 1300, 37.5, 210
3159, 1300, 37.5, 220
3160, 1300, 65, 200
3161, 1300, 65, 210
3162, 1300, 65, 220
3163, 1300, 92.5, 200
3164, 1300, 92.5, 210
3165, 1300, 92.5, 220
3166, 1300, 120, 200
3167, 1300, 120, 210
3168, 1300, 120, 220
3169, 1320, -10, 79.2
3170, 1320, 0, 79.2
3171, 1320, -10, 103.36
3172, 1320, 0, 103.36
3173, 1320, -10, 127.52
3174, 1320, 0, 127.52
3175, 1320, -10, 151.68
3176, 1320, 0, 151.68
3177, 1320, -10, 175.84
3178, 1320, 0, 175.84
3179, 1320, -10, 200
3180, 1320, 0, 200
3181, 1320, 10, 79.2
3182, 1320, 10, 103.36
3183, 1320, 10, 127.52
3184, 1320, 10, 151.68
3185, 1320, 10, 175.84
3186, 1320, 10, 200
3187, 1320, -120, 200
3188, 1320, -92.5, 200
3189, 1320, -120, 210
3190, 1320, -92.5, 210
3191, 1320, -120, 220
3192, 1320, -92.5, 220
3193, 1320, -65, 200
3194, 1320, -65, 210
3195, 1320, -65, 220
3196, 1320, -37.5, 200
3197, 1320, -37.5, 210
3198, 1320, -37.5, 220
3199, 1320, -10, 210
3200, 1320, -10, 220
3201, 1320, 0, 210
3202, 1320, 0, 220
3203, 1320, 10, 210
3204, 1320, 10, 220
3205, 1320, 37.5, 200
3206, 1320, 37.5, 210
3207, 1320, 37.5, 220
3208, 1320, 65, 200
3209, 1320, 65, 210
3210, 1320, 65, 220
3211, 1320, 92.5, 200
3212, 1320, 92.5, 210
3213, 1320, 92.5, 220
3214, 1320, 120, 200
3215, 1320, 120, 210
3216, 1320, 120, 220
3217, 1340, -10, 80.4
3218, 1340, 0, 80.4
3219, 1340, -10, 104.32
3220, 1340, 0, 104.32
3221, 1340, -10, 128.24
3222, 1340, 0, 128.24
3223, 1340, -10, 152.16
3224, 1340, 0, 152.16
3225, 1340, -10, 176.08
3226, 1340, 0, 176.08
3227, 1340, -10, 200
3228, 1340, 0, 200
3229, 1340, 10, 80.4
3230, 1340, 10, 104.32
3231, 1340, 10, 128.24
3232, 1340, 10, 152.16
3233, 1340, 10, 176.08
3234, 1340, 10, 200
3235, 1340, -120, 200
3236, 1340, -92.5, 200
3237, 1340, -120, 210
3238, 1340, -92.5, 210
3239, 1340, -120, 220
3240, 1340, -92.5, 220
3241, 1340, -65, 200
3242, 1340, -65, 210
3243, 1340, -65, 220
3244, 1340, -37.5, 200
3245, 1340, -37.5, 210
3246, 1340, -37.5, 220
3247, 1340, -10, 210
3248, 1340, -10, 220
3249, 1340, 0, 210
3250, 1340, 0, 220
3251, 1340, 10, 210
3252, 1340, 10, 220
3253, 1340, 37.5, 200
3254, 1340, 37.5, 210
3255, 1340, 37.5, 220
3256, 1340, 65, 200
3257, 1340, 65, 210
3258, 1340, 65, 220
3259, 1340, 92.5, 200
3260, 1340, 92.5, 210
3261, 1340, 92.5, 220
3262, 1340, 120, 200
3263, 1340, 120, 210
3264, 1340, 120, 220
3265, 1360, -10, 81.6
3266, 1360, 0, 81.6
3267, 1360, -10, 105.28
3268, 1360, 0, 105.28
3269, 1360, -10, 128.96
3270, 1360, 0, 128.96
3271, 1360, -10, 152.64
3272, 1360, 0, 152.64
3273, 1360, -10, 176.32
3274, 1360, 0, 176.32
3275, 1360, -10, 200
3276, 1360, 0, 200
3277, 1360, 10, 81.6
3278, 1360, 10, 105.28
3279, 1360, 10, 128.96
3280, 1360, 10, 152.64
3281, 1360, 10, 176.32
3282, 1360, 10, 200
3283, 1360, -120, 200
3284, 1360, -92.5, 200
3285, 1360, -120, 210
3286, 1360, -92.5, 210
3287, 1360, -120, 220
3288, 1360, -92.5, 220
3289, 1360, -65, 200
3290, 1360, -65, 210
3291, 1360, -65, 220
3292, 1360, -37.5, 200
3293, 1360, -37.5, 210
3294, 1360, -37.5, 220
3295, 1360, -10, 210
3296, 1360, -10, 220
3297, 1360, 0, 210
3298, 1360, 0, 220
3299, 1360, 10, 210
3300, 1360, 10, 220
3301, 1360, 37.5, 200
3302, 1360, 37.5, 210
3303, 1360, 37.5, 220
3304, 1360, 65, 200
3305, 1360, 65, 210
3306, 1360, 65, 220
3307, 1360, 92.5, 200
3308, 1360, 92.5, 210
3309, 1360, 92.5, 220
3310, 1360, 120, 200
3311, 1360, 120, 210
3312, 1360, 120, 220
3313, 1380, -10, 82.8
3314, 1380, 0, 82.8
3315, 1380, -10, 106.24
3316, 1380, 0, 106.24
3317, 1380, -10, 129.68
3318, 1380, 0, 129.68
3319, 1380, -10, 153.12
3320, 1380, 0, 153.12
3321, 1380, -10, 176.56
3322, 1380, 0, 176.56
3323, 1380, -10, 200
3324, 1380, 0, 200
3325, 1380, 10, 82.8
3326, 1380, 10, 106.24
3327, 1380, 10, 129.68
3328, 1380, 10, 153.12
3329, 1380, 10, 176.56
3330, 1380, 10, 200
3331, 1380, -120, 200
3332, 1380, -92.5, 200
3333, 1380, -120, 210
3334, 1380, -92.5, 210
3335, 1380, -120, 220
3336, 1380, -92.5, 220
3337, 1380, -65, 200
3338, 1380, -65, 210
3339, 1380, -65, 220
3340, 1380, -37.5, 200
3341, 1380, -37.5, 210
3342, 1380, -37.5, 220
3343, 1380, -10, 210
3344, 1380, -10, 220
3345, 1380, 0, 210
3346, 1380, 0, 220
3347, 1380, 10, 210
3348, 1380, 10, 220
3349, 1380, 37.5, 200
3350, 1380, 37.5, 210
3351, 1380, 37.5, 220
3352, 1380, 65, 200
3353, 1380, 65, 210
3354, 1380, 65, 220
3355, 1380, 92.5, 200
3356, 1380, 92.5, 210
3357, 1380, 92.5, 220
3358, 1380, 120, 200
3359, 1380, 120, 210
3360, 1380, 120, 220
3361, 1400, -10, 84
3362, 1400, 0, 84
3363, 1400, -10, 107.2
3364, 1400, 0, 107.2
3365, 1400, -10, 130.4
3366, 1400, 0, 130.4
3367, 1400, -10, 153.6
3368, 1400, 0, 153.6
3369, 1400, -10, 176.8
3370, 1400, 0, 176.8
3371, 1400, -10, 200
3372, 1400, 0, 200
3373, 1400, 10, 84
3374, 1400, 10, 107.2
3375, 1400, 10, 130.4
3376, 1400, 10, 153.6
3377, 1400, 10, 176.8
3378, 1400, 10, 200
3379, 1400, -120, 200
3380, 1400, -92.5, 200
3381, 1400, -120, 210
3382, 1400, -92.5, 210
3383, 1400, -120, 220
3384, 1400, -92.5, 220
3385, 1400, -65, 200
3386, 1400, -65, 210
3387, 1400, -65, 220
3388, 1400, -37.5, 200
3389, 1400, -37.5, 210
3390, 1400, -37.5, 220
3391, 1400, -10, 210
3392, 1400, -10, 220
3393, 1400, 0, 210
3394, 1400, 0, 220
3395, 1400, 10, 210
3396, 1400, 10, 220
3397, 1400, 37.5, 200
3398, 1400, 37.5, 210
3399, 1400, 37.5, 220
3400, 1400, 65, 200
3401, 1400, 65, 210
3402, 1400, 65, 220
3403, 1400, 92.5, 200
3404, 1400, 92.5, 210
3405, 1400, 92.5, 220
3406, 1400, 120, 200
3407, 1400, 120, 210
3408, 1400, 120, 220
3409, 1420, -10, 85.2
3410, 1420, 0, 85.2
3411, 1420, -10, 108.16
3412, 1420, 0, 108.16
3413, 1420, -10, 131.12
3414, 1420, 0, 131.12
3415, 1420, -10, 154.08
3416, 1420, 0, 154.08
3417, 1420, -10, 177.04
3418, 1420, 0, 177.04
3419, 1420, -10, 200
3420, 1420, 0, 200
3421, 1420, 10, 85.2
3422, 1420, 10, 108.16
3423, 1420, 10, 131.12
3424, 1420, 10, 154.08
3425, 1420, 10, 177.04
3426, 1420, 10, 200
3427, 1420, -120, 200
3428, 1420, -92.5, 200
3429, 1420, -120, 210
3430, 1420, -92.5, 210
3431, 1420, -120, 220
3432, 1420, -92.5, 220
3433, 1420, -65, 200
3434, 1420, -65, 210
3435, 1420, -65, 220
3436, 1420, -37.5, 200
3437, 1420, -37.5, 210
3438, 1420, -37.5, 220
3439, 1420, -10, 210
3440, 1420, -10, 220
3441, 1420, 0, 210
3442, 1420, 0, 220
3443, 1420, 10, 210
3444, 1420, 10, 220
3445, 1420, 37.5, 200
3446, 1420, 37.5, 210
3447, 1420, 37.5, 220
3448, 1420, 65, 200
3449, 1420, 65, 210
3450, 1420, 65, 220
3451, 1420, 92.5, 200
3452, 1420, 92.5, 210
3453, 1420, 92.5, 220
3454, 1420, 120, 200
3455, 1420, 120, 210
3456, 1420, 120, 220
3457, 1440, -10, 86.4
3458, 1440, 0, 86.4
3459, 1440, -10, 109.12
3460, 1440, 0, 109.12
3461, 1440, -10, 131.84
3462, 1440, 0, 131.84
3463, 1440, -10, 154.56
3464, 1440, 0, 154.56
3465, 1440, -10, 177.28
3466, 1440, 0, 177.28
3467, 1440, -10, 200
3468, 1440, 0, 200
3469, 1440, 10, 86.4
3470, 1440, 10, 109.12
3471, 1440, 10, 131.84
3472, 1440, 10, 154.56
3473, 1440, 10, 177.28
3474, 1440, 10, 200
3475, 1440, -120, 200
3476, 1440, -92.5, 200
3477, 1440, -120, 210
3478, 1440, -92.5, 210
3479, 1440, -120, 220
3480, 1440, -92.5, 220
3481, 1440, -65, 200
3482, 1440, -65, 210
3483, 1440, -65, 220
3484, 1440, -37.5, 200
3485, 1440, -37.5, 210
3486, 1440, -37.5, 220
3487, 1440, -10, 210
3488, 1440, -10, 220
3489, 1440, 0, 210
3490, 1440, 0, 220
3491, 1440, 10, 210
3492, 1440, 10, 220
3493, 1440, 37.5, 200
3494, 1440, 37.5, 210
3495, 1440, 37.5, 220
3496, 1440, 65, 200
3497, 1440, 65, 210
3498, 1440, 65, 220
3499, 1440, 92.5, 200
3500, 1440, 92.5, 210
3501, 1440, 92.5, 220
3502, 1440, 120, 200
3503, 1440, 120, 210
3504, 1440, 120, 220
3505, 1460, -10, 87.6
3506, 1460, 0, 87.6
3507, 1460, -10, 110.08
3508, 1460, 0, 110.08
3509, 1460, -10, 132.56
3510, 1460, 0, 132.56
3511, 1460, -10, 155.04
3512, 1460, 0, 155.04
3513, 1460, -10, 177.52
3514, 1460, 0, 177.52
3515, 1460, -10, 200
3516, 1460, 0, 200
3517, 1460, 10, 87.6
3518, 1460, 10, 110.08
3519, 1460, 10, 132.56
3520, 1460, 10, 155.04
3521, 1460, 10, 177.52
3522, 1460, 10, 200
3523, 1460, -120, 200
3524, 1460, -92.5, 200
3525, 1460, -120, 210
3526, 1460, -92.5, 210
3527, 1460, -120, 220
3528, 1460, -92.5, 220
3529, 1460, -65, 200
3530, 1460, -65, 210
3531, 1460, -65, 220
3532, 1460, -37.5, 200
3533, 1460, -37.5, 210
3534, 1460, -37.5, 220
3535, 1460, -10, 210
3536, 1460, -10, 220
3537, 1460, 0, 210
3538, 1460, 0, 220
3539, 1460, 10, 210
3540, 1460, 10, 220
3541, 1460, 37.5, 200
3542, 1460, 37.5, 210
3543, 1460, 37.5, 220
3544, 1460, 65, 200
3545, 1460, 65, 210
3546, 1460, 65, 220
3547, 1460, 92.5, 200
3548, 1460, 92.5, 210
3549, 1460, 92.5, 220
3550, 1460, 120, 200
3551, 1460, 120, 210
3552, 1460, 120, 220
3553, 1480, -10, 88.8
3554, 1480, 0, 88.8
3555, 1480, -10, 111.04
3556, 1480, 0, 111.04
3557, 1480, -10, 133.28
3558, 1480, 0, 133.28
3559, 1480, -10, 155.52
3560, 1480, 0, 155.52
3561, 1480, -10, 177.76
3562, 1480, 0, 177.76
3563, 1480, -10, 200
3564, 1480, 0, 200
3565, 1480, 10, 88.8
3566, 1480, 10, 111.04
3567, 1480, 10, 133.28
3568, 1480, 10, 155.52
3569, 1480, 10, 177.76
3570, 1480, 10, 200
3571, 1480, -120, 200
3572, 1480, -92.5, 200
3573, 1480, -120, 210
3574, 1480, -92.5, 210
3575, 1480, -120, 220
3576, 1480, -92.5, 220
3577, 1480, -65, 200
3578, 1480, -65, 210
3579, 1480, -65, 220
3580, 1480, -37.5, 200
3581, 1480, -37.5, 210
3582, 1480, -37.5, 220
3583, 1480, -10, 210
3584, 1480, -10, 220
3585, 1480, 0, 210
3586, 1480, 0, 220
3587, 1480, 10, 210
3588, 1480, 10, 220
3589, 1480, 37.5, 200
3590, 1480, 37.5, 210
3591, 1480, 37.5, 220
3592, 1480, 65, 200
3593, 1480, 65, 210
3594, 1480, 65, 220
3595, 1480, 92.5, 200
3596, 1480, 92.5, 210
3597, 1480, 92.5, 220
3598, 1480, 120, 200
3599, 1480, 120, 210
3600, 1480, 120, 220
3601, 1500, -10, 90
3602, 1500, 0, 90
3603, 1500, -10, 112
3604, 1500, 0, 112
3605, 1500, -10, 134
3606, 1500, 0, 134
3607, 1500, -10, 156
3608, 1500, 0, 156
3609, 1500, -10, 178
3610, 1500, 0, 178
3611, 1500, -10, 200
3612, 1500, 0, 200
3613, 1500, 10, 90
3614, 1500, 10, 112
3615, 1500, 10, 134
3616, 1500, 10, 156
3617, 1500, 10, 178
3618, 1500, 10, 200
3619, 1500, -120, 200
3620, 1500, -92.5, 200
3621, 1500, -120, 210
3622, 1500, -92.5, 210
3623, 1500, -120, 220
3624, 1500, -92.5, 220
3625, 1500, -65, 200
3626, 1500, -65, 210
3627, 1500, -65, 220
3628, 1500, -37.5, 200
3629, 1500, -37.5, 210
3630, 1500, -37.5, 220
3631, 1500, -10, 210
3632, 1500, -10, 220
3633, 1500, 0, 210
3634, 1500, 0, 220
3635, 1500, 10, 210
3636, 1500, 10, 220
3637, 1500, 37.5, 200
3638, 1500, 37.5, 210
3639, 1500, 37.5, 220
3640, 1500, 65, 200
3641, 1500, 65, 210
3642, 1500, 65, 220
3643, 1500, 92.5, 200
3644, 1500, 92.5, 210
3645, 1500, 92.5, 220
3646, 1500, 120, 200
3647, 1500, 120, 210
3648, 1500, 120, 220
3649, 1520, -10, 91.2
3650, 1520, 0, 91.2
3651, 1520, -10, 112.96
3652, 1520, 0, 112.96
3653, 1520, -10, 134.72
3654, 1520, 0, 134.72
3655, 1520, -10, 156.48
3656, 1520, 0, 156.48
3657, 1520, -10, 178.24
3658, 1520, 0, 178.24
3659, 1520, -10, 200
3660, 1520, 0, 200
3661, 1520, 10, 91.2
3662, 1520, 10, 112.96
3663, 1520, 10, 134.72
3664, 1520, 10, 156.48
3665, 1520, 10, 178.24
3666, 1520, 10, 200
3667, 1520, -120, 200
3668, 1520, -92.5, 200
3669, 1520, -120, 210
3670, 1520, -92.5, 210
3671, 1520, -120, 220
3672, 1520, -92.5, 220
3673, 1520, -65, 200
3674, 1520, -65, 210
3675, 1520, -65, 220
3676, 1520, -37.5, 200
3677, 1520, -37.5, 210
3678, 1520, -37.5, 220
3679, 1520, -10, 210
3680, 1520, -10, 220
3681, 1520, 0, 210
3682, 1520, 0, 220
3683, 1520, 10, 210
3684, 1520, 10, 220
3685, 1520, 37.5, 200
3686, 1520, 37.5, 210
3687, 1520, 37.5, 220
3688, 1520, 65, 200
3689, 1520, 65, 210
3690, 1520, 65, 220
3691, 1520, 92.5, 200
3692, 1520, 92.5, 210
3693, 1520, 92.5, 220
3694, 1520, 120, 200
3695, 1520, 120, 210
3696, 1520, 120, 220
3697, 1540, -10, 92.4
3698, 1540, 0, 92.4
3699, 1540, -10, 113.92
3700, 1540, 0, 113.92
3701, 1540, -10, 135.44
3702, 1540, 0, 135.44
3703, 1540, -10, 156.96
3704, 1540, 0, 156.96
3705, 1540, -10, 178.48
3706, 1540, 0, 178.48
3707, 1540, -10, 200
3708, 1540, 0, 200
3709, 1540, 10, 92.4
3710, 1540, 10, 113.92
3711, 1540, 10, 135.44
3712, 1540, 10, 156.96
3713, 1540, 10, 178.48
3714, 1540, 10, 200
3715, 1540, -120, 200
3716, 1540, -92.5, 200
3717, 1540, -120, 210
3718, 1540, -92.5, 210
3719, 1540, -120, 220
3720, 1540, -92.5, 220
3721, 1540, -65, 200
3722, 1540, -65, 210
3723, 1540, -65, 220
3724, 1540, -37.5, 200
3725, 1540, -37.5, 210
3726, 1540, -37.5, 220
3727, 1540, -10, 210
3728, 1540, -10, 220
3729, 1540, 0, 210
3730, 1540, 0, 220
3731, 1540, 10, 210
3732, 1540, 10, 220
3733, 1540, 37.5, 200
3734, 1540, 37.5, 210
3735, 1540, 37.5, 220
3736, 1540, 65, 200
3737, 1540, 65, 210
3738, 1540, 65, 220
3739, 1540, 92.5, 200
3740, 1540, 92.5, 210
3741, 1540, 92.5, 220
3742, 1540, 120, 200
3743, 1540, 120, 210
3744, 1540, 120, 220
3745, 1560, -10, 93.6
3746, 1560, 0, 93.6
3747, 1560, -10, 114.88
3748, 1560, 0, 114.88
3749, 1560, -10, 136.16
3750, 1560, 0, 136.16
3751, 1560, -10, 157.44
3752, 1560, 0, 157.44
3753, 1560, -10, 178.72
3754, 1560, 0, 178.72
3755, 1560, -10, 200
3756, 1560, 0, 200
3757, 1560, 10, 93.6
3758, 1560, 10, 114.88
3759, 1560, 10, 136.16
3760, 1560, 10, 157.44
3761, 1560, 10, 178.72
3762, 1560, 10, 200
3763, 1560, -120, 200
3764, 1560, -92.5, 200
3765, 1560, -120, 210
3766, 1560, -92.5, 210
3767, 1560, -120, 220
3768, 1560, -92.5, 220
3769, 1560, -65, 200
3770, 1560, -65, 210
3771, 1560, -65, 220
3772, 1560, -37.5, 200
3773, 1560, -37.5, 210
3774, 1560, -37.5, 220
3775, 1560, -10, 210
3776, 1560, -10, 220
3777, 1560, 0, 210
3778, 1560, 0, 220
3779, 1560, 10, 210
3780, 1560, 10, 220
3781, 1560, 37.5, 200
3782, 1560, 37.5, 210
3783, 1560, 37.5, 220
3784, 1560, 65, 200
3785, 1560, 65, 210
3786, 1560, 65, 220
3787, 1560, 92.5, 200
3788, 1560, 92.5, 210
3789, 1560, 92.5, 220
3790, 1560, 120, 200
3791, 1560, 120, 210
3792, 1560, 120, 220
3793, 1580, -10, 94.8
3794, 1580, 0, 94.8
3795, 1580, -10, 115.84
3796, 1580, 0, 115.84
3797, 1580, -10, 136.88
3798, 1580, 0, 136.88
3799, 1580, -10, 157.92
3800, 1580, 0, 157.92
3801, 1580, -10, 178.96
3802, 1580, 0, 178.96
3803, 1580, -10, 200
3804, 1580, 0, 200
3805, 1580, 10, 94.8
3806, 1580, 10, 115.84
3807, 1580, 10, 136.88
3808, 1580, 10, 157.92
3809, 1580, 10, 178.96
3810, 1580, 10, 200
3811, 1580, -120, 200
3812, 1580, -92.5, 200
3813, 1580, -120, 210
3814, 1580, -92.5, 210
3815, 1580, -120, 220
3816, 1580, -92.5, 220
3817, 1580, -65, 200
3818, 1580, -65, 210
3819, 1580, -65, 220
3820, 1580, -37.5, 200
3821, 1580, -37.5, 210
3822, 1580, -37.5, 220
3823, 1580, -10, 210
3824, 1580, -10, 220
3825, 1580, 0, 210
3826, 1580, 0, 220
3827, 1580, 10, 210
3828, 1580, 10, 220
3829, 1580, 37.5, 200
3830, 1580, 37.5, 210
3831, 1580, 37.5, 220
3832, 1580, 65, 200
3833, 1580, 65, 210
3834, 1580, 65, 220
3835, 1580, 92.5, 200
3836, 1580, 92.5, 210
3837, 1580, 92.5, 220
3838, 1580, 120, 200
3839, 1580, 120, 210
3840, 1580, 120, 220
3841, 1600, -10, 96
3842, 1600, 0, 96
3843, 1600, -10, 116.8
3844, 1600, 0, 116.8
3845, 1600, -10, 137.6
3846, 1600, 0, 137.6
3847, 1600, -10, 158.4
3848, 1600, 0, 158.4
3849, 1600, -10, 179.2
3850, 1600, 0, 179.2
3851, 1600, -10, 200
3852, 1600, 0, 200
3853, 1600, 10, 96
3854, 1600, 10, 116.8
3855, 1600, 10, 137.6
3856, 1600, 10, 158.4
3857, 1600, 10, 179.2
3858, 1600, 10, 200
3859, 1600, -120, 200
3860, 1600, -92.5, 200
3861, 1600, -120, 210
3862, 1600, -92.5, 210
3863, 1600, -120, 220
3864, 1600, -92.5, 220
3865, 1600, -65, 200
3866, 1600, -65, 210
3867, 1600, -65, 220
3868, 1600, -37.5, 200
3869, 1600, -37.5, 210
3870, 1600, -37.5, 220
3871, 1600, -10, 210
3872, 1600, -10, 220
3873, 1600, 0, 210
3874, 1600, 0, 220
3875, 1600, 10, 210
3876, 1600, 10, 220
3877, 1600, 37.5, 200
3878, 1600, 37.5, 210
3879, 1600, 37.5, 220
3880, 1600, 65, 200
3881, 1600, 65, 210
3882, 1600, 65, 220
3883, 1600, 92.5, 200
3884, 1600, 92.5, 210
3885, 1600, 92.5, 220
3886, 1600, 120, 200
3887, 1600, 120, 210
3888, 1600, 120, 220
3889, 1620, -10, 97.2
3890, 1620, 0, 97.2
3891, 1620, -10, 117.76
3892, 1620, 0, 117.76
3893, 1620, -10, 138.32
3894, 1620, 0, 138.32
3895, 1620, -10, 158.88
3896, 1620, 0, 158.88
3897, 1620, -10, 179.44
3898, 1620, 0, 179.44
3899, 1620, -10, 200
3900, 1620, 0, 200
3901, 1620, 10, 97.2
3902, 1620, 10, 117.76
3903, 1620, 10, 138.32
3904, 1620, 10, 158.88
3905, 1620, 10, 179.44
3906, 1620, 10, 200
3907, 1620, -120, 200
3908, 1620, -92.5, 200
3909, 1620, -120, 210
3910, 1620, -92.5, 210
3911, 1620, -120, 220
3912, 1620, -92.5, 220
3913, 1620, -65, 200
3914, 1620, -65, 210
3915, 1620, -65, 220
3916, 1620, -37.5, 200
3917, 1620, -37.5, 210
3918, 1620, -37.5, 220
3919, 1620, -10, 210
3920, 1620, -10, 220
3921, 1620, 0, 210
3922, 1620, 0, 220
3923, 1620, 10, 210
3924, 1620, 10, 220
3925, 1620, 37.5, 200
3926, 1620, 37.5, 210
3927, 1620, 37.5, 220
3928, 1620, 65, 200
3929, 1620, 65, 210
3930, 1620, 65, 220
3931, 1620, 92.5, 200
3932, 1620, 92.5, 210
3933, 1620, 92.5, 220
3934, 1620, 120, 200
3935, 1620, 120, 210
3936, 1620, 120, 220
3937, 1640, -10, 98.4
3938, 1640, 0, 98.4
3939, 1640, -10, 118.72
3940, 1640, 0, 118.72
3941, 1640, -10, 139.04
3942, 1640, 0, 139.04
3943, 1640, -10, 159.36
3944, 1640, 0, 159.36
3945, 1640, -10, 179.68
3946, 1640, 0, 179.68
3947, 1640, -10, 200
3948, 1640, 0, 200
3949, 1640, 10, 98.4
3950, 1640, 10, 118.72
3951, 1640, 10, 139.04
3952, 1640, 10, 159.36
3953, 1640, 10, 179.68
3954, 1640, 10, 200
3955, 1640, -120, 200
3956, 1640, -92.5, 200
3957, 1640, -120, 210
3958, 1640, -92.5, 210
3959, 1640, -120, 220
3960, 1640, -92.5, 220
3961, 1640, -65, 200
3962, 1640, -65, 210
3963, 1640, -65, 220
3964, 1640, -37.5, 200
3965, 1640, -37.5, 210
3966, 1640, -37.5, 220
3967, 1640, -10, 210
3968, 1640, -10, 220
3969, 1640, 0, 210
3970, 1640, 0, 220
3971, 1640, 10, 210
3972, 1640, 10, 220
3973, 1640, 37.5, 200
3974, 1640, 37.5, 210
3975, 1640, 37.5, 220
3976, 1640, 65, 200
3977, 1640, 65, 210
3978, 1640, 65, 220
3979, 1640, 92.5, 200
3980, 1640, 92.5, 210
3981, 1640, 92.5, 220
3982, 1640, 120, 200
3983, 1640, 120, 210
3984, 1640, 120, 220
3985, 1660, -10, 99.6
3986, 1660, 0, 99.6
3987, 1660, -10, 119.68
3988, 1660, 0, 119.68
3989, 1660, -10, 139.76
3990, 1660, 0, 139.76
3991, 1660, -10, 159.84
3992, 1660, 0, 159.84
3993, 1660, -10, 179.92
3994, 1660, 0, 179.92
3995, 1660, -10, 200
3996, 1660, 0, 200
3997, 1660, 10, 99.6
3998, 1660, 10, 119.68
3999, 1660, 10, 139.76
4000, 1660, 10, 159.84
4001, 1660, 10, 179.92
4002, 1660, 10, 200
4003, 1660, -120, 200
4004, 1660, -92.5, 200
4005, 1660, -120, 210
4006, 1660, -92.5, 210
4007, 1660, -120, 220
4008, 1660, -92.5, 220
4009, 1660, -65, 200
4010, 1660, -65, 210
4011, 1660, -65, 220
4012, 1660, -37.5, 200
4013, 1660, -37.5, 210
4014, 1660, -37.5, 220
4015, 1660, -10, 210
4016, 1660, -10, 220
4017, 1660, 0, 210
4018, 1660, 0, 220
4019, 1660, 10, 210
4020, 1660, 10, 220
4021, 1660, 37.5, 200
4022, 1660, 37.5, 210
4023, 1660, 37.5, 220
4024, 1660, 65, 200
4025, 1660, 65, 210
4026, 1660, 65, 220
4027, 1660, 92.5, 200
4028, 1660, 92.5, 210
4029, 1660, 92.5, 220
4030, 1660, 120, 200
4031, 1660, 120, 210
4032, 1660, 120, 220
4033, 1680, -10, 100.8
4034, 1680, 0, 100.8
4035, 1680, -10, 120.64
4036, 1680, 0, 120.64
4037, 1680, -10, 140.48
4038, 1680, 0, 140.48
4039, 1680, -10, 160.32
4040, 1680, 0, 160.32
4041, 1680, -10, 180.16
4042, 1680, 0, 180.16
4043, 1680, -10, 200
4044, 1680, 0, 200
4045, 1680, 10, 100.8
4046, 1680, 10, 120.64
4047, 1680, 10, 140.48
4048, 1680, 10, 160.32
4049, 1680, 10, 180.16
4050, 1680, 10, 200
4051, 1680, -120, 200
4052, 1680, -92.5, 200
4053, 1680, -120, 210
4054, 1680, -92.5, 210
4055, 1680, -120, 220
4056, 1680, -92.5, 220
4057, 1680, -65, 200
4058, 1680, -65, 210
4059, 1680, -65, 220
4060, 1680, -37.5, 200
4061, 1680, -37.5, 210
4062, 1680, -37.5, 220
4063, 1680, -10, 210
4064, 1680, -10, 220
4065, 1680, 0, 210
4066, 1680, 0, 220
4067, 1680, 10, 210
4068, 1680, 10, 220
4069, 1680, 37.5, 200
4070, 1680, 37.5, 210
4071, 1680, 37.5, 220
4072, 1680, 65, 200
4073, 1680, 65, 210
4074, 1680, 65, 220
4075, 1680, 92.5, 200
4076, 1680, 92.5, 210
4077, 1680, 92.5, 220
4078, 1680, 120, 200
4079, 1680, 120, 210
4080, 1680, 120, 220
4081, 1700, -10, 102
4082, 1700, 0, 102
4083, 1700, -10, 121.6
4084, 1700, 0, 121.6
4085, 1700, -10, 141.2
4086, 1700, 0, 141.2
4087, 1700, -10, 160.8
4088, 1700, 0, 160.8
4089, 1700, -10, 180.4
4090, 1700, 0, 180.4
4091, 1700, -10, 200
4092, 1700, 0, 200
4093, 1700, 10, 102
4094, 1700, 10, 121.6
4095, 1700, 10, 141.2
4096, 1700, 10, 160.8
4097, 1700, 10, 180.4
4098, 1700, 10, 200
4099, 1700, -120, 200
4100, 1700, -92.5, 200
4101, 1700, -120, 210
4102, 1700, -92.5, 210
4103, 1700, -120, 220
4104, 1700, -92.5, 220
4105, 1700, -65, 200
4106, 1700, -65, 210
4107, 1700, -65, 220
4108, 1700, -37.5, 200
4109, 1700, -37.5, 210
4110, 1700, -37.5, 220
4111, 1700, -10, 210
4112, 1700, -10, 220
4113, 1700, 0, 210
4114, 1700, 0, 220
4115, 1700, 10, 210
4116, 1700, 10, 220
4117, 1700, 37.5, 200
4118, 1700, 37.5, 210
4119, 1700, 37.5, 220
4120, 1700, 65, 200
4121, 1700, 65, 210
4122, 1700, 65, 220
4123, 1700, 92.5, 200
4124, 1700, 92.5, 210
4125, 1700, 92.5, 220
4126, 1700, 120, 200
4127, 1700, 120, 210
4128, 1700, 120, 220
4129, 1720, -10, 103.2
4130, 1720, 0, 103.2
4131, 1720, -10, 122.56
4132, 1720, 0, 122.56
4133, 1720, -10, 141.92
4134, 1720, 0, 141.92
4135, 1720, -10, 161.28
4136, 1720, 0, 161.28
4137, 1720, -10, 180.64
4138, 1720, 0, 180.64
4139, 1720, -10, 200
4140, 1720, 0, 200
4141, 1720, 10, 103.2
4142, 1720, 10, 122.56
4143, 1720, 10, 141.92
4144, 1720, 10, 161.28
4145, 1720, 10, 180.64
4146, 1720, 10, 200
4147, 1720, -120, 200
4148, 1720, -92.5, 200
4149, 1720, -120, 210
4150, 1720, -92.5, 210
4151, 1720, -120, 220
4152, 1720, -92.5, 220
4153, 1720, -65, 200
4154, 1720, -65, 210
4155, 1720, -65, 220
4156, 1720, -37.5, 200
4157, 1720, -37.5, 210
4158, 1720, -37.5, 220
4159, 1720, -10, 210
4160, 1720, -10, 220
4161, 1720, 0, 210
4162, 1720, 0, 220
4163, 1720, 10, 210
4164, 1720, 10, 220
4165, 1720, 37.5, 200
4166, 1720, 37.5, 210
4167, 1720, 37.5, 220
4168, 1720, 65, 200
4169, 1720, 65, 210
4170, 1720, 65, 220
4171, 1720, 92.5, 200
4172, 1720, 92.5, 210
4173, 1720, 92.5, 220
4174, 1720, 120, 200
4175, 1720, 120, 210
4176, 1720, 120, 220
4177, 1740, -10, 104.4
4178, 1740, 0, 104.4
4179, 1740, -10, 123.52
4180, 1740, 0, 123.52
4181, 1740, -10, 142.64
4182, 1740, 0, 142.64
4183, 1740, -10, 161.76
4184, 1740, 0, 161.76
4185, 1740, -10, 180.88
4186, 1740, 0, 180.88
4187, 1740, -10, 200
4188, 1740, 0, 200
4189, 1740, 10, 104.4
4190, 1740, 10, 123.52
4191, 1740, 10, 142.64
4192, 1740, 10, 161.76
4193, 1740, 10, 180.88
4194, 1740, 10, 200
4195, 1740, -120, 200
4196, 1740, -92.5, 200
4197, 1740, -120, 210
4198, 1740, -92.5, 210
4199, 1740, -120, 220
4200, 1740, -92.5, 220
4201, 1740, -65, 200
4202, 1740, -65, 210
4203, 1740, -65, 220
4204, 1740, -37.5, 200
4205, 1740, -37.5, 210
4206, 1740, -37.5, 220
4207, 1740, -10, 210
4208, 1740, -10, 220
4209, 1740, 0, 210
4210, 1740, 0, 220
4211, 1740, 10, 210
4212, 1740, 10, 220
4213, 1740, 37.5, 200
4214, 1740, 37.5, 210
4215, 1740, 37.5, 220
4216, 1740, 65, 200
4217, 1740, 65, 210
4218, 1740, 65, 220
4219, 1740, 92.5, 200
4220, 1740, 92.5, 210
4221, 1740, 92.5, 220
4222, 1740, 120, 200
4223, 1740, 120, 210
4224, 1740, 120, 220
4225, 1760, -10, 105.6
4226, 1760, 0, 105.6
4227, 1760, -10, 124.48
4228, 1760, 0, 124.48
4229, 1760, -10, 143.36
4230, 1760, 0, 143.36
4231, 1760, -10, 162.24
4232, 1760, 0, 162.24
4233, 1760, -10, 181.12
4234, 1760, 0, 181.12
4235, 1760, -10, 200
4236, 1760, 0, 200
4237, 1760, 10, 105.6
4238, 1760, 10, 124.48
4239, 1760, 10, 143.36
4240, 1760, 10, 162.24
4241, 1760, 10, 181.12
4242, 1760, 10, 200
4243, 1760, -120, 200
4244, 1760, -92.5, 200
4245, 1760, -120, 210
4246, 1760, -92.5, 210
4247, 1760, -120, 220
4248, 1760, -92.5, 220
4249, 1760, -65, 200
4250, 1760, -65, 210
4251, 1760, -65, 220
4252, 1760, -37.5, 200
4253, 1760, -37.5, 210
4254, 1760, -37.5, 220
4255, 1760, -10, 210
4256, 1760, -10, 220
4257, 1760, 0, 210
4258, 1760, 0, 220
4259, 1760, 10, 210
4260, 1760, 10, 220
4261, 1760, 37.5, 200
4262, 1760, 37.5, 210
4263, 1760, 37.5, 220
4264, 1760, 65, 200
4265, 1760, 65, 210
4266, 1760, 65, 220
4267, 1760, 92.5, 200
4268, 1760, 92.5, 210
4269, 1760, 92.5, 220
4270, 1760, 120, 200
4271, 1760, 120, 210
4272, 1760, 120, 220
4273, 1780, -10, 106.8
4274, 1780, 0, 106.8
4275, 1780, -10, 125.44
4276, 1780, 0, 125.44
4277, 1780, -10, 144.08
4278, 1780, 0, 144.08
4279, 1780, -10, 162.72
4280, 1780, 0, 162.72
4281, 1780, -10, 181.36
4282, 1780, 0, 181.36
4283, 1780, -10, 200
4284, 1780, 0, 200
4285, 1780, 10, 106.8
4286, 1780, 10, 125.44
4287, 1780, 10, 144.08
4288, 1780, 10, 162.72
4289, 1780, 10, 181.36
4290, 1780, 10, 200
4291, 1780, -120, 200
4292, 1780, -92.5, 200
4293, 1780, -120, 210
4294, 1780, -92.5, 210
4295, 1780, -120, 220
4296, 1780, -92.5, 220
4297, 1780, -65, 200
4298, 1780, -65, 210
4299, 1780, -65, 220
4300, 1780, -37.5, 200
4301, 1780, -37.5, 210
4302, 1780, -37.5, 220
4303, 1780, -10, 210
4304, 1780, -10, 220
4305, 1780, 0, 210
4306, 1780, 0, 220
4307, 1780, 10, 210
4308, 1780, 10, 220
4309, 1780, 37.5, 200
4310, 1780, 37.5, 210
4311, 1780, 37.5, 220
4312, 1780, 65, 200
4313, 1780, 65, 210
4314, 1780, 65, 220
4315, 1780, 92.5, 200
4316, 1780, 92.5, 210
4317, 1780, 92.5, 220
4318, 1780, 120, 200
4319, 1780, 120, 210
4320, 1780, 120, 220
4321, 1800, -10, 108
4322, 1800, 0, 108
4323, 1800, -10, 126.4
4324, 1800, 0, 126.4
4325, 1800, -10, 144.8
4326, 1800, 0, 144.8
4327, 1800, -10, 163.2
4328, 1800, 0, 163.2
4329, 1800, -10, 181.6
4330, 1800, 0, 181.6
4331, 1800, -10, 200
4332, 1800, 0, 200
4333, 1800, 10, 108
4334, 1800, 10, 126.4
4335, 1800, 10, 144.8
4336, 1800, 10, 163.2
4337, 1800, 10, 181.6
4338, 1800, 10, 200
4339, 1800, -120, 200
4340, 1800, -92.5, 200
4341, 1800, -120, 210
4342, 1800, -92.5, 210
4343, 1800, -120, 220
4344, 1800, -92.5, 220
4345, 1800, -65, 200
4346, 1800, -65, 210
4347, 1800, -65, 220
4348, 1800, -37.5, 200
4349, 1800, -37.5, 210
4350, 1800, -37.5, 220
4351, 1800, -10, 210
4352, 1800, -10, 220
4353, 1800, 0, 210
4354, 1800, 0, 220
4355, 1800, 10, 210
4356, 1800, 10, 220
4357, 1800, 37.5, 200
4358, 1800, 37.5, 210
4359, 1800, 37.5, 220
4360, 1800, 65, 200
4361, 1800, 65, 210
4362, 1800, 65, 220
4363, 1800, 92.5, 200
4364, 1800, 92.5, 210
4365, 1800, 92.5, 220
4366, 1800, 120, 200
4367, 1800, 120, 210
4368, 1800, 120, 220
4369, 1820, -10, 109.2
4370, 1820, 0, 109.2
4371, 1820, -10, 127.36
4372, 1820, 0, 127.36
4373, 1820, -10, 145.52
4374, 1820, 0, 145.52
4375, 1820, -10, 163.68
4376, 1820, 0, 163.68
4377, 1820, -10, 181.84
4378, 1820, 0, 181.84
4379, 1820, -10, 200
4380, 1820, 0, 200
4381, 1820, 10, 109.2
4382, 1820, 10, 127.36
4383, 1820, 10, 145.52
4384, 1820, 10, 163.68
4385, 1820, 10, 181.84
4386, 1820, 10, 200
4387, 1820, -120, 200
4388, 1820, -92.5, 200
4389, 1820, -120, 210
4390, 1820, -92.5, 210
4391, 1820, -120, 220
4392, 1820, -92.5, 220
4393, 1820, -65, 200
4394, 1820, -65, 210
4395, 1820, -65, 220
4396, 1820, -37.5, 200
4397, 1820, -37.5, 210
4398, 1820, -37.5, 220
4399, 1820, -10, 210
4400, 1820, -10, 220
4401, 1820, 0, 210
4402, 1820, 0, 220
4403, 1820, 10, 210
4404, 1820, 10, 220
4405, 1820, 37.5, 200
4406, 1820, 37.5, 210
4407, 1820, 37.5, 220
4408, 1820, 65, 200
4409, 1820, 65, 210
4410, 1820, 65, 220
4411, 1820, 92.5, 200
4412, 1820, 92.5, 210
4413, 1820, 92.5, 220
4414, 1820, 120, 200
4415, 1820, 120, 210
4416, 1820, 120, 220
4417, 1840, -10, 110.4
4418, 1840, 0, 110.4
4419, 1840, -10, 128.32
4420, 1840, 0, 128.32
4421, 1840, -10, 146.24
4422, 1840, 0, 146.24
4423, 1840, -10, 164.16
4424, 1840, 0, 164.16
4425, 1840, -10, 182.08
4426, 1840, 0, 182.08
4427, 1840, -10, 200
4428, 1840, 0, 200
4429, 1840, 10, 110.4
4430, 1840, 10, 128.32
4431, 1840, 10, 146.24
4432, 1840, 10, 164.16
4433, 1840, 10, 182.08
4434, 1840, 10, 200
4435, 1840, -120, 200
4436, 1840, -92.5, 200
4437, 1840, -120, 210
4438, 1840, -92.5, 210
4439, 1840, -120, 220
4440, 1840, -92.5, 220
4441, 1840, -65, 200
4442, 1840, -65, 210
4443, 1840, -65, 220
4444, 1840, -37.5, 200
4445, 1840, -37.5, 210
4446, 1840, -37.5, 220
4447, 1840, -10, 210
4448, 1840, -10, 220
4449, 1840, 0, 210
4450, 1840, 0, 220
4451, 1840, 10, 210
4452, 1840, 10, 220
4453, 1840, 37.5, 200
4454, 1840, 37.5, 210
4455, 1840, 37.5, 220
4456, 1840, 65, 200
4457, 1840, 65, 210
4458, 1840, 65, 220
4459, 1840, 92.5, 200
4460, 1840, 92.5, 210
4461, 1840, 92.5, 220
4462, 1840, 120, 200
4463, 1840, 120, 210
4464, 1840, 120, 220
4465, 1860, -10, 111.6
4466, 1860, 0, 111.6
4467, 1860, -10, 129.28
4468, 1860, 0, 129.28
4469, 1860, -10, 146.96
4470, 1860, 0, 146.96
4471, 1860, -10, 164.64
4472, 1860, 0, 164.64
4473, 1860, -10, 182.32
4474, 1860, 0, 182.32
4475, 1860, -10, 200
4476, 1860, 0, 200
4477, 1860, 10, 111.6
4478, 1860, 10, 129.28
4479, 1860, 10, 146.96
4480, 1860, 10, 164.64
4481, 1860, 10, 182.32
4482, 1860, 10, 200
4483, 1860, -120, 200
4484, 1860, -92.5, 200
4485, 1860, -120, 210
4486, 1860, -92.5, 210
4487, 1860, -120, 220
4488, 1860, -92.5, 220
4489, 1860, -65, 200
4490, 1860, -65, 210
4491, 1860, -65, 220
4492, 1860, -37.5, 200
4493, 1860, -37.5, 210
4494, 1860, -37.5, 220
4495, 1860, -10, 210
4496, 1860, -10, 220
4497, 1860, 0, 210
4498, 1860, 0, 220
4499, 1860, 10, 210
4500, 1860, 10, 220
4501, 1860, 37.5, 200
4502, 1860, 37.5, 210
4503, 1860, 37.5, 220
4504, 1860, 65, 200
4505, 1860, 65, 210
4506, 1860, 65, 220
4507, 1860, 92.5, 200
4508, 1860, 92.5, 210
4509, 1860, 92.5, 220
4510, 1860, 120, 200
4511, 1860, 120, 210
4512, 1860, 120, 220
4513, 1880, -10, 112.8
4514, 1880, 0, 112.8
4515, 1880, -10, 130.24
4516, 1880, 0, 130.24
4517, 1880, -10, 147.68
4518, 1880, 0, 147.68
4519, 1880, -10, 165.12
4520, 1880, 0, 165.12
4521, 1880, -10, 182.56
4522, 1880, 0, 182.56
4523, 1880, -10, 200
4524, 1880, 0, 200
4525, 1880, 10, 112.8
4526, 1880, 10, 130.24
4527, 1880, 10, 147.68
4528, 1880, 10, 165.12
4529, 1880, 10, 182.56
4530, 1880, 10, 200
4531, 1880, -120, 200
4532, 1880, -92.5, 200
4533, 1880, -120, 210
4534, 1880, -92.5, 210
4535, 1880, -120, 220
4536, 1880, -92.5, 220
4537, 1880, -65, 200
4538, 1880, -65, 210
4539, 1880, -65, 220
4540, 1880, -37.5, 200
4541, 1880, -37.5, 210
4542, 1880, -37.5, 220
4543, 1880, -10, 210
4544, 1880, -10, 220
4545, 1880, 0, 210
4546, 1880, 0, 220
4547, 1880, 10, 210
4548, 1880, 10, 220
4549, 1880, 37.5, 200
4550, 1880, 37.5, 210
4551, 1880, 37.5, 220
4552, 1880, 65, 200
4553, 1880, 65, 210
4554, 1880, 65, 220
4555, 1880, 92.5, 200
4556, 1880, 92.5, 210
4557, 1880, 92.5, 220
4558, 1880, 120, 200
4559, 1880, 120, 210
4560, 1880, 120, 220
4561, 1900, -10, 114
4562, 1900, 0, 114
4563, 1900, -10, 131.2
4564, 1900, 0, 131.2
4565, 1900, -10, 148.4
4566, 1900, 0, 148.4
4567, 1900, -10, 165.6
4568, 1900, 0, 165.6
4569, 1900, -10, 182.8
4570, 1900, 0, 182.8
4571, 1900, -10, 200
4572, 1900, 0, 200
4573, 1900, 10, 114
4574, 1900, 10, 131.2
4575, 1900, 10, 148.4
4576, 1900, 10, 165.6
4577, 1900, 10, 182.8
4578, 1900, 10, 200
4579, 1900, -120, 200
4580, 1900, -92.5, 200
4581, 1900, -120, 210
4582, 1900, -92.5, 210
4583, 1900, -120, 220
4584, 1900, -92.5, 220
4585, 1900, -65, 200
4586, 1900, -65, 210
4587, 1900, -65, 220
4588, 1900, -37.5, 200
4589, 1900, -37.5, 210
4590, 1900, -37.5, 220
4591, 1900, -10, 210
4592, 1900, -10, 220
4593, 1900, 0, 210
4594, 1900, 0, 220
4595, 1900, 10, 210
4596, 1900, 10, 220
4597, 1900, 37.5, 200
4598, 1900, 37.5, 210
4599, 1900, 37.5, 220
4600, 1900, 65, 200
4601, 1900, 65, 210
4602, 1900, 65, 220
4603, 1900, 92.5, 200
4604, 1900, 92.5, 210
4605, 1900, 92.5, 220
4606, 1900, 120, 200
4607, 1900, 120, 210
4608, 1900, 120, 220
4609, 1920, -10, 115.2
4610, 1920, 0, 115.2
4611, 1920, -10, 132.16
4612, 1920, 0, 132.16
4613, 1920, -10, 149.12
4614, 1920, 0, 149.12
4615, 1920, -10, 166.08
4616, 1920, 0, 166.08
4617, 1920, -10, 183.04
4618, 1920, 0, 183.04
4619, 1920, -10, 200
4620, 1920, 0, 200
4621, 1920, 10, 115.2
4622, 1920, 10, 132.16
4623, 1920, 10, 149.12
4624, 1920, 10, 166.08
4625, 1920, 10, 183.04
4626, 1920, 10, 200
4627, 1920, -120, 200
4628, 1920, -92.5, 200
4629, 1920, -120, 210
4630, 1920, -92.5, 210
4631, 1920, -120, 220
4632, 1920, -92.5, 220
4633, 1920, -65, 200
4634, 1920, -65, 210
4635, 1920, -65, 220
4636, 1920, -37.5, 200
4637, 1920, -37.5, 210
4638, 1920, -37.5, 220
4639, 1920, -10, 210
4640, 1920, -10, 220
4641, 1920, 0, 210
4642, 1920, 0, 220
4643, 1920, 10, 210
4644, 1920, 10, 220
4645, 1920, 37.5, 200
4646, 1920, 37.5, 210
4647, 1920, 37.5, 220
4648, 1920, 65, 200
4649, 1920, 65, 210
4650, 1920, 65, 220
4651, 1920, 92.5, 200
4652, 1920, 92.5, 210
4653, 1920, 92.5, 220
4654, 1920, 120, 200
4655, 1920, 120, 210
4656, 1920, 120, 220
4657, 1940, -10, 116.4
4658, 1940, 0, 116.4
4659, 1940, -10, 133.12
4660, 1940, 0, 133.12
4661, 1940, -10, 149.84
4662, 1940, 0, 149.84
4663, 1940, -10, 166.56
4664, 1940, 0, 166.56
4665, 1940, -10, 183.28
4666, 1940, 0, 183.28
4667, 1940, -10, 200
4668, 1940, 0, 200
4669, 1940, 10, 116.4
4670, 1940, 10, 133.12
4671, 1940, 10, 149.84
4672, 1940, 10, 166.56
4673, 1940, 10, 183.28
4674, 1940, 10, 200
4675, 1940, -120, 200
4676, 1940, -92.5, 200
4677, 1940, -120, 210
4678, 1940, -92.5, 210
4679, 1940, -120, 220
4680, 1940, -92.5, 220
4681, 1940, -65, 200
4682, 1940, -65, 210
4683, 1940, -65, 220
4684, 1940, -37.5, 200
4685, 1940, -37.5, 210
4686, 1940, -37.5, 220
4687, 1940, -10, 210
4688, 1940, -10, 220
4689, 1940, 0, 210
4690, 1940, 0, 220
4691, 1940, 10, 210
4692, 1940, 10, 220
4693, 1940, 37.5, 200
4694, 1940, 37.5, 210
4695, 1940, 37.5, 220
4696, 1940, 65, 200
4697, 1940, 65, 210
4698, 1940, 65, 220
4699, 1940, 92.5, 200
4700, 1940, 92.5, 210
4701, 1940, 92.5, 220
4702, 1940, 120, 200
4703, 1940, 120, 210
4704, 1940, 120, 220
4705, 1960, -10, 117.6
4706, 1960, 0, 117.6
4707, 1960, -10, 134.08
4708, 1960, 0, 134.08
4709, 1960, -10, 150.56
4710, 1960, 0, 150.56
4711, 1960, -10, 167.04
4712, 1960, 0, 167.04
4713, 1960, -10, 183.52
4714, 1960, 0, 183.52
4715, 1960, -10, 200
4716, 1960, 0, 200
4717, 1960, 10, 117.6
4718, 1960, 10, 134.08
4719, 1960, 10, 150.56
4720, 1960, 10, 167.04
4721, 1960, 10, 183.52
4722, 1960, 10, 200
4723, 1960, -120, 200
4724, 1960, -92.5, 200
4725, 1960, -120, 210
4726, 1960, -92.5, 210
4727, 1960, -120, 220
4728, 1960, -92.5, 220
4729, 1960, -65, 200
4730, 1960, -65, 210
4731, 1960, -65, 220
4732, 1960, -37.5, 200
4733, 1960, -37.5, 210
4734, 1960, -37.5, 220
4735, 1960, -10, 210
4736, 1960, -10, 220
4737, 1960, 0, 210
4738, 1960, 0, 220
4739, 1960, 10, 210
4740, 1960, 10, 220
4741, 1960, 37.5, 200
4742, 1960, 37.5, 210
4743, 1960, 37.5, 220
4744, 1960, 65, 200
4745, 1960, 65, 210
4746, 1960, 65, 220
4747, 1960, 92.5, 200
4748, 1960, 92.5, 210
4749, 1960, 92.5, 220
4750, 1960, 120, 200
4751, 1960, 120, 210
4752, 1960, 120, 220
4753, 1980, -10, 118.8
4754, 1980, 0, 118.8
4755, 1980, -10, 135.04
4756, 1980, 0, 135.04
4757, 1980, -10, 151.28
4758, 1980, 0, 151.28
4759, 1980, -10, 167.52
4760, 1980, 0, 167.52
4761, 1980, -10, 183.76
4762, 1980, 0, 183.76
4763, 1980, -10, 200
4764, 1980, 0, 200
4765, 1980, 10, 118.8
4766, 1980, 10, 135.04
4767, 1980, 10, 151.28
4768, 1980, 10, 167.52
4769, 1980, 10, 183.76
4770, 1980, 10, 200
4771, 1980, -120, 200
4772, 1980, -92.5, 200
4773, 1980, -120, 210
4774, 1980, -92.5, 210
4775, 1980, -120, 220
4776, 1980, -92.5, 220
4777, 1980, -65, 200
4778, 1980, -65, 210
4779, 1980, -65, 220
4780, 1980, -37.5, 200
4781, 1980, -37.5, 210
4782, 1980, -37.5, 220
4783, 1980, -10, 210
4784, 1980, -10, 220
4785, 1980, 0, 210
4786, 1980, 0, 220
4787, 1980, 10, 210
4788, 1980, 10, 220
4789, 1980, 37.5, 200
4790, 1980, 37.5, 210
4791, 1980, 37.5, 220
4792, 1980, 65, 200
4793, 1980, 65, 210
4794, 1980, 65, 220
4795, 1980, 92.5, 200
4796, 1980, 92.5, 210
4797, 1980, 92.5, 220
4798, 1980, 120, 200
4799, 1980, 120, 210
4800, 1980, 120, 220
4801, 2000, -10, 120
4802, 2000, 0, 120
4803, 2000, -10, 136
4804, 2000, 0, 136
4805, 2000, -10, 152
4806, 2000, 0, 152
4807, 2000, -10, 168
4808, 2000, 0, 168
4809, 2000, -10, 184
4810, 2000, 0, 184
4811, 2000, -10, 200
4812, 2000, 0, 200
4813, 2000, 10, 120
4814, 2000, 10, 136
4815, 2000, 10, 152
4816, 2000, 10, 168
4817, 2000, 10, 184
4818, 2000, 10, 200
4819, 2000, -120, 200
4820, 2000, -92.5, 200
4821, 2000, -120, 210
4822, 2000, -92.5, 210
4823, 2000, -120, 220
4824, 2000, -92.5, 220
4825, 2000, -65, 200
4826, 2000, -65, 210
4827, 2000, -65, 220
4828, 2000, -37.5, 200
4829, 2000, -37.5, 210
4830, 2000, -37.5, 220
4831, 2000, -10, 210
4832, 2000, -10, 220
4833, 2000, 0, 210
4834, 2000, 0, 220
4835, 2000, 10, 210
4836, 2000, 10, 220
4837, 2000, 37.5, 200
4838, 2000, 37.5, 210
4839, 2000, 37.5, 220
4840, 2000, 65, 200
4841, 2000, 65, 210
4842, 2000, 65, 220
4843, 2000, 92.5, 200
4844, 2000, 92.5, 210
4845, 2000, 92.5, 220
4846, 2000, 120, 200
4847, 2000, 120, 210
4848, 2000, 120, 220
*ELEMENT, TYPE=C3D8, ELSET=EALL
1, 1, 2, 3, 4, 5, 6, 7, 8
2, 5, 6, 7, 8, 9, 10, 11, 12
3, 9, 10, 11, 12, 13, 14, 15, 16
4, 13, 14, 15, 16, 17, 18, 19, 20
5, 17, 18, 19, 20, 21, 22, 23, 24
6, 4, 3, 25, 26, 8, 7, 27, 28
7, 8, 7, 27, 28, 12, 11, 29, 30
8, 12, 11, 29, 30, 16, 15, 31, 32
9, 16, 15, 31, 32, 20, 19, 33, 34
10, 20, 19, 33, 34, 24, 23, 35, 36
11, 37, 38, 39, 40, 41, 42, 43, 44
12, 41, 42, 43, 44, 45, 46, 47, 48
13, 40, 39, 49, 50, 44, 43, 51, 52
14, 44, 43, 51, 52, 48, 47, 53, 54
15, 50, 49, 55, 56, 52, 51, 57, 58
16, 52, 51, 57, 58, 54, 53, 59, 60
17, 56, 55, 22, 21, 58, 57, 61, 62
18, 58, 57, 61, 62, 60, 59, 63, 64
19, 21, 22, 23, 24, 62, 61, 65, 66
20, 62, 61, 65, 66, 64, 63, 67, 68
21, 24, 23, 35, 36, 66, 65, 69, 70
22, 66, 65, 69, 70, 68, 67, 71, 72
23, 36, 35, 73, 74, 70, 69, 75, 76
24, 70, 69, 75, 76, 72, 71, 77, 78
25, 74, 73, 79, 80, 76, 75, 81, 82
26, 76, 75, 81, 82, 78, 77, 83, 84
27, 80, 79, 85, 86, 82, 81, 87, 88
28, 82, 81, 87, 88, 84, 83, 89, 90
29, 86, 85, 91, 92, 88, 87, 93, 94
30, 88, 87, 93, 94, 90, 89, 95, 96
31, 2, 97, 98, 3, 6, 99, 100, 7
32, 6, 99, 100, 7, 10, 101, 102, 11
33, 10, 101, 102, 11, 14, 103, 104, 15
34, 14, 103, 104, 15, 18, 105, 106, 19
35, 18, 105, 106, 19, 22, 107, 108, 23
36, 3, 98, 109, 25, 7, 100, 110, 27
37, 7, 100, 110, 27, 11, 102, 111, 29
38, 11, 102, 111, 29, 15, 104, 112, 31
39, 15, 104, 112, 31, 19, 106, 113, 33
40, 19, 106, 113, 33, 23, 108, 114, 35
41, 38, 115, 116, 39, 42, 117, 118, 43
42, 42, 117, 118, 43, 46, 119, 120, 47
43, 39, 116, 121, 49, 43, 118, 122, 51
44, 43, 118, 122, 51, 47, 120, 123, 53
45, 49, 121, 124, 55, 51, 122, 125, 57
46, 51, 122, 125, 57, 53, 123, 126, 59
47, 55, 124, 107, 22, 57, 125, 127, 61
48, 57, 125, 127, 61, 59, 126, 128, 63
49, 22, 107, 108, 23, 61, 127, 129, 65
50, 61, 127, 129, 65, 63, 128, 130, 67
51, 23, 108, 114, 35, 65, 129, 131, 69
52, 65, 129, 131, 69, 67, 130, 132, 71
53, 35, 114, 133, 73, 69, 131, 134, 75
54, 69, 131, 134, 75, 71, 132, 135, 77
55, 73, 133, 136, 79, 75, 134, 137, 81
56, 75, 134, 137, 81, 77, 135, 138, 83
57, 79, 136, 139, 85, 81, 137, 140, 87
58, 81, 137, 140, 87, 83, 138, 141, 89
59, 85, 139, 142, 91, 87, 140, 143, 93
60, 87, 140, 143, 93, 89, 141, 144, 95
61, 97, 145, 146, 98, 99, 147, 148, 100
62, 99, 147, 148, 100, 101, 149, 150, 102
63, 101, 149, 150, 102, 103, 151, 152, 104
64, 103, 151, 152, 104, 105, 153, 154, 106
65, 105, 153, 154, 106, 107, 155, 156, 108
66, 98, 146, 157, 109, 100, 148, 158, 110
67, 100, 148, 158, 110, 102, 150, 159, 111
68, 102, 150, 159, 111, 104, 152, 160, 112
69, 104, 152, 160, 112, 106, 154, 161, 113
70, 106, 154, 161, 113, 108, 156, 162, 114
71, 115, 163, 164, 116, 117, 165, 166, 118
72, 117, 165, 166, 118, 119, 167, 168, 120
73, 116, 164, 169, 121, 118, 166, 170, 122
74, 118, 166, 170, 122, 120, 168, 171, 123
75, 121, 169, 172, 124, 122, 170, 173, 125
76, 122, 170, 173, 125, 123, 171, 174, 126
77, 124, 172, 155, 107, 125, 173, 175, 127
78, 125, 173, 175, 127, 126, 174, 176, 128
79, 107, 155, 156, 108, 127, 175, 177, 129
80, 127, 175, 177, 129, 128, 176, 178, 130
81, 108, 156, 162, 114, 129, 177, 179, 131
82, 129, 177, 179, 131, 130, 178, 180, 132
83, 114, 162, 181, 133, 131, 179, 182, 134
84, 131, 179, 182, 134, 132, 180, 183, 135
85, 133, 181, 184, 136, 134, 182, 185, 137
86, 134, 182, 185, 137, 135, 183, 186, 138
87, 136, 184, 187, 139, 137, 185, 188, 140
88, 137, 185, 188, 140, 138, 186, 189, 141
89, 139, 187, 190, 142, 140, 188, 191, 143
90, 140, 188, 191, 143, 141, 189, 192, 144
91, 145, 193, 194, 146, 147, 195, 196, 148
92, 147, 195, 196, 148, 149, 197, 198, 150
93, 149, 197, 198, 150, 151, 199, 200, 152
94, 151, 199, 200, 152, 153, 201, 202, 154
95, 153, 201, 202, 154, 155, 203, 204, 156
96, 146, 194, 205, 157, 148, 196, 206, 158
97, 148, 196, 206, 158, 150, 198, 207, 159
98, 150, 198, 207, 159, 152, 200, 208, 160
99, 152, 200, 208, 160, 154, 202, 209, 161
100, 154, 202, 209, 161, 156, 204, 210, 162
101, 163, 211, 212, 164, 165, 213, 214, 166
102, 165, 213, 214, 166, 167, 215, 216, 168
103, 164, 212, 217, 169, 166, 214, 218, 170
104, 166, 214, 218, 170, 168, 216, 219, 171
105, 169, 217, 220, 172, 170, 218, 221, 173
106, 170, 218, 221, 173, 171, 219, 222, 174
107, 172, 220, 203, 155, 173, 221, 223, 175
108, 173, 221, 223, 175, 174, 222, 224, 176
109, 155, 203, 204, 156, 175, 223, 225, 177
110, 175, 223, 225, 177, 176, 224, 226, 178
111, 156, 204, 210, 162, 177, 225, 227, 179
112, 177, 225, 227, 179, 178, 226, 228, 180
113, 162, 210, 229, 181, 179, 227, 230, 182
114, 179, 227, 230, 182, 180, 228, 231, 183
115, 181, 229, 232, 184, 182, 230, 233, 185
116, 182, 230, 233, 185, 183, 231, 234, 186
117, 184, 232, 235, 187, 185, 233, 236, 188
118, 185, 233, 236, 188, 186, 234, 237, 189
119, 187, 235, 238, 190, 188, 236, 239, 191
120, 188, 236, 239, 191, 189, 237, 240, 192
121, 193, 241, 242, 194, 195, 243, 244, 196
122, 195, 243, 244, 196, 197, 245, 246, 198
123, 197, 245, 246, 198, 199, 247, 248, 200
124, 199, 247, 248, 200, 201, 249, 250, 202
125, 201, 249, 250, 202, 203, 251, 252, 204
126, 194, 242, 253, 205, 196, 244, 254, 206
127, 196, 244, 254, 206, 198, 246, 255, 207
128, 198, 246, 255, 207, 200, 248, 256, 208
129, 200, 248, 256, 208, 202, 250, 257, 209
130, 202, 250, 257, 209, 204, 252, 258, 210
131, 211, 259, 260, 212, 213, 261, 262, 214
132, 213, 261, 262, 214, 215, 263, 264, 216
133, 212, 260, 265, 217, 214, 262, 266, 218
134, 214, 262, 266, 218, 216, 264, 267, 219
135, 217, 265, 268, 220, 218, 266, 269, 221
136, 218, 266, 269, 221, 219, 267, 270, 222
137, 220, 268, 251, 203, 221, 269, 271, 223
138, 221, 269, 271, 223, 222, 270, 272, 224
139, 203, 251, 252, 204, 223, 271, 273, 225
140, 223, 271, 273, 225, 224, 272, 274, 226
141, 204, 252, 258, 210, 225, 273, 275, 227
142, 225, 273, 275, 227, 226, 274, 276, 228
143, 210, 258, 277, 229, 227, 275, 278, 230
144, 227, 275, 278, 230, 228, 276, 279, 231
145, 229, 277, 280, 232, 230, 278, 281, 233
146, 230, 278, 281, 233, 231, 279, 282, 234
147, 232, 280, 283, 235, 233, 281, 284, 236
148, 233, 281, 284, 236, 234, 282, 285, 237
149, 235, 283, 286, 238, 236, 284, 287, 239
150, 236, 284, 287, 239, 237, 285, 288, 240
151, 241, 289, 290, 242, 243, 291, 292, 244
152, 243, 291, 292, 244, 245, 293, 294, 246
153, 245, 293, 294, 246, 247, 295, 296, 248
154, 247, 295, 296, 248, 249, 297, 298, 250
155, 249, 297, 298, 250, 251, 299, 300, 252
156, 242, 290, 301, 253, 244, 292, 302, 254
157, 244, 292, 302, 254, 246, 294, 303, 255
158, 246, 294, 303, 255, 248, 296, 304, 256
159, 248, 296, 304, 256, 250, 298, 305, 257
160, 250, 298, 305, 257, 252, 300, 306, 258
161, 259, 307, 308, 260, 261, 309, 310, 262
162, 261, 309, 310, 262, 263, 311, 312, 264
163, 260, 308, 313, 265, 262, 310, 314, 266
164, 262, 310, 314, 266, 264, 312, 315, 267
165, 265, 313, 316, 268, 266, 314, 317, 269
166, 266, 314, 317, 269, 267, 315, 318, 270
167, 268, 316, 299, 251, 269, 317, 319, 271
168, 269, 317, 319, 271, 270, 318, 320, 272
169, 251, 299, 300, 252, 271, 319, 321, 273
170, 271, 319, 321, 273, 272, 320, 322, 274
171, 252, 300, 306, 258, 273, 321, 323, 275
172, 273, 321, 323, 275, 274, 322, 324, 276
173, 258, 306, 325, 277, 275, 323, 326, 278
174, 275, 323, 326, 278, 276, 324, 327, 279
175, 277, 325, 328, 280, 278, 326, 329, 281
176, 278, 326, 329, 281, 279, 327, 330, 282
177, 280, 328, 331, 283, 281, 329, 332, 284
178, 281, 329, 332, 284, 282, 330, 333, 285
179, 283, 331, 334, 286, 284, 332, 335, 287
180, 284, 332, 335, 287, 285, 333, 336, 288
181, 289, 337, 338, 290, 291, 339, 340, 292
182, 291, 339, 340, 292, 293, 341, 342, 294
183, 293, 341, 342, 294, 295, 343, 344, 296
184, 295, 343, 344, 296, 297, 345, 346, 298
185, 297, 345, 346, 298, 299, 347, 348, 300
186, 290, 338, 349, 301, 292, 340, 350, 302
187, 292, 340, 350, 302, 294, 342, 351, 303
188, 294, 342, 351, 303, 296, 344, 352, 304
189, 296, 344, 352, 304, 298, 346, 353, 305
190, 298, 346, 353, 305, 300, 348, 354, 306
191, 307, 355, 356, 308, 309, 357, 358, 310
192, 309, 357, 358, 310, 311, 359, 360, 312
193, 308, 356, 361, 313, 310, 358, 362, 314
194, 310, 358, 362, 314, 312, 360, 363, 315
195, 313, 361, 364, 316, 314, 362, 365, 317
196, 314, 362, 365, 317, 315, 363, 366, 318
197, 316, 364, 347, 299, 317, 365, 367, 319
198, 317, 365, 367, 319, 318, 366, 368, 320
199, 299, 347, 348, 300, 319, 367, 369, 321
200, 319, 367, 369, 321, 320, 368, 370, 322
201, 300, 348, 354, 306, 321, 369, 371, 323
202, 321, 369, 371, 323, 322, 370, 372, 324
203, 306, 354, 373, 325, 323, 371, 374, 326
204, 323, 371, 374, 326, 324, 372, 375, 327
205, 325, 373, 376, 328, 326, 374, 377, 329
206, 326, 374, 377, 329, 327, 375, 378, 330
207, 328, 376, 379, 331, 329, 377, 380, 332
208, 329, 377, 380, 332, 330, 378, 381, 333
209, 331, 379, 382, 334, 332, 380, 383, 335
210, 332, 380, 383, 335, 333, 381, 384, 336
211, 337, 385, 386, 338, 339, 387, 388, 340
212, 339, 387, 388, 340, 341, 389, 390, 342
213, 341, 389, 390, 342, 343, 391, 392, 344
214, 343, 391, 392, 344, 345, 393, 394, 346
215, 345, 393, 394, 346, 347, 395, 396, 348
216, 338, 386, 397, 349, 340, 388, 398, 350
217, 340, 388, 398, 350, 342, 390, 399, 351
218, 342, 390, 399, 351, 344, 392, 400, 352
219, 344, 392, 400, 352, 346, 394, 401, 353
220, 346, 394, 401, 353, 348, 396, 402, 354
221, 355, 403, 404, 356, 357, 405, 406, 358
222, 357, 405, 406, 358, 359, 407, 408, 360
223, 356, 404, 409, 361, 358, 406, 410, 362
224, 358, 406, 410, 362, 360, 408, 411, 363
225, 361, 409, 412, 364, 362, 410, 413, 365
226, 362, 410, 413, 365, 363, 411, 414, 366
227, 364, 412, 395, 347, 365, 413, 415, 367
228, 365, 413, 415, 367, 366, 414, 416, 368
229, 347, 395, 396, 348, 367, 415, 417, 369
230, 367, 415, 417, 369, 368, 416, 418, 370
231, 348, 396, 402, 354, 369, 417, 419, 371
232, 369, 417, 419, 371, 370, 418, 420, 372
233, 354, 402, 421, 373, 371, 419, 422, 374
234, 371, 419, 422, 374, 372, 420, 423, 375
235, 373, 421, 424, 376, 374, 422, 425, 377
236, 374, 422, 425, 377, 375, 423, 426, 378
237, 376, 424, 427, 379, 377, 425, 428, 380
238, 377, 425, 428, 380, 378, 426, 429, 381
239, 379, 427, 430, 382, 380, 428, 431, 383
240, 380, 428, 431, 383, 381, 429, 432, 384
241, 385, 433, 434, 386, 387, 435, 436, 388
242, 387, 435, 436, 388, 389, 437, 438, 390
243, 389, 437, 438, 390, 391, 439, 440, 392
244, 391, 439, 440, 392, 393, 441, 442, 394
245, 393, 441, 442, 394, 395, 443, 444, 396
246, 386, 434, 445, 397, 388, 436, 446, 398
247, 388, 436, 446, 398, 390, 438, 447, 399
248, 390, 438, 447, 399, 392, 440, 448, 400
249, 392, 440, 448, 400, 394, 442, 449, 401
250, 394, 442, 449, 401, 396, 444, 450, 402
251, 403, 451, 452, 404, 405, 453, 454, 406
252, 405, 453, 454, 406, 407, 455, 456, 408
253, 404, 452, 457, 409, 406, 454, 458, 410
254, 406, 454, 458, 410, 408, 456, 459, 411
255, 409, 457, 460, 412, 410, 458, 461, 413
256, 410, 458, 461, 413, 411, 459, 462, 414
257, 412, 460, 443, 395, 413, 461, 463, 415
258, 413, 461, 463, 415, 414, 462, 464, 416
259, 395, 443, 444, 396, 415, 463, 465, 417
260, 415, 463, 465, 417, 416, 464, 466, 418
261, 396, 444, 450, 402, 417, 465, 467, 419
262, 417, 465, 467, 419, 418, 466, 468, 420
263, 402, 450, 469, 421, 419, 467, 470, 422
264, 419, 467, 470, 422, 420, 468, 471, 423
265, 421, 469, 472, 424, 422, 470, 473, 425
266, 422, 470, 473, 425, 423, 471, 474, 426
267, 424, 472, 475, 427, 425, 473, 476, 428
268, 425, 473, 476, 428, 426, 474, 477, 429
269, 427, 475, 478, 430, 428, 476, 479, 431
270, 428, 476, 479, 431, 429, 477, 480, 432
271, 433, 481, 482, 434, 435, 483, 484, 436
272, 435, 483, 484, 436, 437, 485, 486, 438
273, 437, 485, 486, 438, 439, 487, 488, 440
274, 439, 487, 488, 440, 441, 489, 490, 442
275, 441, 489, 490, 442, 443, 491, 492, 444
276, 434, 482, 493, 445, 436, 484, 494, 446
277, 436, 484, 494, 446, 438, 486, 495, 447
278, 438, 486, 495, 447, 440, 488, 496, 448
279, 440, 488, 496, 448, 442, 490, 497, 449
280, 442, 490, 497, 449, 444, 492, 498, 450
281, 451, 499, 500, 452, 453, 501, 502, 454
282, 453, 501, 502, 454, 455, 503, 504, 456
283, 452, 500, 505, 457, 454, 502, 506, 458
284, 454, 502, 506, 458, 456, 504, 507, 459
285, 457, 505, 508, 460, 458, 506, 509, 461
286, 458, 506, 509, 461, 459, 507, 510, 462
287, 460, 508, 491, 443, 461, 509, 511, 463
288, 461, 509, 511, 463, 462, 510, 512, 464
289, 443, 491, 492, 444, 463, 511, 513, 465
290, 463, 511, 513, 465, 464, 512, 514, 466
291, 444, 492, 498, 450, 465, 513, 515, 467
292, 465, 513, 515, 467, 466, 514, 516, 468
293, 450, 498, 517, 469, 467, 515, 518, 470
294, 467, 515, 518, 470, 468, 516, 519, 471
295, 469, 517, 520, 472, 470, 518, 521, 473
296, 470, 518, 521, 473, 471, 519, 522, 474
297, 472, 520, 523, 475, 473, 521, 524, 476
298, 473, 521, 524, 476, 474, 522, 525, 477
299, 475, 523, 526, 478, 476, 524, 527, 479
300, 476, 524, 527, 479, 477, 525, 528, 480
301, 481, 529, 530, 482, 483, 531, 532, 484
302, 483, 531, 532, 484, 485, 533, 534, 486
303, 485, 533, 534, 486, 487, 535, 536, 488
304, 487, 535, 536, 488, 489, 537, 538, 490
305, 489, 537, 538, 490, 491, 539, 540, 492
306, 482, 530, 541, 493, 484, 532, 542, 494
307, 484, 532, 542, 494, 486, 534, 543, 495
308, 486, 534, 543, 495, 488, 536, 544, 496
309, 488, 536, 544, 496, 490, 538, 545, 497
310, 490, 538, 545, 497, 492, 540, 546, 498
311, 499, 547, 548, 500, 501, 549, 550, 502
312, 501, 549, 550, 502, 503, 551, 552, 504
313, 500, 548, 553, 505, 502, 550, 554, 506
314, 502, 550, 554, 506, 504, 552, 555, 507
315, 505, 553, 556, 508, 506, 554, 557, 509
316, 506, 554, 557, 509, 507, 555, 558, 510
317, 508, 556, 539, 491, 509, 557, 559, 511
318, 509, 557, 559, 511, 510, 558, 560, 512
319, 491, 539, 540, 492, 511, 559, 561, 513
320, 511, 559, 561, 513, 512, 560, 562, 514
321, 492, 540, 546, 498, 513, 561, 563, 515
322, 513, 561, 563, 515, 514, 562, 564, 516
323, 498, 546, 565, 517, 515, 563, 566, 518
324, 515, 563, 566, 518, 516, 564, 567, 519
325, 517, 565, 568, 520, 518, 566, 569, 521
326, 518, 566, 569, 521, 519, 567, 570, 522
327, 520, 568, 571, 523, 521, 569, 572, 524
328, 521, 569, 572, 524, 522, 570, 573, 525
329, 523, 571, 574, 526, 524, 572, 575, 527
330, 524, 572, 575, 527, 525, 573, 576, 528
331, 529, 577, 578, 530, 531, 579, 580, 532
332, 531, 579, 580, 532, 533, 581, 582, 534
333, 533, 581, 582, 534, 535, 583, 584, 536
334, 535, 583, 584, 536, 537, 585, 586, 538
335, 537, 585, 586, 538, 539, 587, 588, 540
336, 530, 578, 589, 541, 532, 580, 590, 542
337, 532, 580, 590, 542, 534, 582, 591, 543
338, 534, 582, 591, 543, 536, 584, 592, 544
339, 536, 584, 592, 544, 538, 586, 593, 545
340, 538, 586, 593, 545, 540, 588, 594, 546
341, 547, 595, 596, 548, 549, 597, 598, 550
342, 549, 597, 598, 550, 551, 599, 600, 552
343, 548, 596, 601, 553, 550, 598, 602, 554
344, 550, 598, 602, 554, 552, 600, 603, 555
345, 553, 601, 604, 556, 554, 602, 605, 557
346, 554, 602, 605, 557, 555, 603, 606, 558
347, 556, 604, 587, 539, 557, 605, 607, 559
348, 557, 605, 607, 559, 558, 606, 608, 560
349, 539, 587, 588, 540, 559, 607, 609, 561
350, 559, 607, 609, 561, 560, 608, 610, 562
351, 540, 588, 594, 546, 561, 609, 611, 563
352, 561, 609, 611, 563, 562, 610, 612, 564
353, 546, 594, 613, 565, 563, 611, 614, 566
354, 563, 611, 614, 566, 564, 612, 615, 567
355, 565, 613, 616, 568, 566, 614, 617, 569
356, 566, 614, 617, 569, 567, 615, 618, 570
357, 568, 616, 619, 571, 569, 617, 620, 572
358, 569, 617, 620, 572, 570, 618, 621, 573
359, 571, 619, 622, 574, 572, 620, 623, 575
360, 572, 620, 623, 575, 573, 621, 624, 576
361, 577, 625, 626, 578, 579, 627, 628, 580
362, 579, 627, 628, 580, 581, 629, 630, 582
363, 581, 629, 630, 582, 583, 631, 632, 584
364, 583, 631, 632, 584, 585, 633, 634, 586
365, 585, 633, 634, 586, 587, 635, 636, 588
366, 578, 626, 637, 589, 580, 628, 638, 590
367, 580, 628, 638, 590, 582, 630, 639, 591
368, 582, 630, 639, 591, 584, 632, 640, 592
369, 584, 632, 640, 592, 586, 634, 641, 593
370, 586, 634, 641, 593, 588, 636, 642, 594
371, 595, 643, 644, 596, 597, 645, 646, 598
372, 597, 645, 646, 598, 599, 647, 648, 600
373, 596, 644, 649, 601, 598, 646, 650, 602
374, 598, 646, 650, 602, 600, 648, 651, 603
375, 601, 649, 652, 604, 602, 650, 653, 605
376, 602, 650, 653, 605, 603, 651, 654, 606
377, 604, 652, 635, 587, 605, 653, 655, 607
378, 605, 653, 655, 607, 606, 654, 656, 608
379, 587, 635, 636, 588, 607, 655, 657, 609
380, 607, 655, 657, 609, 608, 656, 658, 610
381, 588, 636, 642, 594, 609, 657, 659, 611
382, 609, 657, 659, 611, 610, 658, 660, 612
383, 594, 642, 661, 613, 611, 659, 662, 614
384, 611, 659, 662, 614, 612, 660, 663, 615
385, 613, 661, 664, 616, 614, 662, 665, 617
386, 614, 662, 665, 617, 615, 663, 666, 618
387, 616, 664, 667, 619, 617, 665, 668, 620
388, 617, 665, 668, 620, 618, 666, 669, 621
389, 619, 667, 670, 622, 620, 668, 671, 623
390, 620, 668, 671, 623, 621, 669, 672, 624
391, 625, 673, 674, 626, 627, 675, 676, 628
392, 627, 675, 676, 628, 629, 677, 678, 630
393, 629, 677, 678, 630, 631, 679, 680, 632
394, 631, 679, 680, 632, 633, 681, 682, 634
395, 633, 681, 682, 634, 635, 683, 684, 636
396, 626, 674, 685, 637, 628, 676, 686, 638
397, 628, 676, 686, 638, 630, 678, 687, 639
398, 630, 678, 687, 639, 632, 680, 688, 640
399, 632, 680, 688, 640, 634, 682, 689, 641
400, 634, 682, 689, 641, 636, 684, 690, 642
401, 643, 691, 692, 644, 645, 693, 694, 646
402, 645, 693, 694, 646, 647, 695, 696, 648
403, 644, 692, 697, 649, 646, 694, 698, 650
404, 646, 694, 698, 650, 648, 696, 699, 651
405, 649, 697, 700, 652, 650, 698, 701, 653
406, 650, 698, 701, 653, 651, 699, 702, 654
407, 652, 700, 683, 635, 653, 701, 703, 655
408, 653, 701, 703, 655, 654, 702, 704, 656
409, 635, 683, 684, 636, 655, 703, 705, 657
410, 655, 703, 705, 657, 656, 704, 706, 658
411, 636, 684, 690, 642, 657, 705, 707, 659
412, 657, 705, 707, 659, 658, 706, 708, 660
413, 642, 690, 709, 661, 659, 707, 710, 662
414, 659, 707, 710, 662, 660, 708, 711, 663
415, 661, 709, 712, 664, 662, 710, 713, 665
416, 662, 710, 713, 665, 663, 711, 714, 666
417, 664, 712, 715, 667, 665, 713, 716, 668
418, 665, 713, 716, 668, 666, 714, 717, 669
419, 667, 715, 718, 670, 668, 716, 719, 671
420, 668, 716, 719, 671, 669, 717, 720, 672
421, 673, 721, 722, 674, 675, 723, 724, 676
422, 675, 723, 724, 676, 677, 725, 726, 678
423, 677, 725, 726, 678, 679, 727, 728, 680
424, 679, 727, 728, 680, 681, 729, 730, 682
425, 681, 729, 730, 682, 683, 731, 732, 684
426, 674, 722, 733, 685, 676, 724, 734, 686
427, 676, 724, 734, 686, 678, 726, 735, 687
428, 678, 726, 735, 687, 680, 728, 736, 688
429, 680, 728, 736, 688, 682, 730, 737, 689
430, 682, 730, 737, 689, 684, 732, 738, 690
431, 691, 739, 740, 692, 693, 741, 742, 694
432, 693, 741, 742, 694, 695, 743, 744, 696
433, 692, 740, 745, 697, 694, 742, 746, 698
434, 694, 742, 746, 698, 696, 744, 747, 699
435, 697, 745, 748, 700, 698, 746, 749, 701
436, 698, 746, 749, 701, 699, 747, 750, 702
437, 700, 748, 731, 683, 701, 749, 751, 703
438, 701, 749, 751, 703, 702, 750, 752, 704
439, 683, 731, 732, 684, 703, 751, 753, 705
440, 703, 751, 753, 705, 704, 752, 754, 706
441, 684, 732, 738, 690, 705, 753, 755, 707
442, 705, 753, 755, 707, 706, 754, 756, 708
443, 690, 738, 757, 709, 707, 755, 758, 710
444, 707, 755, 758, 710, 708, 756, 759, 711
445, 709, 757, 760, 712, 710, 758, 761, 713
446, 710, 758, 761, 713, 711, 759, 762, 714
447, 712, 760, 763, 715, 713, 761, 764, 716
448, 713, 761, 764, 716, 714, 762, 765, 717
449, 715, 763, 766, 718, 716, 764, 767, 719
450, 716, 764, 767, 719, 717, 765, 768, 720
451, 721, 769, 770, 722, 723, 771, 772, 724
452, 723, 771, 772, 724, 725, 773, 774, 726
453, 725, 773, 774, 726, 727, 775, 776, 728
454, 727, 775, 776, 728, 729, 777, 778, 730
455, 729, 777, 778, 730, 731, 779, 780, 732
456, 722, 770, 781, 733, 724, 772, 782, 734
457, 724, 772, 782, 734, 726, 774, 783, 735
458, 726, 774, 783, 735, 728, 776, 784, 736
459, 728, 776, 784, 736, 730, 778, 785, 737
460, 730, 778, 785, 737, 732, 780, 786, 738
461, 739, 787, 788, 740, 741, 789, 790, 742
462, 741, 789, 790, 742, 743, 791, 792, 744
463, 740, 788, 793, 745, 742, 790, 794, 746
464, 742, 790, 794, 746, 744, 792, 795, 747
465, 745, 793, 796, 748, 746, 794, 797, 749
466, 746, 794, 797, 749, 747, 795, 798, 750
467, 748, 796, 779, 731, 749, 797, 799, 751
468, 749, 797, 799, 751, 750, 798, 800, 752
469, 731, 779, 780, 732, 751, 799, 801, 753
470, 751, 799, 801, 753, 752, 800, 802, 754
471, 732, 780, 786, 738, 753, 801, 803, 755
472, 753, 801, 803, 755, 754, 802, 804, 756
473, 738, 786, 805, 757, 755, 803, 806, 758
474, 755, 803, 806, 758, 756, 804, 807, 759
475, 757, 805, 808, 760, 758, 806, 809, 761
476, 758, 806, 809, 761, 759, 807, 810, 762
477, 760, 808, 811, 763, 761, 809, 812, 764
478, 761, 809, 812, 764, 762, 810, 813, 765
479, 763, 811, 814, 766, 764, 812, 815, 767
480, 764, 812, 815, 767, 765, 813, 816, 768
481, 769, 817, 818, 770, 771, 819, 820, 772
482, 771, 819, 820, 772, 773, 821, 822, 774
483, 773, 821, 822, 774, 775, 823, 824, 776
484, 775, 823, 824, 776, 777, 825, 826, 778
485, 777, 825, 826, 778, 779, 827, 828, 780
486, 770, 818, 829, 781, 772, 820, 830, 782
487, 772, 820, 830, 782, 774, 822, 831, 783
488, 774, 822, 831, 783, 776, 824, 832, 784
489, 776, 824, 832, 784, 778, 826, 833, 785
490, 778, 826, 833, 785, 780, 828, 834, 786
491, 787, 835, 836, 788, 789, 837, 838, 790
492, 789, 837, 838, 790, 791, 839, 840, 792
493, 788, 836, 841, 793, 790, 838, 842, 794
494, 790, 838, 842, 794, 792, 840, 843, 795
495, 793, 841, 844, 796, 794, 842, 845, 797
496, 794, 842, 845, 797, 795, 843, 846, 798
497, 796, 844, 827, 779, 797, 845, 847, 799
498, 797, 845, 847, 799, 798, 846, 848, 800
499, 779, 827, 828, 780, 799, 847, 849, 801
500, 799, 847, 849, 801, 800, 848, 850, 802
501, 780, 828, 834, 786, 801, 849, 851, 803
502, 801, 849, 851, 803, 802, 850, 852, 804
503, 786, 834, 853, 805, 803, 851, 854, 806
504, 803, 851, 854, 806, 804, 852, 855, 807
505, 805, 853, 856, 808, 806, 854, 857, 809
506, 806, 854, 857, 809, 807, 855, 858, 810
507, 808, 856, 859, 811, 809, 857, 860, 812
508, 809, 857, 860, 812, 810, 858, 861, 813
509, 811, 859, 862, 814, 812, 860, 863, 815
510, 812, 860, 863, 815, 813, 861, 864, 816
511, 817, 865, 866, 818, 819, 867, 868, 820
512, 819, 867, 868, 820, 821, 869, 870, 822
513, 821, 869, 870, 822, 823, 871, 872, 824
514, 823, 871, 872, 824, 825, 873, 874, 826
515, 825, 873, 874, 826, 827, 875, 876, 828
516, 818, 866, 877, 829, 820, 868, 878, 830
517, 820, 868, 878, 830, 822, 870, 879, 831
518, 822, 870, 879, 831, 824, 872, 880, 832
519, 824, 872, 880, 832, 826, 874, 881, 833
520, 826, 874, 881, 833, 828, 876, 882, 834
521, 835, 883, 884, 836, 837, 885, 886, 838
522, 837, 885, 886, 838, 839, 887, 888, 840
523, 836, 884, 889, 841, 838, 886, 890, 842
524, 838, 886, 890, 842, 840, 888, 891, 843
525, 841, 889, 892, 844, 842, 890, 893, 845
526, 842, 890, 893, 845, 843, 891, 894, 846
527, 844, 892, 875, 827, 845, 893, 895, 847
528, 845, 893, 895, 847, 846, 894, 896, 848
529, 827, 875, 876, 828, 847, 895, 897, 849
530, 847, 895, 897, 849, 848, 896, 898, 850
531, 828, 876, 882, 834, 849, 897, 899, 851
532, 849, 897, 899, 851, 850, 898, 900, 852
533, 834, 882, 901, 853, 851, 899, 902, 854
534, 851, 899, 902, 854, 852, 900, 903, 855
535, 853, 901, 904, 856, 854, 902, 905, 857
536, 854, 902, 905, 857, 855, 903, 906, 858
537, 856, 904, 907, 859, 857, 905, 908, 860
538, 857, 905, 908, 860, 858, 906, 909, 861
539, 859, 907, 910, 862, 860, 908, 911, 863
540, 860, 908, 911, 863, 861, 909, 912, 864
541, 865, 913, 914, 866, 867, 915, 916, 868
542, 867, 915, 916, 868, 869, 917, 918, 870
543, 869, 917, 918, 870, 871, 919, 920, 872
544, 871, 919, 920, 872, 873, 921, 922, 874
545, 873, 921, 922, 874, 875, 923, 924, 876
546, 866, 914, 925, 877, 868, 916, 926, 878
547, 868, 916, 926, 878, 870, 918, 927, 879
548, 870, 918, 927, 879, 872, 920, 928, 880
549, 872, 920, 928, 880, 874, 922, 929, 881
550, 874, 922, 929, 881, 876, 924, 930, 882
551, 883, 931, 932, 884, 885, 933, 934, 886
552, 885, 933, 934, 886, 887, 935, 936, 888
553, 884, 932, 937, 889, 886, 934, 938, 890
554, 886, 934, 938, 890, 888, 936, 939, 891
555, 889, 937, 940, 892, 890, 938, 941, 893
556, 890, 938, 941, 893, 891, 939, 942, 894
557, 892, 940, 923, 875, 893, 941, 943, 895
558, 893, 941, 943, 895, 894, 942, 944, 896
559, 875, 923, 924, 876, 895, 943, 945, 897
560, 895, 943, 945, 897, 896, 944, 946, 898
561, 876, 924, 930, 882, 897, 945, 947, 899
562, 897, 945, 947, 899, 898, 946, 948, 900
563, 882, 930, 949, 901, 899, 947, 950, 902
564, 899, 947, 950, 902, 900, 948, 951, 903
565, 901, 949, 952, 904, 902, 950, 953, 905
566, 902, 950, 953, 905, 903, 951, 954, 906
567, 904, 952, 955, 907, 905, 953, 956, 908
568, 905, 953, 956, 908, 906, 954, 957, 909
569, 907, 955, 958, 910, 908, 956, 959, 911
570, 908, 956, 959, 911, 909, 957, 960, 912
571, 913, 961, 962, 914, 915, 963, 964, 916
572, 915, 963, 964, 916, 917, 965, 966, 918
573, 917, 965, 966, 918, 919, 967, 968, 920
574, 919, 967, 968, 920, 921, 969, 970, 922
575, 921, 969, 970, 922, 923, 971, 972, 924
576, 914, 962, 973, 925, 916, 964, 974, 926
577, 916, 964, 974, 926, 918, 966, 975, 927
578, 918, 966, 975, 927, 920, 968, 976, 928
579, 920, 968, 976, 928, 922, 970, 977, 929
580, 922, 970, 977, 929, 924, 972, 978, 930
581, 931, 979, 980, 932, 933, 981, 982, 934
582, 933, 981, 982, 934, 935, 983, 984, 936
583, 932, 980, 985, 937, 934, 982, 986, 938
584, 934, 982, 986, 938, 936, 984, 987, 939
585, 937, 985, 988, 940, 938, 986, 989, 941
586, 938, 986, 989, 941, 939, 987, 990, 942
587, 940, 988, 971, 923, 941, 989, 991, 943
588, 941, 989, 991, 943, 942, 990, 992, 944
589, 923, 971, 972, 924, 943, 991, 993, 945
590, 943, 991, 993, 945, 944, 992, 994, 946
591, 924, 972, 978, 930, 945, 993, 995, 947
592, 945, 993, 995, 947, 946, 994, 996, 948
593, 930, 978, 997, 949, 947, 995, 998, 950
594, 947, 995, 998, 950, 948, 996, 999, 951
595, 949, 997, 1000, 952, 950, 998, 1001, 953
596, 950, 998, 1001, 953, 951, 999, 1002, 954
597, 952, 1000, 1003, 955, 953, 1001, 1004, 956
598, 953, 1001, 1004, 956, 954, 1002, 1005, 957
599, 955, 1003, 1006, 958, 956, 1004, 1007, 959
600, 956, 1004, 1007, 959, 957, 1005, 1008, 960
601, 961, 1009, 1010, 962, 963, 1011, 1012, 964
602, 963, 1011, 1012, 964, 965, 1013, 1014, 966
603, 965, 1013, 1014, 966, 967, 1015, 1016, 968
604, 967, 1015, 1016, 968, 969, 1017, 1018, 970
605, 969, 1017, 1018, 970, 971, 1019, 1020, 972
606, 962, 1010, 1021, 973, 964, 1012, 1022, 974
607, 964, 1012, 1022, 974, 966, 1014, 1023, 975
608, 966, 1014, 1023, 975, 968, 1016, 1024, 976
609, 968, 1016, 1024, 976, 970, 1018, 1025, 977
610, 970, 1018, 1025, 977, 972, 1020, 1026, 978
611, 979, 1027, 1028, 980, 981, 1029, 1030, 982
612, 981, 1029, 1030, 982, 983, 1031, 1032, 984
613, 980, 1028, 1033, 985, 982, 1030, 1034, 986
614, 982, 1030, 1034, 986, 984, 1032, 1035, 987
615, 985, 1033, 1036, 988, 986, 1034, 1037, 989
616, 986, 1034, 1037, 989, 987, 1035, 1038, 990
617, 988, 1036, 1019, 971, 989, 1037, 1039, 991
618, 989, 1037, 1039, 991, 990, 1038, 1040, 992
619, 971, 1019, 1020, 972, 991, 1039, 1041, 993
620, 991, 1039, 1041, 993, 992, 1040, 1042, 994
621, 972, 1020, 1026, 978, 993, 1041, 1043, 995
622, 993, 1041, 1043, 995, 994, 1042, 1044, 996
623, 978, 1026, 1045, 997, 995, 1043, 1046, 998
624, 995, 1043, 1046, 998, 996, 1044, 1047, 999
625, 997, 1045, 1048, 1000, 998, 1046, 1049, 1001
626, 998, 1046, 1049, 1001, 999, 1047, 1050, 1002
627, 1000, 1048, 1051, 1003, 1001, 1049, 1052, 1004
628, 1001, 1049, 1052, 1004, 1002, 1050, 1053, 1005
629, 1003, 1051, 1054, 1006, 1004, 1052, 1055, 1007
630, 1004, 1052, 1055, 1007, 1005, 1053, 1056, 1008
631, 1009, 1057, 1058, 1010, 1011, 1059, 1060, 1012
632, 1011, 1059, 1060, 1012, 1013, 1061, 1062, 1014
633, 1013, 1061, 1062, 1014, 1015, 1063, 1064, 1016
634, 1015, 1063, 1064, 1016, 1017, 1065, 1066, 1018
635, 1017, 1065, 1066, 1018, 1019, 1067, 1068, 1020
636, 1010, 1058, 1069, 1021, 1012, 1060, 1070, 1022
637, 1012, 1060, 1070, 1022, 1014, 1062, 1071, 1023
638, 1014, 1062, 1071, 1023, 1016, 1064, 1072, 1024
639, 1016, 1064, 1072, 1024, 1018, 1066, 1073, 1025
640, 1018, 1066, 1073, 1025, 1020, 1068, 1074, 1026
641, 1027, 1075, 1076, 1028, 1029, 1077, 1078, 1030
642, 1029, 1077, 1078, 1030, 1031, 1079, 1080, 1032
643, 1028, 1076, 1081, 1033, 1030, 1078, 1082, 1034
644, 1030, 1078, 1082, 1034, 1032, 1080, 1083, 1035
645, 1033, 1081, 1084, 1036, 1034, 1082, 1085, 1037
646, 1034, 1082, 1085, 1037, 1035, 1083, 1086, 1038
647, 1036, 1084, 1067, 1019, 1037, 1085, 1087, 1039
648, 1037, 1085, 1087, 1039, 1038, 1086, 1088, 1040
649, 1019, 1067, 1068, 1020, 1039, 1087, 1089, 1041
650, 1039, 1087, 1089, 1041, 1040, 1088, 1090, 1042
651, 1020, 1068, 1074, 1026, 1041, 1089, 1091, 1043
652, 1041, 1089, 1091, 1043, 1042, 1090, 1092, 1044
653, 1026, 1074, 1093, 1045, 1043, 1091, 1094, 1046
654, 1043, 1091, 1094, 1046, 1044, 1092, 1095, 1047
655, 1045, 1093, 1096, 1048, 1046, 1094, 1097, 1049
656, 1046, 1094, 1097, 1049, 1047, 1095, 1098, 1050
657, 1048, 1096, 1099, 1051, 1049, 1097, 1100, 1052
658, 1049, 1097, 1100, 1052, 1050, 1098, 1101, 1053
659, 1051, 1099, 1102, 1054, 1052, 1100, 1103, 1055
660, 1052, 1100, 1103, 1055, 1053, 1101, 1104, 1056
661, 1057, 1105, 1106, 1058, 1059, 1107, 1108, 1060
662, 1059, 1107, 1108, 1060, 1061, 1109, 1110, 1062
663, 1061, 1109, 1110, 1062, 1063, 1111, 1112, 1064
664, 1063, 1111, 1112, 1064, 1065, 1113, 1114, 1066
665, 1065, 1113, 1114, 1066, 1067, 1115, 1116, 1068
666, 1058, 1106, 1117, 1069, 1060, 1108, 1118, 1070
667, 1060, 1108, 1118, 1070, 1062, 1110, 1119, 1071
668, 1062, 1110, 1119, 1071, 1064, 1112, 1120, 1072
669, 1064, 1112, 1120, 1072, 1066, 1114, 1121, 1073
670, 1066, 1114, 1121, 1073, 1068, 1116, 1122, 1074
671, 1075, 1123, 1124, 1076, 1077, 1125, 1126, 1078
672, 1077, 1125, 1126, 1078, 1079, 1127, 1128, 1080
673, 1076, 1124, 1129, 1081, 1078, 1126, 1130, 1082
674, 1078, 1126, 1130, 1082, 1080, 1128, 1131, 1083
675, 1081, 1129, 1132, 1084, 1082, 1130, 1133, 1085
676, 1082, 1130, 1133, 1085, 1083, 1131, 1134, 1086
677, 1084, 1132, 1115, 1067, 1085, 1133, 1135, 1087
678, 1085, 1133, 1135, 1087, 1086, 1134, 1136, 1088
679, 1067, 1115, 1116, 1068, 1087, 1135, 1137, 1089
680, 1087, 1135, 1137, 1089, 1088, 1136, 1138, 1090
681, 1068, 1116, 1122, 1074, 1089, 1137, 1139, 1091
682, 1089, 1137, 1139, 1091, 1090, 1138, 1140, 1092
683, 1074, 1122, 1141, 1093, 1091, 1139, 1142, 1094
684, 1091, 1139, 1142, 1094, 1092, 1140, 1143, 1095
685, 1093, 1141, 1144, 1096, 1094, 1142, 1145, 1097
686, 1094, 1142, 1145, 1097, 1095, 1143, 1146, 1098
687, 1096, 1144, 1147, 1099, 1097, 1145, 1148, 1100
688, 1097, 1145, 1148, 1100, 1098, 1146, 1149, 1101
689, 1099, 1147, 1150, 1102, 1100, 1148, 1151, 1103
690, 1100, 1148, 1151, 1103, 1101, 1149, 1152, 1104
691, 1105, 1153, 1154, 1106, 1107, 1155, 1156, 1108
692, 1107, 1155, 1156, 1108, 1109, 1157, 1158, 1110
693, 1109, 1157, 1158, 1110, 1111, 1159, 1160, 1112
694, 1111, 1159, 1160, 1112, 1113, 1161, 1162, 1114
695, 1113, 1161, 1162, 1114, 1115, 1163, 1164, 1116
696, 1106, 1154, 1165, 1117, 1108, 1156, 1166, 1118
697, 1108, 1156, 1166, 1118, 1110, 1158, 1167, 1119
698, 1110, 1158, 1167, 1119, 1112, 1160, 1168, 1120
699, 1112, 1160, 1168, 1120, 1114, 1162, 1169, 1121
700, 1114, 1162, 1169, 1121, 1116, 1164, 1170, 1122
701, 1123, 1171, 1172, 1124, 1125, 1173, 1174, 1126
702, 1125, 1173, 1174, 1126, 1127, 1175, 1176, 1128
703, 1124, 1172, 1177, 1129, 1126, 1174, 1178, 1130
704, 1126, 1174, 1178, 1130, 1128, 1176, 1179, 1131
705, 1129, 1177, 1180, 1132, 1130, 1178, 1181, 1133
706, 1130, 1178, 1181, 1133, 1131, 1179, 1182, 1134
707, 1132, 1180, 1163, 1115, 1133, 1181, 1183, 1135
708, 1133, 1181, 1183, 1135, 1134, 1182, 1184, 1136
709, 1115, 1163, 1164, 1116, 1135, 1183, 1185, 1137
710, 1135, 1183, 1185, 1137, 1136, 1184, 1186, 1138
711, 1116, 1164, 1170, 1122, 1137, 1185, 1187, 1139
712, 1137, 1185, 1187, 1139, 1138, 1186, 1188, 1140
713, 1122, 1170, 1189, 1141, 1139, 1187, 1190, 1142
714, 1139, 1187, 1190, 1142, 1140, 1188, 1191, 1143
715, 1141, 1189, 1192, 1144, 1142, 1190, 1193, 1145
716, 1142, 1190, 1193, 1145, 1143, 1191, 1194, 1146
717, 1144, 1192, 1195, 1147, 1145, 1193, 1196, 1148
718, 1145, 1193, 1196, 1148, 1146, 1194, 1197, 1149
719, 1147, 1195, 1198, 1150, 1148, 1196, 1199, 1151
720, 1148, 1196, 1199, 1151, 1149, 1197, 1200, 1152
721, 1153, 1201, 1202, 1154, 1155, 1203, 1204, 1156
722, 1155, 1203, 1204, 1156, 1157, 1205, 1206, 1158
723, 1157, 1205, 1206, 1158, 1159, 1207, 1208, 1160
724, 1159, 1207, 1208, 1160, 1161, 1209, 1210, 1162
725, 1161, 1209, 1210, 1162, 1163, 1211, 1212, 1164
726, 1154, 1202, 1213, 1165, 1156, 1204, 1214, 1166
727, 1156, 1204, 1214, 1166, 1158, 1206, 1215, 1167
728, 1158, 1206, 1215, 1167, 1160, 1208, 1216, 1168
729, 1160, 1208, 1216, 1168, 1162, 1210, 1217, 1169
730, 1162, 1210, 1217, 1169, 1164, 1212, 1218, 1170
731, 1171, 1219, 1220, 1172, 1173, 1221, 1222, 1174
732, 1173, 1221, 1222, 1174, 1175, 1223, 1224, 1176
733, 1172, 1220, 1225, 1177, 1174, 1222, 1226, 1178
734, 1174, 1222, 1226, 1178, 1176, 1224, 1227, 1179
735, 1177, 1225, 1228, 1180, 1178, 1226, 1229, 1181
736, 1178, 1226, 1229, 1181, 1179, 1227, 1230, 1182
737, 1180, 1228, 1211, 1163, 1181, 1229, 1231, 1183
738, 1181, 1229, 1231, 1183, 1182, 1230, 1232, 1184
739, 1163, 1211, 1212, 1164, 1183, 1231, 1233, 1185
740, 1183, 1231, 1233, 1185, 1184, 1232, 1234, 1186
741, 1164, 1212, 1218, 1170, 1185, 1233, 1235, 1187
742, 1185, 1233, 1235, 1187, 1186, 1234, 1236, 1188
743, 1170, 1218, 1237, 1189, 1187, 1235, 1238, 1190
744, 1187, 1235, 1238, 1190, 1188, 1236, 1239, 1191
745, 1189, 1237, 1240, 1192, 1190, 1238, 1241, 1193
746, 1190, 1238, 1241, 1193, 1191, 1239, 1242, 1194
747, 1192, 1240, 1243, 1195, 1193, 1241, 1244, 1196
748, 1193, 1241, 1244, 1196, 1194, 1242, 1245, 1197
749, 1195, 1243, 1246, 1198, 1196, 1244, 1247, 1199
750, 1196, 1244, 1247, 1199, 1197, 1245, 1248, 1200
751, 1201, 1249, 1250, 1202, 1203, 1251, 1252, 1204
752, 1203, 1251, 1252, 1204, 1205, 1253, 1254, 1206
753, 1205, 1253, 1254, 1206, 1207, 1255, 1256, 1208
754, 1207, 1255, 1256, 1208, 1209, 1257, 1258, 1210
755, 1209, 1257, 1258, 1210, 1211, 1259, 1260, 1212
756, 1202, 1250, 1261, 1213, 1204, 1252, 1262, 1214
757, 1204, 1252, 1262, 1214, 1206, 1254, 1263, 1215
758, 1206, 1254, 1263, 1215, 1208, 1256, 1264, 1216
759, 1208, 1256, 1264, 1216, 1210, 1258, 1265, 1217
760, 1210, 1258, 1265, 1217, 1212, 1260, 1266, 1218
761, 1219, 1267, 1268, 1220, 1221, 1269, 1270, 1222
762, 1221, 1269, 1270, 1222, 1223, 1271, 1272, 1224
763, 1220, 1268, 1273, 1225, 1222, 1270, 1274, 1226
764, 1222, 1270, 1274, 1226, 1224, 1272, 1275, 1227
765, 1225, 1273, 1276, 1228, 1226, 1274, 1277, 1229
766, 1226, 1274, 1277, 1229, 1227, 1275, 1278, 1230
767, 1228, 1276, 1259, 1211, 1229, 1277, 1279, 1231
768, 1229, 1277, 1279, 1231, 1230, 1278, 1280, 1232
769, 1211, 1259, 1260, 1212, 1231, 1279, 1281, 1233
770, 1231, 1279, 1281, 1233, 1232, 1280, 1282, 1234
771, 1212, 1260, 1266, 1218, 1233, 1281, 1283, 1235
772, 1233, 1281, 1283, 1235, 1234, 1282, 1284, 1236
773, 1218, 1266, 1285, 1237, 1235, 1283, 1286, 1238
774, 1235, 1283, 1286, 1238, 1236, 1284, 1287, 1239
775, 1237, 1285, 1288, 1240, 1238, 1286, 1289, 1241
776, 1238, 1286, 1289, 1241, 1239, 1287, 1290, 1242
777, 1240, 1288, 1291, 1243, 1241, 1289, 1292, 1244
778, 1241, 1289, 1292, 1244, 1242, 1290, 1293, 1245
779, 1243, 1291, 1294, 1246, 1244, 1292, 1295, 1247
780, 1244, 1292, 1295, 1247, 1245, 1293, 1296, 1248
781, 1249, 1297, 1298, 1250, 1251, 1299, 1300, 1252
782, 1251, 1299, 1300, 1252, 1253, 1301, 1302, 1254
783, 1253, 1301, 1302, 1254, 1255, 1303, 1304, 1256
784, 1255, 1303, 1304, 1256, 1257, 1305, 1306, 1258
785, 1257, 1305, 1306, 1258, 1259, 1307, 1308, 1260
786, 1250, 1298, 1309, 1261, 1252, 1300, 1310, 1262
787, 1252, 1300, 1310, 1262, 1254, 1302, 1311, 1263
788, 1254, 1302, 1311, 1263, 1256, 1304, 1312, 1264
789, 1256, 1304, 1312, 1264, 1258, 1306, 1313, 1265
790, 1258, 1306, 1313, 1265, 1260, 1308, 1314, 1266
791, 1267, 1315, 1316, 1268, 1269, 1317, 1318, 1270
792, 1269, 1317, 1318, 1270, 1271, 1319, 1320, 1272
793, 1268, 1316, 1321, 1273, 1270, 1318, 1322, 1274
794, 1270, 1318, 1322, 1274, 1272, 1320, 1323, 1275
795, 1273, 1321, 1324, 1276, 1274, 1322, 1325, 1277
796, 1274, 1322, 1325, 1277, 1275, 1323, 1326, 1278
797, 1276, 1324, 1307, 1259, 1277, 1325, 1327, 1279
798, 1277, 1325, 1327, 1279, 1278, 1326, 1328, 1280
799, 1259, 1307, 1308, 1260, 1279, 1327, 1329, 1281
800, 1279, 1327, 1329, 1281, 1280, 1328, 1330, 1282
801, 1260, 1308, 1314, 1266, 1281, 1329, 1331, 1283
802, 1281, 1329, 1331, 1283, 1282, 1330, 1332, 1284
803, 1266, 1314, 1333, 1285, 1283, 1331, 1334, 1286
804, 1283, 1331, 1334, 1286, 1284, 1332, 1335, 1287
805, 1285, 1333, 1336, 1288, 1286, 1334, 1337, 1289
806, 1286, 1334, 1337, 1289, 1287, 1335, 1338, 1290
807, 1288, 1336, 1339, 1291, 1289, 1337, 1340, 1292
808, 1289, 1337, 1340, 1292, 1290, 1338, 1341, 1293
809, 1291, 1339, 1342, 1294, 1292, 1340, 1343, 1295
810, 1292, 1340, 1343, 1295, 1293, 1341, 1344, 1296
811, 1297, 1345, 1346, 1298, 1299, 1347, 1348, 1300
812, 1299, 1347, 1348, 1300, 1301, 1349, 1350, 1302
813, 1301, 1349, 1350, 1302, 1303, 1351, 1352, 1304
814, 1303, 1351, 1352, 1304, 1305, 1353, 1354, 1306
815, 1305, 1353, 1354, 1306, 1307, 1355, 1356, 1308
816, 1298, 1346, 1357, 1309, 1300, 1348, 1358, 1310
817, 1300, 1348, 1358, 1310, 1302, 1350, 1359, 1311
818, 1302, 1350, 1359, 1311, 1304, 1352, 1360, 1312
819, 1304, 1352, 1360, 1312, 1306, 1354, 1361, 1313
820, 1306, 1354, 1361, 1313, 1308, 1356, 1362, 1314
821, 1315, 1363, 1364, 1316, 1317, 1365, 1366, 1318
822, 1317, 1365, 1366, 1318, 1319, 1367, 1368, 1320
823, 1316, 1364, 1369, 1321, 1318, 1366, 1370, 1322
824, 1318, 1366, 1370, 1322, 1320, 1368, 1371, 1323
825, 1321, 1369, 1372, 1324, 1322, 1370, 1373, 1325
826, 1322, 1370, 1373, 1325, 1323, 1371, 1374, 1326
827, 1324, 1372, 1355, 1307, 1325, 1373, 1375, 1327
828, 1325, 1373, 1375, 1327, 1326, 1374, 1376, 1328
829, 1307, 1355, 1356, 1308, 1327, 1375, 1377, 1329
830, 1327, 1375, 1377, 1329, 1328, 1376, 1378, 1330
831, 1308, 1356, 1362, 1314, 1329, 1377, 1379, 1331
832, 1329, 1377, 1379, 1331, 1330, 1378, 1380, 1332
833, 1314, 1362, 1381, 1333, 1331, 1379, 1382, 1334
834, 1331, 1379, 1382, 1334, 1332, 1380, 1383, 1335
835, 1333, 1381, 1384, 1336, 1334, 1382, 1385, 1337
836, 1334, 1382, 1385, 1337, 1335, 1383, 1386, 1338
837, 1336, 1384, 1387, 1339, 1337, 1385, 1388, 1340
838, 1337, 1385, 1388, 1340, 1338, 1386, 1389, 1341
839, 1339, 1387, 1390, 1342, 1340, 1388, 1391, 1343
840, 1340, 1388, 1391, 1343, 1341, 1389, 1392, 1344
841, 1345, 1393, 1394, 1346, 1347, 1395, 1396, 1348
842, 1347, 1395, 1396, 1348, 1349, 1397, 1398, 1350
843, 1349, 1397, 1398, 1350, 1351, 1399, 1400, 1352
844, 1351, 1399, 1400, 1352, 1353, 1401, 1402, 1354
845, 1353, 1401, 1402, 1354, 1355, 1403, 1404, 1356
846, 1346, 1394, 1405, 1357, 1348, 1396, 1406, 1358
847, 1348, 1396, 1406, 1358, 1350, 1398, 1407, 1359
848, 1350, 1398, 1407, 1359, 1352, 1400, 1408, 1360
849, 1352, 1400, 1408, 1360, 1354, 1402, 1409, 1361
850, 1354, 1402, 1409, 1361, 1356, 1404, 1410, 1362
851, 1363, 1411, 1412, 1364, 1365, 1413, 1414, 1366
852, 1365, 1413, 1414, 1366, 1367, 1415, 1416, 1368
853, 1364, 1412, 1417, 1369, 1366, 1414, 1418, 1370
854, 1366, 1414, 1418, 1370, 1368, 1416, 1419, 1371
855, 1369, 1417, 1420, 1372, 1370, 1418, 1421, 1373
856, 1370, 1418, 1421, 1373, 1371, 1419, 1422, 1374
857, 1372, 1420, 1403, 1355, 1373, 1421, 1423, 1375
858, 1373, 1421, 1423, 1375, 1374, 1422, 1424, 1376
859, 1355, 1403, 1404, 1356, 1375, 1423, 1425, 1377
860, 1375, 1423, 1425, 1377, 1376, 1424, 1426, 1378
861, 1356, 1404, 1410, 1362, 1377, 1425, 1427, 1379
862, 1377, 1425, 1427, 1379, 1378, 1426, 1428, 1380
863, 1362, 1410, 1429, 1381, 1379, 1427, 1430, 1382
864, 1379, 1427, 1430, 1382, 1380, 1428, 1431, 1383
865, 1381, 1429, 1432, 1384, 1382, 1430, 1433, 1385
866, 1382, 1430, 1433, 1385, 1383, 1431, 1434, 1386
867, 1384, 1432, 1435, 1387, 1385, 1433, 1436, 1388
868, 1385, 1433, 1436, 1388, 1386, 1434, 1437, 1389
869, 1387, 1435, 1438, 1390, 1388, 1436, 1439, 1391
870, 1388, 1436, 1439, 1391, 1389, 1437, 1440, 1392
871, 1393, 1441, 1442, 1394, 1395, 1443, 1444, 1396
872, 1395, 1443, 1444, 1396, 1397, 1445, 1446, 1398
873, 1397, 1445, 1446, 1398, 1399, 1447, 1448, 1400
874, 1399, 1447, 1448, 1400, 1401, 1449, 1450, 1402
875, 1401, 1449, 1450, 1402, 1403, 1451, 1452, 1404
876, 1394, 1442, 1453, 1405, 1396, 1444, 1454, 1406
877, 1396, 1444, 1454, 1406, 1398, 1446, 1455, 1407
878, 1398, 1446, 1455, 1407, 1400, 1448, 1456, 1408
879, 1400, 1448, 1456, 1408, 1402, 1450, 1457, 1409
880, 1402, 1450, 1457, 1409, 1404, 1452, 1458, 1410
881, 1411, 1459, 1460, 1412, 1413, 1461, 1462, 1414
882, 1413, 1461, 1462, 1414, 1415, 1463, 1464, 1416
883, 1412, 1460, 1465, 1417, 1414, 1462, 1466, 1418
884, 1414, 1462, 1466, 1418, 1416, 1464, 1467, 1419
885, 1417, 1465, 1468, 1420, 1418, 1466, 1469, 1421
886, 1418, 1466, 1469, 1421, 1419, 1467, 1470, 1422
887, 1420, 1468, 1451, 1403, 1421, 1469, 1471, 1423
888, 1421, 1469, 1471, 1423, 1422, 1470, 1472, 1424
889, 1403, 1451, 1452, 1404, 1423, 1471, 1473, 1425
890, 1423, 1471, 1473, 1425, 1424, 1472, 1474, 1426
891, 1404, 1452, 1458, 1410, 1425, 1473, 1475, 1427
892, 1425, 1473, 1475, 1427, 1426, 1474, 1476, 1428
893, 1410, 1458, 1477, 1429, 1427, 1475, 1478, 1430
894, 1427, 1475, 1478, 1430, 1428, 1476, 1479, 1431
895, 1429, 1477, 1480, 1432, 1430, 1478, 1481, 1433
896, 1430, 1478, 1481, 1433, 1431, 1479, 1482, 1434
897, 1432, 1480, 1483, 1435, 1433, 1481, 1484, 1436
898, 1433, 1481, 1484, 1436, 1434, 1482, 1485, 1437
899, 1435, 1483, 1486, 1438, 1436, 1484, 1487, 1439
900, 1436, 1484, 1487, 1439, 1437, 1485, 1488, 1440
901, 1441, 1489, 1490, 1442, 1443, 1491, 1492, 1444
902, 1443, 1491, 1492, 1444, 1445, 1493, 1494, 1446
903, 1445, 1493, 1494, 1446, 1447, 1495, 1496, 1448
904, 1447, 1495, 1496, 1448, 1449, 1497, 1498, 1450
905, 1449, 1497, 1498, 1450, 1451, 1499, 1500, 1452
906, 1442, 1490, 1501, 1453, 1444, 1492, 1502, 1454
907, 1444, 1492, 1502, 1454, 1446, 1494, 1503, 1455
908, 1446, 1494, 1503, 1455, 1448, 1496, 1504, 1456
909, 1448, 1496, 1504, 1456, 1450, 1498, 1505, 1457
910, 1450, 1498, 1505, 1457, 1452, 1500, 1506, 1458
911, 1459, 1507, 1508, 1460, 1461, 1509, 1510, 1462
912, 1461, 1509, 1510, 1462, 1463, 1511, 1512, 1464
913, 1460, 1508, 1513, 1465, 1462, 1510, 1514, 1466
914, 1462, 1510, 1514, 1466, 1464, 1512, 1515, 1467
915, 1465, 1513, 1516, 1468, 1466, 1514, 1517, 1469
916, 1466, 1514, 1517, 1469, 1467, 1515, 1518, 1470
917, 1468, 1516, 1499, 1451, 1469, 1517, 1519, 1471
918, 1469, 1517, 1519, 1471, 1470, 1518, 1520, 1472
919, 1451, 1499, 1500, 1452, 1471, 1519, 1521, 1473
920, 1471, 1519, 1521, 1473, 1472, 1520, 1522, 1474
921, 1452, 1500, 1506, 1458, 1473, 1521, 1523, 1475
922, 1473, 1521, 1523, 1475, 1474, 1522, 1524, 1476
923, 1458, 1506, 1525, 1477, 1475, 1523, 1526, 1478
924, 1475, 1523, 1526, 1478, 1476, 1524, 1527, 1479
925, 1477, 1525, 1528, 1480, 1478, 1526, 1529, 1481
926, 1478, 1526, 1529, 1481, 1479, 1527, 1530, 1482
927, 1480, 1528, 1531, 1483, 1481, 1529, 1532, 1484
928, 1481, 1529, 1532, 1484, 1482, 1530, 1533, 1485
929, 1483, 1531, 1534, 1486, 1484, 1532, 1535, 1487
930, 1484, 1532, 1535, 1487, 1485, 1533, 1536, 1488
931, 1489, 1537, 1538, 1490, 1491, 1539, 1540, 1492
932, 1491, 1539, 1540, 1492, 1493, 1541, 1542, 1494
933, 1493, 1541, 1542, 1494, 1495, 1543, 1544, 1496
934, 1495, 1543, 1544, 1496, 1497, 1545, 1546, 1498
935, 1497, 1545, 1546, 1498, 1499, 1547, 1548, 1500
936, 1490, 1538, 1549, 1501, 1492, 1540, 1550, 1502
937, 1492, 1540, 1550, 1502, 1494, 1542, 1551, 1503
938, 1494, 1542, 1551, 1503, 1496, 1544, 1552, 1504
939, 1496, 1544, 1552, 1504, 1498, 1546, 1553, 1505
940, 1498, 1546, 1553, 1505, 1500, 1548, 1554, 1506
941, 1507, 1555, 1556, 1508, 1509, 1557, 1558, 1510
942, 1509, 1557, 1558, 1510, 1511, 1559, 1560, 1512
943, 1508, 1556, 1561, 1513, 1510, 1558, 1562, 1514
944, 1510, 1558, 1562, 1514, 1512, 1560, 1563, 1515
945, 1513, 1561, 1564, 1516, 1514, 1562, 1565, 1517
946, 1514, 1562, 1565, 1517, 1515, 1563, 1566, 1518
947, 1516, 1564, 1547, 1499, 1517, 1565, 1567, 1519
948, 1517, 1565, 1567, 1519, 1518, 1566, 1568, 1520
949, 1499, 1547, 1548, 1500, 1519, 1567, 1569, 1521
950, 1519, 1567, 1569, 1521, 1520, 1568, 1570, 1522
951, 1500, 1548, 1554, 1506, 1521, 1569, 1571, 1523
952, 1521, 1569, 1571, 1523, 1522, 1570, 1572, 1524
953, 1506, 1554, 1573, 1525, 1523, 1571, 1574, 1526
954, 1523, 1571, 1574, 1526, 1524, 1572, 1575, 1527
955, 1525, 1573, 1576, 1528, 1526, 1574, 1577, 1529
956, 1526, 1574, 1577, 1529, 1527, 1575, 1578, 1530
957, 1528, 1576, 1579, 1531, 1529, 1577, 1580, 1532
958, 1529, 1577, 1580, 1532, 1530, 1578, 1581, 1533
959, 1531, 1579, 1582, 1534, 1532, 1580, 1583, 1535
960, 1532, 1580, 1583, 1535, 1533, 1581, 1584, 1536
961, 1537, 1585, 1586, 1538, 1539, 1587, 1588, 1540
962, 1539, 1587, 1588, 1540, 1541, 1589, 1590, 1542
963, 1541, 1589, 1590, 1542, 1543, 1591, 1592, 1544
964, 1543, 1591, 1592, 1544, 1545, 1593, 1594, 1546
965, 1545, 1593, 1594, 1546, 1547, 1595, 1596, 1548
966, 1538, 1586, 1597, 1549, 1540, 1588, 1598, 1550
967, 1540, 1588, 1598, 1550, 1542, 1590, 1599, 1551
968, 1542, 1590, 1599, 1551, 1544, 1592, 1600, 1552
969, 1544, 1592, 1600, 1552, 1546, 1594, 1601, 1553
970, 1546, 1594, 1601, 1553, 1548, 1596, 1602, 1554
971, 1555, 1603, 1604, 1556, 1557, 1605, 1606, 1558
972, 1557, 1605, 1606, 1558, 1559, 1607, 1608, 1560
973, 1556, 1604, 1609, 1561, 1558, 1606, 1610, 1562
974, 1558, 1606, 1610, 1562, 1560, 1608, 1611, 1563
975, 1561, 1609, 1612, 1564, 1562, 1610, 1613, 1565
976, 1562, 1610, 1613, 1565, 1563, 1611, 1614, 1566
977, 1564, 1612, 1595, 1547, 1565, 1613, 1615, 1567
978, 1565, 1613, 1615, 1567, 1566, 1614, 1616, 1568
979, 1547, 1595, 1596, 1548, 1567, 1615, 1617, 1569
980, 1567, 1615, 1617, 1569, 1568, 1616, 1618, 1570
981, 1548, 1596, 1602, 1554, 1569, 1617, 1619, 1571
982, 1569, 1617, 1619, 1571, 1570, 1618, 1620, 1572
983, 1554, 1602, 1621, 1573, 1571, 1619, 1622, 1574
984, 1571, 1619, 1622, 1574, 1572, 1620, 1623, 1575
985, 1573, 1621, 1624, 1576, 1574, 1622, 1625, 1577
986, 1574, 1622, 1625, 1577, 1575, 1623, 1626, 1578
987, 1576, 1624, 1627, 1579, 1577, 1625, 1628, 1580
988, 1577, 1625, 1628, 1580, 1578, 1626, 1629, 1581
989, 1579, 1627, 1630, 1582, 1580, 1628, 1631, 1583
990, 1580, 1628, 1631, 1583, 1581, 1629, 1632, 1584
991, 1585, 1633, 1634, 1586, 1587, 1635, 1636, 1588
992, 1587, 1635, 1636, 1588, 1589, 1637, 1638, 1590
993, 1589, 1637, 1638, 1590, 1591, 1639, 1640, 1592
994, 1591, 1639, 1640, 1592, 1593, 1641, 1642, 1594
995, 1593, 1641, 1642, 1594, 1595, 1643, 1644, 1596
996, 1586, 1634, 1645, 1597, 1588, 1636, 1646, 1598
997, 1588, 1636, 1646, 1598, 1590, 1638, 1647, 1599
998, 1590, 1638, 1647, 1599, 1592, 1640, 1648, 1600
999, 1592, 1640, 1648, 1600, 1594, 1642, 1649, 1601
1000, 1594, 1642, 1649, 1601, 1596, 1644, 1650, 1602
1001, 1603, 1651, 1652, 1604, 1605, 1653, 1654, 1606
1002, 1605, 1653, 1654, 1606, 1607, 1655, 1656, 1608
1003, 1604, 1652, 1657, 1609, 1606, 1654, 1658, 1610
1004, 1606, 1654, 1658, 1610, 1608, 1656, 1659, 1611
1005, 1609, 1657, 1660, 1612, 1610, 1658, 1661, 1613
1006, 1610, 1658, 1661, 1613, 1611, 1659, 1662, 1614
1007, 1612, 1660, 1643, 1595, 1613, 1661, 1663, 1615
1008, 1613, 1661, 1663, 1615, 1614, 1662, 1664, 1616
1009, 1595, 1643, 1644, 1596, 1615, 1663, 1665, 1617
1010, 1615, 1663, 1665, 1617, 1616, 1664, 1666, 1618
1011, 1596, 1644, 1650, 1602, 1617, 1665, 1667, 1619
1012, 1617, 1665, 1667, 1619, 1618, 1666, 1668, 1620
1013, 1602, 1650, 1669, 1621, 1619, 1667, 1670, 1622
1014, 1619, 1667, 1670, 1622, 1620, 1668, 1671, 1623
1015, 1621, 1669, 1672, 1624, 1622, 1670, 1673, 1625
1016, 1622, 1670, 1673, 1625, 1623, 1671, 1674, 1626
1017, 1624, 1672, 1675, 1627, 1625, 1673, 1676, 1628
1018, 1625, 1673, 1676, 1628, 1626, 1674, 1677, 1629
1019, 1627, 1675, 1678, 1630, 1628, 1676, 1679, 1631
1020, 1628, 1676, 1679, 1631, 1629, 1677, 1680, 1632
1021, 1633, 1681, 1682, 1634, 1635, 1683, 1684, 1636
1022, 1635, 1683, 1684, 1636, 1637, 1685, 1686, 1638
1023, 1637, 1685, 1686, 1638, 1639, 1687, 1688, 1640
1024, 1639, 1687, 1688, 1640, 1641, 1689, 1690, 1642
1025, 1641, 1689, 1690, 1642, 1643, 1691, 1692, 1644
1026, 1634, 1682, 1693, 1645, 1636, 1684, 1694, 1646
1027, 1636, 1684, 1694, 1646, 1638, 1686, 1695, 1647
1028, 1638, 1686, 1695, 1647, 1640, 1688, 1696, 1648
1029, 1640, 1688, 1696, 1648, 1642, 1690, 1697, 1649
1030, 1642, 1690, 1697, 1649, 1644, 1692, 1698, 1650
1031, 1651, 1699, 1700, 1652, 1653, 1701, 1702, 1654
1032, 1653, 1701, 1702, 1654, 1655, 1703, 1704, 1656
1033, 1652, 1700, 1705, 1657, 1654, 1702, 1706, 1658
1034, 1654, 1702, 1706, 1658, 1656, 1704, 1707, 1659
1035, 1657, 1705, 1708, 1660, 1658, 1706, 1709, 1661
1036, 1658, 1706, 1709, 1661, 1659, 1707, 1710, 1662
1037, 1660, 1708, 1691, 1643, 1661, 1709, 1711, 1663
1038, 1661, 1709, 1711, 1663, 1662, 1710, 1712, 1664
1039, 1643, 1691, 1692, 1644, 1663, 1711, 1713, 1665
1040, 1663, 1711, 1713, 1665, 1664, 1712, 1714, 1666
1041, 1644, 1692, 1698, 1650, 1665, 1713, 1715, 1667
1042, 1665, 1713, 1715, 1667, 1666, 1714, 1716, 1668
1043, 1650, 1698, 1717, 1669, 1667, 1715, 1718, 1670
1044, 1667, 1715, 1718, 1670, 1668, 1716, 1719, 1671
1045, 1669, 1717, 1720, 1672, 1670, 1718, 1721, 1673
1046, 1670, 1718, 1721, 1673, 1671, 1719, 1722, 1674
1047, 1672, 1720, 1723, 1675, 1673, 1721, 1724, 1676
1048, 1673, 1721, 1724, 1676, 1674, 1722, 1725, 1677
1049, 1675, 1723, 1726, 1678, 1676, 1724, 1727, 1679
1050, 1676, 1724, 1727, 1679, 1677, 1725, 1728, 1680
1051, 1681, 1729, 1730, 1682, 1683, 1731, 1732, 1684
1052, 1683, 1731, 1732, 1684, 1685, 1733, 1734, 1686
1053, 1685, 1733, 1734, 1686, 1687, 1735, 1736, 1688
1054, 1687, 1735, 1736, 1688, 1689, 1737, 1738, 1690
1055, 1689, 1737, 1738, 1690, 1691, 1739, 1740, 1692
1056, 1682, 1730, 1741, 1693, 1684, 1732, 1742, 1694
1057, 1684, 1732, 1742, 1694, 1686, 1734, 1743, 1695
1058, 1686, 1734, 1743, 1695, 1688, 1736, 1744, 1696
1059, 1688, 1736, 1744, 1696, 1690, 1738, 1745, 1697
1060, 1690, 1738, 1745, 1697, 1692, 1740, 1746, 1698
1061, 1699, 1747, 1748, 1700, 1701, 1749, 1750, 1702
1062, 1701, 1749, 1750, 1702, 1703, 1751, 1752, 1704
1063, 1700, 1748, 1753, 1705, 1702, 1750, 1754, 1706
1064, 1702, 1750, 1754, 1706, 1704, 1752, 1755, 1707
1065, 1705, 1753, 1756, 1708, 1706, 1754, 1757, 1709
1066, 1706, 1754, 1757, 1709, 1707, 1755, 1758, 1710
1067, 1708, 1756, 1739, 1691, 1709, 1757, 1759, 1711
1068, 1709, 1757, 1759, 1711, 1710, 1758, 1760, 1712
1069, 1691, 1739, 1740, 1692, 1711, 1759, 1761, 1713
1070, 1711, 1759, 1761, 1713, 1712, 1760, 1762, 1714
1071, 1692, 1740, 1746, 1698, 1713, 1761, 1763, 1715
1072, 1713, 1761, 1763, 1715, 1714, 1762, 1764, 1716
1073, 1698, 1746, 1765, 1717, 1715, 1763, 1766, 1718
1074, 1715, 1763, 1766, 1718, 1716, 1764, 1767, 1719
1075, 1717, 1765, 1768, 1720, 1718, 1766, 1769, 1721
1076, 1718, 1766, 1769, 1721, 1719, 1767, 1770, 1722
1077, 1720, 1768, 1771, 1723, 1721, 1769, 1772, 1724
1078, 1721, 1769, 1772, 1724, 1722, 1770, 1773, 1725
1079, 1723, 1771, 1774, 1726, 1724, 1772, 1775, 1727
1080, 1724, 1772, 1775, 1727, 1725, 1773, 1776, 1728
1081, 1729, 1777, 1778, 1730, 1731, 1779, 1780, 1732
1082, 1731, 1779, 1780, 1732, 1733, 1781, 1782, 1734
1083, 1733, 1781, 1782, 1734, 1735, 1783, 1784, 1736
1084, 1735, 1783, 1784, 1736, 1737, 1785, 1786, 1738
1085, 1737, 1785, 1786, 1738, 1739, 1787, 1788, 1740
1086, 1730, 1778, 1789, 1741, 1732, 1780, 1790, 1742
1087, 1732, 1780, 1790, 1742, 1734, 1782, 1791, 1743
1088, 1734, 1782, 1791, 1743, 1736, 1784, 1792, 1744
1089, 1736, 1784, 1792, 1744, 1738, 1786, 1793, 1745
1090, 1738, 1786, 1793, 1745, 1740, 1788, 1794, 1746
1091, 1747, 1795, 1796, 1748, 1749, 1797, 1798, 1750
1092, 1749, 1797, 1798, 1750, 1751, 1799, 1800, 1752
1093, 1748, 1796, 1801, 1753, 1750, 1798, 1802, 1754
1094, 1750, 1798, 1802, 1754, 1752, 1800, 1803, 1755
1095, 1753, 1801, 1804, 1756, 1754, 1802, 1805, 1757
1096, 1754, 1802, 1805, 1757, 1755, 1803, 1806, 1758
1097, 1756, 1804, 1787, 1739, 1757, 1805, 1807, 1759
1098, 1757, 1805, 1807, 1759, 1758, 1806, 1808, 1760
1099, 1739, 1787, 1788, 1740, 1759, 1807, 1809, 1761
1100, 1759, 1807, 1809, 1761, 1760, 1808, 1810, 1762
1101, 1740, 1788, 1794, 1746, 1761, 1809, 1811, 1763
1102, 1761, 1809, 1811, 1763, 1762, 1810, 1812, 1764
1103, 1746, 1794, 1813, 1765, 1763, 1811, 1814, 1766
1104, 1763, 1811, 1814, 1766, 1764, 1812, 1815, 1767
1105, 1765, 1813, 1816, 1768, 1766, 1814, 1817, 1769
1106, 1766, 1814, 1817, 1769, 1767, 1815, 1818, 1770
1107, 1768, 1816, 1819, 1771, 1769, 1817, 1820, 1772
1108, 1769, 1817, 1820, 1772, 1770, 1818, 1821, 1773
1109, 1771, 1819, 1822, 1774, 1772, 1820, 1823, 1775
1110, 1772, 1820, 1823, 1775, 1773, 1821, 1824, 1776
1111, 1777, 1825, 1826, 1778, 1779, 1827, 1828, 1780
1112, 1779, 1827, 1828, 1780, 1781, 1829, 1830, 1782
1113, 1781, 1829, 1830, 1782, 1783, 1831, 1832, 1784
1114, 1783, 1831, 1832, 1784, 1785, 1833, 1834, 1786
1115, 1785, 1833, 1834, 1786, 1787, 1835, 1836, 1788
1116, 1778, 1826, 1837, 1789, 1780, 1828, 1838, 1790
1117, 1780, 1828, 1838, 1790, 1782, 1830, 1839, 1791
1118, 1782, 1830, 1839, 1791, 1784, 1832, 1840, 1792
1119, 1784, 1832, 1840, 1792, 1786, 1834, 1841, 1793
1120, 1786, 1834, 1841, 1793, 1788, 1836, 1842, 1794
1121, 1795, 1843, 1844, 1796, 1797, 1845, 1846, 1798
1122, 1797, 1845, 1846, 1798, 1799, 1847, 1848, 1800
1123, 1796, 1844, 1849, 1801, 1798, 1846, 1850, 1802
1124, 1798, 1846, 1850, 1802, 1800, 1848, 1851, 1803
1125, 1801, 1849, 1852, 1804, 1802, 1850, 1853, 1805
1126, 1802, 1850, 1853, 1805, 1803, 1851, 1854, 1806
1127, 1804, 1852, 1835, 1787, 1805, 1853, 1855, 1807
1128, 1805, 1853, 1855, 1807, 1806, 1854, 1856, 1808
1129, 1787, 1835, 1836, 1788, 1807, 1855, 1857, 1809
1130, 1807, 1855, 1857, 1809, 1808, 1856, 1858, 1810
1131, 1788, 1836, 1842, 1794, 1809, 1857, 1859, 1811
1132, 1809, 1857, 1859, 1811, 1810, 1858, 1860, 1812
1133, 1794, 1842, 1861, 1813, 1811, 1859, 1862, 1814
1134, 1811, 1859, 1862, 1814, 1812, 1860, 1863, 1815
1135, 1813, 1861, 1864, 1816, 1814, 1862, 1865, 1817
1136, 1814, 1862, 1865, 1817, 1815, 1863, 1866, 1818
1137, 1816, 1864, 1867, 1819, 1817, 1865, 1868, 1820
1138, 1817, 1865, 1868, 1820, 1818, 1866, 1869, 1821
1139, 1819, 1867, 1870, 1822, 1820, 1868, 1871, 1823
1140, 1820, 1868, 1871, 1823, 1821, 1869, 1872, 1824
1141, 1825, 1873, 1874, 1826, 1827, 1875, 1876, 1828
1142, 1827, 1875, 1876, 1828, 1829, 1877, 1878, 1830
1143, 1829, 1877, 1878, 1830, 1831, 1879, 1880, 1832
1144, 1831, 1879, 1880, 1832, 1833, 1881, 1882, 1834
1145, 1833, 1881, 1882, 1834, 1835, 1883, 1884, 1836
1146, 1826, 1874, 1885, 1837, 1828, 1876, 1886, 1838
1147, 1828, 1876, 1886, 1838, 1830, 1878, 1887, 1839
1148, 1830, 1878, 1887, 1839, 1832, 1880, 1888, 1840
1149, 1832, 1880, 1888, 1840, 1834, 1882, 1889, 1841
1150, 1834, 1882, 1889, 1841, 1836, 1884, 1890, 1842
1151, 1843, 1891, 1892, 1844, 1845, 1893, 1894, 1846
1152, 1845, 1893, 1894, 1846, 1847, 1895, 1896, 1848
1153, 1844, 1892, 1897, 1849, 1846, 1894, 1898, 1850
1154, 1846, 1894, 1898, 1850, 1848, 1896, 1899, 1851
1155, 1849, 1897, 1900, 1852, 1850, 1898, 1901, 1853
1156, 1850, 1898, 1901, 1853, 1851, 1899, 1902, 1854
1157, 1852, 1900, 1883, 1835, 1853, 1901, 1903, 1855
1158, 1853, 1901, 1903, 1855, 1854, 1902, 1904, 1856
1159, 1835, 1883, 1884, 1836, 1855, 1903, 1905, 1857
1160, 1855, 1903, 1905, 1857, 1856, 1904, 1906, 1858
1161, 1836, 1884, 1890, 1842, 1857, 1905, 1907, 1859
1162, 1857, 1905, 1907, 1859, 1858, 1906, 1908, 1860
1163, 1842, 1890, 1909, 1861, 1859, 1907, 1910, 1862
1164, 1859, 1907, 1910, 1862, 1860, 1908, 1911, 1863
1165, 1861, 1909, 1912, 1864, 1862, 1910, 1913, 1865
1166, 1862, 1910, 1913, 1865, 1863, 1911, 1914, 1866
1167, 1864, 1912, 1915, 1867, 1865, 1913, 1916, 1868
1168, 1865, 1913, 1916, 1868, 1866, 1914, 1917, 1869
1169, 1867, 1915, 1918, 1870, 1868, 1916, 1919, 1871
1170, 1868, 1916, 1919, 1871, 1869, 1917, 1920, 1872
1171, 1873, 1921, 1922, 1874, 1875, 1923, 1924, 1876
1172, 1875, 1923, 1924, 1876, 1877, 1925, 1926, 1878
1173, 1877, 1925, 1926, 1878, 1879, 1927, 1928, 1880
1174, 1879, 1927, 1928, 1880, 1881, 1929, 1930, 1882
1175, 1881, 1929, 1930, 1882, 1883, 1931, 1932, 1884
1176, 1874, 1922, 1933, 1885, 1876, 1924, 1934, 1886
1177, 1876, 1924, 1934, 1886, 1878, 1926, 1935, 1887
1178, 1878, 1926, 1935, 1887, 1880, 1928, 1936, 1888
1179, 1880, 1928, 1936, 1888, 1882, 1930, 1937, 1889
1180, 1882, 1930, 1937, 1889, 1884, 1932, 1938, 1890
1181, 1891, 1939, 1940, 1892, 1893, 1941, 1942, 1894
1182, 1893, 1941, 1942, 1894, 1895, 1943, 1944, 1896
1183, 1892, 1940, 1945, 1897, 1894, 1942, 1946, 1898
1184, 1894, 1942, 1946, 1898, 1896, 1944, 1947, 1899
1185, 1897, 1945, 1948, 1900, 1898, 1946, 1949, 1901
1186, 1898, 1946, 1949, 1901, 1899, 1947, 1950, 1902
1187, 1900, 1948, 1931, 1883, 1901, 1949, 1951, 1903
1188, 1901, 1949, 1951, 1903, 1902, 1950, 1952, 1904
1189, 1883, 1931, 1932, 1884, 1903, 1951, 1953, 1905
1190, 1903, 1951, 1953, 1905, 1904, 1952, 1954, 1906
1191, 1884, 1932, 1938, 1890, 1905, 1953, 1955, 1907
1192, 1905, 1953, 1955, 1907, 1906, 1954, 1956, 1908
1193, 1890, 1938, 1957, 1909, 1907, 1955, 1958, 1910
1194, 1907, 1955, 1958, 1910, 1908, 1956, 1959, 1911
1195, 1909, 1957, 1960, 1912, 1910, 1958, 1961, 1913
1196, 1910, 1958, 1961, 1913, 1911, 1959, 1962, 1914
1197, 1912, 1960, 1963, 1915, 1913, 1961, 1964, 1916
1198, 1913, 1961, 1964, 1916, 1914, 1962, 1965, 1917
1199, 1915, 1963, 1966, 1918, 1916, 1964, 1967, 1919
1200, 1916, 1964, 1967, 1919, 1917, 1965, 1968, 1920
1201, 1921, 1969, 1970, 1922, 1923, 1971, 1972, 1924
1202, 1923, 1971, 1972, 1924, 1925, 1973, 1974, 1926
1203, 1925, 1973, 1974, 1926, 1927, 1975, 1976, 1928
1204, 1927, 1975, 1976, 1928, 1929, 1977, 1978, 1930
1205, 1929, 1977, 1978, 1930, 1931, 1979, 1980, 1932
1206, 1922, 1970, 1981, 1933, 1924, 1972, 1982, 1934
1207, 1924, 1972, 1982, 1934, 1926, 1974, 1983, 1935
1208, 1926, 1974, 1983, 1935, 1928, 1976, 1984, 1936
1209, 1928, 1976, 1984, 1936, 1930, 1978, 1985, 1937
1210, 1930, 1978, 1985, 1937, 1932, 1980, 1986, 1938
1211, 1939, 1987, 1988, 1940, 1941, 1989, 1990, 1942
1212, 1941, 1989, 1990, 1942, 1943, 1991, 1992, 1944
1213, 1940, 1988, 1993, 1945, 1942, 1990, 1994, 1946
1214, 1942, 1990, 1994, 1946, 1944, 1992, 1995, 1947
1215, 1945, 1993, 1996, 1948, 1946, 1994, 1997, 1949
1216, 1946, 1994, 1997, 1949, 1947, 1995, 1998, 1950
1217, 1948, 1996, 1979, 1931, 1949, 1997, 1999, 1951
1218, 1949, 1997, 1999, 1951, 1950, 1998, 2000, 1952
1219, 1931, 1979, 1980, 1932, 1951, 1999, 2001, 1953
1220, 1951, 1999, 2001, 1953, 1952, 2000, 2002, 1954
1221, 1932, 1980, 1986, 1938, 1953, 2001, 2003, 1955
1222, 1953, 2001, 2003, 1955, 1954, 2002, 2004, 1956
1223, 1938, 1986, 2005, 1957, 1955, 2003, 2006, 1958
1224, 1955, 2003, 2006, 1958, 1956, 2004, 2007, 1959
1225, 1957, 2005, 2008, 1960, 1958, 2006, 2009, 1961
1226, 1958, 2006, 2009, 1961, 1959, 2007, 2010, 1962
1227, 1960, 2008, 2011, 1963, 1961, 2009, 2012, 1964
1228, 1961, 2009, 2012, 1964, 1962, 2010, 2013, 1965
1229, 1963, 2011, 2014, 1966, 1964, 2012, 2015, 1967
1230, 1964, 2012, 2015, 1967, 1965, 2013, 2016, 1968
1231, 1969, 2017, 2018, 1970, 1971, 2019, 2020, 1972
1232, 1971, 2019, 2020, 1972, 1973, 2021, 2022, 1974
1233, 1973, 2021, 2022, 1974, 1975, 2023, 2024, 1976
1234, 1975, 2023, 2024, 1976, 1977, 2025, 2026, 1978
1235, 1977, 2025, 2026, 1978, 1979, 2027, 2028, 1980
1236, 1970, 2018, 2029, 1981, 1972, 2020, 2030, 1982
1237, 1972, 2020, 2030, 1982, 1974, 2022, 2031, 1983
1238, 1974, 2022, 2031, 1983, 1976, 2024, 2032, 1984
1239, 1976, 2024, 2032, 1984, 1978, 2026, 2033, 1985
1240, 1978, 2026, 2033, 1985, 1980, 2028, 2034, 1986
1241, 1987, 2035, 2036, 1988, 1989, 2037, 2038, 1990
1242, 1989, 2037, 2038, 1990, 1991, 2039, 2040, 1992
1243, 1988, 2036, 2041, 1993, 1990, 2038, 2042, 1994
1244, 1990, 2038, 2042, 1994, 1992, 2040, 2043, 1995
1245, 1993, 2041, 2044, 1996, 1994, 2042, 2045, 1997
1246, 1994, 2042, 2045, 1997, 1995, 2043, 2046, 1998
1247, 1996, 2044, 2027, 1979, 1997, 2045, 2047, 1999
1248, 1997, 2045, 2047, 1999, 1998, 2046, 2048, 2000
1249, 1979, 2027, 2028, 1980, 1999, 2047, 2049, 2001
1250, 1999, 2047, 2049, 2001, 2000, 2048, 2050, 2002
1251, 1980, 2028, 2034, 1986, 2001, 2049, 2051, 2003
1252, 2001, 2049, 2051, 2003, 2002, 2050, 2052, 2004
1253, 1986, 2034, 2053, 2005, 2003, 2051, 2054, 2006
1254, 2003, 2051, 2054, 2006, 2004, 2052, 2055, 2007
1255, 2005, 2053, 2056, 2008, 2006, 2054, 2057, 2009
1256, 2006, 2054, 2057, 2009, 2007, 2055, 2058, 2010
1257, 2008, 2056, 2059, 2011, 2009, 2057, 2060, 2012
1258, 2009, 2057, 2060, 2012, 2010, 2058, 2061, 2013
1259, 2011, 2059, 2062, 2014, 2012, 2060, 2063, 2015
1260, 2012, 2060, 2063, 2015, 2013, 2061, 2064, 2016
1261, 2017, 2065, 2066, 2018, 2019, 2067, 2068, 2020
1262, 2019, 2067, 2068, 2020, 2021, 2069, 2070, 2022
1263, 2021, 2069, 2070, 2022, 2023, 2071, 2072, 2024
1264, 2023, 2071, 2072, 2024, 2025, 2073, 2074, 2026
1265, 2025, 2073, 2074, 2026, 2027, 2075, 2076, 2028
1266, 2018, 2066, 2077, 2029, 2020, 2068, 2078, 2030
1267, 2020, 2068, 2078, 2030, 2022, 2070, 2079, 2031
1268, 2022, 2070, 2079, 2031, 2024, 2072, 2080, 2032
1269, 2024, 2072, 2080, 2032, 2026, 2074, 2081, 2033
1270, 2026, 2074, 2081, 2033, 2028, 2076, 2082, 2034
1271, 2035, 2083, 2084, 2036, 2037, 2085, 2086, 2038
1272, 2037, 2085, 2086, 2038, 2039, 2087, 2088, 2040
1273, 2036, 2084, 2089, 2041, 2038, 2086, 2090, 2042
1274, 2038, 2086, 2090, 2042, 2040, 2088, 2091, 2043
1275, 2041, 2089, 2092, 2044, 2042, 2090, 2093, 2045
1276, 2042, 2090, 2093, 2045, 2043, 2091, 2094, 2046
1277, 2044, 2092, 2075, 2027, 2045, 2093, 2095, 2047
1278, 2045, 2093, 2095, 2047, 2046, 2094, 2096, 2048
1279, 2027, 2075, 2076, 2028, 2047, 2095, 2097, 2049
1280, 2047, 2095, 2097, 2049, 2048, 2096, 2098, 2050
1281, 2028, 2076, 2082, 2034, 2049, 2097, 2099, 2051
1282, 2049, 2097, 2099, 2051, 2050, 2098, 2100, 2052
1283, 2034, 2082, 2101, 2053, 2051, 2099, 2102, 2054
1284, 2051, 2099, 2102, 2054, 2052, 2100, 2103, 2055
1285, 2053, 2101, 2104, 2056, 2054, 2102, 2105, 2057
1286, 2054, 2102, 2105, 2057, 2055, 2103, 2106, 2058
1287, 2056, 2104, 2107, 2059, 2057, 2105, 2108, 2060
1288, 2057, 2105, 2108, 2060, 2058, 2106, 2109, 2061
1289, 2059, 2107, 2110, 2062, 2060, 2108, 2111, 2063
1290, 2060, 2108, 2111, 2063, 2061, 2109, 2112, 2064
1291, 2065, 2113, 2114, 2066, 2067, 2115, 2116, 2068
1292, 2067, 2115, 2116, 2068, 2069, 2117, 2118, 2070
1293, 2069, 2117, 2118, 2070, 2071, 2119, 2120, 2072
1294, 2071, 2119, 2120, 2072, 2073, 2121, 2122, 2074
1295, 2073, 2121, 2122, 2074, 2075, 2123, 2124, 2076
1296, 2066, 2114, 2125, 2077, 2068, 2116, 2126, 2078
1297, 2068, 2116, 2126, 2078, 2070, 2118, 2127, 2079
1298, 2070, 2118, 2127, 2079, 2072, 2120, 2128, 2080
1299, 2072, 2120, 2128, 2080, 2074, 2122, 2129, 2081
1300, 2074, 2122, 2129, 2081, 2076, 2124, 2130, 2082
1301, 2083, 2131, 2132, 2084, 2085, 2133, 2134, 2086
1302, 2085, 2133, 2134, 2086, 2087, 2135, 2136, 2088
1303, 2084, 2132, 2137, 2089, 2086, 2134, 2138, 2090
1304, 2086, 2134, 2138, 2090, 2088, 2136, 2139, 2091
1305, 2089, 2137, 2140, 2092, 2090, 2138, 2141, 2093
1306, 2090, 2138, 2141, 2093, 2091, 2139, 2142, 2094
1307, 2092, 2140, 2123, 2075, 2093, 2141, 2143, 2095
1308, 2093, 2141, 2143, 2095, 2094, 2142, 2144, 2096
1309, 2075, 2123, 2124, 2076, 2095, 2143, 2145, 2097
1310, 2095, 2143, 2145, 2097, 2096, 2144, 2146, 2098
1311, 2076, 2124, 2130, 2082, 2097, 2145, 2147, 2099
1312, 2097, 2145, 2147, 2099, 2098, 2146, 2148, 2100
1313, 2082, 2130, 2149, 2101, 2099, 2147, 2150, 2102
1314, 2099, 2147, 2150, 2102, 2100, 2148, 2151, 2103
1315, 2101, 2149, 2152, 2104, 2102, 2150, 2153, 2105
1316, 2102, 2150, 2153, 2105, 2103, 2151, 2154, 2106
1317, 2104, 2152, 2155, 2107, 2105, 2153, 2156, 2108
1318, 2105, 2153, 2156, 2108, 2106, 2154, 2157, 2109
1319, 2107, 2155, 2158, 2110, 2108, 2156, 2159, 2111
1320, 2108, 2156, 2159, 2111, 2109, 2157, 2160, 2112
1321, 2113, 2161, 2162, 2114, 2115, 2163, 2164, 2116
1322, 2115, 2163, 2164, 2116, 2117, 2165, 2166, 2118
1323, 2117, 2165, 2166, 2118, 2119, 2167, 2168, 2120
1324, 2119, 2167, 2168, 2120, 2121, 2169, 2170, 2122
1325, 2121, 2169, 2170, 2122, 2123, 2171, 2172, 2124
1326, 2114, 2162, 2173, 2125, 2116, 2164, 2174, 2126
1327, 2116, 2164, 2174, 2126, 2118, 2166, 2175, 2127
1328, 2118, 2166, 2175, 2127, 2120, 2168, 2176, 2128
1329, 2120, 2168, 2176, 2128, 2122, 2170, 2177, 2129
1330, 2122, 2170, 2177, 2129, 2124, 2172, 2178, 2130
1331, 2131, 2179, 2180, 2132, 2133, 2181, 2182, 2134
1332, 2133, 2181, 2182, 2134, 2135, 2183, 2184, 2136
1333, 2132, 2180, 2185, 2137, 2134, 2182, 2186, 2138
1334, 2134, 2182, 2186, 2138, 2136, 2184, 2187, 2139
1335, 2137, 2185, 2188, 2140, 2138, 2186, 2189, 2141
1336, 2138, 2186, 2189, 2141, 2139, 2187, 2190, 2142
1337, 2140, 2188, 2171, 2123, 2141, 2189, 2191, 2143
1338, 2141, 2189, 2191, 2143, 2142, 2190, 2192, 2144
1339, 2123, 2171, 2172, 2124, 2143, 2191, 2193, 2145
1340, 2143, 2191, 2193, 2145, 2144, 2192, 2194, 2146
1341, 2124, 2172, 2178, 2130, 2145, 2193, 2195, 2147
1342, 2145, 2193, 2195, 2147, 2146, 2194, 2196, 2148
1343, 2130, 2178, 2197, 2149, 2147, 2195, 2198, 2150
1344, 2147, 2195, 2198, 2150, 2148, 2196, 2199, 2151
1345, 2149, 2197, 2200, 2152, 2150, 2198, 2201, 2153
1346, 2150, 2198, 2201, 2153, 2151, 2199, 2202, 2154
1347, 2152, 2200, 2203, 2155, 2153, 2201, 2204, 2156
1348, 2153, 2201, 2204, 2156, 2154, 2202, 2205, 2157
1349, 2155, 2203, 2206, 2158, 2156, 2204, 2207, 2159
1350, 2156, 2204, 2207, 2159, 2157, 2205, 2208, 2160
1351, 2161, 2209, 2210, 2162, 2163, 2211, 2212, 2164
1352, 2163, 2211, 2212, 2164, 2165, 2213, 2214, 2166
1353, 2165, 2213, 2214, 2166, 2167, 2215, 2216, 2168
1354, 2167, 2215, 2216, 2168, 2169, 2217, 2218, 2170
1355, 2169, 2217, 2218, 2170, 2171, 2219, 2220, 2172
1356, 2162, 2210, 2221, 2173, 2164, 2212, 2222, 2174
1357, 2164, 2212, 2222, 2174, 2166, 2214, 2223, 2175
1358, 2166, 2214, 2223, 2175, 2168, 2216, 2224, 2176
1359, 2168, 2216, 2224, 2176, 2170, 2218, 2225, 2177
1360, 2170, 2218, 2225, 2177, 2172, 2220, 2226, 2178
1361, 2179, 2227, 2228, 2180, 2181, 2229, 2230, 2182
1362, 2181, 2229, 2230, 2182, 2183, 2231, 2232, 2184
1363, 2180, 2228, 2233, 2185, 2182, 2230, 2234, 2186
1364, 2182, 2230, 2234, 2186, 2184, 2232, 2235, 2187
1365, 2185, 2233, 2236, 2188, 2186, 2234, 2237, 2189
1366, 2186, 2234, 2237, 2189, 2187, 2235, 2238, 2190
1367, 2188, 2236, 2219, 2171, 2189, 2237, 2239, 2191
1368, 2189, 2237, 2239, 2191, 2190, 2238, 2240, 2192
1369, 2171, 2219, 2220, 2172, 2191, 2239, 2241, 2193
1370, 2191, 2239, 2241, 2193, 2192, 2240, 2242, 2194
1371, 2172, 2220, 2226, 2178, 2193, 2241, 2243, 2195
1372, 2193, 2241, 2243, 2195, 2194, 2242, 2244, 2196
1373, 2178, 2226, 2245, 2197, 2195, 2243, 2246, 2198
1374, 2195, 2243, 2246, 2198, 2196, 2244, 2247, 2199
1375, 2197, 2245, 2248, 2200, 2198, 2246, 2249, 2201
1376, 2198, 2246, 2249, 2201, 2199, 2247, 2250, 2202
1377, 2200, 2248, 2251, 2203, 2201, 2249, 2252, 2204
1378, 2201, 2249, 2252, 2204, 2202, 2250, 2253, 2205
1379, 2203, 2251, 2254, 2206, 2204, 2252, 2255, 2207
1380, 2204, 2252, 2255, 2207, 2205, 2253, 2256, 2208
1381, 2209, 2257, 2258, 2210, 2211, 2259, 2260, 2212
1382, 2211, 2259, 2260, 2212, 2213, 2261, 2262, 2214
1383, 2213, 2261, 2262, 2214, 2215, 2263, 2264, 2216
1384, 2215, 2263, 2264, 2216, 2217, 2265, 2266, 2218
1385, 2217, 2265, 2266, 2218, 2219, 2267, 2268, 2220
1386, 2210, 2258, 2269, 2221, 2212, 2260, 2270, 2222
1387, 2212, 2260, 2270, 2222, 2214, 2262, 2271, 2223
1388, 2214, 2262, 2271, 2223, 2216, 2264, 2272, 2224
1389, 2216, 2264, 2272, 2224, 2218, 2266, 2273, 2225
1390, 2218, 2266, 2273, 2225, 2220, 2268, 2274, 2226
1391, 2227, 2275, 2276, 2228, 2229, 2277, 2278, 2230
1392, 2229, 2277, 2278, 2230, 2231, 2279, 2280, 2232
1393, 2228, 2276, 2281, 2233, 2230, 2278, 2282, 2234
1394, 2230, 2278, 2282, 2234, 2232, 2280, 2283, 2235
1395, 2233, 2281, 2284, 2236, 2234, 2282, 2285, 2237
1396, 2234, 2282, 2285, 2237, 2235, 2283, 2286, 2238
1397, 2236, 2284, 2267, 2219, 2237, 2285, 2287, 2239
1398, 2237, 2285, 2287, 2239, 2238, 2286, 2288, 2240
1399, 2219, 2267, 2268, 2220, 2239, 2287, 2289, 2241
1400, 2239, 2287, 2289, 2241, 2240, 2288, 2290, 2242
1401, 2220, 2268, 2274, 2226, 2241, 2289, 2291, 2243
1402, 2241, 2289, 2291, 2243, 2242, 2290, 2292, 2244
1403, 2226, 2274, 2293, 2245, 2243, 2291, 2294, 2246
1404, 2243, 2291, 2294, 2246, 2244, 2292, 2295, 2247
1405, 2245, 2293, 2296, 2248, 2246, 2294, 2297, 2249
1406, 2246, 2294, 2297, 2249, 2247, 2295, 2298, 2250
1407, 2248, 2296, 2299, 2251, 2249, 2297, 2300, 2252
1408, 2249, 2297, 2300, 2252, 2250, 2298, 2301, 2253
1409, 2251, 2299, 2302, 2254, 2252, 2300, 2303, 2255
1410, 2252, 2300, 2303, 2255, 2253, 2301, 2304, 2256
1411, 2257, 2305, 2306, 2258, 2259, 2307, 2308, 2260
1412, 2259, 2307, 2308, 2260, 2261, 2309, 2310, 2262
1413, 2261, 2309, 2310, 2262, 2263, 2311, 2312, 2264
1414, 2263, 2311, 2312, 2264, 2265, 2313, 2314, 2266
1415, 2265, 2313, 2314, 2266, 2267, 2315, 2316, 2268
1416, 2258, 2306, 2317, 2269, 2260, 2308, 2318, 2270
1417, 2260, 2308, 2318, 2270, 2262, 2310, 2319, 2271
1418, 2262, 2310, 2319, 2271, 2264, 2312, 2320, 2272
1419, 2264, 2312, 2320, 2272, 2266, 2314, 2321, 2273
1420, 2266, 2314, 2321, 2273, 2268, 2316, 2322, 2274
1421, 2275, 2323, 2324, 2276, 2277, 2325, 2326, 2278
1422, 2277, 2325, 2326, 2278, 2279, 2327, 2328, 2280
1423, 2276, 2324, 2329, 2281, 2278, 2326, 2330, 2282
1424, 2278, 2326, 2330, 2282, 2280, 2328, 2331, 2283
1425, 2281, 2329, 2332, 2284, 2282, 2330, 2333, 2285
1426, 2282, 2330, 2333, 2285, 2283, 2331, 2334, 2286
1427, 2284, 2332, 2315, 2267, 2285, 2333, 2335, 2287
1428, 2285, 2333, 2335, 2287, 2286, 2334, 2336, 2288
1429, 2267, 2315, 2316, 2268, 2287, 2335, 2337, 2289
1430, 2287, 2335, 2337, 2289, 2288, 2336, 2338, 2290
1431, 2268, 2316, 2322, 2274, 2289, 2337, 2339, 2291
1432, 2289, 2337, 2339, 2291, 2290, 2338, 2340, 2292
1433, 2274, 2322, 2341, 2293, 2291, 2339, 2342, 2294
1434, 2291, 2339, 2342, 2294, 2292, 2340, 2343, 2295
1435, 2293, 2341, 2344, 2296, 2294, 2342, 2345, 2297
1436, 2294, 2342, 2345, 2297, 2295, 2343, 2346, 2298
1437, 2296, 2344, 2347, 2299, 2297, 2345, 2348, 2300
1438, 2297, 2345, 2348, 2300, 2298, 2346, 2349, 2301
1439, 2299, 2347, 2350, 2302, 2300, 2348, 2351, 2303
1440, 2300, 2348, 2351, 2303, 2301, 2349, 2352, 2304
1441, 2305, 2353, 2354, 2306, 2307, 2355, 2356, 2308
1442, 2307, 2355, 2356, 2308, 2309, 2357, 2358, 2310
1443, 2309, 2357, 2358, 2310, 2311, 2359, 2360, 2312
1444, 2311, 2359, 2360, 2312, 2313, 2361, 2362, 2314
1445, 2313, 2361, 2362, 2314, 2315, 2363, 2364, 2316
1446, 2306, 2354, 2365, 2317, 2308, 2356, 2366, 2318
1447, 2308, 2356, 2366, 2318, 2310, 2358, 2367, 2319
1448, 2310, 2358, 2367, 2319, 2312, 2360, 2368, 2320
1449, 2312, 2360, 2368, 2320, 2314, 2362, 2369, 2321
1450, 2314, 2362, 2369, 2321, 2316, 2364, 2370, 2322
1451, 2323, 2371, 2372, 2324, 2325, 2373, 2374, 2326
1452, 2325, 2373, 2374, 2326, 2327, 2375, 2376, 2328
1453, 2324, 2372, 2377, 2329, 2326, 2374, 2378, 2330
1454, 2326, 2374, 2378, 2330, 2328, 2376, 2379, 2331
1455, 2329, 2377, 2380, 2332, 2330, 2378, 2381, 2333
1456, 2330, 2378, 2381, 2333, 2331, 2379, 2382, 2334
1457, 2332, 2380, 2363, 2315, 2333, 2381, 2383, 2335
1458, 2333, 2381, 2383, 2335, 2334, 2382, 2384, 2336
1459, 2315, 2363, 2364, 2316, 2335, 2383, 2385, 2337
1460, 2335, 2383, 2385, 2337, 2336, 2384, 2386, 2338
1461, 2316, 2364, 2370, 2322, 2337, 2385, 2387, 2339
1462, 2337, 2385, 2387, 2339, 2338, 2386, 2388, 2340
1463, 2322, 2370, 2389, 2341, 2339, 2387, 2390, 2342
1464, 2339, 2387, 2390, 2342, 2340, 2388, 2391, 2343
1465, 2341, 2389, 2392, 2344, 2342, 2390, 2393, 2345
1466, 2342, 2390, 2393, 2345, 2343, 2391, 2394, 2346
1467, 2344, 2392, 2395, 2347, 2345, 2393, 2396, 2348
1468, 2345, 2393, 2396, 2348, 2346, 2394, 2397, 2349
1469, 2347, 2395, 2398, 2350, 2348, 2396, 2399, 2351
1470, 2348, 2396, 2399, 2351, 2349, 2397, 2400, 2352
1471, 2353, 2401, 2402, 2354, 2355, 2403, 2404, 2356
1472, 2355, 2403, 2404, 2356, 2357, 2405, 2406, 2358
1473, 2357, 2405, 2406, 2358, 2359, 2407, 2408, 2360
1474, 2359, 2407, 2408, 2360, 2361, 2409, 2410, 2362
1475, 2361, 2409, 2410, 2362, 2363, 2411, 2412, 2364
1476, 2354, 2402, 2413, 2365, 2356, 2404, 2414, 2366
1477, 2356, 2404, 2414, 2366, 2358, 2406, 2415, 2367
1478, 2358, 2406, 2415, 2367, 2360, 2408, 2416, 2368
1479, 2360, 2408, 2416, 2368, 2362, 2410, 2417, 2369
1480, 2362, 2410, 2417, 2369, 2364, 2412, 2418, 2370
1481, 2371, 2419, 2420, 2372, 2373, 2421, 2422, 2374
1482, 2373, 2421, 2422, 2374, 2375, 2423, 2424, 2376
1483, 2372, 2420, 2425, 2377, 2374, 2422, 2426, 2378
1484, 2374, 2422, 2426, 2378, 2376, 2424, 2427, 2379
1485, 2377, 2425, 2428, 2380, 2378, 2426, 2429, 2381
1486, 2378, 2426, 2429, 2381, 2379, 2427, 2430, 2382
1487, 2380, 2428, 2411, 2363, 2381, 2429, 2431, 2383
1488, 2381, 2429, 2431, 2383, 2382, 2430, 2432, 2384
1489, 2363, 2411, 2412, 2364, 2383, 2431, 2433, 2385
1490, 2383, 2431, 2433, 2385, 2384, 2432, 2434, 2386
1491, 2364, 2412, 2418, 2370, 2385, 2433, 2435, 2387
1492, 2385, 2433, 2435, 2387, 2386, 2434, 2436, 2388
1493, 2370, 2418, 2437, 2389, 2387, 2435, 2438, 2390
1494, 2387, 2435, 2438, 2390, 2388, 2436, 2439, 2391
1495, 2389, 2437, 2440, 2392, 2390, 2438, 2441, 2393
1496, 2390, 2438, 2441, 2393, 2391, 2439, 2442, 2394
1497, 2392, 2440, 2443, 2395, 2393, 2441, 2444, 2396
1498, 2393, 2441, 2444, 2396, 2394, 2442, 2445, 2397
1499, 2395, 2443, 2446, 2398, 2396, 2444, 2447, 2399
1500, 2396, 2444, 2447, 2399, 2397, 2445, 2448, 2400
1501, 2401, 2449, 2450, 2402, 2403, 2451, 2452, 2404
1502, 2403, 2451, 2452, 2404, 2405, 2453, 2454, 2406
1503, 2405, 2453, 2454, 2406, 2407, 2455, 2456, 2408
1504, 2407, 2455, 2456, 2408, 2409, 2457, 2458, 2410
1505, 2409, 2457, 2458, 2410, 2411, 2459, 2460, 2412
1506, 2402, 2450, 2461, 2413, 2404, 2452, 2462, 2414
1507, 2404, 2452, 2462, 2414, 2406, 2454, 2463, 2415
1508, 2406, 2454, 2463, 2415, 2408, 2456, 2464, 2416
1509, 2408, 2456, 2464, 2416, 2410, 2458, 2465, 2417
1510, 2410, 2458, 2465, 2417, 2412, 2460, 2466, 2418
1511, 2419, 2467, 2468, 2420, 2421, 2469, 2470, 2422
1512, 2421, 2469, 2470, 2422, 2423, 2471, 2472, 2424
1513, 2420, 2468, 2473, 2425, 2422, 2470, 2474, 2426
1514, 2422, 2470, 2474, 2426, 2424, 2472, 2475, 2427
1515, 2425, 2473, 2476, 2428, 2426, 2474, 2477, 2429
1516, 2426, 2474, 2477, 2429, 2427, 2475, 2478, 2430
1517, 2428, 2476, 2459, 2411, 2429, 2477, 2479, 2431
1518, 2429, 2477, 2479, 2431, 2430, 2478, 2480, 2432
1519, 2411, 2459, 2460, 2412, 2431, 2479, 2481, 2433
1520, 2431, 2479, 2481, 2433, 2432, 2480, 2482, 2434
1521, 2412, 2460, 2466, 2418, 2433, 2481, 2483, 2435
1522, 2433, 2481, 2483, 2435, 2434, 2482, 2484, 2436
1523, 2418, 2466, 2485, 2437, 2435, 2483, 2486, 2438
1524, 2435, 2483, 2486, 2438, 2436, 2484, 2487, 2439
1525, 2437, 2485, 2488, 2440, 2438, 2486, 2489, 2441
1526, 2438, 2486, 2489, 2441, 2439, 2487, 2490, 2442
1527, 2440, 2488, 2491, 2443, 2441, 2489, 2492, 2444
1528, 2441, 2489, 2492, 2444, 2442, 2490, 2493, 2445
1529, 2443, 2491, 2494, 2446, 2444, 2492, 2495, 2447
1530, 2444, 2492, 2495, 2447, 2445, 2493, 2496, 2448
1531, 2449, 2497, 2498, 2450, 2451, 2499, 2500, 2452
1532, 2451, 2499, 2500, 2452, 2453, 2501, 2502, 2454
1533, 2453, 2501, 2502, 2454, 2455, 2503, 2504, 2456
1534, 2455, 2503, 2504, 2456, 2457, 2505, 2506, 2458
1535, 2457, 2505, 2506, 2458, 2459, 2507, 2508, 2460
1536, 2450, 2498, 2509, 2461, 2452, 2500, 2510, 2462
1537, 2452, 2500, 2510, 2462, 2454, 2502, 2511, 2463
1538, 2454, 2502, 2511, 2463, 2456, 2504, 2512, 2464
1539, 2456, 2504, 2512, 2464, 2458, 2506, 2513, 2465
1540, 2458, 2506, 2513, 2465, 2460, 2508, 2514, 2466
1541, 2467, 2515, 2516, 2468, 2469, 2517, 2518, 2470
1542, 2469, 2517, 2518, 2470, 2471, 2519, 2520, 2472
1543, 2468, 2516, 2521, 2473, 2470, 2518, 2522, 2474
1544, 2470, 2518, 2522, 2474, 2472, 2520, 2523, 2475
1545, 2473, 2521, 2524, 2476, 2474, 2522, 2525, 2477
1546, 2474, 2522, 2525, 2477, 2475, 2523, 2526, 2478
1547, 2476, 2524, 2507, 2459, 2477, 2525, 2527, 2479
1548, 2477, 2525, 2527, 2479, 2478, 2526, 2528, 2480
1549, 2459, 2507, 2508, 2460, 2479, 2527, 2529, 2481
1550, 2479, 2527, 2529, 2481, 2480, 2528, 2530, 2482
1551, 2460, 2508, 2514, 2466, 2481, 2529, 2531, 2483
1552, 2481, 2529, 2531, 2483, 2482, 2530, 2532, 2484
1553, 2466, 2514, 2533, 2485, 2483, 2531, 2534, 2486
1554, 2483, 2531, 2534, 2486, 2484, 2532, 2535, 2487
1555, 2485, 2533, 2536, 2488, 2486, 2534, 2537, 2489
1556, 2486, 2534, 2537, 2489, 2487, 2535, 2538, 2490
1557, 2488, 2536, 2539, 2491, 2489, 2537, 2540, 2492
1558, 2489, 2537, 2540, 2492, 2490, 2538, 2541, 2493
1559, 2491, 2539, 2542, 2494, 2492, 2540, 2543, 2495
1560, 2492, 2540, 2543, 2495, 2493, 2541, 2544, 2496
1561, 2497, 2545, 2546, 2498, 2499, 2547, 2548, 2500
1562, 2499, 2547, 2548, 2500, 2501, 2549, 2550, 2502
1563, 2501, 2549, 2550, 2502, 2503, 2551, 2552, 2504
1564, 2503, 2551, 2552, 2504, 2505, 2553, 2554, 2506
1565, 2505, 2553, 2554, 2506, 2507, 2555, 2556, 2508
1566, 2498, 2546, 2557, 2509, 2500, 2548, 2558, 2510
1567, 2500, 2548, 2558, 2510, 2502, 2550, 2559, 2511
1568, 2502, 2550, 2559, 2511, 2504, 2552, 2560, 2512
1569, 2504, 2552, 2560, 2512, 2506, 2554, 2561, 2513
1570, 2506, 2554, 2561, 2513, 2508, 2556, 2562, 2514
1571, 2515, 2563, 2564, 2516, 2517, 2565, 2566, 2518
1572, 2517, 2565, 2566, 2518, 2519, 2567, 2568, 2520
1573, 2516, 2564, 2569, 2521, 2518, 2566, 2570, 2522
1574, 2518, 2566, 2570, 2522, 2520, 2568, 2571, 2523
1575, 2521, 2569, 2572, 2524, 2522, 2570, 2573, 2525
1576, 2522, 2570, 2573, 2525, 2523, 2571, 2574, 2526
1577, 2524, 2572, 2555, 2507, 2525, 2573, 2575, 2527
1578, 2525, 2573, 2575, 2527, 2526, 2574, 2576, 2528
1579, 2507, 2555, 2556, 2508, 2527, 2575, 2577, 2529
1580, 2527, 2575, 2577, 2529, 2528, 2576, 2578, 2530
1581, 2508, 2556, 2562, 2514, 2529, 2577, 2579, 2531
1582, 2529, 2577, 2579, 2531, 2530, 2578, 2580, 2532
1583, 2514, 2562, 2581, 2533, 2531, 2579, 2582, 2534
1584, 2531, 2579, 2582, 2534, 2532, 2580, 2583, 2535
1585, 2533, 2581, 2584, 2536, 2534, 2582, 2585, 2537
1586, 2534, 2582, 2585, 2537, 2535, 2583, 2586, 2538
1587, 2536, 2584, 2587, 2539, 2537, 2585, 2588, 2540
1588, 2537, 2585, 2588, 2540, 2538, 2586, 2589, 2541
1589, 2539, 2587, 2590, 2542, 2540, 2588, 2591, 2543
1590, 2540, 2588, 2591, 2543, 2541, 2589, 2592, 2544
1591, 2545, 2593, 2594, 2546, 2547, 2595, 2596, 2548
1592, 2547, 2595, 2596, 2548, 2549, 2597, 2598, 2550
1593, 2549, 2597, 2598, 2550, 2551, 2599, 2600, 2552
1594, 2551, 2599, 2600, 2552, 2553, 2601, 2602, 2554
1595, 2553, 2601, 2602, 2554, 2555, 2603, 2604, 2556
1596, 2546, 2594, 2605, 2557, 2548, 2596, 2606, 2558
1597, 2548, 2596, 2606, 2558, 2550, 2598, 2607, 2559
1598, 2550, 2598, 2607, 2559, 2552, 2600, 2608, 2560
1599, 2552, 2600, 2608, 2560, 2554, 2602, 2609, 2561
1600, 2554, 2602, 2609, 2561, 2556, 2604, 2610, 2562
1601, 2563, 2611, 2612, 2564, 2565, 2613, 2614, 2566
1602, 2565, 2613, 2614, 2566, 2567, 2615, 2616, 2568
1603, 2564, 2612, 2617, 2569, 2566, 2614, 2618, 2570
1604, 2566, 2614, 2618, 2570, 2568, 2616, 2619, 2571
1605, 2569, 2617, 2620, 2572, 2570, 2618, 2621, 2573
1606, 2570, 2618, 2621, 2573, 2571, 2619, 2622, 2574
1607, 2572, 2620, 2603, 2555, 2573, 2621, 2623, 2575
1608, 2573, 2621, 2623, 2575, 2574, 2622, 2624, 2576
1609, 2555, 2603, 2604, 2556, 2575, 2623, 2625, 2577
1610, 2575, 2623, 2625, 2577, 2576, 2624, 2626, 2578
1611, 2556, 2604, 2610, 2562, 2577, 2625, 2627, 2579
1612, 2577, 2625, 2627, 2579, 2578, 2626, 2628, 2580
1613, 2562, 2610, 2629, 2581, 2579, 2627, 2630, 2582
1614, 2579, 2627, 2630, 2582, 2580, 2628, 2631, 2583
1615, 2581, 2629, 2632, 2584, 2582, 2630, 2633, 2585
1616, 2582, 2630, 2633, 2585, 2583, 2631, 2634, 2586
1617, 2584, 2632, 2635, 2587, 2585, 2633, 2636, 2588
1618, 2585, 2633, 2636, 2588, 2586, 2634, 2637, 2589
1619, 2587, 2635, 2638, 2590, 2588, 2636, 2639, 2591
1620, 2588, 2636, 2639, 2591, 2589, 2637, 2640, 2592
1621, 2593, 2641, 2642, 2594, 2595, 2643, 2644, 2596
1622, 2595, 2643, 2644, 2596, 2597, 2645, 2646, 2598
1623, 2597, 2645, 2646, 2598, 2599, 2647, 2648, 2600
1624, 2599, 2647, 2648, 2600, 2601, 2649, 2650, 2602
1625, 2601, 2649, 2650, 2602, 2603, 2651, 2652, 2604
1626, 2594, 2642, 2653, 2605, 2596, 2644, 2654, 2606
1627, 2596, 2644, 2654, 2606, 2598, 2646, 2655, 2607
1628, 2598, 2646, 2655, 2607, 2600, 2648, 2656, 2608
1629, 2600, 2648, 2656, 2608, 2602, 2650, 2657, 2609
1630, 2602, 2650, 2657, 2609, 2604, 2652, 2658, 2610
1631, 2611, 2659, 2660, 2612, 2613, 2661, 2662, 2614
1632, 2613, 2661, 2662, 2614, 2615, 2663, 2664, 2616
1633, 2612, 2660, 2665, 2617, 2614, 2662, 2666, 2618
1634, 2614, 2662, 2666, 2618, 2616, 2664, 2667, 2619
1635, 2617, 2665, 2668, 2620, 2618, 2666, 2669, 2621
1636, 2618, 2666, 2669, 2621, 2619, 2667, 2670, 2622
1637, 2620, 2668, 2651, 2603, 2621, 2669, 2671, 2623
1638, 2621, 2669, 2671, 2623, 2622, 2670, 2672, 2624
1639, 2603, 2651, 2652, 2604, 2623, 2671, 2673, 2625
1640, 2623, 2671, 2673, 2625, 2624, 2672, 2674, 2626
1641, 2604, 2652, 2658, 2610, 2625, 2673, 2675, 2627
1642, 2625, 2673, 2675, 2627, 2626, 2674, 2676, 2628
1643, 2610, 2658, 2677, 2629, 2627, 2675, 2678, 2630
1644, 2627, 2675, 2678, 2630, 2628, 2676, 2679, 2631
1645, 2629, 2677, 2680, 2632, 2630, 2678, 2681, 2633
1646, 2630, 2678, 2681, 2633, 2631, 2679, 2682, 2634
1647, 2632, 2680, 2683, 2635, 2633, 2681, 2684, 2636
1648, 2633, 2681, 2684, 2636, 2634, 2682, 2685, 2637
1649, 2635, 2683, 2686, 2638, 2636, 2684, 2687, 2639
1650, 2636, 2684, 2687, 2639, 2637, 2685, 2688, 2640
1651, 2641, 2689, 2690, 2642, 2643, 2691, 2692, 2644
1652, 2643, 2691, 2692, 2644, 2645, 2693, 2694, 2646
1653, 2645, 2693, 2694, 2646, 2647, 2695, 2696, 2648
1654, 2647, 2695, 2696, 2648, 2649, 2697, 2698, 2650
1655, 2649, 2697, 2698, 2650, 2651, 2699, 2700, 2652
1656, 2642, 2690, 2701, 2653, 2644, 2692, 2702, 2654
1657, 2644, 2692, 2702, 2654, 2646, 2694, 2703, 2655
1658, 2646, 2694, 2703, 2655, 2648, 2696, 2704, 2656
1659, 2648, 2696, 2704, 2656, 2650, 2698, 2705, 2657
1660, 2650, 2698, 2705, 2657, 2652, 2700, 2706, 2658
1661, 2659, 2707, 2708, 2660, 2661, 2709, 2710, 2662
1662, 2661, 2709, 2710, 2662, 2663, 2711, 2712, 2664
1663, 2660, 2708, 2713, 2665, 2662, 2710, 2714, 2666
1664, 2662, 2710, 2714, 2666, 2664, 2712, 2715, 2667
1665, 2665, 2713, 2716, 2668, 2666, 2714, 2717, 2669
1666, 2666, 2714, 2717, 2669, 2667, 2715, 2718, 2670
1667, 2668, 2716, 2699, 2651, 2669, 2717, 2719, 2671
1668, 2669, 2717, 2719, 2671, 2670, 2718, 2720, 2672
1669, 2651, 2699, 2700, 2652, 2671, 2719, 2721, 2673
1670, 2671, 2719, 2721, 2673, 2672, 2720, 2722, 2674
1671, 2652, 2700, 2706, 2658, 2673, 2721, 2723, 2675
1672, 2673, 2721, 2723, 2675, 2674, 2722, 2724, 2676
1673, 2658, 2706, 2725, 2677, 2675, 2723, 2726, 2678
1674, 2675, 2723, 2726, 2678, 2676, 2724, 2727, 2679
1675, 2677, 2725, 2728, 2680, 2678, 2726, 2729, 2681
1676, 2678, 2726, 2729, 2681, 2679, 2727, 2730, 2682
1677, 2680, 2728, 2731, 2683, 2681, 2729, 2732, 2684
1678, 2681, 2729, 2732, 2684, 2682, 2730, 2733, 2685
1679, 2683, 2731, 2734, 2686, 2684, 2732, 2735, 2687
1680, 2684, 2732, 2735, 2687, 2685, 2733, 2736, 2688
1681, 2689, 2737, 2738, 2690, 2691, 2739, 2740, 2692
1682, 2691, 2739, 2740, 2692, 2693, 2741, 2742, 2694
1683, 2693, 2741, 2742, 2694, 2695, 2743, 2744, 2696
1684, 2695, 2743, 2744, 2696, 2697, 2745, 2746, 2698
1685, 2697, 2745, 2746, 2698, 2699, 2747, 2748, 2700
1686, 2690, 2738, 2749, 2701, 2692, 2740, 2750, 2702
1687, 2692, 2740, 2750, 2702, 2694, 2742, 2751, 2703
1688, 2694, 2742, 2751, 2703, 2696, 2744, 2752, 2704
1689, 2696, 2744, 2752, 2704, 2698, 2746, 2753, 2705
1690, 2698, 2746, 2753, 2705, 2700, 2748, 2754, 2706
1691, 2707, 2755, 2756, 2708, 2709, 2757, 2758, 2710
1692, 2709, 2757, 2758, 2710, 2711, 2759, 2760, 2712
1693, 2708, 2756, 2761, 2713, 2710, 2758, 2762, 2714
1694, 2710, 2758, 2762, 2714, 2712, 2760, 2763, 2715
1695, 2713, 2761, 2764, 2716, 2714, 2762, 2765, 2717
1696, 2714, 2762, 2765, 2717, 2715, 2763, 2766, 2718
1697, 2716, 2764, 2747, 2699, 2717, 2765, 2767, 2719
1698, 2717, 2765, 2767, 2719, 2718, 2766, 2768, 2720
1699, 2699, 2747, 2748, 2700, 2719, 2767, 2769, 2721
1700, 2719, 2767, 2769, 2721, 2720, 2768, 2770, 2722
1701, 2700, 2748, 2754, 2706, 2721, 2769, 2771, 2723
1702, 2721, 2769, 2771, 2723, 2722, 2770, 2772, 2724
1703, 2706, 2754, 2773, 2725, 2723, 2771, 2774, 2726
1704, 2723, 2771, 2774, 2726, 2724, 2772, 2775, 2727
1705, 2725, 2773, 2776, 2728, 2726, 2774, 2777, 2729
1706, 2726, 2774, 2777, 2729, 2727, 2775, 2778, 2730
1707, 2728, 2776, 2779, 2731, 2729, 2777, 2780, 2732
1708, 2729, 2777, 2780, 2732, 2730, 2778, 2781, 2733
1709, 2731, 2779, 2782, 2734, 2732, 2780, 2783, 2735
1710, 2732, 2780, 2783, 2735, 2733, 2781, 2784, 2736
1711, 2737, 2785, 2786, 2738, 2739, 2787, 2788, 2740
1712, 2739, 2787, 2788, 2740, 2741, 2789, 2790, 2742
1713, 2741, 2789, 2790, 2742, 2743, 2791, 2792, 2744
1714, 2743, 2791, 2792, 2744, 2745, 2793, 2794, 2746
1715, 2745, 2793, 2794, 2746, 2747, 2795, 2796, 2748
1716, 2738, 2786, 2797, 2749, 2740, 2788, 2798, 2750
1717, 2740, 2788, 2798, 2750, 2742, 2790, 2799, 2751
1718, 2742, 2790, 2799, 2751, 2744, 2792, 2800, 2752
1719, 2744, 2792, 2800, 2752, 2746, 2794, 2801, 2753
1720, 2746, 2794, 2801, 2753, 2748, 2796, 2802, 2754
1721, 2755, 2803, 2804, 2756, 2757, 2805, 2806, 2758
1722, 2757, 2805, 2806, 2758, 2759, 2807, 2808, 2760
1723, 2756, 2804, 2809, 2761, 2758, 2806, 2810, 2762
1724, 2758, 2806, 2810, 2762, 2760, 2808, 2811, 2763
1725, 2761, 2809, 2812, 2764, 2762, 2810, 2813, 2765
1726, 2762, 2810, 2813, 2765, 2763, 2811, 2814, 2766
1727, 2764, 2812, 2795, 2747, 2765, 2813, 2815, 2767
1728, 2765, 2813, 2815, 2767, 2766, 2814, 2816, 2768
1729, 2747, 2795, 2796, 2748, 2767, 2815, 2817, 2769
1730, 2767, 2815, 2817, 2769, 2768, 2816, 2818, 2770
1731, 2748, 2796, 2802, 2754, 2769, 2817, 2819, 2771
1732, 2769, 2817, 2819, 2771, 2770, 2818, 2820, 2772
1733, 2754, 2802, 2821, 2773, 2771, 2819, 2822, 2774
1734, 2771, 2819, 2822, 2774, 2772, 2820, 2823, 2775
1735, 2773, 2821, 2824, 2776, 2774, 2822, 2825, 2777
1736, 2774, 2822, 2825, 2777, 2775, 2823, 2826, 2778
1737, 2776, 2824, 2827, 2779, 2777, 2825, 2828, 2780
1738, 2777, 2825, 2828, 2780, 2778, 2826, 2829, 2781
1739, 2779, 2827, 2830, 2782, 2780, 2828, 2831, 2783
1740, 2780, 2828, 2831, 2783, 2781, 2829, 2832, 2784
1741, 2785, 2833, 2834, 2786, 2787, 2835, 2836, 2788
1742, 2787, 2835, 2836, 2788, 2789, 2837, 2838, 2790
1743, 2789, 2837, 2838, 2790, 2791, 2839, 2840, 2792
1744, 2791, 2839, 2840, 2792, 2793, 2841, 2842, 2794
1745, 2793, 2841, 2842, 2794, 2795, 2843, 2844, 2796
1746, 2786, 2834, 2845, 2797, 2788, 2836, 2846, 2798
1747, 2788, 2836, 2846, 2798, 2790, 2838, 2847, 2799
1748, 2790, 2838, 2847, 2799, 2792, 2840, 2848, 2800
1749, 2792, 2840, 2848, 2800, 2794, 2842, 2849, 2801
1750, 2794, 2842, 2849, 2801, 2796, 2844, 2850, 2802
1751, 2803, 2851, 2852, 2804, 2805, 2853, 2854, 2806
1752, 2805, 2853, 2854, 2806, 2807, 2855, 2856, 2808
1753, 2804, 2852, 2857, 2809, 2806, 2854, 2858, 2810
1754, 2806, 2854, 2858, 2810, 2808, 2856, 2859, 2811
1755, 2809, 2857, 2860, 2812, 2810, 2858, 2861, 2813
1756, 2810, 2858, 2861, 2813, 2811, 2859, 2862, 2814
1757, 2812, 2860, 2843, 2795, 2813, 2861, 2863, 2815
1758, 2813, 2861, 2863, 2815, 2814, 2862, 2864, 2816
1759, 2795, 2843, 2844, 2796, 2815, 2863, 2865, 2817
1760, 2815, 2863, 2865, 2817, 2816, 2864, 2866, 2818
1761, 2796, 2844, 2850, 2802, 2817, 2865, 2867, 2819
1762, 2817, 2865, 2867, 2819, 2818, 2866, 2868, 2820
1763, 2802, 2850, 2869, 2821, 2819, 2867, 2870, 2822
1764, 2819, 2867, 2870, 2822, 2820, 2868, 2871, 2823
1765, 2821, 2869, 2872, 2824, 2822, 2870, 2873, 2825
1766, 2822, 2870, 2873, 2825, 2823, 2871, 2874, 2826
1767, 2824, 2872, 2875, 2827, 2825, 2873, 2876, 2828
1768, 2825, 2873, 2876, 2828, 2826, 2874, 2877, 2829
1769, 2827, 2875, 2878, 2830, 2828, 2876, 2879, 2831
1770, 2828, 2876, 2879, 2831, 2829, 2877, 2880, 2832
1771, 2833, 2881, 2882, 2834, 2835, 2883, 2884, 2836
1772, 2835, 2883, 2884, 2836, 2837, 2885, 2886, 2838
1773, 2837, 2885, 2886, 2838, 2839, 2887, 2888, 2840
1774, 2839, 2887, 2888, 2840, 2841, 2889, 2890, 2842
1775, 2841, 2889, 2890, 2842, 2843, 2891, 2892, 2844
1776, 2834, 2882, 2893, 2845, 2836, 2884, 2894, 2846
1777, 2836, 2884, 2894, 2846, 2838, 2886, 2895, 2847
1778, 2838, 2886, 2895, 2847, 2840, 2888, 2896, 2848
1779, 2840, 2888, 2896, 2848, 2842, 2890, 2897, 2849
1780, 2842, 2890, 2897, 2849, 2844, 2892, 2898, 2850
1781, 2851, 2899, 2900, 2852, 2853, 2901, 2902, 2854
1782, 2853, 2901, 2902, 2854, 2855, 2903, 2904, 2856
1783, 2852, 2900, 2905, 2857, 2854, 2902, 2906, 2858
1784, 2854, 2902, 2906, 2858, 2856, 2904, 2907, 2859
1785, 2857, 2905, 2908, 2860, 2858, 2906, 2909, 2861
1786, 2858, 2906, 2909, 2861, 2859, 2907, 2910, 2862
1787, 2860, 2908, 2891, 2843, 2861, 2909, 2911, 2863
1788, 2861, 2909, 2911, 2863, 2862, 2910, 2912, 2864
1789, 2843, 2891, 2892, 2844, 2863, 2911, 2913, 2865
1790, 2863, 2911, 2913, 2865, 2864, 2912, 2914, 2866
1791, 2844, 2892, 2898, 2850, 2865, 2913, 2915, 2867
1792, 2865, 2913, 2915, 2867, 2866, 2914, 2916, 2868
1793, 2850, 2898, 2917, 2869, 2867, 2915, 2918, 2870
1794, 2867, 2915, 2918, 2870, 2868, 2916, 2919, 2871
1795, 2869, 2917, 2920, 2872, 2870, 2918, 2921, 2873
1796, 2870, 2918, 2921, 2873, 2871, 2919, 2922, 2874
1797, 2872, 2920, 2923, 2875, 2873, 2921, 2924, 2876
1798, 2873, 2921, 2924, 2876, 2874, 2922, 2925, 2877
1799, 2875, 2923, 2926, 2878, 2876, 2924, 2927, 2879
1800, 2876, 2924, 2927, 2879, 2877, 2925, 2928, 2880
1801, 2881, 2929, 2930, 2882, 2883, 2931, 2932, 2884
1802, 2883, 2931, 2932, 2884, 2885, 2933, 2934, 2886
1803, 2885, 2933, 2934, 2886, 2887, 2935, 2936, 2888
1804, 2887, 2935, 2936, 2888, 2889, 2937, 2938, 2890
1805, 2889, 2937, 2938, 2890, 2891, 2939, 2940, 2892
1806, 2882, 2930, 2941, 2893, 2884, 2932, 2942, 2894
1807, 2884, 2932, 2942, 2894, 2886, 2934, 2943, 2895
1808, 2886, 2934, 2943, 2895, 2888, 2936, 2944, 2896
1809, 2888, 2936, 2944, 2896, 2890, 2938, 2945, 2897
1810, 2890, 2938, 2945, 2897, 2892, 2940, 2946, 2898
1811, 2899, 2947, 2948, 2900, 2901, 2949, 2950, 2902
1812, 2901, 2949, 2950, 2902, 2903, 2951, 2952, 2904
1813, 2900, 2948, 2953, 2905, 2902, 2950, 2954, 2906
1814, 2902, 2950, 2954, 2906, 2904, 2952, 2955, 2907
1815, 2905, 2953, 2956, 2908, 2906, 2954, 2957, 2909
1816, 2906, 2954, 2957, 2909, 2907, 2955, 2958, 2910
1817, 2908, 2956, 2939, 2891, 2909, 2957, 2959, 2911
1818, 2909, 2957, 2959, 2911, 2910, 2958, 2960, 2912
1819, 2891, 2939, 2940, 2892, 2911, 2959, 2961, 2913
1820, 2911, 2959, 2961, 2913, 2912, 2960, 2962, 2914
1821, 2892, 2940, 2946, 2898, 2913, 2961, 2963, 2915
1822, 2913, 2961, 2963, 2915, 2914, 2962, 2964, 2916
1823, 2898, 2946, 2965, 2917, 2915, 2963, 2966, 2918
1824, 2915, 2963, 2966, 2918, 2916, 2964, 2967, 2919
1825, 2917, 2965, 2968, 2920, 2918, 2966, 2969, 2921
1826, 2918, 2966, 2969, 2921, 2919, 2967, 2970, 2922
1827, 2920, 2968, 2971, 2923, 2921, 2969, 2972, 2924
1828, 2921, 2969, 2972, 2924, 2922, 2970, 2973, 2925
1829, 2923, 2971, 2974, 2926, 2924, 2972, 2975, 2927
1830, 2924, 2972, 2975, 2927, 2925, 2973, 2976, 2928
1831, 2929, 2977, 2978, 2930, 2931, 2979, 2980, 2932
1832, 2931, 2979, 2980, 2932, 2933, 2981, 2982, 2934
1833, 2933, 2981, 2982, 2934, 2935, 2983, 2984, 2936
1834, 2935, 2983, 2984, 2936, 2937, 2985, 2986, 2938
1835, 2937, 2985, 2986, 2938, 2939, 2987, 2988, 2940
1836, 2930, 2978, 2989, 2941, 2932, 2980, 2990, 2942
1837, 2932, 2980, 2990, 2942, 2934, 2982, 2991, 2943
1838, 2934, 2982, 2991, 2943, 2936, 2984, 2992, 2944
1839, 2936, 2984, 2992, 2944, 2938, 2986, 2993, 2945
1840, 2938, 2986, 2993, 2945, 2940, 2988, 2994, 2946
1841, 2947, 2995, 2996, 2948, 2949, 2997, 2998, 2950
1842, 2949, 2997, 2998, 2950, 2951, 2999, 3000, 2952
1843, 2948, 2996, 3001, 2953, 2950, 2998, 3002, 2954
1844, 2950, 2998, 3002, 2954, 2952, 3000, 3003, 2955
1845, 2953, 3001, 3004, 2956, 2954, 3002, 3005, 2957
1846, 2954, 3002, 3005, 2957, 2955, 3003, 3006, 2958
1847, 2956, 3004, 2987, 2939, 2957, 3005, 3007, 2959
1848, 2957, 3005, 3007, 2959, 2958, 3006, 3008, 2960
1849, 2939, 2987, 2988, 2940, 2959, 3007, 3009, 2961
1850, 2959, 3007, 3009, 2961, 2960, 3008, 3010, 2962
1851, 2940, 2988, 2994, 2946, 2961, 3009, 3011, 2963
1852, 2961, 3009, 3011, 2963, 2962, 3010, 3012, 2964
1853, 2946, 2994, 3013, 2965, 2963, 3011, 3014, 2966
1854, 2963, 3011, 3014, 2966, 2964, 3012, 3015, 2967
1855, 2965, 3013, 3016, 2968, 2966, 3014, 3017, 2969
1856, 2966, 3014, 3017, 2969, 2967, 3015, 3018, 2970
1857, 2968, 3016, 3019, 2971, 2969, 3017, 3020, 2972
1858, 2969, 3017, 3020, 2972, 2970, 3018, 3021, 2973
1859, 2971, 3019, 3022, 2974, 2972, 3020, 3023, 2975
1860, 2972, 3020, 3023, 2975, 2973, 3021, 3024, 2976
1861, 2977, 3025, 3026, 2978, 2979, 3027, 3028, 2980
1862, 2979, 3027, 3028, 2980, 2981, 3029, 3030, 2982
1863, 2981, 3029, 3030, 2982, 2983, 3031, 3032, 2984
1864, 2983, 3031, 3032, 2984, 2985, 3033, 3034, 2986
1865, 2985, 3033, 3034, 2986, 2987, 3035, 3036, 2988
1866, 2978, 3026, 3037, 2989, 2980, 3028, 3038, 2990
1867, 2980, 3028, 3038, 2990, 2982, 3030, 3039, 2991
1868, 2982, 3030, 3039, 2991, 2984, 3032, 3040, 2992
1869, 2984, 3032, 3040, 2992, 2986, 3034, 3041, 2993
1870, 2986, 3034, 3041, 2993, 2988, 3036, 3042, 2994
1871, 2995, 3043, 3044, 2996, 2997, 3045, 3046, 2998
1872, 2997, 3045, 3046, 2998, 2999, 3047, 3048, 3000
1873, 2996, 3044, 3049, 3001, 2998, 3046, 3050, 3002
1874, 2998, 3046, 3050, 3002, 3000, 3048, 3051, 3003
1875, 3001, 3049, 3052, 3004, 3002, 3050, 3053, 3005
1876, 3002, 3050, 3053, 3005, 3003, 3051, 3054, 3006
1877, 3004, 3052, 3035, 2987, 3005, 3053, 3055, 3007
1878, 3005, 3053, 3055, 3007, 3006, 3054, 3056, 3008
1879, 2987, 3035, 3036, 2988, 3007, 3055, 3057, 3009
1880, 3007, 3055, 3057, 3009, 3008, 3056, 3058, 3010
1881, 2988, 3036, 3042, 2994, 3009, 3057, 3059, 3011
1882, 3009, 3057, 3059, 3011, 3010, 3058, 3060, 3012
1883, 2994, 3042, 3061, 3013, 3011, 3059, 3062, 3014
1884, 3011, 3059, 3062, 3014, 3012, 3060, 3063, 3015
1885, 3013, 3061, 3064, 3016, 3014, 3062, 3065, 3017
1886, 3014, 3062, 3065, 3017, 3015, 3063, 3066, 3018
1887, 3016, 3064, 3067, 3019, 3017, 3065, 3068, 3020
1888, 3017, 3065, 3068, 3020, 3018, 3066, 3069, 3021
1889, 3019, 3067, 3070, 3022, 3020, 3068, 3071, 3023
1890, 3020, 3068, 3071, 3023, 3021, 3069, 3072, 3024
1891, 3025, 3073, 3074, 3026, 3027, 3075, 3076, 3028
1892, 3027, 3075, 3076, 3028, 3029, 3077, 3078, 3030
1893, 3029, 3077, 3078, 3030, 3031, 3079, 3080, 3032
1894, 3031, 3079, 3080, 3032, 3033, 3081, 3082, 3034
1895, 3033, 3081, 3082, 3034, 3035, 3083, 3084, 3036
1896, 3026, 3074, 3085, 3037, 3028, 3076, 3086, 3038
1897, 3028, 3076, 3086, 3038, 3030, 3078, 3087, 3039
1898, 3030, 3078, 3087, 3039, 3032, 3080, 3088, 3040
1899, 3032, 3080, 3088, 3040, 3034, 3082, 3089, 3041
1900, 3034, 3082, 3089, 3041, 3036, 3084, 3090, 3042
1901, 3043, 3091, 3092, 3044, 3045, 3093, 3094, 3046
1902, 3045, 3093, 3094, 3046, 3047, 3095, 3096, 3048
1903, 3044, 3092, 3097, 3049, 3046, 3094, 3098, 3050
1904, 3046, 3094, 3098, 3050, 3048, 3096, 3099, 3051
1905, 3049, 3097, 3100, 3052, 3050, 3098, 3101, 3053
1906, 3050, 3098, 3101, 3053, 3051, 3099, 3102, 3054
1907, 3052, 3100, 3083, 3035, 3053, 3101, 3103, 3055
1908, 3053, 3101, 3103, 3055, 3054, 3102, 3104, 3056
1909, 3035, 3083, 3084, 3036, 3055, 3103, 3105, 3057
1910, 3055, 3103, 3105, 3057, 3056, 3104, 3106, 3058
1911, 3036, 3084, 3090, 3042, 3057, 3105, 3107, 3059
1912, 3057, 3105, 3107, 3059, 3058, 3106, 3108, 3060
1913, 3042, 3090, 3109, 3061, 3059, 3107, 3110, 3062
1914, 3059, 3107, 3110, 3062, 3060, 3108, 3111, 3063
1915, 3061, 3109, 3112, 3064, 3062, 3110, 3113, 3065
1916, 3062, 3110, 3113, 3065, 3063, 3111, 3114, 3066
1917, 3064, 3112, 3115, 3067, 3065, 3113, 3116, 3068
1918, 3065, 3113, 3116, 3068, 3066, 3114, 3117, 3069
1919, 3067, 3115, 3118, 3070, 3068, 3116, 3119, 3071
1920, 3068, 3116, 3119, 3071, 3069, 3117, 3120, 3072
1921, 3073, 3121, 3122, 3074, 3075, 3123, 3124, 3076
1922, 3075, 3123, 3124, 3076, 3077, 3125, 3126, 3078
1923, 3077, 3125, 3126, 3078, 3079, 3127, 3128, 3080
1924, 3079, 3127, 3128, 3080, 3081, 3129, 3130, 3082
1925, 3081, 3129, 3130, 3082, 3083, 3131, 3132, 3084
1926, 3074, 3122, 3133, 3085, 3076, 3124, 3134, 3086
1927, 3076, 3124, 3134, 3086, 3078, 3126, 3135, 3087
1928, 3078, 3126, 3135, 3087, 3080, 3128, 3136, 3088
1929, 3080, 3128, 3136, 3088, 3082, 3130, 3137, 3089
1930, 3082, 3130, 3137, 3089, 3084, 3132, 3138, 3090
1931, 3091, 3139, 3140, 3092, 3093, 3141, 3142, 3094
1932, 3093, 3141, 3142, 3094, 3095, 3143, 3144, 3096
1933, 3092, 3140, 3145, 3097, 3094, 3142, 3146, 3098
1934, 3094, 3142, 3146, 3098, 3096, 3144, 3147, 3099
1935, 3097, 3145, 3148, 3100, 3098, 3146, 3149, 3101
1936, 3098, 3146, 3149, 3101, 3099, 3147, 3150, 3102
1937, 3100, 3148, 3131, 3083, 3101, 3149, 3151, 3103
1938, 3101, 3149, 3151, 3103, 3102, 3150, 3152, 3104
1939, 3083, 3131, 3132, 3084, 3103, 3151, 3153, 3105
1940, 3103, 3151, 3153, 3105, 3104, 3152, 3154, 3106
1941, 3084, 3132, 3138, 3090, 3105, 3153, 3155, 3107
1942, 3105, 3153, 3155, 3107, 3106, 3154, 3156, 3108
1943, 3090, 3138, 3157, 3109, 3107, 3155, 3158, 3110
1944, 3107, 3155, 3158, 3110, 3108, 3156, 3159, 3111
1945, 3109, 3157, 3160, 3112, 3110, 3158, 3161, 3113
1946, 3110, 3158, 3161, 3113, 3111, 3159, 3162, 3114
1947, 3112, 3160, 3163, 3115, 3113, 3161, 3164, 3116
1948, 3113, 3161, 3164, 3116, 3114, 3162, 3165, 3117
1949, 3115, 3163, 3166, 3118, 3116, 3164, 3167, 3119
1950, 3116, 3164, 3167, 3119, 3117, 3165, 3168, 3120
1951, 3121, 3169, 3170, 3122, 3123, 3171, 3172, 3124
1952, 3123, 3171, 3172, 3124, 3125, 3173, 3174, 3126
1953, 3125, 3173, 3174, 3126, 3127, 3175, 3176, 3128
1954, 3127, 3175, 3176, 3128, 3129, 3177, 3178, 3130
1955, 3129, 3177, 3178, 3130, 3131, 3179, 3180, 3132
1956, 3122, 3170, 3181, 3133, 3124, 3172, 3182, 3134
1957, 3124, 3172, 3182, 3134, 3126, 3174, 3183, 3135
1958, 3126, 3174, 3183, 3135, 3128, 3176, 3184, 3136
1959, 3128, 3176, 3184, 3136, 3130, 3178, 3185, 3137
1960, 3130, 3178, 3185, 3137, 3132, 3180, 3186, 3138
1961, 3139, 3187, 3188, 3140, 3141, 3189, 3190, 3142
1962, 3141, 3189, 3190, 3142, 3143, 3191, 3192, 3144
1963, 3140, 3188, 3193, 3145, 3142, 3190, 3194, 3146
1964, 3142, 3190, 3194, 3146, 3144, 3192, 3195, 3147
1965, 3145, 3193, 3196, 3148, 3146, 3194, 3197, 3149
1966, 3146, 3194, 3197, 3149, 3147, 3195, 3198, 3150
1967, 3148, 3196, 3179, 3131, 3149, 3197, 3199, 3151
1968, 3149, 3197, 3199, 3151, 3150, 3198, 3200, 3152
1969, 3131, 3179, 3180, 3132, 3151, 3199, 3201, 3153
1970, 3151, 3199, 3201, 3153, 3152, 3200, 3202, 3154
1971, 3132, 3180, 3186, 3138, 3153, 3201, 3203, 3155
1972, 3153, 3201, 3203, 3155, 3154, 3202, 3204, 3156
1973, 3138, 3186, 3205, 3157, 3155, 3203, 3206, 3158
1974, 3155, 3203, 3206, 3158, 3156, 3204, 3207, 3159
1975, 3157, 3205, 3208, 3160, 3158, 3206, 3209, 3161
1976, 3158, 3206, 3209, 3161, 3159, 3207, 3210, 3162
1977, 3160, 3208, 3211, 3163, 3161, 3209, 3212, 3164
1978, 3161, 3209, 3212, 3164, 3162, 3210, 3213, 3165
1979, 3163, 3211, 3214, 3166, 3164, 3212, 3215, 3167
1980, 3164, 3212, 3215, 3167, 3165, 3213, 3216, 3168
1981, 3169, 3217, 3218, 3170, 3171, 3219, 3220, 3172
1982, 3171, 3219, 3220, 3172, 3173, 3221, 3222, 3174
1983, 3173, 3221, 3222, 3174, 3175, 3223, 3224, 3176
1984, 3175, 3223, 3224, 3176, 3177, 3225, 3226, 3178
1985, 3177, 3225, 3226, 3178, 3179, 3227, 3228, 3180
1986, 3170, 3218, 3229, 3181, 3172, 3220, 3230, 3182
1987, 3172, 3220, 3230, 3182, 3174, 3222, 3231, 3183
1988, 3174, 3222, 3231, 3183, 3176, 3224, 3232, 3184
1989, 3176, 3224, 3232, 3184, 3178, 3226, 3233, 3185
1990, 3178, 3226, 3233, 3185, 3180, 3228, 3234, 3186
1991, 3187, 3235, 3236, 3188, 3189, 3237, 3238, 3190
1992, 3189, 3237, 3238, 3190, 3191, 3239, 3240, 3192
1993, 3188, 3236, 3241, 3193, 3190, 3238, 3242, 3194
1994, 3190, 3238, 3242, 3194, 3192, 3240, 3243, 3195
1995, 3193, 3241, 3244, 3196, 3194, 3242, 3245, 3197
1996, 3194, 3242, 3245, 3197, 3195, 3243, 3246, 3198
1997, 3196, 3244, 3227, 3179, 3197, 3245, 3247, 3199
1998, 3197, 3245, 3247, 3199, 3198, 3246, 3248, 3200
1999, 3179, 3227, 3228, 3180, 3199, 3247, 3249, 3201
2000, 3199, 3247, 3249, 3201, 3200, 3248, 3250, 3202
2001, 3180, 3228, 3234, 3186, 3201, 3249, 3251, 3203
2002, 3201, 3249, 3251, 3203, 3202, 3250, 3252, 3204
2003, 3186, 3234, 3253, 3205, 3203, 3251, 3254, 3206
2004, 3203, 3251, 3254, 3206, 3204, 3252, 3255, 3207
2005, 3205, 3253, 3256, 3208, 3206, 3254, 3257, 3209
2006, 3206, 3254, 3257, 3209, 3207, 3255, 3258, 3210
2007, 3208, 3256, 3259, 3211, 3209, 3257, 3260, 3212
2008, 3209, 3257, 3260, 3212, 3210, 3258, 3261, 3213
2009, 3211, 3259, 3262, 3214, 3212, 3260, 3263, 3215
2010, 3212, 3260, 3263, 3215, 3213, 3261, 3264, 3216
2011, 3217, 3265, 3266, 3218, 3219, 3267, 3268, 3220
2012, 3219, 3267, 3268, 3220, 3221, 3269, 3270, 3222
2013, 3221, 3269, 3270, 3222, 3223, 3271, 3272, 3224
2014, 3223, 3271, 3272, 3224, 3225, 3273, 3274, 3226
2015, 3225, 3273, 3274, 3226, 3227, 3275, 3276, 3228
2016, 3218, 3266, 3277, 3229, 3220, 3268, 3278, 3230
2017, 3220, 3268, 3278, 3230, 3222, 3270, 3279, 3231
2018, 3222, 3270, 3279, 3231, 3224, 3272, 3280, 3232
2019, 3224, 3272, 3280, 3232, 3226, 3274, 3281, 3233
2020, 3226, 3274, 3281, 3233, 3228, 3276, 3282, 3234
2021, 3235, 3283, 3284, 3236, 3237, 3285, 3286, 3238
2022, 3237, 3285, 3286, 3238, 3239, 3287, 3288, 3240
2023, 3236, 3284, 3289, 3241, 3238, 3286, 3290, 3242
2024, 3238, 3286, 3290, 3242, 3240, 3288, 3291, 3243
2025, 3241, 3289, 3292, 3244, 3242, 3290, 3293, 3245
2026, 3242, 3290, 3293, 3245, 3243, 3291, 3294, 3246
2027, 3244, 3292, 3275, 3227, 3245, 3293, 3295, 3247
2028, 3245, 3293, 3295, 3247, 3246, 3294, 3296, 3248
2029, 3227, 3275, 3276, 3228, 3247, 3295, 3297, 3249
2030, 3247, 3295, 3297, 3249, 3248, 3296, 3298, 3250
2031, 3228, 3276, 3282, 3234, 3249, 3297, 3299, 3251
2032, 3249, 3297, 3299, 3251, 3250, 3298, 3300, 3252
2033, 3234, 3282, 3301, 3253, 3251, 3299, 3302, 3254
2034, 3251, 3299, 3302, 3254, 3252, 3300, 3303, 3255
2035, 3253, 3301, 3304, 3256, 3254, 3302, 3305, 3257
2036, 3254, 3302, 3305, 3257, 3255, 3303, 3306, 3258
2037, 3256, 3304, 3307, 3259, 3257, 3305, 3308, 3260
2038, 3257, 3305, 3308, 3260, 3258, 3306, 3309, 3261
2039, 3259, 3307, 3310, 3262, 3260, 3308, 3311, 3263
2040, 3260, 3308, 3311, 3263, 3261, 3309, 3312, 3264
2041, 3265, 3313, 3314, 3266, 3267, 3315, 3316, 3268
2042, 3267, 3315, 3316, 3268, 3269, 3317, 3318, 3270
2043, 3269, 3317, 3318, 3270, 3271, 3319, 3320, 3272
2044, 3271, 3319, 3320, 3272, 3273, 3321, 3322, 3274
2045, 3273, 3321, 3322, 3274, 3275, 3323, 3324, 3276
2046, 3266, 3314, 3325, 3277, 3268, 3316, 3326, 3278
2047, 3268, 3316, 3326, 3278, 3270, 3318, 3327, 3279
2048, 3270, 3318, 3327, 3279, 3272, 3320, 3328, 3280
2049, 3272, 3320, 3328, 3280, 3274, 3322, 3329, 3281
2050, 3274, 3322, 3329, 3281, 3276, 3324, 3330, 3282
2051, 3283, 3331, 3332, 3284, 3285, 3333, 3334, 3286
2052, 3285, 3333, 3334, 3286, 3287, 3335, 3336, 3288
2053, 3284, 3332, 3337, 3289, 3286, 3334, 3338, 3290
2054, 3286, 3334, 3338, 3290, 3288, 3336, 3339, 3291
2055, 3289, 3337, 3340, 3292, 3290, 3338, 3341, 3293
2056, 3290, 3338, 3341, 3293, 3291, 3339, 3342, 3294
2057, 3292, 3340, 3323, 3275, 3293, 3341, 3343, 3295
2058, 3293, 3341, 3343, 3295, 3294, 3342, 3344, 3296
2059, 3275, 3323, 3324, 3276, 3295, 3343, 3345, 3297
2060, 3295, 3343, 3345, 3297, 3296, 3344, 3346, 3298
2061, 3276, 3324, 3330, 3282, 3297, 3345, 3347, 3299
2062, 3297, 3345, 3347, 3299, 3298, 3346, 3348, 3300
2063, 3282, 3330, 3349, 3301, 3299, 3347, 3350, 3302
2064, 3299, 3347, 3350, 3302, 3300, 3348, 3351, 3303
2065, 3301, 3349, 3352, 3304, 3302, 3350, 3353, 3305
2066, 3302, 3350, 3353, 3305, 3303, 3351, 3354, 3306
2067, 3304, 3352, 3355, 3307, 3305, 3353, 3356, 3308
2068, 3305, 3353, 3356, 3308, 3306, 3354, 3357, 3309
2069, 3307, 3355, 3358, 3310, 3308, 3356, 3359, 3311
2070, 3308, 3356, 3359, 3311, 3309, 3357, 3360, 3312
2071, 3313, 3361, 3362, 3314, 3315, 3363, 3364, 3316
2072, 3315, 3363, 3364, 3316, 3317, 3365, 3366, 3318
2073, 3317, 3365, 3366, 3318, 3319, 3367, 3368, 3320
2074, 3319, 3367, 3368, 3320, 3321, 3369, 3370, 3322
2075, 3321, 3369, 3370, 3322, 3323, 3371, 3372, 3324
2076, 3314, 3362, 3373, 3325, 3316, 3364, 3374, 3326
2077, 3316, 3364, 3374, 3326, 3318, 3366, 3375, 3327
2078, 3318, 3366, 3375, 3327, 3320, 3368, 3376, 3328
2079, 3320, 3368, 3376, 3328, 3322, 3370, 3377, 3329
2080, 3322, 3370, 3377, 3329, 3324, 3372, 3378, 3330
2081, 3331, 3379, 3380, 3332, 3333, 3381, 3382, 3334
2082, 3333, 3381, 3382, 3334, 3335, 3383, 3384, 3336
2083, 3332, 3380, 3385, 3337, 3334, 3382, 3386, 3338
2084, 3334, 3382, 3386, 3338, 3336, 3384, 3387, 3339
2085, 3337, 3385, 3388, 3340, 3338, 3386, 3389, 3341
2086, 3338, 3386, 3389, 3341, 3339, 3387, 3390, 3342
2087, 3340, 3388, 3371, 3323, 3341, 3389, 3391, 3343
2088, 3341, 3389, 3391, 3343, 3342, 3390, 3392, 3344
2089, 3323, 3371, 3372, 3324, 3343, 3391, 3393, 3345
2090, 3343, 3391, 3393, 3345, 3344, 3392, 3394, 3346
2091, 3324, 3372, 3378, 3330, 3345, 3393, 3395, 3347
2092, 3345, 3393, 3395, 3347, 3346, 3394, 3396, 3348
2093, 3330, 3378, 3397, 3349, 3347, 3395, 3398, 3350
2094, 3347, 3395, 3398, 3350, 3348, 3396, 3399, 3351
2095, 3349, 3397, 3400, 3352, 3350, 3398, 3401, 3353
2096, 3350, 3398, 3401, 3353, 3351, 3399, 3402, 3354
2097, 3352, 3400, 3403, 3355, 3353, 3401, 3404, 3356
2098, 3353, 3401, 3404, 3356, 3354, 3402, 3405, 3357
2099, 3355, 3403, 3406, 3358, 3356, 3404, 3407, 3359
2100, 3356, 3404, 3407, 3359, 3357, 3405, 3408, 3360
2101, 3361, 3409, 3410, 3362, 3363, 3411, 3412, 3364
2102, 3363, 3411, 3412, 3364, 3365, 3413, 3414, 3366
2103, 3365, 3413, 3414, 3366, 3367, 3415, 3416, 3368
2104, 3367, 3415, 3416, 3368, 3369, 3417, 3418, 3370
2105, 3369, 3417, 3418, 3370, 3371, 3419, 3420, 3372
2106, 3362, 3410, 3421, 3373, 3364, 3412, 3422, 3374
2107, 3364, 3412, 3422, 3374, 3366, 3414, 3423, 3375
2108, 3366, 3414, 3423, 3375, 3368, 3416, 3424, 3376
2109, 3368, 3416, 3424, 3376, 3370, 3418, 3425, 3377
2110, 3370, 3418, 3425, 3377, 3372, 3420, 3426, 3378
2111, 3379, 3427, 3428, 3380, 3381, 3429, 3430, 3382
2112, 3381, 3429, 3430, 3382, 3383, 3431, 3432, 3384
2113, 3380, 3428, 3433, 3385, 3382, 3430, 3434, 3386
2114, 3382, 3430, 3434, 3386, 3384, 3432, 3435, 3387
2115, 3385, 3433, 3436, 3388, 3386, 3434, 3437, 3389
2116, 3386, 3434, 3437, 3389, 3387, 3435, 3438, 3390
2117, 3388, 3436, 3419, 3371, 3389, 3437, 3439, 3391
2118, 3389, 3437, 3439, 3391, 3390, 3438, 3440, 3392
2119, 3371, 3419, 3420, 3372, 3391, 3439, 3441, 3393
2120, 3391, 3439, 3441, 3393, 3392, 3440, 3442, 3394
2121, 3372, 3420, 3426, 3378, 3393, 3441, 3443, 3395
2122, 3393, 3441, 3443, 3395, 3394, 3442, 3444, 3396
2123, 3378, 3426, 3445, 3397, 3395, 3443, 3446, 3398
2124, 3395, 3443, 3446, 3398, 3396, 3444, 3447, 3399
2125, 3397, 3445, 3448, 3400, 3398, 3446, 3449, 3401
2126, 3398, 3446, 3449, 3401, 3399, 3447, 3450, 3402
2127, 3400, 3448, 3451, 3403, 3401, 3449, 3452, 3404
2128, 3401, 3449, 3452, 3404, 3402, 3450, 3453, 3405
2129, 3403, 3451, 3454, 3406, 3404, 3452, 3455, 3407
2130, 3404, 3452, 3455, 3407, 3405, 3453, 3456, 3408
2131, 3409, 3457, 3458, 3410, 3411, 3459, 3460, 3412
2132, 3411, 3459, 3460, 3412, 3413, 3461, 3462, 3414
2133, 3413, 3461, 3462, 3414, 3415, 3463, 3464, 3416
2134, 3415, 3463, 3464, 3416, 3417, 3465, 3466, 3418
2135, 3417, 3465, 3466, 3418, 3419, 3467, 3468, 3420
2136, 3410, 3458, 3469, 3421, 3412, 3460, 3470, 3422
2137, 3412, 3460, 3470, 3422, 3414, 3462, 3471, 3423
2138, 3414, 3462, 3471, 3423, 3416, 3464, 3472, 3424
2139, 3416, 3464, 3472, 3424, 3418, 3466, 3473, 3425
2140, 3418, 3466, 3473, 3425, 3420, 3468, 3474, 3426
2141, 3427, 3475, 3476, 3428, 3429, 3477, 3478, 3430
2142, 3429, 3477, 3478, 3430, 3431, 3479, 3480, 3432
2143, 3428, 3476, 3481, 3433, 3430, 3478, 3482, 3434
2144, 3430, 3478, 3482, 3434, 3432, 3480, 3483, 3435
2145, 3433, 3481, 3484, 3436, 3434, 3482, 3485, 3437
2146, 3434, 3482, 3485, 3437, 3435, 3483, 3486, 3438
2147, 3436, 3484, 3467, 3419, 3437, 3485, 3487, 3439
2148, 3437, 3485, 3487, 3439, 3438, 3486, 3488, 3440
2149, 3419, 3467, 3468, 3420, 3439, 3487, 3489, 3441
2150, 3439, 3487, 3489, 3441, 3440, 3488, 3490, 3442
2151, 3420, 3468, 3474, 3426, 3441, 3489, 3491, 3443
2152, 3441, 3489, 3491, 3443, 3442, 3490, 3492, 3444
2153, 3426, 3474, 3493, 3445, 3443, 3491, 3494, 3446
2154, 3443, 3491, 3494, 3446, 3444, 3492, 3495, 3447
2155, 3445, 3493, 3496, 3448, 3446, 3494, 3497, 3449
2156, 3446, 3494, 3497, 3449, 3447, 3495, 3498, 3450
2157, 3448, 3496, 3499, 3451, 3449, 3497, 3500, 3452
2158, 3449, 3497, 3500, 3452, 3450, 3498, 3501, 3453
2159, 3451, 3499, 3502, 3454, 3452, 3500, 3503, 3455
2160, 3452, 3500, 3503, 3455, 3453, 3501, 3504, 3456
2161, 3457, 3505, 3506, 3458, 3459, 3507, 3508, 3460
2162, 3459, 3507, 3508, 3460, 3461, 3509, 3510, 3462
2163, 3461, 3509, 3510, 3462, 3463, 3511, 3512, 3464
2164, 3463, 3511, 3512, 3464, 3465, 3513, 3514, 3466
2165, 3465, 3513, 3514, 3466, 3467, 3515, 3516, 3468
2166, 3458, 3506, 3517, 3469, 3460, 3508, 3518, 3470
2167, 3460, 3508, 3518, 3470, 3462, 3510, 3519, 3471
2168, 3462, 3510, 3519, 3471, 3464, 3512, 3520, 3472
2169, 3464, 3512, 3520, 3472, 3466, 3514, 3521, 3473
2170, 3466, 3514, 3521, 3473, 3468, 3516, 3522, 3474
2171, 3475, 3523, 3524, 3476, 3477, 3525, 3526, 3478
2172, 3477, 3525, 3526, 3478, 3479, 3527, 3528, 3480
2173, 3476, 3524, 3529, 3481, 3478, 3526, 3530, 3482
2174, 3478, 3526, 3530, 3482, 3480, 3528, 3531, 3483
2175, 3481, 3529, 3532, 3484, 3482, 3530, 3533, 3485
2176, 3482, 3530, 3533, 3485, 3483, 3531, 3534, 3486
2177, 3484, 3532, 3515, 3467, 3485, 3533, 3535, 3487
2178, 3485, 3533, 3535, 3487, 3486, 3534, 3536, 3488
2179, 3467, 3515, 3516, 3468, 3487, 3535, 3537, 3489
2180, 3487, 3535, 3537, 3489, 3488, 3536, 3538, 3490
2181, 3468, 3516, 3522, 3474, 3489, 3537, 3539, 3491
2182, 3489, 3537, 3539, 3491, 3490, 3538, 3540, 3492
2183, 3474, 3522, 3541, 3493, 3491, 3539, 3542, 3494
2184, 3491, 3539, 3542, 3494, 3492, 3540, 3543, 3495
2185, 3493, 3541, 3544, 3496, 3494, 3542, 3545, 3497
2186, 3494, 3542, 3545, 3497, 3495, 3543, 3546, 3498
2187, 3496, 3544, 3547, 3499, 3497, 3545, 3548, 3500
2188, 3497, 3545, 3548, 3500, 3498, 3546, 3549, 3501
2189, 3499, 3547, 3550, 3502, 3500, 3548, 3551, 3503
2190, 3500, 3548, 3551, 3503, 3501, 3549, 3552, 3504
2191, 3505, 3553, 3554, 3506, 3507, 3555, 3556, 3508
2192, 3507, 3555, 3556, 3508, 3509, 3557, 3558, 3510
2193, 3509, 3557, 3558, 3510, 3511, 3559, 3560, 3512
2194, 3511, 3559, 3560, 3512, 3513, 3561, 3562, 3514
2195, 3513, 3561, 3562, 3514, 3515, 3563, 3564, 3516
2196, 3506, 3554, 3565, 3517, 3508, 3556, 3566, 3518
2197, 3508, 3556, 3566, 3518, 3510, 3558, 3567, 3519
2198, 3510, 3558, 3567, 3519, 3512, 3560, 3568, 3520
2199, 3512, 3560, 3568, 3520, 3514, 3562, 3569, 3521
2200, 3514, 3562, 3569, 3521, 3516, 3564, 3570, 3522
2201, 3523, 3571, 3572, 3524, 3525, 3573, 3574, 3526
2202, 3525, 3573, 3574, 3526, 3527, 3575, 3576, 3528
2203, 3524, 3572, 3577, 3529, 3526, 3574, 3578, 3530
2204, 3526, 3574, 3578, 3530, 3528, 3576, 3579, 3531
2205, 3529, 3577, 3580, 3532, 3530, 3578, 3581, 3533
2206, 3530, 3578, 3581, 3533, 3531, 3579, 3582, 3534
2207, 3532, 3580, 3563, 3515, 3533, 3581, 3583, 3535
2208, 3533, 3581, 3583, 3535, 3534, 3582, 3584, 3536
2209, 3515, 3563, 3564, 3516, 3535, 3583, 3585, 3537
2210, 3535, 3583, 3585, 3537, 3536, 3584, 3586, 3538
2211, 3516, 3564, 3570, 3522, 3537, 3585, 3587, 3539
2212, 3537, 3585, 3587, 3539, 3538, 3586, 3588, 3540
2213, 3522, 3570, 3589, 3541, 3539, 3587, 3590, 3542
2214, 3539, 3587, 3590, 3542, 3540, 3588, 3591, 3543
2215, 3541, 3589, 3592, 3544, 3542, 3590, 3593, 3545
2216, 3542, 3590, 3593, 3545, 3543, 3591, 3594, 3546
2217, 3544, 3592, 3595, 3547, 3545, 3593, 3596, 3548
2218, 3545, 3593, 3596, 3548, 3546, 3594, 3597, 3549
2219, 3547, 3595, 3598, 3550, 3548, 3596, 3599, 3551
2220, 3548, 3596, 3599, 3551, 3549, 3597, 3600, 3552
2221, 3553, 3601, 3602, 3554, 3555, 3603, 3604, 3556
2222, 3555, 3603, 3604, 3556, 3557, 3605, 3606, 3558
2223, 3557, 3605, 3606, 3558, 3559, 3607, 3608, 3560
2224, 3559, 3607, 3608, 3560, 3561, 3609, 3610, 3562
2225, 3561, 3609, 3610, 3562, 3563, 3611, 3612, 3564
2226, 3554, 3602, 3613, 3565, 3556, 3604, 3614, 3566
2227, 3556, 3604, 3614, 3566, 3558, 3606, 3615, 3567
2228, 3558, 3606, 3615, 3567, 3560, 3608, 3616, 3568
2229, 3560, 3608, 3616, 3568, 3562, 3610, 3617, 3569
2230, 3562, 3610, 3617, 3569, 3564, 3612, 3618, 3570
2231, 3571, 3619, 3620, 3572, 3573, 3621, 3622, 3574
2232, 3573, 3621, 3622, 3574, 3575, 3623, 3624, 3576
2233, 3572, 3620, 3625, 3577, 3574, 3622, 3626, 3578
2234, 3574, 3622, 3626, 3578, 3576, 3624, 3627, 3579
2235, 3577, 3625, 3628, 3580, 3578, 3626, 3629, 3581
2236, 3578, 3626, 3629, 3581, 3579, 3627, 3630, 3582
2237, 3580, 3628, 3611, 3563, 3581, 3629, 3631, 3583
2238, 3581, 3629, 3631, 3583, 3582, 3630, 3632, 3584
2239, 3563, 3611, 3612, 3564, 3583, 3631, 3633, 3585
2240, 3583, 3631, 3633, 3585, 3584, 3632, 3634, 3586
2241, 3564, 3612, 3618, 3570, 3585, 3633, 3635, 3587
2242, 3585, 3633, 3635, 3587, 3586, 3634, 3636, 3588
2243, 3570, 3618, 3637, 3589, 3587, 3635, 3638, 3590
2244, 3587, 3635, 3638, 3590, 3588, 3636, 3639, 3591
2245, 3589, 3637, 3640, 3592, 3590, 3638, 3641, 3593
2246, 3590, 3638, 3641, 3593, 3591, 3639, 3642, 3594
2247, 3592, 3640, 3643, 3595, 3593, 3641, 3644, 3596
2248, 3593, 3641, 3644, 3596, 3594, 3642, 3645, 3597
2249, 3595, 3643, 3646, 3598, 3596, 3644, 3647, 3599
2250, 3596, 3644, 3647, 3599, 3597, 3645, 3648, 3600
2251, 3601, 3649, 3650, 3602, 3603, 3651, 3652, 3604
2252, 3603, 3651, 3652, 3604, 3605, 3653, 3654, 3606
2253, 3605, 3653, 3654, 3606, 3607, 3655, 3656, 3608
2254, 3607, 3655, 3656, 3608, 3609, 3657, 3658, 3610
2255, 3609, 3657, 3658, 3610, 3611, 3659, 3660, 3612
2256, 3602, 3650, 3661, 3613, 3604, 3652, 3662, 3614
2257, 3604, 3652, 3662, 3614, 3606, 3654, 3663, 3615
2258, 3606, 3654, 3663, 3615, 3608, 3656, 3664, 3616
2259, 3608, 3656, 3664, 3616, 3610, 3658, 3665, 3617
2260, 3610, 3658, 3665, 3617, 3612, 3660, 3666, 3618
2261, 3619, 3667, 3668, 3620, 3621, 3669, 3670, 3622
2262, 3621, 3669, 3670, 3622, 3623, 3671, 3672, 3624
2263, 3620, 3668, 3673, 3625, 3622, 3670, 3674, 3626
2264, 3622, 3670, 3674, 3626, 3624, 3672, 3675, 3627
2265, 3625, 3673, 3676, 3628, 3626, 3674, 3677, 3629
2266, 3626, 3674, 3677, 3629, 3627, 3675, 3678, 3630
2267, 3628, 3676, 3659, 3611, 3629, 3677, 3679, 3631
2268, 3629, 3677, 3679, 3631, 3630, 3678, 3680, 3632
2269, 3611, 3659, 3660, 3612, 3631, 3679, 3681, 3633
2270, 3631, 3679, 3681, 3633, 3632, 3680, 3682, 3634
2271, 3612, 3660, 3666, 3618, 3633, 3681, 3683, 3635
2272, 3633, 3681, 3683, 3635, 3634, 3682, 3684, 3636
2273, 3618, 3666, 3685, 3637, 3635, 3683, 3686, 3638
2274, 3635, 3683, 3686, 3638, 3636, 3684, 3687, 3639
2275, 3637, 3685, 3688, 3640, 3638, 3686, 3689, 3641
2276, 3638, 3686, 3689, 3641, 3639, 3687, 3690, 3642
2277, 3640, 3688, 3691, 3643, 3641, 3689, 3692, 3644
2278, 3641, 3689, 3692, 3644, 3642, 3690, 3693, 3645
2279, 3643, 3691, 3694, 3646, 3644, 3692, 3695, 3647
2280, 3644, 3692, 3695, 3647, 3645, 3693, 3696, 3648
2281, 3649, 3697, 3698, 3650, 3651, 3699, 3700, 3652
2282, 3651, 3699, 3700, 3652, 3653, 3701, 3702, 3654
2283, 3653, 3701, 3702, 3654, 3655, 3703, 3704, 3656
2284, 3655, 3703, 3704, 3656, 3657, 3705, 3706, 3658
2285, 3657, 3705, 3706, 3658, 3659, 3707, 3708, 3660
2286, 3650, 3698, 3709, 3661, 3652, 3700, 3710, 3662
2287, 3652, 3700, 3710, 3662, 3654, 3702, 3711, 3663
2288, 3654, 3702, 3711, 3663, 3656, 3704, 3712, 3664
2289, 3656, 3704, 3712, 3664, 3658, 3706, 3713, 3665
2290, 3658, 3706, 3713, 3665, 3660, 3708, 3714, 3666
2291, 3667, 3715, 3716, 3668, 3669, 3717, 3718, 3670
2292, 3669, 3717, 3718, 3670, 3671, 3719, 3720, 3672
2293, 3668, 3716, 3721, 3673, 3670, 3718, 3722, 3674
2294, 3670, 3718, 3722, 3674, 3672, 3720, 3723, 3675
2295, 3673, 3721, 3724, 3676, 3674, 3722, 3725, 3677
2296, 3674, 3722, 3725, 3677, 3675, 3723, 3726, 3678
2297, 3676, 3724, 3707, 3659, 3677, 3725, 3727, 3679
2298, 3677, 3725, 3727, 3679, 3678, 3726, 3728, 3680
2299, 3659, 3707, 3708, 3660, 3679, 3727, 3729, 3681
2300, 3679, 3727, 3729, 3681, 3680, 3728, 3730, 3682
2301, 3660, 3708, 3714, 3666, 3681, 3729, 3731, 3683
2302, 3681, 3729, 3731, 3683, 3682, 3730, 3732, 3684
2303, 3666, 3714, 3733, 3685, 3683, 3731, 3734, 3686
2304, 3683, 3731, 3734, 3686, 3684, 3732, 3735, 3687
2305, 3685, 3733, 3736, 3688, 3686, 3734, 3737, 3689
2306, 3686, 3734, 3737, 3689, 3687, 3735, 3738, 3690
2307, 3688, 3736, 3739, 3691, 3689, 3737, 3740, 3692
2308, 3689, 3737, 3740, 3692, 3690, 3738, 3741, 3693
2309, 3691, 3739, 3742, 3694, 3692, 3740, 3743, 3695
2310, 3692, 3740, 3743, 3695, 3693, 3741, 3744, 3696
2311, 3697, 3745, 3746, 3698, 3699, 3747, 3748, 3700
2312, 3699, 3747, 3748, 3700, 3701, 3749, 3750, 3702
2313, 3701, 3749, 3750, 3702, 3703, 3751, 3752, 3704
2314, 3703, 3751, 3752, 3704, 3705, 3753, 3754, 3706
2315, 3705, 3753, 3754, 3706, 3707, 3755, 3756, 3708
2316, 3698, 3746, 3757, 3709, 3700, 3748, 3758, 3710
2317, 3700, 3748, 3758, 3710, 3702, 3750, 3759, 3711
2318, 3702, 3750, 3759, 3711, 3704, 3752, 3760, 3712
2319, 3704, 3752, 3760, 3712, 3706, 3754, 3761, 3713
2320, 3706, 3754, 3761, 3713, 3708, 3756, 3762, 3714
2321, 3715, 3763, 3764, 3716, 3717, 3765, 3766, 3718
2322, 3717, 3765, 3766, 3718, 3719, 3767, 3768, 3720
2323, 3716, 3764, 3769, 3721, 3718, 3766, 3770, 3722
2324, 3718, 3766, 3770, 3722, 3720, 3768, 3771, 3723
2325, 3721, 3769, 3772, 3724, 3722, 3770, 3773, 3725
2326, 3722, 3770, 3773, 3725, 3723, 3771, 3774, 3726
2327, 3724, 3772, 3755, 3707, 3725, 3773, 3775, 3727
2328, 3725, 3773, 3775, 3727, 3726, 3774, 3776, 3728
2329, 3707, 3755, 3756, 3708, 3727, 3775, 3777, 3729
2330, 3727, 3775, 3777, 3729, 3728, 3776, 3778, 3730
2331, 3708, 3756, 3762, 3714, 3729, 3777, 3779, 3731
2332, 3729, 3777, 3779, 3731, 3730, 3778, 3780, 3732
2333, 3714, 3762, 3781, 3733, 3731, 3779, 3782, 3734
2334, 3731, 3779, 3782, 3734, 3732, 3780, 3783, 3735
2335, 3733, 3781, 3784, 3736, 3734, 3782, 3785, 3737
2336, 3734, 3782, 3785, 3737, 3735, 3783, 3786, 3738
2337, 3736, 3784, 3787, 3739, 3737, 3785, 3788, 3740
2338, 3737, 3785, 3788, 3740, 3738, 3786, 3789, 3741
2339, 3739, 3787, 3790, 3742, 3740, 3788, 3791, 3743
2340, 3740, 3788, 3791, 3743, 3741, 3789, 3792, 3744
2341, 3745, 3793, 3794, 3746, 3747, 3795, 3796, 3748
2342, 3747, 3795, 3796, 3748, 3749, 3797, 3798, 3750
2343, 3749, 3797, 3798, 3750, 3751, 3799, 3800, 3752
2344, 3751, 3799, 3800, 3752, 3753, 3801, 3802, 3754
2345, 3753, 3801, 3802, 3754, 3755, 3803, 3804, 3756
2346, 3746, 3794, 3805, 3757, 3748, 3796, 3806, 3758
2347, 3748, 3796, 3806, 3758, 3750, 3798, 3807, 3759
2348, 3750, 3798, 3807, 3759, 3752, 3800, 3808, 3760
2349, 3752, 3800, 3808, 3760, 3754, 3802, 3809, 3761
2350, 3754, 3802, 3809, 3761, 3756, 3804, 3810, 3762
2351, 3763, 3811, 3812, 3764, 3765, 3813, 3814, 3766
2352, 3765, 3813, 3814, 3766, 3767, 3815, 3816, 3768
2353, 3764, 3812, 3817, 3769, 3766, 3814, 3818, 3770
2354, 3766, 3814, 3818, 3770, 3768, 3816, 3819, 3771
2355, 3769, 3817, 3820, 3772, 3770, 3818, 3821, 3773
2356, 3770, 3818, 3821, 3773, 3771, 3819, 3822, 3774
2357, 3772, 3820, 3803, 3755, 3773, 3821, 3823, 3775
2358, 3773, 3821, 3823, 3775, 3774, 3822, 3824, 3776
2359, 3755, 3803, 3804, 3756, 3775, 3823, 3825, 3777
2360, 3775, 3823, 3825, 3777, 3776, 3824, 3826, 3778
2361, 3756, 3804, 3810, 3762, 3777, 3825, 3827, 3779
2362, 3777, 3825, 3827, 3779, 3778, 3826, 3828, 3780
2363, 3762, 3810, 3829, 3781, 3779, 3827, 3830, 3782
2364, 3779, 3827, 3830, 3782, 3780, 3828, 3831, 3783
2365, 3781, 3829, 3832, 3784, 3782, 3830, 3833, 3785
2366, 3782, 3830, 3833, 3785, 3783, 3831, 3834, 3786
2367, 3784, 3832, 3835, 3787, 3785, 3833, 3836, 3788
2368, 3785, 3833, 3836, 3788, 3786, 3834, 3837, 3789
2369, 3787, 3835, 3838, 3790, 3788, 3836, 3839, 3791
2370, 3788, 3836, 3839, 3791, 3789, 3837, 3840, 3792
2371, 3793, 3841, 3842, 3794, 3795, 3843, 3844, 3796
2372, 3795, 3843, 3844, 3796, 3797, 3845, 3846, 3798
2373, 3797, 3845, 3846, 3798, 3799, 3847, 3848, 3800
2374, 3799, 3847, 3848, 3800, 3801, 3849, 3850, 3802
2375, 3801, 3849, 3850, 3802, 3803, 3851, 3852, 3804
2376, 3794, 3842, 3853, 3805, 3796, 3844, 3854, 3806
2377, 3796, 3844, 3854, 3806, 3798, 3846, 3855, 3807
2378, 3798, 3846, 3855, 3807, 3800, 3848, 3856, 3808
2379, 3800, 3848, 3856, 3808, 3802, 3850, 3857, 3809
2380, 3802, 3850, 3857, 3809, 3804, 3852, 3858, 3810
2381, 3811, 3859, 3860, 3812, 3813, 3861, 3862, 3814
2382, 3813, 3861, 3862, 3814, 3815, 3863, 3864, 3816
2383, 3812, 3860, 3865, 3817, 3814, 3862, 3866, 3818
2384, 3814, 3862, 3866, 3818, 3816, 3864, 3867, 3819
2385, 3817, 3865, 3868, 3820, 3818, 3866, 3869, 3821
2386, 3818, 3866, 3869, 3821, 3819, 3867, 3870, 3822
2387, 3820, 3868, 3851, 3803, 3821, 3869, 3871, 3823
2388, 3821, 3869, 3871, 3823, 3822, 3870, 3872, 3824
2389, 3803, 3851, 3852, 3804, 3823, 3871, 3873, 3825
2390, 3823, 3871, 3873, 3825, 3824, 3872, 3874, 3826
2391, 3804, 3852, 3858, 3810, 3825, 3873, 3875, 3827
2392, 3825, 3873, 3875, 3827, 3826, 3874, 3876, 3828
2393, 3810, 3858, 3877, 3829, 3827, 3875, 3878, 3830
2394, 3827, 3875, 3878, 3830, 3828, 3876, 3879, 3831
2395, 3829, 3877, 3880, 3832, 3830, 3878, 3881, 3833
2396, 3830, 3878, 3881, 3833, 3831, 3879, 3882, 3834
2397, 3832, 3880, 3883, 3835, 3833, 3881, 3884, 3836
2398, 3833, 3881, 3884, 3836, 3834, 3882, 3885, 3837
2399, 3835, 3883, 3886, 3838, 3836, 3884, 3887, 3839
2400, 3836, 3884, 3887, 3839, 3837, 3885, 3888, 3840
2401, 3841, 3889, 3890, 3842, 3843, 3891, 3892, 3844
2402, 3843, 3891, 3892, 3844, 3845, 3893, 3894, 3846
2403, 3845, 3893, 3894, 3846, 3847, 3895, 3896, 3848
2404, 3847, 3895, 3896, 3848, 3849, 3897, 3898, 3850
2405, 3849, 3897, 3898, 3850, 3851, 3899, 3900, 3852
2406, 3842, 3890, 3901, 3853, 3844, 3892, 3902, 3854
2407, 3844, 3892, 3902, 3854, 3846, 3894, 3903, 3855
2408, 3846, 3894, 3903, 3855, 3848, 3896, 3904, 3856
2409, 3848, 3896, 3904, 3856, 3850, 3898, 3905, 3857
2410, 3850, 3898, 3905, 3857, 3852, 3900, 3906, 3858
2411, 3859, 3907, 3908, 3860, 3861, 3909, 3910, 3862
2412, 3861, 3909, 3910, 3862, 3863, 3911, 3912, 3864
2413, 3860, 3908, 3913, 3865, 3862, 3910, 3914, 3866
2414, 3862, 3910, 3914, 3866, 3864, 3912, 3915, 3867
2415, 3865, 3913, 3916, 3868, 3866, 3914, 3917, 3869
2416, 3866, 3914, 3917, 3869, 3867, 3915, 3918, 3870
2417, 3868, 3916, 3899, 3851, 3869, 3917, 3919, 3871
2418, 3869, 3917, 3919, 3871, 3870, 3918, 3920, 3872
2419, 3851, 3899, 3900, 3852, 3871, 3919, 3921, 3873
2420, 3871, 3919, 3921, 3873, 3872, 3920, 3922, 3874
2421, 3852, 3900, 3906, 3858, 3873, 3921, 3923, 3875
2422, 3873, 3921, 3923, 3875, 3874, 3922, 3924, 3876
2423, 3858, 3906, 3925, 3877, 3875, 3923, 3926, 3878
2424, 3875, 3923, 3926, 3878, 3876, 3924, 3927, 3879
2425, 3877, 3925, 3928, 3880, 3878, 3926, 3929, 3881
2426, 3878, 3926, 3929, 3881, 3879, 3927, 3930, 3882
2427, 3880, 3928, 3931, 3883, 3881, 3929, 3932, 3884
2428, 3881, 3929, 3932, 3884, 3882, 3930, 3933, 3885
2429, 3883, 3931, 3934, 3886, 3884, 3932, 3935, 3887
2430, 3884, 3932, 3935, 3887, 3885, 3933, 3936, 3888
2431, 3889, 3937, 3938, 3890, 3891, 3939, 3940, 3892
2432, 3891, 3939, 3940, 3892, 3893, 3941, 3942, 3894
2433, 3893, 3941, 3942, 3894, 3895, 3943, 3944, 3896
2434, 3895, 3943, 3944, 3896, 3897, 3945, 3946, 3898
2435, 3897, 3945, 3946, 3898, 3899, 3947, 3948, 3900
2436, 3890, 3938, 3949, 3901, 3892, 3940, 3950, 3902
2437, 3892, 3940, 3950, 3902, 3894, 3942, 3951, 3903
2438, 3894, 3942, 3951, 3903, 3896, 3944, 3952, 3904
2439, 3896, 3944, 3952, 3904, 3898, 3946, 3953, 3905
2440, 3898, 3946, 3953, 3905, 3900, 3948, 3954, 3906
2441, 3907, 3955, 3956, 3908, 3909, 3957, 3958, 3910
2442, 3909, 3957, 3958, 3910, 3911, 3959, 3960, 3912
2443, 3908, 3956, 3961, 3913, 3910, 3958, 3962, 3914
2444, 3910, 3958, 3962, 3914, 3912, 3960, 3963, 3915
2445, 3913, 3961, 3964, 3916, 3914, 3962, 3965, 3917
2446, 3914, 3962, 3965, 3917, 3915, 3963, 3966, 3918
2447, 3916, 3964, 3947, 3899, 3917, 3965, 3967, 3919
2448, 3917, 3965, 3967, 3919, 3918, 3966, 3968, 3920
2449, 3899, 3947, 3948, 3900, 3919, 3967, 3969, 3921
2450, 3919, 3967, 3969, 3921, 3920, 3968, 3970, 3922
2451, 3900, 3948, 3954, 3906, 3921, 3969, 3971, 3923
2452, 3921, 3969, 3971, 3923, 3922, 3970, 3972, 3924
2453, 3906, 3954, 3973, 3925, 3923, 3971, 3974, 3926
2454, 3923, 3971, 3974, 3926, 3924, 3972, 3975, 3927
2455, 3925, 3973, 3976, 3928, 3926, 3974, 3977, 3929
2456, 3926, 3974, 3977, 3929, 3927, 3975, 3978, 3930
2457, 3928, 3976, 3979, 3931, 3929, 3977, 3980, 3932
2458, 3929, 3977, 3980, 3932, 3930, 3978, 3981, 3933
2459, 3931, 3979, 3982, 3934, 3932, 3980, 3983, 3935
2460, 3932, 3980, 3983, 3935, 3933, 3981, 3984, 3936
2461, 3937, 3985, 3986, 3938, 3939, 3987, 3988, 3940
2462, 3939, 3987, 3988, 3940, 3941, 3989, 3990, 3942
2463, 3941, 3989, 3990, 3942, 3943, 3991, 3992, 3944
2464, 3943, 3991, 3992, 3944, 3945, 3993, 3994, 3946
2465, 3945, 3993, 3994, 3946, 3947, 3995, 3996, 3948
2466, 3938, 3986, 3997, 3949, 3940, 3988, 3998, 3950
2467, 3940, 3988, 3998, 3950, 3942, 3990, 3999, 3951
2468, 3942, 3990, 3999, 3951, 3944, 3992, 4000, 3952
2469, 3944, 3992, 4000, 3952, 3946, 3994, 4001, 3953
2470, 3946, 3994, 4001, 3953, 3948, 3996, 4002, 3954
2471, 3955, 4003, 4004, 3956, 3957, 4005, 4006, 3958
2472, 3957, 4005, 4006, 3958, 3959, 4007, 4008, 3960
2473, 3956, 4004, 4009, 3961, 3958, 4006, 4010, 3962
2474, 3958, 4006, 4010, 3962, 3960, 4008, 4011, 3963
2475, 3961, 4009, 4012, 3964, 3962, 4010, 4013, 3965
2476, 3962, 4010, 4013, 3965, 3963, 4011, 4014, 3966
2477, 3964, 4012, 3995, 3947, 3965, 4013, 4015, 3967
2478, 3965, 4013, 4015, 3967, 3966, 4014, 4016, 3968
2479, 3947, 3995, 3996, 3948, 3967, 4015, 4017, 3969
2480, 3967, 4015, 4017, 3969, 3968, 4016, 4018, 3970
2481, 3948, 3996, 4002, 3954, 3969, 4017, 4019, 3971
2482, 3969, 4017, 4019, 3971, 3970, 4018, 4020, 3972
2483, 3954, 4002, 4021, 3973, 3971, 4019, 4022, 3974
2484, 3971, 4019, 4022, 3974, 3972, 4020, 4023, 3975
2485, 3973, 4021, 4024, 3976, 3974, 4022, 4025, 3977
2486, 3974, 4022, 4025, 3977, 3975, 4023, 4026, 3978
2487, 3976, 4024, 4027, 3979, 3977, 4025, 4028, 3980
2488, 3977, 4025, 4028, 3980, 3978, 4026, 4029, 3981
2489, 3979, 4027, 4030, 3982, 3980, 4028, 4031, 3983
2490, 3980, 4028, 4031, 3983, 3981, 4029, 4032, 3984
2491, 3985, 4033, 4034, 3986, 3987, 4035, 4036, 3988
2492, 3987, 4035, 4036, 3988, 3989, 4037, 4038, 3990
2493, 3989, 4037, 4038, 3990, 3991, 4039, 4040, 3992
2494, 3991, 4039, 4040, 3992, 3993, 4041, 4042, 3994
2495, 3993, 4041, 4042, 3994, 3995, 4043, 4044, 3996
2496, 3986, 4034, 4045, 3997, 3988, 4036, 4046, 3998
2497, 3988, 4036, 4046, 3998, 3990, 4038, 4047, 3999
2498, 3990, 4038, 4047, 3999, 3992, 4040, 4048, 4000
2499, 3992, 4040, 4048, 4000, 3994, 4042, 4049, 4001
2500, 3994, 4042, 4049, 4001, 3996, 4044, 4050, 4002
2501, 4003, 4051, 4052, 4004, 4005, 4053, 4054, 4006
2502, 4005, 4053, 4054, 4006, 4007, 4055, 4056, 4008
2503, 4004, 4052, 4057, 4009, 4006, 4054, 4058, 4010
2504, 4006, 4054, 4058, 4010, 4008, 4056, 4059, 4011
2505, 4009, 4057, 4060, 4012, 4010, 4058, 4061, 4013
2506, 4010, 4058, 4061, 4013, 4011, 4059, 4062, 4014
2507, 4012, 4060, 4043, 3995, 4013, 4061, 4063, 4015
2508, 4013, 4061, 4063, 4015, 4014, 4062, 4064, 4016
2509, 3995, 4043, 4044, 3996, 4015, 4063, 4065, 4017
2510, 4015, 4063, 4065, 4017, 4016, 4064, 4066, 4018
2511, 3996, 4044, 4050, 4002, 4017, 4065, 4067, 4019
2512, 4017, 4065, 4067, 4019, 4018, 4066, 4068, 4020
2513, 4002, 4050, 4069, 4021, 4019, 4067, 4070, 4022
2514, 4019, 4067, 4070, 4022, 4020, 4068, 4071, 4023
2515, 4021, 4069, 4072, 4024, 4022, 4070, 4073, 4025
2516, 4022, 4070, 4073, 4025, 4023, 4071, 4074, 4026
2517, 4024, 4072, 4075, 4027, 4025, 4073, 4076, 4028
2518, 4025, 4073, 4076, 4028, 4026, 4074, 4077, 4029
2519, 4027, 4075, 4078, 4030, 4028, 4076, 4079, 4031
2520, 4028, 4076, 4079, 4031, 4029, 4077, 4080, 4032
2521, 4033, 4081, 4082, 4034, 4035, 4083, 4084, 4036
2522, 4035, 4083, 4084, 4036, 4037, 4085, 4086, 4038
2523, 4037, 4085, 4086, 4038, 4039, 4087, 4088, 4040
2524, 4039, 4087, 4088, 4040, 4041, 4089, 4090, 4042
2525, 4041, 4089, 4090, 4042, 4043, 4091, 4092, 4044
2526, 4034, 4082, 4093, 4045, 4036, 4084, 4094, 4046
2527, 4036, 4084, 4094, 4046, 4038, 4086, 4095, 4047
2528, 4038, 4086, 4095, 4047, 4040, 4088, 4096, 4048
2529, 4040, 4088, 4096, 4048, 4042, 4090, 4097, 4049
2530, 4042, 4090, 4097, 4049, 4044, 4092, 4098, 4050
2531, 4051, 4099, 4100, 4052, 4053, 4101, 4102, 4054
2532, 4053, 4101, 4102, 4054, 4055, 4103, 4104, 4056
2533, 4052, 4100, 4105, 4057, 4054, 4102, 4106, 4058
2534, 4054, 4102, 4106, 4058, 4056, 4104, 4107, 4059
2535, 4057, 4105, 4108, 4060, 4058, 4106, 4109, 4061
2536, 4058, 4106, 4109, 4061, 4059, 4107, 4110, 4062
2537, 4060, 4108, 4091, 4043, 4061, 4109, 4111, 4063
2538, 4061, 4109, 4111, 4063, 4062, 4110, 4112, 4064
2539, 4043, 4091, 4092, 4044, 4063, 4111, 4113, 4065
2540, 4063, 4111, 4113, 4065, 4064, 4112, 4114, 4066
2541, 4044, 4092, 4098, 4050, 4065, 4113, 4115, 4067
2542, 4065, 4113, 4115, 4067, 4066, 4114, 4116, 4068
2543, 4050, 4098, 4117, 4069, 4067, 4115, 4118, 4070
2544, 4067, 4115, 4118, 4070, 4068, 4116, 4119, 4071
2545, 4069, 4117, 4120, 4072, 4070, 4118, 4121, 4073
2546, 4070, 4118, 4121, 4073, 4071, 4119, 4122, 4074
2547, 4072, 4120, 4123, 4075, 4073, 4121, 4124, 4076
2548, 4073, 4121, 4124, 4076, 4074, 4122, 4125, 4077
2549, 4075, 4123, 4126, 4078, 4076, 4124, 4127, 4079
2550, 4076, 4124, 4127, 4079, 4077, 4125, 4128, 4080
2551, 4081, 4129, 4130, 4082, 4083, 4131, 4132, 4084
2552, 4083, 4131, 4132, 4084, 4085, 4133, 4134, 4086
2553, 4085, 4133, 4134, 4086, 4087, 4135, 4136, 4088
2554, 4087, 4135, 4136, 4088, 4089, 4137, 4138, 4090
2555, 4089, 4137, 4138, 4090, 4091, 4139, 4140, 4092
2556, 4082, 4130, 4141, 4093, 4084, 4132, 4142, 4094
2557, 4084, 4132, 4142, 4094, 4086, 4134, 4143, 4095
2558, 4086, 4134, 4143, 4095, 4088, 4136, 4144, 4096
2559, 4088, 4136, 4144, 4096, 4090, 4138, 4145, 4097
2560, 4090, 4138, 4145, 4097, 4092, 4140, 4146, 4098
2561, 4099, 4147, 4148, 4100, 4101, 4149, 4150, 4102
2562, 4101, 4149, 4150, 4102, 4103, 4151, 4152, 4104
2563, 4100, 4148, 4153, 4105, 4102, 4150, 4154, 4106
2564, 4102, 4150, 4154, 4106, 4104, 4152, 4155, 4107
2565, 4105, 4153, 4156, 4108, 4106, 4154, 4157, 4109
2566, 4106, 4154, 4157, 4109, 4107, 4155, 4158, 4110
2567, 4108, 4156, 4139, 4091, 4109, 4157, 4159, 4111
2568, 4109, 4157, 4159, 4111, 4110, 4158, 4160, 4112
2569, 4091, 4139, 4140, 4092, 4111, 4159, 4161, 4113
2570, 4111, 4159, 4161, 4113, 4112, 4160, 4162, 4114
2571, 4092, 4140, 4146, 4098, 4113, 4161, 4163, 4115
2572, 4113, 4161, 4163, 4115, 4114, 4162, 4164, 4116
2573, 4098, 4146, 4165, 4117, 4115, 4163, 4166, 4118
2574, 4115, 4163, 4166, 4118, 4116, 4164, 4167, 4119
2575, 4117, 4165, 4168, 4120, 4118, 4166, 4169, 4121
2576, 4118, 4166, 4169, 4121, 4119, 4167, 4170, 4122
2577, 4120, 4168, 4171, 4123, 4121, 4169, 4172, 4124
2578, 4121, 4169, 4172, 4124, 4122, 4170, 4173, 4125
2579, 4123, 4171, 4174, 4126, 4124, 4172, 4175, 4127
2580, 4124, 4172, 4175, 4127, 4125, 4173, 4176, 4128
2581, 4129, 4177, 4178, 4130, 4131, 4179, 4180, 4132
2582, 4131, 4179, 4180, 4132, 4133, 4181, 4182, 4134
2583, 4133, 4181, 4182, 4134, 4135, 4183, 4184, 4136
2584, 4135, 4183, 4184, 4136, 4137, 4185, 4186, 4138
2585, 4137, 4185, 4186, 4138, 4139, 4187, 4188, 4140
2586, 4130, 4178, 4189, 4141, 4132, 4180, 4190, 4142
2587, 4132, 4180, 4190, 4142, 4134, 4182, 4191, 4143
2588, 4134, 4182, 4191, 4143, 4136, 4184, 4192, 4144
2589, 4136, 4184, 4192, 4144, 4138, 4186, 4193, 4145
2590, 4138, 4186, 4193, 4145, 4140, 4188, 4194, 4146
2591, 4147, 4195, 4196, 4148, 4149, 4197, 4198, 4150
2592, 4149, 4197, 4198, 4150, 4151, 4199, 4200, 4152
2593, 4148, 4196, 4201, 4153, 4150, 4198, 4202, 4154
2594, 4150, 4198, 4202, 4154, 4152, 4200, 4203, 4155
2595, 4153, 4201, 4204, 4156, 4154, 4202, 4205, 4157
2596, 4154, 4202, 4205, 4157, 4155, 4203, 4206, 4158
2597, 4156, 4204, 4187, 4139, 4157, 4205, 4207, 4159
2598, 4157, 4205, 4207, 4159, 4158, 4206, 4208, 4160
2599, 4139, 4187, 4188, 4140, 4159, 4207, 4209, 4161
2600, 4159, 4207, 4209, 4161, 4160, 4208, 4210, 4162
2601, 4140, 4188, 4194, 4146, 4161, 4209, 4211, 4163
2602, 4161, 4209, 4211, 4163, 4162, 4210, 4212, 4164
2603, 4146, 4194, 4213, 4165, 4163, 4211, 4214, 4166
2604, 4163, 4211, 4214, 4166, 4164, 4212, 4215, 4167
2605, 4165, 4213, 4216, 4168, 4166, 4214, 4217, 4169
2606, 4166, 4214, 4217, 4169, 4167, 4215, 4218, 4170
2607, 4168, 4216, 4219, 4171, 4169, 4217, 4220, 4172
2608, 4169, 4217, 4220, 4172, 4170, 4218, 4221, 4173
2609, 4171, 4219, 4222, 4174, 4172, 4220, 4223, 4175
2610, 4172, 4220, 4223, 4175, 4173, 4221, 4224, 4176
2611, 4177, 4225, 4226, 4178, 4179, 4227, 4228, 4180
2612, 4179, 4227, 4228, 4180, 4181, 4229, 4230, 4182
2613, 4181, 4229, 4230, 4182, 4183, 4231, 4232, 4184
2614, 4183, 4231, 4232, 4184, 4185, 4233, 4234, 4186
2615, 4185, 4233, 4234, 4186, 4187, 4235, 4236, 4188
2616, 4178, 4226, 4237, 4189, 4180, 4228, 4238, 4190
2617, 4180, 4228, 4238, 4190, 4182, 4230, 4239, 4191
2618, 4182, 4230, 4239, 4191, 4184, 4232, 4240, 4192
2619, 4184, 4232, 4240, 4192, 4186, 4234, 4241, 4193
2620, 4186, 4234, 4241, 4193, 4188, 4236, 4242, 4194
2621, 4195, 4243, 4244, 4196, 4197, 4245, 4246, 4198
2622, 4197, 4245, 4246, 4198, 4199, 4247, 4248, 4200
2623, 4196, 4244, 4249, 4201, 4198, 4246, 4250, 4202
2624, 4198, 4246, 4250, 4202, 4200, 4248, 4251, 4203
2625, 4201, 4249, 4252, 4204, 4202, 4250, 4253, 4205
2626, 4202, 4250, 4253, 4205, 4203, 4251, 4254, 4206
2627, 4204, 4252, 4235, 4187, 4205, 4253, 4255, 4207
2628, 4205, 4253, 4255, 4207, 4206, 4254, 4256, 4208
2629, 4187, 4235, 4236, 4188, 4207, 4255, 4257, 4209
2630, 4207, 4255, 4257, 4209, 4208, 4256, 4258, 4210
2631, 4188, 4236, 4242, 4194, 4209, 4257, 4259, 4211
2632, 4209, 4257, 4259, 4211, 4210, 4258, 4260, 4212
2633, 4194, 4242, 4261, 4213, 4211, 4259, 4262, 4214
2634, 4211, 4259, 4262, 4214, 4212, 4260, 4263, 4215
2635, 4213, 4261, 4264, 4216, 4214, 4262, 4265, 4217
2636, 4214, 4262, 4265, 4217, 4215, 4263, 4266, 4218
2637, 4216, 4264, 4267, 4219, 4217, 4265, 4268, 4220
2638, 4217, 4265, 4268, 4220, 4218, 4266, 4269, 4221
2639, 4219, 4267, 4270, 4222, 4220, 4268, 4271, 4223
2640, 4220, 4268, 4271, 4223, 4221, 4269, 4272, 4224
2641, 4225, 4273, 4274, 4226, 4227, 4275, 4276, 4228
2642, 4227, 4275, 4276, 4228, 4229, 4277, 4278, 4230
2643, 4229, 4277, 4278, 4230, 4231, 4279, 4280, 4232
2644, 4231, 4279, 4280, 4232, 4233, 4281, 4282, 4234
2645, 4233, 4281, 4282, 4234, 4235, 4283, 4284, 4236
2646, 4226, 4274, 4285, 4237, 4228, 4276, 4286, 4238
2647, 4228, 4276, 4286, 4238, 4230, 4278, 4287, 4239
2648, 4230, 4278, 4287, 4239, 4232, 4280, 4288, 4240
2649, 4232, 4280, 4288, 4240, 4234, 4282, 4289, 4241
2650, 4234, 4282, 4289, 4241, 4236, 4284, 4290, 4242
2651, 4243, 4291, 4292, 4244, 4245, 4293, 4294, 4246
2652, 4245, 4293, 4294, 4246, 4247, 4295, 4296, 4248
2653, 4244, 4292, 4297, 4249, 4246, 4294, 4298, 4250
2654, 4246, 4294, 4298, 4250, 4248, 4296, 4299, 4251
2655, 4249, 4297, 4300, 4252, 4250, 4298, 4301, 4253
2656, 4250, 4298, 4301, 4253, 4251, 4299, 4302, 4254
2657, 4252, 4300, 4283, 4235, 4253, 4301, 4303, 4255
2658, 4253, 4301, 4303, 4255, 4254, 4302, 4304, 4256
2659, 4235, 4283, 4284, 4236, 4255, 4303, 4305, 4257
2660, 4255, 4303, 4305, 4257, 4256, 4304, 4306, 4258
2661, 4236, 4284, 4290, 4242, 4257, 4305, 4307, 4259
2662, 4257, 4305, 4307, 4259, 4258, 4306, 4308, 4260
2663, 4242, 4290, 4309, 4261, 4259, 4307, 4310, 4262
2664, 4259, 4307, 4310, 4262, 4260, 4308, 4311, 4263
2665, 4261, 4309, 4312, 4264, 4262, 4310, 4313, 4265
2666, 4262, 4310, 4313, 4265, 4263, 4311, 4314, 4266
2667, 4264, 4312, 4315, 4267, 4265, 4313, 4316, 4268
2668, 4265, 4313, 4316, 4268, 4266, 4314, 4317, 4269
2669, 4267, 4315, 4318, 4270, 4268, 4316, 4319, 4271
2670, 4268, 4316, 4319, 4271, 4269, 4317, 4320, 4272
2671, 4273, 4321, 4322, 4274, 4275, 4323, 4324, 4276
2672, 4275, 4323, 4324, 4276, 4277, 4325, 4326, 4278
2673, 4277, 4325, 4326, 4278, 4279, 4327, 4328, 4280
2674, 4279, 4327, 4328, 4280, 4281, 4329, 4330, 4282
2675, 4281, 4329, 4330, 4282, 4283, 4331, 4332, 4284
2676, 4274, 4322, 4333, 4285, 4276, 4324, 4334, 4286
2677, 4276, 4324, 4334, 4286, 4278, 4326, 4335, 4287
2678, 4278, 4326, 4335, 4287, 4280, 4328, 4336, 4288
2679, 4280, 4328, 4336, 4288, 4282, 4330, 4337, 4289
2680, 4282, 4330, 4337, 4289, 4284, 4332, 4338, 4290
2681, 4291, 4339, 4340, 4292, 4293, 4341, 4342, 4294
2682, 4293, 4341, 4342, 4294, 4295, 4343, 4344, 4296
2683, 4292, 4340, 4345, 4297, 4294, 4342, 4346, 4298
2684, 4294, 4342, 4346, 4298, 4296, 4344, 4347, 4299
2685, 4297, 4345, 4348, 4300, 4298, 4346, 4349, 4301
2686, 4298, 4346, 4349, 4301, 4299, 4347, 4350, 4302
2687, 4300, 4348, 4331, 4283, 4301, 4349, 4351, 4303
2688, 4301, 4349, 4351, 4303, 4302, 4350, 4352, 4304
2689, 4283, 4331, 4332, 4284, 4303, 4351, 4353, 4305
2690, 4303, 4351, 4353, 4305, 4304, 4352, 4354, 4306
2691, 4284, 4332, 4338, 4290, 4305, 4353, 4355, 4307
2692, 4305, 4353, 4355, 4307, 4306, 4354, 4356, 4308
2693, 4290, 4338, 4357, 4309, 4307, 4355, 4358, 4310
2694, 4307, 4355, 4358, 4310, 4308, 4356, 4359, 4311
2695, 4309, 4357, 4360, 4312, 4310, 4358, 4361, 4313
2696, 4310, 4358, 4361, 4313, 4311, 4359, 4362, 4314
2697, 4312, 4360, 4363, 4315, 4313, 4361, 4364, 4316
2698, 4313, 4361, 4364, 4316, 4314, 4362, 4365, 4317
2699, 4315, 4363, 4366, 4318, 4316, 4364, 4367, 4319
2700, 4316, 4364, 4367, 4319, 4317, 4365, 4368, 4320
2701, 4321, 4369, 4370, 4322, 4323, 4371, 4372, 4324
2702, 4323, 4371, 4372, 4324, 4325, 4373, 4374, 4326
2703, 4325, 4373, 4374, 4326, 4327, 4375, 4376, 4328
2704, 4327, 4375, 4376, 4328, 4329, 4377, 4378, 4330
2705, 4329, 4377, 4378, 4330, 4331, 4379, 4380, 4332
2706, 4322, 4370, 4381, 4333, 4324, 4372, 4382, 4334
2707, 4324, 4372, 4382, 4334, 4326, 4374, 4383, 4335
2708, 4326, 4374, 4383, 4335, 4328, 4376, 4384, 4336
2709, 4328, 4376, 4384, 4336, 4330, 4378, 4385, 4337
2710, 4330, 4378, 4385, 4337, 4332, 4380, 4386, 4338
2711, 4339, 4387, 4388, 4340, 4341, 4389, 4390, 4342
2712, 4341, 4389, 4390, 4342, 4343, 4391, 4392, 4344
2713, 4340, 4388, 4393, 4345, 4342, 4390, 4394, 4346
2714, 4342, 4390, 4394, 4346, 4344, 4392, 4395, 4347
2715, 4345, 4393, 4396, 4348, 4346, 4394, 4397, 4349
2716, 4346, 4394, 4397, 4349, 4347, 4395, 4398, 4350
2717, 4348, 4396, 4379, 4331, 4349, 4397, 4399, 4351
2718, 4349, 4397, 4399, 4351, 4350, 4398, 4400, 4352
2719, 4331, 4379, 4380, 4332, 4351, 4399, 4401, 4353
2720, 4351, 4399, 4401, 4353, 4352, 4400, 4402, 4354
2721, 4332, 4380, 4386, 4338, 4353, 4401, 4403, 4355
2722, 4353, 4401, 4403, 4355, 4354, 4402, 4404, 4356
2723, 4338, 4386, 4405, 4357, 4355, 4403, 4406, 4358
2724, 4355, 4403, 4406, 4358, 4356, 4404, 4407, 4359
2725, 4357, 4405, 4408, 4360, 4358, 4406, 4409, 4361
2726, 4358, 4406, 4409, 4361, 4359, 4407, 4410, 4362
2727, 4360, 4408, 4411, 4363, 4361, 4409, 4412, 4364
2728, 4361, 4409, 4412, 4364, 4362, 4410, 4413, 4365
2729, 4363, 4411, 4414, 4366, 4364, 4412, 4415, 4367
2730, 4364, 4412, 4415, 4367, 4365, 4413, 4416, 4368
2731, 4369, 4417, 4418, 4370, 4371, 4419, 4420, 4372
2732, 4371, 4419, 4420, 4372, 4373, 4421, 4422, 4374
2733, 4373, 4421, 4422, 4374, 4375, 4423, 4424, 4376
2734, 4375, 4423, 4424, 4376, 4377, 4425, 4426, 4378
2735, 4377, 4425, 4426, 4378, 4379, 4427, 4428, 4380
2736, 4370, 4418, 4429, 4381, 4372, 4420, 4430, 4382
2737, 4372, 4420, 4430, 4382, 4374, 4422, 4431, 4383
2738, 4374, 4422, 4431, 4383, 4376, 4424, 4432, 4384
2739, 4376, 4424, 4432, 4384, 4378, 4426, 4433, 4385
2740, 4378, 4426, 4433, 4385, 4380, 4428, 4434, 4386
2741, 4387, 4435, 4436, 4388, 4389, 4437, 4438, 4390
2742, 4389, 4437, 4438, 4390, 4391, 4439, 4440, 4392
2743, 4388, 4436, 4441, 4393, 4390, 4438, 4442, 4394
2744, 4390, 4438, 4442, 4394, 4392, 4440, 4443, 4395
2745, 4393, 4441, 4444, 4396, 4394, 4442, 4445, 4397
2746, 4394, 4442, 4445, 4397, 4395, 4443, 4446, 4398
2747, 4396, 4444, 4427, 4379, 4397, 4445, 4447, 4399
2748, 4397, 4445, 4447, 4399, 4398, 4446, 4448, 4400
2749, 4379, 4427, 4428, 4380, 4399, 4447, 4449, 4401
2750, 4399, 4447, 4449, 4401, 4400, 4448, 4450, 4402
2751, 4380, 4428, 4434, 4386, 4401, 4449, 4451, 4403
2752, 4401, 4449, 4451, 4403, 4402, 4450, 4452, 4404
2753, 4386, 4434, 4453, 4405, 4403, 4451, 4454, 4406
2754, 4403, 4451, 4454, 4406, 4404, 4452, 4455, 4407
2755, 4405, 4453, 4456, 4408, 4406, 4454, 4457, 4409
2756, 4406, 4454, 4457, 4409, 4407, 4455, 4458, 4410
2757, 4408, 4456, 4459, 4411, 4409, 4457, 4460, 4412
2758, 4409, 4457, 4460, 4412, 4410, 4458, 4461, 4413
2759, 4411, 4459, 4462, 4414, 4412, 4460, 4463, 4415
2760, 4412, 4460, 4463, 4415, 4413, 4461, 4464, 4416
2761, 4417, 4465, 4466, 4418, 4419, 4467, 4468, 4420
2762, 4419, 4467, 4468, 4420, 4421, 4469, 4470, 4422
2763, 4421, 4469, 4470, 4422, 4423, 4471, 4472, 4424
2764, 4423, 4471, 4472, 4424, 4425, 4473, 4474, 4426
2765, 4425, 4473, 4474, 4426, 4427, 4475, 4476, 4428
2766, 4418, 4466, 4477, 4429, 4420, 4468, 4478, 4430
2767, 4420, 4468, 4478, 4430, 4422, 4470, 4479, 4431
2768, 4422, 4470, 4479, 4431, 4424, 4472, 4480, 4432
2769, 4424, 4472, 4480, 4432, 4426, 4474, 4481, 4433
2770, 4426, 4474, 4481, 4433, 4428, 4476, 4482, 4434
2771, 4435, 4483, 4484, 4436, 4437, 4485, 4486, 4438
2772, 4437, 4485, 4486, 4438, 4439, 4487, 4488, 4440
2773, 4436, 4484, 4489, 4441, 4438, 4486, 4490, 4442
2774, 4438, 4486, 4490, 4442, 4440, 4488, 4491, 4443
2775, 4441, 4489, 4492, 4444, 4442, 4490, 4493, 4445
2776, 4442, 4490, 4493, 4445, 4443, 4491, 4494, 4446
2777, 4444, 4492, 4475, 4427, 4445, 4493, 4495, 4447
2778, 4445, 4493, 4495, 4447, 4446, 4494, 4496, 4448
2779, 4427, 4475, 4476, 4428, 4447, 4495, 4497, 4449
2780, 4447, 4495, 4497, 4449, 4448, 4496, 4498, 4450
2781, 4428, 4476, 4482, 4434, 4449, 4497, 4499, 4451
2782, 4449, 4497, 4499, 4451, 4450, 4498, 4500, 4452
2783, 4434, 4482, 4501, 4453, 4451, 4499, 4502, 4454
2784, 4451, 4499, 4502, 4454, 4452, 4500, 4503, 4455
2785, 4453, 4501, 4504, 4456, 4454, 4502, 4505, 4457
2786, 4454, 4502, 4505, 4457, 4455, 4503, 4506, 4458
2787, 4456, 4504, 4507, 4459, 4457, 4505, 4508, 4460
2788, 4457, 4505, 4508, 4460, 4458, 4506, 4509, 4461
2789, 4459, 4507, 4510, 4462, 4460, 4508, 4511, 4463
2790, 4460, 4508, 4511, 4463, 4461, 4509, 4512, 4464
2791, 4465, 4513, 4514, 4466, 4467, 4515, 4516, 4468
2792, 4467, 4515, 4516, 4468, 4469, 4517, 4518, 4470
2793, 4469, 4517, 4518, 4470, 4471, 4519, 4520, 4472
2794, 4471, 4519, 4520, 4472, 4473, 4521, 4522, 4474
2795, 4473, 4521, 4522, 4474, 4475, 4523, 4524, 4476
2796, 4466, 4514, 4525, 4477, 4468, 4516, 4526, 4478
2797, 4468, 4516, 4526, 4478, 4470, 4518, 4527, 4479
2798, 4470, 4518, 4527, 4479, 4472, 4520, 4528, 4480
2799, 4472, 4520, 4528, 4480, 4474, 4522, 4529, 4481
2800, 4474, 4522, 4529, 4481, 4476, 4524, 4530, 4482
2801, 4483, 4531, 4532, 4484, 4485, 4533, 4534, 4486
2802, 4485, 4533, 4534, 4486, 4487, 4535, 4536, 4488
2803, 4484, 4532, 4537, 4489, 4486, 4534, 4538, 4490
2804, 4486, 4534, 4538, 4490, 4488, 4536, 4539, 4491
2805, 4489, 4537, 4540, 4492, 4490, 4538, 4541, 4493
2806, 4490, 4538, 4541, 4493, 4491, 4539, 4542, 4494
2807, 4492, 4540, 4523, 4475, 4493, 4541, 4543, 4495
2808, 4493, 4541, 4543, 4495, 4494, 4542, 4544, 4496
2809, 4475, 4523, 4524, 4476, 4495, 4543, 4545, 4497
2810, 4495, 4543, 4545, 4497, 4496, 4544, 4546, 4498
2811, 4476, 4524, 4530, 4482, 4497, 4545, 4547, 4499
2812, 4497, 4545, 4547, 4499, 4498, 4546, 4548, 4500
2813, 4482, 4530, 4549, 4501, 4499, 4547, 4550, 4502
2814, 4499, 4547, 4550, 4502, 4500, 4548, 4551, 4503
2815, 4501, 4549, 4552, 4504, 4502, 4550, 4553, 4505
2816, 4502, 4550, 4553, 4505, 4503, 4551, 4554, 4506
2817, 4504, 4552, 4555, 4507, 4505, 4553, 4556, 4508
2818, 4505, 4553, 4556, 4508, 4506, 4554, 4557, 4509
2819, 4507, 4555, 4558, 4510, 4508, 4556, 4559, 4511
2820, 4508, 4556, 4559, 4511, 4509, 4557, 4560, 4512
2821, 4513, 4561, 4562, 4514, 4515, 4563, 4564, 4516
2822, 4515, 4563, 4564, 4516, 4517, 4565, 4566, 4518
2823, 4517, 4565, 4566, 4518, 4519, 4567, 4568, 4520
2824, 4519, 4567, 4568, 4520, 4521, 4569, 4570, 4522
2825, 4521, 4569, 4570, 4522, 4523, 4571, 4572, 4524
2826, 4514, 4562, 4573, 4525, 4516, 4564, 4574, 4526
2827, 4516, 4564, 4574, 4526, 4518, 4566, 4575, 4527
2828, 4518, 4566, 4575, 4527, 4520, 4568, 4576, 4528
2829, 4520, 4568, 4576, 4528, 4522, 4570, 4577, 4529
2830, 4522, 4570, 4577, 4529, 4524, 4572, 4578, 4530
2831, 4531, 4579, 4580, 4532, 4533, 4581, 4582, 4534
2832, 4533, 4581, 4582, 4534, 4535, 4583, 4584, 4536
2833, 4532, 4580, 4585, 4537, 4534, 4582, 4586, 4538
2834, 4534, 4582, 4586, 4538, 4536, 4584, 4587, 4539
2835, 4537, 4585, 4588, 4540, 4538, 4586, 4589, 4541
2836, 4538, 4586, 4589, 4541, 4539, 4587, 4590, 4542
2837, 4540, 4588, 4571, 4523, 4541, 4589, 4591, 4543
2838, 4541, 4589, 4591, 4543, 4542, 4590, 4592, 4544
2839, 4523, 4571, 4572, 4524, 4543, 4591, 4593, 4545
2840, 4543, 4591, 4593, 4545, 4544, 4592, 4594, 4546
2841, 4524, 4572, 4578, 4530, 4545, 4593, 4595, 4547
2842, 4545, 4593, 4595, 4547, 4546, 4594, 4596, 4548
2843, 4530, 4578, 4597, 4549, 4547, 4595, 4598, 4550
2844, 4547, 4595, 4598, 4550, 4548, 4596, 4599, 4551
2845, 4549, 4597, 4600, 4552, 4550, 4598, 4601, 4553
2846, 4550, 4598, 4601, 4553, 4551, 4599, 4602, 4554
2847, 4552, 4600, 4603, 4555, 4553, 4601, 4604, 4556
2848, 4553, 4601, 4604, 4556, 4554, 4602, 4605, 4557
2849, 4555, 4603, 4606, 4558, 4556, 4604, 4607, 4559
2850, 4556, 4604, 4607, 4559, 4557, 4605, 4608, 4560
2851, 4561, 4609, 4610, 4562, 4563, 4611, 4612, 4564
2852, 4563, 4611, 4612, 4564, 4565, 4613, 4614, 4566
2853, 4565, 4613, 4614, 4566, 4567, 4615, 4616, 4568
2854, 4567, 4615, 4616, 4568, 4569, 4617, 4618, 4570
2855, 4569, 4617, 4618, 4570, 4571, 4619, 4620, 4572
2856, 4562, 4610, 4621, 4573, 4564, 4612, 4622, 4574
2857, 4564, 4612, 4622, 4574, 4566, 4614, 4623, 4575
2858, 4566, 4614, 4623, 4575, 4568, 4616, 4624, 4576
2859, 4568, 4616, 4624, 4576, 4570, 4618, 4625, 4577
2860, 4570, 4618, 4625, 4577, 4572, 4620, 4626, 4578
2861, 4579, 4627, 4628, 4580, 4581, 4629, 4630, 4582
2862, 4581, 4629, 4630, 4582, 4583, 4631, 4632, 4584
2863, 4580, 4628, 4633, 4585, 4582, 4630, 4634, 4586
2864, 4582, 4630, 4634, 4586, 4584, 4632, 4635, 4587
2865, 4585, 4633, 4636, 4588, 4586, 4634, 4637, 4589
2866, 4586, 4634, 4637, 4589, 4587, 4635, 4638, 4590
2867, 4588, 4636, 4619, 4571, 4589, 4637, 4639, 4591
2868, 4589, 4637, 4639, 4591, 4590, 4638, 4640, 4592
2869, 4571, 4619, 4620, 4572, 4591, 4639, 4641, 4593
2870, 4591, 4639, 4641, 4593, 4592, 4640, 4642, 4594
2871, 4572, 4620, 4626, 4578, 4593, 4641, 4643, 4595
2872, 4593, 4641, 4643, 4595, 4594, 4642, 4644, 4596
2873, 4578, 4626, 4645, 4597, 4595, 4643, 4646, 4598
2874, 4595, 4643, 4646, 4598, 4596, 4644, 4647, 4599
2875, 4597, 4645, 4648, 4600, 4598, 4646, 4649, 4601
2876, 4598, 4646, 4649, 4601, 4599, 4647, 4650, 4602
2877, 4600, 4648, 4651, 4603, 4601, 4649, 4652, 4604
2878, 4601, 4649, 4652, 4604, 4602, 4650, 4653, 4605
2879, 4603, 4651, 4654, 4606, 4604, 4652, 4655, 4607
2880, 4604, 4652, 4655, 4607, 4605, 4653, 4656, 4608
2881, 4609, 4657, 4658, 4610, 4611, 4659, 4660, 4612
2882, 4611, 4659, 4660, 4612, 4613, 4661, 4662, 4614
2883, 4613, 4661, 4662, 4614, 4615, 4663, 4664, 4616
2884, 4615, 4663, 4664, 4616, 4617, 4665, 4666, 4618
2885, 4617, 4665, 4666, 4618, 4619, 4667, 4668, 4620
2886, 4610, 4658, 4669, 4621, 4612, 4660, 4670, 4622
2887, 4612, 4660, 4670, 4622, 4614, 4662, 4671, 4623
2888, 4614, 4662, 4671, 4623, 4616, 4664, 4672, 4624
2889, 4616, 4664, 4672, 4624, 4618, 4666, 4673, 4625
2890, 4618, 4666, 4673, 4625, 4620, 4668, 4674, 4626
2891, 4627, 4675, 4676, 4628, 4629, 4677, 4678, 4630
2892, 4629, 4677, 4678, 4630, 4631, 4679, 4680, 4632
2893, 4628, 4676, 4681, 4633, 4630, 4678, 4682, 4634
2894, 4630, 4678, 4682, 4634, 4632, 4680, 4683, 4635
2895, 4633, 4681, 4684, 4636, 4634, 4682, 4685, 4637
2896, 4634, 4682, 4685, 4637, 4635, 4683, 4686, 4638
2897, 4636, 4684, 4667, 4619, 4637, 4685, 4687, 4639
2898, 4637, 4685, 4687, 4639, 4638, 4686, 4688, 4640
2899, 4619, 4667, 4668, 4620, 4639, 4687, 4689, 4641
2900, 4639, 4687, 4689, 4641, 4640, 4688, 4690, 4642
2901, 4620, 4668, 4674, 4626, 4641, 4689, 4691, 4643
2902, 4641, 4689, 4691, 4643, 4642, 4690, 4692, 4644
2903, 4626, 4674, 4693, 4645, 4643, 4691, 4694, 4646
2904, 4643, 4691, 4694, 4646, 4644, 4692, 4695, 4647
2905, 4645, 4693, 4696, 4648, 4646, 4694, 4697, 4649
2906, 4646, 4694, 4697, 4649, 4647, 4695, 4698, 4650
2907, 4648, 4696, 4699, 4651, 4649, 4697, 4700, 4652
2908, 4649, 4697, 4700, 4652, 4650, 4698, 4701, 4653
2909, 4651, 4699, 4702, 4654, 4652, 4700, 4703, 4655
2910, 4652, 4700, 4703, 4655, 4653, 4701, 4704, 4656
2911, 4657, 4705, 4706, 4658, 4659, 4707, 4708, 4660
2912, 4659, 4707, 4708, 4660, 4661, 4709, 4710, 4662
2913, 4661, 4709, 4710, 4662, 4663, 4711, 4712, 4664
2914, 4663, 4711, 4712, 4664, 4665, 4713, 4714, 4666
2915, 4665, 4713, 4714, 4666, 4667, 4715, 4716, 4668
2916, 4658, 4706, 4717, 4669, 4660, 4708, 4718, 4670
2917, 4660, 4708, 4718, 4670, 4662, 4710, 4719, 4671
2918, 4662, 4710, 4719, 4671, 4664, 4712, 4720, 4672
2919, 4664, 4712, 4720, 4672, 4666, 4714, 4721, 4673
2920, 4666, 4714, 4721, 4673, 4668, 4716, 4722, 4674
2921, 4675, 4723, 4724, 4676, 4677, 4725, 4726, 4678
2922, 4677, 4725, 4726, 4678, 4679, 4727, 4728, 4680
2923, 4676, 4724, 4729, 4681, 4678, 4726, 4730, 4682
2924, 4678, 4726, 4730, 4682, 4680, 4728, 4731, 4683
2925, 4681, 4729, 4732, 4684, 4682, 4730, 4733, 4685
2926, 4682, 4730, 4733, 4685, 4683, 4731, 4734, 4686
2927, 4684, 4732, 4715, 4667, 4685, 4733, 4735, 4687
2928, 4685, 4733, 4735, 4687, 4686, 4734, 4736, 4688
2929, 4667, 4715, 4716, 4668, 4687, 4735, 4737, 4689
2930, 4687, 4735, 4737, 4689, 4688, 4736, 4738, 4690
2931, 4668, 4716, 4722, 4674, 4689, 4737, 4739, 4691
2932, 4689, 4737, 4739, 4691, 4690, 4738, 4740, 4692
2933, 4674, 4722, 4741, 4693, 4691, 4739, 4742, 4694
2934, 4691, 4739, 4742, 4694, 4692, 4740, 4743, 4695
2935, 4693, 4741, 4744, 4696, 4694, 4742, 4745, 4697
2936, 4694, 4742, 4745, 4697, 4695, 4743, 4746, 4698
2937, 4696, 4744, 4747, 4699, 4697, 4745, 4748, 4700
2938, 4697, 4745, 4748, 4700, 4698, 4746, 4749, 4701
2939, 4699, 4747, 4750, 4702, 4700, 4748, 4751, 4703
2940, 4700, 4748, 4751, 4703, 4701, 4749, 4752, 4704
2941, 4705, 4753, 4754, 4706, 4707, 4755, 4756, 4708
2942, 4707, 4755, 4756, 4708, 4709, 4757, 4758, 4710
2943, 4709, 4757, 4758, 4710, 4711, 4759, 4760, 4712
2944, 4711, 4759, 4760, 4712, 4713, 4761, 4762, 4714
2945, 4713, 4761, 4762, 4714, 4715, 4763, 4764, 4716
2946, 4706, 4754, 4765, 4717, 4708, 4756, 4766, 4718
2947, 4708, 4756, 4766, 4718, 4710, 4758, 4767, 4719
2948, 4710, 4758, 4767, 4719, 4712, 4760, 4768, 4720
2949, 4712, 4760, 4768, 4720, 4714, 4762, 4769, 4721
2950, 4714, 4762, 4769, 4721, 4716, 4764, 4770, 4722
2951, 4723, 4771, 4772, 4724, 4725, 4773, 4774, 4726
2952, 4725, 4773, 4774, 4726, 4727, 4775, 4776, 4728
2953, 4724, 4772, 4777, 4729, 4726, 4774, 4778, 4730
2954, 4726, 4774, 4778, 4730, 4728, 4776, 4779, 4731
2955, 4729, 4777, 4780, 4732, 4730, 4778, 4781, 4733
2956, 4730, 4778, 4781, 4733, 4731, 4779, 4782, 4734
2957, 4732, 4780, 4763, 4715, 4733, 4781, 4783, 4735
2958, 4733, 4781, 4783, 4735, 4734, 4782, 4784, 4736
2959, 4715, 4763, 4764, 4716, 4735, 4783, 4785, 4737
2960, 4735, 4783, 4785, 4737, 4736, 4784, 4786, 4738
2961, 4716, 4764, 4770, 4722, 4737, 4785, 4787, 4739
2962, 4737, 4785, 4787, 4739, 4738, 4786, 4788, 4740
2963, 4722, 4770, 4789, 4741, 4739, 4787, 4790, 4742
2964, 4739, 4787, 4790, 4742, 4740, 4788, 4791, 4743
2965, 4741, 4789, 4792, 4744, 4742, 4790, 4793, 4745
2966, 4742, 4790, 4793, 4745, 4743, 4791, 4794, 4746
2967, 4744, 4792, 4795, 4747, 4745, 4793, 4796, 4748
2968, 4745, 4793, 4796, 4748, 4746, 4794, 4797, 4749
2969, 4747, 4795, 4798, 4750, 4748, 4796, 4799, 4751
2970, 4748, 4796, 4799, 4751, 4749, 4797, 4800, 4752
2971, 4753, 4801, 4802, 4754, 4755, 4803, 4804, 4756
2972, 4755, 4803, 4804, 4756, 4757, 4805, 4806, 4758
2973, 4757, 4805, 4806, 4758, 4759, 4807, 4808, 4760
2974, 4759, 4807, 4808, 4760, 4761, 4809, 4810, 4762
2975, 4761, 4809, 4810, 4762, 4763, 4811, 4812, 4764
2976, 4754, 4802, 4813, 4765, 4756, 4804, 4814, 4766
2977, 4756, 4804, 4814, 4766, 4758, 4806, 4815, 4767
2978, 4758, 4806, 4815, 4767, 4760, 4808, 4816, 4768
2979, 4760, 4808, 4816, 4768, 4762, 4810, 4817, 4769
2980, 4762, 4810, 4817, 4769, 4764, 4812, 4818, 4770
2981, 4771, 4819, 4820, 4772, 4773, 4821, 4822, 4774
2982, 4773, 4821, 4822, 4774, 4775, 4823, 4824, 4776
2983, 4772, 4820, 4825, 4777, 4774, 4822, 4826, 4778
2984, 4774, 4822, 4826, 4778, 4776, 4824, 4827, 4779
2985, 4777, 4825, 4828, 4780, 4778, 4826, 4829, 4781
2986, 4778, 4826, 4829, 4781, 4779, 4827, 4830, 4782
2987, 4780, 4828, 4811, 4763, 4781, 4829, 4831, 4783
2988, 4781, 4829, 4831, 4783, 4782, 4830, 4832, 4784
2989, 4763, 4811, 4812, 4764, 4783, 4831, 4833, 4785
2990, 4783, 4831, 4833, 4785, 4784, 4832, 4834, 4786
2991, 4764, 4812, 4818, 4770, 4785, 4833, 4835, 4787
2992, 4785, 4833, 4835, 4787, 4786, 4834, 4836, 4788
2993, 4770, 4818, 4837, 4789, 4787, 4835, 4838, 4790
2994, 4787, 4835, 4838, 4790, 4788, 4836, 4839, 4791
2995, 4789, 4837, 4840, 4792, 4790, 4838, 4841, 4793
2996, 4790, 4838, 4841, 4793, 4791, 4839, 4842, 4794
2997, 4792, 4840, 4843, 4795, 4793, 4841, 4844, 4796
2998, 4793, 4841, 4844, 4796, 4794, 4842, 4845, 4797
2999, 4795, 4843, 4846, 4798, 4796, 4844, 4847, 4799
3000, 4796, 4844, 4847, 4799, 4797, 4845, 4848, 4800
*NSET, NSET=CLAMP
1, 4, 5, 8, 9, 12, 13, 16, 17, 20, 21, 24, 26, 28, 30, 32
34, 36, 37, 40, 41, 44, 45, 48, 50, 52, 54, 56, 58, 60, 62, 64
66, 68, 70, 72, 74, 76, 78, 80, 82, 84, 86, 88, 90, 92, 94, 96
*NSET, NSET=TIP_TOP
4823, 4824, 4827, 4830, 4832, 4834, 4836, 4839, 4842, 4845, 4848
*NSET, NSET=TIP_FLANGE
4823, 4824, 4827, 4830, 4832, 4834, 4836, 4839, 4842, 4845, 4848
*MATERIAL, NAME=STEEL
*ELASTIC
210000, 0.3
*SOLID SECTION, ELSET=EALL, MATERIAL=STEEL
*BOUNDARY
CLAMP, 1, 3, 0.0
*STEP
*STATIC
*CLOAD
4823, 3, -454.545454545
4824, 3, -454.545454545
4827, 3, -454.545454545
4830, 3, -454.545454545
4832, 3, -454.545454545
4834, 3, -454.545454545
4836, 3, -454.545454545
4839, 3, -454.545454545
4842, 3, -454.545454545
4845, 3, -454.545454545
4848, 3, -454.545454545
*NODE FILE
U
*EL FILE
S, ENER
*NODE PRINT, NSET=TIP_TOP
U
*NODE PRINT, NSET=CLAMP
RF
*EL PRINT, ELSET=EALL
ELSE
*ENERGY PRINT
*END STEP
