*HEADING
Normalized cross-passage space-truss torsion benchmark
*NODE
1,-1.200000000000e+00,0.000000000000e+00,0.000000000000e+00
2,1.200000000000e+00,0.000000000000e+00,0.000000000000e+00
3,-1.200000000000e+00,0.000000000000e+00,2.000000000000e+00
4,1.200000000000e+00,0.000000000000e+00,2.000000000000e+00
5,-1.200000000000e+00,1.000000000000e+01,0.000000000000e+00
6,1.200000000000e+00,1.000000000000e+01,0.000000000000e+00
7,-1.200000000000e+00,1.000000000000e+01,2.000000000000e+00
8,1.200000000000e+00,1.000000000000e+01,2.000000000000e+00
9,-1.200000000000e+00,2.000000000000e+01,0.000000000000e+00
10,1.200000000000e+00,2.000000000000e+01,0.000000000000e+00
11,-1.200000000000e+00,2.000000000000e+01,2.000000000000e+00
12,1.200000000000e+00,2.000000000000e+01,2.000000000000e+00
13,-1.200000000000e+00,3.000000000000e+01,0.000000000000e+00
14,1.200000000000e+00,3.000000000000e+01,0.000000000000e+00
15,-1.200000000000e+00,3.000000000000e+01,2.000000000000e+00
16,1.200000000000e+00,3.000000000000e+01,2.000000000000e+00
17,-1.200000000000e+00,4.000000000000e+01,0.000000000000e+00
18,1.200000000000e+00,4.000000000000e+01,0.000000000000e+00
19,-1.200000000000e+00,4.000000000000e+01,2.000000000000e+00
20,1.200000000000e+00,4.000000000000e+01,2.000000000000e+00
21,-1.200000000000e+00,5.000000000000e+01,0.000000000000e+00
22,1.200000000000e+00,5.000000000000e+01,0.000000000000e+00
23,-1.200000000000e+00,5.000000000000e+01,2.000000000000e+00
24,1.200000000000e+00,5.000000000000e+01,2.000000000000e+00
25,-1.200000000000e+00,5.000000000000e+00,-1.500000000000e-01
26,1.200000000000e+00,5.000000000000e+00,1.500000000000e-01
27,-1.200000000000e+00,5.000000000000e+00,1.850000000000e+00
28,1.200000000000e+00,5.000000000000e+00,2.150000000000e+00
29,-1.200000000000e+00,3.500000000000e+01,-1.500000000000e-01
30,1.200000000000e+00,3.500000000000e+01,1.500000000000e-01
31,-1.200000000000e+00,3.500000000000e+01,1.850000000000e+00
32,1.200000000000e+00,3.500000000000e+01,2.150000000000e+00
33,-1.200000000000e+00,4.250000000000e+01,-1.060660171780e-01
34,-1.200000000000e+00,4.500000000000e+01,-1.500000000000e-01
35,-1.200000000000e+00,4.750000000000e+01,-1.060660171780e-01
36,1.200000000000e+00,4.250000000000e+01,1.060660171780e-01
37,1.200000000000e+00,4.500000000000e+01,1.500000000000e-01
38,1.200000000000e+00,4.750000000000e+01,1.060660171780e-01
39,-1.200000000000e+00,4.250000000000e+01,1.893933982822e+00
40,-1.200000000000e+00,4.500000000000e+01,1.850000000000e+00
41,-1.200000000000e+00,4.750000000000e+01,1.893933982822e+00
42,1.200000000000e+00,4.250000000000e+01,2.106066017178e+00
43,1.200000000000e+00,4.500000000000e+01,2.150000000000e+00
44,1.200000000000e+00,4.750000000000e+01,2.106066017178e+00
45,-6.000000000000e-01,-2.545584412272e-02,0.000000000000e+00
46,0.000000000000e+00,-3.600000000000e-02,0.000000000000e+00
47,6.000000000000e-01,-2.545584412272e-02,0.000000000000e+00
48,-6.000000000000e-01,2.545584412272e-02,2.000000000000e+00
49,0.000000000000e+00,3.600000000000e-02,2.000000000000e+00
50,6.000000000000e-01,2.545584412272e-02,2.000000000000e+00
51,-1.200000000000e+00,2.121320343560e-02,5.000000000000e-01
52,-1.200000000000e+00,3.000000000000e-02,1.000000000000e+00
53,-1.200000000000e+00,2.121320343560e-02,1.500000000000e+00
54,1.200000000000e+00,-2.121320343560e-02,5.000000000000e-01
55,1.200000000000e+00,-3.000000000000e-02,1.000000000000e+00
56,1.200000000000e+00,-2.121320343560e-02,1.500000000000e+00
57,0.000000000000e+00,9.964000000000e+00,0.000000000000e+00
58,0.000000000000e+00,1.003600000000e+01,2.000000000000e+00
59,-1.200000000000e+00,1.003000000000e+01,1.000000000000e+00
60,1.200000000000e+00,9.970000000000e+00,1.000000000000e+00
61,-6.000000000000e-01,3.997454415588e+01,0.000000000000e+00
62,0.000000000000e+00,3.996400000000e+01,0.000000000000e+00
63,6.000000000000e-01,3.997454415588e+01,0.000000000000e+00
64,-6.000000000000e-01,4.002545584412e+01,2.000000000000e+00
65,0.000000000000e+00,4.003600000000e+01,2.000000000000e+00
66,6.000000000000e-01,4.002545584412e+01,2.000000000000e+00
67,-1.200000000000e+00,4.002121320344e+01,5.000000000000e-01
68,-1.200000000000e+00,4.003000000000e+01,1.000000000000e+00
69,-1.200000000000e+00,4.002121320344e+01,1.500000000000e+00
70,1.200000000000e+00,3.997878679656e+01,5.000000000000e-01
71,1.200000000000e+00,3.997000000000e+01,1.000000000000e+00
72,1.200000000000e+00,3.997878679656e+01,1.500000000000e+00
73,-6.000000000000e-01,4.997454415588e+01,0.000000000000e+00
74,0.000000000000e+00,4.996400000000e+01,0.000000000000e+00
75,6.000000000000e-01,4.997454415588e+01,0.000000000000e+00
76,-6.000000000000e-01,5.002545584412e+01,2.000000000000e+00
77,0.000000000000e+00,5.003600000000e+01,2.000000000000e+00
78,6.000000000000e-01,5.002545584412e+01,2.000000000000e+00
79,-1.200000000000e+00,5.002121320344e+01,5.000000000000e-01
80,-1.200000000000e+00,5.003000000000e+01,1.000000000000e+00
81,-1.200000000000e+00,5.002121320344e+01,1.500000000000e+00
82,1.200000000000e+00,4.997878679656e+01,5.000000000000e-01
83,1.200000000000e+00,4.997000000000e+01,1.000000000000e+00
84,1.200000000000e+00,4.997878679656e+01,1.500000000000e+00
85,-1.200000000000e+00,1.261480502971e+00,1.925974851452e-01
86,-1.200000000000e+00,2.521213203436e+00,3.939339828220e-01
87,-1.200000000000e+00,3.777716385975e+00,6.114180701233e-01
88,-1.200000000000e+00,5.030000000000e+00,8.500000000000e-01
89,-1.200000000000e+00,6.277716385975e+00,1.111418070123e+00
90,-1.200000000000e+00,7.521213203436e+00,1.393933982822e+00
91,-1.200000000000e+00,8.761480502971e+00,1.692597485145e+00
92,-1.200000000000e+00,1.261480502971e+00,1.807402514855e+00
93,-1.200000000000e+00,2.521213203436e+00,1.606066017178e+00
94,-1.200000000000e+00,3.777716385975e+00,1.388581929877e+00
95,-1.200000000000e+00,5.030000000000e+00,1.150000000000e+00
96,-1.200000000000e+00,6.277716385975e+00,8.885819298767e-01
97,-1.200000000000e+00,7.521213203436e+00,6.060660171780e-01
98,-1.200000000000e+00,8.761480502971e+00,3.074025148548e-01
99,1.200000000000e+00,1.261480502971e+00,1.925974851452e-01
100,1.200000000000e+00,2.521213203436e+00,3.939339828220e-01
101,1.200000000000e+00,3.777716385975e+00,6.114180701233e-01
102,1.200000000000e+00,5.030000000000e+00,8.500000000000e-01
103,1.200000000000e+00,6.277716385975e+00,1.111418070123e+00
104,1.200000000000e+00,7.521213203436e+00,1.393933982822e+00
105,1.200000000000e+00,8.761480502971e+00,1.692597485145e+00
106,1.200000000000e+00,1.261480502971e+00,1.807402514855e+00
107,1.200000000000e+00,2.521213203436e+00,1.606066017178e+00
108,1.200000000000e+00,3.777716385975e+00,1.388581929877e+00
109,1.200000000000e+00,5.030000000000e+00,1.150000000000e+00
110,1.200000000000e+00,6.277716385975e+00,8.885819298767e-01
111,1.200000000000e+00,7.521213203436e+00,6.060660171780e-01
112,1.200000000000e+00,8.761480502971e+00,3.074025148548e-01
113,-8.425974851452e-01,1.236223396435e+00,0.000000000000e+00
114,-4.939339828220e-01,2.474544155877e+00,0.000000000000e+00
115,-1.614180701233e-01,3.716740336830e+00,0.000000000000e+00
116,1.500000000000e-01,4.964000000000e+00,0.000000000000e+00
117,4.385819298767e-01,6.216740336830e+00,0.000000000000e+00
118,7.060660171780e-01,7.474544155877e+00,0.000000000000e+00
119,9.574025148548e-01,8.736223396435e+00,0.000000000000e+00
120,8.425974851452e-01,1.236223396435e+00,0.000000000000e+00
121,4.939339828220e-01,2.474544155877e+00,0.000000000000e+00
122,1.614180701233e-01,3.716740336830e+00,0.000000000000e+00
123,-1.500000000000e-01,4.964000000000e+00,0.000000000000e+00
124,-4.385819298767e-01,6.216740336830e+00,0.000000000000e+00
125,-7.060660171780e-01,7.474544155877e+00,0.000000000000e+00
126,-9.574025148548e-01,8.736223396435e+00,0.000000000000e+00
127,-8.425974851452e-01,1.236223396435e+00,2.000000000000e+00
128,-4.939339828220e-01,2.474544155877e+00,2.000000000000e+00
129,-1.614180701233e-01,3.716740336830e+00,2.000000000000e+00
130,1.500000000000e-01,4.964000000000e+00,2.000000000000e+00
131,4.385819298767e-01,6.216740336830e+00,2.000000000000e+00
132,7.060660171780e-01,7.474544155877e+00,2.000000000000e+00
133,9.574025148548e-01,8.736223396435e+00,2.000000000000e+00
134,8.425974851452e-01,1.236223396435e+00,2.000000000000e+00
135,4.939339828220e-01,2.474544155877e+00,2.000000000000e+00
136,1.614180701233e-01,3.716740336830e+00,2.000000000000e+00
137,-1.500000000000e-01,4.964000000000e+00,2.000000000000e+00
138,-4.385819298767e-01,6.216740336830e+00,2.000000000000e+00
139,-7.060660171780e-01,7.474544155877e+00,2.000000000000e+00
140,-9.574025148548e-01,8.736223396435e+00,2.000000000000e+00
141,-1.200000000000e+00,1.503000000000e+01,8.500000000000e-01
142,-1.200000000000e+00,1.503000000000e+01,1.150000000000e+00
143,1.200000000000e+00,1.503000000000e+01,8.500000000000e-01
144,1.200000000000e+00,1.503000000000e+01,1.150000000000e+00
145,1.500000000000e-01,1.496400000000e+01,0.000000000000e+00
146,-1.500000000000e-01,1.496400000000e+01,0.000000000000e+00
147,1.500000000000e-01,1.496400000000e+01,2.000000000000e+00
148,-1.500000000000e-01,1.496400000000e+01,2.000000000000e+00
149,-1.200000000000e+00,2.503000000000e+01,8.500000000000e-01
150,-1.200000000000e+00,2.503000000000e+01,1.150000000000e+00
151,1.200000000000e+00,2.503000000000e+01,8.500000000000e-01
152,1.200000000000e+00,2.503000000000e+01,1.150000000000e+00
153,1.500000000000e-01,2.496400000000e+01,0.000000000000e+00
154,-1.500000000000e-01,2.496400000000e+01,0.000000000000e+00
155,1.500000000000e-01,2.496400000000e+01,2.000000000000e+00
156,-1.500000000000e-01,2.496400000000e+01,2.000000000000e+00
157,-1.200000000000e+00,3.126148050297e+01,1.925974851452e-01
158,-1.200000000000e+00,3.252121320344e+01,3.939339828220e-01
159,-1.200000000000e+00,3.377771638598e+01,6.114180701233e-01
160,-1.200000000000e+00,3.503000000000e+01,8.500000000000e-01
161,-1.200000000000e+00,3.627771638598e+01,1.111418070123e+00
162,-1.200000000000e+00,3.752121320344e+01,1.393933982822e+00
163,-1.200000000000e+00,3.876148050297e+01,1.692597485145e+00
164,-1.200000000000e+00,3.126148050297e+01,1.807402514855e+00
165,-1.200000000000e+00,3.252121320344e+01,1.606066017178e+00
166,-1.200000000000e+00,3.377771638598e+01,1.388581929877e+00
167,-1.200000000000e+00,3.503000000000e+01,1.150000000000e+00
168,-1.200000000000e+00,3.627771638598e+01,8.885819298767e-01
169,-1.200000000000e+00,3.752121320344e+01,6.060660171780e-01
170,-1.200000000000e+00,3.876148050297e+01,3.074025148548e-01
171,1.200000000000e+00,3.126148050297e+01,1.925974851452e-01
172,1.200000000000e+00,3.252121320344e+01,3.939339828220e-01
173,1.200000000000e+00,3.377771638598e+01,6.114180701233e-01
174,1.200000000000e+00,3.503000000000e+01,8.500000000000e-01
175,1.200000000000e+00,3.627771638598e+01,1.111418070123e+00
176,1.200000000000e+00,3.752121320344e+01,1.393933982822e+00
177,1.200000000000e+00,3.876148050297e+01,1.692597485145e+00
178,1.200000000000e+00,3.126148050297e+01,1.807402514855e+00
179,1.200000000000e+00,3.252121320344e+01,1.606066017178e+00
180,1.200000000000e+00,3.377771638598e+01,1.388581929877e+00
181,1.200000000000e+00,3.503000000000e+01,1.150000000000e+00
182,1.200000000000e+00,3.627771638598e+01,8.885819298767e-01
183,1.200000000000e+00,3.752121320344e+01,6.060660171780e-01
184,1.200000000000e+00,3.876148050297e+01,3.074025148548e-01
185,-8.425974851452e-01,3.123622339643e+01,0.000000000000e+00
186,-4.939339828220e-01,3.247454415588e+01,0.000000000000e+00
187,-1.614180701233e-01,3.371674033683e+01,0.000000000000e+00
188,1.500000000000e-01,3.496400000000e+01,0.000000000000e+00
189,4.385819298767e-01,3.621674033683e+01,0.000000000000e+00
190,7.060660171780e-01,3.747454415588e+01,0.000000000000e+00
191,9.574025148548e-01,3.873622339643e+01,0.000000000000e+00
192,8.425974851452e-01,3.123622339643e+01,0.000000000000e+00
193,4.939339828220e-01,3.247454415588e+01,0.000000000000e+00
194,1.614180701233e-01,3.371674033683e+01,0.000000000000e+00
195,-1.500000000000e-01,3.496400000000e+01,0.000000000000e+00
196,-4.385819298767e-01,3.621674033683e+01,0.000000000000e+00
197,-7.060660171780e-01,3.747454415588e+01,0.000000000000e+00
198,-9.574025148548e-01,3.873622339643e+01,0.000000000000e+00
199,-8.425974851452e-01,3.123622339643e+01,2.000000000000e+00
200,-4.939339828220e-01,3.247454415588e+01,2.000000000000e+00
201,-1.614180701233e-01,3.371674033683e+01,2.000000000000e+00
202,1.500000000000e-01,3.496400000000e+01,2.000000000000e+00
203,4.385819298767e-01,3.621674033683e+01,2.000000000000e+00
204,7.060660171780e-01,3.747454415588e+01,2.000000000000e+00
205,9.574025148548e-01,3.873622339643e+01,2.000000000000e+00
206,8.425974851452e-01,3.123622339643e+01,2.000000000000e+00
207,4.939339828220e-01,3.247454415588e+01,2.000000000000e+00
208,1.614180701233e-01,3.371674033683e+01,2.000000000000e+00
209,-1.500000000000e-01,3.496400000000e+01,2.000000000000e+00
210,-4.385819298767e-01,3.621674033683e+01,2.000000000000e+00
211,-7.060660171780e-01,3.747454415588e+01,2.000000000000e+00
212,-9.574025148548e-01,3.873622339643e+01,2.000000000000e+00
213,-1.200000000000e+00,4.126148050297e+01,1.925974851452e-01
214,-1.200000000000e+00,4.252121320344e+01,3.939339828220e-01
215,-1.200000000000e+00,4.377771638598e+01,6.114180701233e-01
216,-1.200000000000e+00,4.503000000000e+01,8.500000000000e-01
217,-1.200000000000e+00,4.627771638598e+01,1.111418070123e+00
218,-1.200000000000e+00,4.752121320344e+01,1.393933982822e+00
219,-1.200000000000e+00,4.876148050297e+01,1.692597485145e+00
220,-1.200000000000e+00,4.126148050297e+01,1.807402514855e+00
221,-1.200000000000e+00,4.252121320344e+01,1.606066017178e+00
222,-1.200000000000e+00,4.377771638598e+01,1.388581929877e+00
223,-1.200000000000e+00,4.503000000000e+01,1.150000000000e+00
224,-1.200000000000e+00,4.627771638598e+01,8.885819298767e-01
225,-1.200000000000e+00,4.752121320344e+01,6.060660171780e-01
226,-1.200000000000e+00,4.876148050297e+01,3.074025148548e-01
227,1.200000000000e+00,4.126148050297e+01,1.925974851452e-01
228,1.200000000000e+00,4.252121320344e+01,3.939339828220e-01
229,1.200000000000e+00,4.377771638598e+01,6.114180701233e-01
230,1.200000000000e+00,4.503000000000e+01,8.500000000000e-01
231,1.200000000000e+00,4.627771638598e+01,1.111418070123e+00
232,1.200000000000e+00,4.752121320344e+01,1.393933982822e+00
233,1.200000000000e+00,4.876148050297e+01,1.692597485145e+00
234,1.200000000000e+00,4.126148050297e+01,1.807402514855e+00
235,1.200000000000e+00,4.252121320344e+01,1.606066017178e+00
236,1.200000000000e+00,4.377771638598e+01,1.388581929877e+00
237,1.200000000000e+00,4.503000000000e+01,1.150000000000e+00
238,1.200000000000e+00,4.627771638598e+01,8.885819298767e-01
239,1.200000000000e+00,4.752121320344e+01,6.060660171780e-01
240,1.200000000000e+00,4.876148050297e+01,3.074025148548e-01
241,-8.425974851452e-01,4.123622339643e+01,0.000000000000e+00
242,-4.939339828220e-01,4.247454415588e+01,0.000000000000e+00
243,-1.614180701233e-01,4.371674033683e+01,0.000000000000e+00
244,1.500000000000e-01,4.496400000000e+01,0.000000000000e+00
245,4.385819298767e-01,4.621674033683e+01,0.000000000000e+00
246,7.060660171780e-01,4.747454415588e+01,0.000000000000e+00
247,9.574025148548e-01,4.873622339643e+01,0.000000000000e+00
248,8.425974851452e-01,4.123622339643e+01,0.000000000000e+00
249,4.939339828220e-01,4.247454415588e+01,0.000000000000e+00
250,1.614180701233e-01,4.371674033683e+01,0.000000000000e+00
251,-1.500000000000e-01,4.496400000000e+01,0.000000000000e+00
252,-4.385819298767e-01,4.621674033683e+01,0.000000000000e+00
253,-7.060660171780e-01,4.747454415588e+01,0.000000000000e+00
254,-9.574025148548e-01,4.873622339643e+01,0.000000000000e+00
255,-8.425974851452e-01,4.123622339643e+01,2.000000000000e+00
256,-4.939339828220e-01,4.247454415588e+01,2.000000000000e+00
257,-1.614180701233e-01,4.371674033683e+01,2.000000000000e+00
258,1.500000000000e-01,4.496400000000e+01,2.000000000000e+00
259,4.385819298767e-01,4.621674033683e+01,2.000000000000e+00
260,7.060660171780e-01,4.747454415588e+01,2.000000000000e+00
261,9.574025148548e-01,4.873622339643e+01,2.000000000000e+00
262,8.425974851452e-01,4.123622339643e+01,2.000000000000e+00
263,4.939339828220e-01,4.247454415588e+01,2.000000000000e+00
264,1.614180701233e-01,4.371674033683e+01,2.000000000000e+00
265,-1.500000000000e-01,4.496400000000e+01,2.000000000000e+00
266,-4.385819298767e-01,4.621674033683e+01,2.000000000000e+00
267,-7.060660171780e-01,4.747454415588e+01,2.000000000000e+00
268,-9.574025148548e-01,4.873622339643e+01,2.000000000000e+00
*ELEMENT,TYPE=B31,ELSET=ALL
1,1,25
2,25,5
3,2,26
4,26,6
5,3,27
6,27,7
7,4,28
8,28,8
9,5,9
10,6,10
11,7,11
12,8,12
13,9,13
14,10,14
15,11,15
16,12,16
17,13,29
18,29,17
19,14,30
20,30,18
21,15,31
22,31,19
23,16,32
24,32,20
25,17,33
26,33,34
27,34,35
28,35,21
29,18,36
30,36,37
31,37,38
32,38,22
33,19,39
34,39,40
35,40,41
36,41,23
37,20,42
38,42,43
39,43,44
40,44,24
41,1,45
42,45,46
43,46,47
44,47,2
45,3,48
46,48,49
47,49,50
48,50,4
49,1,51
50,51,52
51,52,53
52,53,3
53,2,54
54,54,55
55,55,56
56,56,4
57,5,57
58,57,6
59,7,58
60,58,8
61,5,59
62,59,7
63,6,60
64,60,8
65,9,10
66,11,12
67,9,11
68,10,12
69,13,14
70,15,16
71,13,15
72,14,16
73,17,61
74,61,62
75,62,63
76,63,18
77,19,64
78,64,65
79,65,66
80,66,20
81,17,67
82,67,68
83,68,69
84,69,19
85,18,70
86,70,71
87,71,72
88,72,20
89,21,73
90,73,74
91,74,75
92,75,22
93,23,76
94,76,77
95,77,78
96,78,24
97,21,79
98,79,80
99,80,81
100,81,23
101,22,82
102,82,83
103,83,84
104,84,24
105,1,85
106,85,86
107,86,87
108,87,88
109,88,89
110,89,90
111,90,91
112,91,7
113,3,92
114,92,93
115,93,94
116,94,95
117,95,96
118,96,97
119,97,98
120,98,5
121,2,99
122,99,100
123,100,101
124,101,102
125,102,103
126,103,104
127,104,105
128,105,8
129,4,106
130,106,107
131,107,108
132,108,109
133,109,110
134,110,111
135,111,112
136,112,6
137,1,113
138,113,114
139,114,115
140,115,116
141,116,117
142,117,118
143,118,119
144,119,6
145,2,120
146,120,121
147,121,122
148,122,123
149,123,124
150,124,125
151,125,126
152,126,5
153,3,127
154,127,128
155,128,129
156,129,130
157,130,131
158,131,132
159,132,133
160,133,8
161,4,134
162,134,135
163,135,136
164,136,137
165,137,138
166,138,139
167,139,140
168,140,7
169,5,141
170,141,11
171,7,142
172,142,9
173,6,143
174,143,12
175,8,144
176,144,10
177,5,145
178,145,10
179,6,146
180,146,9
181,7,147
182,147,12
183,8,148
184,148,11
185,9,149
186,149,15
187,11,150
188,150,13
189,10,151
190,151,16
191,12,152
192,152,14
193,9,153
194,153,14
195,10,154
196,154,13
197,11,155
198,155,16
199,12,156
200,156,15
201,13,157
202,157,158
203,158,159
204,159,160
205,160,161
206,161,162
207,162,163
208,163,19
209,15,164
210,164,165
211,165,166
212,166,167
213,167,168
214,168,169
215,169,170
216,170,17
217,14,171
218,171,172
219,172,173
220,173,174
221,174,175
222,175,176
223,176,177
224,177,20
225,16,178
226,178,179
227,179,180
228,180,181
229,181,182
230,182,183
231,183,184
232,184,18
233,13,185
234,185,186
235,186,187
236,187,188
237,188,189
238,189,190
239,190,191
240,191,18
241,14,192
242,192,193
243,193,194
244,194,195
245,195,196
246,196,197
247,197,198
248,198,17
249,15,199
250,199,200
251,200,201
252,201,202
253,202,203
254,203,204
255,204,205
256,205,20
257,16,206
258,206,207
259,207,208
260,208,209
261,209,210
262,210,211
263,211,212
264,212,19
265,17,213
266,213,214
267,214,215
268,215,216
269,216,217
270,217,218
271,218,219
272,219,23
273,19,220
274,220,221
275,221,222
276,222,223
277,223,224
278,224,225
279,225,226
280,226,21
281,18,227
282,227,228
283,228,229
284,229,230
285,230,231
286,231,232
287,232,233
288,233,24
289,20,234
290,234,235
291,235,236
292,236,237
293,237,238
294,238,239
295,239,240
296,240,22
297,17,241
298,241,242
299,242,243
300,243,244
301,244,245
302,245,246
303,246,247
304,247,22
305,18,248
306,248,249
307,249,250
308,250,251
309,251,252
310,252,253
311,253,254
312,254,21
313,19,255
314,255,256
315,256,257
316,257,258
317,258,259
318,259,260
319,260,261
320,261,24
321,20,262
322,262,263
323,263,264
324,264,265
325,265,266
326,266,267
327,267,268
328,268,23
*NSET,NSET=NALL,GENERATE
1,268,1
*NSET,NSET=LEFT
1,2,3,4
*NSET,NSET=RIGHT
21,22,23,24
*MATERIAL,NAME=STEEL
*ELASTIC
2.100000000000e+11,0.300000000000
*BEAM SECTION,ELSET=ALL,MATERIAL=STEEL,SECTION=RECT
6.000000000000e-02,4.000000000000e-02
0.371390676354,0.557086014531,0.742781352708
*BOUNDARY
LEFT,1,6,0.0
*STEP
*STATIC
*BOUNDARY
21,1,1,5.000000000000e-03
21,2,2,0.0
21,3,3,-6.000000000000e-03
*BOUNDARY
22,1,1,5.000000000000e-03
22,2,2,0.0
22,3,3,6.000000000000e-03
*BOUNDARY
23,1,1,-5.000000000000e-03
23,2,2,0.0
23,3,3,-6.000000000000e-03
*BOUNDARY
24,1,1,-5.000000000000e-03
24,2,2,0.0
24,3,3,6.000000000000e-03
*NODE FILE,NSET=NALL
U
*NODE PRINT,NSET=NALL
U
*NODE PRINT,NSET=RIGHT
RF
*EL PRINT,ELSET=ALL,TOTALS=YES
ELSE
*END STEP
