*HEADING
Normalized cross-passage space-truss torsion benchmark
*NODE
1,-1.200000000000e+00,0.000000000000e+00,0.000000000000e+00
2,1.200000000000e+00,0.000000000000e+00,0.000000000000e+00
3,-1.200000000000e+00,0.000000000000e+00,2.000000000000e+00
4,1.200000000000e+00,0.000000000000e+00,2.000000000000e+00
5,-1.200000000000e+00,1.000000000000e+01,0.000000000000e+00
6,1.200000000000e+00,1.000000000000e+01,0.000000000000e+00
7,-1.200000000000e+00,1.000000000000e+01,2.000000000000e+00
8,1.200000000000e+00,1.000000000000e+01,2.000000000000e+00
9,-1.200000000000e+00,2.000000000000e+01,0.000000000000e+00
10,1.200000000000e+00,2.000000000000e+01,0.000000000000e+00
11,-1.200000000000e+00,2.000000000000e+01,2.000000000000e+00
12,1.200000000000e+00,2.000000000000e+01,2.000000000000e+00
13,-1.200000000000e+00,3.000000000000e+01,0.000000000000e+00
14,1.200000000000e+00,3.000000000000e+01,0.000000000000e+00
15,-1.200000000000e+00,3.000000000000e+01,2.000000000000e+00
16,1.200000000000e+00,3.000000000000e+01,2.000000000000e+00
17,-1.200000000000e+00,4.000000000000e+01,0.000000000000e+00
18,1.200000000000e+00,4.000000000000e+01,0.000000000000e+00
19,-1.200000000000e+00,4.000000000000e+01,2.000000000000e+00
20,1.200000000000e+00,4.000000000000e+01,2.000000000000e+00
21,-1.200000000000e+00,5.000000000000e+01,0.000000000000e+00
22,1.200000000000e+00,5.000000000000e+01,0.000000000000e+00
23,-1.200000000000e+00,5.000000000000e+01,2.000000000000e+00
24,1.200000000000e+00,5.000000000000e+01,2.000000000000e+00
25,-1.200000000000e+00,1.250000000000e+00,-5.740251485476e-02
26,-1.200000000000e+00,2.500000000000e+00,-1.060660171780e-01
27,-1.200000000000e+00,3.750000000000e+00,-1.385819298767e-01
28,-1.200000000000e+00,5.000000000000e+00,-1.500000000000e-01
29,-1.200000000000e+00,6.250000000000e+00,-1.385819298767e-01
30,-1.200000000000e+00,7.500000000000e+00,-1.060660171780e-01
31,-1.200000000000e+00,8.750000000000e+00,-5.740251485476e-02
32,1.200000000000e+00,1.250000000000e+00,5.740251485476e-02
33,1.200000000000e+00,2.500000000000e+00,1.060660171780e-01
34,1.200000000000e+00,3.750000000000e+00,1.385819298767e-01
35,1.200000000000e+00,5.000000000000e+00,1.500000000000e-01
36,1.200000000000e+00,6.250000000000e+00,1.385819298767e-01
37,1.200000000000e+00,7.500000000000e+00,1.060660171780e-01
38,1.200000000000e+00,8.750000000000e+00,5.740251485476e-02
39,-1.200000000000e+00,1.250000000000e+00,1.942597485145e+00
40,-1.200000000000e+00,2.500000000000e+00,1.893933982822e+00
41,-1.200000000000e+00,3.750000000000e+00,1.861418070123e+00
42,-1.200000000000e+00,5.000000000000e+00,1.850000000000e+00
43,-1.200000000000e+00,6.250000000000e+00,1.861418070123e+00
44,-1.200000000000e+00,7.500000000000e+00,1.893933982822e+00
45,-1.200000000000e+00,8.750000000000e+00,1.942597485145e+00
46,1.200000000000e+00,1.250000000000e+00,2.057402514855e+00
47,1.200000000000e+00,2.500000000000e+00,2.106066017178e+00
48,1.200000000000e+00,3.750000000000e+00,2.138581929877e+00
49,1.200000000000e+00,5.000000000000e+00,2.150000000000e+00
50,1.200000000000e+00,6.250000000000e+00,2.138581929877e+00
51,1.200000000000e+00,7.500000000000e+00,2.106066017178e+00
52,1.200000000000e+00,8.750000000000e+00,2.057402514855e+00
53,-1.200000000000e+00,1.500000000000e+01,-1.500000000000e-01
54,1.200000000000e+00,1.500000000000e+01,1.500000000000e-01
55,-1.200000000000e+00,1.500000000000e+01,1.850000000000e+00
56,1.200000000000e+00,1.500000000000e+01,2.150000000000e+00
57,-1.200000000000e+00,2.250000000000e+01,-1.060660171780e-01
58,-1.200000000000e+00,2.500000000000e+01,-1.500000000000e-01
59,-1.200000000000e+00,2.750000000000e+01,-1.060660171780e-01
60,1.200000000000e+00,2.250000000000e+01,1.060660171780e-01
61,1.200000000000e+00,2.500000000000e+01,1.500000000000e-01
62,1.200000000000e+00,2.750000000000e+01,1.060660171780e-01
63,-1.200000000000e+00,2.250000000000e+01,1.893933982822e+00
64,-1.200000000000e+00,2.500000000000e+01,1.850000000000e+00
65,-1.200000000000e+00,2.750000000000e+01,1.893933982822e+00
66,1.200000000000e+00,2.250000000000e+01,2.106066017178e+00
67,1.200000000000e+00,2.500000000000e+01,2.150000000000e+00
68,1.200000000000e+00,2.750000000000e+01,2.106066017178e+00
69,-1.200000000000e+00,4.500000000000e+01,-1.500000000000e-01
70,1.200000000000e+00,4.500000000000e+01,1.500000000000e-01
71,-1.200000000000e+00,4.500000000000e+01,1.850000000000e+00
72,1.200000000000e+00,4.500000000000e+01,2.150000000000e+00
73,0.000000000000e+00,-3.600000000000e-02,0.000000000000e+00
74,0.000000000000e+00,3.600000000000e-02,2.000000000000e+00
75,-1.200000000000e+00,3.000000000000e-02,1.000000000000e+00
76,1.200000000000e+00,-3.000000000000e-02,1.000000000000e+00
77,0.000000000000e+00,9.964000000000e+00,0.000000000000e+00
78,0.000000000000e+00,1.003600000000e+01,2.000000000000e+00
79,-1.200000000000e+00,1.003000000000e+01,1.000000000000e+00
80,1.200000000000e+00,9.970000000000e+00,1.000000000000e+00
81,0.000000000000e+00,1.996400000000e+01,0.000000000000e+00
82,0.000000000000e+00,2.003600000000e+01,2.000000000000e+00
83,-1.200000000000e+00,2.003000000000e+01,1.000000000000e+00
84,1.200000000000e+00,1.997000000000e+01,1.000000000000e+00
85,0.000000000000e+00,2.996400000000e+01,0.000000000000e+00
86,0.000000000000e+00,3.003600000000e+01,2.000000000000e+00
87,-1.200000000000e+00,3.003000000000e+01,1.000000000000e+00
88,1.200000000000e+00,2.997000000000e+01,1.000000000000e+00
89,-6.000000000000e-01,4.997454415588e+01,0.000000000000e+00
90,0.000000000000e+00,4.996400000000e+01,0.000000000000e+00
91,6.000000000000e-01,4.997454415588e+01,0.000000000000e+00
92,-6.000000000000e-01,5.002545584412e+01,2.000000000000e+00
93,0.000000000000e+00,5.003600000000e+01,2.000000000000e+00
94,6.000000000000e-01,5.002545584412e+01,2.000000000000e+00
95,-1.200000000000e+00,5.002121320344e+01,5.000000000000e-01
96,-1.200000000000e+00,5.003000000000e+01,1.000000000000e+00
97,-1.200000000000e+00,5.002121320344e+01,1.500000000000e+00
98,1.200000000000e+00,4.997878679656e+01,5.000000000000e-01
99,1.200000000000e+00,4.997000000000e+01,1.000000000000e+00
100,1.200000000000e+00,4.997878679656e+01,1.500000000000e+00
101,-1.200000000000e+00,1.261480502971e+00,1.925974851452e-01
102,-1.200000000000e+00,2.521213203436e+00,3.939339828220e-01
103,-1.200000000000e+00,3.777716385975e+00,6.114180701233e-01
104,-1.200000000000e+00,5.030000000000e+00,8.500000000000e-01
105,-1.200000000000e+00,6.277716385975e+00,1.111418070123e+00
106,-1.200000000000e+00,7.521213203436e+00,1.393933982822e+00
107,-1.200000000000e+00,8.761480502971e+00,1.692597485145e+00
108,-1.200000000000e+00,1.261480502971e+00,1.807402514855e+00
109,-1.200000000000e+00,2.521213203436e+00,1.606066017178e+00
110,-1.200000000000e+00,3.777716385975e+00,1.388581929877e+00
111,-1.200000000000e+00,5.030000000000e+00,1.150000000000e+00
112,-1.200000000000e+00,6.277716385975e+00,8.885819298767e-01
113,-1.200000000000e+00,7.521213203436e+00,6.060660171780e-01
114,-1.200000000000e+00,8.761480502971e+00,3.074025148548e-01
115,1.200000000000e+00,1.261480502971e+00,1.925974851452e-01
116,1.200000000000e+00,2.521213203436e+00,3.939339828220e-01
117,1.200000000000e+00,3.777716385975e+00,6.114180701233e-01
118,1.200000000000e+00,5.030000000000e+00,8.500000000000e-01
119,1.200000000000e+00,6.277716385975e+00,1.111418070123e+00
120,1.200000000000e+00,7.521213203436e+00,1.393933982822e+00
121,1.200000000000e+00,8.761480502971e+00,1.692597485145e+00
122,1.200000000000e+00,1.261480502971e+00,1.807402514855e+00
123,1.200000000000e+00,2.521213203436e+00,1.606066017178e+00
124,1.200000000000e+00,3.777716385975e+00,1.388581929877e+00
125,1.200000000000e+00,5.030000000000e+00,1.150000000000e+00
126,1.200000000000e+00,6.277716385975e+00,8.885819298767e-01
127,1.200000000000e+00,7.521213203436e+00,6.060660171780e-01
128,1.200000000000e+00,8.761480502971e+00,3.074025148548e-01
129,-8.425974851452e-01,1.236223396435e+00,0.000000000000e+00
130,-4.939339828220e-01,2.474544155877e+00,0.000000000000e+00
131,-1.614180701233e-01,3.716740336830e+00,0.000000000000e+00
132,1.500000000000e-01,4.964000000000e+00,0.000000000000e+00
133,4.385819298767e-01,6.216740336830e+00,0.000000000000e+00
134,7.060660171780e-01,7.474544155877e+00,0.000000000000e+00
135,9.574025148548e-01,8.736223396435e+00,0.000000000000e+00
136,8.425974851452e-01,1.236223396435e+00,0.000000000000e+00
137,4.939339828220e-01,2.474544155877e+00,0.000000000000e+00
138,1.614180701233e-01,3.716740336830e+00,0.000000000000e+00
139,-1.500000000000e-01,4.964000000000e+00,0.000000000000e+00
140,-4.385819298767e-01,6.216740336830e+00,0.000000000000e+00
141,-7.060660171780e-01,7.474544155877e+00,0.000000000000e+00
142,-9.574025148548e-01,8.736223396435e+00,0.000000000000e+00
143,-8.425974851452e-01,1.236223396435e+00,2.000000000000e+00
144,-4.939339828220e-01,2.474544155877e+00,2.000000000000e+00
145,-1.614180701233e-01,3.716740336830e+00,2.000000000000e+00
146,1.500000000000e-01,4.964000000000e+00,2.000000000000e+00
147,4.385819298767e-01,6.216740336830e+00,2.000000000000e+00
148,7.060660171780e-01,7.474544155877e+00,2.000000000000e+00
149,9.574025148548e-01,8.736223396435e+00,2.000000000000e+00
150,8.425974851452e-01,1.236223396435e+00,2.000000000000e+00
151,4.939339828220e-01,2.474544155877e+00,2.000000000000e+00
152,1.614180701233e-01,3.716740336830e+00,2.000000000000e+00
153,-1.500000000000e-01,4.964000000000e+00,2.000000000000e+00
154,-4.385819298767e-01,6.216740336830e+00,2.000000000000e+00
155,-7.060660171780e-01,7.474544155877e+00,2.000000000000e+00
156,-9.574025148548e-01,8.736223396435e+00,2.000000000000e+00
157,-1.200000000000e+00,1.126148050297e+01,1.925974851452e-01
158,-1.200000000000e+00,1.252121320344e+01,3.939339828220e-01
159,-1.200000000000e+00,1.377771638598e+01,6.114180701233e-01
160,-1.200000000000e+00,1.503000000000e+01,8.500000000000e-01
161,-1.200000000000e+00,1.627771638598e+01,1.111418070123e+00
162,-1.200000000000e+00,1.752121320344e+01,1.393933982822e+00
163,-1.200000000000e+00,1.876148050297e+01,1.692597485145e+00
164,-1.200000000000e+00,1.126148050297e+01,1.807402514855e+00
165,-1.200000000000e+00,1.252121320344e+01,1.606066017178e+00
166,-1.200000000000e+00,1.377771638598e+01,1.388581929877e+00
167,-1.200000000000e+00,1.503000000000e+01,1.150000000000e+00
168,-1.200000000000e+00,1.627771638598e+01,8.885819298767e-01
169,-1.200000000000e+00,1.752121320344e+01,6.060660171780e-01
170,-1.200000000000e+00,1.876148050297e+01,3.074025148548e-01
171,1.200000000000e+00,1.126148050297e+01,1.925974851452e-01
172,1.200000000000e+00,1.252121320344e+01,3.939339828220e-01
173,1.200000000000e+00,1.377771638598e+01,6.114180701233e-01
174,1.200000000000e+00,1.503000000000e+01,8.500000000000e-01
175,1.200000000000e+00,1.627771638598e+01,1.111418070123e+00
176,1.200000000000e+00,1.752121320344e+01,1.393933982822e+00
177,1.200000000000e+00,1.876148050297e+01,1.692597485145e+00
178,1.200000000000e+00,1.126148050297e+01,1.807402514855e+00
179,1.200000000000e+00,1.252121320344e+01,1.606066017178e+00
180,1.200000000000e+00,1.377771638598e+01,1.388581929877e+00
181,1.200000000000e+00,1.503000000000e+01,1.150000000000e+00
182,1.200000000000e+00,1.627771638598e+01,8.885819298767e-01
183,1.200000000000e+00,1.752121320344e+01,6.060660171780e-01
184,1.200000000000e+00,1.876148050297e+01,3.074025148548e-01
185,-8.425974851452e-01,1.123622339643e+01,0.000000000000e+00
186,-4.939339828220e-01,1.247454415588e+01,0.000000000000e+00
187,-1.614180701233e-01,1.371674033683e+01,0.000000000000e+00
188,1.500000000000e-01,1.496400000000e+01,0.000000000000e+00
189,4.385819298767e-01,1.621674033683e+01,0.000000000000e+00
190,7.060660171780e-01,1.747454415588e+01,0.000000000000e+00
191,9.574025148548e-01,1.873622339643e+01,0.000000000000e+00
192,8.425974851452e-01,1.123622339643e+01,0.000000000000e+00
193,4.939339828220e-01,1.247454415588e+01,0.000000000000e+00
194,1.614180701233e-01,1.371674033683e+01,0.000000000000e+00
195,-1.500000000000e-01,1.496400000000e+01,0.000000000000e+00
196,-4.385819298767e-01,1.621674033683e+01,0.000000000000e+00
197,-7.060660171780e-01,1.747454415588e+01,0.000000000000e+00
198,-9.574025148548e-01,1.873622339643e+01,0.000000000000e+00
199,-8.425974851452e-01,1.123622339643e+01,2.000000000000e+00
200,-4.939339828220e-01,1.247454415588e+01,2.000000000000e+00
201,-1.614180701233e-01,1.371674033683e+01,2.000000000000e+00
202,1.500000000000e-01,1.496400000000e+01,2.000000000000e+00
203,4.385819298767e-01,1.621674033683e+01,2.000000000000e+00
204,7.060660171780e-01,1.747454415588e+01,2.000000000000e+00
205,9.574025148548e-01,1.873622339643e+01,2.000000000000e+00
206,8.425974851452e-01,1.123622339643e+01,2.000000000000e+00
207,4.939339828220e-01,1.247454415588e+01,2.000000000000e+00
208,1.614180701233e-01,1.371674033683e+01,2.000000000000e+00
209,-1.500000000000e-01,1.496400000000e+01,2.000000000000e+00
210,-4.385819298767e-01,1.621674033683e+01,2.000000000000e+00
211,-7.060660171780e-01,1.747454415588e+01,2.000000000000e+00
212,-9.574025148548e-01,1.873622339643e+01,2.000000000000e+00
*ELEMENT,TYPE=B31,ELSET=ALL
1,1,25
2,25,26
3,26,27
4,27,28
5,28,29
6,29,30
7,30,31
8,31,5
9,2,32
10,32,33
11,33,34
12,34,35
13,35,36
14,36,37
15,37,38
16,38,6
17,3,39
18,39,40
19,40,41
20,41,42
21,42,43
22,43,44
23,44,45
24,45,7
25,4,46
26,46,47
27,47,48
28,48,49
29,49,50
30,50,51
31,51,52
32,52,8
33,5,53
34,53,9
35,6,54
36,54,10
37,7,55
38,55,11
39,8,56
40,56,12
41,9,57
42,57,58
43,58,59
44,59,13
45,10,60
46,60,61
47,61,62
48,62,14
49,11,63
50,63,64
51,64,65
52,65,15
53,12,66
54,66,67
55,67,68
56,68,16
57,13,17
58,14,18
59,15,19
60,16,20
61,17,69
62,69,21
63,18,70
64,70,22
65,19,71
66,71,23
67,20,72
68,72,24
69,1,73
70,73,2
71,3,74
72,74,4
73,1,75
74,75,3
75,2,76
76,76,4
77,5,77
78,77,6
79,7,78
80,78,8
81,5,79
82,79,7
83,6,80
84,80,8
85,9,81
86,81,10
87,11,82
88,82,12
89,9,83
90,83,11
91,10,84
92,84,12
93,13,85
94,85,14
95,15,86
96,86,16
97,13,87
98,87,15
99,14,88
100,88,16
101,17,18
102,19,20
103,17,19
104,18,20
105,21,89
106,89,90
107,90,91
108,91,22
109,23,92
110,92,93
111,93,94
112,94,24
113,21,95
114,95,96
115,96,97
116,97,23
117,22,98
118,98,99
119,99,100
120,100,24
121,1,101
122,101,102
123,102,103
124,103,104
125,104,105
126,105,106
127,106,107
128,107,7
129,3,108
130,108,109
131,109,110
132,110,111
133,111,112
134,112,113
135,113,114
136,114,5
137,2,115
138,115,116
139,116,117
140,117,118
141,118,119
142,119,120
143,120,121
144,121,8
145,4,122
146,122,123
147,123,124
148,124,125
149,125,126
150,126,127
151,127,128
152,128,6
153,1,129
154,129,130
155,130,131
156,131,132
157,132,133
158,133,134
159,134,135
160,135,6
161,2,136
162,136,137
163,137,138
164,138,139
165,139,140
166,140,141
167,141,142
168,142,5
169,3,143
170,143,144
171,144,145
172,145,146
173,146,147
174,147,148
175,148,149
176,149,8
177,4,150
178,150,151
179,151,152
180,152,153
181,153,154
182,154,155
183,155,156
184,156,7
185,5,157
186,157,158
187,158,159
188,159,160
189,160,161
190,161,162
191,162,163
192,163,11
193,7,164
194,164,165
195,165,166
196,166,167
197,167,168
198,168,169
199,169,170
200,170,9
201,6,171
202,171,172
203,172,173
204,173,174
205,174,175
206,175,176
207,176,177
208,177,12
209,8,178
210,178,179
211,179,180
212,180,181
213,181,182
214,182,183
215,183,184
216,184,10
217,5,185
218,185,186
219,186,187
220,187,188
221,188,189
222,189,190
223,190,191
224,191,10
225,6,192
226,192,193
227,193,194
228,194,195
229,195,196
230,196,197
231,197,198
232,198,9
233,7,199
234,199,200
235,200,201
236,201,202
237,202,203
238,203,204
239,204,205
240,205,12
241,8,206
242,206,207
243,207,208
244,208,209
245,209,210
246,210,211
247,211,212
248,212,11
249,9,15
250,11,13
251,10,16
252,12,14
253,9,14
254,10,13
255,11,16
256,12,15
257,13,19
258,15,17
259,14,20
260,16,18
261,13,18
262,14,17
263,15,20
264,16,19
265,17,23
266,19,21
267,18,24
268,20,22
269,17,22
270,18,21
271,19,24
272,20,23
*NSET,NSET=NALL,GENERATE
1,212,1
*NSET,NSET=LEFT
1,2,3,4
*NSET,NSET=RIGHT
21,22,23,24
*MATERIAL,NAME=STEEL
*ELASTIC
2.100000000000e+11,0.300000000000
*BEAM SECTION,ELSET=ALL,MATERIAL=STEEL,SECTION=RECT
6.000000000000e-02,4.000000000000e-02
0.371390676354,0.557086014531,0.742781352708
*BOUNDARY
LEFT,1,6,0.0
*STEP
*STATIC
*BOUNDARY
21,1,1,5.000000000000e-03
21,2,2,0.0
21,3,3,-6.000000000000e-03
*BOUNDARY
22,1,1,5.000000000000e-03
22,2,2,0.0
22,3,3,6.000000000000e-03
*BOUNDARY
23,1,1,-5.000000000000e-03
23,2,2,0.0
23,3,3,-6.000000000000e-03
*BOUNDARY
24,1,1,-5.000000000000e-03
24,2,2,0.0
24,3,3,6.000000000000e-03
*NODE FILE,NSET=NALL
U
*NODE PRINT,NSET=NALL
U
*NODE PRINT,NSET=RIGHT
RF
*EL PRINT,ELSET=ALL,TOTALS=YES
ELSE
*END STEP
