*HEADING
Normalized cross-passage space-truss torsion benchmark
*NODE
1,-1.200000000000e+00,0.000000000000e+00,0.000000000000e+00
2,1.200000000000e+00,0.000000000000e+00,0.000000000000e+00
3,-1.200000000000e+00,0.000000000000e+00,2.000000000000e+00
4,1.200000000000e+00,0.000000000000e+00,2.000000000000e+00
5,-1.200000000000e+00,1.000000000000e+01,0.000000000000e+00
6,1.200000000000e+00,1.000000000000e+01,0.000000000000e+00
7,-1.200000000000e+00,1.000000000000e+01,2.000000000000e+00
8,1.200000000000e+00,1.000000000000e+01,2.000000000000e+00
9,-1.200000000000e+00,2.000000000000e+01,0.000000000000e+00
10,1.200000000000e+00,2.000000000000e+01,0.000000000000e+00
11,-1.200000000000e+00,2.000000000000e+01,2.000000000000e+00
12,1.200000000000e+00,2.000000000000e+01,2.000000000000e+00
13,-1.200000000000e+00,3.000000000000e+01,0.000000000000e+00
14,1.200000000000e+00,3.000000000000e+01,0.000000000000e+00
15,-1.200000000000e+00,3.000000000000e+01,2.000000000000e+00
16,1.200000000000e+00,3.000000000000e+01,2.000000000000e+00
17,-1.200000000000e+00,4.000000000000e+01,0.000000000000e+00
18,1.200000000000e+00,4.000000000000e+01,0.000000000000e+00
19,-1.200000000000e+00,4.000000000000e+01,2.000000000000e+00
20,1.200000000000e+00,4.000000000000e+01,2.000000000000e+00
21,-1.200000000000e+00,5.000000000000e+01,0.000000000000e+00
22,1.200000000000e+00,5.000000000000e+01,0.000000000000e+00
23,-1.200000000000e+00,5.000000000000e+01,2.000000000000e+00
24,1.200000000000e+00,5.000000000000e+01,2.000000000000e+00
25,-1.200000000000e+00,5.000000000000e+00,-1.500000000000e-01
26,1.200000000000e+00,5.000000000000e+00,1.500000000000e-01
27,-1.200000000000e+00,5.000000000000e+00,1.850000000000e+00
28,1.200000000000e+00,5.000000000000e+00,2.150000000000e+00
29,-1.200000000000e+00,1.500000000000e+01,-1.500000000000e-01
30,1.200000000000e+00,1.500000000000e+01,1.500000000000e-01
31,-1.200000000000e+00,1.500000000000e+01,1.850000000000e+00
32,1.200000000000e+00,1.500000000000e+01,2.150000000000e+00
33,-1.200000000000e+00,4.250000000000e+01,-1.060660171780e-01
34,-1.200000000000e+00,4.500000000000e+01,-1.500000000000e-01
35,-1.200000000000e+00,4.750000000000e+01,-1.060660171780e-01
36,1.200000000000e+00,4.250000000000e+01,1.060660171780e-01
37,1.200000000000e+00,4.500000000000e+01,1.500000000000e-01
38,1.200000000000e+00,4.750000000000e+01,1.060660171780e-01
39,-1.200000000000e+00,4.250000000000e+01,1.893933982822e+00
40,-1.200000000000e+00,4.500000000000e+01,1.850000000000e+00
41,-1.200000000000e+00,4.750000000000e+01,1.893933982822e+00
42,1.200000000000e+00,4.250000000000e+01,2.106066017178e+00
43,1.200000000000e+00,4.500000000000e+01,2.150000000000e+00
44,1.200000000000e+00,4.750000000000e+01,2.106066017178e+00
45,0.000000000000e+00,-3.600000000000e-02,0.000000000000e+00
46,0.000000000000e+00,3.600000000000e-02,2.000000000000e+00
47,-1.200000000000e+00,3.000000000000e-02,1.000000000000e+00
48,1.200000000000e+00,-3.000000000000e-02,1.000000000000e+00
49,0.000000000000e+00,1.996400000000e+01,0.000000000000e+00
50,0.000000000000e+00,2.003600000000e+01,2.000000000000e+00
51,-1.200000000000e+00,2.003000000000e+01,1.000000000000e+00
52,1.200000000000e+00,1.997000000000e+01,1.000000000000e+00
53,-6.000000000000e-01,2.997454415588e+01,0.000000000000e+00
54,0.000000000000e+00,2.996400000000e+01,0.000000000000e+00
55,6.000000000000e-01,2.997454415588e+01,0.000000000000e+00
56,-6.000000000000e-01,3.002545584412e+01,2.000000000000e+00
57,0.000000000000e+00,3.003600000000e+01,2.000000000000e+00
58,6.000000000000e-01,3.002545584412e+01,2.000000000000e+00
59,-1.200000000000e+00,3.002121320344e+01,5.000000000000e-01
60,-1.200000000000e+00,3.003000000000e+01,1.000000000000e+00
61,-1.200000000000e+00,3.002121320344e+01,1.500000000000e+00
62,1.200000000000e+00,2.997878679656e+01,5.000000000000e-01
63,1.200000000000e+00,2.997000000000e+01,1.000000000000e+00
64,1.200000000000e+00,2.997878679656e+01,1.500000000000e+00
65,0.000000000000e+00,3.996400000000e+01,0.000000000000e+00
66,0.000000000000e+00,4.003600000000e+01,2.000000000000e+00
67,-1.200000000000e+00,4.003000000000e+01,1.000000000000e+00
68,1.200000000000e+00,3.997000000000e+01,1.000000000000e+00
69,0.000000000000e+00,4.996400000000e+01,0.000000000000e+00
70,0.000000000000e+00,5.003600000000e+01,2.000000000000e+00
71,-1.200000000000e+00,5.003000000000e+01,1.000000000000e+00
72,1.200000000000e+00,4.997000000000e+01,1.000000000000e+00
73,-1.200000000000e+00,1.261480502971e+00,1.925974851452e-01
74,-1.200000000000e+00,2.521213203436e+00,3.939339828220e-01
75,-1.200000000000e+00,3.777716385975e+00,6.114180701233e-01
76,-1.200000000000e+00,5.030000000000e+00,8.500000000000e-01
77,-1.200000000000e+00,6.277716385975e+00,1.111418070123e+00
78,-1.200000000000e+00,7.521213203436e+00,1.393933982822e+00
79,-1.200000000000e+00,8.761480502971e+00,1.692597485145e+00
80,-1.200000000000e+00,1.261480502971e+00,1.807402514855e+00
81,-1.200000000000e+00,2.521213203436e+00,1.606066017178e+00
82,-1.200000000000e+00,3.777716385975e+00,1.388581929877e+00
83,-1.200000000000e+00,5.030000000000e+00,1.150000000000e+00
84,-1.200000000000e+00,6.277716385975e+00,8.885819298767e-01
85,-1.200000000000e+00,7.521213203436e+00,6.060660171780e-01
86,-1.200000000000e+00,8.761480502971e+00,3.074025148548e-01
87,1.200000000000e+00,1.261480502971e+00,1.925974851452e-01
88,1.200000000000e+00,2.521213203436e+00,3.939339828220e-01
89,1.200000000000e+00,3.777716385975e+00,6.114180701233e-01
90,1.200000000000e+00,5.030000000000e+00,8.500000000000e-01
91,1.200000000000e+00,6.277716385975e+00,1.111418070123e+00
92,1.200000000000e+00,7.521213203436e+00,1.393933982822e+00
93,1.200000000000e+00,8.761480502971e+00,1.692597485145e+00
94,1.200000000000e+00,1.261480502971e+00,1.807402514855e+00
95,1.200000000000e+00,2.521213203436e+00,1.606066017178e+00
96,1.200000000000e+00,3.777716385975e+00,1.388581929877e+00
97,1.200000000000e+00,5.030000000000e+00,1.150000000000e+00
98,1.200000000000e+00,6.277716385975e+00,8.885819298767e-01
99,1.200000000000e+00,7.521213203436e+00,6.060660171780e-01
100,1.200000000000e+00,8.761480502971e+00,3.074025148548e-01
101,-8.425974851452e-01,1.236223396435e+00,0.000000000000e+00
102,-4.939339828220e-01,2.474544155877e+00,0.000000000000e+00
103,-1.614180701233e-01,3.716740336830e+00,0.000000000000e+00
104,1.500000000000e-01,4.964000000000e+00,0.000000000000e+00
105,4.385819298767e-01,6.216740336830e+00,0.000000000000e+00
106,7.060660171780e-01,7.474544155877e+00,0.000000000000e+00
107,9.574025148548e-01,8.736223396435e+00,0.000000000000e+00
108,8.425974851452e-01,1.236223396435e+00,0.000000000000e+00
109,4.939339828220e-01,2.474544155877e+00,0.000000000000e+00
110,1.614180701233e-01,3.716740336830e+00,0.000000000000e+00
111,-1.500000000000e-01,4.964000000000e+00,0.000000000000e+00
112,-4.385819298767e-01,6.216740336830e+00,0.000000000000e+00
113,-7.060660171780e-01,7.474544155877e+00,0.000000000000e+00
114,-9.574025148548e-01,8.736223396435e+00,0.000000000000e+00
115,-8.425974851452e-01,1.236223396435e+00,2.000000000000e+00
116,-4.939339828220e-01,2.474544155877e+00,2.000000000000e+00
117,-1.614180701233e-01,3.716740336830e+00,2.000000000000e+00
118,1.500000000000e-01,4.964000000000e+00,2.000000000000e+00
119,4.385819298767e-01,6.216740336830e+00,2.000000000000e+00
120,7.060660171780e-01,7.474544155877e+00,2.000000000000e+00
121,9.574025148548e-01,8.736223396435e+00,2.000000000000e+00
122,8.425974851452e-01,1.236223396435e+00,2.000000000000e+00
123,4.939339828220e-01,2.474544155877e+00,2.000000000000e+00
124,1.614180701233e-01,3.716740336830e+00,2.000000000000e+00
125,-1.500000000000e-01,4.964000000000e+00,2.000000000000e+00
126,-4.385819298767e-01,6.216740336830e+00,2.000000000000e+00
127,-7.060660171780e-01,7.474544155877e+00,2.000000000000e+00
128,-9.574025148548e-01,8.736223396435e+00,2.000000000000e+00
129,-1.200000000000e+00,1.252121320344e+01,3.939339828220e-01
130,-1.200000000000e+00,1.503000000000e+01,8.500000000000e-01
131,-1.200000000000e+00,1.752121320344e+01,1.393933982822e+00
132,-1.200000000000e+00,1.252121320344e+01,1.606066017178e+00
133,-1.200000000000e+00,1.503000000000e+01,1.150000000000e+00
134,-1.200000000000e+00,1.752121320344e+01,6.060660171780e-01
135,1.200000000000e+00,1.252121320344e+01,3.939339828220e-01
136,1.200000000000e+00,1.503000000000e+01,8.500000000000e-01
137,1.200000000000e+00,1.752121320344e+01,1.393933982822e+00
138,1.200000000000e+00,1.252121320344e+01,1.606066017178e+00
139,1.200000000000e+00,1.503000000000e+01,1.150000000000e+00
140,1.200000000000e+00,1.752121320344e+01,6.060660171780e-01
141,-4.939339828220e-01,1.247454415588e+01,0.000000000000e+00
142,1.500000000000e-01,1.496400000000e+01,0.000000000000e+00
143,7.060660171780e-01,1.747454415588e+01,0.000000000000e+00
144,4.939339828220e-01,1.247454415588e+01,0.000000000000e+00
145,-1.500000000000e-01,1.496400000000e+01,0.000000000000e+00
146,-7.060660171780e-01,1.747454415588e+01,0.000000000000e+00
147,-4.939339828220e-01,1.247454415588e+01,2.000000000000e+00
148,1.500000000000e-01,1.496400000000e+01,2.000000000000e+00
149,7.060660171780e-01,1.747454415588e+01,2.000000000000e+00
150,4.939339828220e-01,1.247454415588e+01,2.000000000000e+00
151,-1.500000000000e-01,1.496400000000e+01,2.000000000000e+00
152,-7.060660171780e-01,1.747454415588e+01,2.000000000000e+00
153,-1.200000000000e+00,3.503000000000e+01,8.500000000000e-01
154,-1.200000000000e+00,3.503000000000e+01,1.150000000000e+00
155,1.200000000000e+00,3.503000000000e+01,8.500000000000e-01
156,1.200000000000e+00,3.503000000000e+01,1.150000000000e+00
157,1.500000000000e-01,3.496400000000e+01,0.000000000000e+00
158,-1.500000000000e-01,3.496400000000e+01,0.000000000000e+00
159,1.500000000000e-01,3.496400000000e+01,2.000000000000e+00
160,-1.500000000000e-01,3.496400000000e+01,2.000000000000e+00
161,-1.200000000000e+00,4.126148050297e+01,1.925974851452e-01
162,-1.200000000000e+00,4.252121320344e+01,3.939339828220e-01
163,-1.200000000000e+00,4.377771638598e+01,6.114180701233e-01
164,-1.200000000000e+00,4.503000000000e+01,8.500000000000e-01
165,-1.200000000000e+00,4.627771638598e+01,1.111418070123e+00
166,-1.200000000000e+00,4.752121320344e+01,1.393933982822e+00
167,-1.200000000000e+00,4.876148050297e+01,1.692597485145e+00
168,-1.200000000000e+00,4.126148050297e+01,1.807402514855e+00
169,-1.200000000000e+00,4.252121320344e+01,1.606066017178e+00
170,-1.200000000000e+00,4.377771638598e+01,1.388581929877e+00
171,-1.200000000000e+00,4.503000000000e+01,1.150000000000e+00
172,-1.200000000000e+00,4.627771638598e+01,8.885819298767e-01
173,-1.200000000000e+00,4.752121320344e+01,6.060660171780e-01
174,-1.200000000000e+00,4.876148050297e+01,3.074025148548e-01
175,1.200000000000e+00,4.126148050297e+01,1.925974851452e-01
176,1.200000000000e+00,4.252121320344e+01,3.939339828220e-01
177,1.200000000000e+00,4.377771638598e+01,6.114180701233e-01
178,1.200000000000e+00,4.503000000000e+01,8.500000000000e-01
179,1.200000000000e+00,4.627771638598e+01,1.111418070123e+00
180,1.200000000000e+00,4.752121320344e+01,1.393933982822e+00
181,1.200000000000e+00,4.876148050297e+01,1.692597485145e+00
182,1.200000000000e+00,4.126148050297e+01,1.807402514855e+00
183,1.200000000000e+00,4.252121320344e+01,1.606066017178e+00
184,1.200000000000e+00,4.377771638598e+01,1.388581929877e+00
185,1.200000000000e+00,4.503000000000e+01,1.150000000000e+00
186,1.200000000000e+00,4.627771638598e+01,8.885819298767e-01
187,1.200000000000e+00,4.752121320344e+01,6.060660171780e-01
188,1.200000000000e+00,4.876148050297e+01,3.074025148548e-01
189,-8.425974851452e-01,4.123622339643e+01,0.000000000000e+00
190,-4.939339828220e-01,4.247454415588e+01,0.000000000000e+00
191,-1.614180701233e-01,4.371674033683e+01,0.000000000000e+00
192,1.500000000000e-01,4.496400000000e+01,0.000000000000e+00
193,4.385819298767e-01,4.621674033683e+01,0.000000000000e+00
194,7.060660171780e-01,4.747454415588e+01,0.000000000000e+00
195,9.574025148548e-01,4.873622339643e+01,0.000000000000e+00
196,8.425974851452e-01,4.123622339643e+01,0.000000000000e+00
197,4.939339828220e-01,4.247454415588e+01,0.000000000000e+00
198,1.614180701233e-01,4.371674033683e+01,0.000000000000e+00
199,-1.500000000000e-01,4.496400000000e+01,0.000000000000e+00
200,-4.385819298767e-01,4.621674033683e+01,0.000000000000e+00
201,-7.060660171780e-01,4.747454415588e+01,0.000000000000e+00
202,-9.574025148548e-01,4.873622339643e+01,0.000000000000e+00
203,-8.425974851452e-01,4.123622339643e+01,2.000000000000e+00
204,-4.939339828220e-01,4.247454415588e+01,2.000000000000e+00
205,-1.614180701233e-01,4.371674033683e+01,2.000000000000e+00
206,1.500000000000e-01,4.496400000000e+01,2.000000000000e+00
207,4.385819298767e-01,4.621674033683e+01,2.000000000000e+00
208,7.060660171780e-01,4.747454415588e+01,2.000000000000e+00
209,9.574025148548e-01,4.873622339643e+01,2.000000000000e+00
210,8.425974851452e-01,4.123622339643e+01,2.000000000000e+00
211,4.939339828220e-01,4.247454415588e+01,2.000000000000e+00
212,1.614180701233e-01,4.371674033683e+01,2.000000000000e+00
213,-1.500000000000e-01,4.496400000000e+01,2.000000000000e+00
214,-4.385819298767e-01,4.621674033683e+01,2.000000000000e+00
215,-7.060660171780e-01,4.747454415588e+01,2.000000000000e+00
216,-9.574025148548e-01,4.873622339643e+01,2.000000000000e+00
*ELEMENT,TYPE=B31,ELSET=ALL
1,1,25
2,25,5
3,2,26
4,26,6
5,3,27
6,27,7
7,4,28
8,28,8
9,5,29
10,29,9
11,6,30
12,30,10
13,7,31
14,31,11
15,8,32
16,32,12
17,9,13
18,10,14
19,11,15
20,12,16
21,13,17
22,14,18
23,15,19
24,16,20
25,17,33
26,33,34
27,34,35
28,35,21
29,18,36
30,36,37
31,37,38
32,38,22
33,19,39
34,39,40
35,40,41
36,41,23
37,20,42
38,42,43
39,43,44
40,44,24
41,1,45
42,45,2
43,3,46
44,46,4
45,1,47
46,47,3
47,2,48
48,48,4
49,5,6
50,7,8
51,5,7
52,6,8
53,9,49
54,49,10
55,11,50
56,50,12
57,9,51
58,51,11
59,10,52
60,52,12
61,13,53
62,53,54
63,54,55
64,55,14
65,15,56
66,56,57
67,57,58
68,58,16
69,13,59
70,59,60
71,60,61
72,61,15
73,14,62
74,62,63
75,63,64
76,64,16
77,17,65
78,65,18
79,19,66
80,66,20
81,17,67
82,67,19
83,18,68
84,68,20
85,21,69
86,69,22
87,23,70
88,70,24
89,21,71
90,71,23
91,22,72
92,72,24
93,1,73
94,73,74
95,74,75
96,75,76
97,76,77
98,77,78
99,78,79
100,79,7
101,3,80
102,80,81
103,81,82
104,82,83
105,83,84
106,84,85
107,85,86
108,86,5
109,2,87
110,87,88
111,88,89
112,89,90
113,90,91
114,91,92
115,92,93
116,93,8
117,4,94
118,94,95
119,95,96
120,96,97
121,97,98
122,98,99
123,99,100
124,100,6
125,1,101
126,101,102
127,102,103
128,103,104
129,104,105
130,105,106
131,106,107
132,107,6
133,2,108
134,108,109
135,109,110
136,110,111
137,111,112
138,112,113
139,113,114
140,114,5
141,3,115
142,115,116
143,116,117
144,117,118
145,118,119
146,119,120
147,120,121
148,121,8
149,4,122
150,122,123
151,123,124
152,124,125
153,125,126
154,126,127
155,127,128
156,128,7
157,5,129
158,129,130
159,130,131
160,131,11
161,7,132
162,132,133
163,133,134
164,134,9
165,6,135
166,135,136
167,136,137
168,137,12
169,8,138
170,138,139
171,139,140
172,140,10
173,5,141
174,141,142
175,142,143
176,143,10
177,6,144
178,144,145
179,145,146
180,146,9
181,7,147
182,147,148
183,148,149
184,149,12
185,8,150
186,150,151
187,151,152
188,152,11
189,9,15
190,11,13
191,10,16
192,12,14
193,9,14
194,10,13
195,11,16
196,12,15
197,13,153
198,153,19
199,15,154
200,154,17
201,14,155
202,155,20
203,16,156
204,156,18
205,13,157
206,157,18
207,14,158
208,158,17
209,15,159
210,159,20
211,16,160
212,160,19
213,17,161
214,161,162
215,162,163
216,163,164
217,164,165
218,165,166
219,166,167
220,167,23
221,19,168
222,168,169
223,169,170
224,170,171
225,171,172
226,172,173
227,173,174
228,174,21
229,18,175
230,175,176
231,176,177
232,177,178
233,178,179
234,179,180
235,180,181
236,181,24
237,20,182
238,182,183
239,183,184
240,184,185
241,185,186
242,186,187
243,187,188
244,188,22
245,17,189
246,189,190
247,190,191
248,191,192
249,192,193
250,193,194
251,194,195
252,195,22
253,18,196
254,196,197
255,197,198
256,198,199
257,199,200
258,200,201
259,201,202
260,202,21
261,19,203
262,203,204
263,204,205
264,205,206
265,206,207
266,207,208
267,208,209
268,209,24
269,20,210
270,210,211
271,211,212
272,212,213
273,213,214
274,214,215
275,215,216
276,216,23
*NSET,NSET=NALL,GENERATE
1,216,1
*NSET,NSET=LEFT
1,2,3,4
*NSET,NSET=RIGHT
21,22,23,24
*MATERIAL,NAME=STEEL
*ELASTIC
2.100000000000e+11,0.300000000000
*BEAM SECTION,ELSET=ALL,MATERIAL=STEEL,SECTION=RECT
6.000000000000e-02,4.000000000000e-02
0.371390676354,0.557086014531,0.742781352708
*BOUNDARY
LEFT,1,6,0.0
*STEP
*STATIC
*BOUNDARY
21,1,1,5.000000000000e-03
21,2,2,0.0
21,3,3,-6.000000000000e-03
*BOUNDARY
22,1,1,5.000000000000e-03
22,2,2,0.0
22,3,3,6.000000000000e-03
*BOUNDARY
23,1,1,-5.000000000000e-03
23,2,2,0.0
23,3,3,-6.000000000000e-03
*BOUNDARY
24,1,1,-5.000000000000e-03
24,2,2,0.0
24,3,3,6.000000000000e-03
*NODE FILE,NSET=NALL
U
*NODE PRINT,NSET=NALL
U
*NODE PRINT,NSET=RIGHT
RF
*EL PRINT,ELSET=ALL,TOTALS=YES
ELSE
*END STEP
