*HEADING
Normalized cross-passage space-truss torsion benchmark
*NODE
1,-1.200000000000e+00,0.000000000000e+00,0.000000000000e+00
2,1.200000000000e+00,0.000000000000e+00,0.000000000000e+00
3,-1.200000000000e+00,0.000000000000e+00,2.000000000000e+00
4,1.200000000000e+00,0.000000000000e+00,2.000000000000e+00
5,-1.200000000000e+00,1.000000000000e+01,0.000000000000e+00
6,1.200000000000e+00,1.000000000000e+01,0.000000000000e+00
7,-1.200000000000e+00,1.000000000000e+01,2.000000000000e+00
8,1.200000000000e+00,1.000000000000e+01,2.000000000000e+00
9,-1.200000000000e+00,2.000000000000e+01,0.000000000000e+00
10,1.200000000000e+00,2.000000000000e+01,0.000000000000e+00
11,-1.200000000000e+00,2.000000000000e+01,2.000000000000e+00
12,1.200000000000e+00,2.000000000000e+01,2.000000000000e+00
13,-1.200000000000e+00,3.000000000000e+01,0.000000000000e+00
14,1.200000000000e+00,3.000000000000e+01,0.000000000000e+00
15,-1.200000000000e+00,3.000000000000e+01,2.000000000000e+00
16,1.200000000000e+00,3.000000000000e+01,2.000000000000e+00
17,-1.200000000000e+00,4.000000000000e+01,0.000000000000e+00
18,1.200000000000e+00,4.000000000000e+01,0.000000000000e+00
19,-1.200000000000e+00,4.000000000000e+01,2.000000000000e+00
20,1.200000000000e+00,4.000000000000e+01,2.000000000000e+00
21,-1.200000000000e+00,5.000000000000e+01,0.000000000000e+00
22,1.200000000000e+00,5.000000000000e+01,0.000000000000e+00
23,-1.200000000000e+00,5.000000000000e+01,2.000000000000e+00
24,1.200000000000e+00,5.000000000000e+01,2.000000000000e+00
25,-1.200000000000e+00,1.500000000000e+01,-1.500000000000e-01
26,1.200000000000e+00,1.500000000000e+01,1.500000000000e-01
27,-1.200000000000e+00,1.500000000000e+01,1.850000000000e+00
28,1.200000000000e+00,1.500000000000e+01,2.150000000000e+00
29,-1.200000000000e+00,4.125000000000e+01,-5.740251485476e-02
30,-1.200000000000e+00,4.250000000000e+01,-1.060660171780e-01
31,-1.200000000000e+00,4.375000000000e+01,-1.385819298767e-01
32,-1.200000000000e+00,4.500000000000e+01,-1.500000000000e-01
33,-1.200000000000e+00,4.625000000000e+01,-1.385819298767e-01
34,-1.200000000000e+00,4.750000000000e+01,-1.060660171780e-01
35,-1.200000000000e+00,4.875000000000e+01,-5.740251485476e-02
36,1.200000000000e+00,4.125000000000e+01,5.740251485476e-02
37,1.200000000000e+00,4.250000000000e+01,1.060660171780e-01
38,1.200000000000e+00,4.375000000000e+01,1.385819298767e-01
39,1.200000000000e+00,4.500000000000e+01,1.500000000000e-01
40,1.200000000000e+00,4.625000000000e+01,1.385819298767e-01
41,1.200000000000e+00,4.750000000000e+01,1.060660171780e-01
42,1.200000000000e+00,4.875000000000e+01,5.740251485476e-02
43,-1.200000000000e+00,4.125000000000e+01,1.942597485145e+00
44,-1.200000000000e+00,4.250000000000e+01,1.893933982822e+00
45,-1.200000000000e+00,4.375000000000e+01,1.861418070123e+00
46,-1.200000000000e+00,4.500000000000e+01,1.850000000000e+00
47,-1.200000000000e+00,4.625000000000e+01,1.861418070123e+00
48,-1.200000000000e+00,4.750000000000e+01,1.893933982822e+00
49,-1.200000000000e+00,4.875000000000e+01,1.942597485145e+00
50,1.200000000000e+00,4.125000000000e+01,2.057402514855e+00
51,1.200000000000e+00,4.250000000000e+01,2.106066017178e+00
52,1.200000000000e+00,4.375000000000e+01,2.138581929877e+00
53,1.200000000000e+00,4.500000000000e+01,2.150000000000e+00
54,1.200000000000e+00,4.625000000000e+01,2.138581929877e+00
55,1.200000000000e+00,4.750000000000e+01,2.106066017178e+00
56,1.200000000000e+00,4.875000000000e+01,2.057402514855e+00
57,0.000000000000e+00,-3.600000000000e-02,0.000000000000e+00
58,0.000000000000e+00,3.600000000000e-02,2.000000000000e+00
59,-1.200000000000e+00,3.000000000000e-02,1.000000000000e+00
60,1.200000000000e+00,-3.000000000000e-02,1.000000000000e+00
61,-6.000000000000e-01,2.997454415588e+01,0.000000000000e+00
62,0.000000000000e+00,2.996400000000e+01,0.000000000000e+00
63,6.000000000000e-01,2.997454415588e+01,0.000000000000e+00
64,-6.000000000000e-01,3.002545584412e+01,2.000000000000e+00
65,0.000000000000e+00,3.003600000000e+01,2.000000000000e+00
66,6.000000000000e-01,3.002545584412e+01,2.000000000000e+00
67,-1.200000000000e+00,3.002121320344e+01,5.000000000000e-01
68,-1.200000000000e+00,3.003000000000e+01,1.000000000000e+00
69,-1.200000000000e+00,3.002121320344e+01,1.500000000000e+00
70,1.200000000000e+00,2.997878679656e+01,5.000000000000e-01
71,1.200000000000e+00,2.997000000000e+01,1.000000000000e+00
72,1.200000000000e+00,2.997878679656e+01,1.500000000000e+00
73,-6.000000000000e-01,3.997454415588e+01,0.000000000000e+00
74,0.000000000000e+00,3.996400000000e+01,0.000000000000e+00
75,6.000000000000e-01,3.997454415588e+01,0.000000000000e+00
76,-6.000000000000e-01,4.002545584412e+01,2.000000000000e+00
77,0.000000000000e+00,4.003600000000e+01,2.000000000000e+00
78,6.000000000000e-01,4.002545584412e+01,2.000000000000e+00
79,-1.200000000000e+00,4.002121320344e+01,5.000000000000e-01
80,-1.200000000000e+00,4.003000000000e+01,1.000000000000e+00
81,-1.200000000000e+00,4.002121320344e+01,1.500000000000e+00
82,1.200000000000e+00,3.997878679656e+01,5.000000000000e-01
83,1.200000000000e+00,3.997000000000e+01,1.000000000000e+00
84,1.200000000000e+00,3.997878679656e+01,1.500000000000e+00
85,0.000000000000e+00,4.996400000000e+01,0.000000000000e+00
86,0.000000000000e+00,5.003600000000e+01,2.000000000000e+00
87,-1.200000000000e+00,5.003000000000e+01,1.000000000000e+00
88,1.200000000000e+00,4.997000000000e+01,1.000000000000e+00
89,-1.200000000000e+00,2.521213203436e+00,3.939339828220e-01
90,-1.200000000000e+00,5.030000000000e+00,8.500000000000e-01
91,-1.200000000000e+00,7.521213203436e+00,1.393933982822e+00
92,-1.200000000000e+00,2.521213203436e+00,1.606066017178e+00
93,-1.200000000000e+00,5.030000000000e+00,1.150000000000e+00
94,-1.200000000000e+00,7.521213203436e+00,6.060660171780e-01
95,1.200000000000e+00,2.521213203436e+00,3.939339828220e-01
96,1.200000000000e+00,5.030000000000e+00,8.500000000000e-01
97,1.200000000000e+00,7.521213203436e+00,1.393933982822e+00
98,1.200000000000e+00,2.521213203436e+00,1.606066017178e+00
99,1.200000000000e+00,5.030000000000e+00,1.150000000000e+00
100,1.200000000000e+00,7.521213203436e+00,6.060660171780e-01
101,-4.939339828220e-01,2.474544155877e+00,0.000000000000e+00
102,1.500000000000e-01,4.964000000000e+00,0.000000000000e+00
103,7.060660171780e-01,7.474544155877e+00,0.000000000000e+00
104,4.939339828220e-01,2.474544155877e+00,0.000000000000e+00
105,-1.500000000000e-01,4.964000000000e+00,0.000000000000e+00
106,-7.060660171780e-01,7.474544155877e+00,0.000000000000e+00
107,-4.939339828220e-01,2.474544155877e+00,2.000000000000e+00
108,1.500000000000e-01,4.964000000000e+00,2.000000000000e+00
109,7.060660171780e-01,7.474544155877e+00,2.000000000000e+00
110,4.939339828220e-01,2.474544155877e+00,2.000000000000e+00
111,-1.500000000000e-01,4.964000000000e+00,2.000000000000e+00
112,-7.060660171780e-01,7.474544155877e+00,2.000000000000e+00
113,-1.200000000000e+00,1.252121320344e+01,3.939339828220e-01
114,-1.200000000000e+00,1.503000000000e+01,8.500000000000e-01
115,-1.200000000000e+00,1.752121320344e+01,1.393933982822e+00
116,-1.200000000000e+00,1.252121320344e+01,1.606066017178e+00
117,-1.200000000000e+00,1.503000000000e+01,1.150000000000e+00
118,-1.200000000000e+00,1.752121320344e+01,6.060660171780e-01
119,1.200000000000e+00,1.252121320344e+01,3.939339828220e-01
120,1.200000000000e+00,1.503000000000e+01,8.500000000000e-01
121,1.200000000000e+00,1.752121320344e+01,1.393933982822e+00
122,1.200000000000e+00,1.252121320344e+01,1.606066017178e+00
123,1.200000000000e+00,1.503000000000e+01,1.150000000000e+00
124,1.200000000000e+00,1.752121320344e+01,6.060660171780e-01
125,-4.939339828220e-01,1.247454415588e+01,0.000000000000e+00
126,1.500000000000e-01,1.496400000000e+01,0.000000000000e+00
127,7.060660171780e-01,1.747454415588e+01,0.000000000000e+00
128,4.939339828220e-01,1.247454415588e+01,0.000000000000e+00
129,-1.500000000000e-01,1.496400000000e+01,0.000000000000e+00
130,-7.060660171780e-01,1.747454415588e+01,0.000000000000e+00
131,-4.939339828220e-01,1.247454415588e+01,2.000000000000e+00
132,1.500000000000e-01,1.496400000000e+01,2.000000000000e+00
133,7.060660171780e-01,1.747454415588e+01,2.000000000000e+00
134,4.939339828220e-01,1.247454415588e+01,2.000000000000e+00
135,-1.500000000000e-01,1.496400000000e+01,2.000000000000e+00
136,-7.060660171780e-01,1.747454415588e+01,2.000000000000e+00
137,-1.200000000000e+00,3.503000000000e+01,8.500000000000e-01
138,-1.200000000000e+00,3.503000000000e+01,1.150000000000e+00
139,1.200000000000e+00,3.503000000000e+01,8.500000000000e-01
140,1.200000000000e+00,3.503000000000e+01,1.150000000000e+00
141,1.500000000000e-01,3.496400000000e+01,0.000000000000e+00
142,-1.500000000000e-01,3.496400000000e+01,0.000000000000e+00
143,1.500000000000e-01,3.496400000000e+01,2.000000000000e+00
144,-1.500000000000e-01,3.496400000000e+01,2.000000000000e+00
145,-1.200000000000e+00,4.126148050297e+01,1.925974851452e-01
146,-1.200000000000e+00,4.252121320344e+01,3.939339828220e-01
147,-1.200000000000e+00,4.377771638598e+01,6.114180701233e-01
148,-1.200000000000e+00,4.503000000000e+01,8.500000000000e-01
149,-1.200000000000e+00,4.627771638598e+01,1.111418070123e+00
150,-1.200000000000e+00,4.752121320344e+01,1.393933982822e+00
151,-1.200000000000e+00,4.876148050297e+01,1.692597485145e+00
152,-1.200000000000e+00,4.126148050297e+01,1.807402514855e+00
153,-1.200000000000e+00,4.252121320344e+01,1.606066017178e+00
154,-1.200000000000e+00,4.377771638598e+01,1.388581929877e+00
155,-1.200000000000e+00,4.503000000000e+01,1.150000000000e+00
156,-1.200000000000e+00,4.627771638598e+01,8.885819298767e-01
157,-1.200000000000e+00,4.752121320344e+01,6.060660171780e-01
158,-1.200000000000e+00,4.876148050297e+01,3.074025148548e-01
159,1.200000000000e+00,4.126148050297e+01,1.925974851452e-01
160,1.200000000000e+00,4.252121320344e+01,3.939339828220e-01
161,1.200000000000e+00,4.377771638598e+01,6.114180701233e-01
162,1.200000000000e+00,4.503000000000e+01,8.500000000000e-01
163,1.200000000000e+00,4.627771638598e+01,1.111418070123e+00
164,1.200000000000e+00,4.752121320344e+01,1.393933982822e+00
165,1.200000000000e+00,4.876148050297e+01,1.692597485145e+00
166,1.200000000000e+00,4.126148050297e+01,1.807402514855e+00
167,1.200000000000e+00,4.252121320344e+01,1.606066017178e+00
168,1.200000000000e+00,4.377771638598e+01,1.388581929877e+00
169,1.200000000000e+00,4.503000000000e+01,1.150000000000e+00
170,1.200000000000e+00,4.627771638598e+01,8.885819298767e-01
171,1.200000000000e+00,4.752121320344e+01,6.060660171780e-01
172,1.200000000000e+00,4.876148050297e+01,3.074025148548e-01
173,-8.425974851452e-01,4.123622339643e+01,0.000000000000e+00
174,-4.939339828220e-01,4.247454415588e+01,0.000000000000e+00
175,-1.614180701233e-01,4.371674033683e+01,0.000000000000e+00
176,1.500000000000e-01,4.496400000000e+01,0.000000000000e+00
177,4.385819298767e-01,4.621674033683e+01,0.000000000000e+00
178,7.060660171780e-01,4.747454415588e+01,0.000000000000e+00
179,9.574025148548e-01,4.873622339643e+01,0.000000000000e+00
180,8.425974851452e-01,4.123622339643e+01,0.000000000000e+00
181,4.939339828220e-01,4.247454415588e+01,0.000000000000e+00
182,1.614180701233e-01,4.371674033683e+01,0.000000000000e+00
183,-1.500000000000e-01,4.496400000000e+01,0.000000000000e+00
184,-4.385819298767e-01,4.621674033683e+01,0.000000000000e+00
185,-7.060660171780e-01,4.747454415588e+01,0.000000000000e+00
186,-9.574025148548e-01,4.873622339643e+01,0.000000000000e+00
187,-8.425974851452e-01,4.123622339643e+01,2.000000000000e+00
188,-4.939339828220e-01,4.247454415588e+01,2.000000000000e+00
189,-1.614180701233e-01,4.371674033683e+01,2.000000000000e+00
190,1.500000000000e-01,4.496400000000e+01,2.000000000000e+00
191,4.385819298767e-01,4.621674033683e+01,2.000000000000e+00
192,7.060660171780e-01,4.747454415588e+01,2.000000000000e+00
193,9.574025148548e-01,4.873622339643e+01,2.000000000000e+00
194,8.425974851452e-01,4.123622339643e+01,2.000000000000e+00
195,4.939339828220e-01,4.247454415588e+01,2.000000000000e+00
196,1.614180701233e-01,4.371674033683e+01,2.000000000000e+00
197,-1.500000000000e-01,4.496400000000e+01,2.000000000000e+00
198,-4.385819298767e-01,4.621674033683e+01,2.000000000000e+00
199,-7.060660171780e-01,4.747454415588e+01,2.000000000000e+00
200,-9.574025148548e-01,4.873622339643e+01,2.000000000000e+00
*ELEMENT,TYPE=B31,ELSET=ALL
1,1,5
2,2,6
3,3,7
4,4,8
5,5,25
6,25,9
7,6,26
8,26,10
9,7,27
10,27,11
11,8,28
12,28,12
13,9,13
14,10,14
15,11,15
16,12,16
17,13,17
18,14,18
19,15,19
20,16,20
21,17,29
22,29,30
23,30,31
24,31,32
25,32,33
26,33,34
27,34,35
28,35,21
29,18,36
30,36,37
31,37,38
32,38,39
33,39,40
34,40,41
35,41,42
36,42,22
37,19,43
38,43,44
39,44,45
40,45,46
41,46,47
42,47,48
43,48,49
44,49,23
45,20,50
46,50,51
47,51,52
48,52,53
49,53,54
50,54,55
51,55,56
52,56,24
53,1,57
54,57,2
55,3,58
56,58,4
57,1,59
58,59,3
59,2,60
60,60,4
61,5,6
62,7,8
63,5,7
64,6,8
65,9,10
66,11,12
67,9,11
68,10,12
69,13,61
70,61,62
71,62,63
72,63,14
73,15,64
74,64,65
75,65,66
76,66,16
77,13,67
78,67,68
79,68,69
80,69,15
81,14,70
82,70,71
83,71,72
84,72,16
85,17,73
86,73,74
87,74,75
88,75,18
89,19,76
90,76,77
91,77,78
92,78,20
93,17,79
94,79,80
95,80,81
96,81,19
97,18,82
98,82,83
99,83,84
100,84,20
101,21,85
102,85,22
103,23,86
104,86,24
105,21,87
106,87,23
107,22,88
108,88,24
109,1,89
110,89,90
111,90,91
112,91,7
113,3,92
114,92,93
115,93,94
116,94,5
117,2,95
118,95,96
119,96,97
120,97,8
121,4,98
122,98,99
123,99,100
124,100,6
125,1,101
126,101,102
127,102,103
128,103,6
129,2,104
130,104,105
131,105,106
132,106,5
133,3,107
134,107,108
135,108,109
136,109,8
137,4,110
138,110,111
139,111,112
140,112,7
141,5,113
142,113,114
143,114,115
144,115,11
145,7,116
146,116,117
147,117,118
148,118,9
149,6,119
150,119,120
151,120,121
152,121,12
153,8,122
154,122,123
155,123,124
156,124,10
157,5,125
158,125,126
159,126,127
160,127,10
161,6,128
162,128,129
163,129,130
164,130,9
165,7,131
166,131,132
167,132,133
168,133,12
169,8,134
170,134,135
171,135,136
172,136,11
173,9,15
174,11,13
175,10,16
176,12,14
177,9,14
178,10,13
179,11,16
180,12,15
181,13,137
182,137,19
183,15,138
184,138,17
185,14,139
186,139,20
187,16,140
188,140,18
189,13,141
190,141,18
191,14,142
192,142,17
193,15,143
194,143,20
195,16,144
196,144,19
197,17,145
198,145,146
199,146,147
200,147,148
201,148,149
202,149,150
203,150,151
204,151,23
205,19,152
206,152,153
207,153,154
208,154,155
209,155,156
210,156,157
211,157,158
212,158,21
213,18,159
214,159,160
215,160,161
216,161,162
217,162,163
218,163,164
219,164,165
220,165,24
221,20,166
222,166,167
223,167,168
224,168,169
225,169,170
226,170,171
227,171,172
228,172,22
229,17,173
230,173,174
231,174,175
232,175,176
233,176,177
234,177,178
235,178,179
236,179,22
237,18,180
238,180,181
239,181,182
240,182,183
241,183,184
242,184,185
243,185,186
244,186,21
245,19,187
246,187,188
247,188,189
248,189,190
249,190,191
250,191,192
251,192,193
252,193,24
253,20,194
254,194,195
255,195,196
256,196,197
257,197,198
258,198,199
259,199,200
260,200,23
*NSET,NSET=NALL,GENERATE
1,200,1
*NSET,NSET=LEFT
1,2,3,4
*NSET,NSET=RIGHT
21,22,23,24
*MATERIAL,NAME=STEEL
*ELASTIC
2.100000000000e+11,0.300000000000
*BEAM SECTION,ELSET=ALL,MATERIAL=STEEL,SECTION=RECT
6.000000000000e-02,4.000000000000e-02
0.371390676354,0.557086014531,0.742781352708
*BOUNDARY
LEFT,1,6,0.0
*STEP
*STATIC
*BOUNDARY
21,1,1,5.000000000000e-03
21,2,2,0.0
21,3,3,-6.000000000000e-03
*BOUNDARY
22,1,1,5.000000000000e-03
22,2,2,0.0
22,3,3,6.000000000000e-03
*BOUNDARY
23,1,1,-5.000000000000e-03
23,2,2,0.0
23,3,3,-6.000000000000e-03
*BOUNDARY
24,1,1,-5.000000000000e-03
24,2,2,0.0
24,3,3,6.000000000000e-03
*NODE FILE,NSET=NALL
U
*NODE PRINT,NSET=NALL
U
*NODE PRINT,NSET=RIGHT
RF
*EL PRINT,ELSET=ALL,TOTALS=YES
ELSE
*END STEP
