*HEADING
Normalized cross-passage space-truss torsion benchmark
*NODE
1,-1.200000000000e+00,0.000000000000e+00,0.000000000000e+00
2,1.200000000000e+00,0.000000000000e+00,0.000000000000e+00
3,-1.200000000000e+00,0.000000000000e+00,2.000000000000e+00
4,1.200000000000e+00,0.000000000000e+00,2.000000000000e+00
5,-1.200000000000e+00,1.000000000000e+01,0.000000000000e+00
6,1.200000000000e+00,1.000000000000e+01,0.000000000000e+00
7,-1.200000000000e+00,1.000000000000e+01,2.000000000000e+00
8,1.200000000000e+00,1.000000000000e+01,2.000000000000e+00
9,-1.200000000000e+00,2.000000000000e+01,0.000000000000e+00
10,1.200000000000e+00,2.000000000000e+01,0.000000000000e+00
11,-1.200000000000e+00,2.000000000000e+01,2.000000000000e+00
12,1.200000000000e+00,2.000000000000e+01,2.000000000000e+00
13,-1.200000000000e+00,3.000000000000e+01,0.000000000000e+00
14,1.200000000000e+00,3.000000000000e+01,0.000000000000e+00
15,-1.200000000000e+00,3.000000000000e+01,2.000000000000e+00
16,1.200000000000e+00,3.000000000000e+01,2.000000000000e+00
17,-1.200000000000e+00,4.000000000000e+01,0.000000000000e+00
18,1.200000000000e+00,4.000000000000e+01,0.000000000000e+00
19,-1.200000000000e+00,4.000000000000e+01,2.000000000000e+00
20,1.200000000000e+00,4.000000000000e+01,2.000000000000e+00
21,-1.200000000000e+00,5.000000000000e+01,0.000000000000e+00
22,1.200000000000e+00,5.000000000000e+01,0.000000000000e+00
23,-1.200000000000e+00,5.000000000000e+01,2.000000000000e+00
24,1.200000000000e+00,5.000000000000e+01,2.000000000000e+00
25,-1.200000000000e+00,5.000000000000e+00,-1.500000000000e-01
26,1.200000000000e+00,5.000000000000e+00,1.500000000000e-01
27,-1.200000000000e+00,5.000000000000e+00,1.850000000000e+00
28,1.200000000000e+00,5.000000000000e+00,2.150000000000e+00
29,-1.200000000000e+00,1.500000000000e+01,-1.500000000000e-01
30,1.200000000000e+00,1.500000000000e+01,1.500000000000e-01
31,-1.200000000000e+00,1.500000000000e+01,1.850000000000e+00
32,1.200000000000e+00,1.500000000000e+01,2.150000000000e+00
33,-1.200000000000e+00,2.250000000000e+01,-1.060660171780e-01
34,-1.200000000000e+00,2.500000000000e+01,-1.500000000000e-01
35,-1.200000000000e+00,2.750000000000e+01,-1.060660171780e-01
36,1.200000000000e+00,2.250000000000e+01,1.060660171780e-01
37,1.200000000000e+00,2.500000000000e+01,1.500000000000e-01
38,1.200000000000e+00,2.750000000000e+01,1.060660171780e-01
39,-1.200000000000e+00,2.250000000000e+01,1.893933982822e+00
40,-1.200000000000e+00,2.500000000000e+01,1.850000000000e+00
41,-1.200000000000e+00,2.750000000000e+01,1.893933982822e+00
42,1.200000000000e+00,2.250000000000e+01,2.106066017178e+00
43,1.200000000000e+00,2.500000000000e+01,2.150000000000e+00
44,1.200000000000e+00,2.750000000000e+01,2.106066017178e+00
45,-1.200000000000e+00,3.125000000000e+01,-5.740251485476e-02
46,-1.200000000000e+00,3.250000000000e+01,-1.060660171780e-01
47,-1.200000000000e+00,3.375000000000e+01,-1.385819298767e-01
48,-1.200000000000e+00,3.500000000000e+01,-1.500000000000e-01
49,-1.200000000000e+00,3.625000000000e+01,-1.385819298767e-01
50,-1.200000000000e+00,3.750000000000e+01,-1.060660171780e-01
51,-1.200000000000e+00,3.875000000000e+01,-5.740251485476e-02
52,1.200000000000e+00,3.125000000000e+01,5.740251485476e-02
53,1.200000000000e+00,3.250000000000e+01,1.060660171780e-01
54,1.200000000000e+00,3.375000000000e+01,1.385819298767e-01
55,1.200000000000e+00,3.500000000000e+01,1.500000000000e-01
56,1.200000000000e+00,3.625000000000e+01,1.385819298767e-01
57,1.200000000000e+00,3.750000000000e+01,1.060660171780e-01
58,1.200000000000e+00,3.875000000000e+01,5.740251485476e-02
59,-1.200000000000e+00,3.125000000000e+01,1.942597485145e+00
60,-1.200000000000e+00,3.250000000000e+01,1.893933982822e+00
61,-1.200000000000e+00,3.375000000000e+01,1.861418070123e+00
62,-1.200000000000e+00,3.500000000000e+01,1.850000000000e+00
63,-1.200000000000e+00,3.625000000000e+01,1.861418070123e+00
64,-1.200000000000e+00,3.750000000000e+01,1.893933982822e+00
65,-1.200000000000e+00,3.875000000000e+01,1.942597485145e+00
66,1.200000000000e+00,3.125000000000e+01,2.057402514855e+00
67,1.200000000000e+00,3.250000000000e+01,2.106066017178e+00
68,1.200000000000e+00,3.375000000000e+01,2.138581929877e+00
69,1.200000000000e+00,3.500000000000e+01,2.150000000000e+00
70,1.200000000000e+00,3.625000000000e+01,2.138581929877e+00
71,1.200000000000e+00,3.750000000000e+01,2.106066017178e+00
72,1.200000000000e+00,3.875000000000e+01,2.057402514855e+00
73,-1.200000000000e+00,4.500000000000e+01,-1.500000000000e-01
74,1.200000000000e+00,4.500000000000e+01,1.500000000000e-01
75,-1.200000000000e+00,4.500000000000e+01,1.850000000000e+00
76,1.200000000000e+00,4.500000000000e+01,2.150000000000e+00
77,0.000000000000e+00,-3.600000000000e-02,0.000000000000e+00
78,0.000000000000e+00,3.600000000000e-02,2.000000000000e+00
79,-1.200000000000e+00,3.000000000000e-02,1.000000000000e+00
80,1.200000000000e+00,-3.000000000000e-02,1.000000000000e+00
81,0.000000000000e+00,9.964000000000e+00,0.000000000000e+00
82,0.000000000000e+00,1.003600000000e+01,2.000000000000e+00
83,-1.200000000000e+00,1.003000000000e+01,1.000000000000e+00
84,1.200000000000e+00,9.970000000000e+00,1.000000000000e+00
85,0.000000000000e+00,1.996400000000e+01,0.000000000000e+00
86,0.000000000000e+00,2.003600000000e+01,2.000000000000e+00
87,-1.200000000000e+00,2.003000000000e+01,1.000000000000e+00
88,1.200000000000e+00,1.997000000000e+01,1.000000000000e+00
89,0.000000000000e+00,2.996400000000e+01,0.000000000000e+00
90,0.000000000000e+00,3.003600000000e+01,2.000000000000e+00
91,-1.200000000000e+00,3.003000000000e+01,1.000000000000e+00
92,1.200000000000e+00,2.997000000000e+01,1.000000000000e+00
93,0.000000000000e+00,4.996400000000e+01,0.000000000000e+00
94,0.000000000000e+00,5.003600000000e+01,2.000000000000e+00
95,-1.200000000000e+00,5.003000000000e+01,1.000000000000e+00
96,1.200000000000e+00,4.997000000000e+01,1.000000000000e+00
97,-1.200000000000e+00,5.030000000000e+00,8.500000000000e-01
98,-1.200000000000e+00,5.030000000000e+00,1.150000000000e+00
99,1.200000000000e+00,5.030000000000e+00,8.500000000000e-01
100,1.200000000000e+00,5.030000000000e+00,1.150000000000e+00
101,1.500000000000e-01,4.964000000000e+00,0.000000000000e+00
102,-1.500000000000e-01,4.964000000000e+00,0.000000000000e+00
103,1.500000000000e-01,4.964000000000e+00,2.000000000000e+00
104,-1.500000000000e-01,4.964000000000e+00,2.000000000000e+00
105,-1.200000000000e+00,1.503000000000e+01,8.500000000000e-01
106,-1.200000000000e+00,1.503000000000e+01,1.150000000000e+00
107,1.200000000000e+00,1.503000000000e+01,8.500000000000e-01
108,1.200000000000e+00,1.503000000000e+01,1.150000000000e+00
109,1.500000000000e-01,1.496400000000e+01,0.000000000000e+00
110,-1.500000000000e-01,1.496400000000e+01,0.000000000000e+00
111,1.500000000000e-01,1.496400000000e+01,2.000000000000e+00
112,-1.500000000000e-01,1.496400000000e+01,2.000000000000e+00
113,-1.200000000000e+00,2.503000000000e+01,8.500000000000e-01
114,-1.200000000000e+00,2.503000000000e+01,1.150000000000e+00
115,1.200000000000e+00,2.503000000000e+01,8.500000000000e-01
116,1.200000000000e+00,2.503000000000e+01,1.150000000000e+00
117,1.500000000000e-01,2.496400000000e+01,0.000000000000e+00
118,-1.500000000000e-01,2.496400000000e+01,0.000000000000e+00
119,1.500000000000e-01,2.496400000000e+01,2.000000000000e+00
120,-1.500000000000e-01,2.496400000000e+01,2.000000000000e+00
121,-1.200000000000e+00,3.503000000000e+01,8.500000000000e-01
122,-1.200000000000e+00,3.503000000000e+01,1.150000000000e+00
123,1.200000000000e+00,3.503000000000e+01,8.500000000000e-01
124,1.200000000000e+00,3.503000000000e+01,1.150000000000e+00
125,1.500000000000e-01,3.496400000000e+01,0.000000000000e+00
126,-1.500000000000e-01,3.496400000000e+01,0.000000000000e+00
127,1.500000000000e-01,3.496400000000e+01,2.000000000000e+00
128,-1.500000000000e-01,3.496400000000e+01,2.000000000000e+00
129,-1.200000000000e+00,4.503000000000e+01,8.500000000000e-01
130,-1.200000000000e+00,4.503000000000e+01,1.150000000000e+00
131,1.200000000000e+00,4.503000000000e+01,8.500000000000e-01
132,1.200000000000e+00,4.503000000000e+01,1.150000000000e+00
133,1.500000000000e-01,4.496400000000e+01,0.000000000000e+00
134,-1.500000000000e-01,4.496400000000e+01,0.000000000000e+00
135,1.500000000000e-01,4.496400000000e+01,2.000000000000e+00
136,-1.500000000000e-01,4.496400000000e+01,2.000000000000e+00
*ELEMENT,TYPE=B31,ELSET=ALL
1,1,25
2,25,5
3,2,26
4,26,6
5,3,27
6,27,7
7,4,28
8,28,8
9,5,29
10,29,9
11,6,30
12,30,10
13,7,31
14,31,11
15,8,32
16,32,12
17,9,33
18,33,34
19,34,35
20,35,13
21,10,36
22,36,37
23,37,38
24,38,14
25,11,39
26,39,40
27,40,41
28,41,15
29,12,42
30,42,43
31,43,44
32,44,16
33,13,45
34,45,46
35,46,47
36,47,48
37,48,49
38,49,50
39,50,51
40,51,17
41,14,52
42,52,53
43,53,54
44,54,55
45,55,56
46,56,57
47,57,58
48,58,18
49,15,59
50,59,60
51,60,61
52,61,62
53,62,63
54,63,64
55,64,65
56,65,19
57,16,66
58,66,67
59,67,68
60,68,69
61,69,70
62,70,71
63,71,72
64,72,20
65,17,73
66,73,21
67,18,74
68,74,22
69,19,75
70,75,23
71,20,76
72,76,24
73,1,77
74,77,2
75,3,78
76,78,4
77,1,79
78,79,3
79,2,80
80,80,4
81,5,81
82,81,6
83,7,82
84,82,8
85,5,83
86,83,7
87,6,84
88,84,8
89,9,85
90,85,10
91,11,86
92,86,12
93,9,87
94,87,11
95,10,88
96,88,12
97,13,89
98,89,14
99,15,90
100,90,16
101,13,91
102,91,15
103,14,92
104,92,16
105,17,18
106,19,20
107,17,19
108,18,20
109,21,93
110,93,22
111,23,94
112,94,24
113,21,95
114,95,23
115,22,96
116,96,24
117,1,97
118,97,7
119,3,98
120,98,5
121,2,99
122,99,8
123,4,100
124,100,6
125,1,101
126,101,6
127,2,102
128,102,5
129,3,103
130,103,8
131,4,104
132,104,7
133,5,105
134,105,11
135,7,106
136,106,9
137,6,107
138,107,12
139,8,108
140,108,10
141,5,109
142,109,10
143,6,110
144,110,9
145,7,111
146,111,12
147,8,112
148,112,11
149,9,113
150,113,15
151,11,114
152,114,13
153,10,115
154,115,16
155,12,116
156,116,14
157,9,117
158,117,14
159,10,118
160,118,13
161,11,119
162,119,16
163,12,120
164,120,15
165,13,121
166,121,19
167,15,122
168,122,17
169,14,123
170,123,20
171,16,124
172,124,18
173,13,125
174,125,18
175,14,126
176,126,17
177,15,127
178,127,20
179,16,128
180,128,19
181,17,129
182,129,23
183,19,130
184,130,21
185,18,131
186,131,24
187,20,132
188,132,22
189,17,133
190,133,22
191,18,134
192,134,21
193,19,135
194,135,24
195,20,136
196,136,23
*NSET,NSET=NALL,GENERATE
1,136,1
*NSET,NSET=LEFT
1,2,3,4
*NSET,NSET=RIGHT
21,22,23,24
*MATERIAL,NAME=STEEL
*ELASTIC
2.100000000000e+11,0.300000000000
*BEAM SECTION,ELSET=ALL,MATERIAL=STEEL,SECTION=RECT
6.000000000000e-02,4.000000000000e-02
0.371390676354,0.557086014531,0.742781352708
*BOUNDARY
LEFT,1,6,0.0
*STEP
*STATIC
*BOUNDARY
21,1,1,5.000000000000e-03
21,2,2,0.0
21,3,3,-6.000000000000e-03
*BOUNDARY
22,1,1,5.000000000000e-03
22,2,2,0.0
22,3,3,6.000000000000e-03
*BOUNDARY
23,1,1,-5.000000000000e-03
23,2,2,0.0
23,3,3,-6.000000000000e-03
*BOUNDARY
24,1,1,-5.000000000000e-03
24,2,2,0.0
24,3,3,6.000000000000e-03
*NODE FILE,NSET=NALL
U
*NODE PRINT,NSET=NALL
U
*NODE PRINT,NSET=RIGHT
RF
*EL PRINT,ELSET=ALL,TOTALS=YES
ELSE
*END STEP
