*HEADING
Normalized cross-passage space-truss torsion benchmark
*NODE
1,-1.200000000000e+00,0.000000000000e+00,0.000000000000e+00
2,1.200000000000e+00,0.000000000000e+00,0.000000000000e+00
3,-1.200000000000e+00,0.000000000000e+00,2.000000000000e+00
4,1.200000000000e+00,0.000000000000e+00,2.000000000000e+00
5,-1.200000000000e+00,1.000000000000e+01,0.000000000000e+00
6,1.200000000000e+00,1.000000000000e+01,0.000000000000e+00
7,-1.200000000000e+00,1.000000000000e+01,2.000000000000e+00
8,1.200000000000e+00,1.000000000000e+01,2.000000000000e+00
9,-1.200000000000e+00,2.000000000000e+01,0.000000000000e+00
10,1.200000000000e+00,2.000000000000e+01,0.000000000000e+00
11,-1.200000000000e+00,2.000000000000e+01,2.000000000000e+00
12,1.200000000000e+00,2.000000000000e+01,2.000000000000e+00
13,-1.200000000000e+00,3.000000000000e+01,0.000000000000e+00
14,1.200000000000e+00,3.000000000000e+01,0.000000000000e+00
15,-1.200000000000e+00,3.000000000000e+01,2.000000000000e+00
16,1.200000000000e+00,3.000000000000e+01,2.000000000000e+00
17,-1.200000000000e+00,4.000000000000e+01,0.000000000000e+00
18,1.200000000000e+00,4.000000000000e+01,0.000000000000e+00
19,-1.200000000000e+00,4.000000000000e+01,2.000000000000e+00
20,1.200000000000e+00,4.000000000000e+01,2.000000000000e+00
21,-1.200000000000e+00,5.000000000000e+01,0.000000000000e+00
22,1.200000000000e+00,5.000000000000e+01,0.000000000000e+00
23,-1.200000000000e+00,5.000000000000e+01,2.000000000000e+00
24,1.200000000000e+00,5.000000000000e+01,2.000000000000e+00
25,-1.200000000000e+00,1.250000000000e+00,-5.740251485476e-02
26,-1.200000000000e+00,2.500000000000e+00,-1.060660171780e-01
27,-1.200000000000e+00,3.750000000000e+00,-1.385819298767e-01
28,-1.200000000000e+00,5.000000000000e+00,-1.500000000000e-01
29,-1.200000000000e+00,6.250000000000e+00,-1.385819298767e-01
30,-1.200000000000e+00,7.500000000000e+00,-1.060660171780e-01
31,-1.200000000000e+00,8.750000000000e+00,-5.740251485476e-02
32,1.200000000000e+00,1.250000000000e+00,5.740251485476e-02
33,1.200000000000e+00,2.500000000000e+00,1.060660171780e-01
34,1.200000000000e+00,3.750000000000e+00,1.385819298767e-01
35,1.200000000000e+00,5.000000000000e+00,1.500000000000e-01
36,1.200000000000e+00,6.250000000000e+00,1.385819298767e-01
37,1.200000000000e+00,7.500000000000e+00,1.060660171780e-01
38,1.200000000000e+00,8.750000000000e+00,5.740251485476e-02
39,-1.200000000000e+00,1.250000000000e+00,1.942597485145e+00
40,-1.200000000000e+00,2.500000000000e+00,1.893933982822e+00
41,-1.200000000000e+00,3.750000000000e+00,1.861418070123e+00
42,-1.200000000000e+00,5.000000000000e+00,1.850000000000e+00
43,-1.200000000000e+00,6.250000000000e+00,1.861418070123e+00
44,-1.200000000000e+00,7.500000000000e+00,1.893933982822e+00
45,-1.200000000000e+00,8.750000000000e+00,1.942597485145e+00
46,1.200000000000e+00,1.250000000000e+00,2.057402514855e+00
47,1.200000000000e+00,2.500000000000e+00,2.106066017178e+00
48,1.200000000000e+00,3.750000000000e+00,2.138581929877e+00
49,1.200000000000e+00,5.000000000000e+00,2.150000000000e+00
50,1.200000000000e+00,6.250000000000e+00,2.138581929877e+00
51,1.200000000000e+00,7.500000000000e+00,2.106066017178e+00
52,1.200000000000e+00,8.750000000000e+00,2.057402514855e+00
53,-1.200000000000e+00,1.500000000000e+01,-1.500000000000e-01
54,1.200000000000e+00,1.500000000000e+01,1.500000000000e-01
55,-1.200000000000e+00,1.500000000000e+01,1.850000000000e+00
56,1.200000000000e+00,1.500000000000e+01,2.150000000000e+00
57,-1.200000000000e+00,2.500000000000e+01,-1.500000000000e-01
58,1.200000000000e+00,2.500000000000e+01,1.500000000000e-01
59,-1.200000000000e+00,2.500000000000e+01,1.850000000000e+00
60,1.200000000000e+00,2.500000000000e+01,2.150000000000e+00
61,-1.200000000000e+00,3.250000000000e+01,-1.060660171780e-01
62,-1.200000000000e+00,3.500000000000e+01,-1.500000000000e-01
63,-1.200000000000e+00,3.750000000000e+01,-1.060660171780e-01
64,1.200000000000e+00,3.250000000000e+01,1.060660171780e-01
65,1.200000000000e+00,3.500000000000e+01,1.500000000000e-01
66,1.200000000000e+00,3.750000000000e+01,1.060660171780e-01
67,-1.200000000000e+00,3.250000000000e+01,1.893933982822e+00
68,-1.200000000000e+00,3.500000000000e+01,1.850000000000e+00
69,-1.200000000000e+00,3.750000000000e+01,1.893933982822e+00
70,1.200000000000e+00,3.250000000000e+01,2.106066017178e+00
71,1.200000000000e+00,3.500000000000e+01,2.150000000000e+00
72,1.200000000000e+00,3.750000000000e+01,2.106066017178e+00
73,-1.200000000000e+00,4.250000000000e+01,-1.060660171780e-01
74,-1.200000000000e+00,4.500000000000e+01,-1.500000000000e-01
75,-1.200000000000e+00,4.750000000000e+01,-1.060660171780e-01
76,1.200000000000e+00,4.250000000000e+01,1.060660171780e-01
77,1.200000000000e+00,4.500000000000e+01,1.500000000000e-01
78,1.200000000000e+00,4.750000000000e+01,1.060660171780e-01
79,-1.200000000000e+00,4.250000000000e+01,1.893933982822e+00
80,-1.200000000000e+00,4.500000000000e+01,1.850000000000e+00
81,-1.200000000000e+00,4.750000000000e+01,1.893933982822e+00
82,1.200000000000e+00,4.250000000000e+01,2.106066017178e+00
83,1.200000000000e+00,4.500000000000e+01,2.150000000000e+00
84,1.200000000000e+00,4.750000000000e+01,2.106066017178e+00
85,0.000000000000e+00,-3.600000000000e-02,0.000000000000e+00
86,0.000000000000e+00,3.600000000000e-02,2.000000000000e+00
87,-1.200000000000e+00,3.000000000000e-02,1.000000000000e+00
88,1.200000000000e+00,-3.000000000000e-02,1.000000000000e+00
89,-9.000000000000e-01,9.986223396435e+00,0.000000000000e+00
90,-6.000000000000e-01,9.974544155877e+00,0.000000000000e+00
91,-3.000000000000e-01,9.966740336830e+00,0.000000000000e+00
92,0.000000000000e+00,9.964000000000e+00,0.000000000000e+00
93,3.000000000000e-01,9.966740336830e+00,0.000000000000e+00
94,6.000000000000e-01,9.974544155877e+00,0.000000000000e+00
95,9.000000000000e-01,9.986223396435e+00,0.000000000000e+00
96,-9.000000000000e-01,1.001377660357e+01,2.000000000000e+00
97,-6.000000000000e-01,1.002545584412e+01,2.000000000000e+00
98,-3.000000000000e-01,1.003325966317e+01,2.000000000000e+00
99,0.000000000000e+00,1.003600000000e+01,2.000000000000e+00
100,3.000000000000e-01,1.003325966317e+01,2.000000000000e+00
101,6.000000000000e-01,1.002545584412e+01,2.000000000000e+00
102,9.000000000000e-01,1.001377660357e+01,2.000000000000e+00
103,-1.200000000000e+00,1.001148050297e+01,2.500000000000e-01
104,-1.200000000000e+00,1.002121320344e+01,5.000000000000e-01
105,-1.200000000000e+00,1.002771638598e+01,7.500000000000e-01
106,-1.200000000000e+00,1.003000000000e+01,1.000000000000e+00
107,-1.200000000000e+00,1.002771638598e+01,1.250000000000e+00
108,-1.200000000000e+00,1.002121320344e+01,1.500000000000e+00
109,-1.200000000000e+00,1.001148050297e+01,1.750000000000e+00
110,1.200000000000e+00,9.988519497029e+00,2.500000000000e-01
111,1.200000000000e+00,9.978786796564e+00,5.000000000000e-01
112,1.200000000000e+00,9.972283614025e+00,7.500000000000e-01
113,1.200000000000e+00,9.970000000000e+00,1.000000000000e+00
114,1.200000000000e+00,9.972283614025e+00,1.250000000000e+00
115,1.200000000000e+00,9.978786796564e+00,1.500000000000e+00
116,1.200000000000e+00,9.988519497029e+00,1.750000000000e+00
117,0.000000000000e+00,1.996400000000e+01,0.000000000000e+00
118,0.000000000000e+00,2.003600000000e+01,2.000000000000e+00
119,-1.200000000000e+00,2.003000000000e+01,1.000000000000e+00
120,1.200000000000e+00,1.997000000000e+01,1.000000000000e+00
121,-6.000000000000e-01,3.997454415588e+01,0.000000000000e+00
122,0.000000000000e+00,3.996400000000e+01,0.000000000000e+00
123,6.000000000000e-01,3.997454415588e+01,0.000000000000e+00
124,-6.000000000000e-01,4.002545584412e+01,2.000000000000e+00
125,0.000000000000e+00,4.003600000000e+01,2.000000000000e+00
126,6.000000000000e-01,4.002545584412e+01,2.000000000000e+00
127,-1.200000000000e+00,4.002121320344e+01,5.000000000000e-01
128,-1.200000000000e+00,4.003000000000e+01,1.000000000000e+00
129,-1.200000000000e+00,4.002121320344e+01,1.500000000000e+00
130,1.200000000000e+00,3.997878679656e+01,5.000000000000e-01
131,1.200000000000e+00,3.997000000000e+01,1.000000000000e+00
132,1.200000000000e+00,3.997878679656e+01,1.500000000000e+00
133,-1.200000000000e+00,1.261480502971e+00,1.925974851452e-01
134,-1.200000000000e+00,2.521213203436e+00,3.939339828220e-01
135,-1.200000000000e+00,3.777716385975e+00,6.114180701233e-01
136,-1.200000000000e+00,5.030000000000e+00,8.500000000000e-01
137,-1.200000000000e+00,6.277716385975e+00,1.111418070123e+00
138,-1.200000000000e+00,7.521213203436e+00,1.393933982822e+00
139,-1.200000000000e+00,8.761480502971e+00,1.692597485145e+00
140,-1.200000000000e+00,1.261480502971e+00,1.807402514855e+00
141,-1.200000000000e+00,2.521213203436e+00,1.606066017178e+00
142,-1.200000000000e+00,3.777716385975e+00,1.388581929877e+00
143,-1.200000000000e+00,5.030000000000e+00,1.150000000000e+00
144,-1.200000000000e+00,6.277716385975e+00,8.885819298767e-01
145,-1.200000000000e+00,7.521213203436e+00,6.060660171780e-01
146,-1.200000000000e+00,8.761480502971e+00,3.074025148548e-01
147,1.200000000000e+00,1.261480502971e+00,1.925974851452e-01
148,1.200000000000e+00,2.521213203436e+00,3.939339828220e-01
149,1.200000000000e+00,3.777716385975e+00,6.114180701233e-01
150,1.200000000000e+00,5.030000000000e+00,8.500000000000e-01
151,1.200000000000e+00,6.277716385975e+00,1.111418070123e+00
152,1.200000000000e+00,7.521213203436e+00,1.393933982822e+00
153,1.200000000000e+00,8.761480502971e+00,1.692597485145e+00
154,1.200000000000e+00,1.261480502971e+00,1.807402514855e+00
155,1.200000000000e+00,2.521213203436e+00,1.606066017178e+00
156,1.200000000000e+00,3.777716385975e+00,1.388581929877e+00
157,1.200000000000e+00,5.030000000000e+00,1.150000000000e+00
158,1.200000000000e+00,6.277716385975e+00,8.885819298767e-01
159,1.200000000000e+00,7.521213203436e+00,6.060660171780e-01
160,1.200000000000e+00,8.761480502971e+00,3.074025148548e-01
161,-8.425974851452e-01,1.236223396435e+00,0.000000000000e+00
162,-4.939339828220e-01,2.474544155877e+00,0.000000000000e+00
163,-1.614180701233e-01,3.716740336830e+00,0.000000000000e+00
164,1.500000000000e-01,4.964000000000e+00,0.000000000000e+00
165,4.385819298767e-01,6.216740336830e+00,0.000000000000e+00
166,7.060660171780e-01,7.474544155877e+00,0.000000000000e+00
167,9.574025148548e-01,8.736223396435e+00,0.000000000000e+00
168,8.425974851452e-01,1.236223396435e+00,0.000000000000e+00
169,4.939339828220e-01,2.474544155877e+00,0.000000000000e+00
170,1.614180701233e-01,3.716740336830e+00,0.000000000000e+00
171,-1.500000000000e-01,4.964000000000e+00,0.000000000000e+00
172,-4.385819298767e-01,6.216740336830e+00,0.000000000000e+00
173,-7.060660171780e-01,7.474544155877e+00,0.000000000000e+00
174,-9.574025148548e-01,8.736223396435e+00,0.000000000000e+00
175,-8.425974851452e-01,1.236223396435e+00,2.000000000000e+00
176,-4.939339828220e-01,2.474544155877e+00,2.000000000000e+00
177,-1.614180701233e-01,3.716740336830e+00,2.000000000000e+00
178,1.500000000000e-01,4.964000000000e+00,2.000000000000e+00
179,4.385819298767e-01,6.216740336830e+00,2.000000000000e+00
180,7.060660171780e-01,7.474544155877e+00,2.000000000000e+00
181,9.574025148548e-01,8.736223396435e+00,2.000000000000e+00
182,8.425974851452e-01,1.236223396435e+00,2.000000000000e+00
183,4.939339828220e-01,2.474544155877e+00,2.000000000000e+00
184,1.614180701233e-01,3.716740336830e+00,2.000000000000e+00
185,-1.500000000000e-01,4.964000000000e+00,2.000000000000e+00
186,-4.385819298767e-01,6.216740336830e+00,2.000000000000e+00
187,-7.060660171780e-01,7.474544155877e+00,2.000000000000e+00
188,-9.574025148548e-01,8.736223396435e+00,2.000000000000e+00
189,-1.200000000000e+00,1.252121320344e+01,3.939339828220e-01
190,-1.200000000000e+00,1.503000000000e+01,8.500000000000e-01
191,-1.200000000000e+00,1.752121320344e+01,1.393933982822e+00
192,-1.200000000000e+00,1.252121320344e+01,1.606066017178e+00
193,-1.200000000000e+00,1.503000000000e+01,1.150000000000e+00
194,-1.200000000000e+00,1.752121320344e+01,6.060660171780e-01
195,1.200000000000e+00,1.252121320344e+01,3.939339828220e-01
196,1.200000000000e+00,1.503000000000e+01,8.500000000000e-01
197,1.200000000000e+00,1.752121320344e+01,1.393933982822e+00
198,1.200000000000e+00,1.252121320344e+01,1.606066017178e+00
199,1.200000000000e+00,1.503000000000e+01,1.150000000000e+00
200,1.200000000000e+00,1.752121320344e+01,6.060660171780e-01
201,-4.939339828220e-01,1.247454415588e+01,0.000000000000e+00
202,1.500000000000e-01,1.496400000000e+01,0.000000000000e+00
203,7.060660171780e-01,1.747454415588e+01,0.000000000000e+00
204,4.939339828220e-01,1.247454415588e+01,0.000000000000e+00
205,-1.500000000000e-01,1.496400000000e+01,0.000000000000e+00
206,-7.060660171780e-01,1.747454415588e+01,0.000000000000e+00
207,-4.939339828220e-01,1.247454415588e+01,2.000000000000e+00
208,1.500000000000e-01,1.496400000000e+01,2.000000000000e+00
209,7.060660171780e-01,1.747454415588e+01,2.000000000000e+00
210,4.939339828220e-01,1.247454415588e+01,2.000000000000e+00
211,-1.500000000000e-01,1.496400000000e+01,2.000000000000e+00
212,-7.060660171780e-01,1.747454415588e+01,2.000000000000e+00
213,-1.200000000000e+00,3.503000000000e+01,8.500000000000e-01
214,-1.200000000000e+00,3.503000000000e+01,1.150000000000e+00
215,1.200000000000e+00,3.503000000000e+01,8.500000000000e-01
216,1.200000000000e+00,3.503000000000e+01,1.150000000000e+00
217,1.500000000000e-01,3.496400000000e+01,0.000000000000e+00
218,-1.500000000000e-01,3.496400000000e+01,0.000000000000e+00
219,1.500000000000e-01,3.496400000000e+01,2.000000000000e+00
220,-1.500000000000e-01,3.496400000000e+01,2.000000000000e+00
221,-1.200000000000e+00,4.503000000000e+01,8.500000000000e-01
222,-1.200000000000e+00,4.503000000000e+01,1.150000000000e+00
223,1.200000000000e+00,4.503000000000e+01,8.500000000000e-01
224,1.200000000000e+00,4.503000000000e+01,1.150000000000e+00
225,1.500000000000e-01,4.496400000000e+01,0.000000000000e+00
226,-1.500000000000e-01,4.496400000000e+01,0.000000000000e+00
227,1.500000000000e-01,4.496400000000e+01,2.000000000000e+00
228,-1.500000000000e-01,4.496400000000e+01,2.000000000000e+00
*ELEMENT,TYPE=B31,ELSET=ALL
1,1,25
2,25,26
3,26,27
4,27,28
5,28,29
6,29,30
7,30,31
8,31,5
9,2,32
10,32,33
11,33,34
12,34,35
13,35,36
14,36,37
15,37,38
16,38,6
17,3,39
18,39,40
19,40,41
20,41,42
21,42,43
22,43,44
23,44,45
24,45,7
25,4,46
26,46,47
27,47,48
28,48,49
29,49,50
30,50,51
31,51,52
32,52,8
33,5,53
34,53,9
35,6,54
36,54,10
37,7,55
38,55,11
39,8,56
40,56,12
41,9,57
42,57,13
43,10,58
44,58,14
45,11,59
46,59,15
47,12,60
48,60,16
49,13,61
50,61,62
51,62,63
52,63,17
53,14,64
54,64,65
55,65,66
56,66,18
57,15,67
58,67,68
59,68,69
60,69,19
61,16,70
62,70,71
63,71,72
64,72,20
65,17,73
66,73,74
67,74,75
68,75,21
69,18,76
70,76,77
71,77,78
72,78,22
73,19,79
74,79,80
75,80,81
76,81,23
77,20,82
78,82,83
79,83,84
80,84,24
81,1,85
82,85,2
83,3,86
84,86,4
85,1,87
86,87,3
87,2,88
88,88,4
89,5,89
90,89,90
91,90,91
92,91,92
93,92,93
94,93,94
95,94,95
96,95,6
97,7,96
98,96,97
99,97,98
100,98,99
101,99,100
102,100,101
103,101,102
104,102,8
105,5,103
106,103,104
107,104,105
108,105,106
109,106,107
110,107,108
111,108,109
112,109,7
113,6,110
114,110,111
115,111,112
116,112,113
117,113,114
118,114,115
119,115,116
120,116,8
121,9,117
122,117,10
123,11,118
124,118,12
125,9,119
126,119,11
127,10,120
128,120,12
129,13,14
130,15,16
131,13,15
132,14,16
133,17,121
134,121,122
135,122,123
136,123,18
137,19,124
138,124,125
139,125,126
140,126,20
141,17,127
142,127,128
143,128,129
144,129,19
145,18,130
146,130,131
147,131,132
148,132,20
149,21,22
150,23,24
151,21,23
152,22,24
153,1,133
154,133,134
155,134,135
156,135,136
157,136,137
158,137,138
159,138,139
160,139,7
161,3,140
162,140,141
163,141,142
164,142,143
165,143,144
166,144,145
167,145,146
168,146,5
169,2,147
170,147,148
171,148,149
172,149,150
173,150,151
174,151,152
175,152,153
176,153,8
177,4,154
178,154,155
179,155,156
180,156,157
181,157,158
182,158,159
183,159,160
184,160,6
185,1,161
186,161,162
187,162,163
188,163,164
189,164,165
190,165,166
191,166,167
192,167,6
193,2,168
194,168,169
195,169,170
196,170,171
197,171,172
198,172,173
199,173,174
200,174,5
201,3,175
202,175,176
203,176,177
204,177,178
205,178,179
206,179,180
207,180,181
208,181,8
209,4,182
210,182,183
211,183,184
212,184,185
213,185,186
214,186,187
215,187,188
216,188,7
217,5,189
218,189,190
219,190,191
220,191,11
221,7,192
222,192,193
223,193,194
224,194,9
225,6,195
226,195,196
227,196,197
228,197,12
229,8,198
230,198,199
231,199,200
232,200,10
233,5,201
234,201,202
235,202,203
236,203,10
237,6,204
238,204,205
239,205,206
240,206,9
241,7,207
242,207,208
243,208,209
244,209,12
245,8,210
246,210,211
247,211,212
248,212,11
249,9,15
250,11,13
251,10,16
252,12,14
253,9,14
254,10,13
255,11,16
256,12,15
257,13,213
258,213,19
259,15,214
260,214,17
261,14,215
262,215,20
263,16,216
264,216,18
265,13,217
266,217,18
267,14,218
268,218,17
269,15,219
270,219,20
271,16,220
272,220,19
273,17,221
274,221,23
275,19,222
276,222,21
277,18,223
278,223,24
279,20,224
280,224,22
281,17,225
282,225,22
283,18,226
284,226,21
285,19,227
286,227,24
287,20,228
288,228,23
*NSET,NSET=NALL,GENERATE
1,228,1
*NSET,NSET=LEFT
1,2,3,4
*NSET,NSET=RIGHT
21,22,23,24
*MATERIAL,NAME=STEEL
*ELASTIC
2.100000000000e+11,0.300000000000
*BEAM SECTION,ELSET=ALL,MATERIAL=STEEL,SECTION=RECT
6.000000000000e-02,4.000000000000e-02
0.371390676354,0.557086014531,0.742781352708
*BOUNDARY
LEFT,1,6,0.0
*STEP
*STATIC
*BOUNDARY
21,1,1,5.000000000000e-03
21,2,2,0.0
21,3,3,-6.000000000000e-03
*BOUNDARY
22,1,1,5.000000000000e-03
22,2,2,0.0
22,3,3,6.000000000000e-03
*BOUNDARY
23,1,1,-5.000000000000e-03
23,2,2,0.0
23,3,3,-6.000000000000e-03
*BOUNDARY
24,1,1,-5.000000000000e-03
24,2,2,0.0
24,3,3,6.000000000000e-03
*NODE FILE,NSET=NALL
U
*NODE PRINT,NSET=NALL
U
*NODE PRINT,NSET=RIGHT
RF
*EL PRINT,ELSET=ALL,TOTALS=YES
ELSE
*END STEP
