*HEADING
Normalized cross-passage space-truss torsion benchmark
*NODE
1,-1.200000000000e+00,0.000000000000e+00,0.000000000000e+00
2,1.200000000000e+00,0.000000000000e+00,0.000000000000e+00
3,-1.200000000000e+00,0.000000000000e+00,2.000000000000e+00
4,1.200000000000e+00,0.000000000000e+00,2.000000000000e+00
5,-1.200000000000e+00,1.000000000000e+01,0.000000000000e+00
6,1.200000000000e+00,1.000000000000e+01,0.000000000000e+00
7,-1.200000000000e+00,1.000000000000e+01,2.000000000000e+00
8,1.200000000000e+00,1.000000000000e+01,2.000000000000e+00
9,-1.200000000000e+00,2.000000000000e+01,0.000000000000e+00
10,1.200000000000e+00,2.000000000000e+01,0.000000000000e+00
11,-1.200000000000e+00,2.000000000000e+01,2.000000000000e+00
12,1.200000000000e+00,2.000000000000e+01,2.000000000000e+00
13,-1.200000000000e+00,3.000000000000e+01,0.000000000000e+00
14,1.200000000000e+00,3.000000000000e+01,0.000000000000e+00
15,-1.200000000000e+00,3.000000000000e+01,2.000000000000e+00
16,1.200000000000e+00,3.000000000000e+01,2.000000000000e+00
17,-1.200000000000e+00,4.000000000000e+01,0.000000000000e+00
18,1.200000000000e+00,4.000000000000e+01,0.000000000000e+00
19,-1.200000000000e+00,4.000000000000e+01,2.000000000000e+00
20,1.200000000000e+00,4.000000000000e+01,2.000000000000e+00
21,-1.200000000000e+00,5.000000000000e+01,0.000000000000e+00
22,1.200000000000e+00,5.000000000000e+01,0.000000000000e+00
23,-1.200000000000e+00,5.000000000000e+01,2.000000000000e+00
24,1.200000000000e+00,5.000000000000e+01,2.000000000000e+00
25,-1.200000000000e+00,5.000000000000e+00,-1.500000000000e-01
26,1.200000000000e+00,5.000000000000e+00,1.500000000000e-01
27,-1.200000000000e+00,5.000000000000e+00,1.850000000000e+00
28,1.200000000000e+00,5.000000000000e+00,2.150000000000e+00
29,-1.200000000000e+00,4.250000000000e+01,-1.060660171780e-01
30,-1.200000000000e+00,4.500000000000e+01,-1.500000000000e-01
31,-1.200000000000e+00,4.750000000000e+01,-1.060660171780e-01
32,1.200000000000e+00,4.250000000000e+01,1.060660171780e-01
33,1.200000000000e+00,4.500000000000e+01,1.500000000000e-01
34,1.200000000000e+00,4.750000000000e+01,1.060660171780e-01
35,-1.200000000000e+00,4.250000000000e+01,1.893933982822e+00
36,-1.200000000000e+00,4.500000000000e+01,1.850000000000e+00
37,-1.200000000000e+00,4.750000000000e+01,1.893933982822e+00
38,1.200000000000e+00,4.250000000000e+01,2.106066017178e+00
39,1.200000000000e+00,4.500000000000e+01,2.150000000000e+00
40,1.200000000000e+00,4.750000000000e+01,2.106066017178e+00
41,-6.000000000000e-01,-2.545584412272e-02,0.000000000000e+00
42,0.000000000000e+00,-3.600000000000e-02,0.000000000000e+00
43,6.000000000000e-01,-2.545584412272e-02,0.000000000000e+00
44,-6.000000000000e-01,2.545584412272e-02,2.000000000000e+00
45,0.000000000000e+00,3.600000000000e-02,2.000000000000e+00
46,6.000000000000e-01,2.545584412272e-02,2.000000000000e+00
47,-1.200000000000e+00,2.121320343560e-02,5.000000000000e-01
48,-1.200000000000e+00,3.000000000000e-02,1.000000000000e+00
49,-1.200000000000e+00,2.121320343560e-02,1.500000000000e+00
50,1.200000000000e+00,-2.121320343560e-02,5.000000000000e-01
51,1.200000000000e+00,-3.000000000000e-02,1.000000000000e+00
52,1.200000000000e+00,-2.121320343560e-02,1.500000000000e+00
53,0.000000000000e+00,9.964000000000e+00,0.000000000000e+00
54,0.000000000000e+00,1.003600000000e+01,2.000000000000e+00
55,-1.200000000000e+00,1.003000000000e+01,1.000000000000e+00
56,1.200000000000e+00,9.970000000000e+00,1.000000000000e+00
57,-6.000000000000e-01,3.997454415588e+01,0.000000000000e+00
58,0.000000000000e+00,3.996400000000e+01,0.000000000000e+00
59,6.000000000000e-01,3.997454415588e+01,0.000000000000e+00
60,-6.000000000000e-01,4.002545584412e+01,2.000000000000e+00
61,0.000000000000e+00,4.003600000000e+01,2.000000000000e+00
62,6.000000000000e-01,4.002545584412e+01,2.000000000000e+00
63,-1.200000000000e+00,4.002121320344e+01,5.000000000000e-01
64,-1.200000000000e+00,4.003000000000e+01,1.000000000000e+00
65,-1.200000000000e+00,4.002121320344e+01,1.500000000000e+00
66,1.200000000000e+00,3.997878679656e+01,5.000000000000e-01
67,1.200000000000e+00,3.997000000000e+01,1.000000000000e+00
68,1.200000000000e+00,3.997878679656e+01,1.500000000000e+00
69,-6.000000000000e-01,4.997454415588e+01,0.000000000000e+00
70,0.000000000000e+00,4.996400000000e+01,0.000000000000e+00
71,6.000000000000e-01,4.997454415588e+01,0.000000000000e+00
72,-6.000000000000e-01,5.002545584412e+01,2.000000000000e+00
73,0.000000000000e+00,5.003600000000e+01,2.000000000000e+00
74,6.000000000000e-01,5.002545584412e+01,2.000000000000e+00
75,-1.200000000000e+00,5.002121320344e+01,5.000000000000e-01
76,-1.200000000000e+00,5.003000000000e+01,1.000000000000e+00
77,-1.200000000000e+00,5.002121320344e+01,1.500000000000e+00
78,1.200000000000e+00,4.997878679656e+01,5.000000000000e-01
79,1.200000000000e+00,4.997000000000e+01,1.000000000000e+00
80,1.200000000000e+00,4.997878679656e+01,1.500000000000e+00
81,-1.200000000000e+00,1.261480502971e+00,1.925974851452e-01
82,-1.200000000000e+00,2.521213203436e+00,3.939339828220e-01
83,-1.200000000000e+00,3.777716385975e+00,6.114180701233e-01
84,-1.200000000000e+00,5.030000000000e+00,8.500000000000e-01
85,-1.200000000000e+00,6.277716385975e+00,1.111418070123e+00
86,-1.200000000000e+00,7.521213203436e+00,1.393933982822e+00
87,-1.200000000000e+00,8.761480502971e+00,1.692597485145e+00
88,-1.200000000000e+00,1.261480502971e+00,1.807402514855e+00
89,-1.200000000000e+00,2.521213203436e+00,1.606066017178e+00
90,-1.200000000000e+00,3.777716385975e+00,1.388581929877e+00
91,-1.200000000000e+00,5.030000000000e+00,1.150000000000e+00
92,-1.200000000000e+00,6.277716385975e+00,8.885819298767e-01
93,-1.200000000000e+00,7.521213203436e+00,6.060660171780e-01
94,-1.200000000000e+00,8.761480502971e+00,3.074025148548e-01
95,1.200000000000e+00,1.261480502971e+00,1.925974851452e-01
96,1.200000000000e+00,2.521213203436e+00,3.939339828220e-01
97,1.200000000000e+00,3.777716385975e+00,6.114180701233e-01
98,1.200000000000e+00,5.030000000000e+00,8.500000000000e-01
99,1.200000000000e+00,6.277716385975e+00,1.111418070123e+00
100,1.200000000000e+00,7.521213203436e+00,1.393933982822e+00
101,1.200000000000e+00,8.761480502971e+00,1.692597485145e+00
102,1.200000000000e+00,1.261480502971e+00,1.807402514855e+00
103,1.200000000000e+00,2.521213203436e+00,1.606066017178e+00
104,1.200000000000e+00,3.777716385975e+00,1.388581929877e+00
105,1.200000000000e+00,5.030000000000e+00,1.150000000000e+00
106,1.200000000000e+00,6.277716385975e+00,8.885819298767e-01
107,1.200000000000e+00,7.521213203436e+00,6.060660171780e-01
108,1.200000000000e+00,8.761480502971e+00,3.074025148548e-01
109,-8.425974851452e-01,1.236223396435e+00,0.000000000000e+00
110,-4.939339828220e-01,2.474544155877e+00,0.000000000000e+00
111,-1.614180701233e-01,3.716740336830e+00,0.000000000000e+00
112,1.500000000000e-01,4.964000000000e+00,0.000000000000e+00
113,4.385819298767e-01,6.216740336830e+00,0.000000000000e+00
114,7.060660171780e-01,7.474544155877e+00,0.000000000000e+00
115,9.574025148548e-01,8.736223396435e+00,0.000000000000e+00
116,8.425974851452e-01,1.236223396435e+00,0.000000000000e+00
117,4.939339828220e-01,2.474544155877e+00,0.000000000000e+00
118,1.614180701233e-01,3.716740336830e+00,0.000000000000e+00
119,-1.500000000000e-01,4.964000000000e+00,0.000000000000e+00
120,-4.385819298767e-01,6.216740336830e+00,0.000000000000e+00
121,-7.060660171780e-01,7.474544155877e+00,0.000000000000e+00
122,-9.574025148548e-01,8.736223396435e+00,0.000000000000e+00
123,-8.425974851452e-01,1.236223396435e+00,2.000000000000e+00
124,-4.939339828220e-01,2.474544155877e+00,2.000000000000e+00
125,-1.614180701233e-01,3.716740336830e+00,2.000000000000e+00
126,1.500000000000e-01,4.964000000000e+00,2.000000000000e+00
127,4.385819298767e-01,6.216740336830e+00,2.000000000000e+00
128,7.060660171780e-01,7.474544155877e+00,2.000000000000e+00
129,9.574025148548e-01,8.736223396435e+00,2.000000000000e+00
130,8.425974851452e-01,1.236223396435e+00,2.000000000000e+00
131,4.939339828220e-01,2.474544155877e+00,2.000000000000e+00
132,1.614180701233e-01,3.716740336830e+00,2.000000000000e+00
133,-1.500000000000e-01,4.964000000000e+00,2.000000000000e+00
134,-4.385819298767e-01,6.216740336830e+00,2.000000000000e+00
135,-7.060660171780e-01,7.474544155877e+00,2.000000000000e+00
136,-9.574025148548e-01,8.736223396435e+00,2.000000000000e+00
137,-1.200000000000e+00,1.252121320344e+01,3.939339828220e-01
138,-1.200000000000e+00,1.503000000000e+01,8.500000000000e-01
139,-1.200000000000e+00,1.752121320344e+01,1.393933982822e+00
140,-1.200000000000e+00,1.252121320344e+01,1.606066017178e+00
141,-1.200000000000e+00,1.503000000000e+01,1.150000000000e+00
142,-1.200000000000e+00,1.752121320344e+01,6.060660171780e-01
143,1.200000000000e+00,1.252121320344e+01,3.939339828220e-01
144,1.200000000000e+00,1.503000000000e+01,8.500000000000e-01
145,1.200000000000e+00,1.752121320344e+01,1.393933982822e+00
146,1.200000000000e+00,1.252121320344e+01,1.606066017178e+00
147,1.200000000000e+00,1.503000000000e+01,1.150000000000e+00
148,1.200000000000e+00,1.752121320344e+01,6.060660171780e-01
149,-4.939339828220e-01,1.247454415588e+01,0.000000000000e+00
150,1.500000000000e-01,1.496400000000e+01,0.000000000000e+00
151,7.060660171780e-01,1.747454415588e+01,0.000000000000e+00
152,4.939339828220e-01,1.247454415588e+01,0.000000000000e+00
153,-1.500000000000e-01,1.496400000000e+01,0.000000000000e+00
154,-7.060660171780e-01,1.747454415588e+01,0.000000000000e+00
155,-4.939339828220e-01,1.247454415588e+01,2.000000000000e+00
156,1.500000000000e-01,1.496400000000e+01,2.000000000000e+00
157,7.060660171780e-01,1.747454415588e+01,2.000000000000e+00
158,4.939339828220e-01,1.247454415588e+01,2.000000000000e+00
159,-1.500000000000e-01,1.496400000000e+01,2.000000000000e+00
160,-7.060660171780e-01,1.747454415588e+01,2.000000000000e+00
161,-1.200000000000e+00,3.126148050297e+01,1.925974851452e-01
162,-1.200000000000e+00,3.252121320344e+01,3.939339828220e-01
163,-1.200000000000e+00,3.377771638598e+01,6.114180701233e-01
164,-1.200000000000e+00,3.503000000000e+01,8.500000000000e-01
165,-1.200000000000e+00,3.627771638598e+01,1.111418070123e+00
166,-1.200000000000e+00,3.752121320344e+01,1.393933982822e+00
167,-1.200000000000e+00,3.876148050297e+01,1.692597485145e+00
168,-1.200000000000e+00,3.126148050297e+01,1.807402514855e+00
169,-1.200000000000e+00,3.252121320344e+01,1.606066017178e+00
170,-1.200000000000e+00,3.377771638598e+01,1.388581929877e+00
171,-1.200000000000e+00,3.503000000000e+01,1.150000000000e+00
172,-1.200000000000e+00,3.627771638598e+01,8.885819298767e-01
173,-1.200000000000e+00,3.752121320344e+01,6.060660171780e-01
174,-1.200000000000e+00,3.876148050297e+01,3.074025148548e-01
175,1.200000000000e+00,3.126148050297e+01,1.925974851452e-01
176,1.200000000000e+00,3.252121320344e+01,3.939339828220e-01
177,1.200000000000e+00,3.377771638598e+01,6.114180701233e-01
178,1.200000000000e+00,3.503000000000e+01,8.500000000000e-01
179,1.200000000000e+00,3.627771638598e+01,1.111418070123e+00
180,1.200000000000e+00,3.752121320344e+01,1.393933982822e+00
181,1.200000000000e+00,3.876148050297e+01,1.692597485145e+00
182,1.200000000000e+00,3.126148050297e+01,1.807402514855e+00
183,1.200000000000e+00,3.252121320344e+01,1.606066017178e+00
184,1.200000000000e+00,3.377771638598e+01,1.388581929877e+00
185,1.200000000000e+00,3.503000000000e+01,1.150000000000e+00
186,1.200000000000e+00,3.627771638598e+01,8.885819298767e-01
187,1.200000000000e+00,3.752121320344e+01,6.060660171780e-01
188,1.200000000000e+00,3.876148050297e+01,3.074025148548e-01
189,-8.425974851452e-01,3.123622339643e+01,0.000000000000e+00
190,-4.939339828220e-01,3.247454415588e+01,0.000000000000e+00
191,-1.614180701233e-01,3.371674033683e+01,0.000000000000e+00
192,1.500000000000e-01,3.496400000000e+01,0.000000000000e+00
193,4.385819298767e-01,3.621674033683e+01,0.000000000000e+00
194,7.060660171780e-01,3.747454415588e+01,0.000000000000e+00
195,9.574025148548e-01,3.873622339643e+01,0.000000000000e+00
196,8.425974851452e-01,3.123622339643e+01,0.000000000000e+00
197,4.939339828220e-01,3.247454415588e+01,0.000000000000e+00
198,1.614180701233e-01,3.371674033683e+01,0.000000000000e+00
199,-1.500000000000e-01,3.496400000000e+01,0.000000000000e+00
200,-4.385819298767e-01,3.621674033683e+01,0.000000000000e+00
201,-7.060660171780e-01,3.747454415588e+01,0.000000000000e+00
202,-9.574025148548e-01,3.873622339643e+01,0.000000000000e+00
203,-8.425974851452e-01,3.123622339643e+01,2.000000000000e+00
204,-4.939339828220e-01,3.247454415588e+01,2.000000000000e+00
205,-1.614180701233e-01,3.371674033683e+01,2.000000000000e+00
206,1.500000000000e-01,3.496400000000e+01,2.000000000000e+00
207,4.385819298767e-01,3.621674033683e+01,2.000000000000e+00
208,7.060660171780e-01,3.747454415588e+01,2.000000000000e+00
209,9.574025148548e-01,3.873622339643e+01,2.000000000000e+00
210,8.425974851452e-01,3.123622339643e+01,2.000000000000e+00
211,4.939339828220e-01,3.247454415588e+01,2.000000000000e+00
212,1.614180701233e-01,3.371674033683e+01,2.000000000000e+00
213,-1.500000000000e-01,3.496400000000e+01,2.000000000000e+00
214,-4.385819298767e-01,3.621674033683e+01,2.000000000000e+00
215,-7.060660171780e-01,3.747454415588e+01,2.000000000000e+00
216,-9.574025148548e-01,3.873622339643e+01,2.000000000000e+00
217,-1.200000000000e+00,4.126148050297e+01,1.925974851452e-01
218,-1.200000000000e+00,4.252121320344e+01,3.939339828220e-01
219,-1.200000000000e+00,4.377771638598e+01,6.114180701233e-01
220,-1.200000000000e+00,4.503000000000e+01,8.500000000000e-01
221,-1.200000000000e+00,4.627771638598e+01,1.111418070123e+00
222,-1.200000000000e+00,4.752121320344e+01,1.393933982822e+00
223,-1.200000000000e+00,4.876148050297e+01,1.692597485145e+00
224,-1.200000000000e+00,4.126148050297e+01,1.807402514855e+00
225,-1.200000000000e+00,4.252121320344e+01,1.606066017178e+00
226,-1.200000000000e+00,4.377771638598e+01,1.388581929877e+00
227,-1.200000000000e+00,4.503000000000e+01,1.150000000000e+00
228,-1.200000000000e+00,4.627771638598e+01,8.885819298767e-01
229,-1.200000000000e+00,4.752121320344e+01,6.060660171780e-01
230,-1.200000000000e+00,4.876148050297e+01,3.074025148548e-01
231,1.200000000000e+00,4.126148050297e+01,1.925974851452e-01
232,1.200000000000e+00,4.252121320344e+01,3.939339828220e-01
233,1.200000000000e+00,4.377771638598e+01,6.114180701233e-01
234,1.200000000000e+00,4.503000000000e+01,8.500000000000e-01
235,1.200000000000e+00,4.627771638598e+01,1.111418070123e+00
236,1.200000000000e+00,4.752121320344e+01,1.393933982822e+00
237,1.200000000000e+00,4.876148050297e+01,1.692597485145e+00
238,1.200000000000e+00,4.126148050297e+01,1.807402514855e+00
239,1.200000000000e+00,4.252121320344e+01,1.606066017178e+00
240,1.200000000000e+00,4.377771638598e+01,1.388581929877e+00
241,1.200000000000e+00,4.503000000000e+01,1.150000000000e+00
242,1.200000000000e+00,4.627771638598e+01,8.885819298767e-01
243,1.200000000000e+00,4.752121320344e+01,6.060660171780e-01
244,1.200000000000e+00,4.876148050297e+01,3.074025148548e-01
245,-8.425974851452e-01,4.123622339643e+01,0.000000000000e+00
246,-4.939339828220e-01,4.247454415588e+01,0.000000000000e+00
247,-1.614180701233e-01,4.371674033683e+01,0.000000000000e+00
248,1.500000000000e-01,4.496400000000e+01,0.000000000000e+00
249,4.385819298767e-01,4.621674033683e+01,0.000000000000e+00
250,7.060660171780e-01,4.747454415588e+01,0.000000000000e+00
251,9.574025148548e-01,4.873622339643e+01,0.000000000000e+00
252,8.425974851452e-01,4.123622339643e+01,0.000000000000e+00
253,4.939339828220e-01,4.247454415588e+01,0.000000000000e+00
254,1.614180701233e-01,4.371674033683e+01,0.000000000000e+00
255,-1.500000000000e-01,4.496400000000e+01,0.000000000000e+00
256,-4.385819298767e-01,4.621674033683e+01,0.000000000000e+00
257,-7.060660171780e-01,4.747454415588e+01,0.000000000000e+00
258,-9.574025148548e-01,4.873622339643e+01,0.000000000000e+00
259,-8.425974851452e-01,4.123622339643e+01,2.000000000000e+00
260,-4.939339828220e-01,4.247454415588e+01,2.000000000000e+00
261,-1.614180701233e-01,4.371674033683e+01,2.000000000000e+00
262,1.500000000000e-01,4.496400000000e+01,2.000000000000e+00
263,4.385819298767e-01,4.621674033683e+01,2.000000000000e+00
264,7.060660171780e-01,4.747454415588e+01,2.000000000000e+00
265,9.574025148548e-01,4.873622339643e+01,2.000000000000e+00
266,8.425974851452e-01,4.123622339643e+01,2.000000000000e+00
267,4.939339828220e-01,4.247454415588e+01,2.000000000000e+00
268,1.614180701233e-01,4.371674033683e+01,2.000000000000e+00
269,-1.500000000000e-01,4.496400000000e+01,2.000000000000e+00
270,-4.385819298767e-01,4.621674033683e+01,2.000000000000e+00
271,-7.060660171780e-01,4.747454415588e+01,2.000000000000e+00
272,-9.574025148548e-01,4.873622339643e+01,2.000000000000e+00
*ELEMENT,TYPE=B31,ELSET=ALL
1,1,25
2,25,5
3,2,26
4,26,6
5,3,27
6,27,7
7,4,28
8,28,8
9,5,9
10,6,10
11,7,11
12,8,12
13,9,13
14,10,14
15,11,15
16,12,16
17,13,17
18,14,18
19,15,19
20,16,20
21,17,29
22,29,30
23,30,31
24,31,21
25,18,32
26,32,33
27,33,34
28,34,22
29,19,35
30,35,36
31,36,37
32,37,23
33,20,38
34,38,39
35,39,40
36,40,24
37,1,41
38,41,42
39,42,43
40,43,2
41,3,44
42,44,45
43,45,46
44,46,4
45,1,47
46,47,48
47,48,49
48,49,3
49,2,50
50,50,51
51,51,52
52,52,4
53,5,53
54,53,6
55,7,54
56,54,8
57,5,55
58,55,7
59,6,56
60,56,8
61,9,10
62,11,12
63,9,11
64,10,12
65,13,14
66,15,16
67,13,15
68,14,16
69,17,57
70,57,58
71,58,59
72,59,18
73,19,60
74,60,61
75,61,62
76,62,20
77,17,63
78,63,64
79,64,65
80,65,19
81,18,66
82,66,67
83,67,68
84,68,20
85,21,69
86,69,70
87,70,71
88,71,22
89,23,72
90,72,73
91,73,74
92,74,24
93,21,75
94,75,76
95,76,77
96,77,23
97,22,78
98,78,79
99,79,80
100,80,24
101,1,81
102,81,82
103,82,83
104,83,84
105,84,85
106,85,86
107,86,87
108,87,7
109,3,88
110,88,89
111,89,90
112,90,91
113,91,92
114,92,93
115,93,94
116,94,5
117,2,95
118,95,96
119,96,97
120,97,98
121,98,99
122,99,100
123,100,101
124,101,8
125,4,102
126,102,103
127,103,104
128,104,105
129,105,106
130,106,107
131,107,108
132,108,6
133,1,109
134,109,110
135,110,111
136,111,112
137,112,113
138,113,114
139,114,115
140,115,6
141,2,116
142,116,117
143,117,118
144,118,119
145,119,120
146,120,121
147,121,122
148,122,5
149,3,123
150,123,124
151,124,125
152,125,126
153,126,127
154,127,128
155,128,129
156,129,8
157,4,130
158,130,131
159,131,132
160,132,133
161,133,134
162,134,135
163,135,136
164,136,7
165,5,137
166,137,138
167,138,139
168,139,11
169,7,140
170,140,141
171,141,142
172,142,9
173,6,143
174,143,144
175,144,145
176,145,12
177,8,146
178,146,147
179,147,148
180,148,10
181,5,149
182,149,150
183,150,151
184,151,10
185,6,152
186,152,153
187,153,154
188,154,9
189,7,155
190,155,156
191,156,157
192,157,12
193,8,158
194,158,159
195,159,160
196,160,11
197,9,15
198,11,13
199,10,16
200,12,14
201,9,14
202,10,13
203,11,16
204,12,15
205,13,161
206,161,162
207,162,163
208,163,164
209,164,165
210,165,166
211,166,167
212,167,19
213,15,168
214,168,169
215,169,170
216,170,171
217,171,172
218,172,173
219,173,174
220,174,17
221,14,175
222,175,176
223,176,177
224,177,178
225,178,179
226,179,180
227,180,181
228,181,20
229,16,182
230,182,183
231,183,184
232,184,185
233,185,186
234,186,187
235,187,188
236,188,18
237,13,189
238,189,190
239,190,191
240,191,192
241,192,193
242,193,194
243,194,195
244,195,18
245,14,196
246,196,197
247,197,198
248,198,199
249,199,200
250,200,201
251,201,202
252,202,17
253,15,203
254,203,204
255,204,205
256,205,206
257,206,207
258,207,208
259,208,209
260,209,20
261,16,210
262,210,211
263,211,212
264,212,213
265,213,214
266,214,215
267,215,216
268,216,19
269,17,217
270,217,218
271,218,219
272,219,220
273,220,221
274,221,222
275,222,223
276,223,23
277,19,224
278,224,225
279,225,226
280,226,227
281,227,228
282,228,229
283,229,230
284,230,21
285,18,231
286,231,232
287,232,233
288,233,234
289,234,235
290,235,236
291,236,237
292,237,24
293,20,238
294,238,239
295,239,240
296,240,241
297,241,242
298,242,243
299,243,244
300,244,22
301,17,245
302,245,246
303,246,247
304,247,248
305,248,249
306,249,250
307,250,251
308,251,22
309,18,252
310,252,253
311,253,254
312,254,255
313,255,256
314,256,257
315,257,258
316,258,21
317,19,259
318,259,260
319,260,261
320,261,262
321,262,263
322,263,264
323,264,265
324,265,24
325,20,266
326,266,267
327,267,268
328,268,269
329,269,270
330,270,271
331,271,272
332,272,23
*NSET,NSET=NALL,GENERATE
1,272,1
*NSET,NSET=LEFT
1,2,3,4
*NSET,NSET=RIGHT
21,22,23,24
*MATERIAL,NAME=STEEL
*ELASTIC
2.100000000000e+11,0.300000000000
*BEAM SECTION,ELSET=ALL,MATERIAL=STEEL,SECTION=RECT
6.000000000000e-02,4.000000000000e-02
0.371390676354,0.557086014531,0.742781352708
*BOUNDARY
LEFT,1,6,0.0
*STEP
*STATIC
*BOUNDARY
21,1,1,5.000000000000e-03
21,2,2,0.0
21,3,3,-6.000000000000e-03
*BOUNDARY
22,1,1,5.000000000000e-03
22,2,2,0.0
22,3,3,6.000000000000e-03
*BOUNDARY
23,1,1,-5.000000000000e-03
23,2,2,0.0
23,3,3,-6.000000000000e-03
*BOUNDARY
24,1,1,-5.000000000000e-03
24,2,2,0.0
24,3,3,6.000000000000e-03
*NODE FILE,NSET=NALL
U
*NODE PRINT,NSET=NALL
U
*NODE PRINT,NSET=RIGHT
RF
*EL PRINT,ELSET=ALL,TOTALS=YES
ELSE
*END STEP
