*HEADING
Normalized cross-passage space-truss torsion benchmark
*NODE
1,-1.200000000000e+00,0.000000000000e+00,0.000000000000e+00
2,1.200000000000e+00,0.000000000000e+00,0.000000000000e+00
3,-1.200000000000e+00,0.000000000000e+00,2.000000000000e+00
4,1.200000000000e+00,0.000000000000e+00,2.000000000000e+00
5,-1.200000000000e+00,1.000000000000e+01,0.000000000000e+00
6,1.200000000000e+00,1.000000000000e+01,0.000000000000e+00
7,-1.200000000000e+00,1.000000000000e+01,2.000000000000e+00
8,1.200000000000e+00,1.000000000000e+01,2.000000000000e+00
9,-1.200000000000e+00,2.000000000000e+01,0.000000000000e+00
10,1.200000000000e+00,2.000000000000e+01,0.000000000000e+00
11,-1.200000000000e+00,2.000000000000e+01,2.000000000000e+00
12,1.200000000000e+00,2.000000000000e+01,2.000000000000e+00
13,-1.200000000000e+00,3.000000000000e+01,0.000000000000e+00
14,1.200000000000e+00,3.000000000000e+01,0.000000000000e+00
15,-1.200000000000e+00,3.000000000000e+01,2.000000000000e+00
16,1.200000000000e+00,3.000000000000e+01,2.000000000000e+00
17,-1.200000000000e+00,4.000000000000e+01,0.000000000000e+00
18,1.200000000000e+00,4.000000000000e+01,0.000000000000e+00
19,-1.200000000000e+00,4.000000000000e+01,2.000000000000e+00
20,1.200000000000e+00,4.000000000000e+01,2.000000000000e+00
21,-1.200000000000e+00,5.000000000000e+01,0.000000000000e+00
22,1.200000000000e+00,5.000000000000e+01,0.000000000000e+00
23,-1.200000000000e+00,5.000000000000e+01,2.000000000000e+00
24,1.200000000000e+00,5.000000000000e+01,2.000000000000e+00
25,-1.200000000000e+00,5.000000000000e+00,-1.500000000000e-01
26,1.200000000000e+00,5.000000000000e+00,1.500000000000e-01
27,-1.200000000000e+00,5.000000000000e+00,1.850000000000e+00
28,1.200000000000e+00,5.000000000000e+00,2.150000000000e+00
29,-1.200000000000e+00,1.500000000000e+01,-1.500000000000e-01
30,1.200000000000e+00,1.500000000000e+01,1.500000000000e-01
31,-1.200000000000e+00,1.500000000000e+01,1.850000000000e+00
32,1.200000000000e+00,1.500000000000e+01,2.150000000000e+00
33,0.000000000000e+00,-3.600000000000e-02,0.000000000000e+00
34,0.000000000000e+00,3.600000000000e-02,2.000000000000e+00
35,-1.200000000000e+00,3.000000000000e-02,1.000000000000e+00
36,1.200000000000e+00,-3.000000000000e-02,1.000000000000e+00
37,0.000000000000e+00,9.964000000000e+00,0.000000000000e+00
38,0.000000000000e+00,1.003600000000e+01,2.000000000000e+00
39,-1.200000000000e+00,1.003000000000e+01,1.000000000000e+00
40,1.200000000000e+00,9.970000000000e+00,1.000000000000e+00
41,0.000000000000e+00,1.996400000000e+01,0.000000000000e+00
42,0.000000000000e+00,2.003600000000e+01,2.000000000000e+00
43,-1.200000000000e+00,2.003000000000e+01,1.000000000000e+00
44,1.200000000000e+00,1.997000000000e+01,1.000000000000e+00
45,0.000000000000e+00,2.996400000000e+01,0.000000000000e+00
46,0.000000000000e+00,3.003600000000e+01,2.000000000000e+00
47,-1.200000000000e+00,3.003000000000e+01,1.000000000000e+00
48,1.200000000000e+00,2.997000000000e+01,1.000000000000e+00
49,0.000000000000e+00,3.996400000000e+01,0.000000000000e+00
50,0.000000000000e+00,4.003600000000e+01,2.000000000000e+00
51,-1.200000000000e+00,4.003000000000e+01,1.000000000000e+00
52,1.200000000000e+00,3.997000000000e+01,1.000000000000e+00
53,0.000000000000e+00,4.996400000000e+01,0.000000000000e+00
54,0.000000000000e+00,5.003600000000e+01,2.000000000000e+00
55,-1.200000000000e+00,5.003000000000e+01,1.000000000000e+00
56,1.200000000000e+00,4.997000000000e+01,1.000000000000e+00
57,-1.200000000000e+00,1.503000000000e+01,8.500000000000e-01
58,-1.200000000000e+00,1.503000000000e+01,1.150000000000e+00
59,1.200000000000e+00,1.503000000000e+01,8.500000000000e-01
60,1.200000000000e+00,1.503000000000e+01,1.150000000000e+00
61,1.500000000000e-01,1.496400000000e+01,0.000000000000e+00
62,-1.500000000000e-01,1.496400000000e+01,0.000000000000e+00
63,1.500000000000e-01,1.496400000000e+01,2.000000000000e+00
64,-1.500000000000e-01,1.496400000000e+01,2.000000000000e+00
65,-1.200000000000e+00,2.252121320344e+01,3.939339828220e-01
66,-1.200000000000e+00,2.503000000000e+01,8.500000000000e-01
67,-1.200000000000e+00,2.752121320344e+01,1.393933982822e+00
68,-1.200000000000e+00,2.252121320344e+01,1.606066017178e+00
69,-1.200000000000e+00,2.503000000000e+01,1.150000000000e+00
70,-1.200000000000e+00,2.752121320344e+01,6.060660171780e-01
71,1.200000000000e+00,2.252121320344e+01,3.939339828220e-01
72,1.200000000000e+00,2.503000000000e+01,8.500000000000e-01
73,1.200000000000e+00,2.752121320344e+01,1.393933982822e+00
74,1.200000000000e+00,2.252121320344e+01,1.606066017178e+00
75,1.200000000000e+00,2.503000000000e+01,1.150000000000e+00
76,1.200000000000e+00,2.752121320344e+01,6.060660171780e-01
77,-4.939339828220e-01,2.247454415588e+01,0.000000000000e+00
78,1.500000000000e-01,2.496400000000e+01,0.000000000000e+00
79,7.060660171780e-01,2.747454415588e+01,0.000000000000e+00
80,4.939339828220e-01,2.247454415588e+01,0.000000000000e+00
81,-1.500000000000e-01,2.496400000000e+01,0.000000000000e+00
82,-7.060660171780e-01,2.747454415588e+01,0.000000000000e+00
83,-4.939339828220e-01,2.247454415588e+01,2.000000000000e+00
84,1.500000000000e-01,2.496400000000e+01,2.000000000000e+00
85,7.060660171780e-01,2.747454415588e+01,2.000000000000e+00
86,4.939339828220e-01,2.247454415588e+01,2.000000000000e+00
87,-1.500000000000e-01,2.496400000000e+01,2.000000000000e+00
88,-7.060660171780e-01,2.747454415588e+01,2.000000000000e+00
89,-1.200000000000e+00,3.252121320344e+01,3.939339828220e-01
90,-1.200000000000e+00,3.503000000000e+01,8.500000000000e-01
91,-1.200000000000e+00,3.752121320344e+01,1.393933982822e+00
92,-1.200000000000e+00,3.252121320344e+01,1.606066017178e+00
93,-1.200000000000e+00,3.503000000000e+01,1.150000000000e+00
94,-1.200000000000e+00,3.752121320344e+01,6.060660171780e-01
95,1.200000000000e+00,3.252121320344e+01,3.939339828220e-01
96,1.200000000000e+00,3.503000000000e+01,8.500000000000e-01
97,1.200000000000e+00,3.752121320344e+01,1.393933982822e+00
98,1.200000000000e+00,3.252121320344e+01,1.606066017178e+00
99,1.200000000000e+00,3.503000000000e+01,1.150000000000e+00
100,1.200000000000e+00,3.752121320344e+01,6.060660171780e-01
101,-4.939339828220e-01,3.247454415588e+01,0.000000000000e+00
102,1.500000000000e-01,3.496400000000e+01,0.000000000000e+00
103,7.060660171780e-01,3.747454415588e+01,0.000000000000e+00
104,4.939339828220e-01,3.247454415588e+01,0.000000000000e+00
105,-1.500000000000e-01,3.496400000000e+01,0.000000000000e+00
106,-7.060660171780e-01,3.747454415588e+01,0.000000000000e+00
107,-4.939339828220e-01,3.247454415588e+01,2.000000000000e+00
108,1.500000000000e-01,3.496400000000e+01,2.000000000000e+00
109,7.060660171780e-01,3.747454415588e+01,2.000000000000e+00
110,4.939339828220e-01,3.247454415588e+01,2.000000000000e+00
111,-1.500000000000e-01,3.496400000000e+01,2.000000000000e+00
112,-7.060660171780e-01,3.747454415588e+01,2.000000000000e+00
113,-1.200000000000e+00,4.252121320344e+01,3.939339828220e-01
114,-1.200000000000e+00,4.503000000000e+01,8.500000000000e-01
115,-1.200000000000e+00,4.752121320344e+01,1.393933982822e+00
116,-1.200000000000e+00,4.252121320344e+01,1.606066017178e+00
117,-1.200000000000e+00,4.503000000000e+01,1.150000000000e+00
118,-1.200000000000e+00,4.752121320344e+01,6.060660171780e-01
119,1.200000000000e+00,4.252121320344e+01,3.939339828220e-01
120,1.200000000000e+00,4.503000000000e+01,8.500000000000e-01
121,1.200000000000e+00,4.752121320344e+01,1.393933982822e+00
122,1.200000000000e+00,4.252121320344e+01,1.606066017178e+00
123,1.200000000000e+00,4.503000000000e+01,1.150000000000e+00
124,1.200000000000e+00,4.752121320344e+01,6.060660171780e-01
125,-4.939339828220e-01,4.247454415588e+01,0.000000000000e+00
126,1.500000000000e-01,4.496400000000e+01,0.000000000000e+00
127,7.060660171780e-01,4.747454415588e+01,0.000000000000e+00
128,4.939339828220e-01,4.247454415588e+01,0.000000000000e+00
129,-1.500000000000e-01,4.496400000000e+01,0.000000000000e+00
130,-7.060660171780e-01,4.747454415588e+01,0.000000000000e+00
131,-4.939339828220e-01,4.247454415588e+01,2.000000000000e+00
132,1.500000000000e-01,4.496400000000e+01,2.000000000000e+00
133,7.060660171780e-01,4.747454415588e+01,2.000000000000e+00
134,4.939339828220e-01,4.247454415588e+01,2.000000000000e+00
135,-1.500000000000e-01,4.496400000000e+01,2.000000000000e+00
136,-7.060660171780e-01,4.747454415588e+01,2.000000000000e+00
*ELEMENT,TYPE=B31,ELSET=ALL
1,1,25
2,25,5
3,2,26
4,26,6
5,3,27
6,27,7
7,4,28
8,28,8
9,5,29
10,29,9
11,6,30
12,30,10
13,7,31
14,31,11
15,8,32
16,32,12
17,9,13
18,10,14
19,11,15
20,12,16
21,13,17
22,14,18
23,15,19
24,16,20
25,17,21
26,18,22
27,19,23
28,20,24
29,1,33
30,33,2
31,3,34
32,34,4
33,1,35
34,35,3
35,2,36
36,36,4
37,5,37
38,37,6
39,7,38
40,38,8
41,5,39
42,39,7
43,6,40
44,40,8
45,9,41
46,41,10
47,11,42
48,42,12
49,9,43
50,43,11
51,10,44
52,44,12
53,13,45
54,45,14
55,15,46
56,46,16
57,13,47
58,47,15
59,14,48
60,48,16
61,17,49
62,49,18
63,19,50
64,50,20
65,17,51
66,51,19
67,18,52
68,52,20
69,21,53
70,53,22
71,23,54
72,54,24
73,21,55
74,55,23
75,22,56
76,56,24
77,1,7
78,3,5
79,2,8
80,4,6
81,1,6
82,2,5
83,3,8
84,4,7
85,5,57
86,57,11
87,7,58
88,58,9
89,6,59
90,59,12
91,8,60
92,60,10
93,5,61
94,61,10
95,6,62
96,62,9
97,7,63
98,63,12
99,8,64
100,64,11
101,9,65
102,65,66
103,66,67
104,67,15
105,11,68
106,68,69
107,69,70
108,70,13
109,10,71
110,71,72
111,72,73
112,73,16
113,12,74
114,74,75
115,75,76
116,76,14
117,9,77
118,77,78
119,78,79
120,79,14
121,10,80
122,80,81
123,81,82
124,82,13
125,11,83
126,83,84
127,84,85
128,85,16
129,12,86
130,86,87
131,87,88
132,88,15
133,13,89
134,89,90
135,90,91
136,91,19
137,15,92
138,92,93
139,93,94
140,94,17
141,14,95
142,95,96
143,96,97
144,97,20
145,16,98
146,98,99
147,99,100
148,100,18
149,13,101
150,101,102
151,102,103
152,103,18
153,14,104
154,104,105
155,105,106
156,106,17
157,15,107
158,107,108
159,108,109
160,109,20
161,16,110
162,110,111
163,111,112
164,112,19
165,17,113
166,113,114
167,114,115
168,115,23
169,19,116
170,116,117
171,117,118
172,118,21
173,18,119
174,119,120
175,120,121
176,121,24
177,20,122
178,122,123
179,123,124
180,124,22
181,17,125
182,125,126
183,126,127
184,127,22
185,18,128
186,128,129
187,129,130
188,130,21
189,19,131
190,131,132
191,132,133
192,133,24
193,20,134
194,134,135
195,135,136
196,136,23
*NSET,NSET=NALL,GENERATE
1,136,1
*NSET,NSET=LEFT
1,2,3,4
*NSET,NSET=RIGHT
21,22,23,24
*MATERIAL,NAME=STEEL
*ELASTIC
2.100000000000e+11,0.300000000000
*BEAM SECTION,ELSET=ALL,MATERIAL=STEEL,SECTION=RECT
6.000000000000e-02,4.000000000000e-02
0.371390676354,0.557086014531,0.742781352708
*BOUNDARY
LEFT,1,6,0.0
*STEP
*STATIC
*BOUNDARY
21,1,1,5.000000000000e-03
21,2,2,0.0
21,3,3,-6.000000000000e-03
*BOUNDARY
22,1,1,5.000000000000e-03
22,2,2,0.0
22,3,3,6.000000000000e-03
*BOUNDARY
23,1,1,-5.000000000000e-03
23,2,2,0.0
23,3,3,-6.000000000000e-03
*BOUNDARY
24,1,1,-5.000000000000e-03
24,2,2,0.0
24,3,3,6.000000000000e-03
*NODE FILE,NSET=NALL
U
*NODE PRINT,NSET=NALL
U
*NODE PRINT,NSET=RIGHT
RF
*EL PRINT,ELSET=ALL,TOTALS=YES
ELSE
*END STEP
