*HEADING
T01 S-LIN t01_slin_nx18 conforming C3D8 frozen T
units: mm, N, s, MPa, t. Illustrative steel, not a coupon card.
beam=T01 case=S-LIN job=t01_slin_nx18 type=C3D8
E=210000.0 nu=0.3 fy=235.0 load=-5000.0 N on TIP_TOP
*NODE, NSET=NALL
1, 0, -10, 0
2, 111.111111111, -10, 6.66666666667
3, 111.111111111, 0, 6.66666666667
4, 0, 0, 0
5, 0, -10, 40
6, 111.111111111, -10, 45.3333333333
7, 111.111111111, 0, 45.3333333333
8, 0, 0, 40
9, 0, -10, 80
10, 111.111111111, -10, 84
11, 111.111111111, 0, 84
12, 0, 0, 80
13, 0, -10, 120
14, 111.111111111, -10, 122.666666667
15, 111.111111111, 0, 122.666666667
16, 0, 0, 120
17, 0, -10, 160
18, 111.111111111, -10, 161.333333333
19, 111.111111111, 0, 161.333333333
20, 0, 0, 160
21, 0, -10, 200
22, 111.111111111, -10, 200
23, 111.111111111, 0, 200
24, 0, 0, 200
25, 111.111111111, 10, 6.66666666667
26, 0, 10, 0
27, 111.111111111, 10, 45.3333333333
28, 0, 10, 40
29, 111.111111111, 10, 84
30, 0, 10, 80
31, 111.111111111, 10, 122.666666667
32, 0, 10, 120
33, 111.111111111, 10, 161.333333333
34, 0, 10, 160
35, 111.111111111, 10, 200
36, 0, 10, 200
37, 0, -120, 200
38, 111.111111111, -120, 200
39, 111.111111111, -92.5, 200
40, 0, -92.5, 200
41, 0, -120, 210
42, 111.111111111, -120, 210
43, 111.111111111, -92.5, 210
44, 0, -92.5, 210
45, 0, -120, 220
46, 111.111111111, -120, 220
47, 111.111111111, -92.5, 220
48, 0, -92.5, 220
49, 111.111111111, -65, 200
50, 0, -65, 200
51, 111.111111111, -65, 210
52, 0, -65, 210
53, 111.111111111, -65, 220
54, 0, -65, 220
55, 111.111111111, -37.5, 200
56, 0, -37.5, 200
57, 111.111111111, -37.5, 210
58, 0, -37.5, 210
59, 111.111111111, -37.5, 220
60, 0, -37.5, 220
61, 111.111111111, -10, 210
62, 0, -10, 210
63, 111.111111111, -10, 220
64, 0, -10, 220
65, 111.111111111, 0, 210
66, 0, 0, 210
67, 111.111111111, 0, 220
68, 0, 0, 220
69, 111.111111111, 10, 210
70, 0, 10, 210
71, 111.111111111, 10, 220
72, 0, 10, 220
73, 111.111111111, 37.5, 200
74, 0, 37.5, 200
75, 111.111111111, 37.5, 210
76, 0, 37.5, 210
77, 111.111111111, 37.5, 220
78, 0, 37.5, 220
79, 111.111111111, 65, 200
80, 0, 65, 200
81, 111.111111111, 65, 210
82, 0, 65, 210
83, 111.111111111, 65, 220
84, 0, 65, 220
85, 111.111111111, 92.5, 200
86, 0, 92.5, 200
87, 111.111111111, 92.5, 210
88, 0, 92.5, 210
89, 111.111111111, 92.5, 220
90, 0, 92.5, 220
91, 111.111111111, 120, 200
92, 0, 120, 200
93, 111.111111111, 120, 210
94, 0, 120, 210
95, 111.111111111, 120, 220
96, 0, 120, 220
97, 222.222222222, -10, 13.3333333333
98, 222.222222222, 0, 13.3333333333
99, 222.222222222, -10, 50.6666666667
100, 222.222222222, 0, 50.6666666667
101, 222.222222222, -10, 88
102, 222.222222222, 0, 88
103, 222.222222222, -10, 125.333333333
104, 222.222222222, 0, 125.333333333
105, 222.222222222, -10, 162.666666667
106, 222.222222222, 0, 162.666666667
107, 222.222222222, -10, 200
108, 222.222222222, 0, 200
109, 222.222222222, 10, 13.3333333333
110, 222.222222222, 10, 50.6666666667
111, 222.222222222, 10, 88
112, 222.222222222, 10, 125.333333333
113, 222.222222222, 10, 162.666666667
114, 222.222222222, 10, 200
115, 222.222222222, -120, 200
116, 222.222222222, -92.5, 200
117, 222.222222222, -120, 210
118, 222.222222222, -92.5, 210
119, 222.222222222, -120, 220
120, 222.222222222, -92.5, 220
121, 222.222222222, -65, 200
122, 222.222222222, -65, 210
123, 222.222222222, -65, 220
124, 222.222222222, -37.5, 200
125, 222.222222222, -37.5, 210
126, 222.222222222, -37.5, 220
127, 222.222222222, -10, 210
128, 222.222222222, -10, 220
129, 222.222222222, 0, 210
130, 222.222222222, 0, 220
131, 222.222222222, 10, 210
132, 222.222222222, 10, 220
133, 222.222222222, 37.5, 200
134, 222.222222222, 37.5, 210
135, 222.222222222, 37.5, 220
136, 222.222222222, 65, 200
137, 222.222222222, 65, 210
138, 222.222222222, 65, 220
139, 222.222222222, 92.5, 200
140, 222.222222222, 92.5, 210
141, 222.222222222, 92.5, 220
142, 222.222222222, 120, 200
143, 222.222222222, 120, 210
144, 222.222222222, 120, 220
145, 333.333333333, -10, 20
146, 333.333333333, 0, 20
147, 333.333333333, -10, 56
148, 333.333333333, 0, 56
149, 333.333333333, -10, 92
150, 333.333333333, 0, 92
151, 333.333333333, -10, 128
152, 333.333333333, 0, 128
153, 333.333333333, -10, 164
154, 333.333333333, 0, 164
155, 333.333333333, -10, 200
156, 333.333333333, 0, 200
157, 333.333333333, 10, 20
158, 333.333333333, 10, 56
159, 333.333333333, 10, 92
160, 333.333333333, 10, 128
161, 333.333333333, 10, 164
162, 333.333333333, 10, 200
163, 333.333333333, -120, 200
164, 333.333333333, -92.5, 200
165, 333.333333333, -120, 210
166, 333.333333333, -92.5, 210
167, 333.333333333, -120, 220
168, 333.333333333, -92.5, 220
169, 333.333333333, -65, 200
170, 333.333333333, -65, 210
171, 333.333333333, -65, 220
172, 333.333333333, -37.5, 200
173, 333.333333333, -37.5, 210
174, 333.333333333, -37.5, 220
175, 333.333333333, -10, 210
176, 333.333333333, -10, 220
177, 333.333333333, 0, 210
178, 333.333333333, 0, 220
179, 333.333333333, 10, 210
180, 333.333333333, 10, 220
181, 333.333333333, 37.5, 200
182, 333.333333333, 37.5, 210
183, 333.333333333, 37.5, 220
184, 333.333333333, 65, 200
185, 333.333333333, 65, 210
186, 333.333333333, 65, 220
187, 333.333333333, 92.5, 200
188, 333.333333333, 92.5, 210
189, 333.333333333, 92.5, 220
190, 333.333333333, 120, 200
191, 333.333333333, 120, 210
192, 333.333333333, 120, 220
193, 444.444444444, -10, 26.6666666667
194, 444.444444444, 0, 26.6666666667
195, 444.444444444, -10, 61.3333333333
196, 444.444444444, 0, 61.3333333333
197, 444.444444444, -10, 96
198, 444.444444444, 0, 96
199, 444.444444444, -10, 130.666666667
200, 444.444444444, 0, 130.666666667
201, 444.444444444, -10, 165.333333333
202, 444.444444444, 0, 165.333333333
203, 444.444444444, -10, 200
204, 444.444444444, 0, 200
205, 444.444444444, 10, 26.6666666667
206, 444.444444444, 10, 61.3333333333
207, 444.444444444, 10, 96
208, 444.444444444, 10, 130.666666667
209, 444.444444444, 10, 165.333333333
210, 444.444444444, 10, 200
211, 444.444444444, -120, 200
212, 444.444444444, -92.5, 200
213, 444.444444444, -120, 210
214, 444.444444444, -92.5, 210
215, 444.444444444, -120, 220
216, 444.444444444, -92.5, 220
217, 444.444444444, -65, 200
218, 444.444444444, -65, 210
219, 444.444444444, -65, 220
220, 444.444444444, -37.5, 200
221, 444.444444444, -37.5, 210
222, 444.444444444, -37.5, 220
223, 444.444444444, -10, 210
224, 444.444444444, -10, 220
225, 444.444444444, 0, 210
226, 444.444444444, 0, 220
227, 444.444444444, 10, 210
228, 444.444444444, 10, 220
229, 444.444444444, 37.5, 200
230, 444.444444444, 37.5, 210
231, 444.444444444, 37.5, 220
232, 444.444444444, 65, 200
233, 444.444444444, 65, 210
234, 444.444444444, 65, 220
235, 444.444444444, 92.5, 200
236, 444.444444444, 92.5, 210
237, 444.444444444, 92.5, 220
238, 444.444444444, 120, 200
239, 444.444444444, 120, 210
240, 444.444444444, 120, 220
241, 555.555555556, -10, 33.3333333333
242, 555.555555556, 0, 33.3333333333
243, 555.555555556, -10, 66.6666666667
244, 555.555555556, 0, 66.6666666667
245, 555.555555556, -10, 100
246, 555.555555556, 0, 100
247, 555.555555556, -10, 133.333333333
248, 555.555555556, 0, 133.333333333
249, 555.555555556, -10, 166.666666667
250, 555.555555556, 0, 166.666666667
251, 555.555555556, -10, 200
252, 555.555555556, 0, 200
253, 555.555555556, 10, 33.3333333333
254, 555.555555556, 10, 66.6666666667
255, 555.555555556, 10, 100
256, 555.555555556, 10, 133.333333333
257, 555.555555556, 10, 166.666666667
258, 555.555555556, 10, 200
259, 555.555555556, -120, 200
260, 555.555555556, -92.5, 200
261, 555.555555556, -120, 210
262, 555.555555556, -92.5, 210
263, 555.555555556, -120, 220
264, 555.555555556, -92.5, 220
265, 555.555555556, -65, 200
266, 555.555555556, -65, 210
267, 555.555555556, -65, 220
268, 555.555555556, -37.5, 200
269, 555.555555556, -37.5, 210
270, 555.555555556, -37.5, 220
271, 555.555555556, -10, 210
272, 555.555555556, -10, 220
273, 555.555555556, 0, 210
274, 555.555555556, 0, 220
275, 555.555555556, 10, 210
276, 555.555555556, 10, 220
277, 555.555555556, 37.5, 200
278, 555.555555556, 37.5, 210
279, 555.555555556, 37.5, 220
280, 555.555555556, 65, 200
281, 555.555555556, 65, 210
282, 555.555555556, 65, 220
283, 555.555555556, 92.5, 200
284, 555.555555556, 92.5, 210
285, 555.555555556, 92.5, 220
286, 555.555555556, 120, 200
287, 555.555555556, 120, 210
288, 555.555555556, 120, 220
289, 666.666666667, -10, 40
290, 666.666666667, 0, 40
291, 666.666666667, -10, 72
292, 666.666666667, 0, 72
293, 666.666666667, -10, 104
294, 666.666666667, 0, 104
295, 666.666666667, -10, 136
296, 666.666666667, 0, 136
297, 666.666666667, -10, 168
298, 666.666666667, 0, 168
299, 666.666666667, -10, 200
300, 666.666666667, 0, 200
301, 666.666666667, 10, 40
302, 666.666666667, 10, 72
303, 666.666666667, 10, 104
304, 666.666666667, 10, 136
305, 666.666666667, 10, 168
306, 666.666666667, 10, 200
307, 666.666666667, -120, 200
308, 666.666666667, -92.5, 200
309, 666.666666667, -120, 210
310, 666.666666667, -92.5, 210
311, 666.666666667, -120, 220
312, 666.666666667, -92.5, 220
313, 666.666666667, -65, 200
314, 666.666666667, -65, 210
315, 666.666666667, -65, 220
316, 666.666666667, -37.5, 200
317, 666.666666667, -37.5, 210
318, 666.666666667, -37.5, 220
319, 666.666666667, -10, 210
320, 666.666666667, -10, 220
321, 666.666666667, 0, 210
322, 666.666666667, 0, 220
323, 666.666666667, 10, 210
324, 666.666666667, 10, 220
325, 666.666666667, 37.5, 200
326, 666.666666667, 37.5, 210
327, 666.666666667, 37.5, 220
328, 666.666666667, 65, 200
329, 666.666666667, 65, 210
330, 666.666666667, 65, 220
331, 666.666666667, 92.5, 200
332, 666.666666667, 92.5, 210
333, 666.666666667, 92.5, 220
334, 666.666666667, 120, 200
335, 666.666666667, 120, 210
336, 666.666666667, 120, 220
337, 777.777777778, -10, 46.6666666667
338, 777.777777778, 0, 46.6666666667
339, 777.777777778, -10, 77.3333333333
340, 777.777777778, 0, 77.3333333333
341, 777.777777778, -10, 108
342, 777.777777778, 0, 108
343, 777.777777778, -10, 138.666666667
344, 777.777777778, 0, 138.666666667
345, 777.777777778, -10, 169.333333333
346, 777.777777778, 0, 169.333333333
347, 777.777777778, -10, 200
348, 777.777777778, 0, 200
349, 777.777777778, 10, 46.6666666667
350, 777.777777778, 10, 77.3333333333
351, 777.777777778, 10, 108
352, 777.777777778, 10, 138.666666667
353, 777.777777778, 10, 169.333333333
354, 777.777777778, 10, 200
355, 777.777777778, -120, 200
356, 777.777777778, -92.5, 200
357, 777.777777778, -120, 210
358, 777.777777778, -92.5, 210
359, 777.777777778, -120, 220
360, 777.777777778, -92.5, 220
361, 777.777777778, -65, 200
362, 777.777777778, -65, 210
363, 777.777777778, -65, 220
364, 777.777777778, -37.5, 200
365, 777.777777778, -37.5, 210
366, 777.777777778, -37.5, 220
367, 777.777777778, -10, 210
368, 777.777777778, -10, 220
369, 777.777777778, 0, 210
370, 777.777777778, 0, 220
371, 777.777777778, 10, 210
372, 777.777777778, 10, 220
373, 777.777777778, 37.5, 200
374, 777.777777778, 37.5, 210
375, 777.777777778, 37.5, 220
376, 777.777777778, 65, 200
377, 777.777777778, 65, 210
378, 777.777777778, 65, 220
379, 777.777777778, 92.5, 200
380, 777.777777778, 92.5, 210
381, 777.777777778, 92.5, 220
382, 777.777777778, 120, 200
383, 777.777777778, 120, 210
384, 777.777777778, 120, 220
385, 888.888888889, -10, 53.3333333333
386, 888.888888889, 0, 53.3333333333
387, 888.888888889, -10, 82.6666666667
388, 888.888888889, 0, 82.6666666667
389, 888.888888889, -10, 112
390, 888.888888889, 0, 112
391, 888.888888889, -10, 141.333333333
392, 888.888888889, 0, 141.333333333
393, 888.888888889, -10, 170.666666667
394, 888.888888889, 0, 170.666666667
395, 888.888888889, -10, 200
396, 888.888888889, 0, 200
397, 888.888888889, 10, 53.3333333333
398, 888.888888889, 10, 82.6666666667
399, 888.888888889, 10, 112
400, 888.888888889, 10, 141.333333333
401, 888.888888889, 10, 170.666666667
402, 888.888888889, 10, 200
403, 888.888888889, -120, 200
404, 888.888888889, -92.5, 200
405, 888.888888889, -120, 210
406, 888.888888889, -92.5, 210
407, 888.888888889, -120, 220
408, 888.888888889, -92.5, 220
409, 888.888888889, -65, 200
410, 888.888888889, -65, 210
411, 888.888888889, -65, 220
412, 888.888888889, -37.5, 200
413, 888.888888889, -37.5, 210
414, 888.888888889, -37.5, 220
415, 888.888888889, -10, 210
416, 888.888888889, -10, 220
417, 888.888888889, 0, 210
418, 888.888888889, 0, 220
419, 888.888888889, 10, 210
420, 888.888888889, 10, 220
421, 888.888888889, 37.5, 200
422, 888.888888889, 37.5, 210
423, 888.888888889, 37.5, 220
424, 888.888888889, 65, 200
425, 888.888888889, 65, 210
426, 888.888888889, 65, 220
427, 888.888888889, 92.5, 200
428, 888.888888889, 92.5, 210
429, 888.888888889, 92.5, 220
430, 888.888888889, 120, 200
431, 888.888888889, 120, 210
432, 888.888888889, 120, 220
433, 1000, -10, 60
434, 1000, 0, 60
435, 1000, -10, 88
436, 1000, 0, 88
437, 1000, -10, 116
438, 1000, 0, 116
439, 1000, -10, 144
440, 1000, 0, 144
441, 1000, -10, 172
442, 1000, 0, 172
443, 1000, -10, 200
444, 1000, 0, 200
445, 1000, 10, 60
446, 1000, 10, 88
447, 1000, 10, 116
448, 1000, 10, 144
449, 1000, 10, 172
450, 1000, 10, 200
451, 1000, -120, 200
452, 1000, -92.5, 200
453, 1000, -120, 210
454, 1000, -92.5, 210
455, 1000, -120, 220
456, 1000, -92.5, 220
457, 1000, -65, 200
458, 1000, -65, 210
459, 1000, -65, 220
460, 1000, -37.5, 200
461, 1000, -37.5, 210
462, 1000, -37.5, 220
463, 1000, -10, 210
464, 1000, -10, 220
465, 1000, 0, 210
466, 1000, 0, 220
467, 1000, 10, 210
468, 1000, 10, 220
469, 1000, 37.5, 200
470, 1000, 37.5, 210
471, 1000, 37.5, 220
472, 1000, 65, 200
473, 1000, 65, 210
474, 1000, 65, 220
475, 1000, 92.5, 200
476, 1000, 92.5, 210
477, 1000, 92.5, 220
478, 1000, 120, 200
479, 1000, 120, 210
480, 1000, 120, 220
481, 1111.11111111, -10, 66.6666666667
482, 1111.11111111, 0, 66.6666666667
483, 1111.11111111, -10, 93.3333333333
484, 1111.11111111, 0, 93.3333333333
485, 1111.11111111, -10, 120
486, 1111.11111111, 0, 120
487, 1111.11111111, -10, 146.666666667
488, 1111.11111111, 0, 146.666666667
489, 1111.11111111, -10, 173.333333333
490, 1111.11111111, 0, 173.333333333
491, 1111.11111111, -10, 200
492, 1111.11111111, 0, 200
493, 1111.11111111, 10, 66.6666666667
494, 1111.11111111, 10, 93.3333333333
495, 1111.11111111, 10, 120
496, 1111.11111111, 10, 146.666666667
497, 1111.11111111, 10, 173.333333333
498, 1111.11111111, 10, 200
499, 1111.11111111, -120, 200
500, 1111.11111111, -92.5, 200
501, 1111.11111111, -120, 210
502, 1111.11111111, -92.5, 210
503, 1111.11111111, -120, 220
504, 1111.11111111, -92.5, 220
505, 1111.11111111, -65, 200
506, 1111.11111111, -65, 210
507, 1111.11111111, -65, 220
508, 1111.11111111, -37.5, 200
509, 1111.11111111, -37.5, 210
510, 1111.11111111, -37.5, 220
511, 1111.11111111, -10, 210
512, 1111.11111111, -10, 220
513, 1111.11111111, 0, 210
514, 1111.11111111, 0, 220
515, 1111.11111111, 10, 210
516, 1111.11111111, 10, 220
517, 1111.11111111, 37.5, 200
518, 1111.11111111, 37.5, 210
519, 1111.11111111, 37.5, 220
520, 1111.11111111, 65, 200
521, 1111.11111111, 65, 210
522, 1111.11111111, 65, 220
523, 1111.11111111, 92.5, 200
524, 1111.11111111, 92.5, 210
525, 1111.11111111, 92.5, 220
526, 1111.11111111, 120, 200
527, 1111.11111111, 120, 210
528, 1111.11111111, 120, 220
529, 1222.22222222, -10, 73.3333333333
530, 1222.22222222, 0, 73.3333333333
531, 1222.22222222, -10, 98.6666666667
532, 1222.22222222, 0, 98.6666666667
533, 1222.22222222, -10, 124
534, 1222.22222222, 0, 124
535, 1222.22222222, -10, 149.333333333
536, 1222.22222222, 0, 149.333333333
537, 1222.22222222, -10, 174.666666667
538, 1222.22222222, 0, 174.666666667
539, 1222.22222222, -10, 200
540, 1222.22222222, 0, 200
541, 1222.22222222, 10, 73.3333333333
542, 1222.22222222, 10, 98.6666666667
543, 1222.22222222, 10, 124
544, 1222.22222222, 10, 149.333333333
545, 1222.22222222, 10, 174.666666667
546, 1222.22222222, 10, 200
547, 1222.22222222, -120, 200
548, 1222.22222222, -92.5, 200
549, 1222.22222222, -120, 210
550, 1222.22222222, -92.5, 210
551, 1222.22222222, -120, 220
552, 1222.22222222, -92.5, 220
553, 1222.22222222, -65, 200
554, 1222.22222222, -65, 210
555, 1222.22222222, -65, 220
556, 1222.22222222, -37.5, 200
557, 1222.22222222, -37.5, 210
558, 1222.22222222, -37.5, 220
559, 1222.22222222, -10, 210
560, 1222.22222222, -10, 220
561, 1222.22222222, 0, 210
562, 1222.22222222, 0, 220
563, 1222.22222222, 10, 210
564, 1222.22222222, 10, 220
565, 1222.22222222, 37.5, 200
566, 1222.22222222, 37.5, 210
567, 1222.22222222, 37.5, 220
568, 1222.22222222, 65, 200
569, 1222.22222222, 65, 210
570, 1222.22222222, 65, 220
571, 1222.22222222, 92.5, 200
572, 1222.22222222, 92.5, 210
573, 1222.22222222, 92.5, 220
574, 1222.22222222, 120, 200
575, 1222.22222222, 120, 210
576, 1222.22222222, 120, 220
577, 1333.33333333, -10, 80
578, 1333.33333333, 0, 80
579, 1333.33333333, -10, 104
580, 1333.33333333, 0, 104
581, 1333.33333333, -10, 128
582, 1333.33333333, 0, 128
583, 1333.33333333, -10, 152
584, 1333.33333333, 0, 152
585, 1333.33333333, -10, 176
586, 1333.33333333, 0, 176
587, 1333.33333333, -10, 200
588, 1333.33333333, 0, 200
589, 1333.33333333, 10, 80
590, 1333.33333333, 10, 104
591, 1333.33333333, 10, 128
592, 1333.33333333, 10, 152
593, 1333.33333333, 10, 176
594, 1333.33333333, 10, 200
595, 1333.33333333, -120, 200
596, 1333.33333333, -92.5, 200
597, 1333.33333333, -120, 210
598, 1333.33333333, -92.5, 210
599, 1333.33333333, -120, 220
600, 1333.33333333, -92.5, 220
601, 1333.33333333, -65, 200
602, 1333.33333333, -65, 210
603, 1333.33333333, -65, 220
604, 1333.33333333, -37.5, 200
605, 1333.33333333, -37.5, 210
606, 1333.33333333, -37.5, 220
607, 1333.33333333, -10, 210
608, 1333.33333333, -10, 220
609, 1333.33333333, 0, 210
610, 1333.33333333, 0, 220
611, 1333.33333333, 10, 210
612, 1333.33333333, 10, 220
613, 1333.33333333, 37.5, 200
614, 1333.33333333, 37.5, 210
615, 1333.33333333, 37.5, 220
616, 1333.33333333, 65, 200
617, 1333.33333333, 65, 210
618, 1333.33333333, 65, 220
619, 1333.33333333, 92.5, 200
620, 1333.33333333, 92.5, 210
621, 1333.33333333, 92.5, 220
622, 1333.33333333, 120, 200
623, 1333.33333333, 120, 210
624, 1333.33333333, 120, 220
625, 1444.44444444, -10, 86.6666666667
626, 1444.44444444, 0, 86.6666666667
627, 1444.44444444, -10, 109.333333333
628, 1444.44444444, 0, 109.333333333
629, 1444.44444444, -10, 132
630, 1444.44444444, 0, 132
631, 1444.44444444, -10, 154.666666667
632, 1444.44444444, 0, 154.666666667
633, 1444.44444444, -10, 177.333333333
634, 1444.44444444, 0, 177.333333333
635, 1444.44444444, -10, 200
636, 1444.44444444, 0, 200
637, 1444.44444444, 10, 86.6666666667
638, 1444.44444444, 10, 109.333333333
639, 1444.44444444, 10, 132
640, 1444.44444444, 10, 154.666666667
641, 1444.44444444, 10, 177.333333333
642, 1444.44444444, 10, 200
643, 1444.44444444, -120, 200
644, 1444.44444444, -92.5, 200
645, 1444.44444444, -120, 210
646, 1444.44444444, -92.5, 210
647, 1444.44444444, -120, 220
648, 1444.44444444, -92.5, 220
649, 1444.44444444, -65, 200
650, 1444.44444444, -65, 210
651, 1444.44444444, -65, 220
652, 1444.44444444, -37.5, 200
653, 1444.44444444, -37.5, 210
654, 1444.44444444, -37.5, 220
655, 1444.44444444, -10, 210
656, 1444.44444444, -10, 220
657, 1444.44444444, 0, 210
658, 1444.44444444, 0, 220
659, 1444.44444444, 10, 210
660, 1444.44444444, 10, 220
661, 1444.44444444, 37.5, 200
662, 1444.44444444, 37.5, 210
663, 1444.44444444, 37.5, 220
664, 1444.44444444, 65, 200
665, 1444.44444444, 65, 210
666, 1444.44444444, 65, 220
667, 1444.44444444, 92.5, 200
668, 1444.44444444, 92.5, 210
669, 1444.44444444, 92.5, 220
670, 1444.44444444, 120, 200
671, 1444.44444444, 120, 210
672, 1444.44444444, 120, 220
673, 1555.55555556, -10, 93.3333333333
674, 1555.55555556, 0, 93.3333333333
675, 1555.55555556, -10, 114.666666667
676, 1555.55555556, 0, 114.666666667
677, 1555.55555556, -10, 136
678, 1555.55555556, 0, 136
679, 1555.55555556, -10, 157.333333333
680, 1555.55555556, 0, 157.333333333
681, 1555.55555556, -10, 178.666666667
682, 1555.55555556, 0, 178.666666667
683, 1555.55555556, -10, 200
684, 1555.55555556, 0, 200
685, 1555.55555556, 10, 93.3333333333
686, 1555.55555556, 10, 114.666666667
687, 1555.55555556, 10, 136
688, 1555.55555556, 10, 157.333333333
689, 1555.55555556, 10, 178.666666667
690, 1555.55555556, 10, 200
691, 1555.55555556, -120, 200
692, 1555.55555556, -92.5, 200
693, 1555.55555556, -120, 210
694, 1555.55555556, -92.5, 210
695, 1555.55555556, -120, 220
696, 1555.55555556, -92.5, 220
697, 1555.55555556, -65, 200
698, 1555.55555556, -65, 210
699, 1555.55555556, -65, 220
700, 1555.55555556, -37.5, 200
701, 1555.55555556, -37.5, 210
702, 1555.55555556, -37.5, 220
703, 1555.55555556, -10, 210
704, 1555.55555556, -10, 220
705, 1555.55555556, 0, 210
706, 1555.55555556, 0, 220
707, 1555.55555556, 10, 210
708, 1555.55555556, 10, 220
709, 1555.55555556, 37.5, 200
710, 1555.55555556, 37.5, 210
711, 1555.55555556, 37.5, 220
712, 1555.55555556, 65, 200
713, 1555.55555556, 65, 210
714, 1555.55555556, 65, 220
715, 1555.55555556, 92.5, 200
716, 1555.55555556, 92.5, 210
717, 1555.55555556, 92.5, 220
718, 1555.55555556, 120, 200
719, 1555.55555556, 120, 210
720, 1555.55555556, 120, 220
721, 1666.66666667, -10, 100
722, 1666.66666667, 0, 100
723, 1666.66666667, -10, 120
724, 1666.66666667, 0, 120
725, 1666.66666667, -10, 140
726, 1666.66666667, 0, 140
727, 1666.66666667, -10, 160
728, 1666.66666667, 0, 160
729, 1666.66666667, -10, 180
730, 1666.66666667, 0, 180
731, 1666.66666667, -10, 200
732, 1666.66666667, 0, 200
733, 1666.66666667, 10, 100
734, 1666.66666667, 10, 120
735, 1666.66666667, 10, 140
736, 1666.66666667, 10, 160
737, 1666.66666667, 10, 180
738, 1666.66666667, 10, 200
739, 1666.66666667, -120, 200
740, 1666.66666667, -92.5, 200
741, 1666.66666667, -120, 210
742, 1666.66666667, -92.5, 210
743, 1666.66666667, -120, 220
744, 1666.66666667, -92.5, 220
745, 1666.66666667, -65, 200
746, 1666.66666667, -65, 210
747, 1666.66666667, -65, 220
748, 1666.66666667, -37.5, 200
749, 1666.66666667, -37.5, 210
750, 1666.66666667, -37.5, 220
751, 1666.66666667, -10, 210
752, 1666.66666667, -10, 220
753, 1666.66666667, 0, 210
754, 1666.66666667, 0, 220
755, 1666.66666667, 10, 210
756, 1666.66666667, 10, 220
757, 1666.66666667, 37.5, 200
758, 1666.66666667, 37.5, 210
759, 1666.66666667, 37.5, 220
760, 1666.66666667, 65, 200
761, 1666.66666667, 65, 210
762, 1666.66666667, 65, 220
763, 1666.66666667, 92.5, 200
764, 1666.66666667, 92.5, 210
765, 1666.66666667, 92.5, 220
766, 1666.66666667, 120, 200
767, 1666.66666667, 120, 210
768, 1666.66666667, 120, 220
769, 1777.77777778, -10, 106.666666667
770, 1777.77777778, 0, 106.666666667
771, 1777.77777778, -10, 125.333333333
772, 1777.77777778, 0, 125.333333333
773, 1777.77777778, -10, 144
774, 1777.77777778, 0, 144
775, 1777.77777778, -10, 162.666666667
776, 1777.77777778, 0, 162.666666667
777, 1777.77777778, -10, 181.333333333
778, 1777.77777778, 0, 181.333333333
779, 1777.77777778, -10, 200
780, 1777.77777778, 0, 200
781, 1777.77777778, 10, 106.666666667
782, 1777.77777778, 10, 125.333333333
783, 1777.77777778, 10, 144
784, 1777.77777778, 10, 162.666666667
785, 1777.77777778, 10, 181.333333333
786, 1777.77777778, 10, 200
787, 1777.77777778, -120, 200
788, 1777.77777778, -92.5, 200
789, 1777.77777778, -120, 210
790, 1777.77777778, -92.5, 210
791, 1777.77777778, -120, 220
792, 1777.77777778, -92.5, 220
793, 1777.77777778, -65, 200
794, 1777.77777778, -65, 210
795, 1777.77777778, -65, 220
796, 1777.77777778, -37.5, 200
797, 1777.77777778, -37.5, 210
798, 1777.77777778, -37.5, 220
799, 1777.77777778, -10, 210
800, 1777.77777778, -10, 220
801, 1777.77777778, 0, 210
802, 1777.77777778, 0, 220
803, 1777.77777778, 10, 210
804, 1777.77777778, 10, 220
805, 1777.77777778, 37.5, 200
806, 1777.77777778, 37.5, 210
807, 1777.77777778, 37.5, 220
808, 1777.77777778, 65, 200
809, 1777.77777778, 65, 210
810, 1777.77777778, 65, 220
811, 1777.77777778, 92.5, 200
812, 1777.77777778, 92.5, 210
813, 1777.77777778, 92.5, 220
814, 1777.77777778, 120, 200
815, 1777.77777778, 120, 210
816, 1777.77777778, 120, 220
817, 1888.88888889, -10, 113.333333333
818, 1888.88888889, 0, 113.333333333
819, 1888.88888889, -10, 130.666666667
820, 1888.88888889, 0, 130.666666667
821, 1888.88888889, -10, 148
822, 1888.88888889, 0, 148
823, 1888.88888889, -10, 165.333333333
824, 1888.88888889, 0, 165.333333333
825, 1888.88888889, -10, 182.666666667
826, 1888.88888889, 0, 182.666666667
827, 1888.88888889, -10, 200
828, 1888.88888889, 0, 200
829, 1888.88888889, 10, 113.333333333
830, 1888.88888889, 10, 130.666666667
831, 1888.88888889, 10, 148
832, 1888.88888889, 10, 165.333333333
833, 1888.88888889, 10, 182.666666667
834, 1888.88888889, 10, 200
835, 1888.88888889, -120, 200
836, 1888.88888889, -92.5, 200
837, 1888.88888889, -120, 210
838, 1888.88888889, -92.5, 210
839, 1888.88888889, -120, 220
840, 1888.88888889, -92.5, 220
841, 1888.88888889, -65, 200
842, 1888.88888889, -65, 210
843, 1888.88888889, -65, 220
844, 1888.88888889, -37.5, 200
845, 1888.88888889, -37.5, 210
846, 1888.88888889, -37.5, 220
847, 1888.88888889, -10, 210
848, 1888.88888889, -10, 220
849, 1888.88888889, 0, 210
850, 1888.88888889, 0, 220
851, 1888.88888889, 10, 210
852, 1888.88888889, 10, 220
853, 1888.88888889, 37.5, 200
854, 1888.88888889, 37.5, 210
855, 1888.88888889, 37.5, 220
856, 1888.88888889, 65, 200
857, 1888.88888889, 65, 210
858, 1888.88888889, 65, 220
859, 1888.88888889, 92.5, 200
860, 1888.88888889, 92.5, 210
861, 1888.88888889, 92.5, 220
862, 1888.88888889, 120, 200
863, 1888.88888889, 120, 210
864, 1888.88888889, 120, 220
865, 2000, -10, 120
866, 2000, 0, 120
867, 2000, -10, 136
868, 2000, 0, 136
869, 2000, -10, 152
870, 2000, 0, 152
871, 2000, -10, 168
872, 2000, 0, 168
873, 2000, -10, 184
874, 2000, 0, 184
875, 2000, -10, 200
876, 2000, 0, 200
877, 2000, 10, 120
878, 2000, 10, 136
879, 2000, 10, 152
880, 2000, 10, 168
881, 2000, 10, 184
882, 2000, 10, 200
883, 2000, -120, 200
884, 2000, -92.5, 200
885, 2000, -120, 210
886, 2000, -92.5, 210
887, 2000, -120, 220
888, 2000, -92.5, 220
889, 2000, -65, 200
890, 2000, -65, 210
891, 2000, -65, 220
892, 2000, -37.5, 200
893, 2000, -37.5, 210
894, 2000, -37.5, 220
895, 2000, -10, 210
896, 2000, -10, 220
897, 2000, 0, 210
898, 2000, 0, 220
899, 2000, 10, 210
900, 2000, 10, 220
901, 2000, 37.5, 200
902, 2000, 37.5, 210
903, 2000, 37.5, 220
904, 2000, 65, 200
905, 2000, 65, 210
906, 2000, 65, 220
907, 2000, 92.5, 200
908, 2000, 92.5, 210
909, 2000, 92.5, 220
910, 2000, 120, 200
911, 2000, 120, 210
912, 2000, 120, 220
*ELEMENT, TYPE=C3D8, ELSET=EALL
1, 1, 2, 3, 4, 5, 6, 7, 8
2, 5, 6, 7, 8, 9, 10, 11, 12
3, 9, 10, 11, 12, 13, 14, 15, 16
4, 13, 14, 15, 16, 17, 18, 19, 20
5, 17, 18, 19, 20, 21, 22, 23, 24
6, 4, 3, 25, 26, 8, 7, 27, 28
7, 8, 7, 27, 28, 12, 11, 29, 30
8, 12, 11, 29, 30, 16, 15, 31, 32
9, 16, 15, 31, 32, 20, 19, 33, 34
10, 20, 19, 33, 34, 24, 23, 35, 36
11, 37, 38, 39, 40, 41, 42, 43, 44
12, 41, 42, 43, 44, 45, 46, 47, 48
13, 40, 39, 49, 50, 44, 43, 51, 52
14, 44, 43, 51, 52, 48, 47, 53, 54
15, 50, 49, 55, 56, 52, 51, 57, 58
16, 52, 51, 57, 58, 54, 53, 59, 60
17, 56, 55, 22, 21, 58, 57, 61, 62
18, 58, 57, 61, 62, 60, 59, 63, 64
19, 21, 22, 23, 24, 62, 61, 65, 66
20, 62, 61, 65, 66, 64, 63, 67, 68
21, 24, 23, 35, 36, 66, 65, 69, 70
22, 66, 65, 69, 70, 68, 67, 71, 72
23, 36, 35, 73, 74, 70, 69, 75, 76
24, 70, 69, 75, 76, 72, 71, 77, 78
25, 74, 73, 79, 80, 76, 75, 81, 82
26, 76, 75, 81, 82, 78, 77, 83, 84
27, 80, 79, 85, 86, 82, 81, 87, 88
28, 82, 81, 87, 88, 84, 83, 89, 90
29, 86, 85, 91, 92, 88, 87, 93, 94
30, 88, 87, 93, 94, 90, 89, 95, 96
31, 2, 97, 98, 3, 6, 99, 100, 7
32, 6, 99, 100, 7, 10, 101, 102, 11
33, 10, 101, 102, 11, 14, 103, 104, 15
34, 14, 103, 104, 15, 18, 105, 106, 19
35, 18, 105, 106, 19, 22, 107, 108, 23
36, 3, 98, 109, 25, 7, 100, 110, 27
37, 7, 100, 110, 27, 11, 102, 111, 29
38, 11, 102, 111, 29, 15, 104, 112, 31
39, 15, 104, 112, 31, 19, 106, 113, 33
40, 19, 106, 113, 33, 23, 108, 114, 35
41, 38, 115, 116, 39, 42, 117, 118, 43
42, 42, 117, 118, 43, 46, 119, 120, 47
43, 39, 116, 121, 49, 43, 118, 122, 51
44, 43, 118, 122, 51, 47, 120, 123, 53
45, 49, 121, 124, 55, 51, 122, 125, 57
46, 51, 122, 125, 57, 53, 123, 126, 59
47, 55, 124, 107, 22, 57, 125, 127, 61
48, 57, 125, 127, 61, 59, 126, 128, 63
49, 22, 107, 108, 23, 61, 127, 129, 65
50, 61, 127, 129, 65, 63, 128, 130, 67
51, 23, 108, 114, 35, 65, 129, 131, 69
52, 65, 129, 131, 69, 67, 130, 132, 71
53, 35, 114, 133, 73, 69, 131, 134, 75
54, 69, 131, 134, 75, 71, 132, 135, 77
55, 73, 133, 136, 79, 75, 134, 137, 81
56, 75, 134, 137, 81, 77, 135, 138, 83
57, 79, 136, 139, 85, 81, 137, 140, 87
58, 81, 137, 140, 87, 83, 138, 141, 89
59, 85, 139, 142, 91, 87, 140, 143, 93
60, 87, 140, 143, 93, 89, 141, 144, 95
61, 97, 145, 146, 98, 99, 147, 148, 100
62, 99, 147, 148, 100, 101, 149, 150, 102
63, 101, 149, 150, 102, 103, 151, 152, 104
64, 103, 151, 152, 104, 105, 153, 154, 106
65, 105, 153, 154, 106, 107, 155, 156, 108
66, 98, 146, 157, 109, 100, 148, 158, 110
67, 100, 148, 158, 110, 102, 150, 159, 111
68, 102, 150, 159, 111, 104, 152, 160, 112
69, 104, 152, 160, 112, 106, 154, 161, 113
70, 106, 154, 161, 113, 108, 156, 162, 114
71, 115, 163, 164, 116, 117, 165, 166, 118
72, 117, 165, 166, 118, 119, 167, 168, 120
73, 116, 164, 169, 121, 118, 166, 170, 122
74, 118, 166, 170, 122, 120, 168, 171, 123
75, 121, 169, 172, 124, 122, 170, 173, 125
76, 122, 170, 173, 125, 123, 171, 174, 126
77, 124, 172, 155, 107, 125, 173, 175, 127
78, 125, 173, 175, 127, 126, 174, 176, 128
79, 107, 155, 156, 108, 127, 175, 177, 129
80, 127, 175, 177, 129, 128, 176, 178, 130
81, 108, 156, 162, 114, 129, 177, 179, 131
82, 129, 177, 179, 131, 130, 178, 180, 132
83, 114, 162, 181, 133, 131, 179, 182, 134
84, 131, 179, 182, 134, 132, 180, 183, 135
85, 133, 181, 184, 136, 134, 182, 185, 137
86, 134, 182, 185, 137, 135, 183, 186, 138
87, 136, 184, 187, 139, 137, 185, 188, 140
88, 137, 185, 188, 140, 138, 186, 189, 141
89, 139, 187, 190, 142, 140, 188, 191, 143
90, 140, 188, 191, 143, 141, 189, 192, 144
91, 145, 193, 194, 146, 147, 195, 196, 148
92, 147, 195, 196, 148, 149, 197, 198, 150
93, 149, 197, 198, 150, 151, 199, 200, 152
94, 151, 199, 200, 152, 153, 201, 202, 154
95, 153, 201, 202, 154, 155, 203, 204, 156
96, 146, 194, 205, 157, 148, 196, 206, 158
97, 148, 196, 206, 158, 150, 198, 207, 159
98, 150, 198, 207, 159, 152, 200, 208, 160
99, 152, 200, 208, 160, 154, 202, 209, 161
100, 154, 202, 209, 161, 156, 204, 210, 162
101, 163, 211, 212, 164, 165, 213, 214, 166
102, 165, 213, 214, 166, 167, 215, 216, 168
103, 164, 212, 217, 169, 166, 214, 218, 170
104, 166, 214, 218, 170, 168, 216, 219, 171
105, 169, 217, 220, 172, 170, 218, 221, 173
106, 170, 218, 221, 173, 171, 219, 222, 174
107, 172, 220, 203, 155, 173, 221, 223, 175
108, 173, 221, 223, 175, 174, 222, 224, 176
109, 155, 203, 204, 156, 175, 223, 225, 177
110, 175, 223, 225, 177, 176, 224, 226, 178
111, 156, 204, 210, 162, 177, 225, 227, 179
112, 177, 225, 227, 179, 178, 226, 228, 180
113, 162, 210, 229, 181, 179, 227, 230, 182
114, 179, 227, 230, 182, 180, 228, 231, 183
115, 181, 229, 232, 184, 182, 230, 233, 185
116, 182, 230, 233, 185, 183, 231, 234, 186
117, 184, 232, 235, 187, 185, 233, 236, 188
118, 185, 233, 236, 188, 186, 234, 237, 189
119, 187, 235, 238, 190, 188, 236, 239, 191
120, 188, 236, 239, 191, 189, 237, 240, 192
121, 193, 241, 242, 194, 195, 243, 244, 196
122, 195, 243, 244, 196, 197, 245, 246, 198
123, 197, 245, 246, 198, 199, 247, 248, 200
124, 199, 247, 248, 200, 201, 249, 250, 202
125, 201, 249, 250, 202, 203, 251, 252, 204
126, 194, 242, 253, 205, 196, 244, 254, 206
127, 196, 244, 254, 206, 198, 246, 255, 207
128, 198, 246, 255, 207, 200, 248, 256, 208
129, 200, 248, 256, 208, 202, 250, 257, 209
130, 202, 250, 257, 209, 204, 252, 258, 210
131, 211, 259, 260, 212, 213, 261, 262, 214
132, 213, 261, 262, 214, 215, 263, 264, 216
133, 212, 260, 265, 217, 214, 262, 266, 218
134, 214, 262, 266, 218, 216, 264, 267, 219
135, 217, 265, 268, 220, 218, 266, 269, 221
136, 218, 266, 269, 221, 219, 267, 270, 222
137, 220, 268, 251, 203, 221, 269, 271, 223
138, 221, 269, 271, 223, 222, 270, 272, 224
139, 203, 251, 252, 204, 223, 271, 273, 225
140, 223, 271, 273, 225, 224, 272, 274, 226
141, 204, 252, 258, 210, 225, 273, 275, 227
142, 225, 273, 275, 227, 226, 274, 276, 228
143, 210, 258, 277, 229, 227, 275, 278, 230
144, 227, 275, 278, 230, 228, 276, 279, 231
145, 229, 277, 280, 232, 230, 278, 281, 233
146, 230, 278, 281, 233, 231, 279, 282, 234
147, 232, 280, 283, 235, 233, 281, 284, 236
148, 233, 281, 284, 236, 234, 282, 285, 237
149, 235, 283, 286, 238, 236, 284, 287, 239
150, 236, 284, 287, 239, 237, 285, 288, 240
151, 241, 289, 290, 242, 243, 291, 292, 244
152, 243, 291, 292, 244, 245, 293, 294, 246
153, 245, 293, 294, 246, 247, 295, 296, 248
154, 247, 295, 296, 248, 249, 297, 298, 250
155, 249, 297, 298, 250, 251, 299, 300, 252
156, 242, 290, 301, 253, 244, 292, 302, 254
157, 244, 292, 302, 254, 246, 294, 303, 255
158, 246, 294, 303, 255, 248, 296, 304, 256
159, 248, 296, 304, 256, 250, 298, 305, 257
160, 250, 298, 305, 257, 252, 300, 306, 258
161, 259, 307, 308, 260, 261, 309, 310, 262
162, 261, 309, 310, 262, 263, 311, 312, 264
163, 260, 308, 313, 265, 262, 310, 314, 266
164, 262, 310, 314, 266, 264, 312, 315, 267
165, 265, 313, 316, 268, 266, 314, 317, 269
166, 266, 314, 317, 269, 267, 315, 318, 270
167, 268, 316, 299, 251, 269, 317, 319, 271
168, 269, 317, 319, 271, 270, 318, 320, 272
169, 251, 299, 300, 252, 271, 319, 321, 273
170, 271, 319, 321, 273, 272, 320, 322, 274
171, 252, 300, 306, 258, 273, 321, 323, 275
172, 273, 321, 323, 275, 274, 322, 324, 276
173, 258, 306, 325, 277, 275, 323, 326, 278
174, 275, 323, 326, 278, 276, 324, 327, 279
175, 277, 325, 328, 280, 278, 326, 329, 281
176, 278, 326, 329, 281, 279, 327, 330, 282
177, 280, 328, 331, 283, 281, 329, 332, 284
178, 281, 329, 332, 284, 282, 330, 333, 285
179, 283, 331, 334, 286, 284, 332, 335, 287
180, 284, 332, 335, 287, 285, 333, 336, 288
181, 289, 337, 338, 290, 291, 339, 340, 292
182, 291, 339, 340, 292, 293, 341, 342, 294
183, 293, 341, 342, 294, 295, 343, 344, 296
184, 295, 343, 344, 296, 297, 345, 346, 298
185, 297, 345, 346, 298, 299, 347, 348, 300
186, 290, 338, 349, 301, 292, 340, 350, 302
187, 292, 340, 350, 302, 294, 342, 351, 303
188, 294, 342, 351, 303, 296, 344, 352, 304
189, 296, 344, 352, 304, 298, 346, 353, 305
190, 298, 346, 353, 305, 300, 348, 354, 306
191, 307, 355, 356, 308, 309, 357, 358, 310
192, 309, 357, 358, 310, 311, 359, 360, 312
193, 308, 356, 361, 313, 310, 358, 362, 314
194, 310, 358, 362, 314, 312, 360, 363, 315
195, 313, 361, 364, 316, 314, 362, 365, 317
196, 314, 362, 365, 317, 315, 363, 366, 318
197, 316, 364, 347, 299, 317, 365, 367, 319
198, 317, 365, 367, 319, 318, 366, 368, 320
199, 299, 347, 348, 300, 319, 367, 369, 321
200, 319, 367, 369, 321, 320, 368, 370, 322
201, 300, 348, 354, 306, 321, 369, 371, 323
202, 321, 369, 371, 323, 322, 370, 372, 324
203, 306, 354, 373, 325, 323, 371, 374, 326
204, 323, 371, 374, 326, 324, 372, 375, 327
205, 325, 373, 376, 328, 326, 374, 377, 329
206, 326, 374, 377, 329, 327, 375, 378, 330
207, 328, 376, 379, 331, 329, 377, 380, 332
208, 329, 377, 380, 332, 330, 378, 381, 333
209, 331, 379, 382, 334, 332, 380, 383, 335
210, 332, 380, 383, 335, 333, 381, 384, 336
211, 337, 385, 386, 338, 339, 387, 388, 340
212, 339, 387, 388, 340, 341, 389, 390, 342
213, 341, 389, 390, 342, 343, 391, 392, 344
214, 343, 391, 392, 344, 345, 393, 394, 346
215, 345, 393, 394, 346, 347, 395, 396, 348
216, 338, 386, 397, 349, 340, 388, 398, 350
217, 340, 388, 398, 350, 342, 390, 399, 351
218, 342, 390, 399, 351, 344, 392, 400, 352
219, 344, 392, 400, 352, 346, 394, 401, 353
220, 346, 394, 401, 353, 348, 396, 402, 354
221, 355, 403, 404, 356, 357, 405, 406, 358
222, 357, 405, 406, 358, 359, 407, 408, 360
223, 356, 404, 409, 361, 358, 406, 410, 362
224, 358, 406, 410, 362, 360, 408, 411, 363
225, 361, 409, 412, 364, 362, 410, 413, 365
226, 362, 410, 413, 365, 363, 411, 414, 366
227, 364, 412, 395, 347, 365, 413, 415, 367
228, 365, 413, 415, 367, 366, 414, 416, 368
229, 347, 395, 396, 348, 367, 415, 417, 369
230, 367, 415, 417, 369, 368, 416, 418, 370
231, 348, 396, 402, 354, 369, 417, 419, 371
232, 369, 417, 419, 371, 370, 418, 420, 372
233, 354, 402, 421, 373, 371, 419, 422, 374
234, 371, 419, 422, 374, 372, 420, 423, 375
235, 373, 421, 424, 376, 374, 422, 425, 377
236, 374, 422, 425, 377, 375, 423, 426, 378
237, 376, 424, 427, 379, 377, 425, 428, 380
238, 377, 425, 428, 380, 378, 426, 429, 381
239, 379, 427, 430, 382, 380, 428, 431, 383
240, 380, 428, 431, 383, 381, 429, 432, 384
241, 385, 433, 434, 386, 387, 435, 436, 388
242, 387, 435, 436, 388, 389, 437, 438, 390
243, 389, 437, 438, 390, 391, 439, 440, 392
244, 391, 439, 440, 392, 393, 441, 442, 394
245, 393, 441, 442, 394, 395, 443, 444, 396
246, 386, 434, 445, 397, 388, 436, 446, 398
247, 388, 436, 446, 398, 390, 438, 447, 399
248, 390, 438, 447, 399, 392, 440, 448, 400
249, 392, 440, 448, 400, 394, 442, 449, 401
250, 394, 442, 449, 401, 396, 444, 450, 402
251, 403, 451, 452, 404, 405, 453, 454, 406
252, 405, 453, 454, 406, 407, 455, 456, 408
253, 404, 452, 457, 409, 406, 454, 458, 410
254, 406, 454, 458, 410, 408, 456, 459, 411
255, 409, 457, 460, 412, 410, 458, 461, 413
256, 410, 458, 461, 413, 411, 459, 462, 414
257, 412, 460, 443, 395, 413, 461, 463, 415
258, 413, 461, 463, 415, 414, 462, 464, 416
259, 395, 443, 444, 396, 415, 463, 465, 417
260, 415, 463, 465, 417, 416, 464, 466, 418
261, 396, 444, 450, 402, 417, 465, 467, 419
262, 417, 465, 467, 419, 418, 466, 468, 420
263, 402, 450, 469, 421, 419, 467, 470, 422
264, 419, 467, 470, 422, 420, 468, 471, 423
265, 421, 469, 472, 424, 422, 470, 473, 425
266, 422, 470, 473, 425, 423, 471, 474, 426
267, 424, 472, 475, 427, 425, 473, 476, 428
268, 425, 473, 476, 428, 426, 474, 477, 429
269, 427, 475, 478, 430, 428, 476, 479, 431
270, 428, 476, 479, 431, 429, 477, 480, 432
271, 433, 481, 482, 434, 435, 483, 484, 436
272, 435, 483, 484, 436, 437, 485, 486, 438
273, 437, 485, 486, 438, 439, 487, 488, 440
274, 439, 487, 488, 440, 441, 489, 490, 442
275, 441, 489, 490, 442, 443, 491, 492, 444
276, 434, 482, 493, 445, 436, 484, 494, 446
277, 436, 484, 494, 446, 438, 486, 495, 447
278, 438, 486, 495, 447, 440, 488, 496, 448
279, 440, 488, 496, 448, 442, 490, 497, 449
280, 442, 490, 497, 449, 444, 492, 498, 450
281, 451, 499, 500, 452, 453, 501, 502, 454
282, 453, 501, 502, 454, 455, 503, 504, 456
283, 452, 500, 505, 457, 454, 502, 506, 458
284, 454, 502, 506, 458, 456, 504, 507, 459
285, 457, 505, 508, 460, 458, 506, 509, 461
286, 458, 506, 509, 461, 459, 507, 510, 462
287, 460, 508, 491, 443, 461, 509, 511, 463
288, 461, 509, 511, 463, 462, 510, 512, 464
289, 443, 491, 492, 444, 463, 511, 513, 465
290, 463, 511, 513, 465, 464, 512, 514, 466
291, 444, 492, 498, 450, 465, 513, 515, 467
292, 465, 513, 515, 467, 466, 514, 516, 468
293, 450, 498, 517, 469, 467, 515, 518, 470
294, 467, 515, 518, 470, 468, 516, 519, 471
295, 469, 517, 520, 472, 470, 518, 521, 473
296, 470, 518, 521, 473, 471, 519, 522, 474
297, 472, 520, 523, 475, 473, 521, 524, 476
298, 473, 521, 524, 476, 474, 522, 525, 477
299, 475, 523, 526, 478, 476, 524, 527, 479
300, 476, 524, 527, 479, 477, 525, 528, 480
301, 481, 529, 530, 482, 483, 531, 532, 484
302, 483, 531, 532, 484, 485, 533, 534, 486
303, 485, 533, 534, 486, 487, 535, 536, 488
304, 487, 535, 536, 488, 489, 537, 538, 490
305, 489, 537, 538, 490, 491, 539, 540, 492
306, 482, 530, 541, 493, 484, 532, 542, 494
307, 484, 532, 542, 494, 486, 534, 543, 495
308, 486, 534, 543, 495, 488, 536, 544, 496
309, 488, 536, 544, 496, 490, 538, 545, 497
310, 490, 538, 545, 497, 492, 540, 546, 498
311, 499, 547, 548, 500, 501, 549, 550, 502
312, 501, 549, 550, 502, 503, 551, 552, 504
313, 500, 548, 553, 505, 502, 550, 554, 506
314, 502, 550, 554, 506, 504, 552, 555, 507
315, 505, 553, 556, 508, 506, 554, 557, 509
316, 506, 554, 557, 509, 507, 555, 558, 510
317, 508, 556, 539, 491, 509, 557, 559, 511
318, 509, 557, 559, 511, 510, 558, 560, 512
319, 491, 539, 540, 492, 511, 559, 561, 513
320, 511, 559, 561, 513, 512, 560, 562, 514
321, 492, 540, 546, 498, 513, 561, 563, 515
322, 513, 561, 563, 515, 514, 562, 564, 516
323, 498, 546, 565, 517, 515, 563, 566, 518
324, 515, 563, 566, 518, 516, 564, 567, 519
325, 517, 565, 568, 520, 518, 566, 569, 521
326, 518, 566, 569, 521, 519, 567, 570, 522
327, 520, 568, 571, 523, 521, 569, 572, 524
328, 521, 569, 572, 524, 522, 570, 573, 525
329, 523, 571, 574, 526, 524, 572, 575, 527
330, 524, 572, 575, 527, 525, 573, 576, 528
331, 529, 577, 578, 530, 531, 579, 580, 532
332, 531, 579, 580, 532, 533, 581, 582, 534
333, 533, 581, 582, 534, 535, 583, 584, 536
334, 535, 583, 584, 536, 537, 585, 586, 538
335, 537, 585, 586, 538, 539, 587, 588, 540
336, 530, 578, 589, 541, 532, 580, 590, 542
337, 532, 580, 590, 542, 534, 582, 591, 543
338, 534, 582, 591, 543, 536, 584, 592, 544
339, 536, 584, 592, 544, 538, 586, 593, 545
340, 538, 586, 593, 545, 540, 588, 594, 546
341, 547, 595, 596, 548, 549, 597, 598, 550
342, 549, 597, 598, 550, 551, 599, 600, 552
343, 548, 596, 601, 553, 550, 598, 602, 554
344, 550, 598, 602, 554, 552, 600, 603, 555
345, 553, 601, 604, 556, 554, 602, 605, 557
346, 554, 602, 605, 557, 555, 603, 606, 558
347, 556, 604, 587, 539, 557, 605, 607, 559
348, 557, 605, 607, 559, 558, 606, 608, 560
349, 539, 587, 588, 540, 559, 607, 609, 561
350, 559, 607, 609, 561, 560, 608, 610, 562
351, 540, 588, 594, 546, 561, 609, 611, 563
352, 561, 609, 611, 563, 562, 610, 612, 564
353, 546, 594, 613, 565, 563, 611, 614, 566
354, 563, 611, 614, 566, 564, 612, 615, 567
355, 565, 613, 616, 568, 566, 614, 617, 569
356, 566, 614, 617, 569, 567, 615, 618, 570
357, 568, 616, 619, 571, 569, 617, 620, 572
358, 569, 617, 620, 572, 570, 618, 621, 573
359, 571, 619, 622, 574, 572, 620, 623, 575
360, 572, 620, 623, 575, 573, 621, 624, 576
361, 577, 625, 626, 578, 579, 627, 628, 580
362, 579, 627, 628, 580, 581, 629, 630, 582
363, 581, 629, 630, 582, 583, 631, 632, 584
364, 583, 631, 632, 584, 585, 633, 634, 586
365, 585, 633, 634, 586, 587, 635, 636, 588
366, 578, 626, 637, 589, 580, 628, 638, 590
367, 580, 628, 638, 590, 582, 630, 639, 591
368, 582, 630, 639, 591, 584, 632, 640, 592
369, 584, 632, 640, 592, 586, 634, 641, 593
370, 586, 634, 641, 593, 588, 636, 642, 594
371, 595, 643, 644, 596, 597, 645, 646, 598
372, 597, 645, 646, 598, 599, 647, 648, 600
373, 596, 644, 649, 601, 598, 646, 650, 602
374, 598, 646, 650, 602, 600, 648, 651, 603
375, 601, 649, 652, 604, 602, 650, 653, 605
376, 602, 650, 653, 605, 603, 651, 654, 606
377, 604, 652, 635, 587, 605, 653, 655, 607
378, 605, 653, 655, 607, 606, 654, 656, 608
379, 587, 635, 636, 588, 607, 655, 657, 609
380, 607, 655, 657, 609, 608, 656, 658, 610
381, 588, 636, 642, 594, 609, 657, 659, 611
382, 609, 657, 659, 611, 610, 658, 660, 612
383, 594, 642, 661, 613, 611, 659, 662, 614
384, 611, 659, 662, 614, 612, 660, 663, 615
385, 613, 661, 664, 616, 614, 662, 665, 617
386, 614, 662, 665, 617, 615, 663, 666, 618
387, 616, 664, 667, 619, 617, 665, 668, 620
388, 617, 665, 668, 620, 618, 666, 669, 621
389, 619, 667, 670, 622, 620, 668, 671, 623
390, 620, 668, 671, 623, 621, 669, 672, 624
391, 625, 673, 674, 626, 627, 675, 676, 628
392, 627, 675, 676, 628, 629, 677, 678, 630
393, 629, 677, 678, 630, 631, 679, 680, 632
394, 631, 679, 680, 632, 633, 681, 682, 634
395, 633, 681, 682, 634, 635, 683, 684, 636
396, 626, 674, 685, 637, 628, 676, 686, 638
397, 628, 676, 686, 638, 630, 678, 687, 639
398, 630, 678, 687, 639, 632, 680, 688, 640
399, 632, 680, 688, 640, 634, 682, 689, 641
400, 634, 682, 689, 641, 636, 684, 690, 642
401, 643, 691, 692, 644, 645, 693, 694, 646
402, 645, 693, 694, 646, 647, 695, 696, 648
403, 644, 692, 697, 649, 646, 694, 698, 650
404, 646, 694, 698, 650, 648, 696, 699, 651
405, 649, 697, 700, 652, 650, 698, 701, 653
406, 650, 698, 701, 653, 651, 699, 702, 654
407, 652, 700, 683, 635, 653, 701, 703, 655
408, 653, 701, 703, 655, 654, 702, 704, 656
409, 635, 683, 684, 636, 655, 703, 705, 657
410, 655, 703, 705, 657, 656, 704, 706, 658
411, 636, 684, 690, 642, 657, 705, 707, 659
412, 657, 705, 707, 659, 658, 706, 708, 660
413, 642, 690, 709, 661, 659, 707, 710, 662
414, 659, 707, 710, 662, 660, 708, 711, 663
415, 661, 709, 712, 664, 662, 710, 713, 665
416, 662, 710, 713, 665, 663, 711, 714, 666
417, 664, 712, 715, 667, 665, 713, 716, 668
418, 665, 713, 716, 668, 666, 714, 717, 669
419, 667, 715, 718, 670, 668, 716, 719, 671
420, 668, 716, 719, 671, 669, 717, 720, 672
421, 673, 721, 722, 674, 675, 723, 724, 676
422, 675, 723, 724, 676, 677, 725, 726, 678
423, 677, 725, 726, 678, 679, 727, 728, 680
424, 679, 727, 728, 680, 681, 729, 730, 682
425, 681, 729, 730, 682, 683, 731, 732, 684
426, 674, 722, 733, 685, 676, 724, 734, 686
427, 676, 724, 734, 686, 678, 726, 735, 687
428, 678, 726, 735, 687, 680, 728, 736, 688
429, 680, 728, 736, 688, 682, 730, 737, 689
430, 682, 730, 737, 689, 684, 732, 738, 690
431, 691, 739, 740, 692, 693, 741, 742, 694
432, 693, 741, 742, 694, 695, 743, 744, 696
433, 692, 740, 745, 697, 694, 742, 746, 698
434, 694, 742, 746, 698, 696, 744, 747, 699
435, 697, 745, 748, 700, 698, 746, 749, 701
436, 698, 746, 749, 701, 699, 747, 750, 702
437, 700, 748, 731, 683, 701, 749, 751, 703
438, 701, 749, 751, 703, 702, 750, 752, 704
439, 683, 731, 732, 684, 703, 751, 753, 705
440, 703, 751, 753, 705, 704, 752, 754, 706
441, 684, 732, 738, 690, 705, 753, 755, 707
442, 705, 753, 755, 707, 706, 754, 756, 708
443, 690, 738, 757, 709, 707, 755, 758, 710
444, 707, 755, 758, 710, 708, 756, 759, 711
445, 709, 757, 760, 712, 710, 758, 761, 713
446, 710, 758, 761, 713, 711, 759, 762, 714
447, 712, 760, 763, 715, 713, 761, 764, 716
448, 713, 761, 764, 716, 714, 762, 765, 717
449, 715, 763, 766, 718, 716, 764, 767, 719
450, 716, 764, 767, 719, 717, 765, 768, 720
451, 721, 769, 770, 722, 723, 771, 772, 724
452, 723, 771, 772, 724, 725, 773, 774, 726
453, 725, 773, 774, 726, 727, 775, 776, 728
454, 727, 775, 776, 728, 729, 777, 778, 730
455, 729, 777, 778, 730, 731, 779, 780, 732
456, 722, 770, 781, 733, 724, 772, 782, 734
457, 724, 772, 782, 734, 726, 774, 783, 735
458, 726, 774, 783, 735, 728, 776, 784, 736
459, 728, 776, 784, 736, 730, 778, 785, 737
460, 730, 778, 785, 737, 732, 780, 786, 738
461, 739, 787, 788, 740, 741, 789, 790, 742
462, 741, 789, 790, 742, 743, 791, 792, 744
463, 740, 788, 793, 745, 742, 790, 794, 746
464, 742, 790, 794, 746, 744, 792, 795, 747
465, 745, 793, 796, 748, 746, 794, 797, 749
466, 746, 794, 797, 749, 747, 795, 798, 750
467, 748, 796, 779, 731, 749, 797, 799, 751
468, 749, 797, 799, 751, 750, 798, 800, 752
469, 731, 779, 780, 732, 751, 799, 801, 753
470, 751, 799, 801, 753, 752, 800, 802, 754
471, 732, 780, 786, 738, 753, 801, 803, 755
472, 753, 801, 803, 755, 754, 802, 804, 756
473, 738, 786, 805, 757, 755, 803, 806, 758
474, 755, 803, 806, 758, 756, 804, 807, 759
475, 757, 805, 808, 760, 758, 806, 809, 761
476, 758, 806, 809, 761, 759, 807, 810, 762
477, 760, 808, 811, 763, 761, 809, 812, 764
478, 761, 809, 812, 764, 762, 810, 813, 765
479, 763, 811, 814, 766, 764, 812, 815, 767
480, 764, 812, 815, 767, 765, 813, 816, 768
481, 769, 817, 818, 770, 771, 819, 820, 772
482, 771, 819, 820, 772, 773, 821, 822, 774
483, 773, 821, 822, 774, 775, 823, 824, 776
484, 775, 823, 824, 776, 777, 825, 826, 778
485, 777, 825, 826, 778, 779, 827, 828, 780
486, 770, 818, 829, 781, 772, 820, 830, 782
487, 772, 820, 830, 782, 774, 822, 831, 783
488, 774, 822, 831, 783, 776, 824, 832, 784
489, 776, 824, 832, 784, 778, 826, 833, 785
490, 778, 826, 833, 785, 780, 828, 834, 786
491, 787, 835, 836, 788, 789, 837, 838, 790
492, 789, 837, 838, 790, 791, 839, 840, 792
493, 788, 836, 841, 793, 790, 838, 842, 794
494, 790, 838, 842, 794, 792, 840, 843, 795
495, 793, 841, 844, 796, 794, 842, 845, 797
496, 794, 842, 845, 797, 795, 843, 846, 798
497, 796, 844, 827, 779, 797, 845, 847, 799
498, 797, 845, 847, 799, 798, 846, 848, 800
499, 779, 827, 828, 780, 799, 847, 849, 801
500, 799, 847, 849, 801, 800, 848, 850, 802
501, 780, 828, 834, 786, 801, 849, 851, 803
502, 801, 849, 851, 803, 802, 850, 852, 804
503, 786, 834, 853, 805, 803, 851, 854, 806
504, 803, 851, 854, 806, 804, 852, 855, 807
505, 805, 853, 856, 808, 806, 854, 857, 809
506, 806, 854, 857, 809, 807, 855, 858, 810
507, 808, 856, 859, 811, 809, 857, 860, 812
508, 809, 857, 860, 812, 810, 858, 861, 813
509, 811, 859, 862, 814, 812, 860, 863, 815
510, 812, 860, 863, 815, 813, 861, 864, 816
511, 817, 865, 866, 818, 819, 867, 868, 820
512, 819, 867, 868, 820, 821, 869, 870, 822
513, 821, 869, 870, 822, 823, 871, 872, 824
514, 823, 871, 872, 824, 825, 873, 874, 826
515, 825, 873, 874, 826, 827, 875, 876, 828
516, 818, 866, 877, 829, 820, 868, 878, 830
517, 820, 868, 878, 830, 822, 870, 879, 831
518, 822, 870, 879, 831, 824, 872, 880, 832
519, 824, 872, 880, 832, 826, 874, 881, 833
520, 826, 874, 881, 833, 828, 876, 882, 834
521, 835, 883, 884, 836, 837, 885, 886, 838
522, 837, 885, 886, 838, 839, 887, 888, 840
523, 836, 884, 889, 841, 838, 886, 890, 842
524, 838, 886, 890, 842, 840, 888, 891, 843
525, 841, 889, 892, 844, 842, 890, 893, 845
526, 842, 890, 893, 845, 843, 891, 894, 846
527, 844, 892, 875, 827, 845, 893, 895, 847
528, 845, 893, 895, 847, 846, 894, 896, 848
529, 827, 875, 876, 828, 847, 895, 897, 849
530, 847, 895, 897, 849, 848, 896, 898, 850
531, 828, 876, 882, 834, 849, 897, 899, 851
532, 849, 897, 899, 851, 850, 898, 900, 852
533, 834, 882, 901, 853, 851, 899, 902, 854
534, 851, 899, 902, 854, 852, 900, 903, 855
535, 853, 901, 904, 856, 854, 902, 905, 857
536, 854, 902, 905, 857, 855, 903, 906, 858
537, 856, 904, 907, 859, 857, 905, 908, 860
538, 857, 905, 908, 860, 858, 906, 909, 861
539, 859, 907, 910, 862, 860, 908, 911, 863
540, 860, 908, 911, 863, 861, 909, 912, 864
*NSET, NSET=CLAMP
1, 4, 5, 8, 9, 12, 13, 16, 17, 20, 21, 24, 26, 28, 30, 32
34, 36, 37, 40, 41, 44, 45, 48, 50, 52, 54, 56, 58, 60, 62, 64
66, 68, 70, 72, 74, 76, 78, 80, 82, 84, 86, 88, 90, 92, 94, 96
*NSET, NSET=TIP_TOP
887, 888, 891, 894, 896, 898, 900, 903, 906, 909, 912
*NSET, NSET=TIP_FLANGE
887, 888, 891, 894, 896, 898, 900, 903, 906, 909, 912
*MATERIAL, NAME=STEEL
*ELASTIC
210000, 0.3
*SOLID SECTION, ELSET=EALL, MATERIAL=STEEL
*BOUNDARY
CLAMP, 1, 3, 0.0
*STEP
*STATIC
*CLOAD
887, 3, -454.545454545
888, 3, -454.545454545
891, 3, -454.545454545
894, 3, -454.545454545
896, 3, -454.545454545
898, 3, -454.545454545
900, 3, -454.545454545
903, 3, -454.545454545
906, 3, -454.545454545
909, 3, -454.545454545
912, 3, -454.545454545
*NODE FILE
U
*EL FILE
S, ENER
*NODE PRINT, NSET=TIP_TOP
U
*NODE PRINT, NSET=CLAMP
RF
*EL PRINT, ELSET=EALL
ELSE
*ENERGY PRINT
*END STEP
