*HEADING
Normalized cross-passage space-truss torsion benchmark
*NODE
1,-1.200000000000e+00,0.000000000000e+00,0.000000000000e+00
2,1.200000000000e+00,0.000000000000e+00,0.000000000000e+00
3,-1.200000000000e+00,0.000000000000e+00,2.000000000000e+00
4,1.200000000000e+00,0.000000000000e+00,2.000000000000e+00
5,-1.200000000000e+00,1.000000000000e+01,0.000000000000e+00
6,1.200000000000e+00,1.000000000000e+01,0.000000000000e+00
7,-1.200000000000e+00,1.000000000000e+01,2.000000000000e+00
8,1.200000000000e+00,1.000000000000e+01,2.000000000000e+00
9,-1.200000000000e+00,2.000000000000e+01,0.000000000000e+00
10,1.200000000000e+00,2.000000000000e+01,0.000000000000e+00
11,-1.200000000000e+00,2.000000000000e+01,2.000000000000e+00
12,1.200000000000e+00,2.000000000000e+01,2.000000000000e+00
13,-1.200000000000e+00,3.000000000000e+01,0.000000000000e+00
14,1.200000000000e+00,3.000000000000e+01,0.000000000000e+00
15,-1.200000000000e+00,3.000000000000e+01,2.000000000000e+00
16,1.200000000000e+00,3.000000000000e+01,2.000000000000e+00
17,-1.200000000000e+00,4.000000000000e+01,0.000000000000e+00
18,1.200000000000e+00,4.000000000000e+01,0.000000000000e+00
19,-1.200000000000e+00,4.000000000000e+01,2.000000000000e+00
20,1.200000000000e+00,4.000000000000e+01,2.000000000000e+00
21,-1.200000000000e+00,5.000000000000e+01,0.000000000000e+00
22,1.200000000000e+00,5.000000000000e+01,0.000000000000e+00
23,-1.200000000000e+00,5.000000000000e+01,2.000000000000e+00
24,1.200000000000e+00,5.000000000000e+01,2.000000000000e+00
25,-1.200000000000e+00,2.500000000000e+00,-1.060660171780e-01
26,-1.200000000000e+00,5.000000000000e+00,-1.500000000000e-01
27,-1.200000000000e+00,7.500000000000e+00,-1.060660171780e-01
28,1.200000000000e+00,2.500000000000e+00,1.060660171780e-01
29,1.200000000000e+00,5.000000000000e+00,1.500000000000e-01
30,1.200000000000e+00,7.500000000000e+00,1.060660171780e-01
31,-1.200000000000e+00,2.500000000000e+00,1.893933982822e+00
32,-1.200000000000e+00,5.000000000000e+00,1.850000000000e+00
33,-1.200000000000e+00,7.500000000000e+00,1.893933982822e+00
34,1.200000000000e+00,2.500000000000e+00,2.106066017178e+00
35,1.200000000000e+00,5.000000000000e+00,2.150000000000e+00
36,1.200000000000e+00,7.500000000000e+00,2.106066017178e+00
37,-1.200000000000e+00,2.500000000000e+01,-1.500000000000e-01
38,1.200000000000e+00,2.500000000000e+01,1.500000000000e-01
39,-1.200000000000e+00,2.500000000000e+01,1.850000000000e+00
40,1.200000000000e+00,2.500000000000e+01,2.150000000000e+00
41,-1.200000000000e+00,3.250000000000e+01,-1.060660171780e-01
42,-1.200000000000e+00,3.500000000000e+01,-1.500000000000e-01
43,-1.200000000000e+00,3.750000000000e+01,-1.060660171780e-01
44,1.200000000000e+00,3.250000000000e+01,1.060660171780e-01
45,1.200000000000e+00,3.500000000000e+01,1.500000000000e-01
46,1.200000000000e+00,3.750000000000e+01,1.060660171780e-01
47,-1.200000000000e+00,3.250000000000e+01,1.893933982822e+00
48,-1.200000000000e+00,3.500000000000e+01,1.850000000000e+00
49,-1.200000000000e+00,3.750000000000e+01,1.893933982822e+00
50,1.200000000000e+00,3.250000000000e+01,2.106066017178e+00
51,1.200000000000e+00,3.500000000000e+01,2.150000000000e+00
52,1.200000000000e+00,3.750000000000e+01,2.106066017178e+00
53,-1.200000000000e+00,4.250000000000e+01,-1.060660171780e-01
54,-1.200000000000e+00,4.500000000000e+01,-1.500000000000e-01
55,-1.200000000000e+00,4.750000000000e+01,-1.060660171780e-01
56,1.200000000000e+00,4.250000000000e+01,1.060660171780e-01
57,1.200000000000e+00,4.500000000000e+01,1.500000000000e-01
58,1.200000000000e+00,4.750000000000e+01,1.060660171780e-01
59,-1.200000000000e+00,4.250000000000e+01,1.893933982822e+00
60,-1.200000000000e+00,4.500000000000e+01,1.850000000000e+00
61,-1.200000000000e+00,4.750000000000e+01,1.893933982822e+00
62,1.200000000000e+00,4.250000000000e+01,2.106066017178e+00
63,1.200000000000e+00,4.500000000000e+01,2.150000000000e+00
64,1.200000000000e+00,4.750000000000e+01,2.106066017178e+00
65,-6.000000000000e-01,-2.545584412272e-02,0.000000000000e+00
66,0.000000000000e+00,-3.600000000000e-02,0.000000000000e+00
67,6.000000000000e-01,-2.545584412272e-02,0.000000000000e+00
68,-6.000000000000e-01,2.545584412272e-02,2.000000000000e+00
69,0.000000000000e+00,3.600000000000e-02,2.000000000000e+00
70,6.000000000000e-01,2.545584412272e-02,2.000000000000e+00
71,-1.200000000000e+00,2.121320343560e-02,5.000000000000e-01
72,-1.200000000000e+00,3.000000000000e-02,1.000000000000e+00
73,-1.200000000000e+00,2.121320343560e-02,1.500000000000e+00
74,1.200000000000e+00,-2.121320343560e-02,5.000000000000e-01
75,1.200000000000e+00,-3.000000000000e-02,1.000000000000e+00
76,1.200000000000e+00,-2.121320343560e-02,1.500000000000e+00
77,0.000000000000e+00,1.996400000000e+01,0.000000000000e+00
78,0.000000000000e+00,2.003600000000e+01,2.000000000000e+00
79,-1.200000000000e+00,2.003000000000e+01,1.000000000000e+00
80,1.200000000000e+00,1.997000000000e+01,1.000000000000e+00
81,-6.000000000000e-01,2.997454415588e+01,0.000000000000e+00
82,0.000000000000e+00,2.996400000000e+01,0.000000000000e+00
83,6.000000000000e-01,2.997454415588e+01,0.000000000000e+00
84,-6.000000000000e-01,3.002545584412e+01,2.000000000000e+00
85,0.000000000000e+00,3.003600000000e+01,2.000000000000e+00
86,6.000000000000e-01,3.002545584412e+01,2.000000000000e+00
87,-1.200000000000e+00,3.002121320344e+01,5.000000000000e-01
88,-1.200000000000e+00,3.003000000000e+01,1.000000000000e+00
89,-1.200000000000e+00,3.002121320344e+01,1.500000000000e+00
90,1.200000000000e+00,2.997878679656e+01,5.000000000000e-01
91,1.200000000000e+00,2.997000000000e+01,1.000000000000e+00
92,1.200000000000e+00,2.997878679656e+01,1.500000000000e+00
93,-9.000000000000e-01,3.998622339643e+01,0.000000000000e+00
94,-6.000000000000e-01,3.997454415588e+01,0.000000000000e+00
95,-3.000000000000e-01,3.996674033683e+01,0.000000000000e+00
96,0.000000000000e+00,3.996400000000e+01,0.000000000000e+00
97,3.000000000000e-01,3.996674033683e+01,0.000000000000e+00
98,6.000000000000e-01,3.997454415588e+01,0.000000000000e+00
99,9.000000000000e-01,3.998622339643e+01,0.000000000000e+00
100,-9.000000000000e-01,4.001377660357e+01,2.000000000000e+00
101,-6.000000000000e-01,4.002545584412e+01,2.000000000000e+00
102,-3.000000000000e-01,4.003325966317e+01,2.000000000000e+00
103,0.000000000000e+00,4.003600000000e+01,2.000000000000e+00
104,3.000000000000e-01,4.003325966317e+01,2.000000000000e+00
105,6.000000000000e-01,4.002545584412e+01,2.000000000000e+00
106,9.000000000000e-01,4.001377660357e+01,2.000000000000e+00
107,-1.200000000000e+00,4.001148050297e+01,2.500000000000e-01
108,-1.200000000000e+00,4.002121320344e+01,5.000000000000e-01
109,-1.200000000000e+00,4.002771638598e+01,7.500000000000e-01
110,-1.200000000000e+00,4.003000000000e+01,1.000000000000e+00
111,-1.200000000000e+00,4.002771638598e+01,1.250000000000e+00
112,-1.200000000000e+00,4.002121320344e+01,1.500000000000e+00
113,-1.200000000000e+00,4.001148050297e+01,1.750000000000e+00
114,1.200000000000e+00,3.998851949703e+01,2.500000000000e-01
115,1.200000000000e+00,3.997878679656e+01,5.000000000000e-01
116,1.200000000000e+00,3.997228361402e+01,7.500000000000e-01
117,1.200000000000e+00,3.997000000000e+01,1.000000000000e+00
118,1.200000000000e+00,3.997228361402e+01,1.250000000000e+00
119,1.200000000000e+00,3.997878679656e+01,1.500000000000e+00
120,1.200000000000e+00,3.998851949703e+01,1.750000000000e+00
121,-6.000000000000e-01,4.997454415588e+01,0.000000000000e+00
122,0.000000000000e+00,4.996400000000e+01,0.000000000000e+00
123,6.000000000000e-01,4.997454415588e+01,0.000000000000e+00
124,-6.000000000000e-01,5.002545584412e+01,2.000000000000e+00
125,0.000000000000e+00,5.003600000000e+01,2.000000000000e+00
126,6.000000000000e-01,5.002545584412e+01,2.000000000000e+00
127,-1.200000000000e+00,5.002121320344e+01,5.000000000000e-01
128,-1.200000000000e+00,5.003000000000e+01,1.000000000000e+00
129,-1.200000000000e+00,5.002121320344e+01,1.500000000000e+00
130,1.200000000000e+00,4.997878679656e+01,5.000000000000e-01
131,1.200000000000e+00,4.997000000000e+01,1.000000000000e+00
132,1.200000000000e+00,4.997878679656e+01,1.500000000000e+00
133,-1.200000000000e+00,2.521213203436e+00,3.939339828220e-01
134,-1.200000000000e+00,5.030000000000e+00,8.500000000000e-01
135,-1.200000000000e+00,7.521213203436e+00,1.393933982822e+00
136,-1.200000000000e+00,2.521213203436e+00,1.606066017178e+00
137,-1.200000000000e+00,5.030000000000e+00,1.150000000000e+00
138,-1.200000000000e+00,7.521213203436e+00,6.060660171780e-01
139,1.200000000000e+00,2.521213203436e+00,3.939339828220e-01
140,1.200000000000e+00,5.030000000000e+00,8.500000000000e-01
141,1.200000000000e+00,7.521213203436e+00,1.393933982822e+00
142,1.200000000000e+00,2.521213203436e+00,1.606066017178e+00
143,1.200000000000e+00,5.030000000000e+00,1.150000000000e+00
144,1.200000000000e+00,7.521213203436e+00,6.060660171780e-01
145,-4.939339828220e-01,2.474544155877e+00,0.000000000000e+00
146,1.500000000000e-01,4.964000000000e+00,0.000000000000e+00
147,7.060660171780e-01,7.474544155877e+00,0.000000000000e+00
148,4.939339828220e-01,2.474544155877e+00,0.000000000000e+00
149,-1.500000000000e-01,4.964000000000e+00,0.000000000000e+00
150,-7.060660171780e-01,7.474544155877e+00,0.000000000000e+00
151,-4.939339828220e-01,2.474544155877e+00,2.000000000000e+00
152,1.500000000000e-01,4.964000000000e+00,2.000000000000e+00
153,7.060660171780e-01,7.474544155877e+00,2.000000000000e+00
154,4.939339828220e-01,2.474544155877e+00,2.000000000000e+00
155,-1.500000000000e-01,4.964000000000e+00,2.000000000000e+00
156,-7.060660171780e-01,7.474544155877e+00,2.000000000000e+00
157,-1.200000000000e+00,2.252121320344e+01,3.939339828220e-01
158,-1.200000000000e+00,2.503000000000e+01,8.500000000000e-01
159,-1.200000000000e+00,2.752121320344e+01,1.393933982822e+00
160,-1.200000000000e+00,2.252121320344e+01,1.606066017178e+00
161,-1.200000000000e+00,2.503000000000e+01,1.150000000000e+00
162,-1.200000000000e+00,2.752121320344e+01,6.060660171780e-01
163,1.200000000000e+00,2.252121320344e+01,3.939339828220e-01
164,1.200000000000e+00,2.503000000000e+01,8.500000000000e-01
165,1.200000000000e+00,2.752121320344e+01,1.393933982822e+00
166,1.200000000000e+00,2.252121320344e+01,1.606066017178e+00
167,1.200000000000e+00,2.503000000000e+01,1.150000000000e+00
168,1.200000000000e+00,2.752121320344e+01,6.060660171780e-01
169,-4.939339828220e-01,2.247454415588e+01,0.000000000000e+00
170,1.500000000000e-01,2.496400000000e+01,0.000000000000e+00
171,7.060660171780e-01,2.747454415588e+01,0.000000000000e+00
172,4.939339828220e-01,2.247454415588e+01,0.000000000000e+00
173,-1.500000000000e-01,2.496400000000e+01,0.000000000000e+00
174,-7.060660171780e-01,2.747454415588e+01,0.000000000000e+00
175,-4.939339828220e-01,2.247454415588e+01,2.000000000000e+00
176,1.500000000000e-01,2.496400000000e+01,2.000000000000e+00
177,7.060660171780e-01,2.747454415588e+01,2.000000000000e+00
178,4.939339828220e-01,2.247454415588e+01,2.000000000000e+00
179,-1.500000000000e-01,2.496400000000e+01,2.000000000000e+00
180,-7.060660171780e-01,2.747454415588e+01,2.000000000000e+00
181,-1.200000000000e+00,3.126148050297e+01,1.925974851452e-01
182,-1.200000000000e+00,3.252121320344e+01,3.939339828220e-01
183,-1.200000000000e+00,3.377771638598e+01,6.114180701233e-01
184,-1.200000000000e+00,3.503000000000e+01,8.500000000000e-01
185,-1.200000000000e+00,3.627771638598e+01,1.111418070123e+00
186,-1.200000000000e+00,3.752121320344e+01,1.393933982822e+00
187,-1.200000000000e+00,3.876148050297e+01,1.692597485145e+00
188,-1.200000000000e+00,3.126148050297e+01,1.807402514855e+00
189,-1.200000000000e+00,3.252121320344e+01,1.606066017178e+00
190,-1.200000000000e+00,3.377771638598e+01,1.388581929877e+00
191,-1.200000000000e+00,3.503000000000e+01,1.150000000000e+00
192,-1.200000000000e+00,3.627771638598e+01,8.885819298767e-01
193,-1.200000000000e+00,3.752121320344e+01,6.060660171780e-01
194,-1.200000000000e+00,3.876148050297e+01,3.074025148548e-01
195,1.200000000000e+00,3.126148050297e+01,1.925974851452e-01
196,1.200000000000e+00,3.252121320344e+01,3.939339828220e-01
197,1.200000000000e+00,3.377771638598e+01,6.114180701233e-01
198,1.200000000000e+00,3.503000000000e+01,8.500000000000e-01
199,1.200000000000e+00,3.627771638598e+01,1.111418070123e+00
200,1.200000000000e+00,3.752121320344e+01,1.393933982822e+00
201,1.200000000000e+00,3.876148050297e+01,1.692597485145e+00
202,1.200000000000e+00,3.126148050297e+01,1.807402514855e+00
203,1.200000000000e+00,3.252121320344e+01,1.606066017178e+00
204,1.200000000000e+00,3.377771638598e+01,1.388581929877e+00
205,1.200000000000e+00,3.503000000000e+01,1.150000000000e+00
206,1.200000000000e+00,3.627771638598e+01,8.885819298767e-01
207,1.200000000000e+00,3.752121320344e+01,6.060660171780e-01
208,1.200000000000e+00,3.876148050297e+01,3.074025148548e-01
209,-8.425974851452e-01,3.123622339643e+01,0.000000000000e+00
210,-4.939339828220e-01,3.247454415588e+01,0.000000000000e+00
211,-1.614180701233e-01,3.371674033683e+01,0.000000000000e+00
212,1.500000000000e-01,3.496400000000e+01,0.000000000000e+00
213,4.385819298767e-01,3.621674033683e+01,0.000000000000e+00
214,7.060660171780e-01,3.747454415588e+01,0.000000000000e+00
215,9.574025148548e-01,3.873622339643e+01,0.000000000000e+00
216,8.425974851452e-01,3.123622339643e+01,0.000000000000e+00
217,4.939339828220e-01,3.247454415588e+01,0.000000000000e+00
218,1.614180701233e-01,3.371674033683e+01,0.000000000000e+00
219,-1.500000000000e-01,3.496400000000e+01,0.000000000000e+00
220,-4.385819298767e-01,3.621674033683e+01,0.000000000000e+00
221,-7.060660171780e-01,3.747454415588e+01,0.000000000000e+00
222,-9.574025148548e-01,3.873622339643e+01,0.000000000000e+00
223,-8.425974851452e-01,3.123622339643e+01,2.000000000000e+00
224,-4.939339828220e-01,3.247454415588e+01,2.000000000000e+00
225,-1.614180701233e-01,3.371674033683e+01,2.000000000000e+00
226,1.500000000000e-01,3.496400000000e+01,2.000000000000e+00
227,4.385819298767e-01,3.621674033683e+01,2.000000000000e+00
228,7.060660171780e-01,3.747454415588e+01,2.000000000000e+00
229,9.574025148548e-01,3.873622339643e+01,2.000000000000e+00
230,8.425974851452e-01,3.123622339643e+01,2.000000000000e+00
231,4.939339828220e-01,3.247454415588e+01,2.000000000000e+00
232,1.614180701233e-01,3.371674033683e+01,2.000000000000e+00
233,-1.500000000000e-01,3.496400000000e+01,2.000000000000e+00
234,-4.385819298767e-01,3.621674033683e+01,2.000000000000e+00
235,-7.060660171780e-01,3.747454415588e+01,2.000000000000e+00
236,-9.574025148548e-01,3.873622339643e+01,2.000000000000e+00
237,-1.200000000000e+00,4.252121320344e+01,3.939339828220e-01
238,-1.200000000000e+00,4.503000000000e+01,8.500000000000e-01
239,-1.200000000000e+00,4.752121320344e+01,1.393933982822e+00
240,-1.200000000000e+00,4.252121320344e+01,1.606066017178e+00
241,-1.200000000000e+00,4.503000000000e+01,1.150000000000e+00
242,-1.200000000000e+00,4.752121320344e+01,6.060660171780e-01
243,1.200000000000e+00,4.252121320344e+01,3.939339828220e-01
244,1.200000000000e+00,4.503000000000e+01,8.500000000000e-01
245,1.200000000000e+00,4.752121320344e+01,1.393933982822e+00
246,1.200000000000e+00,4.252121320344e+01,1.606066017178e+00
247,1.200000000000e+00,4.503000000000e+01,1.150000000000e+00
248,1.200000000000e+00,4.752121320344e+01,6.060660171780e-01
249,-4.939339828220e-01,4.247454415588e+01,0.000000000000e+00
250,1.500000000000e-01,4.496400000000e+01,0.000000000000e+00
251,7.060660171780e-01,4.747454415588e+01,0.000000000000e+00
252,4.939339828220e-01,4.247454415588e+01,0.000000000000e+00
253,-1.500000000000e-01,4.496400000000e+01,0.000000000000e+00
254,-7.060660171780e-01,4.747454415588e+01,0.000000000000e+00
255,-4.939339828220e-01,4.247454415588e+01,2.000000000000e+00
256,1.500000000000e-01,4.496400000000e+01,2.000000000000e+00
257,7.060660171780e-01,4.747454415588e+01,2.000000000000e+00
258,4.939339828220e-01,4.247454415588e+01,2.000000000000e+00
259,-1.500000000000e-01,4.496400000000e+01,2.000000000000e+00
260,-7.060660171780e-01,4.747454415588e+01,2.000000000000e+00
*ELEMENT,TYPE=B31,ELSET=ALL
1,1,25
2,25,26
3,26,27
4,27,5
5,2,28
6,28,29
7,29,30
8,30,6
9,3,31
10,31,32
11,32,33
12,33,7
13,4,34
14,34,35
15,35,36
16,36,8
17,5,9
18,6,10
19,7,11
20,8,12
21,9,37
22,37,13
23,10,38
24,38,14
25,11,39
26,39,15
27,12,40
28,40,16
29,13,41
30,41,42
31,42,43
32,43,17
33,14,44
34,44,45
35,45,46
36,46,18
37,15,47
38,47,48
39,48,49
40,49,19
41,16,50
42,50,51
43,51,52
44,52,20
45,17,53
46,53,54
47,54,55
48,55,21
49,18,56
50,56,57
51,57,58
52,58,22
53,19,59
54,59,60
55,60,61
56,61,23
57,20,62
58,62,63
59,63,64
60,64,24
61,1,65
62,65,66
63,66,67
64,67,2
65,3,68
66,68,69
67,69,70
68,70,4
69,1,71
70,71,72
71,72,73
72,73,3
73,2,74
74,74,75
75,75,76
76,76,4
77,5,6
78,7,8
79,5,7
80,6,8
81,9,77
82,77,10
83,11,78
84,78,12
85,9,79
86,79,11
87,10,80
88,80,12
89,13,81
90,81,82
91,82,83
92,83,14
93,15,84
94,84,85
95,85,86
96,86,16
97,13,87
98,87,88
99,88,89
100,89,15
101,14,90
102,90,91
103,91,92
104,92,16
105,17,93
106,93,94
107,94,95
108,95,96
109,96,97
110,97,98
111,98,99
112,99,18
113,19,100
114,100,101
115,101,102
116,102,103
117,103,104
118,104,105
119,105,106
120,106,20
121,17,107
122,107,108
123,108,109
124,109,110
125,110,111
126,111,112
127,112,113
128,113,19
129,18,114
130,114,115
131,115,116
132,116,117
133,117,118
134,118,119
135,119,120
136,120,20
137,21,121
138,121,122
139,122,123
140,123,22
141,23,124
142,124,125
143,125,126
144,126,24
145,21,127
146,127,128
147,128,129
148,129,23
149,22,130
150,130,131
151,131,132
152,132,24
153,1,133
154,133,134
155,134,135
156,135,7
157,3,136
158,136,137
159,137,138
160,138,5
161,2,139
162,139,140
163,140,141
164,141,8
165,4,142
166,142,143
167,143,144
168,144,6
169,1,145
170,145,146
171,146,147
172,147,6
173,2,148
174,148,149
175,149,150
176,150,5
177,3,151
178,151,152
179,152,153
180,153,8
181,4,154
182,154,155
183,155,156
184,156,7
185,5,11
186,7,9
187,6,12
188,8,10
189,5,10
190,6,9
191,7,12
192,8,11
193,9,157
194,157,158
195,158,159
196,159,15
197,11,160
198,160,161
199,161,162
200,162,13
201,10,163
202,163,164
203,164,165
204,165,16
205,12,166
206,166,167
207,167,168
208,168,14
209,9,169
210,169,170
211,170,171
212,171,14
213,10,172
214,172,173
215,173,174
216,174,13
217,11,175
218,175,176
219,176,177
220,177,16
221,12,178
222,178,179
223,179,180
224,180,15
225,13,181
226,181,182
227,182,183
228,183,184
229,184,185
230,185,186
231,186,187
232,187,19
233,15,188
234,188,189
235,189,190
236,190,191
237,191,192
238,192,193
239,193,194
240,194,17
241,14,195
242,195,196
243,196,197
244,197,198
245,198,199
246,199,200
247,200,201
248,201,20
249,16,202
250,202,203
251,203,204
252,204,205
253,205,206
254,206,207
255,207,208
256,208,18
257,13,209
258,209,210
259,210,211
260,211,212
261,212,213
262,213,214
263,214,215
264,215,18
265,14,216
266,216,217
267,217,218
268,218,219
269,219,220
270,220,221
271,221,222
272,222,17
273,15,223
274,223,224
275,224,225
276,225,226
277,226,227
278,227,228
279,228,229
280,229,20
281,16,230
282,230,231
283,231,232
284,232,233
285,233,234
286,234,235
287,235,236
288,236,19
289,17,237
290,237,238
291,238,239
292,239,23
293,19,240
294,240,241
295,241,242
296,242,21
297,18,243
298,243,244
299,244,245
300,245,24
301,20,246
302,246,247
303,247,248
304,248,22
305,17,249
306,249,250
307,250,251
308,251,22
309,18,252
310,252,253
311,253,254
312,254,21
313,19,255
314,255,256
315,256,257
316,257,24
317,20,258
318,258,259
319,259,260
320,260,23
*NSET,NSET=NALL,GENERATE
1,260,1
*NSET,NSET=LEFT
1,2,3,4
*NSET,NSET=RIGHT
21,22,23,24
*MATERIAL,NAME=STEEL
*ELASTIC
2.100000000000e+11,0.300000000000
*BEAM SECTION,ELSET=ALL,MATERIAL=STEEL,SECTION=RECT
6.000000000000e-02,4.000000000000e-02
0.371390676354,0.557086014531,0.742781352708
*BOUNDARY
LEFT,1,6,0.0
*STEP
*STATIC
*BOUNDARY
21,1,1,5.000000000000e-03
21,2,2,0.0
21,3,3,-6.000000000000e-03
*BOUNDARY
22,1,1,5.000000000000e-03
22,2,2,0.0
22,3,3,6.000000000000e-03
*BOUNDARY
23,1,1,-5.000000000000e-03
23,2,2,0.0
23,3,3,-6.000000000000e-03
*BOUNDARY
24,1,1,-5.000000000000e-03
24,2,2,0.0
24,3,3,6.000000000000e-03
*NODE FILE,NSET=NALL
U
*NODE PRINT,NSET=NALL
U
*NODE PRINT,NSET=RIGHT
RF
*EL PRINT,ELSET=ALL,TOTALS=YES
ELSE
*END STEP
