*HEADING
Normalized cross-passage space-truss torsion benchmark
*NODE
1,-1.200000000000e+00,0.000000000000e+00,0.000000000000e+00
2,1.200000000000e+00,0.000000000000e+00,0.000000000000e+00
3,-1.200000000000e+00,0.000000000000e+00,2.000000000000e+00
4,1.200000000000e+00,0.000000000000e+00,2.000000000000e+00
5,-1.200000000000e+00,1.000000000000e+01,0.000000000000e+00
6,1.200000000000e+00,1.000000000000e+01,0.000000000000e+00
7,-1.200000000000e+00,1.000000000000e+01,2.000000000000e+00
8,1.200000000000e+00,1.000000000000e+01,2.000000000000e+00
9,-1.200000000000e+00,2.000000000000e+01,0.000000000000e+00
10,1.200000000000e+00,2.000000000000e+01,0.000000000000e+00
11,-1.200000000000e+00,2.000000000000e+01,2.000000000000e+00
12,1.200000000000e+00,2.000000000000e+01,2.000000000000e+00
13,-1.200000000000e+00,3.000000000000e+01,0.000000000000e+00
14,1.200000000000e+00,3.000000000000e+01,0.000000000000e+00
15,-1.200000000000e+00,3.000000000000e+01,2.000000000000e+00
16,1.200000000000e+00,3.000000000000e+01,2.000000000000e+00
17,-1.200000000000e+00,4.000000000000e+01,0.000000000000e+00
18,1.200000000000e+00,4.000000000000e+01,0.000000000000e+00
19,-1.200000000000e+00,4.000000000000e+01,2.000000000000e+00
20,1.200000000000e+00,4.000000000000e+01,2.000000000000e+00
21,-1.200000000000e+00,5.000000000000e+01,0.000000000000e+00
22,1.200000000000e+00,5.000000000000e+01,0.000000000000e+00
23,-1.200000000000e+00,5.000000000000e+01,2.000000000000e+00
24,1.200000000000e+00,5.000000000000e+01,2.000000000000e+00
25,-1.200000000000e+00,1.125000000000e+01,-5.740251485476e-02
26,-1.200000000000e+00,1.250000000000e+01,-1.060660171780e-01
27,-1.200000000000e+00,1.375000000000e+01,-1.385819298767e-01
28,-1.200000000000e+00,1.500000000000e+01,-1.500000000000e-01
29,-1.200000000000e+00,1.625000000000e+01,-1.385819298767e-01
30,-1.200000000000e+00,1.750000000000e+01,-1.060660171780e-01
31,-1.200000000000e+00,1.875000000000e+01,-5.740251485476e-02
32,1.200000000000e+00,1.125000000000e+01,5.740251485476e-02
33,1.200000000000e+00,1.250000000000e+01,1.060660171780e-01
34,1.200000000000e+00,1.375000000000e+01,1.385819298767e-01
35,1.200000000000e+00,1.500000000000e+01,1.500000000000e-01
36,1.200000000000e+00,1.625000000000e+01,1.385819298767e-01
37,1.200000000000e+00,1.750000000000e+01,1.060660171780e-01
38,1.200000000000e+00,1.875000000000e+01,5.740251485476e-02
39,-1.200000000000e+00,1.125000000000e+01,1.942597485145e+00
40,-1.200000000000e+00,1.250000000000e+01,1.893933982822e+00
41,-1.200000000000e+00,1.375000000000e+01,1.861418070123e+00
42,-1.200000000000e+00,1.500000000000e+01,1.850000000000e+00
43,-1.200000000000e+00,1.625000000000e+01,1.861418070123e+00
44,-1.200000000000e+00,1.750000000000e+01,1.893933982822e+00
45,-1.200000000000e+00,1.875000000000e+01,1.942597485145e+00
46,1.200000000000e+00,1.125000000000e+01,2.057402514855e+00
47,1.200000000000e+00,1.250000000000e+01,2.106066017178e+00
48,1.200000000000e+00,1.375000000000e+01,2.138581929877e+00
49,1.200000000000e+00,1.500000000000e+01,2.150000000000e+00
50,1.200000000000e+00,1.625000000000e+01,2.138581929877e+00
51,1.200000000000e+00,1.750000000000e+01,2.106066017178e+00
52,1.200000000000e+00,1.875000000000e+01,2.057402514855e+00
53,-1.200000000000e+00,2.250000000000e+01,-1.060660171780e-01
54,-1.200000000000e+00,2.500000000000e+01,-1.500000000000e-01
55,-1.200000000000e+00,2.750000000000e+01,-1.060660171780e-01
56,1.200000000000e+00,2.250000000000e+01,1.060660171780e-01
57,1.200000000000e+00,2.500000000000e+01,1.500000000000e-01
58,1.200000000000e+00,2.750000000000e+01,1.060660171780e-01
59,-1.200000000000e+00,2.250000000000e+01,1.893933982822e+00
60,-1.200000000000e+00,2.500000000000e+01,1.850000000000e+00
61,-1.200000000000e+00,2.750000000000e+01,1.893933982822e+00
62,1.200000000000e+00,2.250000000000e+01,2.106066017178e+00
63,1.200000000000e+00,2.500000000000e+01,2.150000000000e+00
64,1.200000000000e+00,2.750000000000e+01,2.106066017178e+00
65,-1.200000000000e+00,3.250000000000e+01,-1.060660171780e-01
66,-1.200000000000e+00,3.500000000000e+01,-1.500000000000e-01
67,-1.200000000000e+00,3.750000000000e+01,-1.060660171780e-01
68,1.200000000000e+00,3.250000000000e+01,1.060660171780e-01
69,1.200000000000e+00,3.500000000000e+01,1.500000000000e-01
70,1.200000000000e+00,3.750000000000e+01,1.060660171780e-01
71,-1.200000000000e+00,3.250000000000e+01,1.893933982822e+00
72,-1.200000000000e+00,3.500000000000e+01,1.850000000000e+00
73,-1.200000000000e+00,3.750000000000e+01,1.893933982822e+00
74,1.200000000000e+00,3.250000000000e+01,2.106066017178e+00
75,1.200000000000e+00,3.500000000000e+01,2.150000000000e+00
76,1.200000000000e+00,3.750000000000e+01,2.106066017178e+00
77,0.000000000000e+00,-3.600000000000e-02,0.000000000000e+00
78,0.000000000000e+00,3.600000000000e-02,2.000000000000e+00
79,-1.200000000000e+00,3.000000000000e-02,1.000000000000e+00
80,1.200000000000e+00,-3.000000000000e-02,1.000000000000e+00
81,-6.000000000000e-01,1.997454415588e+01,0.000000000000e+00
82,0.000000000000e+00,1.996400000000e+01,0.000000000000e+00
83,6.000000000000e-01,1.997454415588e+01,0.000000000000e+00
84,-6.000000000000e-01,2.002545584412e+01,2.000000000000e+00
85,0.000000000000e+00,2.003600000000e+01,2.000000000000e+00
86,6.000000000000e-01,2.002545584412e+01,2.000000000000e+00
87,-1.200000000000e+00,2.002121320344e+01,5.000000000000e-01
88,-1.200000000000e+00,2.003000000000e+01,1.000000000000e+00
89,-1.200000000000e+00,2.002121320344e+01,1.500000000000e+00
90,1.200000000000e+00,1.997878679656e+01,5.000000000000e-01
91,1.200000000000e+00,1.997000000000e+01,1.000000000000e+00
92,1.200000000000e+00,1.997878679656e+01,1.500000000000e+00
93,0.000000000000e+00,4.996400000000e+01,0.000000000000e+00
94,0.000000000000e+00,5.003600000000e+01,2.000000000000e+00
95,-1.200000000000e+00,5.003000000000e+01,1.000000000000e+00
96,1.200000000000e+00,4.997000000000e+01,1.000000000000e+00
97,-1.200000000000e+00,1.126148050297e+01,1.925974851452e-01
98,-1.200000000000e+00,1.252121320344e+01,3.939339828220e-01
99,-1.200000000000e+00,1.377771638598e+01,6.114180701233e-01
100,-1.200000000000e+00,1.503000000000e+01,8.500000000000e-01
101,-1.200000000000e+00,1.627771638598e+01,1.111418070123e+00
102,-1.200000000000e+00,1.752121320344e+01,1.393933982822e+00
103,-1.200000000000e+00,1.876148050297e+01,1.692597485145e+00
104,-1.200000000000e+00,1.126148050297e+01,1.807402514855e+00
105,-1.200000000000e+00,1.252121320344e+01,1.606066017178e+00
106,-1.200000000000e+00,1.377771638598e+01,1.388581929877e+00
107,-1.200000000000e+00,1.503000000000e+01,1.150000000000e+00
108,-1.200000000000e+00,1.627771638598e+01,8.885819298767e-01
109,-1.200000000000e+00,1.752121320344e+01,6.060660171780e-01
110,-1.200000000000e+00,1.876148050297e+01,3.074025148548e-01
111,1.200000000000e+00,1.126148050297e+01,1.925974851452e-01
112,1.200000000000e+00,1.252121320344e+01,3.939339828220e-01
113,1.200000000000e+00,1.377771638598e+01,6.114180701233e-01
114,1.200000000000e+00,1.503000000000e+01,8.500000000000e-01
115,1.200000000000e+00,1.627771638598e+01,1.111418070123e+00
116,1.200000000000e+00,1.752121320344e+01,1.393933982822e+00
117,1.200000000000e+00,1.876148050297e+01,1.692597485145e+00
118,1.200000000000e+00,1.126148050297e+01,1.807402514855e+00
119,1.200000000000e+00,1.252121320344e+01,1.606066017178e+00
120,1.200000000000e+00,1.377771638598e+01,1.388581929877e+00
121,1.200000000000e+00,1.503000000000e+01,1.150000000000e+00
122,1.200000000000e+00,1.627771638598e+01,8.885819298767e-01
123,1.200000000000e+00,1.752121320344e+01,6.060660171780e-01
124,1.200000000000e+00,1.876148050297e+01,3.074025148548e-01
125,-8.425974851452e-01,1.123622339643e+01,0.000000000000e+00
126,-4.939339828220e-01,1.247454415588e+01,0.000000000000e+00
127,-1.614180701233e-01,1.371674033683e+01,0.000000000000e+00
128,1.500000000000e-01,1.496400000000e+01,0.000000000000e+00
129,4.385819298767e-01,1.621674033683e+01,0.000000000000e+00
130,7.060660171780e-01,1.747454415588e+01,0.000000000000e+00
131,9.574025148548e-01,1.873622339643e+01,0.000000000000e+00
132,8.425974851452e-01,1.123622339643e+01,0.000000000000e+00
133,4.939339828220e-01,1.247454415588e+01,0.000000000000e+00
134,1.614180701233e-01,1.371674033683e+01,0.000000000000e+00
135,-1.500000000000e-01,1.496400000000e+01,0.000000000000e+00
136,-4.385819298767e-01,1.621674033683e+01,0.000000000000e+00
137,-7.060660171780e-01,1.747454415588e+01,0.000000000000e+00
138,-9.574025148548e-01,1.873622339643e+01,0.000000000000e+00
139,-8.425974851452e-01,1.123622339643e+01,2.000000000000e+00
140,-4.939339828220e-01,1.247454415588e+01,2.000000000000e+00
141,-1.614180701233e-01,1.371674033683e+01,2.000000000000e+00
142,1.500000000000e-01,1.496400000000e+01,2.000000000000e+00
143,4.385819298767e-01,1.621674033683e+01,2.000000000000e+00
144,7.060660171780e-01,1.747454415588e+01,2.000000000000e+00
145,9.574025148548e-01,1.873622339643e+01,2.000000000000e+00
146,8.425974851452e-01,1.123622339643e+01,2.000000000000e+00
147,4.939339828220e-01,1.247454415588e+01,2.000000000000e+00
148,1.614180701233e-01,1.371674033683e+01,2.000000000000e+00
149,-1.500000000000e-01,1.496400000000e+01,2.000000000000e+00
150,-4.385819298767e-01,1.621674033683e+01,2.000000000000e+00
151,-7.060660171780e-01,1.747454415588e+01,2.000000000000e+00
152,-9.574025148548e-01,1.873622339643e+01,2.000000000000e+00
153,-1.200000000000e+00,3.503000000000e+01,8.500000000000e-01
154,-1.200000000000e+00,3.503000000000e+01,1.150000000000e+00
155,1.200000000000e+00,3.503000000000e+01,8.500000000000e-01
156,1.200000000000e+00,3.503000000000e+01,1.150000000000e+00
157,1.500000000000e-01,3.496400000000e+01,0.000000000000e+00
158,-1.500000000000e-01,3.496400000000e+01,0.000000000000e+00
159,1.500000000000e-01,3.496400000000e+01,2.000000000000e+00
160,-1.500000000000e-01,3.496400000000e+01,2.000000000000e+00
161,-1.200000000000e+00,4.503000000000e+01,8.500000000000e-01
162,-1.200000000000e+00,4.503000000000e+01,1.150000000000e+00
163,1.200000000000e+00,4.503000000000e+01,8.500000000000e-01
164,1.200000000000e+00,4.503000000000e+01,1.150000000000e+00
165,1.500000000000e-01,4.496400000000e+01,0.000000000000e+00
166,-1.500000000000e-01,4.496400000000e+01,0.000000000000e+00
167,1.500000000000e-01,4.496400000000e+01,2.000000000000e+00
168,-1.500000000000e-01,4.496400000000e+01,2.000000000000e+00
*ELEMENT,TYPE=B31,ELSET=ALL
1,1,5
2,2,6
3,3,7
4,4,8
5,5,25
6,25,26
7,26,27
8,27,28
9,28,29
10,29,30
11,30,31
12,31,9
13,6,32
14,32,33
15,33,34
16,34,35
17,35,36
18,36,37
19,37,38
20,38,10
21,7,39
22,39,40
23,40,41
24,41,42
25,42,43
26,43,44
27,44,45
28,45,11
29,8,46
30,46,47
31,47,48
32,48,49
33,49,50
34,50,51
35,51,52
36,52,12
37,9,53
38,53,54
39,54,55
40,55,13
41,10,56
42,56,57
43,57,58
44,58,14
45,11,59
46,59,60
47,60,61
48,61,15
49,12,62
50,62,63
51,63,64
52,64,16
53,13,65
54,65,66
55,66,67
56,67,17
57,14,68
58,68,69
59,69,70
60,70,18
61,15,71
62,71,72
63,72,73
64,73,19
65,16,74
66,74,75
67,75,76
68,76,20
69,17,21
70,18,22
71,19,23
72,20,24
73,1,77
74,77,2
75,3,78
76,78,4
77,1,79
78,79,3
79,2,80
80,80,4
81,5,6
82,7,8
83,5,7
84,6,8
85,9,81
86,81,82
87,82,83
88,83,10
89,11,84
90,84,85
91,85,86
92,86,12
93,9,87
94,87,88
95,88,89
96,89,11
97,10,90
98,90,91
99,91,92
100,92,12
101,13,14
102,15,16
103,13,15
104,14,16
105,17,18
106,19,20
107,17,19
108,18,20
109,21,93
110,93,22
111,23,94
112,94,24
113,21,95
114,95,23
115,22,96
116,96,24
117,1,7
118,3,5
119,2,8
120,4,6
121,1,6
122,2,5
123,3,8
124,4,7
125,5,97
126,97,98
127,98,99
128,99,100
129,100,101
130,101,102
131,102,103
132,103,11
133,7,104
134,104,105
135,105,106
136,106,107
137,107,108
138,108,109
139,109,110
140,110,9
141,6,111
142,111,112
143,112,113
144,113,114
145,114,115
146,115,116
147,116,117
148,117,12
149,8,118
150,118,119
151,119,120
152,120,121
153,121,122
154,122,123
155,123,124
156,124,10
157,5,125
158,125,126
159,126,127
160,127,128
161,128,129
162,129,130
163,130,131
164,131,10
165,6,132
166,132,133
167,133,134
168,134,135
169,135,136
170,136,137
171,137,138
172,138,9
173,7,139
174,139,140
175,140,141
176,141,142
177,142,143
178,143,144
179,144,145
180,145,12
181,8,146
182,146,147
183,147,148
184,148,149
185,149,150
186,150,151
187,151,152
188,152,11
189,9,15
190,11,13
191,10,16
192,12,14
193,9,14
194,10,13
195,11,16
196,12,15
197,13,153
198,153,19
199,15,154
200,154,17
201,14,155
202,155,20
203,16,156
204,156,18
205,13,157
206,157,18
207,14,158
208,158,17
209,15,159
210,159,20
211,16,160
212,160,19
213,17,161
214,161,23
215,19,162
216,162,21
217,18,163
218,163,24
219,20,164
220,164,22
221,17,165
222,165,22
223,18,166
224,166,21
225,19,167
226,167,24
227,20,168
228,168,23
*NSET,NSET=NALL,GENERATE
1,168,1
*NSET,NSET=LEFT
1,2,3,4
*NSET,NSET=RIGHT
21,22,23,24
*MATERIAL,NAME=STEEL
*ELASTIC
2.100000000000e+11,0.300000000000
*BEAM SECTION,ELSET=ALL,MATERIAL=STEEL,SECTION=RECT
6.000000000000e-02,4.000000000000e-02
0.371390676354,0.557086014531,0.742781352708
*BOUNDARY
LEFT,1,6,0.0
*STEP
*STATIC
*BOUNDARY
21,1,1,5.000000000000e-03
21,2,2,0.0
21,3,3,-6.000000000000e-03
*BOUNDARY
22,1,1,5.000000000000e-03
22,2,2,0.0
22,3,3,6.000000000000e-03
*BOUNDARY
23,1,1,-5.000000000000e-03
23,2,2,0.0
23,3,3,-6.000000000000e-03
*BOUNDARY
24,1,1,-5.000000000000e-03
24,2,2,0.0
24,3,3,6.000000000000e-03
*NODE FILE,NSET=NALL
U
*NODE PRINT,NSET=NALL
U
*NODE PRINT,NSET=RIGHT
RF
*EL PRINT,ELSET=ALL,TOTALS=YES
ELSE
*END STEP
