*HEADING
Normalized cross-passage space-truss torsion benchmark
*NODE
1,-1.200000000000e+00,0.000000000000e+00,0.000000000000e+00
2,1.200000000000e+00,0.000000000000e+00,0.000000000000e+00
3,-1.200000000000e+00,0.000000000000e+00,2.000000000000e+00
4,1.200000000000e+00,0.000000000000e+00,2.000000000000e+00
5,-1.200000000000e+00,1.000000000000e+01,0.000000000000e+00
6,1.200000000000e+00,1.000000000000e+01,0.000000000000e+00
7,-1.200000000000e+00,1.000000000000e+01,2.000000000000e+00
8,1.200000000000e+00,1.000000000000e+01,2.000000000000e+00
9,-1.200000000000e+00,2.000000000000e+01,0.000000000000e+00
10,1.200000000000e+00,2.000000000000e+01,0.000000000000e+00
11,-1.200000000000e+00,2.000000000000e+01,2.000000000000e+00
12,1.200000000000e+00,2.000000000000e+01,2.000000000000e+00
13,-1.200000000000e+00,3.000000000000e+01,0.000000000000e+00
14,1.200000000000e+00,3.000000000000e+01,0.000000000000e+00
15,-1.200000000000e+00,3.000000000000e+01,2.000000000000e+00
16,1.200000000000e+00,3.000000000000e+01,2.000000000000e+00
17,-1.200000000000e+00,4.000000000000e+01,0.000000000000e+00
18,1.200000000000e+00,4.000000000000e+01,0.000000000000e+00
19,-1.200000000000e+00,4.000000000000e+01,2.000000000000e+00
20,1.200000000000e+00,4.000000000000e+01,2.000000000000e+00
21,-1.200000000000e+00,5.000000000000e+01,0.000000000000e+00
22,1.200000000000e+00,5.000000000000e+01,0.000000000000e+00
23,-1.200000000000e+00,5.000000000000e+01,2.000000000000e+00
24,1.200000000000e+00,5.000000000000e+01,2.000000000000e+00
25,-1.200000000000e+00,2.500000000000e+00,-1.060660171780e-01
26,-1.200000000000e+00,5.000000000000e+00,-1.500000000000e-01
27,-1.200000000000e+00,7.500000000000e+00,-1.060660171780e-01
28,1.200000000000e+00,2.500000000000e+00,1.060660171780e-01
29,1.200000000000e+00,5.000000000000e+00,1.500000000000e-01
30,1.200000000000e+00,7.500000000000e+00,1.060660171780e-01
31,-1.200000000000e+00,2.500000000000e+00,1.893933982822e+00
32,-1.200000000000e+00,5.000000000000e+00,1.850000000000e+00
33,-1.200000000000e+00,7.500000000000e+00,1.893933982822e+00
34,1.200000000000e+00,2.500000000000e+00,2.106066017178e+00
35,1.200000000000e+00,5.000000000000e+00,2.150000000000e+00
36,1.200000000000e+00,7.500000000000e+00,2.106066017178e+00
37,-1.200000000000e+00,1.500000000000e+01,-1.500000000000e-01
38,1.200000000000e+00,1.500000000000e+01,1.500000000000e-01
39,-1.200000000000e+00,1.500000000000e+01,1.850000000000e+00
40,1.200000000000e+00,1.500000000000e+01,2.150000000000e+00
41,-1.200000000000e+00,3.500000000000e+01,-1.500000000000e-01
42,1.200000000000e+00,3.500000000000e+01,1.500000000000e-01
43,-1.200000000000e+00,3.500000000000e+01,1.850000000000e+00
44,1.200000000000e+00,3.500000000000e+01,2.150000000000e+00
45,-1.200000000000e+00,4.250000000000e+01,-1.060660171780e-01
46,-1.200000000000e+00,4.500000000000e+01,-1.500000000000e-01
47,-1.200000000000e+00,4.750000000000e+01,-1.060660171780e-01
48,1.200000000000e+00,4.250000000000e+01,1.060660171780e-01
49,1.200000000000e+00,4.500000000000e+01,1.500000000000e-01
50,1.200000000000e+00,4.750000000000e+01,1.060660171780e-01
51,-1.200000000000e+00,4.250000000000e+01,1.893933982822e+00
52,-1.200000000000e+00,4.500000000000e+01,1.850000000000e+00
53,-1.200000000000e+00,4.750000000000e+01,1.893933982822e+00
54,1.200000000000e+00,4.250000000000e+01,2.106066017178e+00
55,1.200000000000e+00,4.500000000000e+01,2.150000000000e+00
56,1.200000000000e+00,4.750000000000e+01,2.106066017178e+00
57,-6.000000000000e-01,-2.545584412272e-02,0.000000000000e+00
58,0.000000000000e+00,-3.600000000000e-02,0.000000000000e+00
59,6.000000000000e-01,-2.545584412272e-02,0.000000000000e+00
60,-6.000000000000e-01,2.545584412272e-02,2.000000000000e+00
61,0.000000000000e+00,3.600000000000e-02,2.000000000000e+00
62,6.000000000000e-01,2.545584412272e-02,2.000000000000e+00
63,-1.200000000000e+00,2.121320343560e-02,5.000000000000e-01
64,-1.200000000000e+00,3.000000000000e-02,1.000000000000e+00
65,-1.200000000000e+00,2.121320343560e-02,1.500000000000e+00
66,1.200000000000e+00,-2.121320343560e-02,5.000000000000e-01
67,1.200000000000e+00,-3.000000000000e-02,1.000000000000e+00
68,1.200000000000e+00,-2.121320343560e-02,1.500000000000e+00
69,-6.000000000000e-01,9.974544155877e+00,0.000000000000e+00
70,0.000000000000e+00,9.964000000000e+00,0.000000000000e+00
71,6.000000000000e-01,9.974544155877e+00,0.000000000000e+00
72,-6.000000000000e-01,1.002545584412e+01,2.000000000000e+00
73,0.000000000000e+00,1.003600000000e+01,2.000000000000e+00
74,6.000000000000e-01,1.002545584412e+01,2.000000000000e+00
75,-1.200000000000e+00,1.002121320344e+01,5.000000000000e-01
76,-1.200000000000e+00,1.003000000000e+01,1.000000000000e+00
77,-1.200000000000e+00,1.002121320344e+01,1.500000000000e+00
78,1.200000000000e+00,9.978786796564e+00,5.000000000000e-01
79,1.200000000000e+00,9.970000000000e+00,1.000000000000e+00
80,1.200000000000e+00,9.978786796564e+00,1.500000000000e+00
81,0.000000000000e+00,1.996400000000e+01,0.000000000000e+00
82,0.000000000000e+00,2.003600000000e+01,2.000000000000e+00
83,-1.200000000000e+00,2.003000000000e+01,1.000000000000e+00
84,1.200000000000e+00,1.997000000000e+01,1.000000000000e+00
85,-9.000000000000e-01,2.998622339643e+01,0.000000000000e+00
86,-6.000000000000e-01,2.997454415588e+01,0.000000000000e+00
87,-3.000000000000e-01,2.996674033683e+01,0.000000000000e+00
88,0.000000000000e+00,2.996400000000e+01,0.000000000000e+00
89,3.000000000000e-01,2.996674033683e+01,0.000000000000e+00
90,6.000000000000e-01,2.997454415588e+01,0.000000000000e+00
91,9.000000000000e-01,2.998622339643e+01,0.000000000000e+00
92,-9.000000000000e-01,3.001377660357e+01,2.000000000000e+00
93,-6.000000000000e-01,3.002545584412e+01,2.000000000000e+00
94,-3.000000000000e-01,3.003325966317e+01,2.000000000000e+00
95,0.000000000000e+00,3.003600000000e+01,2.000000000000e+00
96,3.000000000000e-01,3.003325966317e+01,2.000000000000e+00
97,6.000000000000e-01,3.002545584412e+01,2.000000000000e+00
98,9.000000000000e-01,3.001377660357e+01,2.000000000000e+00
99,-1.200000000000e+00,3.001148050297e+01,2.500000000000e-01
100,-1.200000000000e+00,3.002121320344e+01,5.000000000000e-01
101,-1.200000000000e+00,3.002771638598e+01,7.500000000000e-01
102,-1.200000000000e+00,3.003000000000e+01,1.000000000000e+00
103,-1.200000000000e+00,3.002771638598e+01,1.250000000000e+00
104,-1.200000000000e+00,3.002121320344e+01,1.500000000000e+00
105,-1.200000000000e+00,3.001148050297e+01,1.750000000000e+00
106,1.200000000000e+00,2.998851949703e+01,2.500000000000e-01
107,1.200000000000e+00,2.997878679656e+01,5.000000000000e-01
108,1.200000000000e+00,2.997228361402e+01,7.500000000000e-01
109,1.200000000000e+00,2.997000000000e+01,1.000000000000e+00
110,1.200000000000e+00,2.997228361402e+01,1.250000000000e+00
111,1.200000000000e+00,2.997878679656e+01,1.500000000000e+00
112,1.200000000000e+00,2.998851949703e+01,1.750000000000e+00
113,0.000000000000e+00,3.996400000000e+01,0.000000000000e+00
114,0.000000000000e+00,4.003600000000e+01,2.000000000000e+00
115,-1.200000000000e+00,4.003000000000e+01,1.000000000000e+00
116,1.200000000000e+00,3.997000000000e+01,1.000000000000e+00
117,-6.000000000000e-01,4.997454415588e+01,0.000000000000e+00
118,0.000000000000e+00,4.996400000000e+01,0.000000000000e+00
119,6.000000000000e-01,4.997454415588e+01,0.000000000000e+00
120,-6.000000000000e-01,5.002545584412e+01,2.000000000000e+00
121,0.000000000000e+00,5.003600000000e+01,2.000000000000e+00
122,6.000000000000e-01,5.002545584412e+01,2.000000000000e+00
123,-1.200000000000e+00,5.002121320344e+01,5.000000000000e-01
124,-1.200000000000e+00,5.003000000000e+01,1.000000000000e+00
125,-1.200000000000e+00,5.002121320344e+01,1.500000000000e+00
126,1.200000000000e+00,4.997878679656e+01,5.000000000000e-01
127,1.200000000000e+00,4.997000000000e+01,1.000000000000e+00
128,1.200000000000e+00,4.997878679656e+01,1.500000000000e+00
129,-1.200000000000e+00,1.261480502971e+00,1.925974851452e-01
130,-1.200000000000e+00,2.521213203436e+00,3.939339828220e-01
131,-1.200000000000e+00,3.777716385975e+00,6.114180701233e-01
132,-1.200000000000e+00,5.030000000000e+00,8.500000000000e-01
133,-1.200000000000e+00,6.277716385975e+00,1.111418070123e+00
134,-1.200000000000e+00,7.521213203436e+00,1.393933982822e+00
135,-1.200000000000e+00,8.761480502971e+00,1.692597485145e+00
136,-1.200000000000e+00,1.261480502971e+00,1.807402514855e+00
137,-1.200000000000e+00,2.521213203436e+00,1.606066017178e+00
138,-1.200000000000e+00,3.777716385975e+00,1.388581929877e+00
139,-1.200000000000e+00,5.030000000000e+00,1.150000000000e+00
140,-1.200000000000e+00,6.277716385975e+00,8.885819298767e-01
141,-1.200000000000e+00,7.521213203436e+00,6.060660171780e-01
142,-1.200000000000e+00,8.761480502971e+00,3.074025148548e-01
143,1.200000000000e+00,1.261480502971e+00,1.925974851452e-01
144,1.200000000000e+00,2.521213203436e+00,3.939339828220e-01
145,1.200000000000e+00,3.777716385975e+00,6.114180701233e-01
146,1.200000000000e+00,5.030000000000e+00,8.500000000000e-01
147,1.200000000000e+00,6.277716385975e+00,1.111418070123e+00
148,1.200000000000e+00,7.521213203436e+00,1.393933982822e+00
149,1.200000000000e+00,8.761480502971e+00,1.692597485145e+00
150,1.200000000000e+00,1.261480502971e+00,1.807402514855e+00
151,1.200000000000e+00,2.521213203436e+00,1.606066017178e+00
152,1.200000000000e+00,3.777716385975e+00,1.388581929877e+00
153,1.200000000000e+00,5.030000000000e+00,1.150000000000e+00
154,1.200000000000e+00,6.277716385975e+00,8.885819298767e-01
155,1.200000000000e+00,7.521213203436e+00,6.060660171780e-01
156,1.200000000000e+00,8.761480502971e+00,3.074025148548e-01
157,-8.425974851452e-01,1.236223396435e+00,0.000000000000e+00
158,-4.939339828220e-01,2.474544155877e+00,0.000000000000e+00
159,-1.614180701233e-01,3.716740336830e+00,0.000000000000e+00
160,1.500000000000e-01,4.964000000000e+00,0.000000000000e+00
161,4.385819298767e-01,6.216740336830e+00,0.000000000000e+00
162,7.060660171780e-01,7.474544155877e+00,0.000000000000e+00
163,9.574025148548e-01,8.736223396435e+00,0.000000000000e+00
164,8.425974851452e-01,1.236223396435e+00,0.000000000000e+00
165,4.939339828220e-01,2.474544155877e+00,0.000000000000e+00
166,1.614180701233e-01,3.716740336830e+00,0.000000000000e+00
167,-1.500000000000e-01,4.964000000000e+00,0.000000000000e+00
168,-4.385819298767e-01,6.216740336830e+00,0.000000000000e+00
169,-7.060660171780e-01,7.474544155877e+00,0.000000000000e+00
170,-9.574025148548e-01,8.736223396435e+00,0.000000000000e+00
171,-8.425974851452e-01,1.236223396435e+00,2.000000000000e+00
172,-4.939339828220e-01,2.474544155877e+00,2.000000000000e+00
173,-1.614180701233e-01,3.716740336830e+00,2.000000000000e+00
174,1.500000000000e-01,4.964000000000e+00,2.000000000000e+00
175,4.385819298767e-01,6.216740336830e+00,2.000000000000e+00
176,7.060660171780e-01,7.474544155877e+00,2.000000000000e+00
177,9.574025148548e-01,8.736223396435e+00,2.000000000000e+00
178,8.425974851452e-01,1.236223396435e+00,2.000000000000e+00
179,4.939339828220e-01,2.474544155877e+00,2.000000000000e+00
180,1.614180701233e-01,3.716740336830e+00,2.000000000000e+00
181,-1.500000000000e-01,4.964000000000e+00,2.000000000000e+00
182,-4.385819298767e-01,6.216740336830e+00,2.000000000000e+00
183,-7.060660171780e-01,7.474544155877e+00,2.000000000000e+00
184,-9.574025148548e-01,8.736223396435e+00,2.000000000000e+00
185,-1.200000000000e+00,1.503000000000e+01,8.500000000000e-01
186,-1.200000000000e+00,1.503000000000e+01,1.150000000000e+00
187,1.200000000000e+00,1.503000000000e+01,8.500000000000e-01
188,1.200000000000e+00,1.503000000000e+01,1.150000000000e+00
189,1.500000000000e-01,1.496400000000e+01,0.000000000000e+00
190,-1.500000000000e-01,1.496400000000e+01,0.000000000000e+00
191,1.500000000000e-01,1.496400000000e+01,2.000000000000e+00
192,-1.500000000000e-01,1.496400000000e+01,2.000000000000e+00
193,-1.200000000000e+00,2.503000000000e+01,8.500000000000e-01
194,-1.200000000000e+00,2.503000000000e+01,1.150000000000e+00
195,1.200000000000e+00,2.503000000000e+01,8.500000000000e-01
196,1.200000000000e+00,2.503000000000e+01,1.150000000000e+00
197,1.500000000000e-01,2.496400000000e+01,0.000000000000e+00
198,-1.500000000000e-01,2.496400000000e+01,0.000000000000e+00
199,1.500000000000e-01,2.496400000000e+01,2.000000000000e+00
200,-1.500000000000e-01,2.496400000000e+01,2.000000000000e+00
201,-1.200000000000e+00,3.252121320344e+01,3.939339828220e-01
202,-1.200000000000e+00,3.503000000000e+01,8.500000000000e-01
203,-1.200000000000e+00,3.752121320344e+01,1.393933982822e+00
204,-1.200000000000e+00,3.252121320344e+01,1.606066017178e+00
205,-1.200000000000e+00,3.503000000000e+01,1.150000000000e+00
206,-1.200000000000e+00,3.752121320344e+01,6.060660171780e-01
207,1.200000000000e+00,3.252121320344e+01,3.939339828220e-01
208,1.200000000000e+00,3.503000000000e+01,8.500000000000e-01
209,1.200000000000e+00,3.752121320344e+01,1.393933982822e+00
210,1.200000000000e+00,3.252121320344e+01,1.606066017178e+00
211,1.200000000000e+00,3.503000000000e+01,1.150000000000e+00
212,1.200000000000e+00,3.752121320344e+01,6.060660171780e-01
213,-4.939339828220e-01,3.247454415588e+01,0.000000000000e+00
214,1.500000000000e-01,3.496400000000e+01,0.000000000000e+00
215,7.060660171780e-01,3.747454415588e+01,0.000000000000e+00
216,4.939339828220e-01,3.247454415588e+01,0.000000000000e+00
217,-1.500000000000e-01,3.496400000000e+01,0.000000000000e+00
218,-7.060660171780e-01,3.747454415588e+01,0.000000000000e+00
219,-4.939339828220e-01,3.247454415588e+01,2.000000000000e+00
220,1.500000000000e-01,3.496400000000e+01,2.000000000000e+00
221,7.060660171780e-01,3.747454415588e+01,2.000000000000e+00
222,4.939339828220e-01,3.247454415588e+01,2.000000000000e+00
223,-1.500000000000e-01,3.496400000000e+01,2.000000000000e+00
224,-7.060660171780e-01,3.747454415588e+01,2.000000000000e+00
*ELEMENT,TYPE=B31,ELSET=ALL
1,1,25
2,25,26
3,26,27
4,27,5
5,2,28
6,28,29
7,29,30
8,30,6
9,3,31
10,31,32
11,32,33
12,33,7
13,4,34
14,34,35
15,35,36
16,36,8
17,5,37
18,37,9
19,6,38
20,38,10
21,7,39
22,39,11
23,8,40
24,40,12
25,9,13
26,10,14
27,11,15
28,12,16
29,13,41
30,41,17
31,14,42
32,42,18
33,15,43
34,43,19
35,16,44
36,44,20
37,17,45
38,45,46
39,46,47
40,47,21
41,18,48
42,48,49
43,49,50
44,50,22
45,19,51
46,51,52
47,52,53
48,53,23
49,20,54
50,54,55
51,55,56
52,56,24
53,1,57
54,57,58
55,58,59
56,59,2
57,3,60
58,60,61
59,61,62
60,62,4
61,1,63
62,63,64
63,64,65
64,65,3
65,2,66
66,66,67
67,67,68
68,68,4
69,5,69
70,69,70
71,70,71
72,71,6
73,7,72
74,72,73
75,73,74
76,74,8
77,5,75
78,75,76
79,76,77
80,77,7
81,6,78
82,78,79
83,79,80
84,80,8
85,9,81
86,81,10
87,11,82
88,82,12
89,9,83
90,83,11
91,10,84
92,84,12
93,13,85
94,85,86
95,86,87
96,87,88
97,88,89
98,89,90
99,90,91
100,91,14
101,15,92
102,92,93
103,93,94
104,94,95
105,95,96
106,96,97
107,97,98
108,98,16
109,13,99
110,99,100
111,100,101
112,101,102
113,102,103
114,103,104
115,104,105
116,105,15
117,14,106
118,106,107
119,107,108
120,108,109
121,109,110
122,110,111
123,111,112
124,112,16
125,17,113
126,113,18
127,19,114
128,114,20
129,17,115
130,115,19
131,18,116
132,116,20
133,21,117
134,117,118
135,118,119
136,119,22
137,23,120
138,120,121
139,121,122
140,122,24
141,21,123
142,123,124
143,124,125
144,125,23
145,22,126
146,126,127
147,127,128
148,128,24
149,1,129
150,129,130
151,130,131
152,131,132
153,132,133
154,133,134
155,134,135
156,135,7
157,3,136
158,136,137
159,137,138
160,138,139
161,139,140
162,140,141
163,141,142
164,142,5
165,2,143
166,143,144
167,144,145
168,145,146
169,146,147
170,147,148
171,148,149
172,149,8
173,4,150
174,150,151
175,151,152
176,152,153
177,153,154
178,154,155
179,155,156
180,156,6
181,1,157
182,157,158
183,158,159
184,159,160
185,160,161
186,161,162
187,162,163
188,163,6
189,2,164
190,164,165
191,165,166
192,166,167
193,167,168
194,168,169
195,169,170
196,170,5
197,3,171
198,171,172
199,172,173
200,173,174
201,174,175
202,175,176
203,176,177
204,177,8
205,4,178
206,178,179
207,179,180
208,180,181
209,181,182
210,182,183
211,183,184
212,184,7
213,5,185
214,185,11
215,7,186
216,186,9
217,6,187
218,187,12
219,8,188
220,188,10
221,5,189
222,189,10
223,6,190
224,190,9
225,7,191
226,191,12
227,8,192
228,192,11
229,9,193
230,193,15
231,11,194
232,194,13
233,10,195
234,195,16
235,12,196
236,196,14
237,9,197
238,197,14
239,10,198
240,198,13
241,11,199
242,199,16
243,12,200
244,200,15
245,13,201
246,201,202
247,202,203
248,203,19
249,15,204
250,204,205
251,205,206
252,206,17
253,14,207
254,207,208
255,208,209
256,209,20
257,16,210
258,210,211
259,211,212
260,212,18
261,13,213
262,213,214
263,214,215
264,215,18
265,14,216
266,216,217
267,217,218
268,218,17
269,15,219
270,219,220
271,220,221
272,221,20
273,16,222
274,222,223
275,223,224
276,224,19
277,17,23
278,19,21
279,18,24
280,20,22
281,17,22
282,18,21
283,19,24
284,20,23
*NSET,NSET=NALL,GENERATE
1,224,1
*NSET,NSET=LEFT
1,2,3,4
*NSET,NSET=RIGHT
21,22,23,24
*MATERIAL,NAME=STEEL
*ELASTIC
2.100000000000e+11,0.300000000000
*BEAM SECTION,ELSET=ALL,MATERIAL=STEEL,SECTION=RECT
6.000000000000e-02,4.000000000000e-02
0.371390676354,0.557086014531,0.742781352708
*BOUNDARY
LEFT,1,6,0.0
*STEP
*STATIC
*BOUNDARY
21,1,1,5.000000000000e-03
21,2,2,0.0
21,3,3,-6.000000000000e-03
*BOUNDARY
22,1,1,5.000000000000e-03
22,2,2,0.0
22,3,3,6.000000000000e-03
*BOUNDARY
23,1,1,-5.000000000000e-03
23,2,2,0.0
23,3,3,-6.000000000000e-03
*BOUNDARY
24,1,1,-5.000000000000e-03
24,2,2,0.0
24,3,3,6.000000000000e-03
*NODE FILE,NSET=NALL
U
*NODE PRINT,NSET=NALL
U
*NODE PRINT,NSET=RIGHT
RF
*EL PRINT,ELSET=ALL,TOTALS=YES
ELSE
*END STEP
