*HEADING
Normalized cross-passage space-truss torsion benchmark
*NODE
1,-1.200000000000e+00,0.000000000000e+00,0.000000000000e+00
2,1.200000000000e+00,0.000000000000e+00,0.000000000000e+00
3,-1.200000000000e+00,0.000000000000e+00,2.000000000000e+00
4,1.200000000000e+00,0.000000000000e+00,2.000000000000e+00
5,-1.200000000000e+00,1.000000000000e+01,0.000000000000e+00
6,1.200000000000e+00,1.000000000000e+01,0.000000000000e+00
7,-1.200000000000e+00,1.000000000000e+01,2.000000000000e+00
8,1.200000000000e+00,1.000000000000e+01,2.000000000000e+00
9,-1.200000000000e+00,2.000000000000e+01,0.000000000000e+00
10,1.200000000000e+00,2.000000000000e+01,0.000000000000e+00
11,-1.200000000000e+00,2.000000000000e+01,2.000000000000e+00
12,1.200000000000e+00,2.000000000000e+01,2.000000000000e+00
13,-1.200000000000e+00,3.000000000000e+01,0.000000000000e+00
14,1.200000000000e+00,3.000000000000e+01,0.000000000000e+00
15,-1.200000000000e+00,3.000000000000e+01,2.000000000000e+00
16,1.200000000000e+00,3.000000000000e+01,2.000000000000e+00
17,-1.200000000000e+00,4.000000000000e+01,0.000000000000e+00
18,1.200000000000e+00,4.000000000000e+01,0.000000000000e+00
19,-1.200000000000e+00,4.000000000000e+01,2.000000000000e+00
20,1.200000000000e+00,4.000000000000e+01,2.000000000000e+00
21,-1.200000000000e+00,5.000000000000e+01,0.000000000000e+00
22,1.200000000000e+00,5.000000000000e+01,0.000000000000e+00
23,-1.200000000000e+00,5.000000000000e+01,2.000000000000e+00
24,1.200000000000e+00,5.000000000000e+01,2.000000000000e+00
25,-1.200000000000e+00,5.000000000000e+00,-1.500000000000e-01
26,1.200000000000e+00,5.000000000000e+00,1.500000000000e-01
27,-1.200000000000e+00,5.000000000000e+00,1.850000000000e+00
28,1.200000000000e+00,5.000000000000e+00,2.150000000000e+00
29,-1.200000000000e+00,1.500000000000e+01,-1.500000000000e-01
30,1.200000000000e+00,1.500000000000e+01,1.500000000000e-01
31,-1.200000000000e+00,1.500000000000e+01,1.850000000000e+00
32,1.200000000000e+00,1.500000000000e+01,2.150000000000e+00
33,-1.200000000000e+00,2.500000000000e+01,-1.500000000000e-01
34,1.200000000000e+00,2.500000000000e+01,1.500000000000e-01
35,-1.200000000000e+00,2.500000000000e+01,1.850000000000e+00
36,1.200000000000e+00,2.500000000000e+01,2.150000000000e+00
37,-1.200000000000e+00,3.500000000000e+01,-1.500000000000e-01
38,1.200000000000e+00,3.500000000000e+01,1.500000000000e-01
39,-1.200000000000e+00,3.500000000000e+01,1.850000000000e+00
40,1.200000000000e+00,3.500000000000e+01,2.150000000000e+00
41,-1.200000000000e+00,4.500000000000e+01,-1.500000000000e-01
42,1.200000000000e+00,4.500000000000e+01,1.500000000000e-01
43,-1.200000000000e+00,4.500000000000e+01,1.850000000000e+00
44,1.200000000000e+00,4.500000000000e+01,2.150000000000e+00
45,0.000000000000e+00,-3.600000000000e-02,0.000000000000e+00
46,0.000000000000e+00,3.600000000000e-02,2.000000000000e+00
47,-1.200000000000e+00,3.000000000000e-02,1.000000000000e+00
48,1.200000000000e+00,-3.000000000000e-02,1.000000000000e+00
49,0.000000000000e+00,9.964000000000e+00,0.000000000000e+00
50,0.000000000000e+00,1.003600000000e+01,2.000000000000e+00
51,-1.200000000000e+00,1.003000000000e+01,1.000000000000e+00
52,1.200000000000e+00,9.970000000000e+00,1.000000000000e+00
53,-9.000000000000e-01,1.998622339643e+01,0.000000000000e+00
54,-6.000000000000e-01,1.997454415588e+01,0.000000000000e+00
55,-3.000000000000e-01,1.996674033683e+01,0.000000000000e+00
56,0.000000000000e+00,1.996400000000e+01,0.000000000000e+00
57,3.000000000000e-01,1.996674033683e+01,0.000000000000e+00
58,6.000000000000e-01,1.997454415588e+01,0.000000000000e+00
59,9.000000000000e-01,1.998622339643e+01,0.000000000000e+00
60,-9.000000000000e-01,2.001377660357e+01,2.000000000000e+00
61,-6.000000000000e-01,2.002545584412e+01,2.000000000000e+00
62,-3.000000000000e-01,2.003325966317e+01,2.000000000000e+00
63,0.000000000000e+00,2.003600000000e+01,2.000000000000e+00
64,3.000000000000e-01,2.003325966317e+01,2.000000000000e+00
65,6.000000000000e-01,2.002545584412e+01,2.000000000000e+00
66,9.000000000000e-01,2.001377660357e+01,2.000000000000e+00
67,-1.200000000000e+00,2.001148050297e+01,2.500000000000e-01
68,-1.200000000000e+00,2.002121320344e+01,5.000000000000e-01
69,-1.200000000000e+00,2.002771638598e+01,7.500000000000e-01
70,-1.200000000000e+00,2.003000000000e+01,1.000000000000e+00
71,-1.200000000000e+00,2.002771638598e+01,1.250000000000e+00
72,-1.200000000000e+00,2.002121320344e+01,1.500000000000e+00
73,-1.200000000000e+00,2.001148050297e+01,1.750000000000e+00
74,1.200000000000e+00,1.998851949703e+01,2.500000000000e-01
75,1.200000000000e+00,1.997878679656e+01,5.000000000000e-01
76,1.200000000000e+00,1.997228361402e+01,7.500000000000e-01
77,1.200000000000e+00,1.997000000000e+01,1.000000000000e+00
78,1.200000000000e+00,1.997228361402e+01,1.250000000000e+00
79,1.200000000000e+00,1.997878679656e+01,1.500000000000e+00
80,1.200000000000e+00,1.998851949703e+01,1.750000000000e+00
81,-9.000000000000e-01,2.998622339643e+01,0.000000000000e+00
82,-6.000000000000e-01,2.997454415588e+01,0.000000000000e+00
83,-3.000000000000e-01,2.996674033683e+01,0.000000000000e+00
84,0.000000000000e+00,2.996400000000e+01,0.000000000000e+00
85,3.000000000000e-01,2.996674033683e+01,0.000000000000e+00
86,6.000000000000e-01,2.997454415588e+01,0.000000000000e+00
87,9.000000000000e-01,2.998622339643e+01,0.000000000000e+00
88,-9.000000000000e-01,3.001377660357e+01,2.000000000000e+00
89,-6.000000000000e-01,3.002545584412e+01,2.000000000000e+00
90,-3.000000000000e-01,3.003325966317e+01,2.000000000000e+00
91,0.000000000000e+00,3.003600000000e+01,2.000000000000e+00
92,3.000000000000e-01,3.003325966317e+01,2.000000000000e+00
93,6.000000000000e-01,3.002545584412e+01,2.000000000000e+00
94,9.000000000000e-01,3.001377660357e+01,2.000000000000e+00
95,-1.200000000000e+00,3.001148050297e+01,2.500000000000e-01
96,-1.200000000000e+00,3.002121320344e+01,5.000000000000e-01
97,-1.200000000000e+00,3.002771638598e+01,7.500000000000e-01
98,-1.200000000000e+00,3.003000000000e+01,1.000000000000e+00
99,-1.200000000000e+00,3.002771638598e+01,1.250000000000e+00
100,-1.200000000000e+00,3.002121320344e+01,1.500000000000e+00
101,-1.200000000000e+00,3.001148050297e+01,1.750000000000e+00
102,1.200000000000e+00,2.998851949703e+01,2.500000000000e-01
103,1.200000000000e+00,2.997878679656e+01,5.000000000000e-01
104,1.200000000000e+00,2.997228361402e+01,7.500000000000e-01
105,1.200000000000e+00,2.997000000000e+01,1.000000000000e+00
106,1.200000000000e+00,2.997228361402e+01,1.250000000000e+00
107,1.200000000000e+00,2.997878679656e+01,1.500000000000e+00
108,1.200000000000e+00,2.998851949703e+01,1.750000000000e+00
109,0.000000000000e+00,3.996400000000e+01,0.000000000000e+00
110,0.000000000000e+00,4.003600000000e+01,2.000000000000e+00
111,-1.200000000000e+00,4.003000000000e+01,1.000000000000e+00
112,1.200000000000e+00,3.997000000000e+01,1.000000000000e+00
113,0.000000000000e+00,4.996400000000e+01,0.000000000000e+00
114,0.000000000000e+00,5.003600000000e+01,2.000000000000e+00
115,-1.200000000000e+00,5.003000000000e+01,1.000000000000e+00
116,1.200000000000e+00,4.997000000000e+01,1.000000000000e+00
117,-1.200000000000e+00,5.030000000000e+00,8.500000000000e-01
118,-1.200000000000e+00,5.030000000000e+00,1.150000000000e+00
119,1.200000000000e+00,5.030000000000e+00,8.500000000000e-01
120,1.200000000000e+00,5.030000000000e+00,1.150000000000e+00
121,1.500000000000e-01,4.964000000000e+00,0.000000000000e+00
122,-1.500000000000e-01,4.964000000000e+00,0.000000000000e+00
123,1.500000000000e-01,4.964000000000e+00,2.000000000000e+00
124,-1.500000000000e-01,4.964000000000e+00,2.000000000000e+00
125,-1.200000000000e+00,1.503000000000e+01,8.500000000000e-01
126,-1.200000000000e+00,1.503000000000e+01,1.150000000000e+00
127,1.200000000000e+00,1.503000000000e+01,8.500000000000e-01
128,1.200000000000e+00,1.503000000000e+01,1.150000000000e+00
129,1.500000000000e-01,1.496400000000e+01,0.000000000000e+00
130,-1.500000000000e-01,1.496400000000e+01,0.000000000000e+00
131,1.500000000000e-01,1.496400000000e+01,2.000000000000e+00
132,-1.500000000000e-01,1.496400000000e+01,2.000000000000e+00
133,-1.200000000000e+00,2.126148050297e+01,1.925974851452e-01
134,-1.200000000000e+00,2.252121320344e+01,3.939339828220e-01
135,-1.200000000000e+00,2.377771638598e+01,6.114180701233e-01
136,-1.200000000000e+00,2.503000000000e+01,8.500000000000e-01
137,-1.200000000000e+00,2.627771638598e+01,1.111418070123e+00
138,-1.200000000000e+00,2.752121320344e+01,1.393933982822e+00
139,-1.200000000000e+00,2.876148050297e+01,1.692597485145e+00
140,-1.200000000000e+00,2.126148050297e+01,1.807402514855e+00
141,-1.200000000000e+00,2.252121320344e+01,1.606066017178e+00
142,-1.200000000000e+00,2.377771638598e+01,1.388581929877e+00
143,-1.200000000000e+00,2.503000000000e+01,1.150000000000e+00
144,-1.200000000000e+00,2.627771638598e+01,8.885819298767e-01
145,-1.200000000000e+00,2.752121320344e+01,6.060660171780e-01
146,-1.200000000000e+00,2.876148050297e+01,3.074025148548e-01
147,1.200000000000e+00,2.126148050297e+01,1.925974851452e-01
148,1.200000000000e+00,2.252121320344e+01,3.939339828220e-01
149,1.200000000000e+00,2.377771638598e+01,6.114180701233e-01
150,1.200000000000e+00,2.503000000000e+01,8.500000000000e-01
151,1.200000000000e+00,2.627771638598e+01,1.111418070123e+00
152,1.200000000000e+00,2.752121320344e+01,1.393933982822e+00
153,1.200000000000e+00,2.876148050297e+01,1.692597485145e+00
154,1.200000000000e+00,2.126148050297e+01,1.807402514855e+00
155,1.200000000000e+00,2.252121320344e+01,1.606066017178e+00
156,1.200000000000e+00,2.377771638598e+01,1.388581929877e+00
157,1.200000000000e+00,2.503000000000e+01,1.150000000000e+00
158,1.200000000000e+00,2.627771638598e+01,8.885819298767e-01
159,1.200000000000e+00,2.752121320344e+01,6.060660171780e-01
160,1.200000000000e+00,2.876148050297e+01,3.074025148548e-01
161,-8.425974851452e-01,2.123622339643e+01,0.000000000000e+00
162,-4.939339828220e-01,2.247454415588e+01,0.000000000000e+00
163,-1.614180701233e-01,2.371674033683e+01,0.000000000000e+00
164,1.500000000000e-01,2.496400000000e+01,0.000000000000e+00
165,4.385819298767e-01,2.621674033683e+01,0.000000000000e+00
166,7.060660171780e-01,2.747454415588e+01,0.000000000000e+00
167,9.574025148548e-01,2.873622339643e+01,0.000000000000e+00
168,8.425974851452e-01,2.123622339643e+01,0.000000000000e+00
169,4.939339828220e-01,2.247454415588e+01,0.000000000000e+00
170,1.614180701233e-01,2.371674033683e+01,0.000000000000e+00
171,-1.500000000000e-01,2.496400000000e+01,0.000000000000e+00
172,-4.385819298767e-01,2.621674033683e+01,0.000000000000e+00
173,-7.060660171780e-01,2.747454415588e+01,0.000000000000e+00
174,-9.574025148548e-01,2.873622339643e+01,0.000000000000e+00
175,-8.425974851452e-01,2.123622339643e+01,2.000000000000e+00
176,-4.939339828220e-01,2.247454415588e+01,2.000000000000e+00
177,-1.614180701233e-01,2.371674033683e+01,2.000000000000e+00
178,1.500000000000e-01,2.496400000000e+01,2.000000000000e+00
179,4.385819298767e-01,2.621674033683e+01,2.000000000000e+00
180,7.060660171780e-01,2.747454415588e+01,2.000000000000e+00
181,9.574025148548e-01,2.873622339643e+01,2.000000000000e+00
182,8.425974851452e-01,2.123622339643e+01,2.000000000000e+00
183,4.939339828220e-01,2.247454415588e+01,2.000000000000e+00
184,1.614180701233e-01,2.371674033683e+01,2.000000000000e+00
185,-1.500000000000e-01,2.496400000000e+01,2.000000000000e+00
186,-4.385819298767e-01,2.621674033683e+01,2.000000000000e+00
187,-7.060660171780e-01,2.747454415588e+01,2.000000000000e+00
188,-9.574025148548e-01,2.873622339643e+01,2.000000000000e+00
189,-1.200000000000e+00,3.252121320344e+01,3.939339828220e-01
190,-1.200000000000e+00,3.503000000000e+01,8.500000000000e-01
191,-1.200000000000e+00,3.752121320344e+01,1.393933982822e+00
192,-1.200000000000e+00,3.252121320344e+01,1.606066017178e+00
193,-1.200000000000e+00,3.503000000000e+01,1.150000000000e+00
194,-1.200000000000e+00,3.752121320344e+01,6.060660171780e-01
195,1.200000000000e+00,3.252121320344e+01,3.939339828220e-01
196,1.200000000000e+00,3.503000000000e+01,8.500000000000e-01
197,1.200000000000e+00,3.752121320344e+01,1.393933982822e+00
198,1.200000000000e+00,3.252121320344e+01,1.606066017178e+00
199,1.200000000000e+00,3.503000000000e+01,1.150000000000e+00
200,1.200000000000e+00,3.752121320344e+01,6.060660171780e-01
201,-4.939339828220e-01,3.247454415588e+01,0.000000000000e+00
202,1.500000000000e-01,3.496400000000e+01,0.000000000000e+00
203,7.060660171780e-01,3.747454415588e+01,0.000000000000e+00
204,4.939339828220e-01,3.247454415588e+01,0.000000000000e+00
205,-1.500000000000e-01,3.496400000000e+01,0.000000000000e+00
206,-7.060660171780e-01,3.747454415588e+01,0.000000000000e+00
207,-4.939339828220e-01,3.247454415588e+01,2.000000000000e+00
208,1.500000000000e-01,3.496400000000e+01,2.000000000000e+00
209,7.060660171780e-01,3.747454415588e+01,2.000000000000e+00
210,4.939339828220e-01,3.247454415588e+01,2.000000000000e+00
211,-1.500000000000e-01,3.496400000000e+01,2.000000000000e+00
212,-7.060660171780e-01,3.747454415588e+01,2.000000000000e+00
213,-1.200000000000e+00,4.252121320344e+01,3.939339828220e-01
214,-1.200000000000e+00,4.503000000000e+01,8.500000000000e-01
215,-1.200000000000e+00,4.752121320344e+01,1.393933982822e+00
216,-1.200000000000e+00,4.252121320344e+01,1.606066017178e+00
217,-1.200000000000e+00,4.503000000000e+01,1.150000000000e+00
218,-1.200000000000e+00,4.752121320344e+01,6.060660171780e-01
219,1.200000000000e+00,4.252121320344e+01,3.939339828220e-01
220,1.200000000000e+00,4.503000000000e+01,8.500000000000e-01
221,1.200000000000e+00,4.752121320344e+01,1.393933982822e+00
222,1.200000000000e+00,4.252121320344e+01,1.606066017178e+00
223,1.200000000000e+00,4.503000000000e+01,1.150000000000e+00
224,1.200000000000e+00,4.752121320344e+01,6.060660171780e-01
225,-4.939339828220e-01,4.247454415588e+01,0.000000000000e+00
226,1.500000000000e-01,4.496400000000e+01,0.000000000000e+00
227,7.060660171780e-01,4.747454415588e+01,0.000000000000e+00
228,4.939339828220e-01,4.247454415588e+01,0.000000000000e+00
229,-1.500000000000e-01,4.496400000000e+01,0.000000000000e+00
230,-7.060660171780e-01,4.747454415588e+01,0.000000000000e+00
231,-4.939339828220e-01,4.247454415588e+01,2.000000000000e+00
232,1.500000000000e-01,4.496400000000e+01,2.000000000000e+00
233,7.060660171780e-01,4.747454415588e+01,2.000000000000e+00
234,4.939339828220e-01,4.247454415588e+01,2.000000000000e+00
235,-1.500000000000e-01,4.496400000000e+01,2.000000000000e+00
236,-7.060660171780e-01,4.747454415588e+01,2.000000000000e+00
*ELEMENT,TYPE=B31,ELSET=ALL
1,1,25
2,25,5
3,2,26
4,26,6
5,3,27
6,27,7
7,4,28
8,28,8
9,5,29
10,29,9
11,6,30
12,30,10
13,7,31
14,31,11
15,8,32
16,32,12
17,9,33
18,33,13
19,10,34
20,34,14
21,11,35
22,35,15
23,12,36
24,36,16
25,13,37
26,37,17
27,14,38
28,38,18
29,15,39
30,39,19
31,16,40
32,40,20
33,17,41
34,41,21
35,18,42
36,42,22
37,19,43
38,43,23
39,20,44
40,44,24
41,1,45
42,45,2
43,3,46
44,46,4
45,1,47
46,47,3
47,2,48
48,48,4
49,5,49
50,49,6
51,7,50
52,50,8
53,5,51
54,51,7
55,6,52
56,52,8
57,9,53
58,53,54
59,54,55
60,55,56
61,56,57
62,57,58
63,58,59
64,59,10
65,11,60
66,60,61
67,61,62
68,62,63
69,63,64
70,64,65
71,65,66
72,66,12
73,9,67
74,67,68
75,68,69
76,69,70
77,70,71
78,71,72
79,72,73
80,73,11
81,10,74
82,74,75
83,75,76
84,76,77
85,77,78
86,78,79
87,79,80
88,80,12
89,13,81
90,81,82
91,82,83
92,83,84
93,84,85
94,85,86
95,86,87
96,87,14
97,15,88
98,88,89
99,89,90
100,90,91
101,91,92
102,92,93
103,93,94
104,94,16
105,13,95
106,95,96
107,96,97
108,97,98
109,98,99
110,99,100
111,100,101
112,101,15
113,14,102
114,102,103
115,103,104
116,104,105
117,105,106
118,106,107
119,107,108
120,108,16
121,17,109
122,109,18
123,19,110
124,110,20
125,17,111
126,111,19
127,18,112
128,112,20
129,21,113
130,113,22
131,23,114
132,114,24
133,21,115
134,115,23
135,22,116
136,116,24
137,1,117
138,117,7
139,3,118
140,118,5
141,2,119
142,119,8
143,4,120
144,120,6
145,1,121
146,121,6
147,2,122
148,122,5
149,3,123
150,123,8
151,4,124
152,124,7
153,5,125
154,125,11
155,7,126
156,126,9
157,6,127
158,127,12
159,8,128
160,128,10
161,5,129
162,129,10
163,6,130
164,130,9
165,7,131
166,131,12
167,8,132
168,132,11
169,9,133
170,133,134
171,134,135
172,135,136
173,136,137
174,137,138
175,138,139
176,139,15
177,11,140
178,140,141
179,141,142
180,142,143
181,143,144
182,144,145
183,145,146
184,146,13
185,10,147
186,147,148
187,148,149
188,149,150
189,150,151
190,151,152
191,152,153
192,153,16
193,12,154
194,154,155
195,155,156
196,156,157
197,157,158
198,158,159
199,159,160
200,160,14
201,9,161
202,161,162
203,162,163
204,163,164
205,164,165
206,165,166
207,166,167
208,167,14
209,10,168
210,168,169
211,169,170
212,170,171
213,171,172
214,172,173
215,173,174
216,174,13
217,11,175
218,175,176
219,176,177
220,177,178
221,178,179
222,179,180
223,180,181
224,181,16
225,12,182
226,182,183
227,183,184
228,184,185
229,185,186
230,186,187
231,187,188
232,188,15
233,13,189
234,189,190
235,190,191
236,191,19
237,15,192
238,192,193
239,193,194
240,194,17
241,14,195
242,195,196
243,196,197
244,197,20
245,16,198
246,198,199
247,199,200
248,200,18
249,13,201
250,201,202
251,202,203
252,203,18
253,14,204
254,204,205
255,205,206
256,206,17
257,15,207
258,207,208
259,208,209
260,209,20
261,16,210
262,210,211
263,211,212
264,212,19
265,17,213
266,213,214
267,214,215
268,215,23
269,19,216
270,216,217
271,217,218
272,218,21
273,18,219
274,219,220
275,220,221
276,221,24
277,20,222
278,222,223
279,223,224
280,224,22
281,17,225
282,225,226
283,226,227
284,227,22
285,18,228
286,228,229
287,229,230
288,230,21
289,19,231
290,231,232
291,232,233
292,233,24
293,20,234
294,234,235
295,235,236
296,236,23
*NSET,NSET=NALL,GENERATE
1,236,1
*NSET,NSET=LEFT
1,2,3,4
*NSET,NSET=RIGHT
21,22,23,24
*MATERIAL,NAME=STEEL
*ELASTIC
2.100000000000e+11,0.300000000000
*BEAM SECTION,ELSET=ALL,MATERIAL=STEEL,SECTION=RECT
6.000000000000e-02,4.000000000000e-02
0.371390676354,0.557086014531,0.742781352708
*BOUNDARY
LEFT,1,6,0.0
*STEP
*STATIC
*BOUNDARY
21,1,1,5.000000000000e-03
21,2,2,0.0
21,3,3,-6.000000000000e-03
*BOUNDARY
22,1,1,5.000000000000e-03
22,2,2,0.0
22,3,3,6.000000000000e-03
*BOUNDARY
23,1,1,-5.000000000000e-03
23,2,2,0.0
23,3,3,-6.000000000000e-03
*BOUNDARY
24,1,1,-5.000000000000e-03
24,2,2,0.0
24,3,3,6.000000000000e-03
*NODE FILE,NSET=NALL
U
*NODE PRINT,NSET=NALL
U
*NODE PRINT,NSET=RIGHT
RF
*EL PRINT,ELSET=ALL,TOTALS=YES
ELSE
*END STEP
