*HEADING
Normalized cross-passage space-truss torsion benchmark
*NODE
1,-1.200000000000e+00,0.000000000000e+00,0.000000000000e+00
2,1.200000000000e+00,0.000000000000e+00,0.000000000000e+00
3,-1.200000000000e+00,0.000000000000e+00,2.000000000000e+00
4,1.200000000000e+00,0.000000000000e+00,2.000000000000e+00
5,-1.200000000000e+00,1.000000000000e+01,0.000000000000e+00
6,1.200000000000e+00,1.000000000000e+01,0.000000000000e+00
7,-1.200000000000e+00,1.000000000000e+01,2.000000000000e+00
8,1.200000000000e+00,1.000000000000e+01,2.000000000000e+00
9,-1.200000000000e+00,2.000000000000e+01,0.000000000000e+00
10,1.200000000000e+00,2.000000000000e+01,0.000000000000e+00
11,-1.200000000000e+00,2.000000000000e+01,2.000000000000e+00
12,1.200000000000e+00,2.000000000000e+01,2.000000000000e+00
13,-1.200000000000e+00,3.000000000000e+01,0.000000000000e+00
14,1.200000000000e+00,3.000000000000e+01,0.000000000000e+00
15,-1.200000000000e+00,3.000000000000e+01,2.000000000000e+00
16,1.200000000000e+00,3.000000000000e+01,2.000000000000e+00
17,-1.200000000000e+00,4.000000000000e+01,0.000000000000e+00
18,1.200000000000e+00,4.000000000000e+01,0.000000000000e+00
19,-1.200000000000e+00,4.000000000000e+01,2.000000000000e+00
20,1.200000000000e+00,4.000000000000e+01,2.000000000000e+00
21,-1.200000000000e+00,5.000000000000e+01,0.000000000000e+00
22,1.200000000000e+00,5.000000000000e+01,0.000000000000e+00
23,-1.200000000000e+00,5.000000000000e+01,2.000000000000e+00
24,1.200000000000e+00,5.000000000000e+01,2.000000000000e+00
25,-1.200000000000e+00,1.500000000000e+01,-1.500000000000e-01
26,1.200000000000e+00,1.500000000000e+01,1.500000000000e-01
27,-1.200000000000e+00,1.500000000000e+01,1.850000000000e+00
28,1.200000000000e+00,1.500000000000e+01,2.150000000000e+00
29,-1.200000000000e+00,2.500000000000e+01,-1.500000000000e-01
30,1.200000000000e+00,2.500000000000e+01,1.500000000000e-01
31,-1.200000000000e+00,2.500000000000e+01,1.850000000000e+00
32,1.200000000000e+00,2.500000000000e+01,2.150000000000e+00
33,-1.200000000000e+00,3.250000000000e+01,-1.060660171780e-01
34,-1.200000000000e+00,3.500000000000e+01,-1.500000000000e-01
35,-1.200000000000e+00,3.750000000000e+01,-1.060660171780e-01
36,1.200000000000e+00,3.250000000000e+01,1.060660171780e-01
37,1.200000000000e+00,3.500000000000e+01,1.500000000000e-01
38,1.200000000000e+00,3.750000000000e+01,1.060660171780e-01
39,-1.200000000000e+00,3.250000000000e+01,1.893933982822e+00
40,-1.200000000000e+00,3.500000000000e+01,1.850000000000e+00
41,-1.200000000000e+00,3.750000000000e+01,1.893933982822e+00
42,1.200000000000e+00,3.250000000000e+01,2.106066017178e+00
43,1.200000000000e+00,3.500000000000e+01,2.150000000000e+00
44,1.200000000000e+00,3.750000000000e+01,2.106066017178e+00
45,-1.200000000000e+00,4.250000000000e+01,-1.060660171780e-01
46,-1.200000000000e+00,4.500000000000e+01,-1.500000000000e-01
47,-1.200000000000e+00,4.750000000000e+01,-1.060660171780e-01
48,1.200000000000e+00,4.250000000000e+01,1.060660171780e-01
49,1.200000000000e+00,4.500000000000e+01,1.500000000000e-01
50,1.200000000000e+00,4.750000000000e+01,1.060660171780e-01
51,-1.200000000000e+00,4.250000000000e+01,1.893933982822e+00
52,-1.200000000000e+00,4.500000000000e+01,1.850000000000e+00
53,-1.200000000000e+00,4.750000000000e+01,1.893933982822e+00
54,1.200000000000e+00,4.250000000000e+01,2.106066017178e+00
55,1.200000000000e+00,4.500000000000e+01,2.150000000000e+00
56,1.200000000000e+00,4.750000000000e+01,2.106066017178e+00
57,-6.000000000000e-01,-2.545584412272e-02,0.000000000000e+00
58,0.000000000000e+00,-3.600000000000e-02,0.000000000000e+00
59,6.000000000000e-01,-2.545584412272e-02,0.000000000000e+00
60,-6.000000000000e-01,2.545584412272e-02,2.000000000000e+00
61,0.000000000000e+00,3.600000000000e-02,2.000000000000e+00
62,6.000000000000e-01,2.545584412272e-02,2.000000000000e+00
63,-1.200000000000e+00,2.121320343560e-02,5.000000000000e-01
64,-1.200000000000e+00,3.000000000000e-02,1.000000000000e+00
65,-1.200000000000e+00,2.121320343560e-02,1.500000000000e+00
66,1.200000000000e+00,-2.121320343560e-02,5.000000000000e-01
67,1.200000000000e+00,-3.000000000000e-02,1.000000000000e+00
68,1.200000000000e+00,-2.121320343560e-02,1.500000000000e+00
69,0.000000000000e+00,1.996400000000e+01,0.000000000000e+00
70,0.000000000000e+00,2.003600000000e+01,2.000000000000e+00
71,-1.200000000000e+00,2.003000000000e+01,1.000000000000e+00
72,1.200000000000e+00,1.997000000000e+01,1.000000000000e+00
73,0.000000000000e+00,2.996400000000e+01,0.000000000000e+00
74,0.000000000000e+00,3.003600000000e+01,2.000000000000e+00
75,-1.200000000000e+00,3.003000000000e+01,1.000000000000e+00
76,1.200000000000e+00,2.997000000000e+01,1.000000000000e+00
77,0.000000000000e+00,3.996400000000e+01,0.000000000000e+00
78,0.000000000000e+00,4.003600000000e+01,2.000000000000e+00
79,-1.200000000000e+00,4.003000000000e+01,1.000000000000e+00
80,1.200000000000e+00,3.997000000000e+01,1.000000000000e+00
81,-6.000000000000e-01,4.997454415588e+01,0.000000000000e+00
82,0.000000000000e+00,4.996400000000e+01,0.000000000000e+00
83,6.000000000000e-01,4.997454415588e+01,0.000000000000e+00
84,-6.000000000000e-01,5.002545584412e+01,2.000000000000e+00
85,0.000000000000e+00,5.003600000000e+01,2.000000000000e+00
86,6.000000000000e-01,5.002545584412e+01,2.000000000000e+00
87,-1.200000000000e+00,5.002121320344e+01,5.000000000000e-01
88,-1.200000000000e+00,5.003000000000e+01,1.000000000000e+00
89,-1.200000000000e+00,5.002121320344e+01,1.500000000000e+00
90,1.200000000000e+00,4.997878679656e+01,5.000000000000e-01
91,1.200000000000e+00,4.997000000000e+01,1.000000000000e+00
92,1.200000000000e+00,4.997878679656e+01,1.500000000000e+00
93,-1.200000000000e+00,2.521213203436e+00,3.939339828220e-01
94,-1.200000000000e+00,5.030000000000e+00,8.500000000000e-01
95,-1.200000000000e+00,7.521213203436e+00,1.393933982822e+00
96,-1.200000000000e+00,2.521213203436e+00,1.606066017178e+00
97,-1.200000000000e+00,5.030000000000e+00,1.150000000000e+00
98,-1.200000000000e+00,7.521213203436e+00,6.060660171780e-01
99,1.200000000000e+00,2.521213203436e+00,3.939339828220e-01
100,1.200000000000e+00,5.030000000000e+00,8.500000000000e-01
101,1.200000000000e+00,7.521213203436e+00,1.393933982822e+00
102,1.200000000000e+00,2.521213203436e+00,1.606066017178e+00
103,1.200000000000e+00,5.030000000000e+00,1.150000000000e+00
104,1.200000000000e+00,7.521213203436e+00,6.060660171780e-01
105,-4.939339828220e-01,2.474544155877e+00,0.000000000000e+00
106,1.500000000000e-01,4.964000000000e+00,0.000000000000e+00
107,7.060660171780e-01,7.474544155877e+00,0.000000000000e+00
108,4.939339828220e-01,2.474544155877e+00,0.000000000000e+00
109,-1.500000000000e-01,4.964000000000e+00,0.000000000000e+00
110,-7.060660171780e-01,7.474544155877e+00,0.000000000000e+00
111,-4.939339828220e-01,2.474544155877e+00,2.000000000000e+00
112,1.500000000000e-01,4.964000000000e+00,2.000000000000e+00
113,7.060660171780e-01,7.474544155877e+00,2.000000000000e+00
114,4.939339828220e-01,2.474544155877e+00,2.000000000000e+00
115,-1.500000000000e-01,4.964000000000e+00,2.000000000000e+00
116,-7.060660171780e-01,7.474544155877e+00,2.000000000000e+00
117,-1.200000000000e+00,2.126148050297e+01,1.925974851452e-01
118,-1.200000000000e+00,2.252121320344e+01,3.939339828220e-01
119,-1.200000000000e+00,2.377771638598e+01,6.114180701233e-01
120,-1.200000000000e+00,2.503000000000e+01,8.500000000000e-01
121,-1.200000000000e+00,2.627771638598e+01,1.111418070123e+00
122,-1.200000000000e+00,2.752121320344e+01,1.393933982822e+00
123,-1.200000000000e+00,2.876148050297e+01,1.692597485145e+00
124,-1.200000000000e+00,2.126148050297e+01,1.807402514855e+00
125,-1.200000000000e+00,2.252121320344e+01,1.606066017178e+00
126,-1.200000000000e+00,2.377771638598e+01,1.388581929877e+00
127,-1.200000000000e+00,2.503000000000e+01,1.150000000000e+00
128,-1.200000000000e+00,2.627771638598e+01,8.885819298767e-01
129,-1.200000000000e+00,2.752121320344e+01,6.060660171780e-01
130,-1.200000000000e+00,2.876148050297e+01,3.074025148548e-01
131,1.200000000000e+00,2.126148050297e+01,1.925974851452e-01
132,1.200000000000e+00,2.252121320344e+01,3.939339828220e-01
133,1.200000000000e+00,2.377771638598e+01,6.114180701233e-01
134,1.200000000000e+00,2.503000000000e+01,8.500000000000e-01
135,1.200000000000e+00,2.627771638598e+01,1.111418070123e+00
136,1.200000000000e+00,2.752121320344e+01,1.393933982822e+00
137,1.200000000000e+00,2.876148050297e+01,1.692597485145e+00
138,1.200000000000e+00,2.126148050297e+01,1.807402514855e+00
139,1.200000000000e+00,2.252121320344e+01,1.606066017178e+00
140,1.200000000000e+00,2.377771638598e+01,1.388581929877e+00
141,1.200000000000e+00,2.503000000000e+01,1.150000000000e+00
142,1.200000000000e+00,2.627771638598e+01,8.885819298767e-01
143,1.200000000000e+00,2.752121320344e+01,6.060660171780e-01
144,1.200000000000e+00,2.876148050297e+01,3.074025148548e-01
145,-8.425974851452e-01,2.123622339643e+01,0.000000000000e+00
146,-4.939339828220e-01,2.247454415588e+01,0.000000000000e+00
147,-1.614180701233e-01,2.371674033683e+01,0.000000000000e+00
148,1.500000000000e-01,2.496400000000e+01,0.000000000000e+00
149,4.385819298767e-01,2.621674033683e+01,0.000000000000e+00
150,7.060660171780e-01,2.747454415588e+01,0.000000000000e+00
151,9.574025148548e-01,2.873622339643e+01,0.000000000000e+00
152,8.425974851452e-01,2.123622339643e+01,0.000000000000e+00
153,4.939339828220e-01,2.247454415588e+01,0.000000000000e+00
154,1.614180701233e-01,2.371674033683e+01,0.000000000000e+00
155,-1.500000000000e-01,2.496400000000e+01,0.000000000000e+00
156,-4.385819298767e-01,2.621674033683e+01,0.000000000000e+00
157,-7.060660171780e-01,2.747454415588e+01,0.000000000000e+00
158,-9.574025148548e-01,2.873622339643e+01,0.000000000000e+00
159,-8.425974851452e-01,2.123622339643e+01,2.000000000000e+00
160,-4.939339828220e-01,2.247454415588e+01,2.000000000000e+00
161,-1.614180701233e-01,2.371674033683e+01,2.000000000000e+00
162,1.500000000000e-01,2.496400000000e+01,2.000000000000e+00
163,4.385819298767e-01,2.621674033683e+01,2.000000000000e+00
164,7.060660171780e-01,2.747454415588e+01,2.000000000000e+00
165,9.574025148548e-01,2.873622339643e+01,2.000000000000e+00
166,8.425974851452e-01,2.123622339643e+01,2.000000000000e+00
167,4.939339828220e-01,2.247454415588e+01,2.000000000000e+00
168,1.614180701233e-01,2.371674033683e+01,2.000000000000e+00
169,-1.500000000000e-01,2.496400000000e+01,2.000000000000e+00
170,-4.385819298767e-01,2.621674033683e+01,2.000000000000e+00
171,-7.060660171780e-01,2.747454415588e+01,2.000000000000e+00
172,-9.574025148548e-01,2.873622339643e+01,2.000000000000e+00
173,-1.200000000000e+00,3.126148050297e+01,1.925974851452e-01
174,-1.200000000000e+00,3.252121320344e+01,3.939339828220e-01
175,-1.200000000000e+00,3.377771638598e+01,6.114180701233e-01
176,-1.200000000000e+00,3.503000000000e+01,8.500000000000e-01
177,-1.200000000000e+00,3.627771638598e+01,1.111418070123e+00
178,-1.200000000000e+00,3.752121320344e+01,1.393933982822e+00
179,-1.200000000000e+00,3.876148050297e+01,1.692597485145e+00
180,-1.200000000000e+00,3.126148050297e+01,1.807402514855e+00
181,-1.200000000000e+00,3.252121320344e+01,1.606066017178e+00
182,-1.200000000000e+00,3.377771638598e+01,1.388581929877e+00
183,-1.200000000000e+00,3.503000000000e+01,1.150000000000e+00
184,-1.200000000000e+00,3.627771638598e+01,8.885819298767e-01
185,-1.200000000000e+00,3.752121320344e+01,6.060660171780e-01
186,-1.200000000000e+00,3.876148050297e+01,3.074025148548e-01
187,1.200000000000e+00,3.126148050297e+01,1.925974851452e-01
188,1.200000000000e+00,3.252121320344e+01,3.939339828220e-01
189,1.200000000000e+00,3.377771638598e+01,6.114180701233e-01
190,1.200000000000e+00,3.503000000000e+01,8.500000000000e-01
191,1.200000000000e+00,3.627771638598e+01,1.111418070123e+00
192,1.200000000000e+00,3.752121320344e+01,1.393933982822e+00
193,1.200000000000e+00,3.876148050297e+01,1.692597485145e+00
194,1.200000000000e+00,3.126148050297e+01,1.807402514855e+00
195,1.200000000000e+00,3.252121320344e+01,1.606066017178e+00
196,1.200000000000e+00,3.377771638598e+01,1.388581929877e+00
197,1.200000000000e+00,3.503000000000e+01,1.150000000000e+00
198,1.200000000000e+00,3.627771638598e+01,8.885819298767e-01
199,1.200000000000e+00,3.752121320344e+01,6.060660171780e-01
200,1.200000000000e+00,3.876148050297e+01,3.074025148548e-01
201,-8.425974851452e-01,3.123622339643e+01,0.000000000000e+00
202,-4.939339828220e-01,3.247454415588e+01,0.000000000000e+00
203,-1.614180701233e-01,3.371674033683e+01,0.000000000000e+00
204,1.500000000000e-01,3.496400000000e+01,0.000000000000e+00
205,4.385819298767e-01,3.621674033683e+01,0.000000000000e+00
206,7.060660171780e-01,3.747454415588e+01,0.000000000000e+00
207,9.574025148548e-01,3.873622339643e+01,0.000000000000e+00
208,8.425974851452e-01,3.123622339643e+01,0.000000000000e+00
209,4.939339828220e-01,3.247454415588e+01,0.000000000000e+00
210,1.614180701233e-01,3.371674033683e+01,0.000000000000e+00
211,-1.500000000000e-01,3.496400000000e+01,0.000000000000e+00
212,-4.385819298767e-01,3.621674033683e+01,0.000000000000e+00
213,-7.060660171780e-01,3.747454415588e+01,0.000000000000e+00
214,-9.574025148548e-01,3.873622339643e+01,0.000000000000e+00
215,-8.425974851452e-01,3.123622339643e+01,2.000000000000e+00
216,-4.939339828220e-01,3.247454415588e+01,2.000000000000e+00
217,-1.614180701233e-01,3.371674033683e+01,2.000000000000e+00
218,1.500000000000e-01,3.496400000000e+01,2.000000000000e+00
219,4.385819298767e-01,3.621674033683e+01,2.000000000000e+00
220,7.060660171780e-01,3.747454415588e+01,2.000000000000e+00
221,9.574025148548e-01,3.873622339643e+01,2.000000000000e+00
222,8.425974851452e-01,3.123622339643e+01,2.000000000000e+00
223,4.939339828220e-01,3.247454415588e+01,2.000000000000e+00
224,1.614180701233e-01,3.371674033683e+01,2.000000000000e+00
225,-1.500000000000e-01,3.496400000000e+01,2.000000000000e+00
226,-4.385819298767e-01,3.621674033683e+01,2.000000000000e+00
227,-7.060660171780e-01,3.747454415588e+01,2.000000000000e+00
228,-9.574025148548e-01,3.873622339643e+01,2.000000000000e+00
229,-1.200000000000e+00,4.252121320344e+01,3.939339828220e-01
230,-1.200000000000e+00,4.503000000000e+01,8.500000000000e-01
231,-1.200000000000e+00,4.752121320344e+01,1.393933982822e+00
232,-1.200000000000e+00,4.252121320344e+01,1.606066017178e+00
233,-1.200000000000e+00,4.503000000000e+01,1.150000000000e+00
234,-1.200000000000e+00,4.752121320344e+01,6.060660171780e-01
235,1.200000000000e+00,4.252121320344e+01,3.939339828220e-01
236,1.200000000000e+00,4.503000000000e+01,8.500000000000e-01
237,1.200000000000e+00,4.752121320344e+01,1.393933982822e+00
238,1.200000000000e+00,4.252121320344e+01,1.606066017178e+00
239,1.200000000000e+00,4.503000000000e+01,1.150000000000e+00
240,1.200000000000e+00,4.752121320344e+01,6.060660171780e-01
241,-4.939339828220e-01,4.247454415588e+01,0.000000000000e+00
242,1.500000000000e-01,4.496400000000e+01,0.000000000000e+00
243,7.060660171780e-01,4.747454415588e+01,0.000000000000e+00
244,4.939339828220e-01,4.247454415588e+01,0.000000000000e+00
245,-1.500000000000e-01,4.496400000000e+01,0.000000000000e+00
246,-7.060660171780e-01,4.747454415588e+01,0.000000000000e+00
247,-4.939339828220e-01,4.247454415588e+01,2.000000000000e+00
248,1.500000000000e-01,4.496400000000e+01,2.000000000000e+00
249,7.060660171780e-01,4.747454415588e+01,2.000000000000e+00
250,4.939339828220e-01,4.247454415588e+01,2.000000000000e+00
251,-1.500000000000e-01,4.496400000000e+01,2.000000000000e+00
252,-7.060660171780e-01,4.747454415588e+01,2.000000000000e+00
*ELEMENT,TYPE=B31,ELSET=ALL
1,1,5
2,2,6
3,3,7
4,4,8
5,5,25
6,25,9
7,6,26
8,26,10
9,7,27
10,27,11
11,8,28
12,28,12
13,9,29
14,29,13
15,10,30
16,30,14
17,11,31
18,31,15
19,12,32
20,32,16
21,13,33
22,33,34
23,34,35
24,35,17
25,14,36
26,36,37
27,37,38
28,38,18
29,15,39
30,39,40
31,40,41
32,41,19
33,16,42
34,42,43
35,43,44
36,44,20
37,17,45
38,45,46
39,46,47
40,47,21
41,18,48
42,48,49
43,49,50
44,50,22
45,19,51
46,51,52
47,52,53
48,53,23
49,20,54
50,54,55
51,55,56
52,56,24
53,1,57
54,57,58
55,58,59
56,59,2
57,3,60
58,60,61
59,61,62
60,62,4
61,1,63
62,63,64
63,64,65
64,65,3
65,2,66
66,66,67
67,67,68
68,68,4
69,5,6
70,7,8
71,5,7
72,6,8
73,9,69
74,69,10
75,11,70
76,70,12
77,9,71
78,71,11
79,10,72
80,72,12
81,13,73
82,73,14
83,15,74
84,74,16
85,13,75
86,75,15
87,14,76
88,76,16
89,17,77
90,77,18
91,19,78
92,78,20
93,17,79
94,79,19
95,18,80
96,80,20
97,21,81
98,81,82
99,82,83
100,83,22
101,23,84
102,84,85
103,85,86
104,86,24
105,21,87
106,87,88
107,88,89
108,89,23
109,22,90
110,90,91
111,91,92
112,92,24
113,1,93
114,93,94
115,94,95
116,95,7
117,3,96
118,96,97
119,97,98
120,98,5
121,2,99
122,99,100
123,100,101
124,101,8
125,4,102
126,102,103
127,103,104
128,104,6
129,1,105
130,105,106
131,106,107
132,107,6
133,2,108
134,108,109
135,109,110
136,110,5
137,3,111
138,111,112
139,112,113
140,113,8
141,4,114
142,114,115
143,115,116
144,116,7
145,5,11
146,7,9
147,6,12
148,8,10
149,5,10
150,6,9
151,7,12
152,8,11
153,9,117
154,117,118
155,118,119
156,119,120
157,120,121
158,121,122
159,122,123
160,123,15
161,11,124
162,124,125
163,125,126
164,126,127
165,127,128
166,128,129
167,129,130
168,130,13
169,10,131
170,131,132
171,132,133
172,133,134
173,134,135
174,135,136
175,136,137
176,137,16
177,12,138
178,138,139
179,139,140
180,140,141
181,141,142
182,142,143
183,143,144
184,144,14
185,9,145
186,145,146
187,146,147
188,147,148
189,148,149
190,149,150
191,150,151
192,151,14
193,10,152
194,152,153
195,153,154
196,154,155
197,155,156
198,156,157
199,157,158
200,158,13
201,11,159
202,159,160
203,160,161
204,161,162
205,162,163
206,163,164
207,164,165
208,165,16
209,12,166
210,166,167
211,167,168
212,168,169
213,169,170
214,170,171
215,171,172
216,172,15
217,13,173
218,173,174
219,174,175
220,175,176
221,176,177
222,177,178
223,178,179
224,179,19
225,15,180
226,180,181
227,181,182
228,182,183
229,183,184
230,184,185
231,185,186
232,186,17
233,14,187
234,187,188
235,188,189
236,189,190
237,190,191
238,191,192
239,192,193
240,193,20
241,16,194
242,194,195
243,195,196
244,196,197
245,197,198
246,198,199
247,199,200
248,200,18
249,13,201
250,201,202
251,202,203
252,203,204
253,204,205
254,205,206
255,206,207
256,207,18
257,14,208
258,208,209
259,209,210
260,210,211
261,211,212
262,212,213
263,213,214
264,214,17
265,15,215
266,215,216
267,216,217
268,217,218
269,218,219
270,219,220
271,220,221
272,221,20
273,16,222
274,222,223
275,223,224
276,224,225
277,225,226
278,226,227
279,227,228
280,228,19
281,17,229
282,229,230
283,230,231
284,231,23
285,19,232
286,232,233
287,233,234
288,234,21
289,18,235
290,235,236
291,236,237
292,237,24
293,20,238
294,238,239
295,239,240
296,240,22
297,17,241
298,241,242
299,242,243
300,243,22
301,18,244
302,244,245
303,245,246
304,246,21
305,19,247
306,247,248
307,248,249
308,249,24
309,20,250
310,250,251
311,251,252
312,252,23
*NSET,NSET=NALL,GENERATE
1,252,1
*NSET,NSET=LEFT
1,2,3,4
*NSET,NSET=RIGHT
21,22,23,24
*MATERIAL,NAME=STEEL
*ELASTIC
2.100000000000e+11,0.300000000000
*BEAM SECTION,ELSET=ALL,MATERIAL=STEEL,SECTION=RECT
6.000000000000e-02,4.000000000000e-02
0.371390676354,0.557086014531,0.742781352708
*BOUNDARY
LEFT,1,6,0.0
*STEP
*STATIC
*BOUNDARY
21,1,1,5.000000000000e-03
21,2,2,0.0
21,3,3,-6.000000000000e-03
*BOUNDARY
22,1,1,5.000000000000e-03
22,2,2,0.0
22,3,3,6.000000000000e-03
*BOUNDARY
23,1,1,-5.000000000000e-03
23,2,2,0.0
23,3,3,-6.000000000000e-03
*BOUNDARY
24,1,1,-5.000000000000e-03
24,2,2,0.0
24,3,3,6.000000000000e-03
*NODE FILE,NSET=NALL
U
*NODE PRINT,NSET=NALL
U
*NODE PRINT,NSET=RIGHT
RF
*EL PRINT,ELSET=ALL,TOTALS=YES
ELSE
*END STEP
