*HEADING
Normalized cross-passage space-truss torsion benchmark
*NODE
1,-1.200000000000e+00,0.000000000000e+00,0.000000000000e+00
2,1.200000000000e+00,0.000000000000e+00,0.000000000000e+00
3,-1.200000000000e+00,0.000000000000e+00,2.000000000000e+00
4,1.200000000000e+00,0.000000000000e+00,2.000000000000e+00
5,-1.200000000000e+00,1.000000000000e+01,0.000000000000e+00
6,1.200000000000e+00,1.000000000000e+01,0.000000000000e+00
7,-1.200000000000e+00,1.000000000000e+01,2.000000000000e+00
8,1.200000000000e+00,1.000000000000e+01,2.000000000000e+00
9,-1.200000000000e+00,2.000000000000e+01,0.000000000000e+00
10,1.200000000000e+00,2.000000000000e+01,0.000000000000e+00
11,-1.200000000000e+00,2.000000000000e+01,2.000000000000e+00
12,1.200000000000e+00,2.000000000000e+01,2.000000000000e+00
13,-1.200000000000e+00,3.000000000000e+01,0.000000000000e+00
14,1.200000000000e+00,3.000000000000e+01,0.000000000000e+00
15,-1.200000000000e+00,3.000000000000e+01,2.000000000000e+00
16,1.200000000000e+00,3.000000000000e+01,2.000000000000e+00
17,-1.200000000000e+00,4.000000000000e+01,0.000000000000e+00
18,1.200000000000e+00,4.000000000000e+01,0.000000000000e+00
19,-1.200000000000e+00,4.000000000000e+01,2.000000000000e+00
20,1.200000000000e+00,4.000000000000e+01,2.000000000000e+00
21,-1.200000000000e+00,5.000000000000e+01,0.000000000000e+00
22,1.200000000000e+00,5.000000000000e+01,0.000000000000e+00
23,-1.200000000000e+00,5.000000000000e+01,2.000000000000e+00
24,1.200000000000e+00,5.000000000000e+01,2.000000000000e+00
25,-1.200000000000e+00,5.000000000000e+00,-1.500000000000e-01
26,1.200000000000e+00,5.000000000000e+00,1.500000000000e-01
27,-1.200000000000e+00,5.000000000000e+00,1.850000000000e+00
28,1.200000000000e+00,5.000000000000e+00,2.150000000000e+00
29,-1.200000000000e+00,1.125000000000e+01,-5.740251485476e-02
30,-1.200000000000e+00,1.250000000000e+01,-1.060660171780e-01
31,-1.200000000000e+00,1.375000000000e+01,-1.385819298767e-01
32,-1.200000000000e+00,1.500000000000e+01,-1.500000000000e-01
33,-1.200000000000e+00,1.625000000000e+01,-1.385819298767e-01
34,-1.200000000000e+00,1.750000000000e+01,-1.060660171780e-01
35,-1.200000000000e+00,1.875000000000e+01,-5.740251485476e-02
36,1.200000000000e+00,1.125000000000e+01,5.740251485476e-02
37,1.200000000000e+00,1.250000000000e+01,1.060660171780e-01
38,1.200000000000e+00,1.375000000000e+01,1.385819298767e-01
39,1.200000000000e+00,1.500000000000e+01,1.500000000000e-01
40,1.200000000000e+00,1.625000000000e+01,1.385819298767e-01
41,1.200000000000e+00,1.750000000000e+01,1.060660171780e-01
42,1.200000000000e+00,1.875000000000e+01,5.740251485476e-02
43,-1.200000000000e+00,1.125000000000e+01,1.942597485145e+00
44,-1.200000000000e+00,1.250000000000e+01,1.893933982822e+00
45,-1.200000000000e+00,1.375000000000e+01,1.861418070123e+00
46,-1.200000000000e+00,1.500000000000e+01,1.850000000000e+00
47,-1.200000000000e+00,1.625000000000e+01,1.861418070123e+00
48,-1.200000000000e+00,1.750000000000e+01,1.893933982822e+00
49,-1.200000000000e+00,1.875000000000e+01,1.942597485145e+00
50,1.200000000000e+00,1.125000000000e+01,2.057402514855e+00
51,1.200000000000e+00,1.250000000000e+01,2.106066017178e+00
52,1.200000000000e+00,1.375000000000e+01,2.138581929877e+00
53,1.200000000000e+00,1.500000000000e+01,2.150000000000e+00
54,1.200000000000e+00,1.625000000000e+01,2.138581929877e+00
55,1.200000000000e+00,1.750000000000e+01,2.106066017178e+00
56,1.200000000000e+00,1.875000000000e+01,2.057402514855e+00
57,-1.200000000000e+00,2.500000000000e+01,-1.500000000000e-01
58,1.200000000000e+00,2.500000000000e+01,1.500000000000e-01
59,-1.200000000000e+00,2.500000000000e+01,1.850000000000e+00
60,1.200000000000e+00,2.500000000000e+01,2.150000000000e+00
61,-1.200000000000e+00,3.500000000000e+01,-1.500000000000e-01
62,1.200000000000e+00,3.500000000000e+01,1.500000000000e-01
63,-1.200000000000e+00,3.500000000000e+01,1.850000000000e+00
64,1.200000000000e+00,3.500000000000e+01,2.150000000000e+00
65,-1.200000000000e+00,4.500000000000e+01,-1.500000000000e-01
66,1.200000000000e+00,4.500000000000e+01,1.500000000000e-01
67,-1.200000000000e+00,4.500000000000e+01,1.850000000000e+00
68,1.200000000000e+00,4.500000000000e+01,2.150000000000e+00
69,0.000000000000e+00,-3.600000000000e-02,0.000000000000e+00
70,0.000000000000e+00,3.600000000000e-02,2.000000000000e+00
71,-1.200000000000e+00,3.000000000000e-02,1.000000000000e+00
72,1.200000000000e+00,-3.000000000000e-02,1.000000000000e+00
73,0.000000000000e+00,9.964000000000e+00,0.000000000000e+00
74,0.000000000000e+00,1.003600000000e+01,2.000000000000e+00
75,-1.200000000000e+00,1.003000000000e+01,1.000000000000e+00
76,1.200000000000e+00,9.970000000000e+00,1.000000000000e+00
77,0.000000000000e+00,1.996400000000e+01,0.000000000000e+00
78,0.000000000000e+00,2.003600000000e+01,2.000000000000e+00
79,-1.200000000000e+00,2.003000000000e+01,1.000000000000e+00
80,1.200000000000e+00,1.997000000000e+01,1.000000000000e+00
81,0.000000000000e+00,2.996400000000e+01,0.000000000000e+00
82,0.000000000000e+00,3.003600000000e+01,2.000000000000e+00
83,-1.200000000000e+00,3.003000000000e+01,1.000000000000e+00
84,1.200000000000e+00,2.997000000000e+01,1.000000000000e+00
85,0.000000000000e+00,3.996400000000e+01,0.000000000000e+00
86,0.000000000000e+00,4.003600000000e+01,2.000000000000e+00
87,-1.200000000000e+00,4.003000000000e+01,1.000000000000e+00
88,1.200000000000e+00,3.997000000000e+01,1.000000000000e+00
89,0.000000000000e+00,4.996400000000e+01,0.000000000000e+00
90,0.000000000000e+00,5.003600000000e+01,2.000000000000e+00
91,-1.200000000000e+00,5.003000000000e+01,1.000000000000e+00
92,1.200000000000e+00,4.997000000000e+01,1.000000000000e+00
93,-1.200000000000e+00,5.030000000000e+00,8.500000000000e-01
94,-1.200000000000e+00,5.030000000000e+00,1.150000000000e+00
95,1.200000000000e+00,5.030000000000e+00,8.500000000000e-01
96,1.200000000000e+00,5.030000000000e+00,1.150000000000e+00
97,1.500000000000e-01,4.964000000000e+00,0.000000000000e+00
98,-1.500000000000e-01,4.964000000000e+00,0.000000000000e+00
99,1.500000000000e-01,4.964000000000e+00,2.000000000000e+00
100,-1.500000000000e-01,4.964000000000e+00,2.000000000000e+00
101,-1.200000000000e+00,1.126148050297e+01,1.925974851452e-01
102,-1.200000000000e+00,1.252121320344e+01,3.939339828220e-01
103,-1.200000000000e+00,1.377771638598e+01,6.114180701233e-01
104,-1.200000000000e+00,1.503000000000e+01,8.500000000000e-01
105,-1.200000000000e+00,1.627771638598e+01,1.111418070123e+00
106,-1.200000000000e+00,1.752121320344e+01,1.393933982822e+00
107,-1.200000000000e+00,1.876148050297e+01,1.692597485145e+00
108,-1.200000000000e+00,1.126148050297e+01,1.807402514855e+00
109,-1.200000000000e+00,1.252121320344e+01,1.606066017178e+00
110,-1.200000000000e+00,1.377771638598e+01,1.388581929877e+00
111,-1.200000000000e+00,1.503000000000e+01,1.150000000000e+00
112,-1.200000000000e+00,1.627771638598e+01,8.885819298767e-01
113,-1.200000000000e+00,1.752121320344e+01,6.060660171780e-01
114,-1.200000000000e+00,1.876148050297e+01,3.074025148548e-01
115,1.200000000000e+00,1.126148050297e+01,1.925974851452e-01
116,1.200000000000e+00,1.252121320344e+01,3.939339828220e-01
117,1.200000000000e+00,1.377771638598e+01,6.114180701233e-01
118,1.200000000000e+00,1.503000000000e+01,8.500000000000e-01
119,1.200000000000e+00,1.627771638598e+01,1.111418070123e+00
120,1.200000000000e+00,1.752121320344e+01,1.393933982822e+00
121,1.200000000000e+00,1.876148050297e+01,1.692597485145e+00
122,1.200000000000e+00,1.126148050297e+01,1.807402514855e+00
123,1.200000000000e+00,1.252121320344e+01,1.606066017178e+00
124,1.200000000000e+00,1.377771638598e+01,1.388581929877e+00
125,1.200000000000e+00,1.503000000000e+01,1.150000000000e+00
126,1.200000000000e+00,1.627771638598e+01,8.885819298767e-01
127,1.200000000000e+00,1.752121320344e+01,6.060660171780e-01
128,1.200000000000e+00,1.876148050297e+01,3.074025148548e-01
129,-8.425974851452e-01,1.123622339643e+01,0.000000000000e+00
130,-4.939339828220e-01,1.247454415588e+01,0.000000000000e+00
131,-1.614180701233e-01,1.371674033683e+01,0.000000000000e+00
132,1.500000000000e-01,1.496400000000e+01,0.000000000000e+00
133,4.385819298767e-01,1.621674033683e+01,0.000000000000e+00
134,7.060660171780e-01,1.747454415588e+01,0.000000000000e+00
135,9.574025148548e-01,1.873622339643e+01,0.000000000000e+00
136,8.425974851452e-01,1.123622339643e+01,0.000000000000e+00
137,4.939339828220e-01,1.247454415588e+01,0.000000000000e+00
138,1.614180701233e-01,1.371674033683e+01,0.000000000000e+00
139,-1.500000000000e-01,1.496400000000e+01,0.000000000000e+00
140,-4.385819298767e-01,1.621674033683e+01,0.000000000000e+00
141,-7.060660171780e-01,1.747454415588e+01,0.000000000000e+00
142,-9.574025148548e-01,1.873622339643e+01,0.000000000000e+00
143,-8.425974851452e-01,1.123622339643e+01,2.000000000000e+00
144,-4.939339828220e-01,1.247454415588e+01,2.000000000000e+00
145,-1.614180701233e-01,1.371674033683e+01,2.000000000000e+00
146,1.500000000000e-01,1.496400000000e+01,2.000000000000e+00
147,4.385819298767e-01,1.621674033683e+01,2.000000000000e+00
148,7.060660171780e-01,1.747454415588e+01,2.000000000000e+00
149,9.574025148548e-01,1.873622339643e+01,2.000000000000e+00
150,8.425974851452e-01,1.123622339643e+01,2.000000000000e+00
151,4.939339828220e-01,1.247454415588e+01,2.000000000000e+00
152,1.614180701233e-01,1.371674033683e+01,2.000000000000e+00
153,-1.500000000000e-01,1.496400000000e+01,2.000000000000e+00
154,-4.385819298767e-01,1.621674033683e+01,2.000000000000e+00
155,-7.060660171780e-01,1.747454415588e+01,2.000000000000e+00
156,-9.574025148548e-01,1.873622339643e+01,2.000000000000e+00
157,-1.200000000000e+00,2.503000000000e+01,8.500000000000e-01
158,-1.200000000000e+00,2.503000000000e+01,1.150000000000e+00
159,1.200000000000e+00,2.503000000000e+01,8.500000000000e-01
160,1.200000000000e+00,2.503000000000e+01,1.150000000000e+00
161,1.500000000000e-01,2.496400000000e+01,0.000000000000e+00
162,-1.500000000000e-01,2.496400000000e+01,0.000000000000e+00
163,1.500000000000e-01,2.496400000000e+01,2.000000000000e+00
164,-1.500000000000e-01,2.496400000000e+01,2.000000000000e+00
165,-1.200000000000e+00,3.503000000000e+01,8.500000000000e-01
166,-1.200000000000e+00,3.503000000000e+01,1.150000000000e+00
167,1.200000000000e+00,3.503000000000e+01,8.500000000000e-01
168,1.200000000000e+00,3.503000000000e+01,1.150000000000e+00
169,1.500000000000e-01,3.496400000000e+01,0.000000000000e+00
170,-1.500000000000e-01,3.496400000000e+01,0.000000000000e+00
171,1.500000000000e-01,3.496400000000e+01,2.000000000000e+00
172,-1.500000000000e-01,3.496400000000e+01,2.000000000000e+00
173,-1.200000000000e+00,4.503000000000e+01,8.500000000000e-01
174,-1.200000000000e+00,4.503000000000e+01,1.150000000000e+00
175,1.200000000000e+00,4.503000000000e+01,8.500000000000e-01
176,1.200000000000e+00,4.503000000000e+01,1.150000000000e+00
177,1.500000000000e-01,4.496400000000e+01,0.000000000000e+00
178,-1.500000000000e-01,4.496400000000e+01,0.000000000000e+00
179,1.500000000000e-01,4.496400000000e+01,2.000000000000e+00
180,-1.500000000000e-01,4.496400000000e+01,2.000000000000e+00
*ELEMENT,TYPE=B31,ELSET=ALL
1,1,25
2,25,5
3,2,26
4,26,6
5,3,27
6,27,7
7,4,28
8,28,8
9,5,29
10,29,30
11,30,31
12,31,32
13,32,33
14,33,34
15,34,35
16,35,9
17,6,36
18,36,37
19,37,38
20,38,39
21,39,40
22,40,41
23,41,42
24,42,10
25,7,43
26,43,44
27,44,45
28,45,46
29,46,47
30,47,48
31,48,49
32,49,11
33,8,50
34,50,51
35,51,52
36,52,53
37,53,54
38,54,55
39,55,56
40,56,12
41,9,57
42,57,13
43,10,58
44,58,14
45,11,59
46,59,15
47,12,60
48,60,16
49,13,61
50,61,17
51,14,62
52,62,18
53,15,63
54,63,19
55,16,64
56,64,20
57,17,65
58,65,21
59,18,66
60,66,22
61,19,67
62,67,23
63,20,68
64,68,24
65,1,69
66,69,2
67,3,70
68,70,4
69,1,71
70,71,3
71,2,72
72,72,4
73,5,73
74,73,6
75,7,74
76,74,8
77,5,75
78,75,7
79,6,76
80,76,8
81,9,77
82,77,10
83,11,78
84,78,12
85,9,79
86,79,11
87,10,80
88,80,12
89,13,81
90,81,14
91,15,82
92,82,16
93,13,83
94,83,15
95,14,84
96,84,16
97,17,85
98,85,18
99,19,86
100,86,20
101,17,87
102,87,19
103,18,88
104,88,20
105,21,89
106,89,22
107,23,90
108,90,24
109,21,91
110,91,23
111,22,92
112,92,24
113,1,93
114,93,7
115,3,94
116,94,5
117,2,95
118,95,8
119,4,96
120,96,6
121,1,97
122,97,6
123,2,98
124,98,5
125,3,99
126,99,8
127,4,100
128,100,7
129,5,101
130,101,102
131,102,103
132,103,104
133,104,105
134,105,106
135,106,107
136,107,11
137,7,108
138,108,109
139,109,110
140,110,111
141,111,112
142,112,113
143,113,114
144,114,9
145,6,115
146,115,116
147,116,117
148,117,118
149,118,119
150,119,120
151,120,121
152,121,12
153,8,122
154,122,123
155,123,124
156,124,125
157,125,126
158,126,127
159,127,128
160,128,10
161,5,129
162,129,130
163,130,131
164,131,132
165,132,133
166,133,134
167,134,135
168,135,10
169,6,136
170,136,137
171,137,138
172,138,139
173,139,140
174,140,141
175,141,142
176,142,9
177,7,143
178,143,144
179,144,145
180,145,146
181,146,147
182,147,148
183,148,149
184,149,12
185,8,150
186,150,151
187,151,152
188,152,153
189,153,154
190,154,155
191,155,156
192,156,11
193,9,157
194,157,15
195,11,158
196,158,13
197,10,159
198,159,16
199,12,160
200,160,14
201,9,161
202,161,14
203,10,162
204,162,13
205,11,163
206,163,16
207,12,164
208,164,15
209,13,165
210,165,19
211,15,166
212,166,17
213,14,167
214,167,20
215,16,168
216,168,18
217,13,169
218,169,18
219,14,170
220,170,17
221,15,171
222,171,20
223,16,172
224,172,19
225,17,173
226,173,23
227,19,174
228,174,21
229,18,175
230,175,24
231,20,176
232,176,22
233,17,177
234,177,22
235,18,178
236,178,21
237,19,179
238,179,24
239,20,180
240,180,23
*NSET,NSET=NALL,GENERATE
1,180,1
*NSET,NSET=LEFT
1,2,3,4
*NSET,NSET=RIGHT
21,22,23,24
*MATERIAL,NAME=STEEL
*ELASTIC
2.100000000000e+11,0.300000000000
*BEAM SECTION,ELSET=ALL,MATERIAL=STEEL,SECTION=RECT
6.000000000000e-02,4.000000000000e-02
0.371390676354,0.557086014531,0.742781352708
*BOUNDARY
LEFT,1,6,0.0
*STEP
*STATIC
*BOUNDARY
21,1,1,5.000000000000e-03
21,2,2,0.0
21,3,3,-6.000000000000e-03
*BOUNDARY
22,1,1,5.000000000000e-03
22,2,2,0.0
22,3,3,6.000000000000e-03
*BOUNDARY
23,1,1,-5.000000000000e-03
23,2,2,0.0
23,3,3,-6.000000000000e-03
*BOUNDARY
24,1,1,-5.000000000000e-03
24,2,2,0.0
24,3,3,6.000000000000e-03
*NODE FILE,NSET=NALL
U
*NODE PRINT,NSET=NALL
U
*NODE PRINT,NSET=RIGHT
RF
*EL PRINT,ELSET=ALL,TOTALS=YES
ELSE
*END STEP
