*HEADING
T02 S-LIN t02_slin_nx10 conforming C3D8 frozen T
units: mm, N, s, MPa, t. Illustrative steel, not a coupon card.
beam=T02 case=S-LIN job=t02_slin_nx10 type=C3D8
E=210000.0 nu=0.3 fy=235.0 load=-5000.0 N on TIP_TOP
*NODE, NSET=NALL
1, 0, -10, 0
2, 200, -10, 30.4
3, 200, 0, 30.4
4, 0, 0, 0
5, 0, -10, 48
6, 200, -10, 72.32
7, 200, 0, 72.32
8, 0, 0, 48
9, 0, -10, 96
10, 200, -10, 114.24
11, 200, 0, 114.24
12, 0, 0, 96
13, 0, -10, 144
14, 200, -10, 156.16
15, 200, 0, 156.16
16, 0, 0, 144
17, 0, -10, 192
18, 200, -10, 198.08
19, 200, 0, 198.08
20, 0, 0, 192
21, 0, -10, 240
22, 200, -10, 240
23, 200, 0, 240
24, 0, 0, 240
25, 200, 10, 30.4
26, 0, 10, 0
27, 200, 10, 72.32
28, 0, 10, 48
29, 200, 10, 114.24
30, 0, 10, 96
31, 200, 10, 156.16
32, 0, 10, 144
33, 200, 10, 198.08
34, 0, 10, 192
35, 200, 10, 240
36, 0, 10, 240
37, 0, -120, 240
38, 200, -120, 240
39, 200, -92.5, 240
40, 0, -92.5, 240
41, 0, -120, 250
42, 200, -120, 250
43, 200, -92.5, 250
44, 0, -92.5, 250
45, 0, -120, 260
46, 200, -120, 260
47, 200, -92.5, 260
48, 0, -92.5, 260
49, 200, -65, 240
50, 0, -65, 240
51, 200, -65, 250
52, 0, -65, 250
53, 200, -65, 260
54, 0, -65, 260
55, 200, -37.5, 240
56, 0, -37.5, 240
57, 200, -37.5, 250
58, 0, -37.5, 250
59, 200, -37.5, 260
60, 0, -37.5, 260
61, 200, -10, 250
62, 0, -10, 250
63, 200, -10, 260
64, 0, -10, 260
65, 200, 0, 250
66, 0, 0, 250
67, 200, 0, 260
68, 0, 0, 260
69, 200, 10, 250
70, 0, 10, 250
71, 200, 10, 260
72, 0, 10, 260
73, 200, 37.5, 240
74, 0, 37.5, 240
75, 200, 37.5, 250
76, 0, 37.5, 250
77, 200, 37.5, 260
78, 0, 37.5, 260
79, 200, 65, 240
80, 0, 65, 240
81, 200, 65, 250
82, 0, 65, 250
83, 200, 65, 260
84, 0, 65, 260
85, 200, 92.5, 240
86, 0, 92.5, 240
87, 200, 92.5, 250
88, 0, 92.5, 250
89, 200, 92.5, 260
90, 0, 92.5, 260
91, 200, 120, 240
92, 0, 120, 240
93, 200, 120, 250
94, 0, 120, 250
95, 200, 120, 260
96, 0, 120, 260
97, 400, -10, 57.6
98, 400, 0, 57.6
99, 400, -10, 94.08
100, 400, 0, 94.08
101, 400, -10, 130.56
102, 400, 0, 130.56
103, 400, -10, 167.04
104, 400, 0, 167.04
105, 400, -10, 203.52
106, 400, 0, 203.52
107, 400, -10, 240
108, 400, 0, 240
109, 400, 10, 57.6
110, 400, 10, 94.08
111, 400, 10, 130.56
112, 400, 10, 167.04
113, 400, 10, 203.52
114, 400, 10, 240
115, 400, -120, 240
116, 400, -92.5, 240
117, 400, -120, 250
118, 400, -92.5, 250
119, 400, -120, 260
120, 400, -92.5, 260
121, 400, -65, 240
122, 400, -65, 250
123, 400, -65, 260
124, 400, -37.5, 240
125, 400, -37.5, 250
126, 400, -37.5, 260
127, 400, -10, 250
128, 400, -10, 260
129, 400, 0, 250
130, 400, 0, 260
131, 400, 10, 250
132, 400, 10, 260
133, 400, 37.5, 240
134, 400, 37.5, 250
135, 400, 37.5, 260
136, 400, 65, 240
137, 400, 65, 250
138, 400, 65, 260
139, 400, 92.5, 240
140, 400, 92.5, 250
141, 400, 92.5, 260
142, 400, 120, 240
143, 400, 120, 250
144, 400, 120, 260
145, 600, -10, 81.6
146, 600, 0, 81.6
147, 600, -10, 113.28
148, 600, 0, 113.28
149, 600, -10, 144.96
150, 600, 0, 144.96
151, 600, -10, 176.64
152, 600, 0, 176.64
153, 600, -10, 208.32
154, 600, 0, 208.32
155, 600, -10, 240
156, 600, 0, 240
157, 600, 10, 81.6
158, 600, 10, 113.28
159, 600, 10, 144.96
160, 600, 10, 176.64
161, 600, 10, 208.32
162, 600, 10, 240
163, 600, -120, 240
164, 600, -92.5, 240
165, 600, -120, 250
166, 600, -92.5, 250
167, 600, -120, 260
168, 600, -92.5, 260
169, 600, -65, 240
170, 600, -65, 250
171, 600, -65, 260
172, 600, -37.5, 240
173, 600, -37.5, 250
174, 600, -37.5, 260
175, 600, -10, 250
176, 600, -10, 260
177, 600, 0, 250
178, 600, 0, 260
179, 600, 10, 250
180, 600, 10, 260
181, 600, 37.5, 240
182, 600, 37.5, 250
183, 600, 37.5, 260
184, 600, 65, 240
185, 600, 65, 250
186, 600, 65, 260
187, 600, 92.5, 240
188, 600, 92.5, 250
189, 600, 92.5, 260
190, 600, 120, 240
191, 600, 120, 250
192, 600, 120, 260
193, 800, -10, 102.4
194, 800, 0, 102.4
195, 800, -10, 129.92
196, 800, 0, 129.92
197, 800, -10, 157.44
198, 800, 0, 157.44
199, 800, -10, 184.96
200, 800, 0, 184.96
201, 800, -10, 212.48
202, 800, 0, 212.48
203, 800, -10, 240
204, 800, 0, 240
205, 800, 10, 102.4
206, 800, 10, 129.92
207, 800, 10, 157.44
208, 800, 10, 184.96
209, 800, 10, 212.48
210, 800, 10, 240
211, 800, -120, 240
212, 800, -92.5, 240
213, 800, -120, 250
214, 800, -92.5, 250
215, 800, -120, 260
216, 800, -92.5, 260
217, 800, -65, 240
218, 800, -65, 250
219, 800, -65, 260
220, 800, -37.5, 240
221, 800, -37.5, 250
222, 800, -37.5, 260
223, 800, -10, 250
224, 800, -10, 260
225, 800, 0, 250
226, 800, 0, 260
227, 800, 10, 250
228, 800, 10, 260
229, 800, 37.5, 240
230, 800, 37.5, 250
231, 800, 37.5, 260
232, 800, 65, 240
233, 800, 65, 250
234, 800, 65, 260
235, 800, 92.5, 240
236, 800, 92.5, 250
237, 800, 92.5, 260
238, 800, 120, 240
239, 800, 120, 250
240, 800, 120, 260
241, 1000, -10, 120
242, 1000, 0, 120
243, 1000, -10, 144
244, 1000, 0, 144
245, 1000, -10, 168
246, 1000, 0, 168
247, 1000, -10, 192
248, 1000, 0, 192
249, 1000, -10, 216
250, 1000, 0, 216
251, 1000, -10, 240
252, 1000, 0, 240
253, 1000, 10, 120
254, 1000, 10, 144
255, 1000, 10, 168
256, 1000, 10, 192
257, 1000, 10, 216
258, 1000, 10, 240
259, 1000, -120, 240
260, 1000, -92.5, 240
261, 1000, -120, 250
262, 1000, -92.5, 250
263, 1000, -120, 260
264, 1000, -92.5, 260
265, 1000, -65, 240
266, 1000, -65, 250
267, 1000, -65, 260
268, 1000, -37.5, 240
269, 1000, -37.5, 250
270, 1000, -37.5, 260
271, 1000, -10, 250
272, 1000, -10, 260
273, 1000, 0, 250
274, 1000, 0, 260
275, 1000, 10, 250
276, 1000, 10, 260
277, 1000, 37.5, 240
278, 1000, 37.5, 250
279, 1000, 37.5, 260
280, 1000, 65, 240
281, 1000, 65, 250
282, 1000, 65, 260
283, 1000, 92.5, 240
284, 1000, 92.5, 250
285, 1000, 92.5, 260
286, 1000, 120, 240
287, 1000, 120, 250
288, 1000, 120, 260
289, 1200, -10, 134.4
290, 1200, 0, 134.4
291, 1200, -10, 155.52
292, 1200, 0, 155.52
293, 1200, -10, 176.64
294, 1200, 0, 176.64
295, 1200, -10, 197.76
296, 1200, 0, 197.76
297, 1200, -10, 218.88
298, 1200, 0, 218.88
299, 1200, -10, 240
300, 1200, 0, 240
301, 1200, 10, 134.4
302, 1200, 10, 155.52
303, 1200, 10, 176.64
304, 1200, 10, 197.76
305, 1200, 10, 218.88
306, 1200, 10, 240
307, 1200, -120, 240
308, 1200, -92.5, 240
309, 1200, -120, 250
310, 1200, -92.5, 250
311, 1200, -120, 260
312, 1200, -92.5, 260
313, 1200, -65, 240
314, 1200, -65, 250
315, 1200, -65, 260
316, 1200, -37.5, 240
317, 1200, -37.5, 250
318, 1200, -37.5, 260
319, 1200, -10, 250
320, 1200, -10, 260
321, 1200, 0, 250
322, 1200, 0, 260
323, 1200, 10, 250
324, 1200, 10, 260
325, 1200, 37.5, 240
326, 1200, 37.5, 250
327, 1200, 37.5, 260
328, 1200, 65, 240
329, 1200, 65, 250
330, 1200, 65, 260
331, 1200, 92.5, 240
332, 1200, 92.5, 250
333, 1200, 92.5, 260
334, 1200, 120, 240
335, 1200, 120, 250
336, 1200, 120, 260
337, 1400, -10, 145.6
338, 1400, 0, 145.6
339, 1400, -10, 164.48
340, 1400, 0, 164.48
341, 1400, -10, 183.36
342, 1400, 0, 183.36
343, 1400, -10, 202.24
344, 1400, 0, 202.24
345, 1400, -10, 221.12
346, 1400, 0, 221.12
347, 1400, -10, 240
348, 1400, 0, 240
349, 1400, 10, 145.6
350, 1400, 10, 164.48
351, 1400, 10, 183.36
352, 1400, 10, 202.24
353, 1400, 10, 221.12
354, 1400, 10, 240
355, 1400, -120, 240
356, 1400, -92.5, 240
357, 1400, -120, 250
358, 1400, -92.5, 250
359, 1400, -120, 260
360, 1400, -92.5, 260
361, 1400, -65, 240
362, 1400, -65, 250
363, 1400, -65, 260
364, 1400, -37.5, 240
365, 1400, -37.5, 250
366, 1400, -37.5, 260
367, 1400, -10, 250
368, 1400, -10, 260
369, 1400, 0, 250
370, 1400, 0, 260
371, 1400, 10, 250
372, 1400, 10, 260
373, 1400, 37.5, 240
374, 1400, 37.5, 250
375, 1400, 37.5, 260
376, 1400, 65, 240
377, 1400, 65, 250
378, 1400, 65, 260
379, 1400, 92.5, 240
380, 1400, 92.5, 250
381, 1400, 92.5, 260
382, 1400, 120, 240
383, 1400, 120, 250
384, 1400, 120, 260
385, 1600, -10, 153.6
386, 1600, 0, 153.6
387, 1600, -10, 170.88
388, 1600, 0, 170.88
389, 1600, -10, 188.16
390, 1600, 0, 188.16
391, 1600, -10, 205.44
392, 1600, 0, 205.44
393, 1600, -10, 222.72
394, 1600, 0, 222.72
395, 1600, -10, 240
396, 1600, 0, 240
397, 1600, 10, 153.6
398, 1600, 10, 170.88
399, 1600, 10, 188.16
400, 1600, 10, 205.44
401, 1600, 10, 222.72
402, 1600, 10, 240
403, 1600, -120, 240
404, 1600, -92.5, 240
405, 1600, -120, 250
406, 1600, -92.5, 250
407, 1600, -120, 260
408, 1600, -92.5, 260
409, 1600, -65, 240
410, 1600, -65, 250
411, 1600, -65, 260
412, 1600, -37.5, 240
413, 1600, -37.5, 250
414, 1600, -37.5, 260
415, 1600, -10, 250
416, 1600, -10, 260
417, 1600, 0, 250
418, 1600, 0, 260
419, 1600, 10, 250
420, 1600, 10, 260
421, 1600, 37.5, 240
422, 1600, 37.5, 250
423, 1600, 37.5, 260
424, 1600, 65, 240
425, 1600, 65, 250
426, 1600, 65, 260
427, 1600, 92.5, 240
428, 1600, 92.5, 250
429, 1600, 92.5, 260
430, 1600, 120, 240
431, 1600, 120, 250
432, 1600, 120, 260
433, 1800, -10, 158.4
434, 1800, 0, 158.4
435, 1800, -10, 174.72
436, 1800, 0, 174.72
437, 1800, -10, 191.04
438, 1800, 0, 191.04
439, 1800, -10, 207.36
440, 1800, 0, 207.36
441, 1800, -10, 223.68
442, 1800, 0, 223.68
443, 1800, -10, 240
444, 1800, 0, 240
445, 1800, 10, 158.4
446, 1800, 10, 174.72
447, 1800, 10, 191.04
448, 1800, 10, 207.36
449, 1800, 10, 223.68
450, 1800, 10, 240
451, 1800, -120, 240
452, 1800, -92.5, 240
453, 1800, -120, 250
454, 1800, -92.5, 250
455, 1800, -120, 260
456, 1800, -92.5, 260
457, 1800, -65, 240
458, 1800, -65, 250
459, 1800, -65, 260
460, 1800, -37.5, 240
461, 1800, -37.5, 250
462, 1800, -37.5, 260
463, 1800, -10, 250
464, 1800, -10, 260
465, 1800, 0, 250
466, 1800, 0, 260
467, 1800, 10, 250
468, 1800, 10, 260
469, 1800, 37.5, 240
470, 1800, 37.5, 250
471, 1800, 37.5, 260
472, 1800, 65, 240
473, 1800, 65, 250
474, 1800, 65, 260
475, 1800, 92.5, 240
476, 1800, 92.5, 250
477, 1800, 92.5, 260
478, 1800, 120, 240
479, 1800, 120, 250
480, 1800, 120, 260
481, 2000, -10, 160
482, 2000, 0, 160
483, 2000, -10, 176
484, 2000, 0, 176
485, 2000, -10, 192
486, 2000, 0, 192
487, 2000, -10, 208
488, 2000, 0, 208
489, 2000, -10, 224
490, 2000, 0, 224
491, 2000, -10, 240
492, 2000, 0, 240
493, 2000, 10, 160
494, 2000, 10, 176
495, 2000, 10, 192
496, 2000, 10, 208
497, 2000, 10, 224
498, 2000, 10, 240
499, 2000, -120, 240
500, 2000, -92.5, 240
501, 2000, -120, 250
502, 2000, -92.5, 250
503, 2000, -120, 260
504, 2000, -92.5, 260
505, 2000, -65, 240
506, 2000, -65, 250
507, 2000, -65, 260
508, 2000, -37.5, 240
509, 2000, -37.5, 250
510, 2000, -37.5, 260
511, 2000, -10, 250
512, 2000, -10, 260
513, 2000, 0, 250
514, 2000, 0, 260
515, 2000, 10, 250
516, 2000, 10, 260
517, 2000, 37.5, 240
518, 2000, 37.5, 250
519, 2000, 37.5, 260
520, 2000, 65, 240
521, 2000, 65, 250
522, 2000, 65, 260
523, 2000, 92.5, 240
524, 2000, 92.5, 250
525, 2000, 92.5, 260
526, 2000, 120, 240
527, 2000, 120, 250
528, 2000, 120, 260
*ELEMENT, TYPE=C3D8, ELSET=EALL
1, 1, 2, 3, 4, 5, 6, 7, 8
2, 5, 6, 7, 8, 9, 10, 11, 12
3, 9, 10, 11, 12, 13, 14, 15, 16
4, 13, 14, 15, 16, 17, 18, 19, 20
5, 17, 18, 19, 20, 21, 22, 23, 24
6, 4, 3, 25, 26, 8, 7, 27, 28
7, 8, 7, 27, 28, 12, 11, 29, 30
8, 12, 11, 29, 30, 16, 15, 31, 32
9, 16, 15, 31, 32, 20, 19, 33, 34
10, 20, 19, 33, 34, 24, 23, 35, 36
11, 37, 38, 39, 40, 41, 42, 43, 44
12, 41, 42, 43, 44, 45, 46, 47, 48
13, 40, 39, 49, 50, 44, 43, 51, 52
14, 44, 43, 51, 52, 48, 47, 53, 54
15, 50, 49, 55, 56, 52, 51, 57, 58
16, 52, 51, 57, 58, 54, 53, 59, 60
17, 56, 55, 22, 21, 58, 57, 61, 62
18, 58, 57, 61, 62, 60, 59, 63, 64
19, 21, 22, 23, 24, 62, 61, 65, 66
20, 62, 61, 65, 66, 64, 63, 67, 68
21, 24, 23, 35, 36, 66, 65, 69, 70
22, 66, 65, 69, 70, 68, 67, 71, 72
23, 36, 35, 73, 74, 70, 69, 75, 76
24, 70, 69, 75, 76, 72, 71, 77, 78
25, 74, 73, 79, 80, 76, 75, 81, 82
26, 76, 75, 81, 82, 78, 77, 83, 84
27, 80, 79, 85, 86, 82, 81, 87, 88
28, 82, 81, 87, 88, 84, 83, 89, 90
29, 86, 85, 91, 92, 88, 87, 93, 94
30, 88, 87, 93, 94, 90, 89, 95, 96
31, 2, 97, 98, 3, 6, 99, 100, 7
32, 6, 99, 100, 7, 10, 101, 102, 11
33, 10, 101, 102, 11, 14, 103, 104, 15
34, 14, 103, 104, 15, 18, 105, 106, 19
35, 18, 105, 106, 19, 22, 107, 108, 23
36, 3, 98, 109, 25, 7, 100, 110, 27
37, 7, 100, 110, 27, 11, 102, 111, 29
38, 11, 102, 111, 29, 15, 104, 112, 31
39, 15, 104, 112, 31, 19, 106, 113, 33
40, 19, 106, 113, 33, 23, 108, 114, 35
41, 38, 115, 116, 39, 42, 117, 118, 43
42, 42, 117, 118, 43, 46, 119, 120, 47
43, 39, 116, 121, 49, 43, 118, 122, 51
44, 43, 118, 122, 51, 47, 120, 123, 53
45, 49, 121, 124, 55, 51, 122, 125, 57
46, 51, 122, 125, 57, 53, 123, 126, 59
47, 55, 124, 107, 22, 57, 125, 127, 61
48, 57, 125, 127, 61, 59, 126, 128, 63
49, 22, 107, 108, 23, 61, 127, 129, 65
50, 61, 127, 129, 65, 63, 128, 130, 67
51, 23, 108, 114, 35, 65, 129, 131, 69
52, 65, 129, 131, 69, 67, 130, 132, 71
53, 35, 114, 133, 73, 69, 131, 134, 75
54, 69, 131, 134, 75, 71, 132, 135, 77
55, 73, 133, 136, 79, 75, 134, 137, 81
56, 75, 134, 137, 81, 77, 135, 138, 83
57, 79, 136, 139, 85, 81, 137, 140, 87
58, 81, 137, 140, 87, 83, 138, 141, 89
59, 85, 139, 142, 91, 87, 140, 143, 93
60, 87, 140, 143, 93, 89, 141, 144, 95
61, 97, 145, 146, 98, 99, 147, 148, 100
62, 99, 147, 148, 100, 101, 149, 150, 102
63, 101, 149, 150, 102, 103, 151, 152, 104
64, 103, 151, 152, 104, 105, 153, 154, 106
65, 105, 153, 154, 106, 107, 155, 156, 108
66, 98, 146, 157, 109, 100, 148, 158, 110
67, 100, 148, 158, 110, 102, 150, 159, 111
68, 102, 150, 159, 111, 104, 152, 160, 112
69, 104, 152, 160, 112, 106, 154, 161, 113
70, 106, 154, 161, 113, 108, 156, 162, 114
71, 115, 163, 164, 116, 117, 165, 166, 118
72, 117, 165, 166, 118, 119, 167, 168, 120
73, 116, 164, 169, 121, 118, 166, 170, 122
74, 118, 166, 170, 122, 120, 168, 171, 123
75, 121, 169, 172, 124, 122, 170, 173, 125
76, 122, 170, 173, 125, 123, 171, 174, 126
77, 124, 172, 155, 107, 125, 173, 175, 127
78, 125, 173, 175, 127, 126, 174, 176, 128
79, 107, 155, 156, 108, 127, 175, 177, 129
80, 127, 175, 177, 129, 128, 176, 178, 130
81, 108, 156, 162, 114, 129, 177, 179, 131
82, 129, 177, 179, 131, 130, 178, 180, 132
83, 114, 162, 181, 133, 131, 179, 182, 134
84, 131, 179, 182, 134, 132, 180, 183, 135
85, 133, 181, 184, 136, 134, 182, 185, 137
86, 134, 182, 185, 137, 135, 183, 186, 138
87, 136, 184, 187, 139, 137, 185, 188, 140
88, 137, 185, 188, 140, 138, 186, 189, 141
89, 139, 187, 190, 142, 140, 188, 191, 143
90, 140, 188, 191, 143, 141, 189, 192, 144
91, 145, 193, 194, 146, 147, 195, 196, 148
92, 147, 195, 196, 148, 149, 197, 198, 150
93, 149, 197, 198, 150, 151, 199, 200, 152
94, 151, 199, 200, 152, 153, 201, 202, 154
95, 153, 201, 202, 154, 155, 203, 204, 156
96, 146, 194, 205, 157, 148, 196, 206, 158
97, 148, 196, 206, 158, 150, 198, 207, 159
98, 150, 198, 207, 159, 152, 200, 208, 160
99, 152, 200, 208, 160, 154, 202, 209, 161
100, 154, 202, 209, 161, 156, 204, 210, 162
101, 163, 211, 212, 164, 165, 213, 214, 166
102, 165, 213, 214, 166, 167, 215, 216, 168
103, 164, 212, 217, 169, 166, 214, 218, 170
104, 166, 214, 218, 170, 168, 216, 219, 171
105, 169, 217, 220, 172, 170, 218, 221, 173
106, 170, 218, 221, 173, 171, 219, 222, 174
107, 172, 220, 203, 155, 173, 221, 223, 175
108, 173, 221, 223, 175, 174, 222, 224, 176
109, 155, 203, 204, 156, 175, 223, 225, 177
110, 175, 223, 225, 177, 176, 224, 226, 178
111, 156, 204, 210, 162, 177, 225, 227, 179
112, 177, 225, 227, 179, 178, 226, 228, 180
113, 162, 210, 229, 181, 179, 227, 230, 182
114, 179, 227, 230, 182, 180, 228, 231, 183
115, 181, 229, 232, 184, 182, 230, 233, 185
116, 182, 230, 233, 185, 183, 231, 234, 186
117, 184, 232, 235, 187, 185, 233, 236, 188
118, 185, 233, 236, 188, 186, 234, 237, 189
119, 187, 235, 238, 190, 188, 236, 239, 191
120, 188, 236, 239, 191, 189, 237, 240, 192
121, 193, 241, 242, 194, 195, 243, 244, 196
122, 195, 243, 244, 196, 197, 245, 246, 198
123, 197, 245, 246, 198, 199, 247, 248, 200
124, 199, 247, 248, 200, 201, 249, 250, 202
125, 201, 249, 250, 202, 203, 251, 252, 204
126, 194, 242, 253, 205, 196, 244, 254, 206
127, 196, 244, 254, 206, 198, 246, 255, 207
128, 198, 246, 255, 207, 200, 248, 256, 208
129, 200, 248, 256, 208, 202, 250, 257, 209
130, 202, 250, 257, 209, 204, 252, 258, 210
131, 211, 259, 260, 212, 213, 261, 262, 214
132, 213, 261, 262, 214, 215, 263, 264, 216
133, 212, 260, 265, 217, 214, 262, 266, 218
134, 214, 262, 266, 218, 216, 264, 267, 219
135, 217, 265, 268, 220, 218, 266, 269, 221
136, 218, 266, 269, 221, 219, 267, 270, 222
137, 220, 268, 251, 203, 221, 269, 271, 223
138, 221, 269, 271, 223, 222, 270, 272, 224
139, 203, 251, 252, 204, 223, 271, 273, 225
140, 223, 271, 273, 225, 224, 272, 274, 226
141, 204, 252, 258, 210, 225, 273, 275, 227
142, 225, 273, 275, 227, 226, 274, 276, 228
143, 210, 258, 277, 229, 227, 275, 278, 230
144, 227, 275, 278, 230, 228, 276, 279, 231
145, 229, 277, 280, 232, 230, 278, 281, 233
146, 230, 278, 281, 233, 231, 279, 282, 234
147, 232, 280, 283, 235, 233, 281, 284, 236
148, 233, 281, 284, 236, 234, 282, 285, 237
149, 235, 283, 286, 238, 236, 284, 287, 239
150, 236, 284, 287, 239, 237, 285, 288, 240
151, 241, 289, 290, 242, 243, 291, 292, 244
152, 243, 291, 292, 244, 245, 293, 294, 246
153, 245, 293, 294, 246, 247, 295, 296, 248
154, 247, 295, 296, 248, 249, 297, 298, 250
155, 249, 297, 298, 250, 251, 299, 300, 252
156, 242, 290, 301, 253, 244, 292, 302, 254
157, 244, 292, 302, 254, 246, 294, 303, 255
158, 246, 294, 303, 255, 248, 296, 304, 256
159, 248, 296, 304, 256, 250, 298, 305, 257
160, 250, 298, 305, 257, 252, 300, 306, 258
161, 259, 307, 308, 260, 261, 309, 310, 262
162, 261, 309, 310, 262, 263, 311, 312, 264
163, 260, 308, 313, 265, 262, 310, 314, 266
164, 262, 310, 314, 266, 264, 312, 315, 267
165, 265, 313, 316, 268, 266, 314, 317, 269
166, 266, 314, 317, 269, 267, 315, 318, 270
167, 268, 316, 299, 251, 269, 317, 319, 271
168, 269, 317, 319, 271, 270, 318, 320, 272
169, 251, 299, 300, 252, 271, 319, 321, 273
170, 271, 319, 321, 273, 272, 320, 322, 274
171, 252, 300, 306, 258, 273, 321, 323, 275
172, 273, 321, 323, 275, 274, 322, 324, 276
173, 258, 306, 325, 277, 275, 323, 326, 278
174, 275, 323, 326, 278, 276, 324, 327, 279
175, 277, 325, 328, 280, 278, 326, 329, 281
176, 278, 326, 329, 281, 279, 327, 330, 282
177, 280, 328, 331, 283, 281, 329, 332, 284
178, 281, 329, 332, 284, 282, 330, 333, 285
179, 283, 331, 334, 286, 284, 332, 335, 287
180, 284, 332, 335, 287, 285, 333, 336, 288
181, 289, 337, 338, 290, 291, 339, 340, 292
182, 291, 339, 340, 292, 293, 341, 342, 294
183, 293, 341, 342, 294, 295, 343, 344, 296
184, 295, 343, 344, 296, 297, 345, 346, 298
185, 297, 345, 346, 298, 299, 347, 348, 300
186, 290, 338, 349, 301, 292, 340, 350, 302
187, 292, 340, 350, 302, 294, 342, 351, 303
188, 294, 342, 351, 303, 296, 344, 352, 304
189, 296, 344, 352, 304, 298, 346, 353, 305
190, 298, 346, 353, 305, 300, 348, 354, 306
191, 307, 355, 356, 308, 309, 357, 358, 310
192, 309, 357, 358, 310, 311, 359, 360, 312
193, 308, 356, 361, 313, 310, 358, 362, 314
194, 310, 358, 362, 314, 312, 360, 363, 315
195, 313, 361, 364, 316, 314, 362, 365, 317
196, 314, 362, 365, 317, 315, 363, 366, 318
197, 316, 364, 347, 299, 317, 365, 367, 319
198, 317, 365, 367, 319, 318, 366, 368, 320
199, 299, 347, 348, 300, 319, 367, 369, 321
200, 319, 367, 369, 321, 320, 368, 370, 322
201, 300, 348, 354, 306, 321, 369, 371, 323
202, 321, 369, 371, 323, 322, 370, 372, 324
203, 306, 354, 373, 325, 323, 371, 374, 326
204, 323, 371, 374, 326, 324, 372, 375, 327
205, 325, 373, 376, 328, 326, 374, 377, 329
206, 326, 374, 377, 329, 327, 375, 378, 330
207, 328, 376, 379, 331, 329, 377, 380, 332
208, 329, 377, 380, 332, 330, 378, 381, 333
209, 331, 379, 382, 334, 332, 380, 383, 335
210, 332, 380, 383, 335, 333, 381, 384, 336
211, 337, 385, 386, 338, 339, 387, 388, 340
212, 339, 387, 388, 340, 341, 389, 390, 342
213, 341, 389, 390, 342, 343, 391, 392, 344
214, 343, 391, 392, 344, 345, 393, 394, 346
215, 345, 393, 394, 346, 347, 395, 396, 348
216, 338, 386, 397, 349, 340, 388, 398, 350
217, 340, 388, 398, 350, 342, 390, 399, 351
218, 342, 390, 399, 351, 344, 392, 400, 352
219, 344, 392, 400, 352, 346, 394, 401, 353
220, 346, 394, 401, 353, 348, 396, 402, 354
221, 355, 403, 404, 356, 357, 405, 406, 358
222, 357, 405, 406, 358, 359, 407, 408, 360
223, 356, 404, 409, 361, 358, 406, 410, 362
224, 358, 406, 410, 362, 360, 408, 411, 363
225, 361, 409, 412, 364, 362, 410, 413, 365
226, 362, 410, 413, 365, 363, 411, 414, 366
227, 364, 412, 395, 347, 365, 413, 415, 367
228, 365, 413, 415, 367, 366, 414, 416, 368
229, 347, 395, 396, 348, 367, 415, 417, 369
230, 367, 415, 417, 369, 368, 416, 418, 370
231, 348, 396, 402, 354, 369, 417, 419, 371
232, 369, 417, 419, 371, 370, 418, 420, 372
233, 354, 402, 421, 373, 371, 419, 422, 374
234, 371, 419, 422, 374, 372, 420, 423, 375
235, 373, 421, 424, 376, 374, 422, 425, 377
236, 374, 422, 425, 377, 375, 423, 426, 378
237, 376, 424, 427, 379, 377, 425, 428, 380
238, 377, 425, 428, 380, 378, 426, 429, 381
239, 379, 427, 430, 382, 380, 428, 431, 383
240, 380, 428, 431, 383, 381, 429, 432, 384
241, 385, 433, 434, 386, 387, 435, 436, 388
242, 387, 435, 436, 388, 389, 437, 438, 390
243, 389, 437, 438, 390, 391, 439, 440, 392
244, 391, 439, 440, 392, 393, 441, 442, 394
245, 393, 441, 442, 394, 395, 443, 444, 396
246, 386, 434, 445, 397, 388, 436, 446, 398
247, 388, 436, 446, 398, 390, 438, 447, 399
248, 390, 438, 447, 399, 392, 440, 448, 400
249, 392, 440, 448, 400, 394, 442, 449, 401
250, 394, 442, 449, 401, 396, 444, 450, 402
251, 403, 451, 452, 404, 405, 453, 454, 406
252, 405, 453, 454, 406, 407, 455, 456, 408
253, 404, 452, 457, 409, 406, 454, 458, 410
254, 406, 454, 458, 410, 408, 456, 459, 411
255, 409, 457, 460, 412, 410, 458, 461, 413
256, 410, 458, 461, 413, 411, 459, 462, 414
257, 412, 460, 443, 395, 413, 461, 463, 415
258, 413, 461, 463, 415, 414, 462, 464, 416
259, 395, 443, 444, 396, 415, 463, 465, 417
260, 415, 463, 465, 417, 416, 464, 466, 418
261, 396, 444, 450, 402, 417, 465, 467, 419
262, 417, 465, 467, 419, 418, 466, 468, 420
263, 402, 450, 469, 421, 419, 467, 470, 422
264, 419, 467, 470, 422, 420, 468, 471, 423
265, 421, 469, 472, 424, 422, 470, 473, 425
266, 422, 470, 473, 425, 423, 471, 474, 426
267, 424, 472, 475, 427, 425, 473, 476, 428
268, 425, 473, 476, 428, 426, 474, 477, 429
269, 427, 475, 478, 430, 428, 476, 479, 431
270, 428, 476, 479, 431, 429, 477, 480, 432
271, 433, 481, 482, 434, 435, 483, 484, 436
272, 435, 483, 484, 436, 437, 485, 486, 438
273, 437, 485, 486, 438, 439, 487, 488, 440
274, 439, 487, 488, 440, 441, 489, 490, 442
275, 441, 489, 490, 442, 443, 491, 492, 444
276, 434, 482, 493, 445, 436, 484, 494, 446
277, 436, 484, 494, 446, 438, 486, 495, 447
278, 438, 486, 495, 447, 440, 488, 496, 448
279, 440, 488, 496, 448, 442, 490, 497, 449
280, 442, 490, 497, 449, 444, 492, 498, 450
281, 451, 499, 500, 452, 453, 501, 502, 454
282, 453, 501, 502, 454, 455, 503, 504, 456
283, 452, 500, 505, 457, 454, 502, 506, 458
284, 454, 502, 506, 458, 456, 504, 507, 459
285, 457, 505, 508, 460, 458, 506, 509, 461
286, 458, 506, 509, 461, 459, 507, 510, 462
287, 460, 508, 491, 443, 461, 509, 511, 463
288, 461, 509, 511, 463, 462, 510, 512, 464
289, 443, 491, 492, 444, 463, 511, 513, 465
290, 463, 511, 513, 465, 464, 512, 514, 466
291, 444, 492, 498, 450, 465, 513, 515, 467
292, 465, 513, 515, 467, 466, 514, 516, 468
293, 450, 498, 517, 469, 467, 515, 518, 470
294, 467, 515, 518, 470, 468, 516, 519, 471
295, 469, 517, 520, 472, 470, 518, 521, 473
296, 470, 518, 521, 473, 471, 519, 522, 474
297, 472, 520, 523, 475, 473, 521, 524, 476
298, 473, 521, 524, 476, 474, 522, 525, 477
299, 475, 523, 526, 478, 476, 524, 527, 479
300, 476, 524, 527, 479, 477, 525, 528, 480
*NSET, NSET=CLAMP
1, 4, 5, 8, 9, 12, 13, 16, 17, 20, 21, 24, 26, 28, 30, 32
34, 36, 37, 40, 41, 44, 45, 48, 50, 52, 54, 56, 58, 60, 62, 64
66, 68, 70, 72, 74, 76, 78, 80, 82, 84, 86, 88, 90, 92, 94, 96
*NSET, NSET=TIP_TOP
503, 504, 507, 510, 512, 514, 516, 519, 522, 525, 528
*NSET, NSET=TIP_FLANGE
503, 504, 507, 510, 512, 514, 516, 519, 522, 525, 528
*MATERIAL, NAME=STEEL
*ELASTIC
210000, 0.3
*SOLID SECTION, ELSET=EALL, MATERIAL=STEEL
*BOUNDARY
CLAMP, 1, 3, 0.0
*STEP
*STATIC
*CLOAD
503, 3, -454.545454545
504, 3, -454.545454545
507, 3, -454.545454545
510, 3, -454.545454545
512, 3, -454.545454545
514, 3, -454.545454545
516, 3, -454.545454545
519, 3, -454.545454545
522, 3, -454.545454545
525, 3, -454.545454545
528, 3, -454.545454545
*NODE FILE
U
*EL FILE
S, ENER
*NODE PRINT, NSET=TIP_TOP
U
*NODE PRINT, NSET=CLAMP
RF
*EL PRINT, ELSET=EALL
ELSE
*ENERGY PRINT
*END STEP
