*HEADING
Normalized cross-passage space-truss torsion benchmark
*NODE
1,-1.200000000000e+00,0.000000000000e+00,0.000000000000e+00
2,1.200000000000e+00,0.000000000000e+00,0.000000000000e+00
3,-1.200000000000e+00,0.000000000000e+00,2.000000000000e+00
4,1.200000000000e+00,0.000000000000e+00,2.000000000000e+00
5,-1.200000000000e+00,1.000000000000e+01,0.000000000000e+00
6,1.200000000000e+00,1.000000000000e+01,0.000000000000e+00
7,-1.200000000000e+00,1.000000000000e+01,2.000000000000e+00
8,1.200000000000e+00,1.000000000000e+01,2.000000000000e+00
9,-1.200000000000e+00,2.000000000000e+01,0.000000000000e+00
10,1.200000000000e+00,2.000000000000e+01,0.000000000000e+00
11,-1.200000000000e+00,2.000000000000e+01,2.000000000000e+00
12,1.200000000000e+00,2.000000000000e+01,2.000000000000e+00
13,-1.200000000000e+00,3.000000000000e+01,0.000000000000e+00
14,1.200000000000e+00,3.000000000000e+01,0.000000000000e+00
15,-1.200000000000e+00,3.000000000000e+01,2.000000000000e+00
16,1.200000000000e+00,3.000000000000e+01,2.000000000000e+00
17,-1.200000000000e+00,4.000000000000e+01,0.000000000000e+00
18,1.200000000000e+00,4.000000000000e+01,0.000000000000e+00
19,-1.200000000000e+00,4.000000000000e+01,2.000000000000e+00
20,1.200000000000e+00,4.000000000000e+01,2.000000000000e+00
21,-1.200000000000e+00,5.000000000000e+01,0.000000000000e+00
22,1.200000000000e+00,5.000000000000e+01,0.000000000000e+00
23,-1.200000000000e+00,5.000000000000e+01,2.000000000000e+00
24,1.200000000000e+00,5.000000000000e+01,2.000000000000e+00
25,-1.200000000000e+00,5.000000000000e+00,-1.500000000000e-01
26,1.200000000000e+00,5.000000000000e+00,1.500000000000e-01
27,-1.200000000000e+00,5.000000000000e+00,1.850000000000e+00
28,1.200000000000e+00,5.000000000000e+00,2.150000000000e+00
29,-1.200000000000e+00,1.500000000000e+01,-1.500000000000e-01
30,1.200000000000e+00,1.500000000000e+01,1.500000000000e-01
31,-1.200000000000e+00,1.500000000000e+01,1.850000000000e+00
32,1.200000000000e+00,1.500000000000e+01,2.150000000000e+00
33,-1.200000000000e+00,3.500000000000e+01,-1.500000000000e-01
34,1.200000000000e+00,3.500000000000e+01,1.500000000000e-01
35,-1.200000000000e+00,3.500000000000e+01,1.850000000000e+00
36,1.200000000000e+00,3.500000000000e+01,2.150000000000e+00
37,0.000000000000e+00,-3.600000000000e-02,0.000000000000e+00
38,0.000000000000e+00,3.600000000000e-02,2.000000000000e+00
39,-1.200000000000e+00,3.000000000000e-02,1.000000000000e+00
40,1.200000000000e+00,-3.000000000000e-02,1.000000000000e+00
41,0.000000000000e+00,9.964000000000e+00,0.000000000000e+00
42,0.000000000000e+00,1.003600000000e+01,2.000000000000e+00
43,-1.200000000000e+00,1.003000000000e+01,1.000000000000e+00
44,1.200000000000e+00,9.970000000000e+00,1.000000000000e+00
45,0.000000000000e+00,1.996400000000e+01,0.000000000000e+00
46,0.000000000000e+00,2.003600000000e+01,2.000000000000e+00
47,-1.200000000000e+00,2.003000000000e+01,1.000000000000e+00
48,1.200000000000e+00,1.997000000000e+01,1.000000000000e+00
49,0.000000000000e+00,2.996400000000e+01,0.000000000000e+00
50,0.000000000000e+00,3.003600000000e+01,2.000000000000e+00
51,-1.200000000000e+00,3.003000000000e+01,1.000000000000e+00
52,1.200000000000e+00,2.997000000000e+01,1.000000000000e+00
53,0.000000000000e+00,3.996400000000e+01,0.000000000000e+00
54,0.000000000000e+00,4.003600000000e+01,2.000000000000e+00
55,-1.200000000000e+00,4.003000000000e+01,1.000000000000e+00
56,1.200000000000e+00,3.997000000000e+01,1.000000000000e+00
57,0.000000000000e+00,4.996400000000e+01,0.000000000000e+00
58,0.000000000000e+00,5.003600000000e+01,2.000000000000e+00
59,-1.200000000000e+00,5.003000000000e+01,1.000000000000e+00
60,1.200000000000e+00,4.997000000000e+01,1.000000000000e+00
61,-1.200000000000e+00,5.030000000000e+00,8.500000000000e-01
62,-1.200000000000e+00,5.030000000000e+00,1.150000000000e+00
63,1.200000000000e+00,5.030000000000e+00,8.500000000000e-01
64,1.200000000000e+00,5.030000000000e+00,1.150000000000e+00
65,1.500000000000e-01,4.964000000000e+00,0.000000000000e+00
66,-1.500000000000e-01,4.964000000000e+00,0.000000000000e+00
67,1.500000000000e-01,4.964000000000e+00,2.000000000000e+00
68,-1.500000000000e-01,4.964000000000e+00,2.000000000000e+00
69,-1.200000000000e+00,1.503000000000e+01,8.500000000000e-01
70,-1.200000000000e+00,1.503000000000e+01,1.150000000000e+00
71,1.200000000000e+00,1.503000000000e+01,8.500000000000e-01
72,1.200000000000e+00,1.503000000000e+01,1.150000000000e+00
73,1.500000000000e-01,1.496400000000e+01,0.000000000000e+00
74,-1.500000000000e-01,1.496400000000e+01,0.000000000000e+00
75,1.500000000000e-01,1.496400000000e+01,2.000000000000e+00
76,-1.500000000000e-01,1.496400000000e+01,2.000000000000e+00
77,-1.200000000000e+00,2.252121320344e+01,3.939339828220e-01
78,-1.200000000000e+00,2.503000000000e+01,8.500000000000e-01
79,-1.200000000000e+00,2.752121320344e+01,1.393933982822e+00
80,-1.200000000000e+00,2.252121320344e+01,1.606066017178e+00
81,-1.200000000000e+00,2.503000000000e+01,1.150000000000e+00
82,-1.200000000000e+00,2.752121320344e+01,6.060660171780e-01
83,1.200000000000e+00,2.252121320344e+01,3.939339828220e-01
84,1.200000000000e+00,2.503000000000e+01,8.500000000000e-01
85,1.200000000000e+00,2.752121320344e+01,1.393933982822e+00
86,1.200000000000e+00,2.252121320344e+01,1.606066017178e+00
87,1.200000000000e+00,2.503000000000e+01,1.150000000000e+00
88,1.200000000000e+00,2.752121320344e+01,6.060660171780e-01
89,-4.939339828220e-01,2.247454415588e+01,0.000000000000e+00
90,1.500000000000e-01,2.496400000000e+01,0.000000000000e+00
91,7.060660171780e-01,2.747454415588e+01,0.000000000000e+00
92,4.939339828220e-01,2.247454415588e+01,0.000000000000e+00
93,-1.500000000000e-01,2.496400000000e+01,0.000000000000e+00
94,-7.060660171780e-01,2.747454415588e+01,0.000000000000e+00
95,-4.939339828220e-01,2.247454415588e+01,2.000000000000e+00
96,1.500000000000e-01,2.496400000000e+01,2.000000000000e+00
97,7.060660171780e-01,2.747454415588e+01,2.000000000000e+00
98,4.939339828220e-01,2.247454415588e+01,2.000000000000e+00
99,-1.500000000000e-01,2.496400000000e+01,2.000000000000e+00
100,-7.060660171780e-01,2.747454415588e+01,2.000000000000e+00
101,-1.200000000000e+00,3.252121320344e+01,3.939339828220e-01
102,-1.200000000000e+00,3.503000000000e+01,8.500000000000e-01
103,-1.200000000000e+00,3.752121320344e+01,1.393933982822e+00
104,-1.200000000000e+00,3.252121320344e+01,1.606066017178e+00
105,-1.200000000000e+00,3.503000000000e+01,1.150000000000e+00
106,-1.200000000000e+00,3.752121320344e+01,6.060660171780e-01
107,1.200000000000e+00,3.252121320344e+01,3.939339828220e-01
108,1.200000000000e+00,3.503000000000e+01,8.500000000000e-01
109,1.200000000000e+00,3.752121320344e+01,1.393933982822e+00
110,1.200000000000e+00,3.252121320344e+01,1.606066017178e+00
111,1.200000000000e+00,3.503000000000e+01,1.150000000000e+00
112,1.200000000000e+00,3.752121320344e+01,6.060660171780e-01
113,-4.939339828220e-01,3.247454415588e+01,0.000000000000e+00
114,1.500000000000e-01,3.496400000000e+01,0.000000000000e+00
115,7.060660171780e-01,3.747454415588e+01,0.000000000000e+00
116,4.939339828220e-01,3.247454415588e+01,0.000000000000e+00
117,-1.500000000000e-01,3.496400000000e+01,0.000000000000e+00
118,-7.060660171780e-01,3.747454415588e+01,0.000000000000e+00
119,-4.939339828220e-01,3.247454415588e+01,2.000000000000e+00
120,1.500000000000e-01,3.496400000000e+01,2.000000000000e+00
121,7.060660171780e-01,3.747454415588e+01,2.000000000000e+00
122,4.939339828220e-01,3.247454415588e+01,2.000000000000e+00
123,-1.500000000000e-01,3.496400000000e+01,2.000000000000e+00
124,-7.060660171780e-01,3.747454415588e+01,2.000000000000e+00
125,-1.200000000000e+00,4.252121320344e+01,3.939339828220e-01
126,-1.200000000000e+00,4.503000000000e+01,8.500000000000e-01
127,-1.200000000000e+00,4.752121320344e+01,1.393933982822e+00
128,-1.200000000000e+00,4.252121320344e+01,1.606066017178e+00
129,-1.200000000000e+00,4.503000000000e+01,1.150000000000e+00
130,-1.200000000000e+00,4.752121320344e+01,6.060660171780e-01
131,1.200000000000e+00,4.252121320344e+01,3.939339828220e-01
132,1.200000000000e+00,4.503000000000e+01,8.500000000000e-01
133,1.200000000000e+00,4.752121320344e+01,1.393933982822e+00
134,1.200000000000e+00,4.252121320344e+01,1.606066017178e+00
135,1.200000000000e+00,4.503000000000e+01,1.150000000000e+00
136,1.200000000000e+00,4.752121320344e+01,6.060660171780e-01
137,-4.939339828220e-01,4.247454415588e+01,0.000000000000e+00
138,1.500000000000e-01,4.496400000000e+01,0.000000000000e+00
139,7.060660171780e-01,4.747454415588e+01,0.000000000000e+00
140,4.939339828220e-01,4.247454415588e+01,0.000000000000e+00
141,-1.500000000000e-01,4.496400000000e+01,0.000000000000e+00
142,-7.060660171780e-01,4.747454415588e+01,0.000000000000e+00
143,-4.939339828220e-01,4.247454415588e+01,2.000000000000e+00
144,1.500000000000e-01,4.496400000000e+01,2.000000000000e+00
145,7.060660171780e-01,4.747454415588e+01,2.000000000000e+00
146,4.939339828220e-01,4.247454415588e+01,2.000000000000e+00
147,-1.500000000000e-01,4.496400000000e+01,2.000000000000e+00
148,-7.060660171780e-01,4.747454415588e+01,2.000000000000e+00
*ELEMENT,TYPE=B31,ELSET=ALL
1,1,25
2,25,5
3,2,26
4,26,6
5,3,27
6,27,7
7,4,28
8,28,8
9,5,29
10,29,9
11,6,30
12,30,10
13,7,31
14,31,11
15,8,32
16,32,12
17,9,13
18,10,14
19,11,15
20,12,16
21,13,33
22,33,17
23,14,34
24,34,18
25,15,35
26,35,19
27,16,36
28,36,20
29,17,21
30,18,22
31,19,23
32,20,24
33,1,37
34,37,2
35,3,38
36,38,4
37,1,39
38,39,3
39,2,40
40,40,4
41,5,41
42,41,6
43,7,42
44,42,8
45,5,43
46,43,7
47,6,44
48,44,8
49,9,45
50,45,10
51,11,46
52,46,12
53,9,47
54,47,11
55,10,48
56,48,12
57,13,49
58,49,14
59,15,50
60,50,16
61,13,51
62,51,15
63,14,52
64,52,16
65,17,53
66,53,18
67,19,54
68,54,20
69,17,55
70,55,19
71,18,56
72,56,20
73,21,57
74,57,22
75,23,58
76,58,24
77,21,59
78,59,23
79,22,60
80,60,24
81,1,61
82,61,7
83,3,62
84,62,5
85,2,63
86,63,8
87,4,64
88,64,6
89,1,65
90,65,6
91,2,66
92,66,5
93,3,67
94,67,8
95,4,68
96,68,7
97,5,69
98,69,11
99,7,70
100,70,9
101,6,71
102,71,12
103,8,72
104,72,10
105,5,73
106,73,10
107,6,74
108,74,9
109,7,75
110,75,12
111,8,76
112,76,11
113,9,77
114,77,78
115,78,79
116,79,15
117,11,80
118,80,81
119,81,82
120,82,13
121,10,83
122,83,84
123,84,85
124,85,16
125,12,86
126,86,87
127,87,88
128,88,14
129,9,89
130,89,90
131,90,91
132,91,14
133,10,92
134,92,93
135,93,94
136,94,13
137,11,95
138,95,96
139,96,97
140,97,16
141,12,98
142,98,99
143,99,100
144,100,15
145,13,101
146,101,102
147,102,103
148,103,19
149,15,104
150,104,105
151,105,106
152,106,17
153,14,107
154,107,108
155,108,109
156,109,20
157,16,110
158,110,111
159,111,112
160,112,18
161,13,113
162,113,114
163,114,115
164,115,18
165,14,116
166,116,117
167,117,118
168,118,17
169,15,119
170,119,120
171,120,121
172,121,20
173,16,122
174,122,123
175,123,124
176,124,19
177,17,125
178,125,126
179,126,127
180,127,23
181,19,128
182,128,129
183,129,130
184,130,21
185,18,131
186,131,132
187,132,133
188,133,24
189,20,134
190,134,135
191,135,136
192,136,22
193,17,137
194,137,138
195,138,139
196,139,22
197,18,140
198,140,141
199,141,142
200,142,21
201,19,143
202,143,144
203,144,145
204,145,24
205,20,146
206,146,147
207,147,148
208,148,23
*NSET,NSET=NALL,GENERATE
1,148,1
*NSET,NSET=LEFT
1,2,3,4
*NSET,NSET=RIGHT
21,22,23,24
*MATERIAL,NAME=STEEL
*ELASTIC
2.100000000000e+11,0.300000000000
*BEAM SECTION,ELSET=ALL,MATERIAL=STEEL,SECTION=RECT
6.000000000000e-02,4.000000000000e-02
0.371390676354,0.557086014531,0.742781352708
*BOUNDARY
LEFT,1,6,0.0
*STEP
*STATIC
*BOUNDARY
21,1,1,5.000000000000e-03
21,2,2,0.0
21,3,3,-6.000000000000e-03
*BOUNDARY
22,1,1,5.000000000000e-03
22,2,2,0.0
22,3,3,6.000000000000e-03
*BOUNDARY
23,1,1,-5.000000000000e-03
23,2,2,0.0
23,3,3,-6.000000000000e-03
*BOUNDARY
24,1,1,-5.000000000000e-03
24,2,2,0.0
24,3,3,6.000000000000e-03
*NODE FILE,NSET=NALL
U
*NODE PRINT,NSET=NALL
U
*NODE PRINT,NSET=RIGHT
RF
*EL PRINT,ELSET=ALL,TOTALS=YES
ELSE
*END STEP
