*HEADING
Normalized cross-passage space-truss torsion benchmark
*NODE
1,-1.200000000000e+00,0.000000000000e+00,0.000000000000e+00
2,1.200000000000e+00,0.000000000000e+00,0.000000000000e+00
3,-1.200000000000e+00,0.000000000000e+00,2.000000000000e+00
4,1.200000000000e+00,0.000000000000e+00,2.000000000000e+00
5,-1.200000000000e+00,1.000000000000e+01,0.000000000000e+00
6,1.200000000000e+00,1.000000000000e+01,0.000000000000e+00
7,-1.200000000000e+00,1.000000000000e+01,2.000000000000e+00
8,1.200000000000e+00,1.000000000000e+01,2.000000000000e+00
9,-1.200000000000e+00,2.000000000000e+01,0.000000000000e+00
10,1.200000000000e+00,2.000000000000e+01,0.000000000000e+00
11,-1.200000000000e+00,2.000000000000e+01,2.000000000000e+00
12,1.200000000000e+00,2.000000000000e+01,2.000000000000e+00
13,-1.200000000000e+00,3.000000000000e+01,0.000000000000e+00
14,1.200000000000e+00,3.000000000000e+01,0.000000000000e+00
15,-1.200000000000e+00,3.000000000000e+01,2.000000000000e+00
16,1.200000000000e+00,3.000000000000e+01,2.000000000000e+00
17,-1.200000000000e+00,4.000000000000e+01,0.000000000000e+00
18,1.200000000000e+00,4.000000000000e+01,0.000000000000e+00
19,-1.200000000000e+00,4.000000000000e+01,2.000000000000e+00
20,1.200000000000e+00,4.000000000000e+01,2.000000000000e+00
21,-1.200000000000e+00,5.000000000000e+01,0.000000000000e+00
22,1.200000000000e+00,5.000000000000e+01,0.000000000000e+00
23,-1.200000000000e+00,5.000000000000e+01,2.000000000000e+00
24,1.200000000000e+00,5.000000000000e+01,2.000000000000e+00
25,-1.200000000000e+00,2.250000000000e+01,-1.060660171780e-01
26,-1.200000000000e+00,2.500000000000e+01,-1.500000000000e-01
27,-1.200000000000e+00,2.750000000000e+01,-1.060660171780e-01
28,1.200000000000e+00,2.250000000000e+01,1.060660171780e-01
29,1.200000000000e+00,2.500000000000e+01,1.500000000000e-01
30,1.200000000000e+00,2.750000000000e+01,1.060660171780e-01
31,-1.200000000000e+00,2.250000000000e+01,1.893933982822e+00
32,-1.200000000000e+00,2.500000000000e+01,1.850000000000e+00
33,-1.200000000000e+00,2.750000000000e+01,1.893933982822e+00
34,1.200000000000e+00,2.250000000000e+01,2.106066017178e+00
35,1.200000000000e+00,2.500000000000e+01,2.150000000000e+00
36,1.200000000000e+00,2.750000000000e+01,2.106066017178e+00
37,-1.200000000000e+00,3.125000000000e+01,-5.740251485476e-02
38,-1.200000000000e+00,3.250000000000e+01,-1.060660171780e-01
39,-1.200000000000e+00,3.375000000000e+01,-1.385819298767e-01
40,-1.200000000000e+00,3.500000000000e+01,-1.500000000000e-01
41,-1.200000000000e+00,3.625000000000e+01,-1.385819298767e-01
42,-1.200000000000e+00,3.750000000000e+01,-1.060660171780e-01
43,-1.200000000000e+00,3.875000000000e+01,-5.740251485476e-02
44,1.200000000000e+00,3.125000000000e+01,5.740251485476e-02
45,1.200000000000e+00,3.250000000000e+01,1.060660171780e-01
46,1.200000000000e+00,3.375000000000e+01,1.385819298767e-01
47,1.200000000000e+00,3.500000000000e+01,1.500000000000e-01
48,1.200000000000e+00,3.625000000000e+01,1.385819298767e-01
49,1.200000000000e+00,3.750000000000e+01,1.060660171780e-01
50,1.200000000000e+00,3.875000000000e+01,5.740251485476e-02
51,-1.200000000000e+00,3.125000000000e+01,1.942597485145e+00
52,-1.200000000000e+00,3.250000000000e+01,1.893933982822e+00
53,-1.200000000000e+00,3.375000000000e+01,1.861418070123e+00
54,-1.200000000000e+00,3.500000000000e+01,1.850000000000e+00
55,-1.200000000000e+00,3.625000000000e+01,1.861418070123e+00
56,-1.200000000000e+00,3.750000000000e+01,1.893933982822e+00
57,-1.200000000000e+00,3.875000000000e+01,1.942597485145e+00
58,1.200000000000e+00,3.125000000000e+01,2.057402514855e+00
59,1.200000000000e+00,3.250000000000e+01,2.106066017178e+00
60,1.200000000000e+00,3.375000000000e+01,2.138581929877e+00
61,1.200000000000e+00,3.500000000000e+01,2.150000000000e+00
62,1.200000000000e+00,3.625000000000e+01,2.138581929877e+00
63,1.200000000000e+00,3.750000000000e+01,2.106066017178e+00
64,1.200000000000e+00,3.875000000000e+01,2.057402514855e+00
65,-1.200000000000e+00,4.500000000000e+01,-1.500000000000e-01
66,1.200000000000e+00,4.500000000000e+01,1.500000000000e-01
67,-1.200000000000e+00,4.500000000000e+01,1.850000000000e+00
68,1.200000000000e+00,4.500000000000e+01,2.150000000000e+00
69,-6.000000000000e-01,-2.545584412272e-02,0.000000000000e+00
70,0.000000000000e+00,-3.600000000000e-02,0.000000000000e+00
71,6.000000000000e-01,-2.545584412272e-02,0.000000000000e+00
72,-6.000000000000e-01,2.545584412272e-02,2.000000000000e+00
73,0.000000000000e+00,3.600000000000e-02,2.000000000000e+00
74,6.000000000000e-01,2.545584412272e-02,2.000000000000e+00
75,-1.200000000000e+00,2.121320343560e-02,5.000000000000e-01
76,-1.200000000000e+00,3.000000000000e-02,1.000000000000e+00
77,-1.200000000000e+00,2.121320343560e-02,1.500000000000e+00
78,1.200000000000e+00,-2.121320343560e-02,5.000000000000e-01
79,1.200000000000e+00,-3.000000000000e-02,1.000000000000e+00
80,1.200000000000e+00,-2.121320343560e-02,1.500000000000e+00
81,0.000000000000e+00,9.964000000000e+00,0.000000000000e+00
82,0.000000000000e+00,1.003600000000e+01,2.000000000000e+00
83,-1.200000000000e+00,1.003000000000e+01,1.000000000000e+00
84,1.200000000000e+00,9.970000000000e+00,1.000000000000e+00
85,0.000000000000e+00,1.996400000000e+01,0.000000000000e+00
86,0.000000000000e+00,2.003600000000e+01,2.000000000000e+00
87,-1.200000000000e+00,2.003000000000e+01,1.000000000000e+00
88,1.200000000000e+00,1.997000000000e+01,1.000000000000e+00
89,0.000000000000e+00,2.996400000000e+01,0.000000000000e+00
90,0.000000000000e+00,3.003600000000e+01,2.000000000000e+00
91,-1.200000000000e+00,3.003000000000e+01,1.000000000000e+00
92,1.200000000000e+00,2.997000000000e+01,1.000000000000e+00
93,0.000000000000e+00,3.996400000000e+01,0.000000000000e+00
94,0.000000000000e+00,4.003600000000e+01,2.000000000000e+00
95,-1.200000000000e+00,4.003000000000e+01,1.000000000000e+00
96,1.200000000000e+00,3.997000000000e+01,1.000000000000e+00
97,-6.000000000000e-01,4.997454415588e+01,0.000000000000e+00
98,0.000000000000e+00,4.996400000000e+01,0.000000000000e+00
99,6.000000000000e-01,4.997454415588e+01,0.000000000000e+00
100,-6.000000000000e-01,5.002545584412e+01,2.000000000000e+00
101,0.000000000000e+00,5.003600000000e+01,2.000000000000e+00
102,6.000000000000e-01,5.002545584412e+01,2.000000000000e+00
103,-1.200000000000e+00,5.002121320344e+01,5.000000000000e-01
104,-1.200000000000e+00,5.003000000000e+01,1.000000000000e+00
105,-1.200000000000e+00,5.002121320344e+01,1.500000000000e+00
106,1.200000000000e+00,4.997878679656e+01,5.000000000000e-01
107,1.200000000000e+00,4.997000000000e+01,1.000000000000e+00
108,1.200000000000e+00,4.997878679656e+01,1.500000000000e+00
109,-1.200000000000e+00,2.521213203436e+00,3.939339828220e-01
110,-1.200000000000e+00,5.030000000000e+00,8.500000000000e-01
111,-1.200000000000e+00,7.521213203436e+00,1.393933982822e+00
112,-1.200000000000e+00,2.521213203436e+00,1.606066017178e+00
113,-1.200000000000e+00,5.030000000000e+00,1.150000000000e+00
114,-1.200000000000e+00,7.521213203436e+00,6.060660171780e-01
115,1.200000000000e+00,2.521213203436e+00,3.939339828220e-01
116,1.200000000000e+00,5.030000000000e+00,8.500000000000e-01
117,1.200000000000e+00,7.521213203436e+00,1.393933982822e+00
118,1.200000000000e+00,2.521213203436e+00,1.606066017178e+00
119,1.200000000000e+00,5.030000000000e+00,1.150000000000e+00
120,1.200000000000e+00,7.521213203436e+00,6.060660171780e-01
121,-4.939339828220e-01,2.474544155877e+00,0.000000000000e+00
122,1.500000000000e-01,4.964000000000e+00,0.000000000000e+00
123,7.060660171780e-01,7.474544155877e+00,0.000000000000e+00
124,4.939339828220e-01,2.474544155877e+00,0.000000000000e+00
125,-1.500000000000e-01,4.964000000000e+00,0.000000000000e+00
126,-7.060660171780e-01,7.474544155877e+00,0.000000000000e+00
127,-4.939339828220e-01,2.474544155877e+00,2.000000000000e+00
128,1.500000000000e-01,4.964000000000e+00,2.000000000000e+00
129,7.060660171780e-01,7.474544155877e+00,2.000000000000e+00
130,4.939339828220e-01,2.474544155877e+00,2.000000000000e+00
131,-1.500000000000e-01,4.964000000000e+00,2.000000000000e+00
132,-7.060660171780e-01,7.474544155877e+00,2.000000000000e+00
133,-1.200000000000e+00,1.503000000000e+01,8.500000000000e-01
134,-1.200000000000e+00,1.503000000000e+01,1.150000000000e+00
135,1.200000000000e+00,1.503000000000e+01,8.500000000000e-01
136,1.200000000000e+00,1.503000000000e+01,1.150000000000e+00
137,1.500000000000e-01,1.496400000000e+01,0.000000000000e+00
138,-1.500000000000e-01,1.496400000000e+01,0.000000000000e+00
139,1.500000000000e-01,1.496400000000e+01,2.000000000000e+00
140,-1.500000000000e-01,1.496400000000e+01,2.000000000000e+00
141,-1.200000000000e+00,2.126148050297e+01,1.925974851452e-01
142,-1.200000000000e+00,2.252121320344e+01,3.939339828220e-01
143,-1.200000000000e+00,2.377771638598e+01,6.114180701233e-01
144,-1.200000000000e+00,2.503000000000e+01,8.500000000000e-01
145,-1.200000000000e+00,2.627771638598e+01,1.111418070123e+00
146,-1.200000000000e+00,2.752121320344e+01,1.393933982822e+00
147,-1.200000000000e+00,2.876148050297e+01,1.692597485145e+00
148,-1.200000000000e+00,2.126148050297e+01,1.807402514855e+00
149,-1.200000000000e+00,2.252121320344e+01,1.606066017178e+00
150,-1.200000000000e+00,2.377771638598e+01,1.388581929877e+00
151,-1.200000000000e+00,2.503000000000e+01,1.150000000000e+00
152,-1.200000000000e+00,2.627771638598e+01,8.885819298767e-01
153,-1.200000000000e+00,2.752121320344e+01,6.060660171780e-01
154,-1.200000000000e+00,2.876148050297e+01,3.074025148548e-01
155,1.200000000000e+00,2.126148050297e+01,1.925974851452e-01
156,1.200000000000e+00,2.252121320344e+01,3.939339828220e-01
157,1.200000000000e+00,2.377771638598e+01,6.114180701233e-01
158,1.200000000000e+00,2.503000000000e+01,8.500000000000e-01
159,1.200000000000e+00,2.627771638598e+01,1.111418070123e+00
160,1.200000000000e+00,2.752121320344e+01,1.393933982822e+00
161,1.200000000000e+00,2.876148050297e+01,1.692597485145e+00
162,1.200000000000e+00,2.126148050297e+01,1.807402514855e+00
163,1.200000000000e+00,2.252121320344e+01,1.606066017178e+00
164,1.200000000000e+00,2.377771638598e+01,1.388581929877e+00
165,1.200000000000e+00,2.503000000000e+01,1.150000000000e+00
166,1.200000000000e+00,2.627771638598e+01,8.885819298767e-01
167,1.200000000000e+00,2.752121320344e+01,6.060660171780e-01
168,1.200000000000e+00,2.876148050297e+01,3.074025148548e-01
169,-8.425974851452e-01,2.123622339643e+01,0.000000000000e+00
170,-4.939339828220e-01,2.247454415588e+01,0.000000000000e+00
171,-1.614180701233e-01,2.371674033683e+01,0.000000000000e+00
172,1.500000000000e-01,2.496400000000e+01,0.000000000000e+00
173,4.385819298767e-01,2.621674033683e+01,0.000000000000e+00
174,7.060660171780e-01,2.747454415588e+01,0.000000000000e+00
175,9.574025148548e-01,2.873622339643e+01,0.000000000000e+00
176,8.425974851452e-01,2.123622339643e+01,0.000000000000e+00
177,4.939339828220e-01,2.247454415588e+01,0.000000000000e+00
178,1.614180701233e-01,2.371674033683e+01,0.000000000000e+00
179,-1.500000000000e-01,2.496400000000e+01,0.000000000000e+00
180,-4.385819298767e-01,2.621674033683e+01,0.000000000000e+00
181,-7.060660171780e-01,2.747454415588e+01,0.000000000000e+00
182,-9.574025148548e-01,2.873622339643e+01,0.000000000000e+00
183,-8.425974851452e-01,2.123622339643e+01,2.000000000000e+00
184,-4.939339828220e-01,2.247454415588e+01,2.000000000000e+00
185,-1.614180701233e-01,2.371674033683e+01,2.000000000000e+00
186,1.500000000000e-01,2.496400000000e+01,2.000000000000e+00
187,4.385819298767e-01,2.621674033683e+01,2.000000000000e+00
188,7.060660171780e-01,2.747454415588e+01,2.000000000000e+00
189,9.574025148548e-01,2.873622339643e+01,2.000000000000e+00
190,8.425974851452e-01,2.123622339643e+01,2.000000000000e+00
191,4.939339828220e-01,2.247454415588e+01,2.000000000000e+00
192,1.614180701233e-01,2.371674033683e+01,2.000000000000e+00
193,-1.500000000000e-01,2.496400000000e+01,2.000000000000e+00
194,-4.385819298767e-01,2.621674033683e+01,2.000000000000e+00
195,-7.060660171780e-01,2.747454415588e+01,2.000000000000e+00
196,-9.574025148548e-01,2.873622339643e+01,2.000000000000e+00
197,-1.200000000000e+00,3.126148050297e+01,1.925974851452e-01
198,-1.200000000000e+00,3.252121320344e+01,3.939339828220e-01
199,-1.200000000000e+00,3.377771638598e+01,6.114180701233e-01
200,-1.200000000000e+00,3.503000000000e+01,8.500000000000e-01
201,-1.200000000000e+00,3.627771638598e+01,1.111418070123e+00
202,-1.200000000000e+00,3.752121320344e+01,1.393933982822e+00
203,-1.200000000000e+00,3.876148050297e+01,1.692597485145e+00
204,-1.200000000000e+00,3.126148050297e+01,1.807402514855e+00
205,-1.200000000000e+00,3.252121320344e+01,1.606066017178e+00
206,-1.200000000000e+00,3.377771638598e+01,1.388581929877e+00
207,-1.200000000000e+00,3.503000000000e+01,1.150000000000e+00
208,-1.200000000000e+00,3.627771638598e+01,8.885819298767e-01
209,-1.200000000000e+00,3.752121320344e+01,6.060660171780e-01
210,-1.200000000000e+00,3.876148050297e+01,3.074025148548e-01
211,1.200000000000e+00,3.126148050297e+01,1.925974851452e-01
212,1.200000000000e+00,3.252121320344e+01,3.939339828220e-01
213,1.200000000000e+00,3.377771638598e+01,6.114180701233e-01
214,1.200000000000e+00,3.503000000000e+01,8.500000000000e-01
215,1.200000000000e+00,3.627771638598e+01,1.111418070123e+00
216,1.200000000000e+00,3.752121320344e+01,1.393933982822e+00
217,1.200000000000e+00,3.876148050297e+01,1.692597485145e+00
218,1.200000000000e+00,3.126148050297e+01,1.807402514855e+00
219,1.200000000000e+00,3.252121320344e+01,1.606066017178e+00
220,1.200000000000e+00,3.377771638598e+01,1.388581929877e+00
221,1.200000000000e+00,3.503000000000e+01,1.150000000000e+00
222,1.200000000000e+00,3.627771638598e+01,8.885819298767e-01
223,1.200000000000e+00,3.752121320344e+01,6.060660171780e-01
224,1.200000000000e+00,3.876148050297e+01,3.074025148548e-01
225,-8.425974851452e-01,3.123622339643e+01,0.000000000000e+00
226,-4.939339828220e-01,3.247454415588e+01,0.000000000000e+00
227,-1.614180701233e-01,3.371674033683e+01,0.000000000000e+00
228,1.500000000000e-01,3.496400000000e+01,0.000000000000e+00
229,4.385819298767e-01,3.621674033683e+01,0.000000000000e+00
230,7.060660171780e-01,3.747454415588e+01,0.000000000000e+00
231,9.574025148548e-01,3.873622339643e+01,0.000000000000e+00
232,8.425974851452e-01,3.123622339643e+01,0.000000000000e+00
233,4.939339828220e-01,3.247454415588e+01,0.000000000000e+00
234,1.614180701233e-01,3.371674033683e+01,0.000000000000e+00
235,-1.500000000000e-01,3.496400000000e+01,0.000000000000e+00
236,-4.385819298767e-01,3.621674033683e+01,0.000000000000e+00
237,-7.060660171780e-01,3.747454415588e+01,0.000000000000e+00
238,-9.574025148548e-01,3.873622339643e+01,0.000000000000e+00
239,-8.425974851452e-01,3.123622339643e+01,2.000000000000e+00
240,-4.939339828220e-01,3.247454415588e+01,2.000000000000e+00
241,-1.614180701233e-01,3.371674033683e+01,2.000000000000e+00
242,1.500000000000e-01,3.496400000000e+01,2.000000000000e+00
243,4.385819298767e-01,3.621674033683e+01,2.000000000000e+00
244,7.060660171780e-01,3.747454415588e+01,2.000000000000e+00
245,9.574025148548e-01,3.873622339643e+01,2.000000000000e+00
246,8.425974851452e-01,3.123622339643e+01,2.000000000000e+00
247,4.939339828220e-01,3.247454415588e+01,2.000000000000e+00
248,1.614180701233e-01,3.371674033683e+01,2.000000000000e+00
249,-1.500000000000e-01,3.496400000000e+01,2.000000000000e+00
250,-4.385819298767e-01,3.621674033683e+01,2.000000000000e+00
251,-7.060660171780e-01,3.747454415588e+01,2.000000000000e+00
252,-9.574025148548e-01,3.873622339643e+01,2.000000000000e+00
253,-1.200000000000e+00,4.252121320344e+01,3.939339828220e-01
254,-1.200000000000e+00,4.503000000000e+01,8.500000000000e-01
255,-1.200000000000e+00,4.752121320344e+01,1.393933982822e+00
256,-1.200000000000e+00,4.252121320344e+01,1.606066017178e+00
257,-1.200000000000e+00,4.503000000000e+01,1.150000000000e+00
258,-1.200000000000e+00,4.752121320344e+01,6.060660171780e-01
259,1.200000000000e+00,4.252121320344e+01,3.939339828220e-01
260,1.200000000000e+00,4.503000000000e+01,8.500000000000e-01
261,1.200000000000e+00,4.752121320344e+01,1.393933982822e+00
262,1.200000000000e+00,4.252121320344e+01,1.606066017178e+00
263,1.200000000000e+00,4.503000000000e+01,1.150000000000e+00
264,1.200000000000e+00,4.752121320344e+01,6.060660171780e-01
265,-4.939339828220e-01,4.247454415588e+01,0.000000000000e+00
266,1.500000000000e-01,4.496400000000e+01,0.000000000000e+00
267,7.060660171780e-01,4.747454415588e+01,0.000000000000e+00
268,4.939339828220e-01,4.247454415588e+01,0.000000000000e+00
269,-1.500000000000e-01,4.496400000000e+01,0.000000000000e+00
270,-7.060660171780e-01,4.747454415588e+01,0.000000000000e+00
271,-4.939339828220e-01,4.247454415588e+01,2.000000000000e+00
272,1.500000000000e-01,4.496400000000e+01,2.000000000000e+00
273,7.060660171780e-01,4.747454415588e+01,2.000000000000e+00
274,4.939339828220e-01,4.247454415588e+01,2.000000000000e+00
275,-1.500000000000e-01,4.496400000000e+01,2.000000000000e+00
276,-7.060660171780e-01,4.747454415588e+01,2.000000000000e+00
*ELEMENT,TYPE=B31,ELSET=ALL
1,1,5
2,2,6
3,3,7
4,4,8
5,5,9
6,6,10
7,7,11
8,8,12
9,9,25
10,25,26
11,26,27
12,27,13
13,10,28
14,28,29
15,29,30
16,30,14
17,11,31
18,31,32
19,32,33
20,33,15
21,12,34
22,34,35
23,35,36
24,36,16
25,13,37
26,37,38
27,38,39
28,39,40
29,40,41
30,41,42
31,42,43
32,43,17
33,14,44
34,44,45
35,45,46
36,46,47
37,47,48
38,48,49
39,49,50
40,50,18
41,15,51
42,51,52
43,52,53
44,53,54
45,54,55
46,55,56
47,56,57
48,57,19
49,16,58
50,58,59
51,59,60
52,60,61
53,61,62
54,62,63
55,63,64
56,64,20
57,17,65
58,65,21
59,18,66
60,66,22
61,19,67
62,67,23
63,20,68
64,68,24
65,1,69
66,69,70
67,70,71
68,71,2
69,3,72
70,72,73
71,73,74
72,74,4
73,1,75
74,75,76
75,76,77
76,77,3
77,2,78
78,78,79
79,79,80
80,80,4
81,5,81
82,81,6
83,7,82
84,82,8
85,5,83
86,83,7
87,6,84
88,84,8
89,9,85
90,85,10
91,11,86
92,86,12
93,9,87
94,87,11
95,10,88
96,88,12
97,13,89
98,89,14
99,15,90
100,90,16
101,13,91
102,91,15
103,14,92
104,92,16
105,17,93
106,93,18
107,19,94
108,94,20
109,17,95
110,95,19
111,18,96
112,96,20
113,21,97
114,97,98
115,98,99
116,99,22
117,23,100
118,100,101
119,101,102
120,102,24
121,21,103
122,103,104
123,104,105
124,105,23
125,22,106
126,106,107
127,107,108
128,108,24
129,1,109
130,109,110
131,110,111
132,111,7
133,3,112
134,112,113
135,113,114
136,114,5
137,2,115
138,115,116
139,116,117
140,117,8
141,4,118
142,118,119
143,119,120
144,120,6
145,1,121
146,121,122
147,122,123
148,123,6
149,2,124
150,124,125
151,125,126
152,126,5
153,3,127
154,127,128
155,128,129
156,129,8
157,4,130
158,130,131
159,131,132
160,132,7
161,5,133
162,133,11
163,7,134
164,134,9
165,6,135
166,135,12
167,8,136
168,136,10
169,5,137
170,137,10
171,6,138
172,138,9
173,7,139
174,139,12
175,8,140
176,140,11
177,9,141
178,141,142
179,142,143
180,143,144
181,144,145
182,145,146
183,146,147
184,147,15
185,11,148
186,148,149
187,149,150
188,150,151
189,151,152
190,152,153
191,153,154
192,154,13
193,10,155
194,155,156
195,156,157
196,157,158
197,158,159
198,159,160
199,160,161
200,161,16
201,12,162
202,162,163
203,163,164
204,164,165
205,165,166
206,166,167
207,167,168
208,168,14
209,9,169
210,169,170
211,170,171
212,171,172
213,172,173
214,173,174
215,174,175
216,175,14
217,10,176
218,176,177
219,177,178
220,178,179
221,179,180
222,180,181
223,181,182
224,182,13
225,11,183
226,183,184
227,184,185
228,185,186
229,186,187
230,187,188
231,188,189
232,189,16
233,12,190
234,190,191
235,191,192
236,192,193
237,193,194
238,194,195
239,195,196
240,196,15
241,13,197
242,197,198
243,198,199
244,199,200
245,200,201
246,201,202
247,202,203
248,203,19
249,15,204
250,204,205
251,205,206
252,206,207
253,207,208
254,208,209
255,209,210
256,210,17
257,14,211
258,211,212
259,212,213
260,213,214
261,214,215
262,215,216
263,216,217
264,217,20
265,16,218
266,218,219
267,219,220
268,220,221
269,221,222
270,222,223
271,223,224
272,224,18
273,13,225
274,225,226
275,226,227
276,227,228
277,228,229
278,229,230
279,230,231
280,231,18
281,14,232
282,232,233
283,233,234
284,234,235
285,235,236
286,236,237
287,237,238
288,238,17
289,15,239
290,239,240
291,240,241
292,241,242
293,242,243
294,243,244
295,244,245
296,245,20
297,16,246
298,246,247
299,247,248
300,248,249
301,249,250
302,250,251
303,251,252
304,252,19
305,17,253
306,253,254
307,254,255
308,255,23
309,19,256
310,256,257
311,257,258
312,258,21
313,18,259
314,259,260
315,260,261
316,261,24
317,20,262
318,262,263
319,263,264
320,264,22
321,17,265
322,265,266
323,266,267
324,267,22
325,18,268
326,268,269
327,269,270
328,270,21
329,19,271
330,271,272
331,272,273
332,273,24
333,20,274
334,274,275
335,275,276
336,276,23
*NSET,NSET=NALL,GENERATE
1,276,1
*NSET,NSET=LEFT
1,2,3,4
*NSET,NSET=RIGHT
21,22,23,24
*MATERIAL,NAME=STEEL
*ELASTIC
2.100000000000e+11,0.300000000000
*BEAM SECTION,ELSET=ALL,MATERIAL=STEEL,SECTION=RECT
6.000000000000e-02,4.000000000000e-02
0.371390676354,0.557086014531,0.742781352708
*BOUNDARY
LEFT,1,6,0.0
*STEP
*STATIC
*BOUNDARY
21,1,1,5.000000000000e-03
21,2,2,0.0
21,3,3,-6.000000000000e-03
*BOUNDARY
22,1,1,5.000000000000e-03
22,2,2,0.0
22,3,3,6.000000000000e-03
*BOUNDARY
23,1,1,-5.000000000000e-03
23,2,2,0.0
23,3,3,-6.000000000000e-03
*BOUNDARY
24,1,1,-5.000000000000e-03
24,2,2,0.0
24,3,3,6.000000000000e-03
*NODE FILE,NSET=NALL
U
*NODE PRINT,NSET=NALL
U
*NODE PRINT,NSET=RIGHT
RF
*EL PRINT,ELSET=ALL,TOTALS=YES
ELSE
*END STEP
