*HEADING
Normalized cross-passage space-truss torsion benchmark
*NODE
1,-1.200000000000e+00,0.000000000000e+00,0.000000000000e+00
2,1.200000000000e+00,0.000000000000e+00,0.000000000000e+00
3,-1.200000000000e+00,0.000000000000e+00,2.000000000000e+00
4,1.200000000000e+00,0.000000000000e+00,2.000000000000e+00
5,-1.200000000000e+00,1.000000000000e+01,0.000000000000e+00
6,1.200000000000e+00,1.000000000000e+01,0.000000000000e+00
7,-1.200000000000e+00,1.000000000000e+01,2.000000000000e+00
8,1.200000000000e+00,1.000000000000e+01,2.000000000000e+00
9,-1.200000000000e+00,2.000000000000e+01,0.000000000000e+00
10,1.200000000000e+00,2.000000000000e+01,0.000000000000e+00
11,-1.200000000000e+00,2.000000000000e+01,2.000000000000e+00
12,1.200000000000e+00,2.000000000000e+01,2.000000000000e+00
13,-1.200000000000e+00,3.000000000000e+01,0.000000000000e+00
14,1.200000000000e+00,3.000000000000e+01,0.000000000000e+00
15,-1.200000000000e+00,3.000000000000e+01,2.000000000000e+00
16,1.200000000000e+00,3.000000000000e+01,2.000000000000e+00
17,-1.200000000000e+00,4.000000000000e+01,0.000000000000e+00
18,1.200000000000e+00,4.000000000000e+01,0.000000000000e+00
19,-1.200000000000e+00,4.000000000000e+01,2.000000000000e+00
20,1.200000000000e+00,4.000000000000e+01,2.000000000000e+00
21,-1.200000000000e+00,5.000000000000e+01,0.000000000000e+00
22,1.200000000000e+00,5.000000000000e+01,0.000000000000e+00
23,-1.200000000000e+00,5.000000000000e+01,2.000000000000e+00
24,1.200000000000e+00,5.000000000000e+01,2.000000000000e+00
25,-1.200000000000e+00,5.000000000000e+00,-1.500000000000e-01
26,1.200000000000e+00,5.000000000000e+00,1.500000000000e-01
27,-1.200000000000e+00,5.000000000000e+00,1.850000000000e+00
28,1.200000000000e+00,5.000000000000e+00,2.150000000000e+00
29,-1.200000000000e+00,1.500000000000e+01,-1.500000000000e-01
30,1.200000000000e+00,1.500000000000e+01,1.500000000000e-01
31,-1.200000000000e+00,1.500000000000e+01,1.850000000000e+00
32,1.200000000000e+00,1.500000000000e+01,2.150000000000e+00
33,-1.200000000000e+00,4.500000000000e+01,-1.500000000000e-01
34,1.200000000000e+00,4.500000000000e+01,1.500000000000e-01
35,-1.200000000000e+00,4.500000000000e+01,1.850000000000e+00
36,1.200000000000e+00,4.500000000000e+01,2.150000000000e+00
37,0.000000000000e+00,-3.600000000000e-02,0.000000000000e+00
38,0.000000000000e+00,3.600000000000e-02,2.000000000000e+00
39,-1.200000000000e+00,3.000000000000e-02,1.000000000000e+00
40,1.200000000000e+00,-3.000000000000e-02,1.000000000000e+00
41,0.000000000000e+00,1.996400000000e+01,0.000000000000e+00
42,0.000000000000e+00,2.003600000000e+01,2.000000000000e+00
43,-1.200000000000e+00,2.003000000000e+01,1.000000000000e+00
44,1.200000000000e+00,1.997000000000e+01,1.000000000000e+00
45,-6.000000000000e-01,2.997454415588e+01,0.000000000000e+00
46,0.000000000000e+00,2.996400000000e+01,0.000000000000e+00
47,6.000000000000e-01,2.997454415588e+01,0.000000000000e+00
48,-6.000000000000e-01,3.002545584412e+01,2.000000000000e+00
49,0.000000000000e+00,3.003600000000e+01,2.000000000000e+00
50,6.000000000000e-01,3.002545584412e+01,2.000000000000e+00
51,-1.200000000000e+00,3.002121320344e+01,5.000000000000e-01
52,-1.200000000000e+00,3.003000000000e+01,1.000000000000e+00
53,-1.200000000000e+00,3.002121320344e+01,1.500000000000e+00
54,1.200000000000e+00,2.997878679656e+01,5.000000000000e-01
55,1.200000000000e+00,2.997000000000e+01,1.000000000000e+00
56,1.200000000000e+00,2.997878679656e+01,1.500000000000e+00
57,0.000000000000e+00,3.996400000000e+01,0.000000000000e+00
58,0.000000000000e+00,4.003600000000e+01,2.000000000000e+00
59,-1.200000000000e+00,4.003000000000e+01,1.000000000000e+00
60,1.200000000000e+00,3.997000000000e+01,1.000000000000e+00
61,0.000000000000e+00,4.996400000000e+01,0.000000000000e+00
62,0.000000000000e+00,5.003600000000e+01,2.000000000000e+00
63,-1.200000000000e+00,5.003000000000e+01,1.000000000000e+00
64,1.200000000000e+00,4.997000000000e+01,1.000000000000e+00
65,-1.200000000000e+00,2.521213203436e+00,3.939339828220e-01
66,-1.200000000000e+00,5.030000000000e+00,8.500000000000e-01
67,-1.200000000000e+00,7.521213203436e+00,1.393933982822e+00
68,-1.200000000000e+00,2.521213203436e+00,1.606066017178e+00
69,-1.200000000000e+00,5.030000000000e+00,1.150000000000e+00
70,-1.200000000000e+00,7.521213203436e+00,6.060660171780e-01
71,1.200000000000e+00,2.521213203436e+00,3.939339828220e-01
72,1.200000000000e+00,5.030000000000e+00,8.500000000000e-01
73,1.200000000000e+00,7.521213203436e+00,1.393933982822e+00
74,1.200000000000e+00,2.521213203436e+00,1.606066017178e+00
75,1.200000000000e+00,5.030000000000e+00,1.150000000000e+00
76,1.200000000000e+00,7.521213203436e+00,6.060660171780e-01
77,-4.939339828220e-01,2.474544155877e+00,0.000000000000e+00
78,1.500000000000e-01,4.964000000000e+00,0.000000000000e+00
79,7.060660171780e-01,7.474544155877e+00,0.000000000000e+00
80,4.939339828220e-01,2.474544155877e+00,0.000000000000e+00
81,-1.500000000000e-01,4.964000000000e+00,0.000000000000e+00
82,-7.060660171780e-01,7.474544155877e+00,0.000000000000e+00
83,-4.939339828220e-01,2.474544155877e+00,2.000000000000e+00
84,1.500000000000e-01,4.964000000000e+00,2.000000000000e+00
85,7.060660171780e-01,7.474544155877e+00,2.000000000000e+00
86,4.939339828220e-01,2.474544155877e+00,2.000000000000e+00
87,-1.500000000000e-01,4.964000000000e+00,2.000000000000e+00
88,-7.060660171780e-01,7.474544155877e+00,2.000000000000e+00
89,-1.200000000000e+00,1.252121320344e+01,3.939339828220e-01
90,-1.200000000000e+00,1.503000000000e+01,8.500000000000e-01
91,-1.200000000000e+00,1.752121320344e+01,1.393933982822e+00
92,-1.200000000000e+00,1.252121320344e+01,1.606066017178e+00
93,-1.200000000000e+00,1.503000000000e+01,1.150000000000e+00
94,-1.200000000000e+00,1.752121320344e+01,6.060660171780e-01
95,1.200000000000e+00,1.252121320344e+01,3.939339828220e-01
96,1.200000000000e+00,1.503000000000e+01,8.500000000000e-01
97,1.200000000000e+00,1.752121320344e+01,1.393933982822e+00
98,1.200000000000e+00,1.252121320344e+01,1.606066017178e+00
99,1.200000000000e+00,1.503000000000e+01,1.150000000000e+00
100,1.200000000000e+00,1.752121320344e+01,6.060660171780e-01
101,-4.939339828220e-01,1.247454415588e+01,0.000000000000e+00
102,1.500000000000e-01,1.496400000000e+01,0.000000000000e+00
103,7.060660171780e-01,1.747454415588e+01,0.000000000000e+00
104,4.939339828220e-01,1.247454415588e+01,0.000000000000e+00
105,-1.500000000000e-01,1.496400000000e+01,0.000000000000e+00
106,-7.060660171780e-01,1.747454415588e+01,0.000000000000e+00
107,-4.939339828220e-01,1.247454415588e+01,2.000000000000e+00
108,1.500000000000e-01,1.496400000000e+01,2.000000000000e+00
109,7.060660171780e-01,1.747454415588e+01,2.000000000000e+00
110,4.939339828220e-01,1.247454415588e+01,2.000000000000e+00
111,-1.500000000000e-01,1.496400000000e+01,2.000000000000e+00
112,-7.060660171780e-01,1.747454415588e+01,2.000000000000e+00
113,-1.200000000000e+00,3.503000000000e+01,8.500000000000e-01
114,-1.200000000000e+00,3.503000000000e+01,1.150000000000e+00
115,1.200000000000e+00,3.503000000000e+01,8.500000000000e-01
116,1.200000000000e+00,3.503000000000e+01,1.150000000000e+00
117,1.500000000000e-01,3.496400000000e+01,0.000000000000e+00
118,-1.500000000000e-01,3.496400000000e+01,0.000000000000e+00
119,1.500000000000e-01,3.496400000000e+01,2.000000000000e+00
120,-1.500000000000e-01,3.496400000000e+01,2.000000000000e+00
121,-1.200000000000e+00,4.126148050297e+01,1.925974851452e-01
122,-1.200000000000e+00,4.252121320344e+01,3.939339828220e-01
123,-1.200000000000e+00,4.377771638598e+01,6.114180701233e-01
124,-1.200000000000e+00,4.503000000000e+01,8.500000000000e-01
125,-1.200000000000e+00,4.627771638598e+01,1.111418070123e+00
126,-1.200000000000e+00,4.752121320344e+01,1.393933982822e+00
127,-1.200000000000e+00,4.876148050297e+01,1.692597485145e+00
128,-1.200000000000e+00,4.126148050297e+01,1.807402514855e+00
129,-1.200000000000e+00,4.252121320344e+01,1.606066017178e+00
130,-1.200000000000e+00,4.377771638598e+01,1.388581929877e+00
131,-1.200000000000e+00,4.503000000000e+01,1.150000000000e+00
132,-1.200000000000e+00,4.627771638598e+01,8.885819298767e-01
133,-1.200000000000e+00,4.752121320344e+01,6.060660171780e-01
134,-1.200000000000e+00,4.876148050297e+01,3.074025148548e-01
135,1.200000000000e+00,4.126148050297e+01,1.925974851452e-01
136,1.200000000000e+00,4.252121320344e+01,3.939339828220e-01
137,1.200000000000e+00,4.377771638598e+01,6.114180701233e-01
138,1.200000000000e+00,4.503000000000e+01,8.500000000000e-01
139,1.200000000000e+00,4.627771638598e+01,1.111418070123e+00
140,1.200000000000e+00,4.752121320344e+01,1.393933982822e+00
141,1.200000000000e+00,4.876148050297e+01,1.692597485145e+00
142,1.200000000000e+00,4.126148050297e+01,1.807402514855e+00
143,1.200000000000e+00,4.252121320344e+01,1.606066017178e+00
144,1.200000000000e+00,4.377771638598e+01,1.388581929877e+00
145,1.200000000000e+00,4.503000000000e+01,1.150000000000e+00
146,1.200000000000e+00,4.627771638598e+01,8.885819298767e-01
147,1.200000000000e+00,4.752121320344e+01,6.060660171780e-01
148,1.200000000000e+00,4.876148050297e+01,3.074025148548e-01
149,-8.425974851452e-01,4.123622339643e+01,0.000000000000e+00
150,-4.939339828220e-01,4.247454415588e+01,0.000000000000e+00
151,-1.614180701233e-01,4.371674033683e+01,0.000000000000e+00
152,1.500000000000e-01,4.496400000000e+01,0.000000000000e+00
153,4.385819298767e-01,4.621674033683e+01,0.000000000000e+00
154,7.060660171780e-01,4.747454415588e+01,0.000000000000e+00
155,9.574025148548e-01,4.873622339643e+01,0.000000000000e+00
156,8.425974851452e-01,4.123622339643e+01,0.000000000000e+00
157,4.939339828220e-01,4.247454415588e+01,0.000000000000e+00
158,1.614180701233e-01,4.371674033683e+01,0.000000000000e+00
159,-1.500000000000e-01,4.496400000000e+01,0.000000000000e+00
160,-4.385819298767e-01,4.621674033683e+01,0.000000000000e+00
161,-7.060660171780e-01,4.747454415588e+01,0.000000000000e+00
162,-9.574025148548e-01,4.873622339643e+01,0.000000000000e+00
163,-8.425974851452e-01,4.123622339643e+01,2.000000000000e+00
164,-4.939339828220e-01,4.247454415588e+01,2.000000000000e+00
165,-1.614180701233e-01,4.371674033683e+01,2.000000000000e+00
166,1.500000000000e-01,4.496400000000e+01,2.000000000000e+00
167,4.385819298767e-01,4.621674033683e+01,2.000000000000e+00
168,7.060660171780e-01,4.747454415588e+01,2.000000000000e+00
169,9.574025148548e-01,4.873622339643e+01,2.000000000000e+00
170,8.425974851452e-01,4.123622339643e+01,2.000000000000e+00
171,4.939339828220e-01,4.247454415588e+01,2.000000000000e+00
172,1.614180701233e-01,4.371674033683e+01,2.000000000000e+00
173,-1.500000000000e-01,4.496400000000e+01,2.000000000000e+00
174,-4.385819298767e-01,4.621674033683e+01,2.000000000000e+00
175,-7.060660171780e-01,4.747454415588e+01,2.000000000000e+00
176,-9.574025148548e-01,4.873622339643e+01,2.000000000000e+00
*ELEMENT,TYPE=B31,ELSET=ALL
1,1,25
2,25,5
3,2,26
4,26,6
5,3,27
6,27,7
7,4,28
8,28,8
9,5,29
10,29,9
11,6,30
12,30,10
13,7,31
14,31,11
15,8,32
16,32,12
17,9,13
18,10,14
19,11,15
20,12,16
21,13,17
22,14,18
23,15,19
24,16,20
25,17,33
26,33,21
27,18,34
28,34,22
29,19,35
30,35,23
31,20,36
32,36,24
33,1,37
34,37,2
35,3,38
36,38,4
37,1,39
38,39,3
39,2,40
40,40,4
41,5,6
42,7,8
43,5,7
44,6,8
45,9,41
46,41,10
47,11,42
48,42,12
49,9,43
50,43,11
51,10,44
52,44,12
53,13,45
54,45,46
55,46,47
56,47,14
57,15,48
58,48,49
59,49,50
60,50,16
61,13,51
62,51,52
63,52,53
64,53,15
65,14,54
66,54,55
67,55,56
68,56,16
69,17,57
70,57,18
71,19,58
72,58,20
73,17,59
74,59,19
75,18,60
76,60,20
77,21,61
78,61,22
79,23,62
80,62,24
81,21,63
82,63,23
83,22,64
84,64,24
85,1,65
86,65,66
87,66,67
88,67,7
89,3,68
90,68,69
91,69,70
92,70,5
93,2,71
94,71,72
95,72,73
96,73,8
97,4,74
98,74,75
99,75,76
100,76,6
101,1,77
102,77,78
103,78,79
104,79,6
105,2,80
106,80,81
107,81,82
108,82,5
109,3,83
110,83,84
111,84,85
112,85,8
113,4,86
114,86,87
115,87,88
116,88,7
117,5,89
118,89,90
119,90,91
120,91,11
121,7,92
122,92,93
123,93,94
124,94,9
125,6,95
126,95,96
127,96,97
128,97,12
129,8,98
130,98,99
131,99,100
132,100,10
133,5,101
134,101,102
135,102,103
136,103,10
137,6,104
138,104,105
139,105,106
140,106,9
141,7,107
142,107,108
143,108,109
144,109,12
145,8,110
146,110,111
147,111,112
148,112,11
149,9,15
150,11,13
151,10,16
152,12,14
153,9,14
154,10,13
155,11,16
156,12,15
157,13,113
158,113,19
159,15,114
160,114,17
161,14,115
162,115,20
163,16,116
164,116,18
165,13,117
166,117,18
167,14,118
168,118,17
169,15,119
170,119,20
171,16,120
172,120,19
173,17,121
174,121,122
175,122,123
176,123,124
177,124,125
178,125,126
179,126,127
180,127,23
181,19,128
182,128,129
183,129,130
184,130,131
185,131,132
186,132,133
187,133,134
188,134,21
189,18,135
190,135,136
191,136,137
192,137,138
193,138,139
194,139,140
195,140,141
196,141,24
197,20,142
198,142,143
199,143,144
200,144,145
201,145,146
202,146,147
203,147,148
204,148,22
205,17,149
206,149,150
207,150,151
208,151,152
209,152,153
210,153,154
211,154,155
212,155,22
213,18,156
214,156,157
215,157,158
216,158,159
217,159,160
218,160,161
219,161,162
220,162,21
221,19,163
222,163,164
223,164,165
224,165,166
225,166,167
226,167,168
227,168,169
228,169,24
229,20,170
230,170,171
231,171,172
232,172,173
233,173,174
234,174,175
235,175,176
236,176,23
*NSET,NSET=NALL,GENERATE
1,176,1
*NSET,NSET=LEFT
1,2,3,4
*NSET,NSET=RIGHT
21,22,23,24
*MATERIAL,NAME=STEEL
*ELASTIC
2.100000000000e+11,0.300000000000
*BEAM SECTION,ELSET=ALL,MATERIAL=STEEL,SECTION=RECT
6.000000000000e-02,4.000000000000e-02
0.371390676354,0.557086014531,0.742781352708
*BOUNDARY
LEFT,1,6,0.0
*STEP
*STATIC
*BOUNDARY
21,1,1,5.000000000000e-03
21,2,2,0.0
21,3,3,-6.000000000000e-03
*BOUNDARY
22,1,1,5.000000000000e-03
22,2,2,0.0
22,3,3,6.000000000000e-03
*BOUNDARY
23,1,1,-5.000000000000e-03
23,2,2,0.0
23,3,3,-6.000000000000e-03
*BOUNDARY
24,1,1,-5.000000000000e-03
24,2,2,0.0
24,3,3,6.000000000000e-03
*NODE FILE,NSET=NALL
U
*NODE PRINT,NSET=NALL
U
*NODE PRINT,NSET=RIGHT
RF
*EL PRINT,ELSET=ALL,TOTALS=YES
ELSE
*END STEP
