*HEADING
Normalized cross-passage space-truss torsion benchmark
*NODE
1,-1.200000000000e+00,0.000000000000e+00,0.000000000000e+00
2,1.200000000000e+00,0.000000000000e+00,0.000000000000e+00
3,-1.200000000000e+00,0.000000000000e+00,2.000000000000e+00
4,1.200000000000e+00,0.000000000000e+00,2.000000000000e+00
5,-1.200000000000e+00,1.000000000000e+01,0.000000000000e+00
6,1.200000000000e+00,1.000000000000e+01,0.000000000000e+00
7,-1.200000000000e+00,1.000000000000e+01,2.000000000000e+00
8,1.200000000000e+00,1.000000000000e+01,2.000000000000e+00
9,-1.200000000000e+00,2.000000000000e+01,0.000000000000e+00
10,1.200000000000e+00,2.000000000000e+01,0.000000000000e+00
11,-1.200000000000e+00,2.000000000000e+01,2.000000000000e+00
12,1.200000000000e+00,2.000000000000e+01,2.000000000000e+00
13,-1.200000000000e+00,3.000000000000e+01,0.000000000000e+00
14,1.200000000000e+00,3.000000000000e+01,0.000000000000e+00
15,-1.200000000000e+00,3.000000000000e+01,2.000000000000e+00
16,1.200000000000e+00,3.000000000000e+01,2.000000000000e+00
17,-1.200000000000e+00,4.000000000000e+01,0.000000000000e+00
18,1.200000000000e+00,4.000000000000e+01,0.000000000000e+00
19,-1.200000000000e+00,4.000000000000e+01,2.000000000000e+00
20,1.200000000000e+00,4.000000000000e+01,2.000000000000e+00
21,-1.200000000000e+00,5.000000000000e+01,0.000000000000e+00
22,1.200000000000e+00,5.000000000000e+01,0.000000000000e+00
23,-1.200000000000e+00,5.000000000000e+01,2.000000000000e+00
24,1.200000000000e+00,5.000000000000e+01,2.000000000000e+00
25,-1.200000000000e+00,5.000000000000e+00,-1.500000000000e-01
26,1.200000000000e+00,5.000000000000e+00,1.500000000000e-01
27,-1.200000000000e+00,5.000000000000e+00,1.850000000000e+00
28,1.200000000000e+00,5.000000000000e+00,2.150000000000e+00
29,-1.200000000000e+00,1.500000000000e+01,-1.500000000000e-01
30,1.200000000000e+00,1.500000000000e+01,1.500000000000e-01
31,-1.200000000000e+00,1.500000000000e+01,1.850000000000e+00
32,1.200000000000e+00,1.500000000000e+01,2.150000000000e+00
33,-1.200000000000e+00,2.500000000000e+01,-1.500000000000e-01
34,1.200000000000e+00,2.500000000000e+01,1.500000000000e-01
35,-1.200000000000e+00,2.500000000000e+01,1.850000000000e+00
36,1.200000000000e+00,2.500000000000e+01,2.150000000000e+00
37,-1.200000000000e+00,3.500000000000e+01,-1.500000000000e-01
38,1.200000000000e+00,3.500000000000e+01,1.500000000000e-01
39,-1.200000000000e+00,3.500000000000e+01,1.850000000000e+00
40,1.200000000000e+00,3.500000000000e+01,2.150000000000e+00
41,-1.200000000000e+00,4.500000000000e+01,-1.500000000000e-01
42,1.200000000000e+00,4.500000000000e+01,1.500000000000e-01
43,-1.200000000000e+00,4.500000000000e+01,1.850000000000e+00
44,1.200000000000e+00,4.500000000000e+01,2.150000000000e+00
45,0.000000000000e+00,-3.600000000000e-02,0.000000000000e+00
46,0.000000000000e+00,3.600000000000e-02,2.000000000000e+00
47,-1.200000000000e+00,3.000000000000e-02,1.000000000000e+00
48,1.200000000000e+00,-3.000000000000e-02,1.000000000000e+00
49,0.000000000000e+00,9.964000000000e+00,0.000000000000e+00
50,0.000000000000e+00,1.003600000000e+01,2.000000000000e+00
51,-1.200000000000e+00,1.003000000000e+01,1.000000000000e+00
52,1.200000000000e+00,9.970000000000e+00,1.000000000000e+00
53,0.000000000000e+00,1.996400000000e+01,0.000000000000e+00
54,0.000000000000e+00,2.003600000000e+01,2.000000000000e+00
55,-1.200000000000e+00,2.003000000000e+01,1.000000000000e+00
56,1.200000000000e+00,1.997000000000e+01,1.000000000000e+00
57,0.000000000000e+00,2.996400000000e+01,0.000000000000e+00
58,0.000000000000e+00,3.003600000000e+01,2.000000000000e+00
59,-1.200000000000e+00,3.003000000000e+01,1.000000000000e+00
60,1.200000000000e+00,2.997000000000e+01,1.000000000000e+00
61,0.000000000000e+00,3.996400000000e+01,0.000000000000e+00
62,0.000000000000e+00,4.003600000000e+01,2.000000000000e+00
63,-1.200000000000e+00,4.003000000000e+01,1.000000000000e+00
64,1.200000000000e+00,3.997000000000e+01,1.000000000000e+00
65,0.000000000000e+00,4.996400000000e+01,0.000000000000e+00
66,0.000000000000e+00,5.003600000000e+01,2.000000000000e+00
67,-1.200000000000e+00,5.003000000000e+01,1.000000000000e+00
68,1.200000000000e+00,4.997000000000e+01,1.000000000000e+00
69,-1.200000000000e+00,5.030000000000e+00,8.500000000000e-01
70,-1.200000000000e+00,5.030000000000e+00,1.150000000000e+00
71,1.200000000000e+00,5.030000000000e+00,8.500000000000e-01
72,1.200000000000e+00,5.030000000000e+00,1.150000000000e+00
73,1.500000000000e-01,4.964000000000e+00,0.000000000000e+00
74,-1.500000000000e-01,4.964000000000e+00,0.000000000000e+00
75,1.500000000000e-01,4.964000000000e+00,2.000000000000e+00
76,-1.500000000000e-01,4.964000000000e+00,2.000000000000e+00
77,-1.200000000000e+00,1.503000000000e+01,8.500000000000e-01
78,-1.200000000000e+00,1.503000000000e+01,1.150000000000e+00
79,1.200000000000e+00,1.503000000000e+01,8.500000000000e-01
80,1.200000000000e+00,1.503000000000e+01,1.150000000000e+00
81,1.500000000000e-01,1.496400000000e+01,0.000000000000e+00
82,-1.500000000000e-01,1.496400000000e+01,0.000000000000e+00
83,1.500000000000e-01,1.496400000000e+01,2.000000000000e+00
84,-1.500000000000e-01,1.496400000000e+01,2.000000000000e+00
85,-1.200000000000e+00,2.503000000000e+01,8.500000000000e-01
86,-1.200000000000e+00,2.503000000000e+01,1.150000000000e+00
87,1.200000000000e+00,2.503000000000e+01,8.500000000000e-01
88,1.200000000000e+00,2.503000000000e+01,1.150000000000e+00
89,1.500000000000e-01,2.496400000000e+01,0.000000000000e+00
90,-1.500000000000e-01,2.496400000000e+01,0.000000000000e+00
91,1.500000000000e-01,2.496400000000e+01,2.000000000000e+00
92,-1.500000000000e-01,2.496400000000e+01,2.000000000000e+00
93,-1.200000000000e+00,3.503000000000e+01,8.500000000000e-01
94,-1.200000000000e+00,3.503000000000e+01,1.150000000000e+00
95,1.200000000000e+00,3.503000000000e+01,8.500000000000e-01
96,1.200000000000e+00,3.503000000000e+01,1.150000000000e+00
97,1.500000000000e-01,3.496400000000e+01,0.000000000000e+00
98,-1.500000000000e-01,3.496400000000e+01,0.000000000000e+00
99,1.500000000000e-01,3.496400000000e+01,2.000000000000e+00
100,-1.500000000000e-01,3.496400000000e+01,2.000000000000e+00
101,-1.200000000000e+00,4.503000000000e+01,8.500000000000e-01
102,-1.200000000000e+00,4.503000000000e+01,1.150000000000e+00
103,1.200000000000e+00,4.503000000000e+01,8.500000000000e-01
104,1.200000000000e+00,4.503000000000e+01,1.150000000000e+00
105,1.500000000000e-01,4.496400000000e+01,0.000000000000e+00
106,-1.500000000000e-01,4.496400000000e+01,0.000000000000e+00
107,1.500000000000e-01,4.496400000000e+01,2.000000000000e+00
108,-1.500000000000e-01,4.496400000000e+01,2.000000000000e+00
*ELEMENT,TYPE=B31,ELSET=ALL
1,1,25
2,25,5
3,2,26
4,26,6
5,3,27
6,27,7
7,4,28
8,28,8
9,5,29
10,29,9
11,6,30
12,30,10
13,7,31
14,31,11
15,8,32
16,32,12
17,9,33
18,33,13
19,10,34
20,34,14
21,11,35
22,35,15
23,12,36
24,36,16
25,13,37
26,37,17
27,14,38
28,38,18
29,15,39
30,39,19
31,16,40
32,40,20
33,17,41
34,41,21
35,18,42
36,42,22
37,19,43
38,43,23
39,20,44
40,44,24
41,1,45
42,45,2
43,3,46
44,46,4
45,1,47
46,47,3
47,2,48
48,48,4
49,5,49
50,49,6
51,7,50
52,50,8
53,5,51
54,51,7
55,6,52
56,52,8
57,9,53
58,53,10
59,11,54
60,54,12
61,9,55
62,55,11
63,10,56
64,56,12
65,13,57
66,57,14
67,15,58
68,58,16
69,13,59
70,59,15
71,14,60
72,60,16
73,17,61
74,61,18
75,19,62
76,62,20
77,17,63
78,63,19
79,18,64
80,64,20
81,21,65
82,65,22
83,23,66
84,66,24
85,21,67
86,67,23
87,22,68
88,68,24
89,1,69
90,69,7
91,3,70
92,70,5
93,2,71
94,71,8
95,4,72
96,72,6
97,1,73
98,73,6
99,2,74
100,74,5
101,3,75
102,75,8
103,4,76
104,76,7
105,5,77
106,77,11
107,7,78
108,78,9
109,6,79
110,79,12
111,8,80
112,80,10
113,5,81
114,81,10
115,6,82
116,82,9
117,7,83
118,83,12
119,8,84
120,84,11
121,9,85
122,85,15
123,11,86
124,86,13
125,10,87
126,87,16
127,12,88
128,88,14
129,9,89
130,89,14
131,10,90
132,90,13
133,11,91
134,91,16
135,12,92
136,92,15
137,13,93
138,93,19
139,15,94
140,94,17
141,14,95
142,95,20
143,16,96
144,96,18
145,13,97
146,97,18
147,14,98
148,98,17
149,15,99
150,99,20
151,16,100
152,100,19
153,17,101
154,101,23
155,19,102
156,102,21
157,18,103
158,103,24
159,20,104
160,104,22
161,17,105
162,105,22
163,18,106
164,106,21
165,19,107
166,107,24
167,20,108
168,108,23
*NSET,NSET=NALL,GENERATE
1,108,1
*NSET,NSET=LEFT
1,2,3,4
*NSET,NSET=RIGHT
21,22,23,24
*MATERIAL,NAME=STEEL
*ELASTIC
2.100000000000e+11,0.300000000000
*BEAM SECTION,ELSET=ALL,MATERIAL=STEEL,SECTION=RECT
6.000000000000e-02,4.000000000000e-02
0.371390676354,0.557086014531,0.742781352708
*BOUNDARY
LEFT,1,6,0.0
*STEP
*STATIC
*BOUNDARY
21,1,1,5.000000000000e-03
21,2,2,0.0
21,3,3,-6.000000000000e-03
*BOUNDARY
22,1,1,5.000000000000e-03
22,2,2,0.0
22,3,3,6.000000000000e-03
*BOUNDARY
23,1,1,-5.000000000000e-03
23,2,2,0.0
23,3,3,-6.000000000000e-03
*BOUNDARY
24,1,1,-5.000000000000e-03
24,2,2,0.0
24,3,3,6.000000000000e-03
*NODE FILE,NSET=NALL
U
*NODE PRINT,NSET=NALL
U
*NODE PRINT,NSET=RIGHT
RF
*EL PRINT,ELSET=ALL,TOTALS=YES
ELSE
*END STEP
