*HEADING
G01 S-LIN g01_s-lin_pso conforming C3D8 frozen T
units: mm, N, s, MPa, t. Illustrative steel, not a coupon card.
beam=G01 case=S-LIN job=g01_s-lin_pso type=C3D8
E=210000.0 nu=0.3 fy=235.0 load=-5000.0 N on TIP_TOP
*NODE, NSET=NALL
1, 0, -10, 0
2, 29.894353556, -10, 0
3, 29.894353556, 0, 0
4, 0, 0, 0
5, 0, -10, 28
6, 29.894353556, -10, 28
7, 29.894353556, 0, 28
8, 0, 0, 28
9, 0, -10, 56
10, 29.894353556, -10, 56
11, 29.894353556, 0, 56
12, 0, 0, 56
13, 0, -10, 84
14, 29.894353556, -10, 84
15, 29.894353556, 0, 84
16, 0, 0, 84
17, 0, -10, 112
18, 29.894353556, -10, 112
19, 29.894353556, 0, 112
20, 0, 0, 112
21, 0, -10, 140
22, 29.894353556, -10, 140
23, 29.894353556, 0, 140
24, 0, 0, 140
25, 29.894353556, 10, 0
26, 0, 10, 0
27, 29.894353556, 10, 28
28, 0, 10, 28
29, 29.894353556, 10, 56
30, 0, 10, 56
31, 29.894353556, 10, 84
32, 0, 10, 84
33, 29.894353556, 10, 112
34, 0, 10, 112
35, 29.894353556, 10, 140
36, 0, 10, 140
37, 0, -120, 140
38, 29.894353556, -120, 140
39, 29.894353556, -92.5, 140
40, 0, -92.5, 140
41, 0, -120, 150
42, 29.894353556, -120, 150
43, 29.894353556, -92.5, 150
44, 0, -92.5, 150
45, 0, -120, 160
46, 29.894353556, -120, 160
47, 29.894353556, -92.5, 160
48, 0, -92.5, 160
49, 29.894353556, -65, 140
50, 0, -65, 140
51, 29.894353556, -65, 150
52, 0, -65, 150
53, 29.894353556, -65, 160
54, 0, -65, 160
55, 29.894353556, -37.5, 140
56, 0, -37.5, 140
57, 29.894353556, -37.5, 150
58, 0, -37.5, 150
59, 29.894353556, -37.5, 160
60, 0, -37.5, 160
61, 29.894353556, -10, 150
62, 0, -10, 150
63, 29.894353556, -10, 160
64, 0, -10, 160
65, 29.894353556, 0, 150
66, 0, 0, 150
67, 29.894353556, 0, 160
68, 0, 0, 160
69, 29.894353556, 10, 150
70, 0, 10, 150
71, 29.894353556, 10, 160
72, 0, 10, 160
73, 29.894353556, 37.5, 140
74, 0, 37.5, 140
75, 29.894353556, 37.5, 150
76, 0, 37.5, 150
77, 29.894353556, 37.5, 160
78, 0, 37.5, 160
79, 29.894353556, 65, 140
80, 0, 65, 140
81, 29.894353556, 65, 150
82, 0, 65, 150
83, 29.894353556, 65, 160
84, 0, 65, 160
85, 29.894353556, 92.5, 140
86, 0, 92.5, 140
87, 29.894353556, 92.5, 150
88, 0, 92.5, 150
89, 29.894353556, 92.5, 160
90, 0, 92.5, 160
91, 29.894353556, 120, 140
92, 0, 120, 140
93, 29.894353556, 120, 150
94, 0, 120, 150
95, 29.894353556, 120, 160
96, 0, 120, 160
97, 59.7887071121, -10, 0
98, 59.7887071121, 0, 0
99, 59.7887071121, -10, 28
100, 59.7887071121, 0, 28
101, 59.7887071121, -10, 56
102, 59.7887071121, 0, 56
103, 59.7887071121, -10, 84
104, 59.7887071121, 0, 84
105, 59.7887071121, -10, 112
106, 59.7887071121, 0, 112
107, 59.7887071121, -10, 140
108, 59.7887071121, 0, 140
109, 59.7887071121, 10, 0
110, 59.7887071121, 10, 28
111, 59.7887071121, 10, 56
112, 59.7887071121, 10, 84
113, 59.7887071121, 10, 112
114, 59.7887071121, 10, 140
115, 59.7887071121, -120, 140
116, 59.7887071121, -92.5, 140
117, 59.7887071121, -120, 150
118, 59.7887071121, -92.5, 150
119, 59.7887071121, -120, 160
120, 59.7887071121, -92.5, 160
121, 59.7887071121, -65, 140
122, 59.7887071121, -65, 150
123, 59.7887071121, -65, 160
124, 59.7887071121, -37.5, 140
125, 59.7887071121, -37.5, 150
126, 59.7887071121, -37.5, 160
127, 59.7887071121, -10, 150
128, 59.7887071121, -10, 160
129, 59.7887071121, 0, 150
130, 59.7887071121, 0, 160
131, 59.7887071121, 10, 150
132, 59.7887071121, 10, 160
133, 59.7887071121, 37.5, 140
134, 59.7887071121, 37.5, 150
135, 59.7887071121, 37.5, 160
136, 59.7887071121, 65, 140
137, 59.7887071121, 65, 150
138, 59.7887071121, 65, 160
139, 59.7887071121, 92.5, 140
140, 59.7887071121, 92.5, 150
141, 59.7887071121, 92.5, 160
142, 59.7887071121, 120, 140
143, 59.7887071121, 120, 150
144, 59.7887071121, 120, 160
145, 94.0095705704, -10, 0
146, 94.0095705704, 0, 0
147, 94.0095705704, -10, 28
148, 94.0095705704, 0, 28
149, 94.0095705704, -10, 56
150, 94.0095705704, 0, 56
151, 94.0095705704, -10, 84
152, 94.0095705704, 0, 84
153, 94.0095705704, -10, 112
154, 94.0095705704, 0, 112
155, 94.0095705704, -10, 140
156, 94.0095705704, 0, 140
157, 94.0095705704, 10, 0
158, 94.0095705704, 10, 28
159, 94.0095705704, 10, 56
160, 94.0095705704, 10, 84
161, 94.0095705704, 10, 112
162, 94.0095705704, 10, 140
163, 94.0095705704, -120, 140
164, 94.0095705704, -92.5, 140
165, 94.0095705704, -120, 150
166, 94.0095705704, -92.5, 150
167, 94.0095705704, -120, 160
168, 94.0095705704, -92.5, 160
169, 94.0095705704, -65, 140
170, 94.0095705704, -65, 150
171, 94.0095705704, -65, 160
172, 94.0095705704, -37.5, 140
173, 94.0095705704, -37.5, 150
174, 94.0095705704, -37.5, 160
175, 94.0095705704, -10, 150
176, 94.0095705704, -10, 160
177, 94.0095705704, 0, 150
178, 94.0095705704, 0, 160
179, 94.0095705704, 10, 150
180, 94.0095705704, 10, 160
181, 94.0095705704, 37.5, 140
182, 94.0095705704, 37.5, 150
183, 94.0095705704, 37.5, 160
184, 94.0095705704, 65, 140
185, 94.0095705704, 65, 150
186, 94.0095705704, 65, 160
187, 94.0095705704, 92.5, 140
188, 94.0095705704, 92.5, 150
189, 94.0095705704, 92.5, 160
190, 94.0095705704, 120, 140
191, 94.0095705704, 120, 150
192, 94.0095705704, 120, 160
193, 137.241511014, -10, 0
194, 137.241511014, 0, 0
195, 137.241511014, -10, 28
196, 137.241511014, 0, 28
197, 137.241511014, -10, 56
198, 137.241511014, 0, 56
199, 137.241511014, -10, 84
200, 137.241511014, 0, 84
201, 137.241511014, -10, 112
202, 137.241511014, 0, 112
203, 137.241511014, -10, 140
204, 137.241511014, 0, 140
205, 137.241511014, 10, 0
206, 137.241511014, 10, 28
207, 137.241511014, 10, 56
208, 137.241511014, 10, 84
209, 137.241511014, 10, 112
210, 137.241511014, 10, 140
211, 137.241511014, -120, 140
212, 137.241511014, -92.5, 140
213, 137.241511014, -120, 150
214, 137.241511014, -92.5, 150
215, 137.241511014, -120, 160
216, 137.241511014, -92.5, 160
217, 137.241511014, -65, 140
218, 137.241511014, -65, 150
219, 137.241511014, -65, 160
220, 137.241511014, -37.5, 140
221, 137.241511014, -37.5, 150
222, 137.241511014, -37.5, 160
223, 137.241511014, -10, 150
224, 137.241511014, -10, 160
225, 137.241511014, 0, 150
226, 137.241511014, 0, 160
227, 137.241511014, 10, 150
228, 137.241511014, 10, 160
229, 137.241511014, 37.5, 140
230, 137.241511014, 37.5, 150
231, 137.241511014, 37.5, 160
232, 137.241511014, 65, 140
233, 137.241511014, 65, 150
234, 137.241511014, 65, 160
235, 137.241511014, 92.5, 140
236, 137.241511014, 92.5, 150
237, 137.241511014, 92.5, 160
238, 137.241511014, 120, 140
239, 137.241511014, 120, 150
240, 137.241511014, 120, 160
241, 188.828825284, -10, 0
242, 188.828825284, 0, 0
243, 188.828825284, -10, 28
244, 188.828825284, 0, 28
245, 188.828825284, -10, 56
246, 188.828825284, 0, 56
247, 188.828825284, -10, 84
248, 188.828825284, 0, 84
249, 188.828825284, -10, 112
250, 188.828825284, 0, 112
251, 188.828825284, -10, 140
252, 188.828825284, 0, 140
253, 188.828825284, 10, 0
254, 188.828825284, 10, 28
255, 188.828825284, 10, 56
256, 188.828825284, 10, 84
257, 188.828825284, 10, 112
258, 188.828825284, 10, 140
259, 188.828825284, -120, 140
260, 188.828825284, -92.5, 140
261, 188.828825284, -120, 150
262, 188.828825284, -92.5, 150
263, 188.828825284, -120, 160
264, 188.828825284, -92.5, 160
265, 188.828825284, -65, 140
266, 188.828825284, -65, 150
267, 188.828825284, -65, 160
268, 188.828825284, -37.5, 140
269, 188.828825284, -37.5, 150
270, 188.828825284, -37.5, 160
271, 188.828825284, -10, 150
272, 188.828825284, -10, 160
273, 188.828825284, 0, 150
274, 188.828825284, 0, 160
275, 188.828825284, 10, 150
276, 188.828825284, 10, 160
277, 188.828825284, 37.5, 140
278, 188.828825284, 37.5, 150
279, 188.828825284, 37.5, 160
280, 188.828825284, 65, 140
281, 188.828825284, 65, 150
282, 188.828825284, 65, 160
283, 188.828825284, 92.5, 140
284, 188.828825284, 92.5, 150
285, 188.828825284, 92.5, 160
286, 188.828825284, 120, 140
287, 188.828825284, 120, 150
288, 188.828825284, 120, 160
289, 240.288146847, -10, 0
290, 240.288146847, 0, 0
291, 240.288146847, -10, 28
292, 240.288146847, 0, 28
293, 240.288146847, -10, 56
294, 240.288146847, 0, 56
295, 240.288146847, -10, 84
296, 240.288146847, 0, 84
297, 240.288146847, -10, 112
298, 240.288146847, 0, 112
299, 240.288146847, -10, 140
300, 240.288146847, 0, 140
301, 240.288146847, 10, 0
302, 240.288146847, 10, 28
303, 240.288146847, 10, 56
304, 240.288146847, 10, 84
305, 240.288146847, 10, 112
306, 240.288146847, 10, 140
307, 240.288146847, -120, 140
308, 240.288146847, -92.5, 140
309, 240.288146847, -120, 150
310, 240.288146847, -92.5, 150
311, 240.288146847, -120, 160
312, 240.288146847, -92.5, 160
313, 240.288146847, -65, 140
314, 240.288146847, -65, 150
315, 240.288146847, -65, 160
316, 240.288146847, -37.5, 140
317, 240.288146847, -37.5, 150
318, 240.288146847, -37.5, 160
319, 240.288146847, -10, 150
320, 240.288146847, -10, 160
321, 240.288146847, 0, 150
322, 240.288146847, 0, 160
323, 240.288146847, 10, 150
324, 240.288146847, 10, 160
325, 240.288146847, 37.5, 140
326, 240.288146847, 37.5, 150
327, 240.288146847, 37.5, 160
328, 240.288146847, 65, 140
329, 240.288146847, 65, 150
330, 240.288146847, 65, 160
331, 240.288146847, 92.5, 140
332, 240.288146847, 92.5, 150
333, 240.288146847, 92.5, 160
334, 240.288146847, 120, 140
335, 240.288146847, 120, 150
336, 240.288146847, 120, 160
337, 291.620109646, -10, 0
338, 291.620109646, 0, 0
339, 291.620109646, -10, 28
340, 291.620109646, 0, 28
341, 291.620109646, -10, 56
342, 291.620109646, 0, 56
343, 291.620109646, -10, 84
344, 291.620109646, 0, 84
345, 291.620109646, -10, 112
346, 291.620109646, 0, 112
347, 291.620109646, -10, 140
348, 291.620109646, 0, 140
349, 291.620109646, 10, 0
350, 291.620109646, 10, 28
351, 291.620109646, 10, 56
352, 291.620109646, 10, 84
353, 291.620109646, 10, 112
354, 291.620109646, 10, 140
355, 291.620109646, -120, 140
356, 291.620109646, -92.5, 140
357, 291.620109646, -120, 150
358, 291.620109646, -92.5, 150
359, 291.620109646, -120, 160
360, 291.620109646, -92.5, 160
361, 291.620109646, -65, 140
362, 291.620109646, -65, 150
363, 291.620109646, -65, 160
364, 291.620109646, -37.5, 140
365, 291.620109646, -37.5, 150
366, 291.620109646, -37.5, 160
367, 291.620109646, -10, 150
368, 291.620109646, -10, 160
369, 291.620109646, 0, 150
370, 291.620109646, 0, 160
371, 291.620109646, 10, 150
372, 291.620109646, 10, 160
373, 291.620109646, 37.5, 140
374, 291.620109646, 37.5, 150
375, 291.620109646, 37.5, 160
376, 291.620109646, 65, 140
377, 291.620109646, 65, 150
378, 291.620109646, 65, 160
379, 291.620109646, 92.5, 140
380, 291.620109646, 92.5, 150
381, 291.620109646, 92.5, 160
382, 291.620109646, 120, 140
383, 291.620109646, 120, 150
384, 291.620109646, 120, 160
385, 342.825342922, -10, 0
386, 342.825342922, 0, 0
387, 342.825342922, -10, 28
388, 342.825342922, 0, 28
389, 342.825342922, -10, 56
390, 342.825342922, 0, 56
391, 342.825342922, -10, 84
392, 342.825342922, 0, 84
393, 342.825342922, -10, 112
394, 342.825342922, 0, 112
395, 342.825342922, -10, 140
396, 342.825342922, 0, 140
397, 342.825342922, 10, 0
398, 342.825342922, 10, 28
399, 342.825342922, 10, 56
400, 342.825342922, 10, 84
401, 342.825342922, 10, 112
402, 342.825342922, 10, 140
403, 342.825342922, -120, 140
404, 342.825342922, -92.5, 140
405, 342.825342922, -120, 150
406, 342.825342922, -92.5, 150
407, 342.825342922, -120, 160
408, 342.825342922, -92.5, 160
409, 342.825342922, -65, 140
410, 342.825342922, -65, 150
411, 342.825342922, -65, 160
412, 342.825342922, -37.5, 140
413, 342.825342922, -37.5, 150
414, 342.825342922, -37.5, 160
415, 342.825342922, -10, 150
416, 342.825342922, -10, 160
417, 342.825342922, 0, 150
418, 342.825342922, 0, 160
419, 342.825342922, 10, 150
420, 342.825342922, 10, 160
421, 342.825342922, 37.5, 140
422, 342.825342922, 37.5, 150
423, 342.825342922, 37.5, 160
424, 342.825342922, 65, 140
425, 342.825342922, 65, 150
426, 342.825342922, 65, 160
427, 342.825342922, 92.5, 140
428, 342.825342922, 92.5, 150
429, 342.825342922, 92.5, 160
430, 342.825342922, 120, 140
431, 342.825342922, 120, 150
432, 342.825342922, 120, 160
433, 393.904471265, -10, 0
434, 393.904471265, 0, 0
435, 393.904471265, -10, 28
436, 393.904471265, 0, 28
437, 393.904471265, -10, 56
438, 393.904471265, 0, 56
439, 393.904471265, -10, 84
440, 393.904471265, 0, 84
441, 393.904471265, -10, 112
442, 393.904471265, 0, 112
443, 393.904471265, -10, 140
444, 393.904471265, 0, 140
445, 393.904471265, 10, 0
446, 393.904471265, 10, 28
447, 393.904471265, 10, 56
448, 393.904471265, 10, 84
449, 393.904471265, 10, 112
450, 393.904471265, 10, 140
451, 393.904471265, -120, 140
452, 393.904471265, -92.5, 140
453, 393.904471265, -120, 150
454, 393.904471265, -92.5, 150
455, 393.904471265, -120, 160
456, 393.904471265, -92.5, 160
457, 393.904471265, -65, 140
458, 393.904471265, -65, 150
459, 393.904471265, -65, 160
460, 393.904471265, -37.5, 140
461, 393.904471265, -37.5, 150
462, 393.904471265, -37.5, 160
463, 393.904471265, -10, 150
464, 393.904471265, -10, 160
465, 393.904471265, 0, 150
466, 393.904471265, 0, 160
467, 393.904471265, 10, 150
468, 393.904471265, 10, 160
469, 393.904471265, 37.5, 140
470, 393.904471265, 37.5, 150
471, 393.904471265, 37.5, 160
472, 393.904471265, 65, 140
473, 393.904471265, 65, 150
474, 393.904471265, 65, 160
475, 393.904471265, 92.5, 140
476, 393.904471265, 92.5, 150
477, 393.904471265, 92.5, 160
478, 393.904471265, 120, 140
479, 393.904471265, 120, 150
480, 393.904471265, 120, 160
481, 444.858114654, -10, 0
482, 444.858114654, 0, 0
483, 444.858114654, -10, 28
484, 444.858114654, 0, 28
485, 444.858114654, -10, 56
486, 444.858114654, 0, 56
487, 444.858114654, -10, 84
488, 444.858114654, 0, 84
489, 444.858114654, -10, 112
490, 444.858114654, 0, 112
491, 444.858114654, -10, 140
492, 444.858114654, 0, 140
493, 444.858114654, 10, 0
494, 444.858114654, 10, 28
495, 444.858114654, 10, 56
496, 444.858114654, 10, 84
497, 444.858114654, 10, 112
498, 444.858114654, 10, 140
499, 444.858114654, -120, 140
500, 444.858114654, -92.5, 140
501, 444.858114654, -120, 150
502, 444.858114654, -92.5, 150
503, 444.858114654, -120, 160
504, 444.858114654, -92.5, 160
505, 444.858114654, -65, 140
506, 444.858114654, -65, 150
507, 444.858114654, -65, 160
508, 444.858114654, -37.5, 140
509, 444.858114654, -37.5, 150
510, 444.858114654, -37.5, 160
511, 444.858114654, -10, 150
512, 444.858114654, -10, 160
513, 444.858114654, 0, 150
514, 444.858114654, 0, 160
515, 444.858114654, 10, 150
516, 444.858114654, 10, 160
517, 444.858114654, 37.5, 140
518, 444.858114654, 37.5, 150
519, 444.858114654, 37.5, 160
520, 444.858114654, 65, 140
521, 444.858114654, 65, 150
522, 444.858114654, 65, 160
523, 444.858114654, 92.5, 140
524, 444.858114654, 92.5, 150
525, 444.858114654, 92.5, 160
526, 444.858114654, 120, 140
527, 444.858114654, 120, 150
528, 444.858114654, 120, 160
529, 495.686888507, -10, 0
530, 495.686888507, 0, 0
531, 495.686888507, -10, 28
532, 495.686888507, 0, 28
533, 495.686888507, -10, 56
534, 495.686888507, 0, 56
535, 495.686888507, -10, 84
536, 495.686888507, 0, 84
537, 495.686888507, -10, 112
538, 495.686888507, 0, 112
539, 495.686888507, -10, 140
540, 495.686888507, 0, 140
541, 495.686888507, 10, 0
542, 495.686888507, 10, 28
543, 495.686888507, 10, 56
544, 495.686888507, 10, 84
545, 495.686888507, 10, 112
546, 495.686888507, 10, 140
547, 495.686888507, -120, 140
548, 495.686888507, -92.5, 140
549, 495.686888507, -120, 150
550, 495.686888507, -92.5, 150
551, 495.686888507, -120, 160
552, 495.686888507, -92.5, 160
553, 495.686888507, -65, 140
554, 495.686888507, -65, 150
555, 495.686888507, -65, 160
556, 495.686888507, -37.5, 140
557, 495.686888507, -37.5, 150
558, 495.686888507, -37.5, 160
559, 495.686888507, -10, 150
560, 495.686888507, -10, 160
561, 495.686888507, 0, 150
562, 495.686888507, 0, 160
563, 495.686888507, 10, 150
564, 495.686888507, 10, 160
565, 495.686888507, 37.5, 140
566, 495.686888507, 37.5, 150
567, 495.686888507, 37.5, 160
568, 495.686888507, 65, 140
569, 495.686888507, 65, 150
570, 495.686888507, 65, 160
571, 495.686888507, 92.5, 140
572, 495.686888507, 92.5, 150
573, 495.686888507, 92.5, 160
574, 495.686888507, 120, 140
575, 495.686888507, 120, 150
576, 495.686888507, 120, 160
577, 546.391403724, -10, 0
578, 546.391403724, 0, 0
579, 546.391403724, -10, 28
580, 546.391403724, 0, 28
581, 546.391403724, -10, 56
582, 546.391403724, 0, 56
583, 546.391403724, -10, 84
584, 546.391403724, 0, 84
585, 546.391403724, -10, 112
586, 546.391403724, 0, 112
587, 546.391403724, -10, 140
588, 546.391403724, 0, 140
589, 546.391403724, 10, 0
590, 546.391403724, 10, 28
591, 546.391403724, 10, 56
592, 546.391403724, 10, 84
593, 546.391403724, 10, 112
594, 546.391403724, 10, 140
595, 546.391403724, -120, 140
596, 546.391403724, -92.5, 140
597, 546.391403724, -120, 150
598, 546.391403724, -92.5, 150
599, 546.391403724, -120, 160
600, 546.391403724, -92.5, 160
601, 546.391403724, -65, 140
602, 546.391403724, -65, 150
603, 546.391403724, -65, 160
604, 546.391403724, -37.5, 140
605, 546.391403724, -37.5, 150
606, 546.391403724, -37.5, 160
607, 546.391403724, -10, 150
608, 546.391403724, -10, 160
609, 546.391403724, 0, 150
610, 546.391403724, 0, 160
611, 546.391403724, 10, 150
612, 546.391403724, 10, 160
613, 546.391403724, 37.5, 140
614, 546.391403724, 37.5, 150
615, 546.391403724, 37.5, 160
616, 546.391403724, 65, 140
617, 546.391403724, 65, 150
618, 546.391403724, 65, 160
619, 546.391403724, 92.5, 140
620, 546.391403724, 92.5, 150
621, 546.391403724, 92.5, 160
622, 546.391403724, 120, 140
623, 546.391403724, 120, 150
624, 546.391403724, 120, 160
625, 596.972266731, -10, 0
626, 596.972266731, 0, 0
627, 596.972266731, -10, 28
628, 596.972266731, 0, 28
629, 596.972266731, -10, 56
630, 596.972266731, 0, 56
631, 596.972266731, -10, 84
632, 596.972266731, 0, 84
633, 596.972266731, -10, 112
634, 596.972266731, 0, 112
635, 596.972266731, -10, 140
636, 596.972266731, 0, 140
637, 596.972266731, 10, 0
638, 596.972266731, 10, 28
639, 596.972266731, 10, 56
640, 596.972266731, 10, 84
641, 596.972266731, 10, 112
642, 596.972266731, 10, 140
643, 596.972266731, -120, 140
644, 596.972266731, -92.5, 140
645, 596.972266731, -120, 150
646, 596.972266731, -92.5, 150
647, 596.972266731, -120, 160
648, 596.972266731, -92.5, 160
649, 596.972266731, -65, 140
650, 596.972266731, -65, 150
651, 596.972266731, -65, 160
652, 596.972266731, -37.5, 140
653, 596.972266731, -37.5, 150
654, 596.972266731, -37.5, 160
655, 596.972266731, -10, 150
656, 596.972266731, -10, 160
657, 596.972266731, 0, 150
658, 596.972266731, 0, 160
659, 596.972266731, 10, 150
660, 596.972266731, 10, 160
661, 596.972266731, 37.5, 140
662, 596.972266731, 37.5, 150
663, 596.972266731, 37.5, 160
664, 596.972266731, 65, 140
665, 596.972266731, 65, 150
666, 596.972266731, 65, 160
667, 596.972266731, 92.5, 140
668, 596.972266731, 92.5, 150
669, 596.972266731, 92.5, 160
670, 596.972266731, 120, 140
671, 596.972266731, 120, 150
672, 596.972266731, 120, 160
673, 647.430079523, -10, 0
674, 647.430079523, 0, 0
675, 647.430079523, -10, 28
676, 647.430079523, 0, 28
677, 647.430079523, -10, 56
678, 647.430079523, 0, 56
679, 647.430079523, -10, 84
680, 647.430079523, 0, 84
681, 647.430079523, -10, 112
682, 647.430079523, 0, 112
683, 647.430079523, -10, 140
684, 647.430079523, 0, 140
685, 647.430079523, 10, 0
686, 647.430079523, 10, 28
687, 647.430079523, 10, 56
688, 647.430079523, 10, 84
689, 647.430079523, 10, 112
690, 647.430079523, 10, 140
691, 647.430079523, -120, 140
692, 647.430079523, -92.5, 140
693, 647.430079523, -120, 150
694, 647.430079523, -92.5, 150
695, 647.430079523, -120, 160
696, 647.430079523, -92.5, 160
697, 647.430079523, -65, 140
698, 647.430079523, -65, 150
699, 647.430079523, -65, 160
700, 647.430079523, -37.5, 140
701, 647.430079523, -37.5, 150
702, 647.430079523, -37.5, 160
703, 647.430079523, -10, 150
704, 647.430079523, -10, 160
705, 647.430079523, 0, 150
706, 647.430079523, 0, 160
707, 647.430079523, 10, 150
708, 647.430079523, 10, 160
709, 647.430079523, 37.5, 140
710, 647.430079523, 37.5, 150
711, 647.430079523, 37.5, 160
712, 647.430079523, 65, 140
713, 647.430079523, 65, 150
714, 647.430079523, 65, 160
715, 647.430079523, 92.5, 140
716, 647.430079523, 92.5, 150
717, 647.430079523, 92.5, 160
718, 647.430079523, 120, 140
719, 647.430079523, 120, 150
720, 647.430079523, 120, 160
721, 697.765439708, -10, 0
722, 697.765439708, 0, 0
723, 697.765439708, -10, 28
724, 697.765439708, 0, 28
725, 697.765439708, -10, 56
726, 697.765439708, 0, 56
727, 697.765439708, -10, 84
728, 697.765439708, 0, 84
729, 697.765439708, -10, 112
730, 697.765439708, 0, 112
731, 697.765439708, -10, 140
732, 697.765439708, 0, 140
733, 697.765439708, 10, 0
734, 697.765439708, 10, 28
735, 697.765439708, 10, 56
736, 697.765439708, 10, 84
737, 697.765439708, 10, 112
738, 697.765439708, 10, 140
739, 697.765439708, -120, 140
740, 697.765439708, -92.5, 140
741, 697.765439708, -120, 150
742, 697.765439708, -92.5, 150
743, 697.765439708, -120, 160
744, 697.765439708, -92.5, 160
745, 697.765439708, -65, 140
746, 697.765439708, -65, 150
747, 697.765439708, -65, 160
748, 697.765439708, -37.5, 140
749, 697.765439708, -37.5, 150
750, 697.765439708, -37.5, 160
751, 697.765439708, -10, 150
752, 697.765439708, -10, 160
753, 697.765439708, 0, 150
754, 697.765439708, 0, 160
755, 697.765439708, 10, 150
756, 697.765439708, 10, 160
757, 697.765439708, 37.5, 140
758, 697.765439708, 37.5, 150
759, 697.765439708, 37.5, 160
760, 697.765439708, 65, 140
761, 697.765439708, 65, 150
762, 697.765439708, 65, 160
763, 697.765439708, 92.5, 140
764, 697.765439708, 92.5, 150
765, 697.765439708, 92.5, 160
766, 697.765439708, 120, 140
767, 697.765439708, 120, 150
768, 697.765439708, 120, 160
769, 747.978940549, -10, 0
770, 747.978940549, 0, 0
771, 747.978940549, -10, 28
772, 747.978940549, 0, 28
773, 747.978940549, -10, 56
774, 747.978940549, 0, 56
775, 747.978940549, -10, 84
776, 747.978940549, 0, 84
777, 747.978940549, -10, 112
778, 747.978940549, 0, 112
779, 747.978940549, -10, 140
780, 747.978940549, 0, 140
781, 747.978940549, 10, 0
782, 747.978940549, 10, 28
783, 747.978940549, 10, 56
784, 747.978940549, 10, 84
785, 747.978940549, 10, 112
786, 747.978940549, 10, 140
787, 747.978940549, -120, 140
788, 747.978940549, -92.5, 140
789, 747.978940549, -120, 150
790, 747.978940549, -92.5, 150
791, 747.978940549, -120, 160
792, 747.978940549, -92.5, 160
793, 747.978940549, -65, 140
794, 747.978940549, -65, 150
795, 747.978940549, -65, 160
796, 747.978940549, -37.5, 140
797, 747.978940549, -37.5, 150
798, 747.978940549, -37.5, 160
799, 747.978940549, -10, 150
800, 747.978940549, -10, 160
801, 747.978940549, 0, 150
802, 747.978940549, 0, 160
803, 747.978940549, 10, 150
804, 747.978940549, 10, 160
805, 747.978940549, 37.5, 140
806, 747.978940549, 37.5, 150
807, 747.978940549, 37.5, 160
808, 747.978940549, 65, 140
809, 747.978940549, 65, 150
810, 747.978940549, 65, 160
811, 747.978940549, 92.5, 140
812, 747.978940549, 92.5, 150
813, 747.978940549, 92.5, 160
814, 747.978940549, 120, 140
815, 747.978940549, 120, 150
816, 747.978940549, 120, 160
817, 798.071171007, -10, 0
818, 798.071171007, 0, 0
819, 798.071171007, -10, 28
820, 798.071171007, 0, 28
821, 798.071171007, -10, 56
822, 798.071171007, 0, 56
823, 798.071171007, -10, 84
824, 798.071171007, 0, 84
825, 798.071171007, -10, 112
826, 798.071171007, 0, 112
827, 798.071171007, -10, 140
828, 798.071171007, 0, 140
829, 798.071171007, 10, 0
830, 798.071171007, 10, 28
831, 798.071171007, 10, 56
832, 798.071171007, 10, 84
833, 798.071171007, 10, 112
834, 798.071171007, 10, 140
835, 798.071171007, -120, 140
836, 798.071171007, -92.5, 140
837, 798.071171007, -120, 150
838, 798.071171007, -92.5, 150
839, 798.071171007, -120, 160
840, 798.071171007, -92.5, 160
841, 798.071171007, -65, 140
842, 798.071171007, -65, 150
843, 798.071171007, -65, 160
844, 798.071171007, -37.5, 140
845, 798.071171007, -37.5, 150
846, 798.071171007, -37.5, 160
847, 798.071171007, -10, 150
848, 798.071171007, -10, 160
849, 798.071171007, 0, 150
850, 798.071171007, 0, 160
851, 798.071171007, 10, 150
852, 798.071171007, 10, 160
853, 798.071171007, 37.5, 140
854, 798.071171007, 37.5, 150
855, 798.071171007, 37.5, 160
856, 798.071171007, 65, 140
857, 798.071171007, 65, 150
858, 798.071171007, 65, 160
859, 798.071171007, 92.5, 140
860, 798.071171007, 92.5, 150
861, 798.071171007, 92.5, 160
862, 798.071171007, 120, 140
863, 798.071171007, 120, 150
864, 798.071171007, 120, 160
865, 848.042715782, -10, 0
866, 848.042715782, 0, 0
867, 848.042715782, -10, 28
868, 848.042715782, 0, 28
869, 848.042715782, -10, 56
870, 848.042715782, 0, 56
871, 848.042715782, -10, 84
872, 848.042715782, 0, 84
873, 848.042715782, -10, 112
874, 848.042715782, 0, 112
875, 848.042715782, -10, 140
876, 848.042715782, 0, 140
877, 848.042715782, 10, 0
878, 848.042715782, 10, 28
879, 848.042715782, 10, 56
880, 848.042715782, 10, 84
881, 848.042715782, 10, 112
882, 848.042715782, 10, 140
883, 848.042715782, -120, 140
884, 848.042715782, -92.5, 140
885, 848.042715782, -120, 150
886, 848.042715782, -92.5, 150
887, 848.042715782, -120, 160
888, 848.042715782, -92.5, 160
889, 848.042715782, -65, 140
890, 848.042715782, -65, 150
891, 848.042715782, -65, 160
892, 848.042715782, -37.5, 140
893, 848.042715782, -37.5, 150
894, 848.042715782, -37.5, 160
895, 848.042715782, -10, 150
896, 848.042715782, -10, 160
897, 848.042715782, 0, 150
898, 848.042715782, 0, 160
899, 848.042715782, 10, 150
900, 848.042715782, 10, 160
901, 848.042715782, 37.5, 140
902, 848.042715782, 37.5, 150
903, 848.042715782, 37.5, 160
904, 848.042715782, 65, 140
905, 848.042715782, 65, 150
906, 848.042715782, 65, 160
907, 848.042715782, 92.5, 140
908, 848.042715782, 92.5, 150
909, 848.042715782, 92.5, 160
910, 848.042715782, 120, 140
911, 848.042715782, 120, 150
912, 848.042715782, 120, 160
913, 897.894155353, -10, 0
914, 897.894155353, 0, 0
915, 897.894155353, -10, 28
916, 897.894155353, 0, 28
917, 897.894155353, -10, 56
918, 897.894155353, 0, 56
919, 897.894155353, -10, 84
920, 897.894155353, 0, 84
921, 897.894155353, -10, 112
922, 897.894155353, 0, 112
923, 897.894155353, -10, 140
924, 897.894155353, 0, 140
925, 897.894155353, 10, 0
926, 897.894155353, 10, 28
927, 897.894155353, 10, 56
928, 897.894155353, 10, 84
929, 897.894155353, 10, 112
930, 897.894155353, 10, 140
931, 897.894155353, -120, 140
932, 897.894155353, -92.5, 140
933, 897.894155353, -120, 150
934, 897.894155353, -92.5, 150
935, 897.894155353, -120, 160
936, 897.894155353, -92.5, 160
937, 897.894155353, -65, 140
938, 897.894155353, -65, 150
939, 897.894155353, -65, 160
940, 897.894155353, -37.5, 140
941, 897.894155353, -37.5, 150
942, 897.894155353, -37.5, 160
943, 897.894155353, -10, 150
944, 897.894155353, -10, 160
945, 897.894155353, 0, 150
946, 897.894155353, 0, 160
947, 897.894155353, 10, 150
948, 897.894155353, 10, 160
949, 897.894155353, 37.5, 140
950, 897.894155353, 37.5, 150
951, 897.894155353, 37.5, 160
952, 897.894155353, 65, 140
953, 897.894155353, 65, 150
954, 897.894155353, 65, 160
955, 897.894155353, 92.5, 140
956, 897.894155353, 92.5, 150
957, 897.894155353, 92.5, 160
958, 897.894155353, 120, 140
959, 897.894155353, 120, 150
960, 897.894155353, 120, 160
961, 947.626066019, -10, 0
962, 947.626066019, 0, 0
963, 947.626066019, -10, 28
964, 947.626066019, 0, 28
965, 947.626066019, -10, 56
966, 947.626066019, 0, 56
967, 947.626066019, -10, 84
968, 947.626066019, 0, 84
969, 947.626066019, -10, 112
970, 947.626066019, 0, 112
971, 947.626066019, -10, 140
972, 947.626066019, 0, 140
973, 947.626066019, 10, 0
974, 947.626066019, 10, 28
975, 947.626066019, 10, 56
976, 947.626066019, 10, 84
977, 947.626066019, 10, 112
978, 947.626066019, 10, 140
979, 947.626066019, -120, 140
980, 947.626066019, -92.5, 140
981, 947.626066019, -120, 150
982, 947.626066019, -92.5, 150
983, 947.626066019, -120, 160
984, 947.626066019, -92.5, 160
985, 947.626066019, -65, 140
986, 947.626066019, -65, 150
987, 947.626066019, -65, 160
988, 947.626066019, -37.5, 140
989, 947.626066019, -37.5, 150
990, 947.626066019, -37.5, 160
991, 947.626066019, -10, 150
992, 947.626066019, -10, 160
993, 947.626066019, 0, 150
994, 947.626066019, 0, 160
995, 947.626066019, 10, 150
996, 947.626066019, 10, 160
997, 947.626066019, 37.5, 140
998, 947.626066019, 37.5, 150
999, 947.626066019, 37.5, 160
1000, 947.626066019, 65, 140
1001, 947.626066019, 65, 150
1002, 947.626066019, 65, 160
1003, 947.626066019, 92.5, 140
1004, 947.626066019, 92.5, 150
1005, 947.626066019, 92.5, 160
1006, 947.626066019, 120, 140
1007, 947.626066019, 120, 150
1008, 947.626066019, 120, 160
1009, 997.239019941, -10, 0
1010, 997.239019941, 0, 0
1011, 997.239019941, -10, 28
1012, 997.239019941, 0, 28
1013, 997.239019941, -10, 56
1014, 997.239019941, 0, 56
1015, 997.239019941, -10, 84
1016, 997.239019941, 0, 84
1017, 997.239019941, -10, 112
1018, 997.239019941, 0, 112
1019, 997.239019941, -10, 140
1020, 997.239019941, 0, 140
1021, 997.239019941, 10, 0
1022, 997.239019941, 10, 28
1023, 997.239019941, 10, 56
1024, 997.239019941, 10, 84
1025, 997.239019941, 10, 112
1026, 997.239019941, 10, 140
1027, 997.239019941, -120, 140
1028, 997.239019941, -92.5, 140
1029, 997.239019941, -120, 150
1030, 997.239019941, -92.5, 150
1031, 997.239019941, -120, 160
1032, 997.239019941, -92.5, 160
1033, 997.239019941, -65, 140
1034, 997.239019941, -65, 150
1035, 997.239019941, -65, 160
1036, 997.239019941, -37.5, 140
1037, 997.239019941, -37.5, 150
1038, 997.239019941, -37.5, 160
1039, 997.239019941, -10, 150
1040, 997.239019941, -10, 160
1041, 997.239019941, 0, 150
1042, 997.239019941, 0, 160
1043, 997.239019941, 10, 150
1044, 997.239019941, 10, 160
1045, 997.239019941, 37.5, 140
1046, 997.239019941, 37.5, 150
1047, 997.239019941, 37.5, 160
1048, 997.239019941, 65, 140
1049, 997.239019941, 65, 150
1050, 997.239019941, 65, 160
1051, 997.239019941, 92.5, 140
1052, 997.239019941, 92.5, 150
1053, 997.239019941, 92.5, 160
1054, 997.239019941, 120, 140
1055, 997.239019941, 120, 150
1056, 997.239019941, 120, 160
1057, 1046.73358518, -10, 0
1058, 1046.73358518, 0, 0
1059, 1046.73358518, -10, 28
1060, 1046.73358518, 0, 28
1061, 1046.73358518, -10, 56
1062, 1046.73358518, 0, 56
1063, 1046.73358518, -10, 84
1064, 1046.73358518, 0, 84
1065, 1046.73358518, -10, 112
1066, 1046.73358518, 0, 112
1067, 1046.73358518, -10, 140
1068, 1046.73358518, 0, 140
1069, 1046.73358518, 10, 0
1070, 1046.73358518, 10, 28
1071, 1046.73358518, 10, 56
1072, 1046.73358518, 10, 84
1073, 1046.73358518, 10, 112
1074, 1046.73358518, 10, 140
1075, 1046.73358518, -120, 140
1076, 1046.73358518, -92.5, 140
1077, 1046.73358518, -120, 150
1078, 1046.73358518, -92.5, 150
1079, 1046.73358518, -120, 160
1080, 1046.73358518, -92.5, 160
1081, 1046.73358518, -65, 140
1082, 1046.73358518, -65, 150
1083, 1046.73358518, -65, 160
1084, 1046.73358518, -37.5, 140
1085, 1046.73358518, -37.5, 150
1086, 1046.73358518, -37.5, 160
1087, 1046.73358518, -10, 150
1088, 1046.73358518, -10, 160
1089, 1046.73358518, 0, 150
1090, 1046.73358518, 0, 160
1091, 1046.73358518, 10, 150
1092, 1046.73358518, 10, 160
1093, 1046.73358518, 37.5, 140
1094, 1046.73358518, 37.5, 150
1095, 1046.73358518, 37.5, 160
1096, 1046.73358518, 65, 140
1097, 1046.73358518, 65, 150
1098, 1046.73358518, 65, 160
1099, 1046.73358518, 92.5, 140
1100, 1046.73358518, 92.5, 150
1101, 1046.73358518, 92.5, 160
1102, 1046.73358518, 120, 140
1103, 1046.73358518, 120, 150
1104, 1046.73358518, 120, 160
1105, 1096.11032573, -10, 0
1106, 1096.11032573, 0, 0
1107, 1096.11032573, -10, 28
1108, 1096.11032573, 0, 28
1109, 1096.11032573, -10, 56
1110, 1096.11032573, 0, 56
1111, 1096.11032573, -10, 84
1112, 1096.11032573, 0, 84
1113, 1096.11032573, -10, 112
1114, 1096.11032573, 0, 112
1115, 1096.11032573, -10, 140
1116, 1096.11032573, 0, 140
1117, 1096.11032573, 10, 0
1118, 1096.11032573, 10, 28
1119, 1096.11032573, 10, 56
1120, 1096.11032573, 10, 84
1121, 1096.11032573, 10, 112
1122, 1096.11032573, 10, 140
1123, 1096.11032573, -120, 140
1124, 1096.11032573, -92.5, 140
1125, 1096.11032573, -120, 150
1126, 1096.11032573, -92.5, 150
1127, 1096.11032573, -120, 160
1128, 1096.11032573, -92.5, 160
1129, 1096.11032573, -65, 140
1130, 1096.11032573, -65, 150
1131, 1096.11032573, -65, 160
1132, 1096.11032573, -37.5, 140
1133, 1096.11032573, -37.5, 150
1134, 1096.11032573, -37.5, 160
1135, 1096.11032573, -10, 150
1136, 1096.11032573, -10, 160
1137, 1096.11032573, 0, 150
1138, 1096.11032573, 0, 160
1139, 1096.11032573, 10, 150
1140, 1096.11032573, 10, 160
1141, 1096.11032573, 37.5, 140
1142, 1096.11032573, 37.5, 150
1143, 1096.11032573, 37.5, 160
1144, 1096.11032573, 65, 140
1145, 1096.11032573, 65, 150
1146, 1096.11032573, 65, 160
1147, 1096.11032573, 92.5, 140
1148, 1096.11032573, 92.5, 150
1149, 1096.11032573, 92.5, 160
1150, 1096.11032573, 120, 140
1151, 1096.11032573, 120, 150
1152, 1096.11032573, 120, 160
1153, 1145.36980157, -10, 0
1154, 1145.36980157, 0, 0
1155, 1145.36980157, -10, 28
1156, 1145.36980157, 0, 28
1157, 1145.36980157, -10, 56
1158, 1145.36980157, 0, 56
1159, 1145.36980157, -10, 84
1160, 1145.36980157, 0, 84
1161, 1145.36980157, -10, 112
1162, 1145.36980157, 0, 112
1163, 1145.36980157, -10, 140
1164, 1145.36980157, 0, 140
1165, 1145.36980157, 10, 0
1166, 1145.36980157, 10, 28
1167, 1145.36980157, 10, 56
1168, 1145.36980157, 10, 84
1169, 1145.36980157, 10, 112
1170, 1145.36980157, 10, 140
1171, 1145.36980157, -120, 140
1172, 1145.36980157, -92.5, 140
1173, 1145.36980157, -120, 150
1174, 1145.36980157, -92.5, 150
1175, 1145.36980157, -120, 160
1176, 1145.36980157, -92.5, 160
1177, 1145.36980157, -65, 140
1178, 1145.36980157, -65, 150
1179, 1145.36980157, -65, 160
1180, 1145.36980157, -37.5, 140
1181, 1145.36980157, -37.5, 150
1182, 1145.36980157, -37.5, 160
1183, 1145.36980157, -10, 150
1184, 1145.36980157, -10, 160
1185, 1145.36980157, 0, 150
1186, 1145.36980157, 0, 160
1187, 1145.36980157, 10, 150
1188, 1145.36980157, 10, 160
1189, 1145.36980157, 37.5, 140
1190, 1145.36980157, 37.5, 150
1191, 1145.36980157, 37.5, 160
1192, 1145.36980157, 65, 140
1193, 1145.36980157, 65, 150
1194, 1145.36980157, 65, 160
1195, 1145.36980157, 92.5, 140
1196, 1145.36980157, 92.5, 150
1197, 1145.36980157, 92.5, 160
1198, 1145.36980157, 120, 140
1199, 1145.36980157, 120, 150
1200, 1145.36980157, 120, 160
1201, 1194.5125687, -10, 0
1202, 1194.5125687, 0, 0
1203, 1194.5125687, -10, 28
1204, 1194.5125687, 0, 28
1205, 1194.5125687, -10, 56
1206, 1194.5125687, 0, 56
1207, 1194.5125687, -10, 84
1208, 1194.5125687, 0, 84
1209, 1194.5125687, -10, 112
1210, 1194.5125687, 0, 112
1211, 1194.5125687, -10, 140
1212, 1194.5125687, 0, 140
1213, 1194.5125687, 10, 0
1214, 1194.5125687, 10, 28
1215, 1194.5125687, 10, 56
1216, 1194.5125687, 10, 84
1217, 1194.5125687, 10, 112
1218, 1194.5125687, 10, 140
1219, 1194.5125687, -120, 140
1220, 1194.5125687, -92.5, 140
1221, 1194.5125687, -120, 150
1222, 1194.5125687, -92.5, 150
1223, 1194.5125687, -120, 160
1224, 1194.5125687, -92.5, 160
1225, 1194.5125687, -65, 140
1226, 1194.5125687, -65, 150
1227, 1194.5125687, -65, 160
1228, 1194.5125687, -37.5, 140
1229, 1194.5125687, -37.5, 150
1230, 1194.5125687, -37.5, 160
1231, 1194.5125687, -10, 150
1232, 1194.5125687, -10, 160
1233, 1194.5125687, 0, 150
1234, 1194.5125687, 0, 160
1235, 1194.5125687, 10, 150
1236, 1194.5125687, 10, 160
1237, 1194.5125687, 37.5, 140
1238, 1194.5125687, 37.5, 150
1239, 1194.5125687, 37.5, 160
1240, 1194.5125687, 65, 140
1241, 1194.5125687, 65, 150
1242, 1194.5125687, 65, 160
1243, 1194.5125687, 92.5, 140
1244, 1194.5125687, 92.5, 150
1245, 1194.5125687, 92.5, 160
1246, 1194.5125687, 120, 140
1247, 1194.5125687, 120, 150
1248, 1194.5125687, 120, 160
1249, 1243.53917916, -10, 0
1250, 1243.53917916, 0, 0
1251, 1243.53917916, -10, 28
1252, 1243.53917916, 0, 28
1253, 1243.53917916, -10, 56
1254, 1243.53917916, 0, 56
1255, 1243.53917916, -10, 84
1256, 1243.53917916, 0, 84
1257, 1243.53917916, -10, 112
1258, 1243.53917916, 0, 112
1259, 1243.53917916, -10, 140
1260, 1243.53917916, 0, 140
1261, 1243.53917916, 10, 0
1262, 1243.53917916, 10, 28
1263, 1243.53917916, 10, 56
1264, 1243.53917916, 10, 84
1265, 1243.53917916, 10, 112
1266, 1243.53917916, 10, 140
1267, 1243.53917916, -120, 140
1268, 1243.53917916, -92.5, 140
1269, 1243.53917916, -120, 150
1270, 1243.53917916, -92.5, 150
1271, 1243.53917916, -120, 160
1272, 1243.53917916, -92.5, 160
1273, 1243.53917916, -65, 140
1274, 1243.53917916, -65, 150
1275, 1243.53917916, -65, 160
1276, 1243.53917916, -37.5, 140
1277, 1243.53917916, -37.5, 150
1278, 1243.53917916, -37.5, 160
1279, 1243.53917916, -10, 150
1280, 1243.53917916, -10, 160
1281, 1243.53917916, 0, 150
1282, 1243.53917916, 0, 160
1283, 1243.53917916, 10, 150
1284, 1243.53917916, 10, 160
1285, 1243.53917916, 37.5, 140
1286, 1243.53917916, 37.5, 150
1287, 1243.53917916, 37.5, 160
1288, 1243.53917916, 65, 140
1289, 1243.53917916, 65, 150
1290, 1243.53917916, 65, 160
1291, 1243.53917916, 92.5, 140
1292, 1243.53917916, 92.5, 150
1293, 1243.53917916, 92.5, 160
1294, 1243.53917916, 120, 140
1295, 1243.53917916, 120, 150
1296, 1243.53917916, 120, 160
1297, 1292.45018108, -10, 0
1298, 1292.45018108, 0, 0
1299, 1292.45018108, -10, 28
1300, 1292.45018108, 0, 28
1301, 1292.45018108, -10, 56
1302, 1292.45018108, 0, 56
1303, 1292.45018108, -10, 84
1304, 1292.45018108, 0, 84
1305, 1292.45018108, -10, 112
1306, 1292.45018108, 0, 112
1307, 1292.45018108, -10, 140
1308, 1292.45018108, 0, 140
1309, 1292.45018108, 10, 0
1310, 1292.45018108, 10, 28
1311, 1292.45018108, 10, 56
1312, 1292.45018108, 10, 84
1313, 1292.45018108, 10, 112
1314, 1292.45018108, 10, 140
1315, 1292.45018108, -120, 140
1316, 1292.45018108, -92.5, 140
1317, 1292.45018108, -120, 150
1318, 1292.45018108, -92.5, 150
1319, 1292.45018108, -120, 160
1320, 1292.45018108, -92.5, 160
1321, 1292.45018108, -65, 140
1322, 1292.45018108, -65, 150
1323, 1292.45018108, -65, 160
1324, 1292.45018108, -37.5, 140
1325, 1292.45018108, -37.5, 150
1326, 1292.45018108, -37.5, 160
1327, 1292.45018108, -10, 150
1328, 1292.45018108, -10, 160
1329, 1292.45018108, 0, 150
1330, 1292.45018108, 0, 160
1331, 1292.45018108, 10, 150
1332, 1292.45018108, 10, 160
1333, 1292.45018108, 37.5, 140
1334, 1292.45018108, 37.5, 150
1335, 1292.45018108, 37.5, 160
1336, 1292.45018108, 65, 140
1337, 1292.45018108, 65, 150
1338, 1292.45018108, 65, 160
1339, 1292.45018108, 92.5, 140
1340, 1292.45018108, 92.5, 150
1341, 1292.45018108, 92.5, 160
1342, 1292.45018108, 120, 140
1343, 1292.45018108, 120, 150
1344, 1292.45018108, 120, 160
1345, 1341.24611874, -10, 0
1346, 1341.24611874, 0, 0
1347, 1341.24611874, -10, 28
1348, 1341.24611874, 0, 28
1349, 1341.24611874, -10, 56
1350, 1341.24611874, 0, 56
1351, 1341.24611874, -10, 84
1352, 1341.24611874, 0, 84
1353, 1341.24611874, -10, 112
1354, 1341.24611874, 0, 112
1355, 1341.24611874, -10, 140
1356, 1341.24611874, 0, 140
1357, 1341.24611874, 10, 0
1358, 1341.24611874, 10, 28
1359, 1341.24611874, 10, 56
1360, 1341.24611874, 10, 84
1361, 1341.24611874, 10, 112
1362, 1341.24611874, 10, 140
1363, 1341.24611874, -120, 140
1364, 1341.24611874, -92.5, 140
1365, 1341.24611874, -120, 150
1366, 1341.24611874, -92.5, 150
1367, 1341.24611874, -120, 160
1368, 1341.24611874, -92.5, 160
1369, 1341.24611874, -65, 140
1370, 1341.24611874, -65, 150
1371, 1341.24611874, -65, 160
1372, 1341.24611874, -37.5, 140
1373, 1341.24611874, -37.5, 150
1374, 1341.24611874, -37.5, 160
1375, 1341.24611874, -10, 150
1376, 1341.24611874, -10, 160
1377, 1341.24611874, 0, 150
1378, 1341.24611874, 0, 160
1379, 1341.24611874, 10, 150
1380, 1341.24611874, 10, 160
1381, 1341.24611874, 37.5, 140
1382, 1341.24611874, 37.5, 150
1383, 1341.24611874, 37.5, 160
1384, 1341.24611874, 65, 140
1385, 1341.24611874, 65, 150
1386, 1341.24611874, 65, 160
1387, 1341.24611874, 92.5, 140
1388, 1341.24611874, 92.5, 150
1389, 1341.24611874, 92.5, 160
1390, 1341.24611874, 120, 140
1391, 1341.24611874, 120, 150
1392, 1341.24611874, 120, 160
1393, 1389.92753255, -10, 0
1394, 1389.92753255, 0, 0
1395, 1389.92753255, -10, 28
1396, 1389.92753255, 0, 28
1397, 1389.92753255, -10, 56
1398, 1389.92753255, 0, 56
1399, 1389.92753255, -10, 84
1400, 1389.92753255, 0, 84
1401, 1389.92753255, -10, 112
1402, 1389.92753255, 0, 112
1403, 1389.92753255, -10, 140
1404, 1389.92753255, 0, 140
1405, 1389.92753255, 10, 0
1406, 1389.92753255, 10, 28
1407, 1389.92753255, 10, 56
1408, 1389.92753255, 10, 84
1409, 1389.92753255, 10, 112
1410, 1389.92753255, 10, 140
1411, 1389.92753255, -120, 140
1412, 1389.92753255, -92.5, 140
1413, 1389.92753255, -120, 150
1414, 1389.92753255, -92.5, 150
1415, 1389.92753255, -120, 160
1416, 1389.92753255, -92.5, 160
1417, 1389.92753255, -65, 140
1418, 1389.92753255, -65, 150
1419, 1389.92753255, -65, 160
1420, 1389.92753255, -37.5, 140
1421, 1389.92753255, -37.5, 150
1422, 1389.92753255, -37.5, 160
1423, 1389.92753255, -10, 150
1424, 1389.92753255, -10, 160
1425, 1389.92753255, 0, 150
1426, 1389.92753255, 0, 160
1427, 1389.92753255, 10, 150
1428, 1389.92753255, 10, 160
1429, 1389.92753255, 37.5, 140
1430, 1389.92753255, 37.5, 150
1431, 1389.92753255, 37.5, 160
1432, 1389.92753255, 65, 140
1433, 1389.92753255, 65, 150
1434, 1389.92753255, 65, 160
1435, 1389.92753255, 92.5, 140
1436, 1389.92753255, 92.5, 150
1437, 1389.92753255, 92.5, 160
1438, 1389.92753255, 120, 140
1439, 1389.92753255, 120, 150
1440, 1389.92753255, 120, 160
1441, 1438.49495916, -10, 0
1442, 1438.49495916, 0, 0
1443, 1438.49495916, -10, 28
1444, 1438.49495916, 0, 28
1445, 1438.49495916, -10, 56
1446, 1438.49495916, 0, 56
1447, 1438.49495916, -10, 84
1448, 1438.49495916, 0, 84
1449, 1438.49495916, -10, 112
1450, 1438.49495916, 0, 112
1451, 1438.49495916, -10, 140
1452, 1438.49495916, 0, 140
1453, 1438.49495916, 10, 0
1454, 1438.49495916, 10, 28
1455, 1438.49495916, 10, 56
1456, 1438.49495916, 10, 84
1457, 1438.49495916, 10, 112
1458, 1438.49495916, 10, 140
1459, 1438.49495916, -120, 140
1460, 1438.49495916, -92.5, 140
1461, 1438.49495916, -120, 150
1462, 1438.49495916, -92.5, 150
1463, 1438.49495916, -120, 160
1464, 1438.49495916, -92.5, 160
1465, 1438.49495916, -65, 140
1466, 1438.49495916, -65, 150
1467, 1438.49495916, -65, 160
1468, 1438.49495916, -37.5, 140
1469, 1438.49495916, -37.5, 150
1470, 1438.49495916, -37.5, 160
1471, 1438.49495916, -10, 150
1472, 1438.49495916, -10, 160
1473, 1438.49495916, 0, 150
1474, 1438.49495916, 0, 160
1475, 1438.49495916, 10, 150
1476, 1438.49495916, 10, 160
1477, 1438.49495916, 37.5, 140
1478, 1438.49495916, 37.5, 150
1479, 1438.49495916, 37.5, 160
1480, 1438.49495916, 65, 140
1481, 1438.49495916, 65, 150
1482, 1438.49495916, 65, 160
1483, 1438.49495916, 92.5, 140
1484, 1438.49495916, 92.5, 150
1485, 1438.49495916, 92.5, 160
1486, 1438.49495916, 120, 140
1487, 1438.49495916, 120, 150
1488, 1438.49495916, 120, 160
1489, 1486.94893142, -10, 0
1490, 1486.94893142, 0, 0
1491, 1486.94893142, -10, 28
1492, 1486.94893142, 0, 28
1493, 1486.94893142, -10, 56
1494, 1486.94893142, 0, 56
1495, 1486.94893142, -10, 84
1496, 1486.94893142, 0, 84
1497, 1486.94893142, -10, 112
1498, 1486.94893142, 0, 112
1499, 1486.94893142, -10, 140
1500, 1486.94893142, 0, 140
1501, 1486.94893142, 10, 0
1502, 1486.94893142, 10, 28
1503, 1486.94893142, 10, 56
1504, 1486.94893142, 10, 84
1505, 1486.94893142, 10, 112
1506, 1486.94893142, 10, 140
1507, 1486.94893142, -120, 140
1508, 1486.94893142, -92.5, 140
1509, 1486.94893142, -120, 150
1510, 1486.94893142, -92.5, 150
1511, 1486.94893142, -120, 160
1512, 1486.94893142, -92.5, 160
1513, 1486.94893142, -65, 140
1514, 1486.94893142, -65, 150
1515, 1486.94893142, -65, 160
1516, 1486.94893142, -37.5, 140
1517, 1486.94893142, -37.5, 150
1518, 1486.94893142, -37.5, 160
1519, 1486.94893142, -10, 150
1520, 1486.94893142, -10, 160
1521, 1486.94893142, 0, 150
1522, 1486.94893142, 0, 160
1523, 1486.94893142, 10, 150
1524, 1486.94893142, 10, 160
1525, 1486.94893142, 37.5, 140
1526, 1486.94893142, 37.5, 150
1527, 1486.94893142, 37.5, 160
1528, 1486.94893142, 65, 140
1529, 1486.94893142, 65, 150
1530, 1486.94893142, 65, 160
1531, 1486.94893142, 92.5, 140
1532, 1486.94893142, 92.5, 150
1533, 1486.94893142, 92.5, 160
1534, 1486.94893142, 120, 140
1535, 1486.94893142, 120, 150
1536, 1486.94893142, 120, 160
1537, 1535.28997847, -10, 0
1538, 1535.28997847, 0, 0
1539, 1535.28997847, -10, 28
1540, 1535.28997847, 0, 28
1541, 1535.28997847, -10, 56
1542, 1535.28997847, 0, 56
1543, 1535.28997847, -10, 84
1544, 1535.28997847, 0, 84
1545, 1535.28997847, -10, 112
1546, 1535.28997847, 0, 112
1547, 1535.28997847, -10, 140
1548, 1535.28997847, 0, 140
1549, 1535.28997847, 10, 0
1550, 1535.28997847, 10, 28
1551, 1535.28997847, 10, 56
1552, 1535.28997847, 10, 84
1553, 1535.28997847, 10, 112
1554, 1535.28997847, 10, 140
1555, 1535.28997847, -120, 140
1556, 1535.28997847, -92.5, 140
1557, 1535.28997847, -120, 150
1558, 1535.28997847, -92.5, 150
1559, 1535.28997847, -120, 160
1560, 1535.28997847, -92.5, 160
1561, 1535.28997847, -65, 140
1562, 1535.28997847, -65, 150
1563, 1535.28997847, -65, 160
1564, 1535.28997847, -37.5, 140
1565, 1535.28997847, -37.5, 150
1566, 1535.28997847, -37.5, 160
1567, 1535.28997847, -10, 150
1568, 1535.28997847, -10, 160
1569, 1535.28997847, 0, 150
1570, 1535.28997847, 0, 160
1571, 1535.28997847, 10, 150
1572, 1535.28997847, 10, 160
1573, 1535.28997847, 37.5, 140
1574, 1535.28997847, 37.5, 150
1575, 1535.28997847, 37.5, 160
1576, 1535.28997847, 65, 140
1577, 1535.28997847, 65, 150
1578, 1535.28997847, 65, 160
1579, 1535.28997847, 92.5, 140
1580, 1535.28997847, 92.5, 150
1581, 1535.28997847, 92.5, 160
1582, 1535.28997847, 120, 140
1583, 1535.28997847, 120, 150
1584, 1535.28997847, 120, 160
1585, 1583.51862575, -10, 0
1586, 1583.51862575, 0, 0
1587, 1583.51862575, -10, 28
1588, 1583.51862575, 0, 28
1589, 1583.51862575, -10, 56
1590, 1583.51862575, 0, 56
1591, 1583.51862575, -10, 84
1592, 1583.51862575, 0, 84
1593, 1583.51862575, -10, 112
1594, 1583.51862575, 0, 112
1595, 1583.51862575, -10, 140
1596, 1583.51862575, 0, 140
1597, 1583.51862575, 10, 0
1598, 1583.51862575, 10, 28
1599, 1583.51862575, 10, 56
1600, 1583.51862575, 10, 84
1601, 1583.51862575, 10, 112
1602, 1583.51862575, 10, 140
1603, 1583.51862575, -120, 140
1604, 1583.51862575, -92.5, 140
1605, 1583.51862575, -120, 150
1606, 1583.51862575, -92.5, 150
1607, 1583.51862575, -120, 160
1608, 1583.51862575, -92.5, 160
1609, 1583.51862575, -65, 140
1610, 1583.51862575, -65, 150
1611, 1583.51862575, -65, 160
1612, 1583.51862575, -37.5, 140
1613, 1583.51862575, -37.5, 150
1614, 1583.51862575, -37.5, 160
1615, 1583.51862575, -10, 150
1616, 1583.51862575, -10, 160
1617, 1583.51862575, 0, 150
1618, 1583.51862575, 0, 160
1619, 1583.51862575, 10, 150
1620, 1583.51862575, 10, 160
1621, 1583.51862575, 37.5, 140
1622, 1583.51862575, 37.5, 150
1623, 1583.51862575, 37.5, 160
1624, 1583.51862575, 65, 140
1625, 1583.51862575, 65, 150
1626, 1583.51862575, 65, 160
1627, 1583.51862575, 92.5, 140
1628, 1583.51862575, 92.5, 150
1629, 1583.51862575, 92.5, 160
1630, 1583.51862575, 120, 140
1631, 1583.51862575, 120, 150
1632, 1583.51862575, 120, 160
1633, 1631.63539503, -10, 0
1634, 1631.63539503, 0, 0
1635, 1631.63539503, -10, 28
1636, 1631.63539503, 0, 28
1637, 1631.63539503, -10, 56
1638, 1631.63539503, 0, 56
1639, 1631.63539503, -10, 84
1640, 1631.63539503, 0, 84
1641, 1631.63539503, -10, 112
1642, 1631.63539503, 0, 112
1643, 1631.63539503, -10, 140
1644, 1631.63539503, 0, 140
1645, 1631.63539503, 10, 0
1646, 1631.63539503, 10, 28
1647, 1631.63539503, 10, 56
1648, 1631.63539503, 10, 84
1649, 1631.63539503, 10, 112
1650, 1631.63539503, 10, 140
1651, 1631.63539503, -120, 140
1652, 1631.63539503, -92.5, 140
1653, 1631.63539503, -120, 150
1654, 1631.63539503, -92.5, 150
1655, 1631.63539503, -120, 160
1656, 1631.63539503, -92.5, 160
1657, 1631.63539503, -65, 140
1658, 1631.63539503, -65, 150
1659, 1631.63539503, -65, 160
1660, 1631.63539503, -37.5, 140
1661, 1631.63539503, -37.5, 150
1662, 1631.63539503, -37.5, 160
1663, 1631.63539503, -10, 150
1664, 1631.63539503, -10, 160
1665, 1631.63539503, 0, 150
1666, 1631.63539503, 0, 160
1667, 1631.63539503, 10, 150
1668, 1631.63539503, 10, 160
1669, 1631.63539503, 37.5, 140
1670, 1631.63539503, 37.5, 150
1671, 1631.63539503, 37.5, 160
1672, 1631.63539503, 65, 140
1673, 1631.63539503, 65, 150
1674, 1631.63539503, 65, 160
1675, 1631.63539503, 92.5, 140
1676, 1631.63539503, 92.5, 150
1677, 1631.63539503, 92.5, 160
1678, 1631.63539503, 120, 140
1679, 1631.63539503, 120, 150
1680, 1631.63539503, 120, 160
1681, 1679.64080449, -10, 0
1682, 1679.64080449, 0, 0
1683, 1679.64080449, -10, 28
1684, 1679.64080449, 0, 28
1685, 1679.64080449, -10, 56
1686, 1679.64080449, 0, 56
1687, 1679.64080449, -10, 84
1688, 1679.64080449, 0, 84
1689, 1679.64080449, -10, 112
1690, 1679.64080449, 0, 112
1691, 1679.64080449, -10, 140
1692, 1679.64080449, 0, 140
1693, 1679.64080449, 10, 0
1694, 1679.64080449, 10, 28
1695, 1679.64080449, 10, 56
1696, 1679.64080449, 10, 84
1697, 1679.64080449, 10, 112
1698, 1679.64080449, 10, 140
1699, 1679.64080449, -120, 140
1700, 1679.64080449, -92.5, 140
1701, 1679.64080449, -120, 150
1702, 1679.64080449, -92.5, 150
1703, 1679.64080449, -120, 160
1704, 1679.64080449, -92.5, 160
1705, 1679.64080449, -65, 140
1706, 1679.64080449, -65, 150
1707, 1679.64080449, -65, 160
1708, 1679.64080449, -37.5, 140
1709, 1679.64080449, -37.5, 150
1710, 1679.64080449, -37.5, 160
1711, 1679.64080449, -10, 150
1712, 1679.64080449, -10, 160
1713, 1679.64080449, 0, 150
1714, 1679.64080449, 0, 160
1715, 1679.64080449, 10, 150
1716, 1679.64080449, 10, 160
1717, 1679.64080449, 37.5, 140
1718, 1679.64080449, 37.5, 150
1719, 1679.64080449, 37.5, 160
1720, 1679.64080449, 65, 140
1721, 1679.64080449, 65, 150
1722, 1679.64080449, 65, 160
1723, 1679.64080449, 92.5, 140
1724, 1679.64080449, 92.5, 150
1725, 1679.64080449, 92.5, 160
1726, 1679.64080449, 120, 140
1727, 1679.64080449, 120, 150
1728, 1679.64080449, 120, 160
1729, 1727.53536866, -10, 0
1730, 1727.53536866, 0, 0
1731, 1727.53536866, -10, 28
1732, 1727.53536866, 0, 28
1733, 1727.53536866, -10, 56
1734, 1727.53536866, 0, 56
1735, 1727.53536866, -10, 84
1736, 1727.53536866, 0, 84
1737, 1727.53536866, -10, 112
1738, 1727.53536866, 0, 112
1739, 1727.53536866, -10, 140
1740, 1727.53536866, 0, 140
1741, 1727.53536866, 10, 0
1742, 1727.53536866, 10, 28
1743, 1727.53536866, 10, 56
1744, 1727.53536866, 10, 84
1745, 1727.53536866, 10, 112
1746, 1727.53536866, 10, 140
1747, 1727.53536866, -120, 140
1748, 1727.53536866, -92.5, 140
1749, 1727.53536866, -120, 150
1750, 1727.53536866, -92.5, 150
1751, 1727.53536866, -120, 160
1752, 1727.53536866, -92.5, 160
1753, 1727.53536866, -65, 140
1754, 1727.53536866, -65, 150
1755, 1727.53536866, -65, 160
1756, 1727.53536866, -37.5, 140
1757, 1727.53536866, -37.5, 150
1758, 1727.53536866, -37.5, 160
1759, 1727.53536866, -10, 150
1760, 1727.53536866, -10, 160
1761, 1727.53536866, 0, 150
1762, 1727.53536866, 0, 160
1763, 1727.53536866, 10, 150
1764, 1727.53536866, 10, 160
1765, 1727.53536866, 37.5, 140
1766, 1727.53536866, 37.5, 150
1767, 1727.53536866, 37.5, 160
1768, 1727.53536866, 65, 140
1769, 1727.53536866, 65, 150
1770, 1727.53536866, 65, 160
1771, 1727.53536866, 92.5, 140
1772, 1727.53536866, 92.5, 150
1773, 1727.53536866, 92.5, 160
1774, 1727.53536866, 120, 140
1775, 1727.53536866, 120, 150
1776, 1727.53536866, 120, 160
1777, 1775.31959857, -10, 0
1778, 1775.31959857, 0, 0
1779, 1775.31959857, -10, 28
1780, 1775.31959857, 0, 28
1781, 1775.31959857, -10, 56
1782, 1775.31959857, 0, 56
1783, 1775.31959857, -10, 84
1784, 1775.31959857, 0, 84
1785, 1775.31959857, -10, 112
1786, 1775.31959857, 0, 112
1787, 1775.31959857, -10, 140
1788, 1775.31959857, 0, 140
1789, 1775.31959857, 10, 0
1790, 1775.31959857, 10, 28
1791, 1775.31959857, 10, 56
1792, 1775.31959857, 10, 84
1793, 1775.31959857, 10, 112
1794, 1775.31959857, 10, 140
1795, 1775.31959857, -120, 140
1796, 1775.31959857, -92.5, 140
1797, 1775.31959857, -120, 150
1798, 1775.31959857, -92.5, 150
1799, 1775.31959857, -120, 160
1800, 1775.31959857, -92.5, 160
1801, 1775.31959857, -65, 140
1802, 1775.31959857, -65, 150
1803, 1775.31959857, -65, 160
1804, 1775.31959857, -37.5, 140
1805, 1775.31959857, -37.5, 150
1806, 1775.31959857, -37.5, 160
1807, 1775.31959857, -10, 150
1808, 1775.31959857, -10, 160
1809, 1775.31959857, 0, 150
1810, 1775.31959857, 0, 160
1811, 1775.31959857, 10, 150
1812, 1775.31959857, 10, 160
1813, 1775.31959857, 37.5, 140
1814, 1775.31959857, 37.5, 150
1815, 1775.31959857, 37.5, 160
1816, 1775.31959857, 65, 140
1817, 1775.31959857, 65, 150
1818, 1775.31959857, 65, 160
1819, 1775.31959857, 92.5, 140
1820, 1775.31959857, 92.5, 150
1821, 1775.31959857, 92.5, 160
1822, 1775.31959857, 120, 140
1823, 1775.31959857, 120, 150
1824, 1775.31959857, 120, 160
1825, 1822.99400167, -10, 0
1826, 1822.99400167, 0, 0
1827, 1822.99400167, -10, 28
1828, 1822.99400167, 0, 28
1829, 1822.99400167, -10, 56
1830, 1822.99400167, 0, 56
1831, 1822.99400167, -10, 84
1832, 1822.99400167, 0, 84
1833, 1822.99400167, -10, 112
1834, 1822.99400167, 0, 112
1835, 1822.99400167, -10, 140
1836, 1822.99400167, 0, 140
1837, 1822.99400167, 10, 0
1838, 1822.99400167, 10, 28
1839, 1822.99400167, 10, 56
1840, 1822.99400167, 10, 84
1841, 1822.99400167, 10, 112
1842, 1822.99400167, 10, 140
1843, 1822.99400167, -120, 140
1844, 1822.99400167, -92.5, 140
1845, 1822.99400167, -120, 150
1846, 1822.99400167, -92.5, 150
1847, 1822.99400167, -120, 160
1848, 1822.99400167, -92.5, 160
1849, 1822.99400167, -65, 140
1850, 1822.99400167, -65, 150
1851, 1822.99400167, -65, 160
1852, 1822.99400167, -37.5, 140
1853, 1822.99400167, -37.5, 150
1854, 1822.99400167, -37.5, 160
1855, 1822.99400167, -10, 150
1856, 1822.99400167, -10, 160
1857, 1822.99400167, 0, 150
1858, 1822.99400167, 0, 160
1859, 1822.99400167, 10, 150
1860, 1822.99400167, 10, 160
1861, 1822.99400167, 37.5, 140
1862, 1822.99400167, 37.5, 150
1863, 1822.99400167, 37.5, 160
1864, 1822.99400167, 65, 140
1865, 1822.99400167, 65, 150
1866, 1822.99400167, 65, 160
1867, 1822.99400167, 92.5, 140
1868, 1822.99400167, 92.5, 150
1869, 1822.99400167, 92.5, 160
1870, 1822.99400167, 120, 140
1871, 1822.99400167, 120, 150
1872, 1822.99400167, 120, 160
1873, 1870.55908196, -10, 0
1874, 1870.55908196, 0, 0
1875, 1870.55908196, -10, 28
1876, 1870.55908196, 0, 28
1877, 1870.55908196, -10, 56
1878, 1870.55908196, 0, 56
1879, 1870.55908196, -10, 84
1880, 1870.55908196, 0, 84
1881, 1870.55908196, -10, 112
1882, 1870.55908196, 0, 112
1883, 1870.55908196, -10, 140
1884, 1870.55908196, 0, 140
1885, 1870.55908196, 10, 0
1886, 1870.55908196, 10, 28
1887, 1870.55908196, 10, 56
1888, 1870.55908196, 10, 84
1889, 1870.55908196, 10, 112
1890, 1870.55908196, 10, 140
1891, 1870.55908196, -120, 140
1892, 1870.55908196, -92.5, 140
1893, 1870.55908196, -120, 150
1894, 1870.55908196, -92.5, 150
1895, 1870.55908196, -120, 160
1896, 1870.55908196, -92.5, 160
1897, 1870.55908196, -65, 140
1898, 1870.55908196, -65, 150
1899, 1870.55908196, -65, 160
1900, 1870.55908196, -37.5, 140
1901, 1870.55908196, -37.5, 150
1902, 1870.55908196, -37.5, 160
1903, 1870.55908196, -10, 150
1904, 1870.55908196, -10, 160
1905, 1870.55908196, 0, 150
1906, 1870.55908196, 0, 160
1907, 1870.55908196, 10, 150
1908, 1870.55908196, 10, 160
1909, 1870.55908196, 37.5, 140
1910, 1870.55908196, 37.5, 150
1911, 1870.55908196, 37.5, 160
1912, 1870.55908196, 65, 140
1913, 1870.55908196, 65, 150
1914, 1870.55908196, 65, 160
1915, 1870.55908196, 92.5, 140
1916, 1870.55908196, 92.5, 150
1917, 1870.55908196, 92.5, 160
1918, 1870.55908196, 120, 140
1919, 1870.55908196, 120, 150
1920, 1870.55908196, 120, 160
1921, 1918.01533995, -10, 0
1922, 1918.01533995, 0, 0
1923, 1918.01533995, -10, 28
1924, 1918.01533995, 0, 28
1925, 1918.01533995, -10, 56
1926, 1918.01533995, 0, 56
1927, 1918.01533995, -10, 84
1928, 1918.01533995, 0, 84
1929, 1918.01533995, -10, 112
1930, 1918.01533995, 0, 112
1931, 1918.01533995, -10, 140
1932, 1918.01533995, 0, 140
1933, 1918.01533995, 10, 0
1934, 1918.01533995, 10, 28
1935, 1918.01533995, 10, 56
1936, 1918.01533995, 10, 84
1937, 1918.01533995, 10, 112
1938, 1918.01533995, 10, 140
1939, 1918.01533995, -120, 140
1940, 1918.01533995, -92.5, 140
1941, 1918.01533995, -120, 150
1942, 1918.01533995, -92.5, 150
1943, 1918.01533995, -120, 160
1944, 1918.01533995, -92.5, 160
1945, 1918.01533995, -65, 140
1946, 1918.01533995, -65, 150
1947, 1918.01533995, -65, 160
1948, 1918.01533995, -37.5, 140
1949, 1918.01533995, -37.5, 150
1950, 1918.01533995, -37.5, 160
1951, 1918.01533995, -10, 150
1952, 1918.01533995, -10, 160
1953, 1918.01533995, 0, 150
1954, 1918.01533995, 0, 160
1955, 1918.01533995, 10, 150
1956, 1918.01533995, 10, 160
1957, 1918.01533995, 37.5, 140
1958, 1918.01533995, 37.5, 150
1959, 1918.01533995, 37.5, 160
1960, 1918.01533995, 65, 140
1961, 1918.01533995, 65, 150
1962, 1918.01533995, 65, 160
1963, 1918.01533995, 92.5, 140
1964, 1918.01533995, 92.5, 150
1965, 1918.01533995, 92.5, 160
1966, 1918.01533995, 120, 140
1967, 1918.01533995, 120, 150
1968, 1918.01533995, 120, 160
1969, 1965.36327273, -10, 0
1970, 1965.36327273, 0, 0
1971, 1965.36327273, -10, 28
1972, 1965.36327273, 0, 28
1973, 1965.36327273, -10, 56
1974, 1965.36327273, 0, 56
1975, 1965.36327273, -10, 84
1976, 1965.36327273, 0, 84
1977, 1965.36327273, -10, 112
1978, 1965.36327273, 0, 112
1979, 1965.36327273, -10, 140
1980, 1965.36327273, 0, 140
1981, 1965.36327273, 10, 0
1982, 1965.36327273, 10, 28
1983, 1965.36327273, 10, 56
1984, 1965.36327273, 10, 84
1985, 1965.36327273, 10, 112
1986, 1965.36327273, 10, 140
1987, 1965.36327273, -120, 140
1988, 1965.36327273, -92.5, 140
1989, 1965.36327273, -120, 150
1990, 1965.36327273, -92.5, 150
1991, 1965.36327273, -120, 160
1992, 1965.36327273, -92.5, 160
1993, 1965.36327273, -65, 140
1994, 1965.36327273, -65, 150
1995, 1965.36327273, -65, 160
1996, 1965.36327273, -37.5, 140
1997, 1965.36327273, -37.5, 150
1998, 1965.36327273, -37.5, 160
1999, 1965.36327273, -10, 150
2000, 1965.36327273, -10, 160
2001, 1965.36327273, 0, 150
2002, 1965.36327273, 0, 160
2003, 1965.36327273, 10, 150
2004, 1965.36327273, 10, 160
2005, 1965.36327273, 37.5, 140
2006, 1965.36327273, 37.5, 150
2007, 1965.36327273, 37.5, 160
2008, 1965.36327273, 65, 140
2009, 1965.36327273, 65, 150
2010, 1965.36327273, 65, 160
2011, 1965.36327273, 92.5, 140
2012, 1965.36327273, 92.5, 150
2013, 1965.36327273, 92.5, 160
2014, 1965.36327273, 120, 140
2015, 1965.36327273, 120, 150
2016, 1965.36327273, 120, 160
2017, 2000, -10, 0
2018, 2000, 0, 0
2019, 2000, -10, 28
2020, 2000, 0, 28
2021, 2000, -10, 56
2022, 2000, 0, 56
2023, 2000, -10, 84
2024, 2000, 0, 84
2025, 2000, -10, 112
2026, 2000, 0, 112
2027, 2000, -10, 140
2028, 2000, 0, 140
2029, 2000, 10, 0
2030, 2000, 10, 28
2031, 2000, 10, 56
2032, 2000, 10, 84
2033, 2000, 10, 112
2034, 2000, 10, 140
2035, 2000, -120, 140
2036, 2000, -92.5, 140
2037, 2000, -120, 150
2038, 2000, -92.5, 150
2039, 2000, -120, 160
2040, 2000, -92.5, 160
2041, 2000, -65, 140
2042, 2000, -65, 150
2043, 2000, -65, 160
2044, 2000, -37.5, 140
2045, 2000, -37.5, 150
2046, 2000, -37.5, 160
2047, 2000, -10, 150
2048, 2000, -10, 160
2049, 2000, 0, 150
2050, 2000, 0, 160
2051, 2000, 10, 150
2052, 2000, 10, 160
2053, 2000, 37.5, 140
2054, 2000, 37.5, 150
2055, 2000, 37.5, 160
2056, 2000, 65, 140
2057, 2000, 65, 150
2058, 2000, 65, 160
2059, 2000, 92.5, 140
2060, 2000, 92.5, 150
2061, 2000, 92.5, 160
2062, 2000, 120, 140
2063, 2000, 120, 150
2064, 2000, 120, 160
*ELEMENT, TYPE=C3D8, ELSET=EALL
1, 1, 2, 3, 4, 5, 6, 7, 8
2, 5, 6, 7, 8, 9, 10, 11, 12
3, 9, 10, 11, 12, 13, 14, 15, 16
4, 13, 14, 15, 16, 17, 18, 19, 20
5, 17, 18, 19, 20, 21, 22, 23, 24
6, 4, 3, 25, 26, 8, 7, 27, 28
7, 8, 7, 27, 28, 12, 11, 29, 30
8, 12, 11, 29, 30, 16, 15, 31, 32
9, 16, 15, 31, 32, 20, 19, 33, 34
10, 20, 19, 33, 34, 24, 23, 35, 36
11, 37, 38, 39, 40, 41, 42, 43, 44
12, 41, 42, 43, 44, 45, 46, 47, 48
13, 40, 39, 49, 50, 44, 43, 51, 52
14, 44, 43, 51, 52, 48, 47, 53, 54
15, 50, 49, 55, 56, 52, 51, 57, 58
16, 52, 51, 57, 58, 54, 53, 59, 60
17, 56, 55, 22, 21, 58, 57, 61, 62
18, 58, 57, 61, 62, 60, 59, 63, 64
19, 21, 22, 23, 24, 62, 61, 65, 66
20, 62, 61, 65, 66, 64, 63, 67, 68
21, 24, 23, 35, 36, 66, 65, 69, 70
22, 66, 65, 69, 70, 68, 67, 71, 72
23, 36, 35, 73, 74, 70, 69, 75, 76
24, 70, 69, 75, 76, 72, 71, 77, 78
25, 74, 73, 79, 80, 76, 75, 81, 82
26, 76, 75, 81, 82, 78, 77, 83, 84
27, 80, 79, 85, 86, 82, 81, 87, 88
28, 82, 81, 87, 88, 84, 83, 89, 90
29, 86, 85, 91, 92, 88, 87, 93, 94
30, 88, 87, 93, 94, 90, 89, 95, 96
31, 2, 97, 98, 3, 6, 99, 100, 7
32, 6, 99, 100, 7, 10, 101, 102, 11
33, 10, 101, 102, 11, 14, 103, 104, 15
34, 14, 103, 104, 15, 18, 105, 106, 19
35, 18, 105, 106, 19, 22, 107, 108, 23
36, 3, 98, 109, 25, 7, 100, 110, 27
37, 7, 100, 110, 27, 11, 102, 111, 29
38, 11, 102, 111, 29, 15, 104, 112, 31
39, 15, 104, 112, 31, 19, 106, 113, 33
40, 19, 106, 113, 33, 23, 108, 114, 35
41, 38, 115, 116, 39, 42, 117, 118, 43
42, 42, 117, 118, 43, 46, 119, 120, 47
43, 39, 116, 121, 49, 43, 118, 122, 51
44, 43, 118, 122, 51, 47, 120, 123, 53
45, 49, 121, 124, 55, 51, 122, 125, 57
46, 51, 122, 125, 57, 53, 123, 126, 59
47, 55, 124, 107, 22, 57, 125, 127, 61
48, 57, 125, 127, 61, 59, 126, 128, 63
49, 22, 107, 108, 23, 61, 127, 129, 65
50, 61, 127, 129, 65, 63, 128, 130, 67
51, 23, 108, 114, 35, 65, 129, 131, 69
52, 65, 129, 131, 69, 67, 130, 132, 71
53, 35, 114, 133, 73, 69, 131, 134, 75
54, 69, 131, 134, 75, 71, 132, 135, 77
55, 73, 133, 136, 79, 75, 134, 137, 81
56, 75, 134, 137, 81, 77, 135, 138, 83
57, 79, 136, 139, 85, 81, 137, 140, 87
58, 81, 137, 140, 87, 83, 138, 141, 89
59, 85, 139, 142, 91, 87, 140, 143, 93
60, 87, 140, 143, 93, 89, 141, 144, 95
61, 97, 145, 146, 98, 99, 147, 148, 100
62, 99, 147, 148, 100, 101, 149, 150, 102
63, 101, 149, 150, 102, 103, 151, 152, 104
64, 103, 151, 152, 104, 105, 153, 154, 106
65, 105, 153, 154, 106, 107, 155, 156, 108
66, 98, 146, 157, 109, 100, 148, 158, 110
67, 100, 148, 158, 110, 102, 150, 159, 111
68, 102, 150, 159, 111, 104, 152, 160, 112
69, 104, 152, 160, 112, 106, 154, 161, 113
70, 106, 154, 161, 113, 108, 156, 162, 114
71, 115, 163, 164, 116, 117, 165, 166, 118
72, 117, 165, 166, 118, 119, 167, 168, 120
73, 116, 164, 169, 121, 118, 166, 170, 122
74, 118, 166, 170, 122, 120, 168, 171, 123
75, 121, 169, 172, 124, 122, 170, 173, 125
76, 122, 170, 173, 125, 123, 171, 174, 126
77, 124, 172, 155, 107, 125, 173, 175, 127
78, 125, 173, 175, 127, 126, 174, 176, 128
79, 107, 155, 156, 108, 127, 175, 177, 129
80, 127, 175, 177, 129, 128, 176, 178, 130
81, 108, 156, 162, 114, 129, 177, 179, 131
82, 129, 177, 179, 131, 130, 178, 180, 132
83, 114, 162, 181, 133, 131, 179, 182, 134
84, 131, 179, 182, 134, 132, 180, 183, 135
85, 133, 181, 184, 136, 134, 182, 185, 137
86, 134, 182, 185, 137, 135, 183, 186, 138
87, 136, 184, 187, 139, 137, 185, 188, 140
88, 137, 185, 188, 140, 138, 186, 189, 141
89, 139, 187, 190, 142, 140, 188, 191, 143
90, 140, 188, 191, 143, 141, 189, 192, 144
91, 145, 193, 194, 146, 147, 195, 196, 148
92, 147, 195, 196, 148, 149, 197, 198, 150
93, 149, 197, 198, 150, 151, 199, 200, 152
94, 151, 199, 200, 152, 153, 201, 202, 154
95, 153, 201, 202, 154, 155, 203, 204, 156
96, 146, 194, 205, 157, 148, 196, 206, 158
97, 148, 196, 206, 158, 150, 198, 207, 159
98, 150, 198, 207, 159, 152, 200, 208, 160
99, 152, 200, 208, 160, 154, 202, 209, 161
100, 154, 202, 209, 161, 156, 204, 210, 162
101, 163, 211, 212, 164, 165, 213, 214, 166
102, 165, 213, 214, 166, 167, 215, 216, 168
103, 164, 212, 217, 169, 166, 214, 218, 170
104, 166, 214, 218, 170, 168, 216, 219, 171
105, 169, 217, 220, 172, 170, 218, 221, 173
106, 170, 218, 221, 173, 171, 219, 222, 174
107, 172, 220, 203, 155, 173, 221, 223, 175
108, 173, 221, 223, 175, 174, 222, 224, 176
109, 155, 203, 204, 156, 175, 223, 225, 177
110, 175, 223, 225, 177, 176, 224, 226, 178
111, 156, 204, 210, 162, 177, 225, 227, 179
112, 177, 225, 227, 179, 178, 226, 228, 180
113, 162, 210, 229, 181, 179, 227, 230, 182
114, 179, 227, 230, 182, 180, 228, 231, 183
115, 181, 229, 232, 184, 182, 230, 233, 185
116, 182, 230, 233, 185, 183, 231, 234, 186
117, 184, 232, 235, 187, 185, 233, 236, 188
118, 185, 233, 236, 188, 186, 234, 237, 189
119, 187, 235, 238, 190, 188, 236, 239, 191
120, 188, 236, 239, 191, 189, 237, 240, 192
121, 193, 241, 242, 194, 195, 243, 244, 196
122, 195, 243, 244, 196, 197, 245, 246, 198
123, 197, 245, 246, 198, 199, 247, 248, 200
124, 199, 247, 248, 200, 201, 249, 250, 202
125, 201, 249, 250, 202, 203, 251, 252, 204
126, 194, 242, 253, 205, 196, 244, 254, 206
127, 196, 244, 254, 206, 198, 246, 255, 207
128, 198, 246, 255, 207, 200, 248, 256, 208
129, 200, 248, 256, 208, 202, 250, 257, 209
130, 202, 250, 257, 209, 204, 252, 258, 210
131, 211, 259, 260, 212, 213, 261, 262, 214
132, 213, 261, 262, 214, 215, 263, 264, 216
133, 212, 260, 265, 217, 214, 262, 266, 218
134, 214, 262, 266, 218, 216, 264, 267, 219
135, 217, 265, 268, 220, 218, 266, 269, 221
136, 218, 266, 269, 221, 219, 267, 270, 222
137, 220, 268, 251, 203, 221, 269, 271, 223
138, 221, 269, 271, 223, 222, 270, 272, 224
139, 203, 251, 252, 204, 223, 271, 273, 225
140, 223, 271, 273, 225, 224, 272, 274, 226
141, 204, 252, 258, 210, 225, 273, 275, 227
142, 225, 273, 275, 227, 226, 274, 276, 228
143, 210, 258, 277, 229, 227, 275, 278, 230
144, 227, 275, 278, 230, 228, 276, 279, 231
145, 229, 277, 280, 232, 230, 278, 281, 233
146, 230, 278, 281, 233, 231, 279, 282, 234
147, 232, 280, 283, 235, 233, 281, 284, 236
148, 233, 281, 284, 236, 234, 282, 285, 237
149, 235, 283, 286, 238, 236, 284, 287, 239
150, 236, 284, 287, 239, 237, 285, 288, 240
151, 241, 289, 290, 242, 243, 291, 292, 244
152, 243, 291, 292, 244, 245, 293, 294, 246
153, 245, 293, 294, 246, 247, 295, 296, 248
154, 247, 295, 296, 248, 249, 297, 298, 250
155, 249, 297, 298, 250, 251, 299, 300, 252
156, 242, 290, 301, 253, 244, 292, 302, 254
157, 244, 292, 302, 254, 246, 294, 303, 255
158, 246, 294, 303, 255, 248, 296, 304, 256
159, 248, 296, 304, 256, 250, 298, 305, 257
160, 250, 298, 305, 257, 252, 300, 306, 258
161, 259, 307, 308, 260, 261, 309, 310, 262
162, 261, 309, 310, 262, 263, 311, 312, 264
163, 260, 308, 313, 265, 262, 310, 314, 266
164, 262, 310, 314, 266, 264, 312, 315, 267
165, 265, 313, 316, 268, 266, 314, 317, 269
166, 266, 314, 317, 269, 267, 315, 318, 270
167, 268, 316, 299, 251, 269, 317, 319, 271
168, 269, 317, 319, 271, 270, 318, 320, 272
169, 251, 299, 300, 252, 271, 319, 321, 273
170, 271, 319, 321, 273, 272, 320, 322, 274
171, 252, 300, 306, 258, 273, 321, 323, 275
172, 273, 321, 323, 275, 274, 322, 324, 276
173, 258, 306, 325, 277, 275, 323, 326, 278
174, 275, 323, 326, 278, 276, 324, 327, 279
175, 277, 325, 328, 280, 278, 326, 329, 281
176, 278, 326, 329, 281, 279, 327, 330, 282
177, 280, 328, 331, 283, 281, 329, 332, 284
178, 281, 329, 332, 284, 282, 330, 333, 285
179, 283, 331, 334, 286, 284, 332, 335, 287
180, 284, 332, 335, 287, 285, 333, 336, 288
181, 289, 337, 338, 290, 291, 339, 340, 292
182, 291, 339, 340, 292, 293, 341, 342, 294
183, 293, 341, 342, 294, 295, 343, 344, 296
184, 295, 343, 344, 296, 297, 345, 346, 298
185, 297, 345, 346, 298, 299, 347, 348, 300
186, 290, 338, 349, 301, 292, 340, 350, 302
187, 292, 340, 350, 302, 294, 342, 351, 303
188, 294, 342, 351, 303, 296, 344, 352, 304
189, 296, 344, 352, 304, 298, 346, 353, 305
190, 298, 346, 353, 305, 300, 348, 354, 306
191, 307, 355, 356, 308, 309, 357, 358, 310
192, 309, 357, 358, 310, 311, 359, 360, 312
193, 308, 356, 361, 313, 310, 358, 362, 314
194, 310, 358, 362, 314, 312, 360, 363, 315
195, 313, 361, 364, 316, 314, 362, 365, 317
196, 314, 362, 365, 317, 315, 363, 366, 318
197, 316, 364, 347, 299, 317, 365, 367, 319
198, 317, 365, 367, 319, 318, 366, 368, 320
199, 299, 347, 348, 300, 319, 367, 369, 321
200, 319, 367, 369, 321, 320, 368, 370, 322
201, 300, 348, 354, 306, 321, 369, 371, 323
202, 321, 369, 371, 323, 322, 370, 372, 324
203, 306, 354, 373, 325, 323, 371, 374, 326
204, 323, 371, 374, 326, 324, 372, 375, 327
205, 325, 373, 376, 328, 326, 374, 377, 329
206, 326, 374, 377, 329, 327, 375, 378, 330
207, 328, 376, 379, 331, 329, 377, 380, 332
208, 329, 377, 380, 332, 330, 378, 381, 333
209, 331, 379, 382, 334, 332, 380, 383, 335
210, 332, 380, 383, 335, 333, 381, 384, 336
211, 337, 385, 386, 338, 339, 387, 388, 340
212, 339, 387, 388, 340, 341, 389, 390, 342
213, 341, 389, 390, 342, 343, 391, 392, 344
214, 343, 391, 392, 344, 345, 393, 394, 346
215, 345, 393, 394, 346, 347, 395, 396, 348
216, 338, 386, 397, 349, 340, 388, 398, 350
217, 340, 388, 398, 350, 342, 390, 399, 351
218, 342, 390, 399, 351, 344, 392, 400, 352
219, 344, 392, 400, 352, 346, 394, 401, 353
220, 346, 394, 401, 353, 348, 396, 402, 354
221, 355, 403, 404, 356, 357, 405, 406, 358
222, 357, 405, 406, 358, 359, 407, 408, 360
223, 356, 404, 409, 361, 358, 406, 410, 362
224, 358, 406, 410, 362, 360, 408, 411, 363
225, 361, 409, 412, 364, 362, 410, 413, 365
226, 362, 410, 413, 365, 363, 411, 414, 366
227, 364, 412, 395, 347, 365, 413, 415, 367
228, 365, 413, 415, 367, 366, 414, 416, 368
229, 347, 395, 396, 348, 367, 415, 417, 369
230, 367, 415, 417, 369, 368, 416, 418, 370
231, 348, 396, 402, 354, 369, 417, 419, 371
232, 369, 417, 419, 371, 370, 418, 420, 372
233, 354, 402, 421, 373, 371, 419, 422, 374
234, 371, 419, 422, 374, 372, 420, 423, 375
235, 373, 421, 424, 376, 374, 422, 425, 377
236, 374, 422, 425, 377, 375, 423, 426, 378
237, 376, 424, 427, 379, 377, 425, 428, 380
238, 377, 425, 428, 380, 378, 426, 429, 381
239, 379, 427, 430, 382, 380, 428, 431, 383
240, 380, 428, 431, 383, 381, 429, 432, 384
241, 385, 433, 434, 386, 387, 435, 436, 388
242, 387, 435, 436, 388, 389, 437, 438, 390
243, 389, 437, 438, 390, 391, 439, 440, 392
244, 391, 439, 440, 392, 393, 441, 442, 394
245, 393, 441, 442, 394, 395, 443, 444, 396
246, 386, 434, 445, 397, 388, 436, 446, 398
247, 388, 436, 446, 398, 390, 438, 447, 399
248, 390, 438, 447, 399, 392, 440, 448, 400
249, 392, 440, 448, 400, 394, 442, 449, 401
250, 394, 442, 449, 401, 396, 444, 450, 402
251, 403, 451, 452, 404, 405, 453, 454, 406
252, 405, 453, 454, 406, 407, 455, 456, 408
253, 404, 452, 457, 409, 406, 454, 458, 410
254, 406, 454, 458, 410, 408, 456, 459, 411
255, 409, 457, 460, 412, 410, 458, 461, 413
256, 410, 458, 461, 413, 411, 459, 462, 414
257, 412, 460, 443, 395, 413, 461, 463, 415
258, 413, 461, 463, 415, 414, 462, 464, 416
259, 395, 443, 444, 396, 415, 463, 465, 417
260, 415, 463, 465, 417, 416, 464, 466, 418
261, 396, 444, 450, 402, 417, 465, 467, 419
262, 417, 465, 467, 419, 418, 466, 468, 420
263, 402, 450, 469, 421, 419, 467, 470, 422
264, 419, 467, 470, 422, 420, 468, 471, 423
265, 421, 469, 472, 424, 422, 470, 473, 425
266, 422, 470, 473, 425, 423, 471, 474, 426
267, 424, 472, 475, 427, 425, 473, 476, 428
268, 425, 473, 476, 428, 426, 474, 477, 429
269, 427, 475, 478, 430, 428, 476, 479, 431
270, 428, 476, 479, 431, 429, 477, 480, 432
271, 433, 481, 482, 434, 435, 483, 484, 436
272, 435, 483, 484, 436, 437, 485, 486, 438
273, 437, 485, 486, 438, 439, 487, 488, 440
274, 439, 487, 488, 440, 441, 489, 490, 442
275, 441, 489, 490, 442, 443, 491, 492, 444
276, 434, 482, 493, 445, 436, 484, 494, 446
277, 436, 484, 494, 446, 438, 486, 495, 447
278, 438, 486, 495, 447, 440, 488, 496, 448
279, 440, 488, 496, 448, 442, 490, 497, 449
280, 442, 490, 497, 449, 444, 492, 498, 450
281, 451, 499, 500, 452, 453, 501, 502, 454
282, 453, 501, 502, 454, 455, 503, 504, 456
283, 452, 500, 505, 457, 454, 502, 506, 458
284, 454, 502, 506, 458, 456, 504, 507, 459
285, 457, 505, 508, 460, 458, 506, 509, 461
286, 458, 506, 509, 461, 459, 507, 510, 462
287, 460, 508, 491, 443, 461, 509, 511, 463
288, 461, 509, 511, 463, 462, 510, 512, 464
289, 443, 491, 492, 444, 463, 511, 513, 465
290, 463, 511, 513, 465, 464, 512, 514, 466
291, 444, 492, 498, 450, 465, 513, 515, 467
292, 465, 513, 515, 467, 466, 514, 516, 468
293, 450, 498, 517, 469, 467, 515, 518, 470
294, 467, 515, 518, 470, 468, 516, 519, 471
295, 469, 517, 520, 472, 470, 518, 521, 473
296, 470, 518, 521, 473, 471, 519, 522, 474
297, 472, 520, 523, 475, 473, 521, 524, 476
298, 473, 521, 524, 476, 474, 522, 525, 477
299, 475, 523, 526, 478, 476, 524, 527, 479
300, 476, 524, 527, 479, 477, 525, 528, 480
301, 481, 529, 530, 482, 483, 531, 532, 484
302, 483, 531, 532, 484, 485, 533, 534, 486
303, 485, 533, 534, 486, 487, 535, 536, 488
304, 487, 535, 536, 488, 489, 537, 538, 490
305, 489, 537, 538, 490, 491, 539, 540, 492
306, 482, 530, 541, 493, 484, 532, 542, 494
307, 484, 532, 542, 494, 486, 534, 543, 495
308, 486, 534, 543, 495, 488, 536, 544, 496
309, 488, 536, 544, 496, 490, 538, 545, 497
310, 490, 538, 545, 497, 492, 540, 546, 498
311, 499, 547, 548, 500, 501, 549, 550, 502
312, 501, 549, 550, 502, 503, 551, 552, 504
313, 500, 548, 553, 505, 502, 550, 554, 506
314, 502, 550, 554, 506, 504, 552, 555, 507
315, 505, 553, 556, 508, 506, 554, 557, 509
316, 506, 554, 557, 509, 507, 555, 558, 510
317, 508, 556, 539, 491, 509, 557, 559, 511
318, 509, 557, 559, 511, 510, 558, 560, 512
319, 491, 539, 540, 492, 511, 559, 561, 513
320, 511, 559, 561, 513, 512, 560, 562, 514
321, 492, 540, 546, 498, 513, 561, 563, 515
322, 513, 561, 563, 515, 514, 562, 564, 516
323, 498, 546, 565, 517, 515, 563, 566, 518
324, 515, 563, 566, 518, 516, 564, 567, 519
325, 517, 565, 568, 520, 518, 566, 569, 521
326, 518, 566, 569, 521, 519, 567, 570, 522
327, 520, 568, 571, 523, 521, 569, 572, 524
328, 521, 569, 572, 524, 522, 570, 573, 525
329, 523, 571, 574, 526, 524, 572, 575, 527
330, 524, 572, 575, 527, 525, 573, 576, 528
331, 529, 577, 578, 530, 531, 579, 580, 532
332, 531, 579, 580, 532, 533, 581, 582, 534
333, 533, 581, 582, 534, 535, 583, 584, 536
334, 535, 583, 584, 536, 537, 585, 586, 538
335, 537, 585, 586, 538, 539, 587, 588, 540
336, 530, 578, 589, 541, 532, 580, 590, 542
337, 532, 580, 590, 542, 534, 582, 591, 543
338, 534, 582, 591, 543, 536, 584, 592, 544
339, 536, 584, 592, 544, 538, 586, 593, 545
340, 538, 586, 593, 545, 540, 588, 594, 546
341, 547, 595, 596, 548, 549, 597, 598, 550
342, 549, 597, 598, 550, 551, 599, 600, 552
343, 548, 596, 601, 553, 550, 598, 602, 554
344, 550, 598, 602, 554, 552, 600, 603, 555
345, 553, 601, 604, 556, 554, 602, 605, 557
346, 554, 602, 605, 557, 555, 603, 606, 558
347, 556, 604, 587, 539, 557, 605, 607, 559
348, 557, 605, 607, 559, 558, 606, 608, 560
349, 539, 587, 588, 540, 559, 607, 609, 561
350, 559, 607, 609, 561, 560, 608, 610, 562
351, 540, 588, 594, 546, 561, 609, 611, 563
352, 561, 609, 611, 563, 562, 610, 612, 564
353, 546, 594, 613, 565, 563, 611, 614, 566
354, 563, 611, 614, 566, 564, 612, 615, 567
355, 565, 613, 616, 568, 566, 614, 617, 569
356, 566, 614, 617, 569, 567, 615, 618, 570
357, 568, 616, 619, 571, 569, 617, 620, 572
358, 569, 617, 620, 572, 570, 618, 621, 573
359, 571, 619, 622, 574, 572, 620, 623, 575
360, 572, 620, 623, 575, 573, 621, 624, 576
361, 577, 625, 626, 578, 579, 627, 628, 580
362, 579, 627, 628, 580, 581, 629, 630, 582
363, 581, 629, 630, 582, 583, 631, 632, 584
364, 583, 631, 632, 584, 585, 633, 634, 586
365, 585, 633, 634, 586, 587, 635, 636, 588
366, 578, 626, 637, 589, 580, 628, 638, 590
367, 580, 628, 638, 590, 582, 630, 639, 591
368, 582, 630, 639, 591, 584, 632, 640, 592
369, 584, 632, 640, 592, 586, 634, 641, 593
370, 586, 634, 641, 593, 588, 636, 642, 594
371, 595, 643, 644, 596, 597, 645, 646, 598
372, 597, 645, 646, 598, 599, 647, 648, 600
373, 596, 644, 649, 601, 598, 646, 650, 602
374, 598, 646, 650, 602, 600, 648, 651, 603
375, 601, 649, 652, 604, 602, 650, 653, 605
376, 602, 650, 653, 605, 603, 651, 654, 606
377, 604, 652, 635, 587, 605, 653, 655, 607
378, 605, 653, 655, 607, 606, 654, 656, 608
379, 587, 635, 636, 588, 607, 655, 657, 609
380, 607, 655, 657, 609, 608, 656, 658, 610
381, 588, 636, 642, 594, 609, 657, 659, 611
382, 609, 657, 659, 611, 610, 658, 660, 612
383, 594, 642, 661, 613, 611, 659, 662, 614
384, 611, 659, 662, 614, 612, 660, 663, 615
385, 613, 661, 664, 616, 614, 662, 665, 617
386, 614, 662, 665, 617, 615, 663, 666, 618
387, 616, 664, 667, 619, 617, 665, 668, 620
388, 617, 665, 668, 620, 618, 666, 669, 621
389, 619, 667, 670, 622, 620, 668, 671, 623
390, 620, 668, 671, 623, 621, 669, 672, 624
391, 625, 673, 674, 626, 627, 675, 676, 628
392, 627, 675, 676, 628, 629, 677, 678, 630
393, 629, 677, 678, 630, 631, 679, 680, 632
394, 631, 679, 680, 632, 633, 681, 682, 634
395, 633, 681, 682, 634, 635, 683, 684, 636
396, 626, 674, 685, 637, 628, 676, 686, 638
397, 628, 676, 686, 638, 630, 678, 687, 639
398, 630, 678, 687, 639, 632, 680, 688, 640
399, 632, 680, 688, 640, 634, 682, 689, 641
400, 634, 682, 689, 641, 636, 684, 690, 642
401, 643, 691, 692, 644, 645, 693, 694, 646
402, 645, 693, 694, 646, 647, 695, 696, 648
403, 644, 692, 697, 649, 646, 694, 698, 650
404, 646, 694, 698, 650, 648, 696, 699, 651
405, 649, 697, 700, 652, 650, 698, 701, 653
406, 650, 698, 701, 653, 651, 699, 702, 654
407, 652, 700, 683, 635, 653, 701, 703, 655
408, 653, 701, 703, 655, 654, 702, 704, 656
409, 635, 683, 684, 636, 655, 703, 705, 657
410, 655, 703, 705, 657, 656, 704, 706, 658
411, 636, 684, 690, 642, 657, 705, 707, 659
412, 657, 705, 707, 659, 658, 706, 708, 660
413, 642, 690, 709, 661, 659, 707, 710, 662
414, 659, 707, 710, 662, 660, 708, 711, 663
415, 661, 709, 712, 664, 662, 710, 713, 665
416, 662, 710, 713, 665, 663, 711, 714, 666
417, 664, 712, 715, 667, 665, 713, 716, 668
418, 665, 713, 716, 668, 666, 714, 717, 669
419, 667, 715, 718, 670, 668, 716, 719, 671
420, 668, 716, 719, 671, 669, 717, 720, 672
421, 673, 721, 722, 674, 675, 723, 724, 676
422, 675, 723, 724, 676, 677, 725, 726, 678
423, 677, 725, 726, 678, 679, 727, 728, 680
424, 679, 727, 728, 680, 681, 729, 730, 682
425, 681, 729, 730, 682, 683, 731, 732, 684
426, 674, 722, 733, 685, 676, 724, 734, 686
427, 676, 724, 734, 686, 678, 726, 735, 687
428, 678, 726, 735, 687, 680, 728, 736, 688
429, 680, 728, 736, 688, 682, 730, 737, 689
430, 682, 730, 737, 689, 684, 732, 738, 690
431, 691, 739, 740, 692, 693, 741, 742, 694
432, 693, 741, 742, 694, 695, 743, 744, 696
433, 692, 740, 745, 697, 694, 742, 746, 698
434, 694, 742, 746, 698, 696, 744, 747, 699
435, 697, 745, 748, 700, 698, 746, 749, 701
436, 698, 746, 749, 701, 699, 747, 750, 702
437, 700, 748, 731, 683, 701, 749, 751, 703
438, 701, 749, 751, 703, 702, 750, 752, 704
439, 683, 731, 732, 684, 703, 751, 753, 705
440, 703, 751, 753, 705, 704, 752, 754, 706
441, 684, 732, 738, 690, 705, 753, 755, 707
442, 705, 753, 755, 707, 706, 754, 756, 708
443, 690, 738, 757, 709, 707, 755, 758, 710
444, 707, 755, 758, 710, 708, 756, 759, 711
445, 709, 757, 760, 712, 710, 758, 761, 713
446, 710, 758, 761, 713, 711, 759, 762, 714
447, 712, 760, 763, 715, 713, 761, 764, 716
448, 713, 761, 764, 716, 714, 762, 765, 717
449, 715, 763, 766, 718, 716, 764, 767, 719
450, 716, 764, 767, 719, 717, 765, 768, 720
451, 721, 769, 770, 722, 723, 771, 772, 724
452, 723, 771, 772, 724, 725, 773, 774, 726
453, 725, 773, 774, 726, 727, 775, 776, 728
454, 727, 775, 776, 728, 729, 777, 778, 730
455, 729, 777, 778, 730, 731, 779, 780, 732
456, 722, 770, 781, 733, 724, 772, 782, 734
457, 724, 772, 782, 734, 726, 774, 783, 735
458, 726, 774, 783, 735, 728, 776, 784, 736
459, 728, 776, 784, 736, 730, 778, 785, 737
460, 730, 778, 785, 737, 732, 780, 786, 738
461, 739, 787, 788, 740, 741, 789, 790, 742
462, 741, 789, 790, 742, 743, 791, 792, 744
463, 740, 788, 793, 745, 742, 790, 794, 746
464, 742, 790, 794, 746, 744, 792, 795, 747
465, 745, 793, 796, 748, 746, 794, 797, 749
466, 746, 794, 797, 749, 747, 795, 798, 750
467, 748, 796, 779, 731, 749, 797, 799, 751
468, 749, 797, 799, 751, 750, 798, 800, 752
469, 731, 779, 780, 732, 751, 799, 801, 753
470, 751, 799, 801, 753, 752, 800, 802, 754
471, 732, 780, 786, 738, 753, 801, 803, 755
472, 753, 801, 803, 755, 754, 802, 804, 756
473, 738, 786, 805, 757, 755, 803, 806, 758
474, 755, 803, 806, 758, 756, 804, 807, 759
475, 757, 805, 808, 760, 758, 806, 809, 761
476, 758, 806, 809, 761, 759, 807, 810, 762
477, 760, 808, 811, 763, 761, 809, 812, 764
478, 761, 809, 812, 764, 762, 810, 813, 765
479, 763, 811, 814, 766, 764, 812, 815, 767
480, 764, 812, 815, 767, 765, 813, 816, 768
481, 769, 817, 818, 770, 771, 819, 820, 772
482, 771, 819, 820, 772, 773, 821, 822, 774
483, 773, 821, 822, 774, 775, 823, 824, 776
484, 775, 823, 824, 776, 777, 825, 826, 778
485, 777, 825, 826, 778, 779, 827, 828, 780
486, 770, 818, 829, 781, 772, 820, 830, 782
487, 772, 820, 830, 782, 774, 822, 831, 783
488, 774, 822, 831, 783, 776, 824, 832, 784
489, 776, 824, 832, 784, 778, 826, 833, 785
490, 778, 826, 833, 785, 780, 828, 834, 786
491, 787, 835, 836, 788, 789, 837, 838, 790
492, 789, 837, 838, 790, 791, 839, 840, 792
493, 788, 836, 841, 793, 790, 838, 842, 794
494, 790, 838, 842, 794, 792, 840, 843, 795
495, 793, 841, 844, 796, 794, 842, 845, 797
496, 794, 842, 845, 797, 795, 843, 846, 798
497, 796, 844, 827, 779, 797, 845, 847, 799
498, 797, 845, 847, 799, 798, 846, 848, 800
499, 779, 827, 828, 780, 799, 847, 849, 801
500, 799, 847, 849, 801, 800, 848, 850, 802
501, 780, 828, 834, 786, 801, 849, 851, 803
502, 801, 849, 851, 803, 802, 850, 852, 804
503, 786, 834, 853, 805, 803, 851, 854, 806
504, 803, 851, 854, 806, 804, 852, 855, 807
505, 805, 853, 856, 808, 806, 854, 857, 809
506, 806, 854, 857, 809, 807, 855, 858, 810
507, 808, 856, 859, 811, 809, 857, 860, 812
508, 809, 857, 860, 812, 810, 858, 861, 813
509, 811, 859, 862, 814, 812, 860, 863, 815
510, 812, 860, 863, 815, 813, 861, 864, 816
511, 817, 865, 866, 818, 819, 867, 868, 820
512, 819, 867, 868, 820, 821, 869, 870, 822
513, 821, 869, 870, 822, 823, 871, 872, 824
514, 823, 871, 872, 824, 825, 873, 874, 826
515, 825, 873, 874, 826, 827, 875, 876, 828
516, 818, 866, 877, 829, 820, 868, 878, 830
517, 820, 868, 878, 830, 822, 870, 879, 831
518, 822, 870, 879, 831, 824, 872, 880, 832
519, 824, 872, 880, 832, 826, 874, 881, 833
520, 826, 874, 881, 833, 828, 876, 882, 834
521, 835, 883, 884, 836, 837, 885, 886, 838
522, 837, 885, 886, 838, 839, 887, 888, 840
523, 836, 884, 889, 841, 838, 886, 890, 842
524, 838, 886, 890, 842, 840, 888, 891, 843
525, 841, 889, 892, 844, 842, 890, 893, 845
526, 842, 890, 893, 845, 843, 891, 894, 846
527, 844, 892, 875, 827, 845, 893, 895, 847
528, 845, 893, 895, 847, 846, 894, 896, 848
529, 827, 875, 876, 828, 847, 895, 897, 849
530, 847, 895, 897, 849, 848, 896, 898, 850
531, 828, 876, 882, 834, 849, 897, 899, 851
532, 849, 897, 899, 851, 850, 898, 900, 852
533, 834, 882, 901, 853, 851, 899, 902, 854
534, 851, 899, 902, 854, 852, 900, 903, 855
535, 853, 901, 904, 856, 854, 902, 905, 857
536, 854, 902, 905, 857, 855, 903, 906, 858
537, 856, 904, 907, 859, 857, 905, 908, 860
538, 857, 905, 908, 860, 858, 906, 909, 861
539, 859, 907, 910, 862, 860, 908, 911, 863
540, 860, 908, 911, 863, 861, 909, 912, 864
541, 865, 913, 914, 866, 867, 915, 916, 868
542, 867, 915, 916, 868, 869, 917, 918, 870
543, 869, 917, 918, 870, 871, 919, 920, 872
544, 871, 919, 920, 872, 873, 921, 922, 874
545, 873, 921, 922, 874, 875, 923, 924, 876
546, 866, 914, 925, 877, 868, 916, 926, 878
547, 868, 916, 926, 878, 870, 918, 927, 879
548, 870, 918, 927, 879, 872, 920, 928, 880
549, 872, 920, 928, 880, 874, 922, 929, 881
550, 874, 922, 929, 881, 876, 924, 930, 882
551, 883, 931, 932, 884, 885, 933, 934, 886
552, 885, 933, 934, 886, 887, 935, 936, 888
553, 884, 932, 937, 889, 886, 934, 938, 890
554, 886, 934, 938, 890, 888, 936, 939, 891
555, 889, 937, 940, 892, 890, 938, 941, 893
556, 890, 938, 941, 893, 891, 939, 942, 894
557, 892, 940, 923, 875, 893, 941, 943, 895
558, 893, 941, 943, 895, 894, 942, 944, 896
559, 875, 923, 924, 876, 895, 943, 945, 897
560, 895, 943, 945, 897, 896, 944, 946, 898
561, 876, 924, 930, 882, 897, 945, 947, 899
562, 897, 945, 947, 899, 898, 946, 948, 900
563, 882, 930, 949, 901, 899, 947, 950, 902
564, 899, 947, 950, 902, 900, 948, 951, 903
565, 901, 949, 952, 904, 902, 950, 953, 905
566, 902, 950, 953, 905, 903, 951, 954, 906
567, 904, 952, 955, 907, 905, 953, 956, 908
568, 905, 953, 956, 908, 906, 954, 957, 909
569, 907, 955, 958, 910, 908, 956, 959, 911
570, 908, 956, 959, 911, 909, 957, 960, 912
571, 913, 961, 962, 914, 915, 963, 964, 916
572, 915, 963, 964, 916, 917, 965, 966, 918
573, 917, 965, 966, 918, 919, 967, 968, 920
574, 919, 967, 968, 920, 921, 969, 970, 922
575, 921, 969, 970, 922, 923, 971, 972, 924
576, 914, 962, 973, 925, 916, 964, 974, 926
577, 916, 964, 974, 926, 918, 966, 975, 927
578, 918, 966, 975, 927, 920, 968, 976, 928
579, 920, 968, 976, 928, 922, 970, 977, 929
580, 922, 970, 977, 929, 924, 972, 978, 930
581, 931, 979, 980, 932, 933, 981, 982, 934
582, 933, 981, 982, 934, 935, 983, 984, 936
583, 932, 980, 985, 937, 934, 982, 986, 938
584, 934, 982, 986, 938, 936, 984, 987, 939
585, 937, 985, 988, 940, 938, 986, 989, 941
586, 938, 986, 989, 941, 939, 987, 990, 942
587, 940, 988, 971, 923, 941, 989, 991, 943
588, 941, 989, 991, 943, 942, 990, 992, 944
589, 923, 971, 972, 924, 943, 991, 993, 945
590, 943, 991, 993, 945, 944, 992, 994, 946
591, 924, 972, 978, 930, 945, 993, 995, 947
592, 945, 993, 995, 947, 946, 994, 996, 948
593, 930, 978, 997, 949, 947, 995, 998, 950
594, 947, 995, 998, 950, 948, 996, 999, 951
595, 949, 997, 1000, 952, 950, 998, 1001, 953
596, 950, 998, 1001, 953, 951, 999, 1002, 954
597, 952, 1000, 1003, 955, 953, 1001, 1004, 956
598, 953, 1001, 1004, 956, 954, 1002, 1005, 957
599, 955, 1003, 1006, 958, 956, 1004, 1007, 959
600, 956, 1004, 1007, 959, 957, 1005, 1008, 960
601, 961, 1009, 1010, 962, 963, 1011, 1012, 964
602, 963, 1011, 1012, 964, 965, 1013, 1014, 966
603, 965, 1013, 1014, 966, 967, 1015, 1016, 968
604, 967, 1015, 1016, 968, 969, 1017, 1018, 970
605, 969, 1017, 1018, 970, 971, 1019, 1020, 972
606, 962, 1010, 1021, 973, 964, 1012, 1022, 974
607, 964, 1012, 1022, 974, 966, 1014, 1023, 975
608, 966, 1014, 1023, 975, 968, 1016, 1024, 976
609, 968, 1016, 1024, 976, 970, 1018, 1025, 977
610, 970, 1018, 1025, 977, 972, 1020, 1026, 978
611, 979, 1027, 1028, 980, 981, 1029, 1030, 982
612, 981, 1029, 1030, 982, 983, 1031, 1032, 984
613, 980, 1028, 1033, 985, 982, 1030, 1034, 986
614, 982, 1030, 1034, 986, 984, 1032, 1035, 987
615, 985, 1033, 1036, 988, 986, 1034, 1037, 989
616, 986, 1034, 1037, 989, 987, 1035, 1038, 990
617, 988, 1036, 1019, 971, 989, 1037, 1039, 991
618, 989, 1037, 1039, 991, 990, 1038, 1040, 992
619, 971, 1019, 1020, 972, 991, 1039, 1041, 993
620, 991, 1039, 1041, 993, 992, 1040, 1042, 994
621, 972, 1020, 1026, 978, 993, 1041, 1043, 995
622, 993, 1041, 1043, 995, 994, 1042, 1044, 996
623, 978, 1026, 1045, 997, 995, 1043, 1046, 998
624, 995, 1043, 1046, 998, 996, 1044, 1047, 999
625, 997, 1045, 1048, 1000, 998, 1046, 1049, 1001
626, 998, 1046, 1049, 1001, 999, 1047, 1050, 1002
627, 1000, 1048, 1051, 1003, 1001, 1049, 1052, 1004
628, 1001, 1049, 1052, 1004, 1002, 1050, 1053, 1005
629, 1003, 1051, 1054, 1006, 1004, 1052, 1055, 1007
630, 1004, 1052, 1055, 1007, 1005, 1053, 1056, 1008
631, 1009, 1057, 1058, 1010, 1011, 1059, 1060, 1012
632, 1011, 1059, 1060, 1012, 1013, 1061, 1062, 1014
633, 1013, 1061, 1062, 1014, 1015, 1063, 1064, 1016
634, 1015, 1063, 1064, 1016, 1017, 1065, 1066, 1018
635, 1017, 1065, 1066, 1018, 1019, 1067, 1068, 1020
636, 1010, 1058, 1069, 1021, 1012, 1060, 1070, 1022
637, 1012, 1060, 1070, 1022, 1014, 1062, 1071, 1023
638, 1014, 1062, 1071, 1023, 1016, 1064, 1072, 1024
639, 1016, 1064, 1072, 1024, 1018, 1066, 1073, 1025
640, 1018, 1066, 1073, 1025, 1020, 1068, 1074, 1026
641, 1027, 1075, 1076, 1028, 1029, 1077, 1078, 1030
642, 1029, 1077, 1078, 1030, 1031, 1079, 1080, 1032
643, 1028, 1076, 1081, 1033, 1030, 1078, 1082, 1034
644, 1030, 1078, 1082, 1034, 1032, 1080, 1083, 1035
645, 1033, 1081, 1084, 1036, 1034, 1082, 1085, 1037
646, 1034, 1082, 1085, 1037, 1035, 1083, 1086, 1038
647, 1036, 1084, 1067, 1019, 1037, 1085, 1087, 1039
648, 1037, 1085, 1087, 1039, 1038, 1086, 1088, 1040
649, 1019, 1067, 1068, 1020, 1039, 1087, 1089, 1041
650, 1039, 1087, 1089, 1041, 1040, 1088, 1090, 1042
651, 1020, 1068, 1074, 1026, 1041, 1089, 1091, 1043
652, 1041, 1089, 1091, 1043, 1042, 1090, 1092, 1044
653, 1026, 1074, 1093, 1045, 1043, 1091, 1094, 1046
654, 1043, 1091, 1094, 1046, 1044, 1092, 1095, 1047
655, 1045, 1093, 1096, 1048, 1046, 1094, 1097, 1049
656, 1046, 1094, 1097, 1049, 1047, 1095, 1098, 1050
657, 1048, 1096, 1099, 1051, 1049, 1097, 1100, 1052
658, 1049, 1097, 1100, 1052, 1050, 1098, 1101, 1053
659, 1051, 1099, 1102, 1054, 1052, 1100, 1103, 1055
660, 1052, 1100, 1103, 1055, 1053, 1101, 1104, 1056
661, 1057, 1105, 1106, 1058, 1059, 1107, 1108, 1060
662, 1059, 1107, 1108, 1060, 1061, 1109, 1110, 1062
663, 1061, 1109, 1110, 1062, 1063, 1111, 1112, 1064
664, 1063, 1111, 1112, 1064, 1065, 1113, 1114, 1066
665, 1065, 1113, 1114, 1066, 1067, 1115, 1116, 1068
666, 1058, 1106, 1117, 1069, 1060, 1108, 1118, 1070
667, 1060, 1108, 1118, 1070, 1062, 1110, 1119, 1071
668, 1062, 1110, 1119, 1071, 1064, 1112, 1120, 1072
669, 1064, 1112, 1120, 1072, 1066, 1114, 1121, 1073
670, 1066, 1114, 1121, 1073, 1068, 1116, 1122, 1074
671, 1075, 1123, 1124, 1076, 1077, 1125, 1126, 1078
672, 1077, 1125, 1126, 1078, 1079, 1127, 1128, 1080
673, 1076, 1124, 1129, 1081, 1078, 1126, 1130, 1082
674, 1078, 1126, 1130, 1082, 1080, 1128, 1131, 1083
675, 1081, 1129, 1132, 1084, 1082, 1130, 1133, 1085
676, 1082, 1130, 1133, 1085, 1083, 1131, 1134, 1086
677, 1084, 1132, 1115, 1067, 1085, 1133, 1135, 1087
678, 1085, 1133, 1135, 1087, 1086, 1134, 1136, 1088
679, 1067, 1115, 1116, 1068, 1087, 1135, 1137, 1089
680, 1087, 1135, 1137, 1089, 1088, 1136, 1138, 1090
681, 1068, 1116, 1122, 1074, 1089, 1137, 1139, 1091
682, 1089, 1137, 1139, 1091, 1090, 1138, 1140, 1092
683, 1074, 1122, 1141, 1093, 1091, 1139, 1142, 1094
684, 1091, 1139, 1142, 1094, 1092, 1140, 1143, 1095
685, 1093, 1141, 1144, 1096, 1094, 1142, 1145, 1097
686, 1094, 1142, 1145, 1097, 1095, 1143, 1146, 1098
687, 1096, 1144, 1147, 1099, 1097, 1145, 1148, 1100
688, 1097, 1145, 1148, 1100, 1098, 1146, 1149, 1101
689, 1099, 1147, 1150, 1102, 1100, 1148, 1151, 1103
690, 1100, 1148, 1151, 1103, 1101, 1149, 1152, 1104
691, 1105, 1153, 1154, 1106, 1107, 1155, 1156, 1108
692, 1107, 1155, 1156, 1108, 1109, 1157, 1158, 1110
693, 1109, 1157, 1158, 1110, 1111, 1159, 1160, 1112
694, 1111, 1159, 1160, 1112, 1113, 1161, 1162, 1114
695, 1113, 1161, 1162, 1114, 1115, 1163, 1164, 1116
696, 1106, 1154, 1165, 1117, 1108, 1156, 1166, 1118
697, 1108, 1156, 1166, 1118, 1110, 1158, 1167, 1119
698, 1110, 1158, 1167, 1119, 1112, 1160, 1168, 1120
699, 1112, 1160, 1168, 1120, 1114, 1162, 1169, 1121
700, 1114, 1162, 1169, 1121, 1116, 1164, 1170, 1122
701, 1123, 1171, 1172, 1124, 1125, 1173, 1174, 1126
702, 1125, 1173, 1174, 1126, 1127, 1175, 1176, 1128
703, 1124, 1172, 1177, 1129, 1126, 1174, 1178, 1130
704, 1126, 1174, 1178, 1130, 1128, 1176, 1179, 1131
705, 1129, 1177, 1180, 1132, 1130, 1178, 1181, 1133
706, 1130, 1178, 1181, 1133, 1131, 1179, 1182, 1134
707, 1132, 1180, 1163, 1115, 1133, 1181, 1183, 1135
708, 1133, 1181, 1183, 1135, 1134, 1182, 1184, 1136
709, 1115, 1163, 1164, 1116, 1135, 1183, 1185, 1137
710, 1135, 1183, 1185, 1137, 1136, 1184, 1186, 1138
711, 1116, 1164, 1170, 1122, 1137, 1185, 1187, 1139
712, 1137, 1185, 1187, 1139, 1138, 1186, 1188, 1140
713, 1122, 1170, 1189, 1141, 1139, 1187, 1190, 1142
714, 1139, 1187, 1190, 1142, 1140, 1188, 1191, 1143
715, 1141, 1189, 1192, 1144, 1142, 1190, 1193, 1145
716, 1142, 1190, 1193, 1145, 1143, 1191, 1194, 1146
717, 1144, 1192, 1195, 1147, 1145, 1193, 1196, 1148
718, 1145, 1193, 1196, 1148, 1146, 1194, 1197, 1149
719, 1147, 1195, 1198, 1150, 1148, 1196, 1199, 1151
720, 1148, 1196, 1199, 1151, 1149, 1197, 1200, 1152
721, 1153, 1201, 1202, 1154, 1155, 1203, 1204, 1156
722, 1155, 1203, 1204, 1156, 1157, 1205, 1206, 1158
723, 1157, 1205, 1206, 1158, 1159, 1207, 1208, 1160
724, 1159, 1207, 1208, 1160, 1161, 1209, 1210, 1162
725, 1161, 1209, 1210, 1162, 1163, 1211, 1212, 1164
726, 1154, 1202, 1213, 1165, 1156, 1204, 1214, 1166
727, 1156, 1204, 1214, 1166, 1158, 1206, 1215, 1167
728, 1158, 1206, 1215, 1167, 1160, 1208, 1216, 1168
729, 1160, 1208, 1216, 1168, 1162, 1210, 1217, 1169
730, 1162, 1210, 1217, 1169, 1164, 1212, 1218, 1170
731, 1171, 1219, 1220, 1172, 1173, 1221, 1222, 1174
732, 1173, 1221, 1222, 1174, 1175, 1223, 1224, 1176
733, 1172, 1220, 1225, 1177, 1174, 1222, 1226, 1178
734, 1174, 1222, 1226, 1178, 1176, 1224, 1227, 1179
735, 1177, 1225, 1228, 1180, 1178, 1226, 1229, 1181
736, 1178, 1226, 1229, 1181, 1179, 1227, 1230, 1182
737, 1180, 1228, 1211, 1163, 1181, 1229, 1231, 1183
738, 1181, 1229, 1231, 1183, 1182, 1230, 1232, 1184
739, 1163, 1211, 1212, 1164, 1183, 1231, 1233, 1185
740, 1183, 1231, 1233, 1185, 1184, 1232, 1234, 1186
741, 1164, 1212, 1218, 1170, 1185, 1233, 1235, 1187
742, 1185, 1233, 1235, 1187, 1186, 1234, 1236, 1188
743, 1170, 1218, 1237, 1189, 1187, 1235, 1238, 1190
744, 1187, 1235, 1238, 1190, 1188, 1236, 1239, 1191
745, 1189, 1237, 1240, 1192, 1190, 1238, 1241, 1193
746, 1190, 1238, 1241, 1193, 1191, 1239, 1242, 1194
747, 1192, 1240, 1243, 1195, 1193, 1241, 1244, 1196
748, 1193, 1241, 1244, 1196, 1194, 1242, 1245, 1197
749, 1195, 1243, 1246, 1198, 1196, 1244, 1247, 1199
750, 1196, 1244, 1247, 1199, 1197, 1245, 1248, 1200
751, 1201, 1249, 1250, 1202, 1203, 1251, 1252, 1204
752, 1203, 1251, 1252, 1204, 1205, 1253, 1254, 1206
753, 1205, 1253, 1254, 1206, 1207, 1255, 1256, 1208
754, 1207, 1255, 1256, 1208, 1209, 1257, 1258, 1210
755, 1209, 1257, 1258, 1210, 1211, 1259, 1260, 1212
756, 1202, 1250, 1261, 1213, 1204, 1252, 1262, 1214
757, 1204, 1252, 1262, 1214, 1206, 1254, 1263, 1215
758, 1206, 1254, 1263, 1215, 1208, 1256, 1264, 1216
759, 1208, 1256, 1264, 1216, 1210, 1258, 1265, 1217
760, 1210, 1258, 1265, 1217, 1212, 1260, 1266, 1218
761, 1219, 1267, 1268, 1220, 1221, 1269, 1270, 1222
762, 1221, 1269, 1270, 1222, 1223, 1271, 1272, 1224
763, 1220, 1268, 1273, 1225, 1222, 1270, 1274, 1226
764, 1222, 1270, 1274, 1226, 1224, 1272, 1275, 1227
765, 1225, 1273, 1276, 1228, 1226, 1274, 1277, 1229
766, 1226, 1274, 1277, 1229, 1227, 1275, 1278, 1230
767, 1228, 1276, 1259, 1211, 1229, 1277, 1279, 1231
768, 1229, 1277, 1279, 1231, 1230, 1278, 1280, 1232
769, 1211, 1259, 1260, 1212, 1231, 1279, 1281, 1233
770, 1231, 1279, 1281, 1233, 1232, 1280, 1282, 1234
771, 1212, 1260, 1266, 1218, 1233, 1281, 1283, 1235
772, 1233, 1281, 1283, 1235, 1234, 1282, 1284, 1236
773, 1218, 1266, 1285, 1237, 1235, 1283, 1286, 1238
774, 1235, 1283, 1286, 1238, 1236, 1284, 1287, 1239
775, 1237, 1285, 1288, 1240, 1238, 1286, 1289, 1241
776, 1238, 1286, 1289, 1241, 1239, 1287, 1290, 1242
777, 1240, 1288, 1291, 1243, 1241, 1289, 1292, 1244
778, 1241, 1289, 1292, 1244, 1242, 1290, 1293, 1245
779, 1243, 1291, 1294, 1246, 1244, 1292, 1295, 1247
780, 1244, 1292, 1295, 1247, 1245, 1293, 1296, 1248
781, 1249, 1297, 1298, 1250, 1251, 1299, 1300, 1252
782, 1251, 1299, 1300, 1252, 1253, 1301, 1302, 1254
783, 1253, 1301, 1302, 1254, 1255, 1303, 1304, 1256
784, 1255, 1303, 1304, 1256, 1257, 1305, 1306, 1258
785, 1257, 1305, 1306, 1258, 1259, 1307, 1308, 1260
786, 1250, 1298, 1309, 1261, 1252, 1300, 1310, 1262
787, 1252, 1300, 1310, 1262, 1254, 1302, 1311, 1263
788, 1254, 1302, 1311, 1263, 1256, 1304, 1312, 1264
789, 1256, 1304, 1312, 1264, 1258, 1306, 1313, 1265
790, 1258, 1306, 1313, 1265, 1260, 1308, 1314, 1266
791, 1267, 1315, 1316, 1268, 1269, 1317, 1318, 1270
792, 1269, 1317, 1318, 1270, 1271, 1319, 1320, 1272
793, 1268, 1316, 1321, 1273, 1270, 1318, 1322, 1274
794, 1270, 1318, 1322, 1274, 1272, 1320, 1323, 1275
795, 1273, 1321, 1324, 1276, 1274, 1322, 1325, 1277
796, 1274, 1322, 1325, 1277, 1275, 1323, 1326, 1278
797, 1276, 1324, 1307, 1259, 1277, 1325, 1327, 1279
798, 1277, 1325, 1327, 1279, 1278, 1326, 1328, 1280
799, 1259, 1307, 1308, 1260, 1279, 1327, 1329, 1281
800, 1279, 1327, 1329, 1281, 1280, 1328, 1330, 1282
801, 1260, 1308, 1314, 1266, 1281, 1329, 1331, 1283
802, 1281, 1329, 1331, 1283, 1282, 1330, 1332, 1284
803, 1266, 1314, 1333, 1285, 1283, 1331, 1334, 1286
804, 1283, 1331, 1334, 1286, 1284, 1332, 1335, 1287
805, 1285, 1333, 1336, 1288, 1286, 1334, 1337, 1289
806, 1286, 1334, 1337, 1289, 1287, 1335, 1338, 1290
807, 1288, 1336, 1339, 1291, 1289, 1337, 1340, 1292
808, 1289, 1337, 1340, 1292, 1290, 1338, 1341, 1293
809, 1291, 1339, 1342, 1294, 1292, 1340, 1343, 1295
810, 1292, 1340, 1343, 1295, 1293, 1341, 1344, 1296
811, 1297, 1345, 1346, 1298, 1299, 1347, 1348, 1300
812, 1299, 1347, 1348, 1300, 1301, 1349, 1350, 1302
813, 1301, 1349, 1350, 1302, 1303, 1351, 1352, 1304
814, 1303, 1351, 1352, 1304, 1305, 1353, 1354, 1306
815, 1305, 1353, 1354, 1306, 1307, 1355, 1356, 1308
816, 1298, 1346, 1357, 1309, 1300, 1348, 1358, 1310
817, 1300, 1348, 1358, 1310, 1302, 1350, 1359, 1311
818, 1302, 1350, 1359, 1311, 1304, 1352, 1360, 1312
819, 1304, 1352, 1360, 1312, 1306, 1354, 1361, 1313
820, 1306, 1354, 1361, 1313, 1308, 1356, 1362, 1314
821, 1315, 1363, 1364, 1316, 1317, 1365, 1366, 1318
822, 1317, 1365, 1366, 1318, 1319, 1367, 1368, 1320
823, 1316, 1364, 1369, 1321, 1318, 1366, 1370, 1322
824, 1318, 1366, 1370, 1322, 1320, 1368, 1371, 1323
825, 1321, 1369, 1372, 1324, 1322, 1370, 1373, 1325
826, 1322, 1370, 1373, 1325, 1323, 1371, 1374, 1326
827, 1324, 1372, 1355, 1307, 1325, 1373, 1375, 1327
828, 1325, 1373, 1375, 1327, 1326, 1374, 1376, 1328
829, 1307, 1355, 1356, 1308, 1327, 1375, 1377, 1329
830, 1327, 1375, 1377, 1329, 1328, 1376, 1378, 1330
831, 1308, 1356, 1362, 1314, 1329, 1377, 1379, 1331
832, 1329, 1377, 1379, 1331, 1330, 1378, 1380, 1332
833, 1314, 1362, 1381, 1333, 1331, 1379, 1382, 1334
834, 1331, 1379, 1382, 1334, 1332, 1380, 1383, 1335
835, 1333, 1381, 1384, 1336, 1334, 1382, 1385, 1337
836, 1334, 1382, 1385, 1337, 1335, 1383, 1386, 1338
837, 1336, 1384, 1387, 1339, 1337, 1385, 1388, 1340
838, 1337, 1385, 1388, 1340, 1338, 1386, 1389, 1341
839, 1339, 1387, 1390, 1342, 1340, 1388, 1391, 1343
840, 1340, 1388, 1391, 1343, 1341, 1389, 1392, 1344
841, 1345, 1393, 1394, 1346, 1347, 1395, 1396, 1348
842, 1347, 1395, 1396, 1348, 1349, 1397, 1398, 1350
843, 1349, 1397, 1398, 1350, 1351, 1399, 1400, 1352
844, 1351, 1399, 1400, 1352, 1353, 1401, 1402, 1354
845, 1353, 1401, 1402, 1354, 1355, 1403, 1404, 1356
846, 1346, 1394, 1405, 1357, 1348, 1396, 1406, 1358
847, 1348, 1396, 1406, 1358, 1350, 1398, 1407, 1359
848, 1350, 1398, 1407, 1359, 1352, 1400, 1408, 1360
849, 1352, 1400, 1408, 1360, 1354, 1402, 1409, 1361
850, 1354, 1402, 1409, 1361, 1356, 1404, 1410, 1362
851, 1363, 1411, 1412, 1364, 1365, 1413, 1414, 1366
852, 1365, 1413, 1414, 1366, 1367, 1415, 1416, 1368
853, 1364, 1412, 1417, 1369, 1366, 1414, 1418, 1370
854, 1366, 1414, 1418, 1370, 1368, 1416, 1419, 1371
855, 1369, 1417, 1420, 1372, 1370, 1418, 1421, 1373
856, 1370, 1418, 1421, 1373, 1371, 1419, 1422, 1374
857, 1372, 1420, 1403, 1355, 1373, 1421, 1423, 1375
858, 1373, 1421, 1423, 1375, 1374, 1422, 1424, 1376
859, 1355, 1403, 1404, 1356, 1375, 1423, 1425, 1377
860, 1375, 1423, 1425, 1377, 1376, 1424, 1426, 1378
861, 1356, 1404, 1410, 1362, 1377, 1425, 1427, 1379
862, 1377, 1425, 1427, 1379, 1378, 1426, 1428, 1380
863, 1362, 1410, 1429, 1381, 1379, 1427, 1430, 1382
864, 1379, 1427, 1430, 1382, 1380, 1428, 1431, 1383
865, 1381, 1429, 1432, 1384, 1382, 1430, 1433, 1385
866, 1382, 1430, 1433, 1385, 1383, 1431, 1434, 1386
867, 1384, 1432, 1435, 1387, 1385, 1433, 1436, 1388
868, 1385, 1433, 1436, 1388, 1386, 1434, 1437, 1389
869, 1387, 1435, 1438, 1390, 1388, 1436, 1439, 1391
870, 1388, 1436, 1439, 1391, 1389, 1437, 1440, 1392
871, 1393, 1441, 1442, 1394, 1395, 1443, 1444, 1396
872, 1395, 1443, 1444, 1396, 1397, 1445, 1446, 1398
873, 1397, 1445, 1446, 1398, 1399, 1447, 1448, 1400
874, 1399, 1447, 1448, 1400, 1401, 1449, 1450, 1402
875, 1401, 1449, 1450, 1402, 1403, 1451, 1452, 1404
876, 1394, 1442, 1453, 1405, 1396, 1444, 1454, 1406
877, 1396, 1444, 1454, 1406, 1398, 1446, 1455, 1407
878, 1398, 1446, 1455, 1407, 1400, 1448, 1456, 1408
879, 1400, 1448, 1456, 1408, 1402, 1450, 1457, 1409
880, 1402, 1450, 1457, 1409, 1404, 1452, 1458, 1410
881, 1411, 1459, 1460, 1412, 1413, 1461, 1462, 1414
882, 1413, 1461, 1462, 1414, 1415, 1463, 1464, 1416
883, 1412, 1460, 1465, 1417, 1414, 1462, 1466, 1418
884, 1414, 1462, 1466, 1418, 1416, 1464, 1467, 1419
885, 1417, 1465, 1468, 1420, 1418, 1466, 1469, 1421
886, 1418, 1466, 1469, 1421, 1419, 1467, 1470, 1422
887, 1420, 1468, 1451, 1403, 1421, 1469, 1471, 1423
888, 1421, 1469, 1471, 1423, 1422, 1470, 1472, 1424
889, 1403, 1451, 1452, 1404, 1423, 1471, 1473, 1425
890, 1423, 1471, 1473, 1425, 1424, 1472, 1474, 1426
891, 1404, 1452, 1458, 1410, 1425, 1473, 1475, 1427
892, 1425, 1473, 1475, 1427, 1426, 1474, 1476, 1428
893, 1410, 1458, 1477, 1429, 1427, 1475, 1478, 1430
894, 1427, 1475, 1478, 1430, 1428, 1476, 1479, 1431
895, 1429, 1477, 1480, 1432, 1430, 1478, 1481, 1433
896, 1430, 1478, 1481, 1433, 1431, 1479, 1482, 1434
897, 1432, 1480, 1483, 1435, 1433, 1481, 1484, 1436
898, 1433, 1481, 1484, 1436, 1434, 1482, 1485, 1437
899, 1435, 1483, 1486, 1438, 1436, 1484, 1487, 1439
900, 1436, 1484, 1487, 1439, 1437, 1485, 1488, 1440
901, 1441, 1489, 1490, 1442, 1443, 1491, 1492, 1444
902, 1443, 1491, 1492, 1444, 1445, 1493, 1494, 1446
903, 1445, 1493, 1494, 1446, 1447, 1495, 1496, 1448
904, 1447, 1495, 1496, 1448, 1449, 1497, 1498, 1450
905, 1449, 1497, 1498, 1450, 1451, 1499, 1500, 1452
906, 1442, 1490, 1501, 1453, 1444, 1492, 1502, 1454
907, 1444, 1492, 1502, 1454, 1446, 1494, 1503, 1455
908, 1446, 1494, 1503, 1455, 1448, 1496, 1504, 1456
909, 1448, 1496, 1504, 1456, 1450, 1498, 1505, 1457
910, 1450, 1498, 1505, 1457, 1452, 1500, 1506, 1458
911, 1459, 1507, 1508, 1460, 1461, 1509, 1510, 1462
912, 1461, 1509, 1510, 1462, 1463, 1511, 1512, 1464
913, 1460, 1508, 1513, 1465, 1462, 1510, 1514, 1466
914, 1462, 1510, 1514, 1466, 1464, 1512, 1515, 1467
915, 1465, 1513, 1516, 1468, 1466, 1514, 1517, 1469
916, 1466, 1514, 1517, 1469, 1467, 1515, 1518, 1470
917, 1468, 1516, 1499, 1451, 1469, 1517, 1519, 1471
918, 1469, 1517, 1519, 1471, 1470, 1518, 1520, 1472
919, 1451, 1499, 1500, 1452, 1471, 1519, 1521, 1473
920, 1471, 1519, 1521, 1473, 1472, 1520, 1522, 1474
921, 1452, 1500, 1506, 1458, 1473, 1521, 1523, 1475
922, 1473, 1521, 1523, 1475, 1474, 1522, 1524, 1476
923, 1458, 1506, 1525, 1477, 1475, 1523, 1526, 1478
924, 1475, 1523, 1526, 1478, 1476, 1524, 1527, 1479
925, 1477, 1525, 1528, 1480, 1478, 1526, 1529, 1481
926, 1478, 1526, 1529, 1481, 1479, 1527, 1530, 1482
927, 1480, 1528, 1531, 1483, 1481, 1529, 1532, 1484
928, 1481, 1529, 1532, 1484, 1482, 1530, 1533, 1485
929, 1483, 1531, 1534, 1486, 1484, 1532, 1535, 1487
930, 1484, 1532, 1535, 1487, 1485, 1533, 1536, 1488
931, 1489, 1537, 1538, 1490, 1491, 1539, 1540, 1492
932, 1491, 1539, 1540, 1492, 1493, 1541, 1542, 1494
933, 1493, 1541, 1542, 1494, 1495, 1543, 1544, 1496
934, 1495, 1543, 1544, 1496, 1497, 1545, 1546, 1498
935, 1497, 1545, 1546, 1498, 1499, 1547, 1548, 1500
936, 1490, 1538, 1549, 1501, 1492, 1540, 1550, 1502
937, 1492, 1540, 1550, 1502, 1494, 1542, 1551, 1503
938, 1494, 1542, 1551, 1503, 1496, 1544, 1552, 1504
939, 1496, 1544, 1552, 1504, 1498, 1546, 1553, 1505
940, 1498, 1546, 1553, 1505, 1500, 1548, 1554, 1506
941, 1507, 1555, 1556, 1508, 1509, 1557, 1558, 1510
942, 1509, 1557, 1558, 1510, 1511, 1559, 1560, 1512
943, 1508, 1556, 1561, 1513, 1510, 1558, 1562, 1514
944, 1510, 1558, 1562, 1514, 1512, 1560, 1563, 1515
945, 1513, 1561, 1564, 1516, 1514, 1562, 1565, 1517
946, 1514, 1562, 1565, 1517, 1515, 1563, 1566, 1518
947, 1516, 1564, 1547, 1499, 1517, 1565, 1567, 1519
948, 1517, 1565, 1567, 1519, 1518, 1566, 1568, 1520
949, 1499, 1547, 1548, 1500, 1519, 1567, 1569, 1521
950, 1519, 1567, 1569, 1521, 1520, 1568, 1570, 1522
951, 1500, 1548, 1554, 1506, 1521, 1569, 1571, 1523
952, 1521, 1569, 1571, 1523, 1522, 1570, 1572, 1524
953, 1506, 1554, 1573, 1525, 1523, 1571, 1574, 1526
954, 1523, 1571, 1574, 1526, 1524, 1572, 1575, 1527
955, 1525, 1573, 1576, 1528, 1526, 1574, 1577, 1529
956, 1526, 1574, 1577, 1529, 1527, 1575, 1578, 1530
957, 1528, 1576, 1579, 1531, 1529, 1577, 1580, 1532
958, 1529, 1577, 1580, 1532, 1530, 1578, 1581, 1533
959, 1531, 1579, 1582, 1534, 1532, 1580, 1583, 1535
960, 1532, 1580, 1583, 1535, 1533, 1581, 1584, 1536
961, 1537, 1585, 1586, 1538, 1539, 1587, 1588, 1540
962, 1539, 1587, 1588, 1540, 1541, 1589, 1590, 1542
963, 1541, 1589, 1590, 1542, 1543, 1591, 1592, 1544
964, 1543, 1591, 1592, 1544, 1545, 1593, 1594, 1546
965, 1545, 1593, 1594, 1546, 1547, 1595, 1596, 1548
966, 1538, 1586, 1597, 1549, 1540, 1588, 1598, 1550
967, 1540, 1588, 1598, 1550, 1542, 1590, 1599, 1551
968, 1542, 1590, 1599, 1551, 1544, 1592, 1600, 1552
969, 1544, 1592, 1600, 1552, 1546, 1594, 1601, 1553
970, 1546, 1594, 1601, 1553, 1548, 1596, 1602, 1554
971, 1555, 1603, 1604, 1556, 1557, 1605, 1606, 1558
972, 1557, 1605, 1606, 1558, 1559, 1607, 1608, 1560
973, 1556, 1604, 1609, 1561, 1558, 1606, 1610, 1562
974, 1558, 1606, 1610, 1562, 1560, 1608, 1611, 1563
975, 1561, 1609, 1612, 1564, 1562, 1610, 1613, 1565
976, 1562, 1610, 1613, 1565, 1563, 1611, 1614, 1566
977, 1564, 1612, 1595, 1547, 1565, 1613, 1615, 1567
978, 1565, 1613, 1615, 1567, 1566, 1614, 1616, 1568
979, 1547, 1595, 1596, 1548, 1567, 1615, 1617, 1569
980, 1567, 1615, 1617, 1569, 1568, 1616, 1618, 1570
981, 1548, 1596, 1602, 1554, 1569, 1617, 1619, 1571
982, 1569, 1617, 1619, 1571, 1570, 1618, 1620, 1572
983, 1554, 1602, 1621, 1573, 1571, 1619, 1622, 1574
984, 1571, 1619, 1622, 1574, 1572, 1620, 1623, 1575
985, 1573, 1621, 1624, 1576, 1574, 1622, 1625, 1577
986, 1574, 1622, 1625, 1577, 1575, 1623, 1626, 1578
987, 1576, 1624, 1627, 1579, 1577, 1625, 1628, 1580
988, 1577, 1625, 1628, 1580, 1578, 1626, 1629, 1581
989, 1579, 1627, 1630, 1582, 1580, 1628, 1631, 1583
990, 1580, 1628, 1631, 1583, 1581, 1629, 1632, 1584
991, 1585, 1633, 1634, 1586, 1587, 1635, 1636, 1588
992, 1587, 1635, 1636, 1588, 1589, 1637, 1638, 1590
993, 1589, 1637, 1638, 1590, 1591, 1639, 1640, 1592
994, 1591, 1639, 1640, 1592, 1593, 1641, 1642, 1594
995, 1593, 1641, 1642, 1594, 1595, 1643, 1644, 1596
996, 1586, 1634, 1645, 1597, 1588, 1636, 1646, 1598
997, 1588, 1636, 1646, 1598, 1590, 1638, 1647, 1599
998, 1590, 1638, 1647, 1599, 1592, 1640, 1648, 1600
999, 1592, 1640, 1648, 1600, 1594, 1642, 1649, 1601
1000, 1594, 1642, 1649, 1601, 1596, 1644, 1650, 1602
1001, 1603, 1651, 1652, 1604, 1605, 1653, 1654, 1606
1002, 1605, 1653, 1654, 1606, 1607, 1655, 1656, 1608
1003, 1604, 1652, 1657, 1609, 1606, 1654, 1658, 1610
1004, 1606, 1654, 1658, 1610, 1608, 1656, 1659, 1611
1005, 1609, 1657, 1660, 1612, 1610, 1658, 1661, 1613
1006, 1610, 1658, 1661, 1613, 1611, 1659, 1662, 1614
1007, 1612, 1660, 1643, 1595, 1613, 1661, 1663, 1615
1008, 1613, 1661, 1663, 1615, 1614, 1662, 1664, 1616
1009, 1595, 1643, 1644, 1596, 1615, 1663, 1665, 1617
1010, 1615, 1663, 1665, 1617, 1616, 1664, 1666, 1618
1011, 1596, 1644, 1650, 1602, 1617, 1665, 1667, 1619
1012, 1617, 1665, 1667, 1619, 1618, 1666, 1668, 1620
1013, 1602, 1650, 1669, 1621, 1619, 1667, 1670, 1622
1014, 1619, 1667, 1670, 1622, 1620, 1668, 1671, 1623
1015, 1621, 1669, 1672, 1624, 1622, 1670, 1673, 1625
1016, 1622, 1670, 1673, 1625, 1623, 1671, 1674, 1626
1017, 1624, 1672, 1675, 1627, 1625, 1673, 1676, 1628
1018, 1625, 1673, 1676, 1628, 1626, 1674, 1677, 1629
1019, 1627, 1675, 1678, 1630, 1628, 1676, 1679, 1631
1020, 1628, 1676, 1679, 1631, 1629, 1677, 1680, 1632
1021, 1633, 1681, 1682, 1634, 1635, 1683, 1684, 1636
1022, 1635, 1683, 1684, 1636, 1637, 1685, 1686, 1638
1023, 1637, 1685, 1686, 1638, 1639, 1687, 1688, 1640
1024, 1639, 1687, 1688, 1640, 1641, 1689, 1690, 1642
1025, 1641, 1689, 1690, 1642, 1643, 1691, 1692, 1644
1026, 1634, 1682, 1693, 1645, 1636, 1684, 1694, 1646
1027, 1636, 1684, 1694, 1646, 1638, 1686, 1695, 1647
1028, 1638, 1686, 1695, 1647, 1640, 1688, 1696, 1648
1029, 1640, 1688, 1696, 1648, 1642, 1690, 1697, 1649
1030, 1642, 1690, 1697, 1649, 1644, 1692, 1698, 1650
1031, 1651, 1699, 1700, 1652, 1653, 1701, 1702, 1654
1032, 1653, 1701, 1702, 1654, 1655, 1703, 1704, 1656
1033, 1652, 1700, 1705, 1657, 1654, 1702, 1706, 1658
1034, 1654, 1702, 1706, 1658, 1656, 1704, 1707, 1659
1035, 1657, 1705, 1708, 1660, 1658, 1706, 1709, 1661
1036, 1658, 1706, 1709, 1661, 1659, 1707, 1710, 1662
1037, 1660, 1708, 1691, 1643, 1661, 1709, 1711, 1663
1038, 1661, 1709, 1711, 1663, 1662, 1710, 1712, 1664
1039, 1643, 1691, 1692, 1644, 1663, 1711, 1713, 1665
1040, 1663, 1711, 1713, 1665, 1664, 1712, 1714, 1666
1041, 1644, 1692, 1698, 1650, 1665, 1713, 1715, 1667
1042, 1665, 1713, 1715, 1667, 1666, 1714, 1716, 1668
1043, 1650, 1698, 1717, 1669, 1667, 1715, 1718, 1670
1044, 1667, 1715, 1718, 1670, 1668, 1716, 1719, 1671
1045, 1669, 1717, 1720, 1672, 1670, 1718, 1721, 1673
1046, 1670, 1718, 1721, 1673, 1671, 1719, 1722, 1674
1047, 1672, 1720, 1723, 1675, 1673, 1721, 1724, 1676
1048, 1673, 1721, 1724, 1676, 1674, 1722, 1725, 1677
1049, 1675, 1723, 1726, 1678, 1676, 1724, 1727, 1679
1050, 1676, 1724, 1727, 1679, 1677, 1725, 1728, 1680
1051, 1681, 1729, 1730, 1682, 1683, 1731, 1732, 1684
1052, 1683, 1731, 1732, 1684, 1685, 1733, 1734, 1686
1053, 1685, 1733, 1734, 1686, 1687, 1735, 1736, 1688
1054, 1687, 1735, 1736, 1688, 1689, 1737, 1738, 1690
1055, 1689, 1737, 1738, 1690, 1691, 1739, 1740, 1692
1056, 1682, 1730, 1741, 1693, 1684, 1732, 1742, 1694
1057, 1684, 1732, 1742, 1694, 1686, 1734, 1743, 1695
1058, 1686, 1734, 1743, 1695, 1688, 1736, 1744, 1696
1059, 1688, 1736, 1744, 1696, 1690, 1738, 1745, 1697
1060, 1690, 1738, 1745, 1697, 1692, 1740, 1746, 1698
1061, 1699, 1747, 1748, 1700, 1701, 1749, 1750, 1702
1062, 1701, 1749, 1750, 1702, 1703, 1751, 1752, 1704
1063, 1700, 1748, 1753, 1705, 1702, 1750, 1754, 1706
1064, 1702, 1750, 1754, 1706, 1704, 1752, 1755, 1707
1065, 1705, 1753, 1756, 1708, 1706, 1754, 1757, 1709
1066, 1706, 1754, 1757, 1709, 1707, 1755, 1758, 1710
1067, 1708, 1756, 1739, 1691, 1709, 1757, 1759, 1711
1068, 1709, 1757, 1759, 1711, 1710, 1758, 1760, 1712
1069, 1691, 1739, 1740, 1692, 1711, 1759, 1761, 1713
1070, 1711, 1759, 1761, 1713, 1712, 1760, 1762, 1714
1071, 1692, 1740, 1746, 1698, 1713, 1761, 1763, 1715
1072, 1713, 1761, 1763, 1715, 1714, 1762, 1764, 1716
1073, 1698, 1746, 1765, 1717, 1715, 1763, 1766, 1718
1074, 1715, 1763, 1766, 1718, 1716, 1764, 1767, 1719
1075, 1717, 1765, 1768, 1720, 1718, 1766, 1769, 1721
1076, 1718, 1766, 1769, 1721, 1719, 1767, 1770, 1722
1077, 1720, 1768, 1771, 1723, 1721, 1769, 1772, 1724
1078, 1721, 1769, 1772, 1724, 1722, 1770, 1773, 1725
1079, 1723, 1771, 1774, 1726, 1724, 1772, 1775, 1727
1080, 1724, 1772, 1775, 1727, 1725, 1773, 1776, 1728
1081, 1729, 1777, 1778, 1730, 1731, 1779, 1780, 1732
1082, 1731, 1779, 1780, 1732, 1733, 1781, 1782, 1734
1083, 1733, 1781, 1782, 1734, 1735, 1783, 1784, 1736
1084, 1735, 1783, 1784, 1736, 1737, 1785, 1786, 1738
1085, 1737, 1785, 1786, 1738, 1739, 1787, 1788, 1740
1086, 1730, 1778, 1789, 1741, 1732, 1780, 1790, 1742
1087, 1732, 1780, 1790, 1742, 1734, 1782, 1791, 1743
1088, 1734, 1782, 1791, 1743, 1736, 1784, 1792, 1744
1089, 1736, 1784, 1792, 1744, 1738, 1786, 1793, 1745
1090, 1738, 1786, 1793, 1745, 1740, 1788, 1794, 1746
1091, 1747, 1795, 1796, 1748, 1749, 1797, 1798, 1750
1092, 1749, 1797, 1798, 1750, 1751, 1799, 1800, 1752
1093, 1748, 1796, 1801, 1753, 1750, 1798, 1802, 1754
1094, 1750, 1798, 1802, 1754, 1752, 1800, 1803, 1755
1095, 1753, 1801, 1804, 1756, 1754, 1802, 1805, 1757
1096, 1754, 1802, 1805, 1757, 1755, 1803, 1806, 1758
1097, 1756, 1804, 1787, 1739, 1757, 1805, 1807, 1759
1098, 1757, 1805, 1807, 1759, 1758, 1806, 1808, 1760
1099, 1739, 1787, 1788, 1740, 1759, 1807, 1809, 1761
1100, 1759, 1807, 1809, 1761, 1760, 1808, 1810, 1762
1101, 1740, 1788, 1794, 1746, 1761, 1809, 1811, 1763
1102, 1761, 1809, 1811, 1763, 1762, 1810, 1812, 1764
1103, 1746, 1794, 1813, 1765, 1763, 1811, 1814, 1766
1104, 1763, 1811, 1814, 1766, 1764, 1812, 1815, 1767
1105, 1765, 1813, 1816, 1768, 1766, 1814, 1817, 1769
1106, 1766, 1814, 1817, 1769, 1767, 1815, 1818, 1770
1107, 1768, 1816, 1819, 1771, 1769, 1817, 1820, 1772
1108, 1769, 1817, 1820, 1772, 1770, 1818, 1821, 1773
1109, 1771, 1819, 1822, 1774, 1772, 1820, 1823, 1775
1110, 1772, 1820, 1823, 1775, 1773, 1821, 1824, 1776
1111, 1777, 1825, 1826, 1778, 1779, 1827, 1828, 1780
1112, 1779, 1827, 1828, 1780, 1781, 1829, 1830, 1782
1113, 1781, 1829, 1830, 1782, 1783, 1831, 1832, 1784
1114, 1783, 1831, 1832, 1784, 1785, 1833, 1834, 1786
1115, 1785, 1833, 1834, 1786, 1787, 1835, 1836, 1788
1116, 1778, 1826, 1837, 1789, 1780, 1828, 1838, 1790
1117, 1780, 1828, 1838, 1790, 1782, 1830, 1839, 1791
1118, 1782, 1830, 1839, 1791, 1784, 1832, 1840, 1792
1119, 1784, 1832, 1840, 1792, 1786, 1834, 1841, 1793
1120, 1786, 1834, 1841, 1793, 1788, 1836, 1842, 1794
1121, 1795, 1843, 1844, 1796, 1797, 1845, 1846, 1798
1122, 1797, 1845, 1846, 1798, 1799, 1847, 1848, 1800
1123, 1796, 1844, 1849, 1801, 1798, 1846, 1850, 1802
1124, 1798, 1846, 1850, 1802, 1800, 1848, 1851, 1803
1125, 1801, 1849, 1852, 1804, 1802, 1850, 1853, 1805
1126, 1802, 1850, 1853, 1805, 1803, 1851, 1854, 1806
1127, 1804, 1852, 1835, 1787, 1805, 1853, 1855, 1807
1128, 1805, 1853, 1855, 1807, 1806, 1854, 1856, 1808
1129, 1787, 1835, 1836, 1788, 1807, 1855, 1857, 1809
1130, 1807, 1855, 1857, 1809, 1808, 1856, 1858, 1810
1131, 1788, 1836, 1842, 1794, 1809, 1857, 1859, 1811
1132, 1809, 1857, 1859, 1811, 1810, 1858, 1860, 1812
1133, 1794, 1842, 1861, 1813, 1811, 1859, 1862, 1814
1134, 1811, 1859, 1862, 1814, 1812, 1860, 1863, 1815
1135, 1813, 1861, 1864, 1816, 1814, 1862, 1865, 1817
1136, 1814, 1862, 1865, 1817, 1815, 1863, 1866, 1818
1137, 1816, 1864, 1867, 1819, 1817, 1865, 1868, 1820
1138, 1817, 1865, 1868, 1820, 1818, 1866, 1869, 1821
1139, 1819, 1867, 1870, 1822, 1820, 1868, 1871, 1823
1140, 1820, 1868, 1871, 1823, 1821, 1869, 1872, 1824
1141, 1825, 1873, 1874, 1826, 1827, 1875, 1876, 1828
1142, 1827, 1875, 1876, 1828, 1829, 1877, 1878, 1830
1143, 1829, 1877, 1878, 1830, 1831, 1879, 1880, 1832
1144, 1831, 1879, 1880, 1832, 1833, 1881, 1882, 1834
1145, 1833, 1881, 1882, 1834, 1835, 1883, 1884, 1836
1146, 1826, 1874, 1885, 1837, 1828, 1876, 1886, 1838
1147, 1828, 1876, 1886, 1838, 1830, 1878, 1887, 1839
1148, 1830, 1878, 1887, 1839, 1832, 1880, 1888, 1840
1149, 1832, 1880, 1888, 1840, 1834, 1882, 1889, 1841
1150, 1834, 1882, 1889, 1841, 1836, 1884, 1890, 1842
1151, 1843, 1891, 1892, 1844, 1845, 1893, 1894, 1846
1152, 1845, 1893, 1894, 1846, 1847, 1895, 1896, 1848
1153, 1844, 1892, 1897, 1849, 1846, 1894, 1898, 1850
1154, 1846, 1894, 1898, 1850, 1848, 1896, 1899, 1851
1155, 1849, 1897, 1900, 1852, 1850, 1898, 1901, 1853
1156, 1850, 1898, 1901, 1853, 1851, 1899, 1902, 1854
1157, 1852, 1900, 1883, 1835, 1853, 1901, 1903, 1855
1158, 1853, 1901, 1903, 1855, 1854, 1902, 1904, 1856
1159, 1835, 1883, 1884, 1836, 1855, 1903, 1905, 1857
1160, 1855, 1903, 1905, 1857, 1856, 1904, 1906, 1858
1161, 1836, 1884, 1890, 1842, 1857, 1905, 1907, 1859
1162, 1857, 1905, 1907, 1859, 1858, 1906, 1908, 1860
1163, 1842, 1890, 1909, 1861, 1859, 1907, 1910, 1862
1164, 1859, 1907, 1910, 1862, 1860, 1908, 1911, 1863
1165, 1861, 1909, 1912, 1864, 1862, 1910, 1913, 1865
1166, 1862, 1910, 1913, 1865, 1863, 1911, 1914, 1866
1167, 1864, 1912, 1915, 1867, 1865, 1913, 1916, 1868
1168, 1865, 1913, 1916, 1868, 1866, 1914, 1917, 1869
1169, 1867, 1915, 1918, 1870, 1868, 1916, 1919, 1871
1170, 1868, 1916, 1919, 1871, 1869, 1917, 1920, 1872
1171, 1873, 1921, 1922, 1874, 1875, 1923, 1924, 1876
1172, 1875, 1923, 1924, 1876, 1877, 1925, 1926, 1878
1173, 1877, 1925, 1926, 1878, 1879, 1927, 1928, 1880
1174, 1879, 1927, 1928, 1880, 1881, 1929, 1930, 1882
1175, 1881, 1929, 1930, 1882, 1883, 1931, 1932, 1884
1176, 1874, 1922, 1933, 1885, 1876, 1924, 1934, 1886
1177, 1876, 1924, 1934, 1886, 1878, 1926, 1935, 1887
1178, 1878, 1926, 1935, 1887, 1880, 1928, 1936, 1888
1179, 1880, 1928, 1936, 1888, 1882, 1930, 1937, 1889
1180, 1882, 1930, 1937, 1889, 1884, 1932, 1938, 1890
1181, 1891, 1939, 1940, 1892, 1893, 1941, 1942, 1894
1182, 1893, 1941, 1942, 1894, 1895, 1943, 1944, 1896
1183, 1892, 1940, 1945, 1897, 1894, 1942, 1946, 1898
1184, 1894, 1942, 1946, 1898, 1896, 1944, 1947, 1899
1185, 1897, 1945, 1948, 1900, 1898, 1946, 1949, 1901
1186, 1898, 1946, 1949, 1901, 1899, 1947, 1950, 1902
1187, 1900, 1948, 1931, 1883, 1901, 1949, 1951, 1903
1188, 1901, 1949, 1951, 1903, 1902, 1950, 1952, 1904
1189, 1883, 1931, 1932, 1884, 1903, 1951, 1953, 1905
1190, 1903, 1951, 1953, 1905, 1904, 1952, 1954, 1906
1191, 1884, 1932, 1938, 1890, 1905, 1953, 1955, 1907
1192, 1905, 1953, 1955, 1907, 1906, 1954, 1956, 1908
1193, 1890, 1938, 1957, 1909, 1907, 1955, 1958, 1910
1194, 1907, 1955, 1958, 1910, 1908, 1956, 1959, 1911
1195, 1909, 1957, 1960, 1912, 1910, 1958, 1961, 1913
1196, 1910, 1958, 1961, 1913, 1911, 1959, 1962, 1914
1197, 1912, 1960, 1963, 1915, 1913, 1961, 1964, 1916
1198, 1913, 1961, 1964, 1916, 1914, 1962, 1965, 1917
1199, 1915, 1963, 1966, 1918, 1916, 1964, 1967, 1919
1200, 1916, 1964, 1967, 1919, 1917, 1965, 1968, 1920
1201, 1921, 1969, 1970, 1922, 1923, 1971, 1972, 1924
1202, 1923, 1971, 1972, 1924, 1925, 1973, 1974, 1926
1203, 1925, 1973, 1974, 1926, 1927, 1975, 1976, 1928
1204, 1927, 1975, 1976, 1928, 1929, 1977, 1978, 1930
1205, 1929, 1977, 1978, 1930, 1931, 1979, 1980, 1932
1206, 1922, 1970, 1981, 1933, 1924, 1972, 1982, 1934
1207, 1924, 1972, 1982, 1934, 1926, 1974, 1983, 1935
1208, 1926, 1974, 1983, 1935, 1928, 1976, 1984, 1936
1209, 1928, 1976, 1984, 1936, 1930, 1978, 1985, 1937
1210, 1930, 1978, 1985, 1937, 1932, 1980, 1986, 1938
1211, 1939, 1987, 1988, 1940, 1941, 1989, 1990, 1942
1212, 1941, 1989, 1990, 1942, 1943, 1991, 1992, 1944
1213, 1940, 1988, 1993, 1945, 1942, 1990, 1994, 1946
1214, 1942, 1990, 1994, 1946, 1944, 1992, 1995, 1947
1215, 1945, 1993, 1996, 1948, 1946, 1994, 1997, 1949
1216, 1946, 1994, 1997, 1949, 1947, 1995, 1998, 1950
1217, 1948, 1996, 1979, 1931, 1949, 1997, 1999, 1951
1218, 1949, 1997, 1999, 1951, 1950, 1998, 2000, 1952
1219, 1931, 1979, 1980, 1932, 1951, 1999, 2001, 1953
1220, 1951, 1999, 2001, 1953, 1952, 2000, 2002, 1954
1221, 1932, 1980, 1986, 1938, 1953, 2001, 2003, 1955
1222, 1953, 2001, 2003, 1955, 1954, 2002, 2004, 1956
1223, 1938, 1986, 2005, 1957, 1955, 2003, 2006, 1958
1224, 1955, 2003, 2006, 1958, 1956, 2004, 2007, 1959
1225, 1957, 2005, 2008, 1960, 1958, 2006, 2009, 1961
1226, 1958, 2006, 2009, 1961, 1959, 2007, 2010, 1962
1227, 1960, 2008, 2011, 1963, 1961, 2009, 2012, 1964
1228, 1961, 2009, 2012, 1964, 1962, 2010, 2013, 1965
1229, 1963, 2011, 2014, 1966, 1964, 2012, 2015, 1967
1230, 1964, 2012, 2015, 1967, 1965, 2013, 2016, 1968
1231, 1969, 2017, 2018, 1970, 1971, 2019, 2020, 1972
1232, 1971, 2019, 2020, 1972, 1973, 2021, 2022, 1974
1233, 1973, 2021, 2022, 1974, 1975, 2023, 2024, 1976
1234, 1975, 2023, 2024, 1976, 1977, 2025, 2026, 1978
1235, 1977, 2025, 2026, 1978, 1979, 2027, 2028, 1980
1236, 1970, 2018, 2029, 1981, 1972, 2020, 2030, 1982
1237, 1972, 2020, 2030, 1982, 1974, 2022, 2031, 1983
1238, 1974, 2022, 2031, 1983, 1976, 2024, 2032, 1984
1239, 1976, 2024, 2032, 1984, 1978, 2026, 2033, 1985
1240, 1978, 2026, 2033, 1985, 1980, 2028, 2034, 1986
1241, 1987, 2035, 2036, 1988, 1989, 2037, 2038, 1990
1242, 1989, 2037, 2038, 1990, 1991, 2039, 2040, 1992
1243, 1988, 2036, 2041, 1993, 1990, 2038, 2042, 1994
1244, 1990, 2038, 2042, 1994, 1992, 2040, 2043, 1995
1245, 1993, 2041, 2044, 1996, 1994, 2042, 2045, 1997
1246, 1994, 2042, 2045, 1997, 1995, 2043, 2046, 1998
1247, 1996, 2044, 2027, 1979, 1997, 2045, 2047, 1999
1248, 1997, 2045, 2047, 1999, 1998, 2046, 2048, 2000
1249, 1979, 2027, 2028, 1980, 1999, 2047, 2049, 2001
1250, 1999, 2047, 2049, 2001, 2000, 2048, 2050, 2002
1251, 1980, 2028, 2034, 1986, 2001, 2049, 2051, 2003
1252, 2001, 2049, 2051, 2003, 2002, 2050, 2052, 2004
1253, 1986, 2034, 2053, 2005, 2003, 2051, 2054, 2006
1254, 2003, 2051, 2054, 2006, 2004, 2052, 2055, 2007
1255, 2005, 2053, 2056, 2008, 2006, 2054, 2057, 2009
1256, 2006, 2054, 2057, 2009, 2007, 2055, 2058, 2010
1257, 2008, 2056, 2059, 2011, 2009, 2057, 2060, 2012
1258, 2009, 2057, 2060, 2012, 2010, 2058, 2061, 2013
1259, 2011, 2059, 2062, 2014, 2012, 2060, 2063, 2015
1260, 2012, 2060, 2063, 2015, 2013, 2061, 2064, 2016
*NSET, NSET=CLAMP
1, 4, 5, 8, 9, 12, 13, 16, 17, 20, 21, 24, 26, 28, 30, 32
34, 36, 37, 40, 41, 44, 45, 48, 50, 52, 54, 56, 58, 60, 62, 64
66, 68, 70, 72, 74, 76, 78, 80, 82, 84, 86, 88, 90, 92, 94, 96
*NSET, NSET=TIP_TOP
2039, 2040, 2043, 2046, 2048, 2050, 2052, 2055, 2058, 2061, 2064
*NSET, NSET=TIP_FLANGE
2039, 2040, 2043, 2046, 2048, 2050, 2052, 2055, 2058, 2061, 2064
*MATERIAL, NAME=STEEL
*ELASTIC
210000, 0.3
*SOLID SECTION, ELSET=EALL, MATERIAL=STEEL
*BOUNDARY
CLAMP, 1, 3, 0.0
*STEP
*STATIC
*CLOAD
2039, 3, -454.545454545
2040, 3, -454.545454545
2043, 3, -454.545454545
2046, 3, -454.545454545
2048, 3, -454.545454545
2050, 3, -454.545454545
2052, 3, -454.545454545
2055, 3, -454.545454545
2058, 3, -454.545454545
2061, 3, -454.545454545
2064, 3, -454.545454545
*NODE FILE
U
*EL FILE
S, ENER
*NODE PRINT, NSET=TIP_TOP
U
*NODE PRINT, NSET=CLAMP
RF
*EL PRINT, ELSET=EALL
ELSE
*ENERGY PRINT
*END STEP
