*HEADING
Normalized cross-passage space-truss torsion benchmark
*NODE
1,-1.200000000000e+00,0.000000000000e+00,0.000000000000e+00
2,1.200000000000e+00,0.000000000000e+00,0.000000000000e+00
3,-1.200000000000e+00,0.000000000000e+00,2.000000000000e+00
4,1.200000000000e+00,0.000000000000e+00,2.000000000000e+00
5,-1.200000000000e+00,1.000000000000e+01,0.000000000000e+00
6,1.200000000000e+00,1.000000000000e+01,0.000000000000e+00
7,-1.200000000000e+00,1.000000000000e+01,2.000000000000e+00
8,1.200000000000e+00,1.000000000000e+01,2.000000000000e+00
9,-1.200000000000e+00,2.000000000000e+01,0.000000000000e+00
10,1.200000000000e+00,2.000000000000e+01,0.000000000000e+00
11,-1.200000000000e+00,2.000000000000e+01,2.000000000000e+00
12,1.200000000000e+00,2.000000000000e+01,2.000000000000e+00
13,-1.200000000000e+00,3.000000000000e+01,0.000000000000e+00
14,1.200000000000e+00,3.000000000000e+01,0.000000000000e+00
15,-1.200000000000e+00,3.000000000000e+01,2.000000000000e+00
16,1.200000000000e+00,3.000000000000e+01,2.000000000000e+00
17,-1.200000000000e+00,4.000000000000e+01,0.000000000000e+00
18,1.200000000000e+00,4.000000000000e+01,0.000000000000e+00
19,-1.200000000000e+00,4.000000000000e+01,2.000000000000e+00
20,1.200000000000e+00,4.000000000000e+01,2.000000000000e+00
21,-1.200000000000e+00,5.000000000000e+01,0.000000000000e+00
22,1.200000000000e+00,5.000000000000e+01,0.000000000000e+00
23,-1.200000000000e+00,5.000000000000e+01,2.000000000000e+00
24,1.200000000000e+00,5.000000000000e+01,2.000000000000e+00
25,-1.200000000000e+00,5.000000000000e+00,-1.500000000000e-01
26,1.200000000000e+00,5.000000000000e+00,1.500000000000e-01
27,-1.200000000000e+00,5.000000000000e+00,1.850000000000e+00
28,1.200000000000e+00,5.000000000000e+00,2.150000000000e+00
29,-1.200000000000e+00,1.500000000000e+01,-1.500000000000e-01
30,1.200000000000e+00,1.500000000000e+01,1.500000000000e-01
31,-1.200000000000e+00,1.500000000000e+01,1.850000000000e+00
32,1.200000000000e+00,1.500000000000e+01,2.150000000000e+00
33,-1.200000000000e+00,2.500000000000e+01,-1.500000000000e-01
34,1.200000000000e+00,2.500000000000e+01,1.500000000000e-01
35,-1.200000000000e+00,2.500000000000e+01,1.850000000000e+00
36,1.200000000000e+00,2.500000000000e+01,2.150000000000e+00
37,-1.200000000000e+00,3.500000000000e+01,-1.500000000000e-01
38,1.200000000000e+00,3.500000000000e+01,1.500000000000e-01
39,-1.200000000000e+00,3.500000000000e+01,1.850000000000e+00
40,1.200000000000e+00,3.500000000000e+01,2.150000000000e+00
41,-1.200000000000e+00,4.500000000000e+01,-1.500000000000e-01
42,1.200000000000e+00,4.500000000000e+01,1.500000000000e-01
43,-1.200000000000e+00,4.500000000000e+01,1.850000000000e+00
44,1.200000000000e+00,4.500000000000e+01,2.150000000000e+00
45,0.000000000000e+00,-3.600000000000e-02,0.000000000000e+00
46,0.000000000000e+00,3.600000000000e-02,2.000000000000e+00
47,-1.200000000000e+00,3.000000000000e-02,1.000000000000e+00
48,1.200000000000e+00,-3.000000000000e-02,1.000000000000e+00
49,0.000000000000e+00,9.964000000000e+00,0.000000000000e+00
50,0.000000000000e+00,1.003600000000e+01,2.000000000000e+00
51,-1.200000000000e+00,1.003000000000e+01,1.000000000000e+00
52,1.200000000000e+00,9.970000000000e+00,1.000000000000e+00
53,0.000000000000e+00,1.996400000000e+01,0.000000000000e+00
54,0.000000000000e+00,2.003600000000e+01,2.000000000000e+00
55,-1.200000000000e+00,2.003000000000e+01,1.000000000000e+00
56,1.200000000000e+00,1.997000000000e+01,1.000000000000e+00
57,0.000000000000e+00,2.996400000000e+01,0.000000000000e+00
58,0.000000000000e+00,3.003600000000e+01,2.000000000000e+00
59,-1.200000000000e+00,3.003000000000e+01,1.000000000000e+00
60,1.200000000000e+00,2.997000000000e+01,1.000000000000e+00
61,0.000000000000e+00,3.996400000000e+01,0.000000000000e+00
62,0.000000000000e+00,4.003600000000e+01,2.000000000000e+00
63,-1.200000000000e+00,4.003000000000e+01,1.000000000000e+00
64,1.200000000000e+00,3.997000000000e+01,1.000000000000e+00
65,0.000000000000e+00,4.996400000000e+01,0.000000000000e+00
66,0.000000000000e+00,5.003600000000e+01,2.000000000000e+00
67,-1.200000000000e+00,5.003000000000e+01,1.000000000000e+00
68,1.200000000000e+00,4.997000000000e+01,1.000000000000e+00
69,-1.200000000000e+00,2.521213203436e+00,3.939339828220e-01
70,-1.200000000000e+00,5.030000000000e+00,8.500000000000e-01
71,-1.200000000000e+00,7.521213203436e+00,1.393933982822e+00
72,-1.200000000000e+00,2.521213203436e+00,1.606066017178e+00
73,-1.200000000000e+00,5.030000000000e+00,1.150000000000e+00
74,-1.200000000000e+00,7.521213203436e+00,6.060660171780e-01
75,1.200000000000e+00,2.521213203436e+00,3.939339828220e-01
76,1.200000000000e+00,5.030000000000e+00,8.500000000000e-01
77,1.200000000000e+00,7.521213203436e+00,1.393933982822e+00
78,1.200000000000e+00,2.521213203436e+00,1.606066017178e+00
79,1.200000000000e+00,5.030000000000e+00,1.150000000000e+00
80,1.200000000000e+00,7.521213203436e+00,6.060660171780e-01
81,-4.939339828220e-01,2.474544155877e+00,0.000000000000e+00
82,1.500000000000e-01,4.964000000000e+00,0.000000000000e+00
83,7.060660171780e-01,7.474544155877e+00,0.000000000000e+00
84,4.939339828220e-01,2.474544155877e+00,0.000000000000e+00
85,-1.500000000000e-01,4.964000000000e+00,0.000000000000e+00
86,-7.060660171780e-01,7.474544155877e+00,0.000000000000e+00
87,-4.939339828220e-01,2.474544155877e+00,2.000000000000e+00
88,1.500000000000e-01,4.964000000000e+00,2.000000000000e+00
89,7.060660171780e-01,7.474544155877e+00,2.000000000000e+00
90,4.939339828220e-01,2.474544155877e+00,2.000000000000e+00
91,-1.500000000000e-01,4.964000000000e+00,2.000000000000e+00
92,-7.060660171780e-01,7.474544155877e+00,2.000000000000e+00
93,-1.200000000000e+00,1.503000000000e+01,8.500000000000e-01
94,-1.200000000000e+00,1.503000000000e+01,1.150000000000e+00
95,1.200000000000e+00,1.503000000000e+01,8.500000000000e-01
96,1.200000000000e+00,1.503000000000e+01,1.150000000000e+00
97,1.500000000000e-01,1.496400000000e+01,0.000000000000e+00
98,-1.500000000000e-01,1.496400000000e+01,0.000000000000e+00
99,1.500000000000e-01,1.496400000000e+01,2.000000000000e+00
100,-1.500000000000e-01,1.496400000000e+01,2.000000000000e+00
101,-1.200000000000e+00,2.252121320344e+01,3.939339828220e-01
102,-1.200000000000e+00,2.503000000000e+01,8.500000000000e-01
103,-1.200000000000e+00,2.752121320344e+01,1.393933982822e+00
104,-1.200000000000e+00,2.252121320344e+01,1.606066017178e+00
105,-1.200000000000e+00,2.503000000000e+01,1.150000000000e+00
106,-1.200000000000e+00,2.752121320344e+01,6.060660171780e-01
107,1.200000000000e+00,2.252121320344e+01,3.939339828220e-01
108,1.200000000000e+00,2.503000000000e+01,8.500000000000e-01
109,1.200000000000e+00,2.752121320344e+01,1.393933982822e+00
110,1.200000000000e+00,2.252121320344e+01,1.606066017178e+00
111,1.200000000000e+00,2.503000000000e+01,1.150000000000e+00
112,1.200000000000e+00,2.752121320344e+01,6.060660171780e-01
113,-4.939339828220e-01,2.247454415588e+01,0.000000000000e+00
114,1.500000000000e-01,2.496400000000e+01,0.000000000000e+00
115,7.060660171780e-01,2.747454415588e+01,0.000000000000e+00
116,4.939339828220e-01,2.247454415588e+01,0.000000000000e+00
117,-1.500000000000e-01,2.496400000000e+01,0.000000000000e+00
118,-7.060660171780e-01,2.747454415588e+01,0.000000000000e+00
119,-4.939339828220e-01,2.247454415588e+01,2.000000000000e+00
120,1.500000000000e-01,2.496400000000e+01,2.000000000000e+00
121,7.060660171780e-01,2.747454415588e+01,2.000000000000e+00
122,4.939339828220e-01,2.247454415588e+01,2.000000000000e+00
123,-1.500000000000e-01,2.496400000000e+01,2.000000000000e+00
124,-7.060660171780e-01,2.747454415588e+01,2.000000000000e+00
125,-1.200000000000e+00,3.252121320344e+01,3.939339828220e-01
126,-1.200000000000e+00,3.503000000000e+01,8.500000000000e-01
127,-1.200000000000e+00,3.752121320344e+01,1.393933982822e+00
128,-1.200000000000e+00,3.252121320344e+01,1.606066017178e+00
129,-1.200000000000e+00,3.503000000000e+01,1.150000000000e+00
130,-1.200000000000e+00,3.752121320344e+01,6.060660171780e-01
131,1.200000000000e+00,3.252121320344e+01,3.939339828220e-01
132,1.200000000000e+00,3.503000000000e+01,8.500000000000e-01
133,1.200000000000e+00,3.752121320344e+01,1.393933982822e+00
134,1.200000000000e+00,3.252121320344e+01,1.606066017178e+00
135,1.200000000000e+00,3.503000000000e+01,1.150000000000e+00
136,1.200000000000e+00,3.752121320344e+01,6.060660171780e-01
137,-4.939339828220e-01,3.247454415588e+01,0.000000000000e+00
138,1.500000000000e-01,3.496400000000e+01,0.000000000000e+00
139,7.060660171780e-01,3.747454415588e+01,0.000000000000e+00
140,4.939339828220e-01,3.247454415588e+01,0.000000000000e+00
141,-1.500000000000e-01,3.496400000000e+01,0.000000000000e+00
142,-7.060660171780e-01,3.747454415588e+01,0.000000000000e+00
143,-4.939339828220e-01,3.247454415588e+01,2.000000000000e+00
144,1.500000000000e-01,3.496400000000e+01,2.000000000000e+00
145,7.060660171780e-01,3.747454415588e+01,2.000000000000e+00
146,4.939339828220e-01,3.247454415588e+01,2.000000000000e+00
147,-1.500000000000e-01,3.496400000000e+01,2.000000000000e+00
148,-7.060660171780e-01,3.747454415588e+01,2.000000000000e+00
149,-1.200000000000e+00,4.252121320344e+01,3.939339828220e-01
150,-1.200000000000e+00,4.503000000000e+01,8.500000000000e-01
151,-1.200000000000e+00,4.752121320344e+01,1.393933982822e+00
152,-1.200000000000e+00,4.252121320344e+01,1.606066017178e+00
153,-1.200000000000e+00,4.503000000000e+01,1.150000000000e+00
154,-1.200000000000e+00,4.752121320344e+01,6.060660171780e-01
155,1.200000000000e+00,4.252121320344e+01,3.939339828220e-01
156,1.200000000000e+00,4.503000000000e+01,8.500000000000e-01
157,1.200000000000e+00,4.752121320344e+01,1.393933982822e+00
158,1.200000000000e+00,4.252121320344e+01,1.606066017178e+00
159,1.200000000000e+00,4.503000000000e+01,1.150000000000e+00
160,1.200000000000e+00,4.752121320344e+01,6.060660171780e-01
161,-4.939339828220e-01,4.247454415588e+01,0.000000000000e+00
162,1.500000000000e-01,4.496400000000e+01,0.000000000000e+00
163,7.060660171780e-01,4.747454415588e+01,0.000000000000e+00
164,4.939339828220e-01,4.247454415588e+01,0.000000000000e+00
165,-1.500000000000e-01,4.496400000000e+01,0.000000000000e+00
166,-7.060660171780e-01,4.747454415588e+01,0.000000000000e+00
167,-4.939339828220e-01,4.247454415588e+01,2.000000000000e+00
168,1.500000000000e-01,4.496400000000e+01,2.000000000000e+00
169,7.060660171780e-01,4.747454415588e+01,2.000000000000e+00
170,4.939339828220e-01,4.247454415588e+01,2.000000000000e+00
171,-1.500000000000e-01,4.496400000000e+01,2.000000000000e+00
172,-7.060660171780e-01,4.747454415588e+01,2.000000000000e+00
*ELEMENT,TYPE=B31,ELSET=ALL
1,1,25
2,25,5
3,2,26
4,26,6
5,3,27
6,27,7
7,4,28
8,28,8
9,5,29
10,29,9
11,6,30
12,30,10
13,7,31
14,31,11
15,8,32
16,32,12
17,9,33
18,33,13
19,10,34
20,34,14
21,11,35
22,35,15
23,12,36
24,36,16
25,13,37
26,37,17
27,14,38
28,38,18
29,15,39
30,39,19
31,16,40
32,40,20
33,17,41
34,41,21
35,18,42
36,42,22
37,19,43
38,43,23
39,20,44
40,44,24
41,1,45
42,45,2
43,3,46
44,46,4
45,1,47
46,47,3
47,2,48
48,48,4
49,5,49
50,49,6
51,7,50
52,50,8
53,5,51
54,51,7
55,6,52
56,52,8
57,9,53
58,53,10
59,11,54
60,54,12
61,9,55
62,55,11
63,10,56
64,56,12
65,13,57
66,57,14
67,15,58
68,58,16
69,13,59
70,59,15
71,14,60
72,60,16
73,17,61
74,61,18
75,19,62
76,62,20
77,17,63
78,63,19
79,18,64
80,64,20
81,21,65
82,65,22
83,23,66
84,66,24
85,21,67
86,67,23
87,22,68
88,68,24
89,1,69
90,69,70
91,70,71
92,71,7
93,3,72
94,72,73
95,73,74
96,74,5
97,2,75
98,75,76
99,76,77
100,77,8
101,4,78
102,78,79
103,79,80
104,80,6
105,1,81
106,81,82
107,82,83
108,83,6
109,2,84
110,84,85
111,85,86
112,86,5
113,3,87
114,87,88
115,88,89
116,89,8
117,4,90
118,90,91
119,91,92
120,92,7
121,5,93
122,93,11
123,7,94
124,94,9
125,6,95
126,95,12
127,8,96
128,96,10
129,5,97
130,97,10
131,6,98
132,98,9
133,7,99
134,99,12
135,8,100
136,100,11
137,9,101
138,101,102
139,102,103
140,103,15
141,11,104
142,104,105
143,105,106
144,106,13
145,10,107
146,107,108
147,108,109
148,109,16
149,12,110
150,110,111
151,111,112
152,112,14
153,9,113
154,113,114
155,114,115
156,115,14
157,10,116
158,116,117
159,117,118
160,118,13
161,11,119
162,119,120
163,120,121
164,121,16
165,12,122
166,122,123
167,123,124
168,124,15
169,13,125
170,125,126
171,126,127
172,127,19
173,15,128
174,128,129
175,129,130
176,130,17
177,14,131
178,131,132
179,132,133
180,133,20
181,16,134
182,134,135
183,135,136
184,136,18
185,13,137
186,137,138
187,138,139
188,139,18
189,14,140
190,140,141
191,141,142
192,142,17
193,15,143
194,143,144
195,144,145
196,145,20
197,16,146
198,146,147
199,147,148
200,148,19
201,17,149
202,149,150
203,150,151
204,151,23
205,19,152
206,152,153
207,153,154
208,154,21
209,18,155
210,155,156
211,156,157
212,157,24
213,20,158
214,158,159
215,159,160
216,160,22
217,17,161
218,161,162
219,162,163
220,163,22
221,18,164
222,164,165
223,165,166
224,166,21
225,19,167
226,167,168
227,168,169
228,169,24
229,20,170
230,170,171
231,171,172
232,172,23
*NSET,NSET=NALL,GENERATE
1,172,1
*NSET,NSET=LEFT
1,2,3,4
*NSET,NSET=RIGHT
21,22,23,24
*MATERIAL,NAME=STEEL
*ELASTIC
2.100000000000e+11,0.300000000000
*BEAM SECTION,ELSET=ALL,MATERIAL=STEEL,SECTION=RECT
6.000000000000e-02,4.000000000000e-02
0.371390676354,0.557086014531,0.742781352708
*BOUNDARY
LEFT,1,6,0.0
*STEP
*STATIC
*BOUNDARY
21,1,1,5.000000000000e-03
21,2,2,0.0
21,3,3,-6.000000000000e-03
*BOUNDARY
22,1,1,5.000000000000e-03
22,2,2,0.0
22,3,3,6.000000000000e-03
*BOUNDARY
23,1,1,-5.000000000000e-03
23,2,2,0.0
23,3,3,-6.000000000000e-03
*BOUNDARY
24,1,1,-5.000000000000e-03
24,2,2,0.0
24,3,3,6.000000000000e-03
*NODE FILE,NSET=NALL
U
*NODE PRINT,NSET=NALL
U
*NODE PRINT,NSET=RIGHT
RF
*EL PRINT,ELSET=ALL,TOTALS=YES
ELSE
*END STEP
