*HEADING
Normalized cross-passage space-truss torsion benchmark
*NODE
1,-1.200000000000e+00,0.000000000000e+00,0.000000000000e+00
2,1.200000000000e+00,0.000000000000e+00,0.000000000000e+00
3,-1.200000000000e+00,0.000000000000e+00,2.000000000000e+00
4,1.200000000000e+00,0.000000000000e+00,2.000000000000e+00
5,-1.200000000000e+00,1.000000000000e+01,0.000000000000e+00
6,1.200000000000e+00,1.000000000000e+01,0.000000000000e+00
7,-1.200000000000e+00,1.000000000000e+01,2.000000000000e+00
8,1.200000000000e+00,1.000000000000e+01,2.000000000000e+00
9,-1.200000000000e+00,2.000000000000e+01,0.000000000000e+00
10,1.200000000000e+00,2.000000000000e+01,0.000000000000e+00
11,-1.200000000000e+00,2.000000000000e+01,2.000000000000e+00
12,1.200000000000e+00,2.000000000000e+01,2.000000000000e+00
13,-1.200000000000e+00,3.000000000000e+01,0.000000000000e+00
14,1.200000000000e+00,3.000000000000e+01,0.000000000000e+00
15,-1.200000000000e+00,3.000000000000e+01,2.000000000000e+00
16,1.200000000000e+00,3.000000000000e+01,2.000000000000e+00
17,-1.200000000000e+00,4.000000000000e+01,0.000000000000e+00
18,1.200000000000e+00,4.000000000000e+01,0.000000000000e+00
19,-1.200000000000e+00,4.000000000000e+01,2.000000000000e+00
20,1.200000000000e+00,4.000000000000e+01,2.000000000000e+00
21,-1.200000000000e+00,5.000000000000e+01,0.000000000000e+00
22,1.200000000000e+00,5.000000000000e+01,0.000000000000e+00
23,-1.200000000000e+00,5.000000000000e+01,2.000000000000e+00
24,1.200000000000e+00,5.000000000000e+01,2.000000000000e+00
25,-1.200000000000e+00,5.000000000000e+00,-1.500000000000e-01
26,1.200000000000e+00,5.000000000000e+00,1.500000000000e-01
27,-1.200000000000e+00,5.000000000000e+00,1.850000000000e+00
28,1.200000000000e+00,5.000000000000e+00,2.150000000000e+00
29,-1.200000000000e+00,1.500000000000e+01,-1.500000000000e-01
30,1.200000000000e+00,1.500000000000e+01,1.500000000000e-01
31,-1.200000000000e+00,1.500000000000e+01,1.850000000000e+00
32,1.200000000000e+00,1.500000000000e+01,2.150000000000e+00
33,-1.200000000000e+00,2.500000000000e+01,-1.500000000000e-01
34,1.200000000000e+00,2.500000000000e+01,1.500000000000e-01
35,-1.200000000000e+00,2.500000000000e+01,1.850000000000e+00
36,1.200000000000e+00,2.500000000000e+01,2.150000000000e+00
37,-1.200000000000e+00,3.500000000000e+01,-1.500000000000e-01
38,1.200000000000e+00,3.500000000000e+01,1.500000000000e-01
39,-1.200000000000e+00,3.500000000000e+01,1.850000000000e+00
40,1.200000000000e+00,3.500000000000e+01,2.150000000000e+00
41,-1.200000000000e+00,4.500000000000e+01,-1.500000000000e-01
42,1.200000000000e+00,4.500000000000e+01,1.500000000000e-01
43,-1.200000000000e+00,4.500000000000e+01,1.850000000000e+00
44,1.200000000000e+00,4.500000000000e+01,2.150000000000e+00
45,0.000000000000e+00,-3.600000000000e-02,0.000000000000e+00
46,0.000000000000e+00,3.600000000000e-02,2.000000000000e+00
47,-1.200000000000e+00,3.000000000000e-02,1.000000000000e+00
48,1.200000000000e+00,-3.000000000000e-02,1.000000000000e+00
49,0.000000000000e+00,9.964000000000e+00,0.000000000000e+00
50,0.000000000000e+00,1.003600000000e+01,2.000000000000e+00
51,-1.200000000000e+00,1.003000000000e+01,1.000000000000e+00
52,1.200000000000e+00,9.970000000000e+00,1.000000000000e+00
53,0.000000000000e+00,1.996400000000e+01,0.000000000000e+00
54,0.000000000000e+00,2.003600000000e+01,2.000000000000e+00
55,-1.200000000000e+00,2.003000000000e+01,1.000000000000e+00
56,1.200000000000e+00,1.997000000000e+01,1.000000000000e+00
57,-6.000000000000e-01,2.997454415588e+01,0.000000000000e+00
58,0.000000000000e+00,2.996400000000e+01,0.000000000000e+00
59,6.000000000000e-01,2.997454415588e+01,0.000000000000e+00
60,-6.000000000000e-01,3.002545584412e+01,2.000000000000e+00
61,0.000000000000e+00,3.003600000000e+01,2.000000000000e+00
62,6.000000000000e-01,3.002545584412e+01,2.000000000000e+00
63,-1.200000000000e+00,3.002121320344e+01,5.000000000000e-01
64,-1.200000000000e+00,3.003000000000e+01,1.000000000000e+00
65,-1.200000000000e+00,3.002121320344e+01,1.500000000000e+00
66,1.200000000000e+00,2.997878679656e+01,5.000000000000e-01
67,1.200000000000e+00,2.997000000000e+01,1.000000000000e+00
68,1.200000000000e+00,2.997878679656e+01,1.500000000000e+00
69,0.000000000000e+00,3.996400000000e+01,0.000000000000e+00
70,0.000000000000e+00,4.003600000000e+01,2.000000000000e+00
71,-1.200000000000e+00,4.003000000000e+01,1.000000000000e+00
72,1.200000000000e+00,3.997000000000e+01,1.000000000000e+00
73,0.000000000000e+00,4.996400000000e+01,0.000000000000e+00
74,0.000000000000e+00,5.003600000000e+01,2.000000000000e+00
75,-1.200000000000e+00,5.003000000000e+01,1.000000000000e+00
76,1.200000000000e+00,4.997000000000e+01,1.000000000000e+00
77,-1.200000000000e+00,5.030000000000e+00,8.500000000000e-01
78,-1.200000000000e+00,5.030000000000e+00,1.150000000000e+00
79,1.200000000000e+00,5.030000000000e+00,8.500000000000e-01
80,1.200000000000e+00,5.030000000000e+00,1.150000000000e+00
81,1.500000000000e-01,4.964000000000e+00,0.000000000000e+00
82,-1.500000000000e-01,4.964000000000e+00,0.000000000000e+00
83,1.500000000000e-01,4.964000000000e+00,2.000000000000e+00
84,-1.500000000000e-01,4.964000000000e+00,2.000000000000e+00
85,-1.200000000000e+00,1.503000000000e+01,8.500000000000e-01
86,-1.200000000000e+00,1.503000000000e+01,1.150000000000e+00
87,1.200000000000e+00,1.503000000000e+01,8.500000000000e-01
88,1.200000000000e+00,1.503000000000e+01,1.150000000000e+00
89,1.500000000000e-01,1.496400000000e+01,0.000000000000e+00
90,-1.500000000000e-01,1.496400000000e+01,0.000000000000e+00
91,1.500000000000e-01,1.496400000000e+01,2.000000000000e+00
92,-1.500000000000e-01,1.496400000000e+01,2.000000000000e+00
93,-1.200000000000e+00,2.503000000000e+01,8.500000000000e-01
94,-1.200000000000e+00,2.503000000000e+01,1.150000000000e+00
95,1.200000000000e+00,2.503000000000e+01,8.500000000000e-01
96,1.200000000000e+00,2.503000000000e+01,1.150000000000e+00
97,1.500000000000e-01,2.496400000000e+01,0.000000000000e+00
98,-1.500000000000e-01,2.496400000000e+01,0.000000000000e+00
99,1.500000000000e-01,2.496400000000e+01,2.000000000000e+00
100,-1.500000000000e-01,2.496400000000e+01,2.000000000000e+00
101,-1.200000000000e+00,3.126148050297e+01,1.925974851452e-01
102,-1.200000000000e+00,3.252121320344e+01,3.939339828220e-01
103,-1.200000000000e+00,3.377771638598e+01,6.114180701233e-01
104,-1.200000000000e+00,3.503000000000e+01,8.500000000000e-01
105,-1.200000000000e+00,3.627771638598e+01,1.111418070123e+00
106,-1.200000000000e+00,3.752121320344e+01,1.393933982822e+00
107,-1.200000000000e+00,3.876148050297e+01,1.692597485145e+00
108,-1.200000000000e+00,3.126148050297e+01,1.807402514855e+00
109,-1.200000000000e+00,3.252121320344e+01,1.606066017178e+00
110,-1.200000000000e+00,3.377771638598e+01,1.388581929877e+00
111,-1.200000000000e+00,3.503000000000e+01,1.150000000000e+00
112,-1.200000000000e+00,3.627771638598e+01,8.885819298767e-01
113,-1.200000000000e+00,3.752121320344e+01,6.060660171780e-01
114,-1.200000000000e+00,3.876148050297e+01,3.074025148548e-01
115,1.200000000000e+00,3.126148050297e+01,1.925974851452e-01
116,1.200000000000e+00,3.252121320344e+01,3.939339828220e-01
117,1.200000000000e+00,3.377771638598e+01,6.114180701233e-01
118,1.200000000000e+00,3.503000000000e+01,8.500000000000e-01
119,1.200000000000e+00,3.627771638598e+01,1.111418070123e+00
120,1.200000000000e+00,3.752121320344e+01,1.393933982822e+00
121,1.200000000000e+00,3.876148050297e+01,1.692597485145e+00
122,1.200000000000e+00,3.126148050297e+01,1.807402514855e+00
123,1.200000000000e+00,3.252121320344e+01,1.606066017178e+00
124,1.200000000000e+00,3.377771638598e+01,1.388581929877e+00
125,1.200000000000e+00,3.503000000000e+01,1.150000000000e+00
126,1.200000000000e+00,3.627771638598e+01,8.885819298767e-01
127,1.200000000000e+00,3.752121320344e+01,6.060660171780e-01
128,1.200000000000e+00,3.876148050297e+01,3.074025148548e-01
129,-8.425974851452e-01,3.123622339643e+01,0.000000000000e+00
130,-4.939339828220e-01,3.247454415588e+01,0.000000000000e+00
131,-1.614180701233e-01,3.371674033683e+01,0.000000000000e+00
132,1.500000000000e-01,3.496400000000e+01,0.000000000000e+00
133,4.385819298767e-01,3.621674033683e+01,0.000000000000e+00
134,7.060660171780e-01,3.747454415588e+01,0.000000000000e+00
135,9.574025148548e-01,3.873622339643e+01,0.000000000000e+00
136,8.425974851452e-01,3.123622339643e+01,0.000000000000e+00
137,4.939339828220e-01,3.247454415588e+01,0.000000000000e+00
138,1.614180701233e-01,3.371674033683e+01,0.000000000000e+00
139,-1.500000000000e-01,3.496400000000e+01,0.000000000000e+00
140,-4.385819298767e-01,3.621674033683e+01,0.000000000000e+00
141,-7.060660171780e-01,3.747454415588e+01,0.000000000000e+00
142,-9.574025148548e-01,3.873622339643e+01,0.000000000000e+00
143,-8.425974851452e-01,3.123622339643e+01,2.000000000000e+00
144,-4.939339828220e-01,3.247454415588e+01,2.000000000000e+00
145,-1.614180701233e-01,3.371674033683e+01,2.000000000000e+00
146,1.500000000000e-01,3.496400000000e+01,2.000000000000e+00
147,4.385819298767e-01,3.621674033683e+01,2.000000000000e+00
148,7.060660171780e-01,3.747454415588e+01,2.000000000000e+00
149,9.574025148548e-01,3.873622339643e+01,2.000000000000e+00
150,8.425974851452e-01,3.123622339643e+01,2.000000000000e+00
151,4.939339828220e-01,3.247454415588e+01,2.000000000000e+00
152,1.614180701233e-01,3.371674033683e+01,2.000000000000e+00
153,-1.500000000000e-01,3.496400000000e+01,2.000000000000e+00
154,-4.385819298767e-01,3.621674033683e+01,2.000000000000e+00
155,-7.060660171780e-01,3.747454415588e+01,2.000000000000e+00
156,-9.574025148548e-01,3.873622339643e+01,2.000000000000e+00
157,-1.200000000000e+00,4.252121320344e+01,3.939339828220e-01
158,-1.200000000000e+00,4.503000000000e+01,8.500000000000e-01
159,-1.200000000000e+00,4.752121320344e+01,1.393933982822e+00
160,-1.200000000000e+00,4.252121320344e+01,1.606066017178e+00
161,-1.200000000000e+00,4.503000000000e+01,1.150000000000e+00
162,-1.200000000000e+00,4.752121320344e+01,6.060660171780e-01
163,1.200000000000e+00,4.252121320344e+01,3.939339828220e-01
164,1.200000000000e+00,4.503000000000e+01,8.500000000000e-01
165,1.200000000000e+00,4.752121320344e+01,1.393933982822e+00
166,1.200000000000e+00,4.252121320344e+01,1.606066017178e+00
167,1.200000000000e+00,4.503000000000e+01,1.150000000000e+00
168,1.200000000000e+00,4.752121320344e+01,6.060660171780e-01
169,-4.939339828220e-01,4.247454415588e+01,0.000000000000e+00
170,1.500000000000e-01,4.496400000000e+01,0.000000000000e+00
171,7.060660171780e-01,4.747454415588e+01,0.000000000000e+00
172,4.939339828220e-01,4.247454415588e+01,0.000000000000e+00
173,-1.500000000000e-01,4.496400000000e+01,0.000000000000e+00
174,-7.060660171780e-01,4.747454415588e+01,0.000000000000e+00
175,-4.939339828220e-01,4.247454415588e+01,2.000000000000e+00
176,1.500000000000e-01,4.496400000000e+01,2.000000000000e+00
177,7.060660171780e-01,4.747454415588e+01,2.000000000000e+00
178,4.939339828220e-01,4.247454415588e+01,2.000000000000e+00
179,-1.500000000000e-01,4.496400000000e+01,2.000000000000e+00
180,-7.060660171780e-01,4.747454415588e+01,2.000000000000e+00
*ELEMENT,TYPE=B31,ELSET=ALL
1,1,25
2,25,5
3,2,26
4,26,6
5,3,27
6,27,7
7,4,28
8,28,8
9,5,29
10,29,9
11,6,30
12,30,10
13,7,31
14,31,11
15,8,32
16,32,12
17,9,33
18,33,13
19,10,34
20,34,14
21,11,35
22,35,15
23,12,36
24,36,16
25,13,37
26,37,17
27,14,38
28,38,18
29,15,39
30,39,19
31,16,40
32,40,20
33,17,41
34,41,21
35,18,42
36,42,22
37,19,43
38,43,23
39,20,44
40,44,24
41,1,45
42,45,2
43,3,46
44,46,4
45,1,47
46,47,3
47,2,48
48,48,4
49,5,49
50,49,6
51,7,50
52,50,8
53,5,51
54,51,7
55,6,52
56,52,8
57,9,53
58,53,10
59,11,54
60,54,12
61,9,55
62,55,11
63,10,56
64,56,12
65,13,57
66,57,58
67,58,59
68,59,14
69,15,60
70,60,61
71,61,62
72,62,16
73,13,63
74,63,64
75,64,65
76,65,15
77,14,66
78,66,67
79,67,68
80,68,16
81,17,69
82,69,18
83,19,70
84,70,20
85,17,71
86,71,19
87,18,72
88,72,20
89,21,73
90,73,22
91,23,74
92,74,24
93,21,75
94,75,23
95,22,76
96,76,24
97,1,77
98,77,7
99,3,78
100,78,5
101,2,79
102,79,8
103,4,80
104,80,6
105,1,81
106,81,6
107,2,82
108,82,5
109,3,83
110,83,8
111,4,84
112,84,7
113,5,85
114,85,11
115,7,86
116,86,9
117,6,87
118,87,12
119,8,88
120,88,10
121,5,89
122,89,10
123,6,90
124,90,9
125,7,91
126,91,12
127,8,92
128,92,11
129,9,93
130,93,15
131,11,94
132,94,13
133,10,95
134,95,16
135,12,96
136,96,14
137,9,97
138,97,14
139,10,98
140,98,13
141,11,99
142,99,16
143,12,100
144,100,15
145,13,101
146,101,102
147,102,103
148,103,104
149,104,105
150,105,106
151,106,107
152,107,19
153,15,108
154,108,109
155,109,110
156,110,111
157,111,112
158,112,113
159,113,114
160,114,17
161,14,115
162,115,116
163,116,117
164,117,118
165,118,119
166,119,120
167,120,121
168,121,20
169,16,122
170,122,123
171,123,124
172,124,125
173,125,126
174,126,127
175,127,128
176,128,18
177,13,129
178,129,130
179,130,131
180,131,132
181,132,133
182,133,134
183,134,135
184,135,18
185,14,136
186,136,137
187,137,138
188,138,139
189,139,140
190,140,141
191,141,142
192,142,17
193,15,143
194,143,144
195,144,145
196,145,146
197,146,147
198,147,148
199,148,149
200,149,20
201,16,150
202,150,151
203,151,152
204,152,153
205,153,154
206,154,155
207,155,156
208,156,19
209,17,157
210,157,158
211,158,159
212,159,23
213,19,160
214,160,161
215,161,162
216,162,21
217,18,163
218,163,164
219,164,165
220,165,24
221,20,166
222,166,167
223,167,168
224,168,22
225,17,169
226,169,170
227,170,171
228,171,22
229,18,172
230,172,173
231,173,174
232,174,21
233,19,175
234,175,176
235,176,177
236,177,24
237,20,178
238,178,179
239,179,180
240,180,23
*NSET,NSET=NALL,GENERATE
1,180,1
*NSET,NSET=LEFT
1,2,3,4
*NSET,NSET=RIGHT
21,22,23,24
*MATERIAL,NAME=STEEL
*ELASTIC
2.100000000000e+11,0.300000000000
*BEAM SECTION,ELSET=ALL,MATERIAL=STEEL,SECTION=RECT
6.000000000000e-02,4.000000000000e-02
0.371390676354,0.557086014531,0.742781352708
*BOUNDARY
LEFT,1,6,0.0
*STEP
*STATIC
*BOUNDARY
21,1,1,5.000000000000e-03
21,2,2,0.0
21,3,3,-6.000000000000e-03
*BOUNDARY
22,1,1,5.000000000000e-03
22,2,2,0.0
22,3,3,6.000000000000e-03
*BOUNDARY
23,1,1,-5.000000000000e-03
23,2,2,0.0
23,3,3,-6.000000000000e-03
*BOUNDARY
24,1,1,-5.000000000000e-03
24,2,2,0.0
24,3,3,6.000000000000e-03
*NODE FILE,NSET=NALL
U
*NODE PRINT,NSET=NALL
U
*NODE PRINT,NSET=RIGHT
RF
*EL PRINT,ELSET=ALL,TOTALS=YES
ELSE
*END STEP
