*HEADING
T01 D-NLG t01_d-nlg_rev1 conforming C3D8 frozen T
units: mm, N, s, MPa, t. Illustrative steel, not a coupon card.
beam=T01 case=D-NLG job=t01_d-nlg_rev1 type=C3D8
E=210000.0 nu=0.3 fy=235.0 load=-30000.0 N on TIP_TOP
*NODE, NSET=NALL
1, 0, -10, 0
2, 78.2918108394, -10, 4.69750865036
3, 78.2918108394, 0, 4.69750865036
4, 0, 0, 0
5, 0, -10, 40
6, 78.2918108394, -10, 43.7580069203
7, 78.2918108394, 0, 43.7580069203
8, 0, 0, 40
9, 0, -10, 80
10, 78.2918108394, -10, 82.8185051902
11, 78.2918108394, 0, 82.8185051902
12, 0, 0, 80
13, 0, -10, 120
14, 78.2918108394, -10, 121.87900346
15, 78.2918108394, 0, 121.87900346
16, 0, 0, 120
17, 0, -10, 160
18, 78.2918108394, -10, 160.93950173
19, 78.2918108394, 0, 160.93950173
20, 0, 0, 160
21, 0, -10, 200
22, 78.2918108394, -10, 200
23, 78.2918108394, 0, 200
24, 0, 0, 200
25, 78.2918108394, 10, 4.69750865036
26, 0, 10, 0
27, 78.2918108394, 10, 43.7580069203
28, 0, 10, 40
29, 78.2918108394, 10, 82.8185051902
30, 0, 10, 80
31, 78.2918108394, 10, 121.87900346
32, 0, 10, 120
33, 78.2918108394, 10, 160.93950173
34, 0, 10, 160
35, 78.2918108394, 10, 200
36, 0, 10, 200
37, 0, -120, 200
38, 78.2918108394, -120, 200
39, 78.2918108394, -92.5, 200
40, 0, -92.5, 200
41, 0, -120, 210
42, 78.2918108394, -120, 210
43, 78.2918108394, -92.5, 210
44, 0, -92.5, 210
45, 0, -120, 220
46, 78.2918108394, -120, 220
47, 78.2918108394, -92.5, 220
48, 0, -92.5, 220
49, 78.2918108394, -65, 200
50, 0, -65, 200
51, 78.2918108394, -65, 210
52, 0, -65, 210
53, 78.2918108394, -65, 220
54, 0, -65, 220
55, 78.2918108394, -37.5, 200
56, 0, -37.5, 200
57, 78.2918108394, -37.5, 210
58, 0, -37.5, 210
59, 78.2918108394, -37.5, 220
60, 0, -37.5, 220
61, 78.2918108394, -10, 210
62, 0, -10, 210
63, 78.2918108394, -10, 220
64, 0, -10, 220
65, 78.2918108394, 0, 210
66, 0, 0, 210
67, 78.2918108394, 0, 220
68, 0, 0, 220
69, 78.2918108394, 10, 210
70, 0, 10, 210
71, 78.2918108394, 10, 220
72, 0, 10, 220
73, 78.2918108394, 37.5, 200
74, 0, 37.5, 200
75, 78.2918108394, 37.5, 210
76, 0, 37.5, 210
77, 78.2918108394, 37.5, 220
78, 0, 37.5, 220
79, 78.2918108394, 65, 200
80, 0, 65, 200
81, 78.2918108394, 65, 210
82, 0, 65, 210
83, 78.2918108394, 65, 220
84, 0, 65, 220
85, 78.2918108394, 92.5, 200
86, 0, 92.5, 200
87, 78.2918108394, 92.5, 210
88, 0, 92.5, 210
89, 78.2918108394, 92.5, 220
90, 0, 92.5, 220
91, 78.2918108394, 120, 200
92, 0, 120, 200
93, 78.2918108394, 120, 210
94, 0, 120, 210
95, 78.2918108394, 120, 220
96, 0, 120, 220
97, 148.913362784, -10, 8.93480176705
98, 148.913362784, 0, 8.93480176705
99, 148.913362784, -10, 47.1478414136
100, 148.913362784, 0, 47.1478414136
101, 148.913362784, -10, 85.3608810602
102, 148.913362784, 0, 85.3608810602
103, 148.913362784, -10, 123.573920707
104, 148.913362784, 0, 123.573920707
105, 148.913362784, -10, 161.786960353
106, 148.913362784, 0, 161.786960353
107, 148.913362784, -10, 200
108, 148.913362784, 0, 200
109, 148.913362784, 10, 8.93480176705
110, 148.913362784, 10, 47.1478414136
111, 148.913362784, 10, 85.3608810602
112, 148.913362784, 10, 123.573920707
113, 148.913362784, 10, 161.786960353
114, 148.913362784, 10, 200
115, 148.913362784, -120, 200
116, 148.913362784, -92.5, 200
117, 148.913362784, -120, 210
118, 148.913362784, -92.5, 210
119, 148.913362784, -120, 220
120, 148.913362784, -92.5, 220
121, 148.913362784, -65, 200
122, 148.913362784, -65, 210
123, 148.913362784, -65, 220
124, 148.913362784, -37.5, 200
125, 148.913362784, -37.5, 210
126, 148.913362784, -37.5, 220
127, 148.913362784, -10, 210
128, 148.913362784, -10, 220
129, 148.913362784, 0, 210
130, 148.913362784, 0, 220
131, 148.913362784, 10, 210
132, 148.913362784, 10, 220
133, 148.913362784, 37.5, 200
134, 148.913362784, 37.5, 210
135, 148.913362784, 37.5, 220
136, 148.913362784, 65, 200
137, 148.913362784, 65, 210
138, 148.913362784, 65, 220
139, 148.913362784, 92.5, 200
140, 148.913362784, 92.5, 210
141, 148.913362784, 92.5, 220
142, 148.913362784, 120, 200
143, 148.913362784, 120, 210
144, 148.913362784, 120, 220
145, 228.561525299, -10, 13.7136915179
146, 228.561525299, 0, 13.7136915179
147, 228.561525299, -10, 50.9709532143
148, 228.561525299, 0, 50.9709532143
149, 228.561525299, -10, 88.2282149107
150, 228.561525299, 0, 88.2282149107
151, 228.561525299, -10, 125.485476607
152, 228.561525299, 0, 125.485476607
153, 228.561525299, -10, 162.742738304
154, 228.561525299, 0, 162.742738304
155, 228.561525299, -10, 200
156, 228.561525299, 0, 200
157, 228.561525299, 10, 13.7136915179
158, 228.561525299, 10, 50.9709532143
159, 228.561525299, 10, 88.2282149107
160, 228.561525299, 10, 125.485476607
161, 228.561525299, 10, 162.742738304
162, 228.561525299, 10, 200
163, 228.561525299, -120, 200
164, 228.561525299, -92.5, 200
165, 228.561525299, -120, 210
166, 228.561525299, -92.5, 210
167, 228.561525299, -120, 220
168, 228.561525299, -92.5, 220
169, 228.561525299, -65, 200
170, 228.561525299, -65, 210
171, 228.561525299, -65, 220
172, 228.561525299, -37.5, 200
173, 228.561525299, -37.5, 210
174, 228.561525299, -37.5, 220
175, 228.561525299, -10, 210
176, 228.561525299, -10, 220
177, 228.561525299, 0, 210
178, 228.561525299, 0, 220
179, 228.561525299, 10, 210
180, 228.561525299, 10, 220
181, 228.561525299, 37.5, 200
182, 228.561525299, 37.5, 210
183, 228.561525299, 37.5, 220
184, 228.561525299, 65, 200
185, 228.561525299, 65, 210
186, 228.561525299, 65, 220
187, 228.561525299, 92.5, 200
188, 228.561525299, 92.5, 210
189, 228.561525299, 92.5, 220
190, 228.561525299, 120, 200
191, 228.561525299, 120, 210
192, 228.561525299, 120, 220
193, 306.753805609, -10, 18.4052283365
194, 306.753805609, 0, 18.4052283365
195, 306.753805609, -10, 54.7241826692
196, 306.753805609, 0, 54.7241826692
197, 306.753805609, -10, 91.0431370019
198, 306.753805609, 0, 91.0431370019
199, 306.753805609, -10, 127.362091335
200, 306.753805609, 0, 127.362091335
201, 306.753805609, -10, 163.681045667
202, 306.753805609, 0, 163.681045667
203, 306.753805609, -10, 200
204, 306.753805609, 0, 200
205, 306.753805609, 10, 18.4052283365
206, 306.753805609, 10, 54.7241826692
207, 306.753805609, 10, 91.0431370019
208, 306.753805609, 10, 127.362091335
209, 306.753805609, 10, 163.681045667
210, 306.753805609, 10, 200
211, 306.753805609, -120, 200
212, 306.753805609, -92.5, 200
213, 306.753805609, -120, 210
214, 306.753805609, -92.5, 210
215, 306.753805609, -120, 220
216, 306.753805609, -92.5, 220
217, 306.753805609, -65, 200
218, 306.753805609, -65, 210
219, 306.753805609, -65, 220
220, 306.753805609, -37.5, 200
221, 306.753805609, -37.5, 210
222, 306.753805609, -37.5, 220
223, 306.753805609, -10, 210
224, 306.753805609, -10, 220
225, 306.753805609, 0, 210
226, 306.753805609, 0, 220
227, 306.753805609, 10, 210
228, 306.753805609, 10, 220
229, 306.753805609, 37.5, 200
230, 306.753805609, 37.5, 210
231, 306.753805609, 37.5, 220
232, 306.753805609, 65, 200
233, 306.753805609, 65, 210
234, 306.753805609, 65, 220
235, 306.753805609, 92.5, 200
236, 306.753805609, 92.5, 210
237, 306.753805609, 92.5, 220
238, 306.753805609, 120, 200
239, 306.753805609, 120, 210
240, 306.753805609, 120, 220
241, 383.542705302, -10, 23.0125623181
242, 383.542705302, 0, 23.0125623181
243, 383.542705302, -10, 58.4100498545
244, 383.542705302, 0, 58.4100498545
245, 383.542705302, -10, 93.8075373909
246, 383.542705302, 0, 93.8075373909
247, 383.542705302, -10, 129.205024927
248, 383.542705302, 0, 129.205024927
249, 383.542705302, -10, 164.602512464
250, 383.542705302, 0, 164.602512464
251, 383.542705302, -10, 200
252, 383.542705302, 0, 200
253, 383.542705302, 10, 23.0125623181
254, 383.542705302, 10, 58.4100498545
255, 383.542705302, 10, 93.8075373909
256, 383.542705302, 10, 129.205024927
257, 383.542705302, 10, 164.602512464
258, 383.542705302, 10, 200
259, 383.542705302, -120, 200
260, 383.542705302, -92.5, 200
261, 383.542705302, -120, 210
262, 383.542705302, -92.5, 210
263, 383.542705302, -120, 220
264, 383.542705302, -92.5, 220
265, 383.542705302, -65, 200
266, 383.542705302, -65, 210
267, 383.542705302, -65, 220
268, 383.542705302, -37.5, 200
269, 383.542705302, -37.5, 210
270, 383.542705302, -37.5, 220
271, 383.542705302, -10, 210
272, 383.542705302, -10, 220
273, 383.542705302, 0, 210
274, 383.542705302, 0, 220
275, 383.542705302, 10, 210
276, 383.542705302, 10, 220
277, 383.542705302, 37.5, 200
278, 383.542705302, 37.5, 210
279, 383.542705302, 37.5, 220
280, 383.542705302, 65, 200
281, 383.542705302, 65, 210
282, 383.542705302, 65, 220
283, 383.542705302, 92.5, 200
284, 383.542705302, 92.5, 210
285, 383.542705302, 92.5, 220
286, 383.542705302, 120, 200
287, 383.542705302, 120, 210
288, 383.542705302, 120, 220
289, 458.977928218, -10, 27.5386756931
290, 458.977928218, 0, 27.5386756931
291, 458.977928218, -10, 62.0309405545
292, 458.977928218, 0, 62.0309405545
293, 458.977928218, -10, 96.5232054158
294, 458.977928218, 0, 96.5232054158
295, 458.977928218, -10, 131.015470277
296, 458.977928218, 0, 131.015470277
297, 458.977928218, -10, 165.507735139
298, 458.977928218, 0, 165.507735139
299, 458.977928218, -10, 200
300, 458.977928218, 0, 200
301, 458.977928218, 10, 27.5386756931
302, 458.977928218, 10, 62.0309405545
303, 458.977928218, 10, 96.5232054158
304, 458.977928218, 10, 131.015470277
305, 458.977928218, 10, 165.507735139
306, 458.977928218, 10, 200
307, 458.977928218, -120, 200
308, 458.977928218, -92.5, 200
309, 458.977928218, -120, 210
310, 458.977928218, -92.5, 210
311, 458.977928218, -120, 220
312, 458.977928218, -92.5, 220
313, 458.977928218, -65, 200
314, 458.977928218, -65, 210
315, 458.977928218, -65, 220
316, 458.977928218, -37.5, 200
317, 458.977928218, -37.5, 210
318, 458.977928218, -37.5, 220
319, 458.977928218, -10, 210
320, 458.977928218, -10, 220
321, 458.977928218, 0, 210
322, 458.977928218, 0, 220
323, 458.977928218, 10, 210
324, 458.977928218, 10, 220
325, 458.977928218, 37.5, 200
326, 458.977928218, 37.5, 210
327, 458.977928218, 37.5, 220
328, 458.977928218, 65, 200
329, 458.977928218, 65, 210
330, 458.977928218, 65, 220
331, 458.977928218, 92.5, 200
332, 458.977928218, 92.5, 210
333, 458.977928218, 92.5, 220
334, 458.977928218, 120, 200
335, 458.977928218, 120, 210
336, 458.977928218, 120, 220
337, 533.106576179, -10, 31.9863945708
338, 533.106576179, 0, 31.9863945708
339, 533.106576179, -10, 65.5891156566
340, 533.106576179, 0, 65.5891156566
341, 533.106576179, -10, 99.1918367425
342, 533.106576179, 0, 99.1918367425
343, 533.106576179, -10, 132.794557828
344, 533.106576179, 0, 132.794557828
345, 533.106576179, -10, 166.397278914
346, 533.106576179, 0, 166.397278914
347, 533.106576179, -10, 200
348, 533.106576179, 0, 200
349, 533.106576179, 10, 31.9863945708
350, 533.106576179, 10, 65.5891156566
351, 533.106576179, 10, 99.1918367425
352, 533.106576179, 10, 132.794557828
353, 533.106576179, 10, 166.397278914
354, 533.106576179, 10, 200
355, 533.106576179, -120, 200
356, 533.106576179, -92.5, 200
357, 533.106576179, -120, 210
358, 533.106576179, -92.5, 210
359, 533.106576179, -120, 220
360, 533.106576179, -92.5, 220
361, 533.106576179, -65, 200
362, 533.106576179, -65, 210
363, 533.106576179, -65, 220
364, 533.106576179, -37.5, 200
365, 533.106576179, -37.5, 210
366, 533.106576179, -37.5, 220
367, 533.106576179, -10, 210
368, 533.106576179, -10, 220
369, 533.106576179, 0, 210
370, 533.106576179, 0, 220
371, 533.106576179, 10, 210
372, 533.106576179, 10, 220
373, 533.106576179, 37.5, 200
374, 533.106576179, 37.5, 210
375, 533.106576179, 37.5, 220
376, 533.106576179, 65, 200
377, 533.106576179, 65, 210
378, 533.106576179, 65, 220
379, 533.106576179, 92.5, 200
380, 533.106576179, 92.5, 210
381, 533.106576179, 92.5, 220
382, 533.106576179, 120, 200
383, 533.106576179, 120, 210
384, 533.106576179, 120, 220
385, 605.973327872, -10, 36.3583996723
386, 605.973327872, 0, 36.3583996723
387, 605.973327872, -10, 69.0867197379
388, 605.973327872, 0, 69.0867197379
389, 605.973327872, -10, 101.815039803
390, 605.973327872, 0, 101.815039803
391, 605.973327872, -10, 134.543359869
392, 605.973327872, 0, 134.543359869
393, 605.973327872, -10, 167.271679934
394, 605.973327872, 0, 167.271679934
395, 605.973327872, -10, 200
396, 605.973327872, 0, 200
397, 605.973327872, 10, 36.3583996723
398, 605.973327872, 10, 69.0867197379
399, 605.973327872, 10, 101.815039803
400, 605.973327872, 10, 134.543359869
401, 605.973327872, 10, 167.271679934
402, 605.973327872, 10, 200
403, 605.973327872, -120, 200
404, 605.973327872, -92.5, 200
405, 605.973327872, -120, 210
406, 605.973327872, -92.5, 210
407, 605.973327872, -120, 220
408, 605.973327872, -92.5, 220
409, 605.973327872, -65, 200
410, 605.973327872, -65, 210
411, 605.973327872, -65, 220
412, 605.973327872, -37.5, 200
413, 605.973327872, -37.5, 210
414, 605.973327872, -37.5, 220
415, 605.973327872, -10, 210
416, 605.973327872, -10, 220
417, 605.973327872, 0, 210
418, 605.973327872, 0, 220
419, 605.973327872, 10, 210
420, 605.973327872, 10, 220
421, 605.973327872, 37.5, 200
422, 605.973327872, 37.5, 210
423, 605.973327872, 37.5, 220
424, 605.973327872, 65, 200
425, 605.973327872, 65, 210
426, 605.973327872, 65, 220
427, 605.973327872, 92.5, 200
428, 605.973327872, 92.5, 210
429, 605.973327872, 92.5, 220
430, 605.973327872, 120, 200
431, 605.973327872, 120, 210
432, 605.973327872, 120, 220
433, 677.62060259, -10, 40.6572361554
434, 677.62060259, 0, 40.6572361554
435, 677.62060259, -10, 72.5257889243
436, 677.62060259, 0, 72.5257889243
437, 677.62060259, -10, 104.394341693
438, 677.62060259, 0, 104.394341693
439, 677.62060259, -10, 136.262894462
440, 677.62060259, 0, 136.262894462
441, 677.62060259, -10, 168.131447231
442, 677.62060259, 0, 168.131447231
443, 677.62060259, -10, 200
444, 677.62060259, 0, 200
445, 677.62060259, 10, 40.6572361554
446, 677.62060259, 10, 72.5257889243
447, 677.62060259, 10, 104.394341693
448, 677.62060259, 10, 136.262894462
449, 677.62060259, 10, 168.131447231
450, 677.62060259, 10, 200
451, 677.62060259, -120, 200
452, 677.62060259, -92.5, 200
453, 677.62060259, -120, 210
454, 677.62060259, -92.5, 210
455, 677.62060259, -120, 220
456, 677.62060259, -92.5, 220
457, 677.62060259, -65, 200
458, 677.62060259, -65, 210
459, 677.62060259, -65, 220
460, 677.62060259, -37.5, 200
461, 677.62060259, -37.5, 210
462, 677.62060259, -37.5, 220
463, 677.62060259, -10, 210
464, 677.62060259, -10, 220
465, 677.62060259, 0, 210
466, 677.62060259, 0, 220
467, 677.62060259, 10, 210
468, 677.62060259, 10, 220
469, 677.62060259, 37.5, 200
470, 677.62060259, 37.5, 210
471, 677.62060259, 37.5, 220
472, 677.62060259, 65, 200
473, 677.62060259, 65, 210
474, 677.62060259, 65, 220
475, 677.62060259, 92.5, 200
476, 677.62060259, 92.5, 210
477, 677.62060259, 92.5, 220
478, 677.62060259, 120, 200
479, 677.62060259, 120, 210
480, 677.62060259, 120, 220
481, 748.088710353, -10, 44.8853226212
482, 748.088710353, 0, 44.8853226212
483, 748.088710353, -10, 75.9082580969
484, 748.088710353, 0, 75.9082580969
485, 748.088710353, -10, 106.931193573
486, 748.088710353, 0, 106.931193573
487, 748.088710353, -10, 137.954129048
488, 748.088710353, 0, 137.954129048
489, 748.088710353, -10, 168.977064524
490, 748.088710353, 0, 168.977064524
491, 748.088710353, -10, 200
492, 748.088710353, 0, 200
493, 748.088710353, 10, 44.8853226212
494, 748.088710353, 10, 75.9082580969
495, 748.088710353, 10, 106.931193573
496, 748.088710353, 10, 137.954129048
497, 748.088710353, 10, 168.977064524
498, 748.088710353, 10, 200
499, 748.088710353, -120, 200
500, 748.088710353, -92.5, 200
501, 748.088710353, -120, 210
502, 748.088710353, -92.5, 210
503, 748.088710353, -120, 220
504, 748.088710353, -92.5, 220
505, 748.088710353, -65, 200
506, 748.088710353, -65, 210
507, 748.088710353, -65, 220
508, 748.088710353, -37.5, 200
509, 748.088710353, -37.5, 210
510, 748.088710353, -37.5, 220
511, 748.088710353, -10, 210
512, 748.088710353, -10, 220
513, 748.088710353, 0, 210
514, 748.088710353, 0, 220
515, 748.088710353, 10, 210
516, 748.088710353, 10, 220
517, 748.088710353, 37.5, 200
518, 748.088710353, 37.5, 210
519, 748.088710353, 37.5, 220
520, 748.088710353, 65, 200
521, 748.088710353, 65, 210
522, 748.088710353, 65, 220
523, 748.088710353, 92.5, 200
524, 748.088710353, 92.5, 210
525, 748.088710353, 92.5, 220
526, 748.088710353, 120, 200
527, 748.088710353, 120, 210
528, 748.088710353, 120, 220
529, 817.415989746, -10, 49.0449593848
530, 817.415989746, 0, 49.0449593848
531, 817.415989746, -10, 79.2359675078
532, 817.415989746, 0, 79.2359675078
533, 817.415989746, -10, 109.426975631
534, 817.415989746, 0, 109.426975631
535, 817.415989746, -10, 139.617983754
536, 817.415989746, 0, 139.617983754
537, 817.415989746, -10, 169.808991877
538, 817.415989746, 0, 169.808991877
539, 817.415989746, -10, 200
540, 817.415989746, 0, 200
541, 817.415989746, 10, 49.0449593848
542, 817.415989746, 10, 79.2359675078
543, 817.415989746, 10, 109.426975631
544, 817.415989746, 10, 139.617983754
545, 817.415989746, 10, 169.808991877
546, 817.415989746, 10, 200
547, 817.415989746, -120, 200
548, 817.415989746, -92.5, 200
549, 817.415989746, -120, 210
550, 817.415989746, -92.5, 210
551, 817.415989746, -120, 220
552, 817.415989746, -92.5, 220
553, 817.415989746, -65, 200
554, 817.415989746, -65, 210
555, 817.415989746, -65, 220
556, 817.415989746, -37.5, 200
557, 817.415989746, -37.5, 210
558, 817.415989746, -37.5, 220
559, 817.415989746, -10, 210
560, 817.415989746, -10, 220
561, 817.415989746, 0, 210
562, 817.415989746, 0, 220
563, 817.415989746, 10, 210
564, 817.415989746, 10, 220
565, 817.415989746, 37.5, 200
566, 817.415989746, 37.5, 210
567, 817.415989746, 37.5, 220
568, 817.415989746, 65, 200
569, 817.415989746, 65, 210
570, 817.415989746, 65, 220
571, 817.415989746, 92.5, 200
572, 817.415989746, 92.5, 210
573, 817.415989746, 92.5, 220
574, 817.415989746, 120, 200
575, 817.415989746, 120, 210
576, 817.415989746, 120, 220
577, 885.638934661, -10, 53.1383360797
578, 885.638934661, 0, 53.1383360797
579, 885.638934661, -10, 82.5106688637
580, 885.638934661, 0, 82.5106688637
581, 885.638934661, -10, 111.883001648
582, 885.638934661, 0, 111.883001648
583, 885.638934661, -10, 141.255334432
584, 885.638934661, 0, 141.255334432
585, 885.638934661, -10, 170.627667216
586, 885.638934661, 0, 170.627667216
587, 885.638934661, -10, 200
588, 885.638934661, 0, 200
589, 885.638934661, 10, 53.1383360797
590, 885.638934661, 10, 82.5106688637
591, 885.638934661, 10, 111.883001648
592, 885.638934661, 10, 141.255334432
593, 885.638934661, 10, 170.627667216
594, 885.638934661, 10, 200
595, 885.638934661, -120, 200
596, 885.638934661, -92.5, 200
597, 885.638934661, -120, 210
598, 885.638934661, -92.5, 210
599, 885.638934661, -120, 220
600, 885.638934661, -92.5, 220
601, 885.638934661, -65, 200
602, 885.638934661, -65, 210
603, 885.638934661, -65, 220
604, 885.638934661, -37.5, 200
605, 885.638934661, -37.5, 210
606, 885.638934661, -37.5, 220
607, 885.638934661, -10, 210
608, 885.638934661, -10, 220
609, 885.638934661, 0, 210
610, 885.638934661, 0, 220
611, 885.638934661, 10, 210
612, 885.638934661, 10, 220
613, 885.638934661, 37.5, 200
614, 885.638934661, 37.5, 210
615, 885.638934661, 37.5, 220
616, 885.638934661, 65, 200
617, 885.638934661, 65, 210
618, 885.638934661, 65, 220
619, 885.638934661, 92.5, 200
620, 885.638934661, 92.5, 210
621, 885.638934661, 92.5, 220
622, 885.638934661, 120, 200
623, 885.638934661, 120, 210
624, 885.638934661, 120, 220
625, 952.792310996, -10, 57.1675386597
626, 952.792310996, 0, 57.1675386597
627, 952.792310996, -10, 85.7340309278
628, 952.792310996, 0, 85.7340309278
629, 952.792310996, -10, 114.300523196
630, 952.792310996, 0, 114.300523196
631, 952.792310996, -10, 142.867015464
632, 952.792310996, 0, 142.867015464
633, 952.792310996, -10, 171.433507732
634, 952.792310996, 0, 171.433507732
635, 952.792310996, -10, 200
636, 952.792310996, 0, 200
637, 952.792310996, 10, 57.1675386597
638, 952.792310996, 10, 85.7340309278
639, 952.792310996, 10, 114.300523196
640, 952.792310996, 10, 142.867015464
641, 952.792310996, 10, 171.433507732
642, 952.792310996, 10, 200
643, 952.792310996, -120, 200
644, 952.792310996, -92.5, 200
645, 952.792310996, -120, 210
646, 952.792310996, -92.5, 210
647, 952.792310996, -120, 220
648, 952.792310996, -92.5, 220
649, 952.792310996, -65, 200
650, 952.792310996, -65, 210
651, 952.792310996, -65, 220
652, 952.792310996, -37.5, 200
653, 952.792310996, -37.5, 210
654, 952.792310996, -37.5, 220
655, 952.792310996, -10, 210
656, 952.792310996, -10, 220
657, 952.792310996, 0, 210
658, 952.792310996, 0, 220
659, 952.792310996, 10, 210
660, 952.792310996, 10, 220
661, 952.792310996, 37.5, 200
662, 952.792310996, 37.5, 210
663, 952.792310996, 37.5, 220
664, 952.792310996, 65, 200
665, 952.792310996, 65, 210
666, 952.792310996, 65, 220
667, 952.792310996, 92.5, 200
668, 952.792310996, 92.5, 210
669, 952.792310996, 92.5, 220
670, 952.792310996, 120, 200
671, 952.792310996, 120, 210
672, 952.792310996, 120, 220
673, 1018.90926426, -10, 61.1345558556
674, 1018.90926426, 0, 61.1345558556
675, 1018.90926426, -10, 88.9076446845
676, 1018.90926426, 0, 88.9076446845
677, 1018.90926426, -10, 116.680733513
678, 1018.90926426, 0, 116.680733513
679, 1018.90926426, -10, 144.453822342
680, 1018.90926426, 0, 144.453822342
681, 1018.90926426, -10, 172.226911171
682, 1018.90926426, 0, 172.226911171
683, 1018.90926426, -10, 200
684, 1018.90926426, 0, 200
685, 1018.90926426, 10, 61.1345558556
686, 1018.90926426, 10, 88.9076446845
687, 1018.90926426, 10, 116.680733513
688, 1018.90926426, 10, 144.453822342
689, 1018.90926426, 10, 172.226911171
690, 1018.90926426, 10, 200
691, 1018.90926426, -120, 200
692, 1018.90926426, -92.5, 200
693, 1018.90926426, -120, 210
694, 1018.90926426, -92.5, 210
695, 1018.90926426, -120, 220
696, 1018.90926426, -92.5, 220
697, 1018.90926426, -65, 200
698, 1018.90926426, -65, 210
699, 1018.90926426, -65, 220
700, 1018.90926426, -37.5, 200
701, 1018.90926426, -37.5, 210
702, 1018.90926426, -37.5, 220
703, 1018.90926426, -10, 210
704, 1018.90926426, -10, 220
705, 1018.90926426, 0, 210
706, 1018.90926426, 0, 220
707, 1018.90926426, 10, 210
708, 1018.90926426, 10, 220
709, 1018.90926426, 37.5, 200
710, 1018.90926426, 37.5, 210
711, 1018.90926426, 37.5, 220
712, 1018.90926426, 65, 200
713, 1018.90926426, 65, 210
714, 1018.90926426, 65, 220
715, 1018.90926426, 92.5, 200
716, 1018.90926426, 92.5, 210
717, 1018.90926426, 92.5, 220
718, 1018.90926426, 120, 200
719, 1018.90926426, 120, 210
720, 1018.90926426, 120, 220
721, 1084.02141892, -10, 65.041285135
722, 1084.02141892, 0, 65.041285135
723, 1084.02141892, -10, 92.033028108
724, 1084.02141892, 0, 92.033028108
725, 1084.02141892, -10, 119.024771081
726, 1084.02141892, 0, 119.024771081
727, 1084.02141892, -10, 146.016514054
728, 1084.02141892, 0, 146.016514054
729, 1084.02141892, -10, 173.008257027
730, 1084.02141892, 0, 173.008257027
731, 1084.02141892, -10, 200
732, 1084.02141892, 0, 200
733, 1084.02141892, 10, 65.041285135
734, 1084.02141892, 10, 92.033028108
735, 1084.02141892, 10, 119.024771081
736, 1084.02141892, 10, 146.016514054
737, 1084.02141892, 10, 173.008257027
738, 1084.02141892, 10, 200
739, 1084.02141892, -120, 200
740, 1084.02141892, -92.5, 200
741, 1084.02141892, -120, 210
742, 1084.02141892, -92.5, 210
743, 1084.02141892, -120, 220
744, 1084.02141892, -92.5, 220
745, 1084.02141892, -65, 200
746, 1084.02141892, -65, 210
747, 1084.02141892, -65, 220
748, 1084.02141892, -37.5, 200
749, 1084.02141892, -37.5, 210
750, 1084.02141892, -37.5, 220
751, 1084.02141892, -10, 210
752, 1084.02141892, -10, 220
753, 1084.02141892, 0, 210
754, 1084.02141892, 0, 220
755, 1084.02141892, 10, 210
756, 1084.02141892, 10, 220
757, 1084.02141892, 37.5, 200
758, 1084.02141892, 37.5, 210
759, 1084.02141892, 37.5, 220
760, 1084.02141892, 65, 200
761, 1084.02141892, 65, 210
762, 1084.02141892, 65, 220
763, 1084.02141892, 92.5, 200
764, 1084.02141892, 92.5, 210
765, 1084.02141892, 92.5, 220
766, 1084.02141892, 120, 200
767, 1084.02141892, 120, 210
768, 1084.02141892, 120, 220
769, 1148.15897022, -10, 68.8895382131
770, 1148.15897022, 0, 68.8895382131
771, 1148.15897022, -10, 95.1116305705
772, 1148.15897022, 0, 95.1116305705
773, 1148.15897022, -10, 121.333722928
774, 1148.15897022, 0, 121.333722928
775, 1148.15897022, -10, 147.555815285
776, 1148.15897022, 0, 147.555815285
777, 1148.15897022, -10, 173.777907643
778, 1148.15897022, 0, 173.777907643
779, 1148.15897022, -10, 200
780, 1148.15897022, 0, 200
781, 1148.15897022, 10, 68.8895382131
782, 1148.15897022, 10, 95.1116305705
783, 1148.15897022, 10, 121.333722928
784, 1148.15897022, 10, 147.555815285
785, 1148.15897022, 10, 173.777907643
786, 1148.15897022, 10, 200
787, 1148.15897022, -120, 200
788, 1148.15897022, -92.5, 200
789, 1148.15897022, -120, 210
790, 1148.15897022, -92.5, 210
791, 1148.15897022, -120, 220
792, 1148.15897022, -92.5, 220
793, 1148.15897022, -65, 200
794, 1148.15897022, -65, 210
795, 1148.15897022, -65, 220
796, 1148.15897022, -37.5, 200
797, 1148.15897022, -37.5, 210
798, 1148.15897022, -37.5, 220
799, 1148.15897022, -10, 210
800, 1148.15897022, -10, 220
801, 1148.15897022, 0, 210
802, 1148.15897022, 0, 220
803, 1148.15897022, 10, 210
804, 1148.15897022, 10, 220
805, 1148.15897022, 37.5, 200
806, 1148.15897022, 37.5, 210
807, 1148.15897022, 37.5, 220
808, 1148.15897022, 65, 200
809, 1148.15897022, 65, 210
810, 1148.15897022, 65, 220
811, 1148.15897022, 92.5, 200
812, 1148.15897022, 92.5, 210
813, 1148.15897022, 92.5, 220
814, 1148.15897022, 120, 200
815, 1148.15897022, 120, 210
816, 1148.15897022, 120, 220
817, 1211.3507692, -10, 72.6810461522
818, 1211.3507692, 0, 72.6810461522
819, 1211.3507692, -10, 98.1448369217
820, 1211.3507692, 0, 98.1448369217
821, 1211.3507692, -10, 123.608627691
822, 1211.3507692, 0, 123.608627691
823, 1211.3507692, -10, 149.072418461
824, 1211.3507692, 0, 149.072418461
825, 1211.3507692, -10, 174.53620923
826, 1211.3507692, 0, 174.53620923
827, 1211.3507692, -10, 200
828, 1211.3507692, 0, 200
829, 1211.3507692, 10, 72.6810461522
830, 1211.3507692, 10, 98.1448369217
831, 1211.3507692, 10, 123.608627691
832, 1211.3507692, 10, 149.072418461
833, 1211.3507692, 10, 174.53620923
834, 1211.3507692, 10, 200
835, 1211.3507692, -120, 200
836, 1211.3507692, -92.5, 200
837, 1211.3507692, -120, 210
838, 1211.3507692, -92.5, 210
839, 1211.3507692, -120, 220
840, 1211.3507692, -92.5, 220
841, 1211.3507692, -65, 200
842, 1211.3507692, -65, 210
843, 1211.3507692, -65, 220
844, 1211.3507692, -37.5, 200
845, 1211.3507692, -37.5, 210
846, 1211.3507692, -37.5, 220
847, 1211.3507692, -10, 210
848, 1211.3507692, -10, 220
849, 1211.3507692, 0, 210
850, 1211.3507692, 0, 220
851, 1211.3507692, 10, 210
852, 1211.3507692, 10, 220
853, 1211.3507692, 37.5, 200
854, 1211.3507692, 37.5, 210
855, 1211.3507692, 37.5, 220
856, 1211.3507692, 65, 200
857, 1211.3507692, 65, 210
858, 1211.3507692, 65, 220
859, 1211.3507692, 92.5, 200
860, 1211.3507692, 92.5, 210
861, 1211.3507692, 92.5, 220
862, 1211.3507692, 120, 200
863, 1211.3507692, 120, 210
864, 1211.3507692, 120, 220
865, 1273.62440146, -10, 76.4174640874
866, 1273.62440146, 0, 76.4174640874
867, 1273.62440146, -10, 101.13397127
868, 1273.62440146, 0, 101.13397127
869, 1273.62440146, -10, 125.850478452
870, 1273.62440146, 0, 125.850478452
871, 1273.62440146, -10, 150.566985635
872, 1273.62440146, 0, 150.566985635
873, 1273.62440146, -10, 175.283492817
874, 1273.62440146, 0, 175.283492817
875, 1273.62440146, -10, 200
876, 1273.62440146, 0, 200
877, 1273.62440146, 10, 76.4174640874
878, 1273.62440146, 10, 101.13397127
879, 1273.62440146, 10, 125.850478452
880, 1273.62440146, 10, 150.566985635
881, 1273.62440146, 10, 175.283492817
882, 1273.62440146, 10, 200
883, 1273.62440146, -120, 200
884, 1273.62440146, -92.5, 200
885, 1273.62440146, -120, 210
886, 1273.62440146, -92.5, 210
887, 1273.62440146, -120, 220
888, 1273.62440146, -92.5, 220
889, 1273.62440146, -65, 200
890, 1273.62440146, -65, 210
891, 1273.62440146, -65, 220
892, 1273.62440146, -37.5, 200
893, 1273.62440146, -37.5, 210
894, 1273.62440146, -37.5, 220
895, 1273.62440146, -10, 210
896, 1273.62440146, -10, 220
897, 1273.62440146, 0, 210
898, 1273.62440146, 0, 220
899, 1273.62440146, 10, 210
900, 1273.62440146, 10, 220
901, 1273.62440146, 37.5, 200
902, 1273.62440146, 37.5, 210
903, 1273.62440146, 37.5, 220
904, 1273.62440146, 65, 200
905, 1273.62440146, 65, 210
906, 1273.62440146, 65, 220
907, 1273.62440146, 92.5, 200
908, 1273.62440146, 92.5, 210
909, 1273.62440146, 92.5, 220
910, 1273.62440146, 120, 200
911, 1273.62440146, 120, 210
912, 1273.62440146, 120, 220
913, 1335.00626018, -10, 80.1003756108
914, 1335.00626018, 0, 80.1003756108
915, 1335.00626018, -10, 104.080300489
916, 1335.00626018, 0, 104.080300489
917, 1335.00626018, -10, 128.060225366
918, 1335.00626018, 0, 128.060225366
919, 1335.00626018, -10, 152.040150244
920, 1335.00626018, 0, 152.040150244
921, 1335.00626018, -10, 176.020075122
922, 1335.00626018, 0, 176.020075122
923, 1335.00626018, -10, 200
924, 1335.00626018, 0, 200
925, 1335.00626018, 10, 80.1003756108
926, 1335.00626018, 10, 104.080300489
927, 1335.00626018, 10, 128.060225366
928, 1335.00626018, 10, 152.040150244
929, 1335.00626018, 10, 176.020075122
930, 1335.00626018, 10, 200
931, 1335.00626018, -120, 200
932, 1335.00626018, -92.5, 200
933, 1335.00626018, -120, 210
934, 1335.00626018, -92.5, 210
935, 1335.00626018, -120, 220
936, 1335.00626018, -92.5, 220
937, 1335.00626018, -65, 200
938, 1335.00626018, -65, 210
939, 1335.00626018, -65, 220
940, 1335.00626018, -37.5, 200
941, 1335.00626018, -37.5, 210
942, 1335.00626018, -37.5, 220
943, 1335.00626018, -10, 210
944, 1335.00626018, -10, 220
945, 1335.00626018, 0, 210
946, 1335.00626018, 0, 220
947, 1335.00626018, 10, 210
948, 1335.00626018, 10, 220
949, 1335.00626018, 37.5, 200
950, 1335.00626018, 37.5, 210
951, 1335.00626018, 37.5, 220
952, 1335.00626018, 65, 200
953, 1335.00626018, 65, 210
954, 1335.00626018, 65, 220
955, 1335.00626018, 92.5, 200
956, 1335.00626018, 92.5, 210
957, 1335.00626018, 92.5, 220
958, 1335.00626018, 120, 200
959, 1335.00626018, 120, 210
960, 1335.00626018, 120, 220
961, 1395.52161405, -10, 83.7312968433
962, 1395.52161405, 0, 83.7312968433
963, 1395.52161405, -10, 106.985037475
964, 1395.52161405, 0, 106.985037475
965, 1395.52161405, -10, 130.238778106
966, 1395.52161405, 0, 130.238778106
967, 1395.52161405, -10, 153.492518737
968, 1395.52161405, 0, 153.492518737
969, 1395.52161405, -10, 176.746259369
970, 1395.52161405, 0, 176.746259369
971, 1395.52161405, -10, 200
972, 1395.52161405, 0, 200
973, 1395.52161405, 10, 83.7312968433
974, 1395.52161405, 10, 106.985037475
975, 1395.52161405, 10, 130.238778106
976, 1395.52161405, 10, 153.492518737
977, 1395.52161405, 10, 176.746259369
978, 1395.52161405, 10, 200
979, 1395.52161405, -120, 200
980, 1395.52161405, -92.5, 200
981, 1395.52161405, -120, 210
982, 1395.52161405, -92.5, 210
983, 1395.52161405, -120, 220
984, 1395.52161405, -92.5, 220
985, 1395.52161405, -65, 200
986, 1395.52161405, -65, 210
987, 1395.52161405, -65, 220
988, 1395.52161405, -37.5, 200
989, 1395.52161405, -37.5, 210
990, 1395.52161405, -37.5, 220
991, 1395.52161405, -10, 210
992, 1395.52161405, -10, 220
993, 1395.52161405, 0, 210
994, 1395.52161405, 0, 220
995, 1395.52161405, 10, 210
996, 1395.52161405, 10, 220
997, 1395.52161405, 37.5, 200
998, 1395.52161405, 37.5, 210
999, 1395.52161405, 37.5, 220
1000, 1395.52161405, 65, 200
1001, 1395.52161405, 65, 210
1002, 1395.52161405, 65, 220
1003, 1395.52161405, 92.5, 200
1004, 1395.52161405, 92.5, 210
1005, 1395.52161405, 92.5, 220
1006, 1395.52161405, 120, 200
1007, 1395.52161405, 120, 210
1008, 1395.52161405, 120, 220
1009, 1455.19467034, -10, 87.3116802201
1010, 1455.19467034, 0, 87.3116802201
1011, 1455.19467034, -10, 109.849344176
1012, 1455.19467034, 0, 109.849344176
1013, 1455.19467034, -10, 132.387008132
1014, 1455.19467034, 0, 132.387008132
1015, 1455.19467034, -10, 154.924672088
1016, 1455.19467034, 0, 154.924672088
1017, 1455.19467034, -10, 177.462336044
1018, 1455.19467034, 0, 177.462336044
1019, 1455.19467034, -10, 200
1020, 1455.19467034, 0, 200
1021, 1455.19467034, 10, 87.3116802201
1022, 1455.19467034, 10, 109.849344176
1023, 1455.19467034, 10, 132.387008132
1024, 1455.19467034, 10, 154.924672088
1025, 1455.19467034, 10, 177.462336044
1026, 1455.19467034, 10, 200
1027, 1455.19467034, -120, 200
1028, 1455.19467034, -92.5, 200
1029, 1455.19467034, -120, 210
1030, 1455.19467034, -92.5, 210
1031, 1455.19467034, -120, 220
1032, 1455.19467034, -92.5, 220
1033, 1455.19467034, -65, 200
1034, 1455.19467034, -65, 210
1035, 1455.19467034, -65, 220
1036, 1455.19467034, -37.5, 200
1037, 1455.19467034, -37.5, 210
1038, 1455.19467034, -37.5, 220
1039, 1455.19467034, -10, 210
1040, 1455.19467034, -10, 220
1041, 1455.19467034, 0, 210
1042, 1455.19467034, 0, 220
1043, 1455.19467034, 10, 210
1044, 1455.19467034, 10, 220
1045, 1455.19467034, 37.5, 200
1046, 1455.19467034, 37.5, 210
1047, 1455.19467034, 37.5, 220
1048, 1455.19467034, 65, 200
1049, 1455.19467034, 65, 210
1050, 1455.19467034, 65, 220
1051, 1455.19467034, 92.5, 200
1052, 1455.19467034, 92.5, 210
1053, 1455.19467034, 92.5, 220
1054, 1455.19467034, 120, 200
1055, 1455.19467034, 120, 210
1056, 1455.19467034, 120, 220
1057, 1514.04863358, -10, 90.8429180147
1058, 1514.04863358, 0, 90.8429180147
1059, 1514.04863358, -10, 112.674334412
1060, 1514.04863358, 0, 112.674334412
1061, 1514.04863358, -10, 134.505750809
1062, 1514.04863358, 0, 134.505750809
1063, 1514.04863358, -10, 156.337167206
1064, 1514.04863358, 0, 156.337167206
1065, 1514.04863358, -10, 178.168583603
1066, 1514.04863358, 0, 178.168583603
1067, 1514.04863358, -10, 200
1068, 1514.04863358, 0, 200
1069, 1514.04863358, 10, 90.8429180147
1070, 1514.04863358, 10, 112.674334412
1071, 1514.04863358, 10, 134.505750809
1072, 1514.04863358, 10, 156.337167206
1073, 1514.04863358, 10, 178.168583603
1074, 1514.04863358, 10, 200
1075, 1514.04863358, -120, 200
1076, 1514.04863358, -92.5, 200
1077, 1514.04863358, -120, 210
1078, 1514.04863358, -92.5, 210
1079, 1514.04863358, -120, 220
1080, 1514.04863358, -92.5, 220
1081, 1514.04863358, -65, 200
1082, 1514.04863358, -65, 210
1083, 1514.04863358, -65, 220
1084, 1514.04863358, -37.5, 200
1085, 1514.04863358, -37.5, 210
1086, 1514.04863358, -37.5, 220
1087, 1514.04863358, -10, 210
1088, 1514.04863358, -10, 220
1089, 1514.04863358, 0, 210
1090, 1514.04863358, 0, 220
1091, 1514.04863358, 10, 210
1092, 1514.04863358, 10, 220
1093, 1514.04863358, 37.5, 200
1094, 1514.04863358, 37.5, 210
1095, 1514.04863358, 37.5, 220
1096, 1514.04863358, 65, 200
1097, 1514.04863358, 65, 210
1098, 1514.04863358, 65, 220
1099, 1514.04863358, 92.5, 200
1100, 1514.04863358, 92.5, 210
1101, 1514.04863358, 92.5, 220
1102, 1514.04863358, 120, 200
1103, 1514.04863358, 120, 210
1104, 1514.04863358, 120, 220
1105, 1572.10576035, -10, 94.3263456213
1106, 1572.10576035, 0, 94.3263456213
1107, 1572.10576035, -10, 115.461076497
1108, 1572.10576035, 0, 115.461076497
1109, 1572.10576035, -10, 136.595807373
1110, 1572.10576035, 0, 136.595807373
1111, 1572.10576035, -10, 157.730538249
1112, 1572.10576035, 0, 157.730538249
1113, 1572.10576035, -10, 178.865269124
1114, 1572.10576035, 0, 178.865269124
1115, 1572.10576035, -10, 200
1116, 1572.10576035, 0, 200
1117, 1572.10576035, 10, 94.3263456213
1118, 1572.10576035, 10, 115.461076497
1119, 1572.10576035, 10, 136.595807373
1120, 1572.10576035, 10, 157.730538249
1121, 1572.10576035, 10, 178.865269124
1122, 1572.10576035, 10, 200
1123, 1572.10576035, -120, 200
1124, 1572.10576035, -92.5, 200
1125, 1572.10576035, -120, 210
1126, 1572.10576035, -92.5, 210
1127, 1572.10576035, -120, 220
1128, 1572.10576035, -92.5, 220
1129, 1572.10576035, -65, 200
1130, 1572.10576035, -65, 210
1131, 1572.10576035, -65, 220
1132, 1572.10576035, -37.5, 200
1133, 1572.10576035, -37.5, 210
1134, 1572.10576035, -37.5, 220
1135, 1572.10576035, -10, 210
1136, 1572.10576035, -10, 220
1137, 1572.10576035, 0, 210
1138, 1572.10576035, 0, 220
1139, 1572.10576035, 10, 210
1140, 1572.10576035, 10, 220
1141, 1572.10576035, 37.5, 200
1142, 1572.10576035, 37.5, 210
1143, 1572.10576035, 37.5, 220
1144, 1572.10576035, 65, 200
1145, 1572.10576035, 65, 210
1146, 1572.10576035, 65, 220
1147, 1572.10576035, 92.5, 200
1148, 1572.10576035, 92.5, 210
1149, 1572.10576035, 92.5, 220
1150, 1572.10576035, 120, 200
1151, 1572.10576035, 120, 210
1152, 1572.10576035, 120, 220
1153, 1629.38741028, -10, 97.7632446168
1154, 1629.38741028, 0, 97.7632446168
1155, 1629.38741028, -10, 118.210595693
1156, 1629.38741028, 0, 118.210595693
1157, 1629.38741028, -10, 138.65794677
1158, 1629.38741028, 0, 138.65794677
1159, 1629.38741028, -10, 159.105297847
1160, 1629.38741028, 0, 159.105297847
1161, 1629.38741028, -10, 179.552648923
1162, 1629.38741028, 0, 179.552648923
1163, 1629.38741028, -10, 200
1164, 1629.38741028, 0, 200
1165, 1629.38741028, 10, 97.7632446168
1166, 1629.38741028, 10, 118.210595693
1167, 1629.38741028, 10, 138.65794677
1168, 1629.38741028, 10, 159.105297847
1169, 1629.38741028, 10, 179.552648923
1170, 1629.38741028, 10, 200
1171, 1629.38741028, -120, 200
1172, 1629.38741028, -92.5, 200
1173, 1629.38741028, -120, 210
1174, 1629.38741028, -92.5, 210
1175, 1629.38741028, -120, 220
1176, 1629.38741028, -92.5, 220
1177, 1629.38741028, -65, 200
1178, 1629.38741028, -65, 210
1179, 1629.38741028, -65, 220
1180, 1629.38741028, -37.5, 200
1181, 1629.38741028, -37.5, 210
1182, 1629.38741028, -37.5, 220
1183, 1629.38741028, -10, 210
1184, 1629.38741028, -10, 220
1185, 1629.38741028, 0, 210
1186, 1629.38741028, 0, 220
1187, 1629.38741028, 10, 210
1188, 1629.38741028, 10, 220
1189, 1629.38741028, 37.5, 200
1190, 1629.38741028, 37.5, 210
1191, 1629.38741028, 37.5, 220
1192, 1629.38741028, 65, 200
1193, 1629.38741028, 65, 210
1194, 1629.38741028, 65, 220
1195, 1629.38741028, 92.5, 200
1196, 1629.38741028, 92.5, 210
1197, 1629.38741028, 92.5, 220
1198, 1629.38741028, 120, 200
1199, 1629.38741028, 120, 210
1200, 1629.38741028, 120, 220
1201, 1685.91409365, -10, 101.154845619
1202, 1685.91409365, 0, 101.154845619
1203, 1685.91409365, -10, 120.923876495
1204, 1685.91409365, 0, 120.923876495
1205, 1685.91409365, -10, 140.692907371
1206, 1685.91409365, 0, 140.692907371
1207, 1685.91409365, -10, 160.461938248
1208, 1685.91409365, 0, 160.461938248
1209, 1685.91409365, -10, 180.230969124
1210, 1685.91409365, 0, 180.230969124
1211, 1685.91409365, -10, 200
1212, 1685.91409365, 0, 200
1213, 1685.91409365, 10, 101.154845619
1214, 1685.91409365, 10, 120.923876495
1215, 1685.91409365, 10, 140.692907371
1216, 1685.91409365, 10, 160.461938248
1217, 1685.91409365, 10, 180.230969124
1218, 1685.91409365, 10, 200
1219, 1685.91409365, -120, 200
1220, 1685.91409365, -92.5, 200
1221, 1685.91409365, -120, 210
1222, 1685.91409365, -92.5, 210
1223, 1685.91409365, -120, 220
1224, 1685.91409365, -92.5, 220
1225, 1685.91409365, -65, 200
1226, 1685.91409365, -65, 210
1227, 1685.91409365, -65, 220
1228, 1685.91409365, -37.5, 200
1229, 1685.91409365, -37.5, 210
1230, 1685.91409365, -37.5, 220
1231, 1685.91409365, -10, 210
1232, 1685.91409365, -10, 220
1233, 1685.91409365, 0, 210
1234, 1685.91409365, 0, 220
1235, 1685.91409365, 10, 210
1236, 1685.91409365, 10, 220
1237, 1685.91409365, 37.5, 200
1238, 1685.91409365, 37.5, 210
1239, 1685.91409365, 37.5, 220
1240, 1685.91409365, 65, 200
1241, 1685.91409365, 65, 210
1242, 1685.91409365, 65, 220
1243, 1685.91409365, 92.5, 200
1244, 1685.91409365, 92.5, 210
1245, 1685.91409365, 92.5, 220
1246, 1685.91409365, 120, 200
1247, 1685.91409365, 120, 210
1248, 1685.91409365, 120, 220
1249, 1741.70551594, -10, 104.502330957
1250, 1741.70551594, 0, 104.502330957
1251, 1741.70551594, -10, 123.601864765
1252, 1741.70551594, 0, 123.601864765
1253, 1741.70551594, -10, 142.701398574
1254, 1741.70551594, 0, 142.701398574
1255, 1741.70551594, -10, 161.800932383
1256, 1741.70551594, 0, 161.800932383
1257, 1741.70551594, -10, 180.900466191
1258, 1741.70551594, 0, 180.900466191
1259, 1741.70551594, -10, 200
1260, 1741.70551594, 0, 200
1261, 1741.70551594, 10, 104.502330957
1262, 1741.70551594, 10, 123.601864765
1263, 1741.70551594, 10, 142.701398574
1264, 1741.70551594, 10, 161.800932383
1265, 1741.70551594, 10, 180.900466191
1266, 1741.70551594, 10, 200
1267, 1741.70551594, -120, 200
1268, 1741.70551594, -92.5, 200
1269, 1741.70551594, -120, 210
1270, 1741.70551594, -92.5, 210
1271, 1741.70551594, -120, 220
1272, 1741.70551594, -92.5, 220
1273, 1741.70551594, -65, 200
1274, 1741.70551594, -65, 210
1275, 1741.70551594, -65, 220
1276, 1741.70551594, -37.5, 200
1277, 1741.70551594, -37.5, 210
1278, 1741.70551594, -37.5, 220
1279, 1741.70551594, -10, 210
1280, 1741.70551594, -10, 220
1281, 1741.70551594, 0, 210
1282, 1741.70551594, 0, 220
1283, 1741.70551594, 10, 210
1284, 1741.70551594, 10, 220
1285, 1741.70551594, 37.5, 200
1286, 1741.70551594, 37.5, 210
1287, 1741.70551594, 37.5, 220
1288, 1741.70551594, 65, 200
1289, 1741.70551594, 65, 210
1290, 1741.70551594, 65, 220
1291, 1741.70551594, 92.5, 200
1292, 1741.70551594, 92.5, 210
1293, 1741.70551594, 92.5, 220
1294, 1741.70551594, 120, 200
1295, 1741.70551594, 120, 210
1296, 1741.70551594, 120, 220
1297, 1796.78061947, -10, 107.806837168
1298, 1796.78061947, 0, 107.806837168
1299, 1796.78061947, -10, 126.245469735
1300, 1796.78061947, 0, 126.245469735
1301, 1796.78061947, -10, 144.684102301
1302, 1796.78061947, 0, 144.684102301
1303, 1796.78061947, -10, 163.122734867
1304, 1796.78061947, 0, 163.122734867
1305, 1796.78061947, -10, 181.561367434
1306, 1796.78061947, 0, 181.561367434
1307, 1796.78061947, -10, 200
1308, 1796.78061947, 0, 200
1309, 1796.78061947, 10, 107.806837168
1310, 1796.78061947, 10, 126.245469735
1311, 1796.78061947, 10, 144.684102301
1312, 1796.78061947, 10, 163.122734867
1313, 1796.78061947, 10, 181.561367434
1314, 1796.78061947, 10, 200
1315, 1796.78061947, -120, 200
1316, 1796.78061947, -92.5, 200
1317, 1796.78061947, -120, 210
1318, 1796.78061947, -92.5, 210
1319, 1796.78061947, -120, 220
1320, 1796.78061947, -92.5, 220
1321, 1796.78061947, -65, 200
1322, 1796.78061947, -65, 210
1323, 1796.78061947, -65, 220
1324, 1796.78061947, -37.5, 200
1325, 1796.78061947, -37.5, 210
1326, 1796.78061947, -37.5, 220
1327, 1796.78061947, -10, 210
1328, 1796.78061947, -10, 220
1329, 1796.78061947, 0, 210
1330, 1796.78061947, 0, 220
1331, 1796.78061947, 10, 210
1332, 1796.78061947, 10, 220
1333, 1796.78061947, 37.5, 200
1334, 1796.78061947, 37.5, 210
1335, 1796.78061947, 37.5, 220
1336, 1796.78061947, 65, 200
1337, 1796.78061947, 65, 210
1338, 1796.78061947, 65, 220
1339, 1796.78061947, 92.5, 200
1340, 1796.78061947, 92.5, 210
1341, 1796.78061947, 92.5, 220
1342, 1796.78061947, 120, 200
1343, 1796.78061947, 120, 210
1344, 1796.78061947, 120, 220
1345, 1851.15762232, -10, 111.069457339
1346, 1851.15762232, 0, 111.069457339
1347, 1851.15762232, -10, 128.855565871
1348, 1851.15762232, 0, 128.855565871
1349, 1851.15762232, -10, 146.641674404
1350, 1851.15762232, 0, 146.641674404
1351, 1851.15762232, -10, 164.427782936
1352, 1851.15762232, 0, 164.427782936
1353, 1851.15762232, -10, 182.213891468
1354, 1851.15762232, 0, 182.213891468
1355, 1851.15762232, -10, 200
1356, 1851.15762232, 0, 200
1357, 1851.15762232, 10, 111.069457339
1358, 1851.15762232, 10, 128.855565871
1359, 1851.15762232, 10, 146.641674404
1360, 1851.15762232, 10, 164.427782936
1361, 1851.15762232, 10, 182.213891468
1362, 1851.15762232, 10, 200
1363, 1851.15762232, -120, 200
1364, 1851.15762232, -92.5, 200
1365, 1851.15762232, -120, 210
1366, 1851.15762232, -92.5, 210
1367, 1851.15762232, -120, 220
1368, 1851.15762232, -92.5, 220
1369, 1851.15762232, -65, 200
1370, 1851.15762232, -65, 210
1371, 1851.15762232, -65, 220
1372, 1851.15762232, -37.5, 200
1373, 1851.15762232, -37.5, 210
1374, 1851.15762232, -37.5, 220
1375, 1851.15762232, -10, 210
1376, 1851.15762232, -10, 220
1377, 1851.15762232, 0, 210
1378, 1851.15762232, 0, 220
1379, 1851.15762232, 10, 210
1380, 1851.15762232, 10, 220
1381, 1851.15762232, 37.5, 200
1382, 1851.15762232, 37.5, 210
1383, 1851.15762232, 37.5, 220
1384, 1851.15762232, 65, 200
1385, 1851.15762232, 65, 210
1386, 1851.15762232, 65, 220
1387, 1851.15762232, 92.5, 200
1388, 1851.15762232, 92.5, 210
1389, 1851.15762232, 92.5, 220
1390, 1851.15762232, 120, 200
1391, 1851.15762232, 120, 210
1392, 1851.15762232, 120, 220
1393, 1904.85405488, -10, 114.291243293
1394, 1904.85405488, 0, 114.291243293
1395, 1904.85405488, -10, 131.432994634
1396, 1904.85405488, 0, 131.432994634
1397, 1904.85405488, -10, 148.574745976
1398, 1904.85405488, 0, 148.574745976
1399, 1904.85405488, -10, 165.716497317
1400, 1904.85405488, 0, 165.716497317
1401, 1904.85405488, -10, 182.858248659
1402, 1904.85405488, 0, 182.858248659
1403, 1904.85405488, -10, 200
1404, 1904.85405488, 0, 200
1405, 1904.85405488, 10, 114.291243293
1406, 1904.85405488, 10, 131.432994634
1407, 1904.85405488, 10, 148.574745976
1408, 1904.85405488, 10, 165.716497317
1409, 1904.85405488, 10, 182.858248659
1410, 1904.85405488, 10, 200
1411, 1904.85405488, -120, 200
1412, 1904.85405488, -92.5, 200
1413, 1904.85405488, -120, 210
1414, 1904.85405488, -92.5, 210
1415, 1904.85405488, -120, 220
1416, 1904.85405488, -92.5, 220
1417, 1904.85405488, -65, 200
1418, 1904.85405488, -65, 210
1419, 1904.85405488, -65, 220
1420, 1904.85405488, -37.5, 200
1421, 1904.85405488, -37.5, 210
1422, 1904.85405488, -37.5, 220
1423, 1904.85405488, -10, 210
1424, 1904.85405488, -10, 220
1425, 1904.85405488, 0, 210
1426, 1904.85405488, 0, 220
1427, 1904.85405488, 10, 210
1428, 1904.85405488, 10, 220
1429, 1904.85405488, 37.5, 200
1430, 1904.85405488, 37.5, 210
1431, 1904.85405488, 37.5, 220
1432, 1904.85405488, 65, 200
1433, 1904.85405488, 65, 210
1434, 1904.85405488, 65, 220
1435, 1904.85405488, 92.5, 200
1436, 1904.85405488, 92.5, 210
1437, 1904.85405488, 92.5, 220
1438, 1904.85405488, 120, 200
1439, 1904.85405488, 120, 210
1440, 1904.85405488, 120, 220
1441, 1949.29028337, -10, 116.957417002
1442, 1949.29028337, 0, 116.957417002
1443, 1949.29028337, -10, 133.565933602
1444, 1949.29028337, 0, 133.565933602
1445, 1949.29028337, -10, 150.174450201
1446, 1949.29028337, 0, 150.174450201
1447, 1949.29028337, -10, 166.782966801
1448, 1949.29028337, 0, 166.782966801
1449, 1949.29028337, -10, 183.3914834
1450, 1949.29028337, 0, 183.3914834
1451, 1949.29028337, -10, 200
1452, 1949.29028337, 0, 200
1453, 1949.29028337, 10, 116.957417002
1454, 1949.29028337, 10, 133.565933602
1455, 1949.29028337, 10, 150.174450201
1456, 1949.29028337, 10, 166.782966801
1457, 1949.29028337, 10, 183.3914834
1458, 1949.29028337, 10, 200
1459, 1949.29028337, -120, 200
1460, 1949.29028337, -92.5, 200
1461, 1949.29028337, -120, 210
1462, 1949.29028337, -92.5, 210
1463, 1949.29028337, -120, 220
1464, 1949.29028337, -92.5, 220
1465, 1949.29028337, -65, 200
1466, 1949.29028337, -65, 210
1467, 1949.29028337, -65, 220
1468, 1949.29028337, -37.5, 200
1469, 1949.29028337, -37.5, 210
1470, 1949.29028337, -37.5, 220
1471, 1949.29028337, -10, 210
1472, 1949.29028337, -10, 220
1473, 1949.29028337, 0, 210
1474, 1949.29028337, 0, 220
1475, 1949.29028337, 10, 210
1476, 1949.29028337, 10, 220
1477, 1949.29028337, 37.5, 200
1478, 1949.29028337, 37.5, 210
1479, 1949.29028337, 37.5, 220
1480, 1949.29028337, 65, 200
1481, 1949.29028337, 65, 210
1482, 1949.29028337, 65, 220
1483, 1949.29028337, 92.5, 200
1484, 1949.29028337, 92.5, 210
1485, 1949.29028337, 92.5, 220
1486, 1949.29028337, 120, 200
1487, 1949.29028337, 120, 210
1488, 1949.29028337, 120, 220
1489, 1981.34894216, -10, 118.880936529
1490, 1981.34894216, 0, 118.880936529
1491, 1981.34894216, -10, 135.104749224
1492, 1981.34894216, 0, 135.104749224
1493, 1981.34894216, -10, 151.328561918
1494, 1981.34894216, 0, 151.328561918
1495, 1981.34894216, -10, 167.552374612
1496, 1981.34894216, 0, 167.552374612
1497, 1981.34894216, -10, 183.776187306
1498, 1981.34894216, 0, 183.776187306
1499, 1981.34894216, -10, 200
1500, 1981.34894216, 0, 200
1501, 1981.34894216, 10, 118.880936529
1502, 1981.34894216, 10, 135.104749224
1503, 1981.34894216, 10, 151.328561918
1504, 1981.34894216, 10, 167.552374612
1505, 1981.34894216, 10, 183.776187306
1506, 1981.34894216, 10, 200
1507, 1981.34894216, -120, 200
1508, 1981.34894216, -92.5, 200
1509, 1981.34894216, -120, 210
1510, 1981.34894216, -92.5, 210
1511, 1981.34894216, -120, 220
1512, 1981.34894216, -92.5, 220
1513, 1981.34894216, -65, 200
1514, 1981.34894216, -65, 210
1515, 1981.34894216, -65, 220
1516, 1981.34894216, -37.5, 200
1517, 1981.34894216, -37.5, 210
1518, 1981.34894216, -37.5, 220
1519, 1981.34894216, -10, 210
1520, 1981.34894216, -10, 220
1521, 1981.34894216, 0, 210
1522, 1981.34894216, 0, 220
1523, 1981.34894216, 10, 210
1524, 1981.34894216, 10, 220
1525, 1981.34894216, 37.5, 200
1526, 1981.34894216, 37.5, 210
1527, 1981.34894216, 37.5, 220
1528, 1981.34894216, 65, 200
1529, 1981.34894216, 65, 210
1530, 1981.34894216, 65, 220
1531, 1981.34894216, 92.5, 200
1532, 1981.34894216, 92.5, 210
1533, 1981.34894216, 92.5, 220
1534, 1981.34894216, 120, 200
1535, 1981.34894216, 120, 210
1536, 1981.34894216, 120, 220
1537, 2000, -10, 120
1538, 2000, 0, 120
1539, 2000, -10, 136
1540, 2000, 0, 136
1541, 2000, -10, 152
1542, 2000, 0, 152
1543, 2000, -10, 168
1544, 2000, 0, 168
1545, 2000, -10, 184
1546, 2000, 0, 184
1547, 2000, -10, 200
1548, 2000, 0, 200
1549, 2000, 10, 120
1550, 2000, 10, 136
1551, 2000, 10, 152
1552, 2000, 10, 168
1553, 2000, 10, 184
1554, 2000, 10, 200
1555, 2000, -120, 200
1556, 2000, -92.5, 200
1557, 2000, -120, 210
1558, 2000, -92.5, 210
1559, 2000, -120, 220
1560, 2000, -92.5, 220
1561, 2000, -65, 200
1562, 2000, -65, 210
1563, 2000, -65, 220
1564, 2000, -37.5, 200
1565, 2000, -37.5, 210
1566, 2000, -37.5, 220
1567, 2000, -10, 210
1568, 2000, -10, 220
1569, 2000, 0, 210
1570, 2000, 0, 220
1571, 2000, 10, 210
1572, 2000, 10, 220
1573, 2000, 37.5, 200
1574, 2000, 37.5, 210
1575, 2000, 37.5, 220
1576, 2000, 65, 200
1577, 2000, 65, 210
1578, 2000, 65, 220
1579, 2000, 92.5, 200
1580, 2000, 92.5, 210
1581, 2000, 92.5, 220
1582, 2000, 120, 200
1583, 2000, 120, 210
1584, 2000, 120, 220
*ELEMENT, TYPE=C3D8, ELSET=EALL
1, 1, 2, 3, 4, 5, 6, 7, 8
2, 5, 6, 7, 8, 9, 10, 11, 12
3, 9, 10, 11, 12, 13, 14, 15, 16
4, 13, 14, 15, 16, 17, 18, 19, 20
5, 17, 18, 19, 20, 21, 22, 23, 24
6, 4, 3, 25, 26, 8, 7, 27, 28
7, 8, 7, 27, 28, 12, 11, 29, 30
8, 12, 11, 29, 30, 16, 15, 31, 32
9, 16, 15, 31, 32, 20, 19, 33, 34
10, 20, 19, 33, 34, 24, 23, 35, 36
11, 37, 38, 39, 40, 41, 42, 43, 44
12, 41, 42, 43, 44, 45, 46, 47, 48
13, 40, 39, 49, 50, 44, 43, 51, 52
14, 44, 43, 51, 52, 48, 47, 53, 54
15, 50, 49, 55, 56, 52, 51, 57, 58
16, 52, 51, 57, 58, 54, 53, 59, 60
17, 56, 55, 22, 21, 58, 57, 61, 62
18, 58, 57, 61, 62, 60, 59, 63, 64
19, 21, 22, 23, 24, 62, 61, 65, 66
20, 62, 61, 65, 66, 64, 63, 67, 68
21, 24, 23, 35, 36, 66, 65, 69, 70
22, 66, 65, 69, 70, 68, 67, 71, 72
23, 36, 35, 73, 74, 70, 69, 75, 76
24, 70, 69, 75, 76, 72, 71, 77, 78
25, 74, 73, 79, 80, 76, 75, 81, 82
26, 76, 75, 81, 82, 78, 77, 83, 84
27, 80, 79, 85, 86, 82, 81, 87, 88
28, 82, 81, 87, 88, 84, 83, 89, 90
29, 86, 85, 91, 92, 88, 87, 93, 94
30, 88, 87, 93, 94, 90, 89, 95, 96
31, 2, 97, 98, 3, 6, 99, 100, 7
32, 6, 99, 100, 7, 10, 101, 102, 11
33, 10, 101, 102, 11, 14, 103, 104, 15
34, 14, 103, 104, 15, 18, 105, 106, 19
35, 18, 105, 106, 19, 22, 107, 108, 23
36, 3, 98, 109, 25, 7, 100, 110, 27
37, 7, 100, 110, 27, 11, 102, 111, 29
38, 11, 102, 111, 29, 15, 104, 112, 31
39, 15, 104, 112, 31, 19, 106, 113, 33
40, 19, 106, 113, 33, 23, 108, 114, 35
41, 38, 115, 116, 39, 42, 117, 118, 43
42, 42, 117, 118, 43, 46, 119, 120, 47
43, 39, 116, 121, 49, 43, 118, 122, 51
44, 43, 118, 122, 51, 47, 120, 123, 53
45, 49, 121, 124, 55, 51, 122, 125, 57
46, 51, 122, 125, 57, 53, 123, 126, 59
47, 55, 124, 107, 22, 57, 125, 127, 61
48, 57, 125, 127, 61, 59, 126, 128, 63
49, 22, 107, 108, 23, 61, 127, 129, 65
50, 61, 127, 129, 65, 63, 128, 130, 67
51, 23, 108, 114, 35, 65, 129, 131, 69
52, 65, 129, 131, 69, 67, 130, 132, 71
53, 35, 114, 133, 73, 69, 131, 134, 75
54, 69, 131, 134, 75, 71, 132, 135, 77
55, 73, 133, 136, 79, 75, 134, 137, 81
56, 75, 134, 137, 81, 77, 135, 138, 83
57, 79, 136, 139, 85, 81, 137, 140, 87
58, 81, 137, 140, 87, 83, 138, 141, 89
59, 85, 139, 142, 91, 87, 140, 143, 93
60, 87, 140, 143, 93, 89, 141, 144, 95
61, 97, 145, 146, 98, 99, 147, 148, 100
62, 99, 147, 148, 100, 101, 149, 150, 102
63, 101, 149, 150, 102, 103, 151, 152, 104
64, 103, 151, 152, 104, 105, 153, 154, 106
65, 105, 153, 154, 106, 107, 155, 156, 108
66, 98, 146, 157, 109, 100, 148, 158, 110
67, 100, 148, 158, 110, 102, 150, 159, 111
68, 102, 150, 159, 111, 104, 152, 160, 112
69, 104, 152, 160, 112, 106, 154, 161, 113
70, 106, 154, 161, 113, 108, 156, 162, 114
71, 115, 163, 164, 116, 117, 165, 166, 118
72, 117, 165, 166, 118, 119, 167, 168, 120
73, 116, 164, 169, 121, 118, 166, 170, 122
74, 118, 166, 170, 122, 120, 168, 171, 123
75, 121, 169, 172, 124, 122, 170, 173, 125
76, 122, 170, 173, 125, 123, 171, 174, 126
77, 124, 172, 155, 107, 125, 173, 175, 127
78, 125, 173, 175, 127, 126, 174, 176, 128
79, 107, 155, 156, 108, 127, 175, 177, 129
80, 127, 175, 177, 129, 128, 176, 178, 130
81, 108, 156, 162, 114, 129, 177, 179, 131
82, 129, 177, 179, 131, 130, 178, 180, 132
83, 114, 162, 181, 133, 131, 179, 182, 134
84, 131, 179, 182, 134, 132, 180, 183, 135
85, 133, 181, 184, 136, 134, 182, 185, 137
86, 134, 182, 185, 137, 135, 183, 186, 138
87, 136, 184, 187, 139, 137, 185, 188, 140
88, 137, 185, 188, 140, 138, 186, 189, 141
89, 139, 187, 190, 142, 140, 188, 191, 143
90, 140, 188, 191, 143, 141, 189, 192, 144
91, 145, 193, 194, 146, 147, 195, 196, 148
92, 147, 195, 196, 148, 149, 197, 198, 150
93, 149, 197, 198, 150, 151, 199, 200, 152
94, 151, 199, 200, 152, 153, 201, 202, 154
95, 153, 201, 202, 154, 155, 203, 204, 156
96, 146, 194, 205, 157, 148, 196, 206, 158
97, 148, 196, 206, 158, 150, 198, 207, 159
98, 150, 198, 207, 159, 152, 200, 208, 160
99, 152, 200, 208, 160, 154, 202, 209, 161
100, 154, 202, 209, 161, 156, 204, 210, 162
101, 163, 211, 212, 164, 165, 213, 214, 166
102, 165, 213, 214, 166, 167, 215, 216, 168
103, 164, 212, 217, 169, 166, 214, 218, 170
104, 166, 214, 218, 170, 168, 216, 219, 171
105, 169, 217, 220, 172, 170, 218, 221, 173
106, 170, 218, 221, 173, 171, 219, 222, 174
107, 172, 220, 203, 155, 173, 221, 223, 175
108, 173, 221, 223, 175, 174, 222, 224, 176
109, 155, 203, 204, 156, 175, 223, 225, 177
110, 175, 223, 225, 177, 176, 224, 226, 178
111, 156, 204, 210, 162, 177, 225, 227, 179
112, 177, 225, 227, 179, 178, 226, 228, 180
113, 162, 210, 229, 181, 179, 227, 230, 182
114, 179, 227, 230, 182, 180, 228, 231, 183
115, 181, 229, 232, 184, 182, 230, 233, 185
116, 182, 230, 233, 185, 183, 231, 234, 186
117, 184, 232, 235, 187, 185, 233, 236, 188
118, 185, 233, 236, 188, 186, 234, 237, 189
119, 187, 235, 238, 190, 188, 236, 239, 191
120, 188, 236, 239, 191, 189, 237, 240, 192
121, 193, 241, 242, 194, 195, 243, 244, 196
122, 195, 243, 244, 196, 197, 245, 246, 198
123, 197, 245, 246, 198, 199, 247, 248, 200
124, 199, 247, 248, 200, 201, 249, 250, 202
125, 201, 249, 250, 202, 203, 251, 252, 204
126, 194, 242, 253, 205, 196, 244, 254, 206
127, 196, 244, 254, 206, 198, 246, 255, 207
128, 198, 246, 255, 207, 200, 248, 256, 208
129, 200, 248, 256, 208, 202, 250, 257, 209
130, 202, 250, 257, 209, 204, 252, 258, 210
131, 211, 259, 260, 212, 213, 261, 262, 214
132, 213, 261, 262, 214, 215, 263, 264, 216
133, 212, 260, 265, 217, 214, 262, 266, 218
134, 214, 262, 266, 218, 216, 264, 267, 219
135, 217, 265, 268, 220, 218, 266, 269, 221
136, 218, 266, 269, 221, 219, 267, 270, 222
137, 220, 268, 251, 203, 221, 269, 271, 223
138, 221, 269, 271, 223, 222, 270, 272, 224
139, 203, 251, 252, 204, 223, 271, 273, 225
140, 223, 271, 273, 225, 224, 272, 274, 226
141, 204, 252, 258, 210, 225, 273, 275, 227
142, 225, 273, 275, 227, 226, 274, 276, 228
143, 210, 258, 277, 229, 227, 275, 278, 230
144, 227, 275, 278, 230, 228, 276, 279, 231
145, 229, 277, 280, 232, 230, 278, 281, 233
146, 230, 278, 281, 233, 231, 279, 282, 234
147, 232, 280, 283, 235, 233, 281, 284, 236
148, 233, 281, 284, 236, 234, 282, 285, 237
149, 235, 283, 286, 238, 236, 284, 287, 239
150, 236, 284, 287, 239, 237, 285, 288, 240
151, 241, 289, 290, 242, 243, 291, 292, 244
152, 243, 291, 292, 244, 245, 293, 294, 246
153, 245, 293, 294, 246, 247, 295, 296, 248
154, 247, 295, 296, 248, 249, 297, 298, 250
155, 249, 297, 298, 250, 251, 299, 300, 252
156, 242, 290, 301, 253, 244, 292, 302, 254
157, 244, 292, 302, 254, 246, 294, 303, 255
158, 246, 294, 303, 255, 248, 296, 304, 256
159, 248, 296, 304, 256, 250, 298, 305, 257
160, 250, 298, 305, 257, 252, 300, 306, 258
161, 259, 307, 308, 260, 261, 309, 310, 262
162, 261, 309, 310, 262, 263, 311, 312, 264
163, 260, 308, 313, 265, 262, 310, 314, 266
164, 262, 310, 314, 266, 264, 312, 315, 267
165, 265, 313, 316, 268, 266, 314, 317, 269
166, 266, 314, 317, 269, 267, 315, 318, 270
167, 268, 316, 299, 251, 269, 317, 319, 271
168, 269, 317, 319, 271, 270, 318, 320, 272
169, 251, 299, 300, 252, 271, 319, 321, 273
170, 271, 319, 321, 273, 272, 320, 322, 274
171, 252, 300, 306, 258, 273, 321, 323, 275
172, 273, 321, 323, 275, 274, 322, 324, 276
173, 258, 306, 325, 277, 275, 323, 326, 278
174, 275, 323, 326, 278, 276, 324, 327, 279
175, 277, 325, 328, 280, 278, 326, 329, 281
176, 278, 326, 329, 281, 279, 327, 330, 282
177, 280, 328, 331, 283, 281, 329, 332, 284
178, 281, 329, 332, 284, 282, 330, 333, 285
179, 283, 331, 334, 286, 284, 332, 335, 287
180, 284, 332, 335, 287, 285, 333, 336, 288
181, 289, 337, 338, 290, 291, 339, 340, 292
182, 291, 339, 340, 292, 293, 341, 342, 294
183, 293, 341, 342, 294, 295, 343, 344, 296
184, 295, 343, 344, 296, 297, 345, 346, 298
185, 297, 345, 346, 298, 299, 347, 348, 300
186, 290, 338, 349, 301, 292, 340, 350, 302
187, 292, 340, 350, 302, 294, 342, 351, 303
188, 294, 342, 351, 303, 296, 344, 352, 304
189, 296, 344, 352, 304, 298, 346, 353, 305
190, 298, 346, 353, 305, 300, 348, 354, 306
191, 307, 355, 356, 308, 309, 357, 358, 310
192, 309, 357, 358, 310, 311, 359, 360, 312
193, 308, 356, 361, 313, 310, 358, 362, 314
194, 310, 358, 362, 314, 312, 360, 363, 315
195, 313, 361, 364, 316, 314, 362, 365, 317
196, 314, 362, 365, 317, 315, 363, 366, 318
197, 316, 364, 347, 299, 317, 365, 367, 319
198, 317, 365, 367, 319, 318, 366, 368, 320
199, 299, 347, 348, 300, 319, 367, 369, 321
200, 319, 367, 369, 321, 320, 368, 370, 322
201, 300, 348, 354, 306, 321, 369, 371, 323
202, 321, 369, 371, 323, 322, 370, 372, 324
203, 306, 354, 373, 325, 323, 371, 374, 326
204, 323, 371, 374, 326, 324, 372, 375, 327
205, 325, 373, 376, 328, 326, 374, 377, 329
206, 326, 374, 377, 329, 327, 375, 378, 330
207, 328, 376, 379, 331, 329, 377, 380, 332
208, 329, 377, 380, 332, 330, 378, 381, 333
209, 331, 379, 382, 334, 332, 380, 383, 335
210, 332, 380, 383, 335, 333, 381, 384, 336
211, 337, 385, 386, 338, 339, 387, 388, 340
212, 339, 387, 388, 340, 341, 389, 390, 342
213, 341, 389, 390, 342, 343, 391, 392, 344
214, 343, 391, 392, 344, 345, 393, 394, 346
215, 345, 393, 394, 346, 347, 395, 396, 348
216, 338, 386, 397, 349, 340, 388, 398, 350
217, 340, 388, 398, 350, 342, 390, 399, 351
218, 342, 390, 399, 351, 344, 392, 400, 352
219, 344, 392, 400, 352, 346, 394, 401, 353
220, 346, 394, 401, 353, 348, 396, 402, 354
221, 355, 403, 404, 356, 357, 405, 406, 358
222, 357, 405, 406, 358, 359, 407, 408, 360
223, 356, 404, 409, 361, 358, 406, 410, 362
224, 358, 406, 410, 362, 360, 408, 411, 363
225, 361, 409, 412, 364, 362, 410, 413, 365
226, 362, 410, 413, 365, 363, 411, 414, 366
227, 364, 412, 395, 347, 365, 413, 415, 367
228, 365, 413, 415, 367, 366, 414, 416, 368
229, 347, 395, 396, 348, 367, 415, 417, 369
230, 367, 415, 417, 369, 368, 416, 418, 370
231, 348, 396, 402, 354, 369, 417, 419, 371
232, 369, 417, 419, 371, 370, 418, 420, 372
233, 354, 402, 421, 373, 371, 419, 422, 374
234, 371, 419, 422, 374, 372, 420, 423, 375
235, 373, 421, 424, 376, 374, 422, 425, 377
236, 374, 422, 425, 377, 375, 423, 426, 378
237, 376, 424, 427, 379, 377, 425, 428, 380
238, 377, 425, 428, 380, 378, 426, 429, 381
239, 379, 427, 430, 382, 380, 428, 431, 383
240, 380, 428, 431, 383, 381, 429, 432, 384
241, 385, 433, 434, 386, 387, 435, 436, 388
242, 387, 435, 436, 388, 389, 437, 438, 390
243, 389, 437, 438, 390, 391, 439, 440, 392
244, 391, 439, 440, 392, 393, 441, 442, 394
245, 393, 441, 442, 394, 395, 443, 444, 396
246, 386, 434, 445, 397, 388, 436, 446, 398
247, 388, 436, 446, 398, 390, 438, 447, 399
248, 390, 438, 447, 399, 392, 440, 448, 400
249, 392, 440, 448, 400, 394, 442, 449, 401
250, 394, 442, 449, 401, 396, 444, 450, 402
251, 403, 451, 452, 404, 405, 453, 454, 406
252, 405, 453, 454, 406, 407, 455, 456, 408
253, 404, 452, 457, 409, 406, 454, 458, 410
254, 406, 454, 458, 410, 408, 456, 459, 411
255, 409, 457, 460, 412, 410, 458, 461, 413
256, 410, 458, 461, 413, 411, 459, 462, 414
257, 412, 460, 443, 395, 413, 461, 463, 415
258, 413, 461, 463, 415, 414, 462, 464, 416
259, 395, 443, 444, 396, 415, 463, 465, 417
260, 415, 463, 465, 417, 416, 464, 466, 418
261, 396, 444, 450, 402, 417, 465, 467, 419
262, 417, 465, 467, 419, 418, 466, 468, 420
263, 402, 450, 469, 421, 419, 467, 470, 422
264, 419, 467, 470, 422, 420, 468, 471, 423
265, 421, 469, 472, 424, 422, 470, 473, 425
266, 422, 470, 473, 425, 423, 471, 474, 426
267, 424, 472, 475, 427, 425, 473, 476, 428
268, 425, 473, 476, 428, 426, 474, 477, 429
269, 427, 475, 478, 430, 428, 476, 479, 431
270, 428, 476, 479, 431, 429, 477, 480, 432
271, 433, 481, 482, 434, 435, 483, 484, 436
272, 435, 483, 484, 436, 437, 485, 486, 438
273, 437, 485, 486, 438, 439, 487, 488, 440
274, 439, 487, 488, 440, 441, 489, 490, 442
275, 441, 489, 490, 442, 443, 491, 492, 444
276, 434, 482, 493, 445, 436, 484, 494, 446
277, 436, 484, 494, 446, 438, 486, 495, 447
278, 438, 486, 495, 447, 440, 488, 496, 448
279, 440, 488, 496, 448, 442, 490, 497, 449
280, 442, 490, 497, 449, 444, 492, 498, 450
281, 451, 499, 500, 452, 453, 501, 502, 454
282, 453, 501, 502, 454, 455, 503, 504, 456
283, 452, 500, 505, 457, 454, 502, 506, 458
284, 454, 502, 506, 458, 456, 504, 507, 459
285, 457, 505, 508, 460, 458, 506, 509, 461
286, 458, 506, 509, 461, 459, 507, 510, 462
287, 460, 508, 491, 443, 461, 509, 511, 463
288, 461, 509, 511, 463, 462, 510, 512, 464
289, 443, 491, 492, 444, 463, 511, 513, 465
290, 463, 511, 513, 465, 464, 512, 514, 466
291, 444, 492, 498, 450, 465, 513, 515, 467
292, 465, 513, 515, 467, 466, 514, 516, 468
293, 450, 498, 517, 469, 467, 515, 518, 470
294, 467, 515, 518, 470, 468, 516, 519, 471
295, 469, 517, 520, 472, 470, 518, 521, 473
296, 470, 518, 521, 473, 471, 519, 522, 474
297, 472, 520, 523, 475, 473, 521, 524, 476
298, 473, 521, 524, 476, 474, 522, 525, 477
299, 475, 523, 526, 478, 476, 524, 527, 479
300, 476, 524, 527, 479, 477, 525, 528, 480
301, 481, 529, 530, 482, 483, 531, 532, 484
302, 483, 531, 532, 484, 485, 533, 534, 486
303, 485, 533, 534, 486, 487, 535, 536, 488
304, 487, 535, 536, 488, 489, 537, 538, 490
305, 489, 537, 538, 490, 491, 539, 540, 492
306, 482, 530, 541, 493, 484, 532, 542, 494
307, 484, 532, 542, 494, 486, 534, 543, 495
308, 486, 534, 543, 495, 488, 536, 544, 496
309, 488, 536, 544, 496, 490, 538, 545, 497
310, 490, 538, 545, 497, 492, 540, 546, 498
311, 499, 547, 548, 500, 501, 549, 550, 502
312, 501, 549, 550, 502, 503, 551, 552, 504
313, 500, 548, 553, 505, 502, 550, 554, 506
314, 502, 550, 554, 506, 504, 552, 555, 507
315, 505, 553, 556, 508, 506, 554, 557, 509
316, 506, 554, 557, 509, 507, 555, 558, 510
317, 508, 556, 539, 491, 509, 557, 559, 511
318, 509, 557, 559, 511, 510, 558, 560, 512
319, 491, 539, 540, 492, 511, 559, 561, 513
320, 511, 559, 561, 513, 512, 560, 562, 514
321, 492, 540, 546, 498, 513, 561, 563, 515
322, 513, 561, 563, 515, 514, 562, 564, 516
323, 498, 546, 565, 517, 515, 563, 566, 518
324, 515, 563, 566, 518, 516, 564, 567, 519
325, 517, 565, 568, 520, 518, 566, 569, 521
326, 518, 566, 569, 521, 519, 567, 570, 522
327, 520, 568, 571, 523, 521, 569, 572, 524
328, 521, 569, 572, 524, 522, 570, 573, 525
329, 523, 571, 574, 526, 524, 572, 575, 527
330, 524, 572, 575, 527, 525, 573, 576, 528
331, 529, 577, 578, 530, 531, 579, 580, 532
332, 531, 579, 580, 532, 533, 581, 582, 534
333, 533, 581, 582, 534, 535, 583, 584, 536
334, 535, 583, 584, 536, 537, 585, 586, 538
335, 537, 585, 586, 538, 539, 587, 588, 540
336, 530, 578, 589, 541, 532, 580, 590, 542
337, 532, 580, 590, 542, 534, 582, 591, 543
338, 534, 582, 591, 543, 536, 584, 592, 544
339, 536, 584, 592, 544, 538, 586, 593, 545
340, 538, 586, 593, 545, 540, 588, 594, 546
341, 547, 595, 596, 548, 549, 597, 598, 550
342, 549, 597, 598, 550, 551, 599, 600, 552
343, 548, 596, 601, 553, 550, 598, 602, 554
344, 550, 598, 602, 554, 552, 600, 603, 555
345, 553, 601, 604, 556, 554, 602, 605, 557
346, 554, 602, 605, 557, 555, 603, 606, 558
347, 556, 604, 587, 539, 557, 605, 607, 559
348, 557, 605, 607, 559, 558, 606, 608, 560
349, 539, 587, 588, 540, 559, 607, 609, 561
350, 559, 607, 609, 561, 560, 608, 610, 562
351, 540, 588, 594, 546, 561, 609, 611, 563
352, 561, 609, 611, 563, 562, 610, 612, 564
353, 546, 594, 613, 565, 563, 611, 614, 566
354, 563, 611, 614, 566, 564, 612, 615, 567
355, 565, 613, 616, 568, 566, 614, 617, 569
356, 566, 614, 617, 569, 567, 615, 618, 570
357, 568, 616, 619, 571, 569, 617, 620, 572
358, 569, 617, 620, 572, 570, 618, 621, 573
359, 571, 619, 622, 574, 572, 620, 623, 575
360, 572, 620, 623, 575, 573, 621, 624, 576
361, 577, 625, 626, 578, 579, 627, 628, 580
362, 579, 627, 628, 580, 581, 629, 630, 582
363, 581, 629, 630, 582, 583, 631, 632, 584
364, 583, 631, 632, 584, 585, 633, 634, 586
365, 585, 633, 634, 586, 587, 635, 636, 588
366, 578, 626, 637, 589, 580, 628, 638, 590
367, 580, 628, 638, 590, 582, 630, 639, 591
368, 582, 630, 639, 591, 584, 632, 640, 592
369, 584, 632, 640, 592, 586, 634, 641, 593
370, 586, 634, 641, 593, 588, 636, 642, 594
371, 595, 643, 644, 596, 597, 645, 646, 598
372, 597, 645, 646, 598, 599, 647, 648, 600
373, 596, 644, 649, 601, 598, 646, 650, 602
374, 598, 646, 650, 602, 600, 648, 651, 603
375, 601, 649, 652, 604, 602, 650, 653, 605
376, 602, 650, 653, 605, 603, 651, 654, 606
377, 604, 652, 635, 587, 605, 653, 655, 607
378, 605, 653, 655, 607, 606, 654, 656, 608
379, 587, 635, 636, 588, 607, 655, 657, 609
380, 607, 655, 657, 609, 608, 656, 658, 610
381, 588, 636, 642, 594, 609, 657, 659, 611
382, 609, 657, 659, 611, 610, 658, 660, 612
383, 594, 642, 661, 613, 611, 659, 662, 614
384, 611, 659, 662, 614, 612, 660, 663, 615
385, 613, 661, 664, 616, 614, 662, 665, 617
386, 614, 662, 665, 617, 615, 663, 666, 618
387, 616, 664, 667, 619, 617, 665, 668, 620
388, 617, 665, 668, 620, 618, 666, 669, 621
389, 619, 667, 670, 622, 620, 668, 671, 623
390, 620, 668, 671, 623, 621, 669, 672, 624
391, 625, 673, 674, 626, 627, 675, 676, 628
392, 627, 675, 676, 628, 629, 677, 678, 630
393, 629, 677, 678, 630, 631, 679, 680, 632
394, 631, 679, 680, 632, 633, 681, 682, 634
395, 633, 681, 682, 634, 635, 683, 684, 636
396, 626, 674, 685, 637, 628, 676, 686, 638
397, 628, 676, 686, 638, 630, 678, 687, 639
398, 630, 678, 687, 639, 632, 680, 688, 640
399, 632, 680, 688, 640, 634, 682, 689, 641
400, 634, 682, 689, 641, 636, 684, 690, 642
401, 643, 691, 692, 644, 645, 693, 694, 646
402, 645, 693, 694, 646, 647, 695, 696, 648
403, 644, 692, 697, 649, 646, 694, 698, 650
404, 646, 694, 698, 650, 648, 696, 699, 651
405, 649, 697, 700, 652, 650, 698, 701, 653
406, 650, 698, 701, 653, 651, 699, 702, 654
407, 652, 700, 683, 635, 653, 701, 703, 655
408, 653, 701, 703, 655, 654, 702, 704, 656
409, 635, 683, 684, 636, 655, 703, 705, 657
410, 655, 703, 705, 657, 656, 704, 706, 658
411, 636, 684, 690, 642, 657, 705, 707, 659
412, 657, 705, 707, 659, 658, 706, 708, 660
413, 642, 690, 709, 661, 659, 707, 710, 662
414, 659, 707, 710, 662, 660, 708, 711, 663
415, 661, 709, 712, 664, 662, 710, 713, 665
416, 662, 710, 713, 665, 663, 711, 714, 666
417, 664, 712, 715, 667, 665, 713, 716, 668
418, 665, 713, 716, 668, 666, 714, 717, 669
419, 667, 715, 718, 670, 668, 716, 719, 671
420, 668, 716, 719, 671, 669, 717, 720, 672
421, 673, 721, 722, 674, 675, 723, 724, 676
422, 675, 723, 724, 676, 677, 725, 726, 678
423, 677, 725, 726, 678, 679, 727, 728, 680
424, 679, 727, 728, 680, 681, 729, 730, 682
425, 681, 729, 730, 682, 683, 731, 732, 684
426, 674, 722, 733, 685, 676, 724, 734, 686
427, 676, 724, 734, 686, 678, 726, 735, 687
428, 678, 726, 735, 687, 680, 728, 736, 688
429, 680, 728, 736, 688, 682, 730, 737, 689
430, 682, 730, 737, 689, 684, 732, 738, 690
431, 691, 739, 740, 692, 693, 741, 742, 694
432, 693, 741, 742, 694, 695, 743, 744, 696
433, 692, 740, 745, 697, 694, 742, 746, 698
434, 694, 742, 746, 698, 696, 744, 747, 699
435, 697, 745, 748, 700, 698, 746, 749, 701
436, 698, 746, 749, 701, 699, 747, 750, 702
437, 700, 748, 731, 683, 701, 749, 751, 703
438, 701, 749, 751, 703, 702, 750, 752, 704
439, 683, 731, 732, 684, 703, 751, 753, 705
440, 703, 751, 753, 705, 704, 752, 754, 706
441, 684, 732, 738, 690, 705, 753, 755, 707
442, 705, 753, 755, 707, 706, 754, 756, 708
443, 690, 738, 757, 709, 707, 755, 758, 710
444, 707, 755, 758, 710, 708, 756, 759, 711
445, 709, 757, 760, 712, 710, 758, 761, 713
446, 710, 758, 761, 713, 711, 759, 762, 714
447, 712, 760, 763, 715, 713, 761, 764, 716
448, 713, 761, 764, 716, 714, 762, 765, 717
449, 715, 763, 766, 718, 716, 764, 767, 719
450, 716, 764, 767, 719, 717, 765, 768, 720
451, 721, 769, 770, 722, 723, 771, 772, 724
452, 723, 771, 772, 724, 725, 773, 774, 726
453, 725, 773, 774, 726, 727, 775, 776, 728
454, 727, 775, 776, 728, 729, 777, 778, 730
455, 729, 777, 778, 730, 731, 779, 780, 732
456, 722, 770, 781, 733, 724, 772, 782, 734
457, 724, 772, 782, 734, 726, 774, 783, 735
458, 726, 774, 783, 735, 728, 776, 784, 736
459, 728, 776, 784, 736, 730, 778, 785, 737
460, 730, 778, 785, 737, 732, 780, 786, 738
461, 739, 787, 788, 740, 741, 789, 790, 742
462, 741, 789, 790, 742, 743, 791, 792, 744
463, 740, 788, 793, 745, 742, 790, 794, 746
464, 742, 790, 794, 746, 744, 792, 795, 747
465, 745, 793, 796, 748, 746, 794, 797, 749
466, 746, 794, 797, 749, 747, 795, 798, 750
467, 748, 796, 779, 731, 749, 797, 799, 751
468, 749, 797, 799, 751, 750, 798, 800, 752
469, 731, 779, 780, 732, 751, 799, 801, 753
470, 751, 799, 801, 753, 752, 800, 802, 754
471, 732, 780, 786, 738, 753, 801, 803, 755
472, 753, 801, 803, 755, 754, 802, 804, 756
473, 738, 786, 805, 757, 755, 803, 806, 758
474, 755, 803, 806, 758, 756, 804, 807, 759
475, 757, 805, 808, 760, 758, 806, 809, 761
476, 758, 806, 809, 761, 759, 807, 810, 762
477, 760, 808, 811, 763, 761, 809, 812, 764
478, 761, 809, 812, 764, 762, 810, 813, 765
479, 763, 811, 814, 766, 764, 812, 815, 767
480, 764, 812, 815, 767, 765, 813, 816, 768
481, 769, 817, 818, 770, 771, 819, 820, 772
482, 771, 819, 820, 772, 773, 821, 822, 774
483, 773, 821, 822, 774, 775, 823, 824, 776
484, 775, 823, 824, 776, 777, 825, 826, 778
485, 777, 825, 826, 778, 779, 827, 828, 780
486, 770, 818, 829, 781, 772, 820, 830, 782
487, 772, 820, 830, 782, 774, 822, 831, 783
488, 774, 822, 831, 783, 776, 824, 832, 784
489, 776, 824, 832, 784, 778, 826, 833, 785
490, 778, 826, 833, 785, 780, 828, 834, 786
491, 787, 835, 836, 788, 789, 837, 838, 790
492, 789, 837, 838, 790, 791, 839, 840, 792
493, 788, 836, 841, 793, 790, 838, 842, 794
494, 790, 838, 842, 794, 792, 840, 843, 795
495, 793, 841, 844, 796, 794, 842, 845, 797
496, 794, 842, 845, 797, 795, 843, 846, 798
497, 796, 844, 827, 779, 797, 845, 847, 799
498, 797, 845, 847, 799, 798, 846, 848, 800
499, 779, 827, 828, 780, 799, 847, 849, 801
500, 799, 847, 849, 801, 800, 848, 850, 802
501, 780, 828, 834, 786, 801, 849, 851, 803
502, 801, 849, 851, 803, 802, 850, 852, 804
503, 786, 834, 853, 805, 803, 851, 854, 806
504, 803, 851, 854, 806, 804, 852, 855, 807
505, 805, 853, 856, 808, 806, 854, 857, 809
506, 806, 854, 857, 809, 807, 855, 858, 810
507, 808, 856, 859, 811, 809, 857, 860, 812
508, 809, 857, 860, 812, 810, 858, 861, 813
509, 811, 859, 862, 814, 812, 860, 863, 815
510, 812, 860, 863, 815, 813, 861, 864, 816
511, 817, 865, 866, 818, 819, 867, 868, 820
512, 819, 867, 868, 820, 821, 869, 870, 822
513, 821, 869, 870, 822, 823, 871, 872, 824
514, 823, 871, 872, 824, 825, 873, 874, 826
515, 825, 873, 874, 826, 827, 875, 876, 828
516, 818, 866, 877, 829, 820, 868, 878, 830
517, 820, 868, 878, 830, 822, 870, 879, 831
518, 822, 870, 879, 831, 824, 872, 880, 832
519, 824, 872, 880, 832, 826, 874, 881, 833
520, 826, 874, 881, 833, 828, 876, 882, 834
521, 835, 883, 884, 836, 837, 885, 886, 838
522, 837, 885, 886, 838, 839, 887, 888, 840
523, 836, 884, 889, 841, 838, 886, 890, 842
524, 838, 886, 890, 842, 840, 888, 891, 843
525, 841, 889, 892, 844, 842, 890, 893, 845
526, 842, 890, 893, 845, 843, 891, 894, 846
527, 844, 892, 875, 827, 845, 893, 895, 847
528, 845, 893, 895, 847, 846, 894, 896, 848
529, 827, 875, 876, 828, 847, 895, 897, 849
530, 847, 895, 897, 849, 848, 896, 898, 850
531, 828, 876, 882, 834, 849, 897, 899, 851
532, 849, 897, 899, 851, 850, 898, 900, 852
533, 834, 882, 901, 853, 851, 899, 902, 854
534, 851, 899, 902, 854, 852, 900, 903, 855
535, 853, 901, 904, 856, 854, 902, 905, 857
536, 854, 902, 905, 857, 855, 903, 906, 858
537, 856, 904, 907, 859, 857, 905, 908, 860
538, 857, 905, 908, 860, 858, 906, 909, 861
539, 859, 907, 910, 862, 860, 908, 911, 863
540, 860, 908, 911, 863, 861, 909, 912, 864
541, 865, 913, 914, 866, 867, 915, 916, 868
542, 867, 915, 916, 868, 869, 917, 918, 870
543, 869, 917, 918, 870, 871, 919, 920, 872
544, 871, 919, 920, 872, 873, 921, 922, 874
545, 873, 921, 922, 874, 875, 923, 924, 876
546, 866, 914, 925, 877, 868, 916, 926, 878
547, 868, 916, 926, 878, 870, 918, 927, 879
548, 870, 918, 927, 879, 872, 920, 928, 880
549, 872, 920, 928, 880, 874, 922, 929, 881
550, 874, 922, 929, 881, 876, 924, 930, 882
551, 883, 931, 932, 884, 885, 933, 934, 886
552, 885, 933, 934, 886, 887, 935, 936, 888
553, 884, 932, 937, 889, 886, 934, 938, 890
554, 886, 934, 938, 890, 888, 936, 939, 891
555, 889, 937, 940, 892, 890, 938, 941, 893
556, 890, 938, 941, 893, 891, 939, 942, 894
557, 892, 940, 923, 875, 893, 941, 943, 895
558, 893, 941, 943, 895, 894, 942, 944, 896
559, 875, 923, 924, 876, 895, 943, 945, 897
560, 895, 943, 945, 897, 896, 944, 946, 898
561, 876, 924, 930, 882, 897, 945, 947, 899
562, 897, 945, 947, 899, 898, 946, 948, 900
563, 882, 930, 949, 901, 899, 947, 950, 902
564, 899, 947, 950, 902, 900, 948, 951, 903
565, 901, 949, 952, 904, 902, 950, 953, 905
566, 902, 950, 953, 905, 903, 951, 954, 906
567, 904, 952, 955, 907, 905, 953, 956, 908
568, 905, 953, 956, 908, 906, 954, 957, 909
569, 907, 955, 958, 910, 908, 956, 959, 911
570, 908, 956, 959, 911, 909, 957, 960, 912
571, 913, 961, 962, 914, 915, 963, 964, 916
572, 915, 963, 964, 916, 917, 965, 966, 918
573, 917, 965, 966, 918, 919, 967, 968, 920
574, 919, 967, 968, 920, 921, 969, 970, 922
575, 921, 969, 970, 922, 923, 971, 972, 924
576, 914, 962, 973, 925, 916, 964, 974, 926
577, 916, 964, 974, 926, 918, 966, 975, 927
578, 918, 966, 975, 927, 920, 968, 976, 928
579, 920, 968, 976, 928, 922, 970, 977, 929
580, 922, 970, 977, 929, 924, 972, 978, 930
581, 931, 979, 980, 932, 933, 981, 982, 934
582, 933, 981, 982, 934, 935, 983, 984, 936
583, 932, 980, 985, 937, 934, 982, 986, 938
584, 934, 982, 986, 938, 936, 984, 987, 939
585, 937, 985, 988, 940, 938, 986, 989, 941
586, 938, 986, 989, 941, 939, 987, 990, 942
587, 940, 988, 971, 923, 941, 989, 991, 943
588, 941, 989, 991, 943, 942, 990, 992, 944
589, 923, 971, 972, 924, 943, 991, 993, 945
590, 943, 991, 993, 945, 944, 992, 994, 946
591, 924, 972, 978, 930, 945, 993, 995, 947
592, 945, 993, 995, 947, 946, 994, 996, 948
593, 930, 978, 997, 949, 947, 995, 998, 950
594, 947, 995, 998, 950, 948, 996, 999, 951
595, 949, 997, 1000, 952, 950, 998, 1001, 953
596, 950, 998, 1001, 953, 951, 999, 1002, 954
597, 952, 1000, 1003, 955, 953, 1001, 1004, 956
598, 953, 1001, 1004, 956, 954, 1002, 1005, 957
599, 955, 1003, 1006, 958, 956, 1004, 1007, 959
600, 956, 1004, 1007, 959, 957, 1005, 1008, 960
601, 961, 1009, 1010, 962, 963, 1011, 1012, 964
602, 963, 1011, 1012, 964, 965, 1013, 1014, 966
603, 965, 1013, 1014, 966, 967, 1015, 1016, 968
604, 967, 1015, 1016, 968, 969, 1017, 1018, 970
605, 969, 1017, 1018, 970, 971, 1019, 1020, 972
606, 962, 1010, 1021, 973, 964, 1012, 1022, 974
607, 964, 1012, 1022, 974, 966, 1014, 1023, 975
608, 966, 1014, 1023, 975, 968, 1016, 1024, 976
609, 968, 1016, 1024, 976, 970, 1018, 1025, 977
610, 970, 1018, 1025, 977, 972, 1020, 1026, 978
611, 979, 1027, 1028, 980, 981, 1029, 1030, 982
612, 981, 1029, 1030, 982, 983, 1031, 1032, 984
613, 980, 1028, 1033, 985, 982, 1030, 1034, 986
614, 982, 1030, 1034, 986, 984, 1032, 1035, 987
615, 985, 1033, 1036, 988, 986, 1034, 1037, 989
616, 986, 1034, 1037, 989, 987, 1035, 1038, 990
617, 988, 1036, 1019, 971, 989, 1037, 1039, 991
618, 989, 1037, 1039, 991, 990, 1038, 1040, 992
619, 971, 1019, 1020, 972, 991, 1039, 1041, 993
620, 991, 1039, 1041, 993, 992, 1040, 1042, 994
621, 972, 1020, 1026, 978, 993, 1041, 1043, 995
622, 993, 1041, 1043, 995, 994, 1042, 1044, 996
623, 978, 1026, 1045, 997, 995, 1043, 1046, 998
624, 995, 1043, 1046, 998, 996, 1044, 1047, 999
625, 997, 1045, 1048, 1000, 998, 1046, 1049, 1001
626, 998, 1046, 1049, 1001, 999, 1047, 1050, 1002
627, 1000, 1048, 1051, 1003, 1001, 1049, 1052, 1004
628, 1001, 1049, 1052, 1004, 1002, 1050, 1053, 1005
629, 1003, 1051, 1054, 1006, 1004, 1052, 1055, 1007
630, 1004, 1052, 1055, 1007, 1005, 1053, 1056, 1008
631, 1009, 1057, 1058, 1010, 1011, 1059, 1060, 1012
632, 1011, 1059, 1060, 1012, 1013, 1061, 1062, 1014
633, 1013, 1061, 1062, 1014, 1015, 1063, 1064, 1016
634, 1015, 1063, 1064, 1016, 1017, 1065, 1066, 1018
635, 1017, 1065, 1066, 1018, 1019, 1067, 1068, 1020
636, 1010, 1058, 1069, 1021, 1012, 1060, 1070, 1022
637, 1012, 1060, 1070, 1022, 1014, 1062, 1071, 1023
638, 1014, 1062, 1071, 1023, 1016, 1064, 1072, 1024
639, 1016, 1064, 1072, 1024, 1018, 1066, 1073, 1025
640, 1018, 1066, 1073, 1025, 1020, 1068, 1074, 1026
641, 1027, 1075, 1076, 1028, 1029, 1077, 1078, 1030
642, 1029, 1077, 1078, 1030, 1031, 1079, 1080, 1032
643, 1028, 1076, 1081, 1033, 1030, 1078, 1082, 1034
644, 1030, 1078, 1082, 1034, 1032, 1080, 1083, 1035
645, 1033, 1081, 1084, 1036, 1034, 1082, 1085, 1037
646, 1034, 1082, 1085, 1037, 1035, 1083, 1086, 1038
647, 1036, 1084, 1067, 1019, 1037, 1085, 1087, 1039
648, 1037, 1085, 1087, 1039, 1038, 1086, 1088, 1040
649, 1019, 1067, 1068, 1020, 1039, 1087, 1089, 1041
650, 1039, 1087, 1089, 1041, 1040, 1088, 1090, 1042
651, 1020, 1068, 1074, 1026, 1041, 1089, 1091, 1043
652, 1041, 1089, 1091, 1043, 1042, 1090, 1092, 1044
653, 1026, 1074, 1093, 1045, 1043, 1091, 1094, 1046
654, 1043, 1091, 1094, 1046, 1044, 1092, 1095, 1047
655, 1045, 1093, 1096, 1048, 1046, 1094, 1097, 1049
656, 1046, 1094, 1097, 1049, 1047, 1095, 1098, 1050
657, 1048, 1096, 1099, 1051, 1049, 1097, 1100, 1052
658, 1049, 1097, 1100, 1052, 1050, 1098, 1101, 1053
659, 1051, 1099, 1102, 1054, 1052, 1100, 1103, 1055
660, 1052, 1100, 1103, 1055, 1053, 1101, 1104, 1056
661, 1057, 1105, 1106, 1058, 1059, 1107, 1108, 1060
662, 1059, 1107, 1108, 1060, 1061, 1109, 1110, 1062
663, 1061, 1109, 1110, 1062, 1063, 1111, 1112, 1064
664, 1063, 1111, 1112, 1064, 1065, 1113, 1114, 1066
665, 1065, 1113, 1114, 1066, 1067, 1115, 1116, 1068
666, 1058, 1106, 1117, 1069, 1060, 1108, 1118, 1070
667, 1060, 1108, 1118, 1070, 1062, 1110, 1119, 1071
668, 1062, 1110, 1119, 1071, 1064, 1112, 1120, 1072
669, 1064, 1112, 1120, 1072, 1066, 1114, 1121, 1073
670, 1066, 1114, 1121, 1073, 1068, 1116, 1122, 1074
671, 1075, 1123, 1124, 1076, 1077, 1125, 1126, 1078
672, 1077, 1125, 1126, 1078, 1079, 1127, 1128, 1080
673, 1076, 1124, 1129, 1081, 1078, 1126, 1130, 1082
674, 1078, 1126, 1130, 1082, 1080, 1128, 1131, 1083
675, 1081, 1129, 1132, 1084, 1082, 1130, 1133, 1085
676, 1082, 1130, 1133, 1085, 1083, 1131, 1134, 1086
677, 1084, 1132, 1115, 1067, 1085, 1133, 1135, 1087
678, 1085, 1133, 1135, 1087, 1086, 1134, 1136, 1088
679, 1067, 1115, 1116, 1068, 1087, 1135, 1137, 1089
680, 1087, 1135, 1137, 1089, 1088, 1136, 1138, 1090
681, 1068, 1116, 1122, 1074, 1089, 1137, 1139, 1091
682, 1089, 1137, 1139, 1091, 1090, 1138, 1140, 1092
683, 1074, 1122, 1141, 1093, 1091, 1139, 1142, 1094
684, 1091, 1139, 1142, 1094, 1092, 1140, 1143, 1095
685, 1093, 1141, 1144, 1096, 1094, 1142, 1145, 1097
686, 1094, 1142, 1145, 1097, 1095, 1143, 1146, 1098
687, 1096, 1144, 1147, 1099, 1097, 1145, 1148, 1100
688, 1097, 1145, 1148, 1100, 1098, 1146, 1149, 1101
689, 1099, 1147, 1150, 1102, 1100, 1148, 1151, 1103
690, 1100, 1148, 1151, 1103, 1101, 1149, 1152, 1104
691, 1105, 1153, 1154, 1106, 1107, 1155, 1156, 1108
692, 1107, 1155, 1156, 1108, 1109, 1157, 1158, 1110
693, 1109, 1157, 1158, 1110, 1111, 1159, 1160, 1112
694, 1111, 1159, 1160, 1112, 1113, 1161, 1162, 1114
695, 1113, 1161, 1162, 1114, 1115, 1163, 1164, 1116
696, 1106, 1154, 1165, 1117, 1108, 1156, 1166, 1118
697, 1108, 1156, 1166, 1118, 1110, 1158, 1167, 1119
698, 1110, 1158, 1167, 1119, 1112, 1160, 1168, 1120
699, 1112, 1160, 1168, 1120, 1114, 1162, 1169, 1121
700, 1114, 1162, 1169, 1121, 1116, 1164, 1170, 1122
701, 1123, 1171, 1172, 1124, 1125, 1173, 1174, 1126
702, 1125, 1173, 1174, 1126, 1127, 1175, 1176, 1128
703, 1124, 1172, 1177, 1129, 1126, 1174, 1178, 1130
704, 1126, 1174, 1178, 1130, 1128, 1176, 1179, 1131
705, 1129, 1177, 1180, 1132, 1130, 1178, 1181, 1133
706, 1130, 1178, 1181, 1133, 1131, 1179, 1182, 1134
707, 1132, 1180, 1163, 1115, 1133, 1181, 1183, 1135
708, 1133, 1181, 1183, 1135, 1134, 1182, 1184, 1136
709, 1115, 1163, 1164, 1116, 1135, 1183, 1185, 1137
710, 1135, 1183, 1185, 1137, 1136, 1184, 1186, 1138
711, 1116, 1164, 1170, 1122, 1137, 1185, 1187, 1139
712, 1137, 1185, 1187, 1139, 1138, 1186, 1188, 1140
713, 1122, 1170, 1189, 1141, 1139, 1187, 1190, 1142
714, 1139, 1187, 1190, 1142, 1140, 1188, 1191, 1143
715, 1141, 1189, 1192, 1144, 1142, 1190, 1193, 1145
716, 1142, 1190, 1193, 1145, 1143, 1191, 1194, 1146
717, 1144, 1192, 1195, 1147, 1145, 1193, 1196, 1148
718, 1145, 1193, 1196, 1148, 1146, 1194, 1197, 1149
719, 1147, 1195, 1198, 1150, 1148, 1196, 1199, 1151
720, 1148, 1196, 1199, 1151, 1149, 1197, 1200, 1152
721, 1153, 1201, 1202, 1154, 1155, 1203, 1204, 1156
722, 1155, 1203, 1204, 1156, 1157, 1205, 1206, 1158
723, 1157, 1205, 1206, 1158, 1159, 1207, 1208, 1160
724, 1159, 1207, 1208, 1160, 1161, 1209, 1210, 1162
725, 1161, 1209, 1210, 1162, 1163, 1211, 1212, 1164
726, 1154, 1202, 1213, 1165, 1156, 1204, 1214, 1166
727, 1156, 1204, 1214, 1166, 1158, 1206, 1215, 1167
728, 1158, 1206, 1215, 1167, 1160, 1208, 1216, 1168
729, 1160, 1208, 1216, 1168, 1162, 1210, 1217, 1169
730, 1162, 1210, 1217, 1169, 1164, 1212, 1218, 1170
731, 1171, 1219, 1220, 1172, 1173, 1221, 1222, 1174
732, 1173, 1221, 1222, 1174, 1175, 1223, 1224, 1176
733, 1172, 1220, 1225, 1177, 1174, 1222, 1226, 1178
734, 1174, 1222, 1226, 1178, 1176, 1224, 1227, 1179
735, 1177, 1225, 1228, 1180, 1178, 1226, 1229, 1181
736, 1178, 1226, 1229, 1181, 1179, 1227, 1230, 1182
737, 1180, 1228, 1211, 1163, 1181, 1229, 1231, 1183
738, 1181, 1229, 1231, 1183, 1182, 1230, 1232, 1184
739, 1163, 1211, 1212, 1164, 1183, 1231, 1233, 1185
740, 1183, 1231, 1233, 1185, 1184, 1232, 1234, 1186
741, 1164, 1212, 1218, 1170, 1185, 1233, 1235, 1187
742, 1185, 1233, 1235, 1187, 1186, 1234, 1236, 1188
743, 1170, 1218, 1237, 1189, 1187, 1235, 1238, 1190
744, 1187, 1235, 1238, 1190, 1188, 1236, 1239, 1191
745, 1189, 1237, 1240, 1192, 1190, 1238, 1241, 1193
746, 1190, 1238, 1241, 1193, 1191, 1239, 1242, 1194
747, 1192, 1240, 1243, 1195, 1193, 1241, 1244, 1196
748, 1193, 1241, 1244, 1196, 1194, 1242, 1245, 1197
749, 1195, 1243, 1246, 1198, 1196, 1244, 1247, 1199
750, 1196, 1244, 1247, 1199, 1197, 1245, 1248, 1200
751, 1201, 1249, 1250, 1202, 1203, 1251, 1252, 1204
752, 1203, 1251, 1252, 1204, 1205, 1253, 1254, 1206
753, 1205, 1253, 1254, 1206, 1207, 1255, 1256, 1208
754, 1207, 1255, 1256, 1208, 1209, 1257, 1258, 1210
755, 1209, 1257, 1258, 1210, 1211, 1259, 1260, 1212
756, 1202, 1250, 1261, 1213, 1204, 1252, 1262, 1214
757, 1204, 1252, 1262, 1214, 1206, 1254, 1263, 1215
758, 1206, 1254, 1263, 1215, 1208, 1256, 1264, 1216
759, 1208, 1256, 1264, 1216, 1210, 1258, 1265, 1217
760, 1210, 1258, 1265, 1217, 1212, 1260, 1266, 1218
761, 1219, 1267, 1268, 1220, 1221, 1269, 1270, 1222
762, 1221, 1269, 1270, 1222, 1223, 1271, 1272, 1224
763, 1220, 1268, 1273, 1225, 1222, 1270, 1274, 1226
764, 1222, 1270, 1274, 1226, 1224, 1272, 1275, 1227
765, 1225, 1273, 1276, 1228, 1226, 1274, 1277, 1229
766, 1226, 1274, 1277, 1229, 1227, 1275, 1278, 1230
767, 1228, 1276, 1259, 1211, 1229, 1277, 1279, 1231
768, 1229, 1277, 1279, 1231, 1230, 1278, 1280, 1232
769, 1211, 1259, 1260, 1212, 1231, 1279, 1281, 1233
770, 1231, 1279, 1281, 1233, 1232, 1280, 1282, 1234
771, 1212, 1260, 1266, 1218, 1233, 1281, 1283, 1235
772, 1233, 1281, 1283, 1235, 1234, 1282, 1284, 1236
773, 1218, 1266, 1285, 1237, 1235, 1283, 1286, 1238
774, 1235, 1283, 1286, 1238, 1236, 1284, 1287, 1239
775, 1237, 1285, 1288, 1240, 1238, 1286, 1289, 1241
776, 1238, 1286, 1289, 1241, 1239, 1287, 1290, 1242
777, 1240, 1288, 1291, 1243, 1241, 1289, 1292, 1244
778, 1241, 1289, 1292, 1244, 1242, 1290, 1293, 1245
779, 1243, 1291, 1294, 1246, 1244, 1292, 1295, 1247
780, 1244, 1292, 1295, 1247, 1245, 1293, 1296, 1248
781, 1249, 1297, 1298, 1250, 1251, 1299, 1300, 1252
782, 1251, 1299, 1300, 1252, 1253, 1301, 1302, 1254
783, 1253, 1301, 1302, 1254, 1255, 1303, 1304, 1256
784, 1255, 1303, 1304, 1256, 1257, 1305, 1306, 1258
785, 1257, 1305, 1306, 1258, 1259, 1307, 1308, 1260
786, 1250, 1298, 1309, 1261, 1252, 1300, 1310, 1262
787, 1252, 1300, 1310, 1262, 1254, 1302, 1311, 1263
788, 1254, 1302, 1311, 1263, 1256, 1304, 1312, 1264
789, 1256, 1304, 1312, 1264, 1258, 1306, 1313, 1265
790, 1258, 1306, 1313, 1265, 1260, 1308, 1314, 1266
791, 1267, 1315, 1316, 1268, 1269, 1317, 1318, 1270
792, 1269, 1317, 1318, 1270, 1271, 1319, 1320, 1272
793, 1268, 1316, 1321, 1273, 1270, 1318, 1322, 1274
794, 1270, 1318, 1322, 1274, 1272, 1320, 1323, 1275
795, 1273, 1321, 1324, 1276, 1274, 1322, 1325, 1277
796, 1274, 1322, 1325, 1277, 1275, 1323, 1326, 1278
797, 1276, 1324, 1307, 1259, 1277, 1325, 1327, 1279
798, 1277, 1325, 1327, 1279, 1278, 1326, 1328, 1280
799, 1259, 1307, 1308, 1260, 1279, 1327, 1329, 1281
800, 1279, 1327, 1329, 1281, 1280, 1328, 1330, 1282
801, 1260, 1308, 1314, 1266, 1281, 1329, 1331, 1283
802, 1281, 1329, 1331, 1283, 1282, 1330, 1332, 1284
803, 1266, 1314, 1333, 1285, 1283, 1331, 1334, 1286
804, 1283, 1331, 1334, 1286, 1284, 1332, 1335, 1287
805, 1285, 1333, 1336, 1288, 1286, 1334, 1337, 1289
806, 1286, 1334, 1337, 1289, 1287, 1335, 1338, 1290
807, 1288, 1336, 1339, 1291, 1289, 1337, 1340, 1292
808, 1289, 1337, 1340, 1292, 1290, 1338, 1341, 1293
809, 1291, 1339, 1342, 1294, 1292, 1340, 1343, 1295
810, 1292, 1340, 1343, 1295, 1293, 1341, 1344, 1296
811, 1297, 1345, 1346, 1298, 1299, 1347, 1348, 1300
812, 1299, 1347, 1348, 1300, 1301, 1349, 1350, 1302
813, 1301, 1349, 1350, 1302, 1303, 1351, 1352, 1304
814, 1303, 1351, 1352, 1304, 1305, 1353, 1354, 1306
815, 1305, 1353, 1354, 1306, 1307, 1355, 1356, 1308
816, 1298, 1346, 1357, 1309, 1300, 1348, 1358, 1310
817, 1300, 1348, 1358, 1310, 1302, 1350, 1359, 1311
818, 1302, 1350, 1359, 1311, 1304, 1352, 1360, 1312
819, 1304, 1352, 1360, 1312, 1306, 1354, 1361, 1313
820, 1306, 1354, 1361, 1313, 1308, 1356, 1362, 1314
821, 1315, 1363, 1364, 1316, 1317, 1365, 1366, 1318
822, 1317, 1365, 1366, 1318, 1319, 1367, 1368, 1320
823, 1316, 1364, 1369, 1321, 1318, 1366, 1370, 1322
824, 1318, 1366, 1370, 1322, 1320, 1368, 1371, 1323
825, 1321, 1369, 1372, 1324, 1322, 1370, 1373, 1325
826, 1322, 1370, 1373, 1325, 1323, 1371, 1374, 1326
827, 1324, 1372, 1355, 1307, 1325, 1373, 1375, 1327
828, 1325, 1373, 1375, 1327, 1326, 1374, 1376, 1328
829, 1307, 1355, 1356, 1308, 1327, 1375, 1377, 1329
830, 1327, 1375, 1377, 1329, 1328, 1376, 1378, 1330
831, 1308, 1356, 1362, 1314, 1329, 1377, 1379, 1331
832, 1329, 1377, 1379, 1331, 1330, 1378, 1380, 1332
833, 1314, 1362, 1381, 1333, 1331, 1379, 1382, 1334
834, 1331, 1379, 1382, 1334, 1332, 1380, 1383, 1335
835, 1333, 1381, 1384, 1336, 1334, 1382, 1385, 1337
836, 1334, 1382, 1385, 1337, 1335, 1383, 1386, 1338
837, 1336, 1384, 1387, 1339, 1337, 1385, 1388, 1340
838, 1337, 1385, 1388, 1340, 1338, 1386, 1389, 1341
839, 1339, 1387, 1390, 1342, 1340, 1388, 1391, 1343
840, 1340, 1388, 1391, 1343, 1341, 1389, 1392, 1344
841, 1345, 1393, 1394, 1346, 1347, 1395, 1396, 1348
842, 1347, 1395, 1396, 1348, 1349, 1397, 1398, 1350
843, 1349, 1397, 1398, 1350, 1351, 1399, 1400, 1352
844, 1351, 1399, 1400, 1352, 1353, 1401, 1402, 1354
845, 1353, 1401, 1402, 1354, 1355, 1403, 1404, 1356
846, 1346, 1394, 1405, 1357, 1348, 1396, 1406, 1358
847, 1348, 1396, 1406, 1358, 1350, 1398, 1407, 1359
848, 1350, 1398, 1407, 1359, 1352, 1400, 1408, 1360
849, 1352, 1400, 1408, 1360, 1354, 1402, 1409, 1361
850, 1354, 1402, 1409, 1361, 1356, 1404, 1410, 1362
851, 1363, 1411, 1412, 1364, 1365, 1413, 1414, 1366
852, 1365, 1413, 1414, 1366, 1367, 1415, 1416, 1368
853, 1364, 1412, 1417, 1369, 1366, 1414, 1418, 1370
854, 1366, 1414, 1418, 1370, 1368, 1416, 1419, 1371
855, 1369, 1417, 1420, 1372, 1370, 1418, 1421, 1373
856, 1370, 1418, 1421, 1373, 1371, 1419, 1422, 1374
857, 1372, 1420, 1403, 1355, 1373, 1421, 1423, 1375
858, 1373, 1421, 1423, 1375, 1374, 1422, 1424, 1376
859, 1355, 1403, 1404, 1356, 1375, 1423, 1425, 1377
860, 1375, 1423, 1425, 1377, 1376, 1424, 1426, 1378
861, 1356, 1404, 1410, 1362, 1377, 1425, 1427, 1379
862, 1377, 1425, 1427, 1379, 1378, 1426, 1428, 1380
863, 1362, 1410, 1429, 1381, 1379, 1427, 1430, 1382
864, 1379, 1427, 1430, 1382, 1380, 1428, 1431, 1383
865, 1381, 1429, 1432, 1384, 1382, 1430, 1433, 1385
866, 1382, 1430, 1433, 1385, 1383, 1431, 1434, 1386
867, 1384, 1432, 1435, 1387, 1385, 1433, 1436, 1388
868, 1385, 1433, 1436, 1388, 1386, 1434, 1437, 1389
869, 1387, 1435, 1438, 1390, 1388, 1436, 1439, 1391
870, 1388, 1436, 1439, 1391, 1389, 1437, 1440, 1392
871, 1393, 1441, 1442, 1394, 1395, 1443, 1444, 1396
872, 1395, 1443, 1444, 1396, 1397, 1445, 1446, 1398
873, 1397, 1445, 1446, 1398, 1399, 1447, 1448, 1400
874, 1399, 1447, 1448, 1400, 1401, 1449, 1450, 1402
875, 1401, 1449, 1450, 1402, 1403, 1451, 1452, 1404
876, 1394, 1442, 1453, 1405, 1396, 1444, 1454, 1406
877, 1396, 1444, 1454, 1406, 1398, 1446, 1455, 1407
878, 1398, 1446, 1455, 1407, 1400, 1448, 1456, 1408
879, 1400, 1448, 1456, 1408, 1402, 1450, 1457, 1409
880, 1402, 1450, 1457, 1409, 1404, 1452, 1458, 1410
881, 1411, 1459, 1460, 1412, 1413, 1461, 1462, 1414
882, 1413, 1461, 1462, 1414, 1415, 1463, 1464, 1416
883, 1412, 1460, 1465, 1417, 1414, 1462, 1466, 1418
884, 1414, 1462, 1466, 1418, 1416, 1464, 1467, 1419
885, 1417, 1465, 1468, 1420, 1418, 1466, 1469, 1421
886, 1418, 1466, 1469, 1421, 1419, 1467, 1470, 1422
887, 1420, 1468, 1451, 1403, 1421, 1469, 1471, 1423
888, 1421, 1469, 1471, 1423, 1422, 1470, 1472, 1424
889, 1403, 1451, 1452, 1404, 1423, 1471, 1473, 1425
890, 1423, 1471, 1473, 1425, 1424, 1472, 1474, 1426
891, 1404, 1452, 1458, 1410, 1425, 1473, 1475, 1427
892, 1425, 1473, 1475, 1427, 1426, 1474, 1476, 1428
893, 1410, 1458, 1477, 1429, 1427, 1475, 1478, 1430
894, 1427, 1475, 1478, 1430, 1428, 1476, 1479, 1431
895, 1429, 1477, 1480, 1432, 1430, 1478, 1481, 1433
896, 1430, 1478, 1481, 1433, 1431, 1479, 1482, 1434
897, 1432, 1480, 1483, 1435, 1433, 1481, 1484, 1436
898, 1433, 1481, 1484, 1436, 1434, 1482, 1485, 1437
899, 1435, 1483, 1486, 1438, 1436, 1484, 1487, 1439
900, 1436, 1484, 1487, 1439, 1437, 1485, 1488, 1440
901, 1441, 1489, 1490, 1442, 1443, 1491, 1492, 1444
902, 1443, 1491, 1492, 1444, 1445, 1493, 1494, 1446
903, 1445, 1493, 1494, 1446, 1447, 1495, 1496, 1448
904, 1447, 1495, 1496, 1448, 1449, 1497, 1498, 1450
905, 1449, 1497, 1498, 1450, 1451, 1499, 1500, 1452
906, 1442, 1490, 1501, 1453, 1444, 1492, 1502, 1454
907, 1444, 1492, 1502, 1454, 1446, 1494, 1503, 1455
908, 1446, 1494, 1503, 1455, 1448, 1496, 1504, 1456
909, 1448, 1496, 1504, 1456, 1450, 1498, 1505, 1457
910, 1450, 1498, 1505, 1457, 1452, 1500, 1506, 1458
911, 1459, 1507, 1508, 1460, 1461, 1509, 1510, 1462
912, 1461, 1509, 1510, 1462, 1463, 1511, 1512, 1464
913, 1460, 1508, 1513, 1465, 1462, 1510, 1514, 1466
914, 1462, 1510, 1514, 1466, 1464, 1512, 1515, 1467
915, 1465, 1513, 1516, 1468, 1466, 1514, 1517, 1469
916, 1466, 1514, 1517, 1469, 1467, 1515, 1518, 1470
917, 1468, 1516, 1499, 1451, 1469, 1517, 1519, 1471
918, 1469, 1517, 1519, 1471, 1470, 1518, 1520, 1472
919, 1451, 1499, 1500, 1452, 1471, 1519, 1521, 1473
920, 1471, 1519, 1521, 1473, 1472, 1520, 1522, 1474
921, 1452, 1500, 1506, 1458, 1473, 1521, 1523, 1475
922, 1473, 1521, 1523, 1475, 1474, 1522, 1524, 1476
923, 1458, 1506, 1525, 1477, 1475, 1523, 1526, 1478
924, 1475, 1523, 1526, 1478, 1476, 1524, 1527, 1479
925, 1477, 1525, 1528, 1480, 1478, 1526, 1529, 1481
926, 1478, 1526, 1529, 1481, 1479, 1527, 1530, 1482
927, 1480, 1528, 1531, 1483, 1481, 1529, 1532, 1484
928, 1481, 1529, 1532, 1484, 1482, 1530, 1533, 1485
929, 1483, 1531, 1534, 1486, 1484, 1532, 1535, 1487
930, 1484, 1532, 1535, 1487, 1485, 1533, 1536, 1488
931, 1489, 1537, 1538, 1490, 1491, 1539, 1540, 1492
932, 1491, 1539, 1540, 1492, 1493, 1541, 1542, 1494
933, 1493, 1541, 1542, 1494, 1495, 1543, 1544, 1496
934, 1495, 1543, 1544, 1496, 1497, 1545, 1546, 1498
935, 1497, 1545, 1546, 1498, 1499, 1547, 1548, 1500
936, 1490, 1538, 1549, 1501, 1492, 1540, 1550, 1502
937, 1492, 1540, 1550, 1502, 1494, 1542, 1551, 1503
938, 1494, 1542, 1551, 1503, 1496, 1544, 1552, 1504
939, 1496, 1544, 1552, 1504, 1498, 1546, 1553, 1505
940, 1498, 1546, 1553, 1505, 1500, 1548, 1554, 1506
941, 1507, 1555, 1556, 1508, 1509, 1557, 1558, 1510
942, 1509, 1557, 1558, 1510, 1511, 1559, 1560, 1512
943, 1508, 1556, 1561, 1513, 1510, 1558, 1562, 1514
944, 1510, 1558, 1562, 1514, 1512, 1560, 1563, 1515
945, 1513, 1561, 1564, 1516, 1514, 1562, 1565, 1517
946, 1514, 1562, 1565, 1517, 1515, 1563, 1566, 1518
947, 1516, 1564, 1547, 1499, 1517, 1565, 1567, 1519
948, 1517, 1565, 1567, 1519, 1518, 1566, 1568, 1520
949, 1499, 1547, 1548, 1500, 1519, 1567, 1569, 1521
950, 1519, 1567, 1569, 1521, 1520, 1568, 1570, 1522
951, 1500, 1548, 1554, 1506, 1521, 1569, 1571, 1523
952, 1521, 1569, 1571, 1523, 1522, 1570, 1572, 1524
953, 1506, 1554, 1573, 1525, 1523, 1571, 1574, 1526
954, 1523, 1571, 1574, 1526, 1524, 1572, 1575, 1527
955, 1525, 1573, 1576, 1528, 1526, 1574, 1577, 1529
956, 1526, 1574, 1577, 1529, 1527, 1575, 1578, 1530
957, 1528, 1576, 1579, 1531, 1529, 1577, 1580, 1532
958, 1529, 1577, 1580, 1532, 1530, 1578, 1581, 1533
959, 1531, 1579, 1582, 1534, 1532, 1580, 1583, 1535
960, 1532, 1580, 1583, 1535, 1533, 1581, 1584, 1536
*NSET, NSET=CLAMP
1, 4, 5, 8, 9, 12, 13, 16, 17, 20, 21, 24, 26, 28, 30, 32
34, 36, 37, 40, 41, 44, 45, 48, 50, 52, 54, 56, 58, 60, 62, 64
66, 68, 70, 72, 74, 76, 78, 80, 82, 84, 86, 88, 90, 92, 94, 96
*NSET, NSET=TIP_TOP
1559, 1560, 1563, 1566, 1568, 1570, 1572, 1575, 1578, 1581, 1584
*NSET, NSET=TIP_FLANGE
1559, 1560, 1563, 1566, 1568, 1570, 1572, 1575, 1578, 1581, 1584
*MATERIAL, NAME=STEEL
*ELASTIC
210000, 0.3
*DENSITY
7.85e-09
*SOLID SECTION, ELSET=EALL, MATERIAL=STEEL
*BOUNDARY
CLAMP, 1, 3, 0.0
*AMPLITUDE, NAME=PULSE
0, 0, 0.004, 1, 0.02, 0, 0.05, 0
*STEP, NLGEOM, INC=80
*DYNAMIC
5.0e-4, 0.050, 1.0e-6, 2.0e-3
*CLOAD, AMPLITUDE=PULSE
1559, 3, -2727.27272727
1560, 3, -2727.27272727
1563, 3, -2727.27272727
1566, 3, -2727.27272727
1568, 3, -2727.27272727
1570, 3, -2727.27272727
1572, 3, -2727.27272727
1575, 3, -2727.27272727
1578, 3, -2727.27272727
1581, 3, -2727.27272727
1584, 3, -2727.27272727
*NODE FILE, FREQUENCY=5
U
*EL FILE, FREQUENCY=5
S, ENER
*NODE PRINT, NSET=TIP_TOP
U
*NODE PRINT, NSET=CLAMP
RF
*EL PRINT, ELSET=EALL
ELSE
*ENERGY PRINT
*END STEP
