*HEADING
Normalized cross-passage space-truss torsion benchmark
*NODE
1,-1.200000000000e+00,0.000000000000e+00,0.000000000000e+00
2,1.200000000000e+00,0.000000000000e+00,0.000000000000e+00
3,-1.200000000000e+00,0.000000000000e+00,2.000000000000e+00
4,1.200000000000e+00,0.000000000000e+00,2.000000000000e+00
5,-1.200000000000e+00,1.000000000000e+01,0.000000000000e+00
6,1.200000000000e+00,1.000000000000e+01,0.000000000000e+00
7,-1.200000000000e+00,1.000000000000e+01,2.000000000000e+00
8,1.200000000000e+00,1.000000000000e+01,2.000000000000e+00
9,-1.200000000000e+00,2.000000000000e+01,0.000000000000e+00
10,1.200000000000e+00,2.000000000000e+01,0.000000000000e+00
11,-1.200000000000e+00,2.000000000000e+01,2.000000000000e+00
12,1.200000000000e+00,2.000000000000e+01,2.000000000000e+00
13,-1.200000000000e+00,3.000000000000e+01,0.000000000000e+00
14,1.200000000000e+00,3.000000000000e+01,0.000000000000e+00
15,-1.200000000000e+00,3.000000000000e+01,2.000000000000e+00
16,1.200000000000e+00,3.000000000000e+01,2.000000000000e+00
17,-1.200000000000e+00,4.000000000000e+01,0.000000000000e+00
18,1.200000000000e+00,4.000000000000e+01,0.000000000000e+00
19,-1.200000000000e+00,4.000000000000e+01,2.000000000000e+00
20,1.200000000000e+00,4.000000000000e+01,2.000000000000e+00
21,-1.200000000000e+00,5.000000000000e+01,0.000000000000e+00
22,1.200000000000e+00,5.000000000000e+01,0.000000000000e+00
23,-1.200000000000e+00,5.000000000000e+01,2.000000000000e+00
24,1.200000000000e+00,5.000000000000e+01,2.000000000000e+00
25,-1.200000000000e+00,2.500000000000e+00,-1.060660171780e-01
26,-1.200000000000e+00,5.000000000000e+00,-1.500000000000e-01
27,-1.200000000000e+00,7.500000000000e+00,-1.060660171780e-01
28,1.200000000000e+00,2.500000000000e+00,1.060660171780e-01
29,1.200000000000e+00,5.000000000000e+00,1.500000000000e-01
30,1.200000000000e+00,7.500000000000e+00,1.060660171780e-01
31,-1.200000000000e+00,2.500000000000e+00,1.893933982822e+00
32,-1.200000000000e+00,5.000000000000e+00,1.850000000000e+00
33,-1.200000000000e+00,7.500000000000e+00,1.893933982822e+00
34,1.200000000000e+00,2.500000000000e+00,2.106066017178e+00
35,1.200000000000e+00,5.000000000000e+00,2.150000000000e+00
36,1.200000000000e+00,7.500000000000e+00,2.106066017178e+00
37,-1.200000000000e+00,1.500000000000e+01,-1.500000000000e-01
38,1.200000000000e+00,1.500000000000e+01,1.500000000000e-01
39,-1.200000000000e+00,1.500000000000e+01,1.850000000000e+00
40,1.200000000000e+00,1.500000000000e+01,2.150000000000e+00
41,-1.200000000000e+00,2.500000000000e+01,-1.500000000000e-01
42,1.200000000000e+00,2.500000000000e+01,1.500000000000e-01
43,-1.200000000000e+00,2.500000000000e+01,1.850000000000e+00
44,1.200000000000e+00,2.500000000000e+01,2.150000000000e+00
45,-1.200000000000e+00,3.250000000000e+01,-1.060660171780e-01
46,-1.200000000000e+00,3.500000000000e+01,-1.500000000000e-01
47,-1.200000000000e+00,3.750000000000e+01,-1.060660171780e-01
48,1.200000000000e+00,3.250000000000e+01,1.060660171780e-01
49,1.200000000000e+00,3.500000000000e+01,1.500000000000e-01
50,1.200000000000e+00,3.750000000000e+01,1.060660171780e-01
51,-1.200000000000e+00,3.250000000000e+01,1.893933982822e+00
52,-1.200000000000e+00,3.500000000000e+01,1.850000000000e+00
53,-1.200000000000e+00,3.750000000000e+01,1.893933982822e+00
54,1.200000000000e+00,3.250000000000e+01,2.106066017178e+00
55,1.200000000000e+00,3.500000000000e+01,2.150000000000e+00
56,1.200000000000e+00,3.750000000000e+01,2.106066017178e+00
57,-1.200000000000e+00,4.250000000000e+01,-1.060660171780e-01
58,-1.200000000000e+00,4.500000000000e+01,-1.500000000000e-01
59,-1.200000000000e+00,4.750000000000e+01,-1.060660171780e-01
60,1.200000000000e+00,4.250000000000e+01,1.060660171780e-01
61,1.200000000000e+00,4.500000000000e+01,1.500000000000e-01
62,1.200000000000e+00,4.750000000000e+01,1.060660171780e-01
63,-1.200000000000e+00,4.250000000000e+01,1.893933982822e+00
64,-1.200000000000e+00,4.500000000000e+01,1.850000000000e+00
65,-1.200000000000e+00,4.750000000000e+01,1.893933982822e+00
66,1.200000000000e+00,4.250000000000e+01,2.106066017178e+00
67,1.200000000000e+00,4.500000000000e+01,2.150000000000e+00
68,1.200000000000e+00,4.750000000000e+01,2.106066017178e+00
69,0.000000000000e+00,-3.600000000000e-02,0.000000000000e+00
70,0.000000000000e+00,3.600000000000e-02,2.000000000000e+00
71,-1.200000000000e+00,3.000000000000e-02,1.000000000000e+00
72,1.200000000000e+00,-3.000000000000e-02,1.000000000000e+00
73,-6.000000000000e-01,9.974544155877e+00,0.000000000000e+00
74,0.000000000000e+00,9.964000000000e+00,0.000000000000e+00
75,6.000000000000e-01,9.974544155877e+00,0.000000000000e+00
76,-6.000000000000e-01,1.002545584412e+01,2.000000000000e+00
77,0.000000000000e+00,1.003600000000e+01,2.000000000000e+00
78,6.000000000000e-01,1.002545584412e+01,2.000000000000e+00
79,-1.200000000000e+00,1.002121320344e+01,5.000000000000e-01
80,-1.200000000000e+00,1.003000000000e+01,1.000000000000e+00
81,-1.200000000000e+00,1.002121320344e+01,1.500000000000e+00
82,1.200000000000e+00,9.978786796564e+00,5.000000000000e-01
83,1.200000000000e+00,9.970000000000e+00,1.000000000000e+00
84,1.200000000000e+00,9.978786796564e+00,1.500000000000e+00
85,0.000000000000e+00,1.996400000000e+01,0.000000000000e+00
86,0.000000000000e+00,2.003600000000e+01,2.000000000000e+00
87,-1.200000000000e+00,2.003000000000e+01,1.000000000000e+00
88,1.200000000000e+00,1.997000000000e+01,1.000000000000e+00
89,-6.000000000000e-01,3.997454415588e+01,0.000000000000e+00
90,0.000000000000e+00,3.996400000000e+01,0.000000000000e+00
91,6.000000000000e-01,3.997454415588e+01,0.000000000000e+00
92,-6.000000000000e-01,4.002545584412e+01,2.000000000000e+00
93,0.000000000000e+00,4.003600000000e+01,2.000000000000e+00
94,6.000000000000e-01,4.002545584412e+01,2.000000000000e+00
95,-1.200000000000e+00,4.002121320344e+01,5.000000000000e-01
96,-1.200000000000e+00,4.003000000000e+01,1.000000000000e+00
97,-1.200000000000e+00,4.002121320344e+01,1.500000000000e+00
98,1.200000000000e+00,3.997878679656e+01,5.000000000000e-01
99,1.200000000000e+00,3.997000000000e+01,1.000000000000e+00
100,1.200000000000e+00,3.997878679656e+01,1.500000000000e+00
101,-1.200000000000e+00,2.521213203436e+00,3.939339828220e-01
102,-1.200000000000e+00,5.030000000000e+00,8.500000000000e-01
103,-1.200000000000e+00,7.521213203436e+00,1.393933982822e+00
104,-1.200000000000e+00,2.521213203436e+00,1.606066017178e+00
105,-1.200000000000e+00,5.030000000000e+00,1.150000000000e+00
106,-1.200000000000e+00,7.521213203436e+00,6.060660171780e-01
107,1.200000000000e+00,2.521213203436e+00,3.939339828220e-01
108,1.200000000000e+00,5.030000000000e+00,8.500000000000e-01
109,1.200000000000e+00,7.521213203436e+00,1.393933982822e+00
110,1.200000000000e+00,2.521213203436e+00,1.606066017178e+00
111,1.200000000000e+00,5.030000000000e+00,1.150000000000e+00
112,1.200000000000e+00,7.521213203436e+00,6.060660171780e-01
113,-4.939339828220e-01,2.474544155877e+00,0.000000000000e+00
114,1.500000000000e-01,4.964000000000e+00,0.000000000000e+00
115,7.060660171780e-01,7.474544155877e+00,0.000000000000e+00
116,4.939339828220e-01,2.474544155877e+00,0.000000000000e+00
117,-1.500000000000e-01,4.964000000000e+00,0.000000000000e+00
118,-7.060660171780e-01,7.474544155877e+00,0.000000000000e+00
119,-4.939339828220e-01,2.474544155877e+00,2.000000000000e+00
120,1.500000000000e-01,4.964000000000e+00,2.000000000000e+00
121,7.060660171780e-01,7.474544155877e+00,2.000000000000e+00
122,4.939339828220e-01,2.474544155877e+00,2.000000000000e+00
123,-1.500000000000e-01,4.964000000000e+00,2.000000000000e+00
124,-7.060660171780e-01,7.474544155877e+00,2.000000000000e+00
125,-1.200000000000e+00,1.252121320344e+01,3.939339828220e-01
126,-1.200000000000e+00,1.503000000000e+01,8.500000000000e-01
127,-1.200000000000e+00,1.752121320344e+01,1.393933982822e+00
128,-1.200000000000e+00,1.252121320344e+01,1.606066017178e+00
129,-1.200000000000e+00,1.503000000000e+01,1.150000000000e+00
130,-1.200000000000e+00,1.752121320344e+01,6.060660171780e-01
131,1.200000000000e+00,1.252121320344e+01,3.939339828220e-01
132,1.200000000000e+00,1.503000000000e+01,8.500000000000e-01
133,1.200000000000e+00,1.752121320344e+01,1.393933982822e+00
134,1.200000000000e+00,1.252121320344e+01,1.606066017178e+00
135,1.200000000000e+00,1.503000000000e+01,1.150000000000e+00
136,1.200000000000e+00,1.752121320344e+01,6.060660171780e-01
137,-4.939339828220e-01,1.247454415588e+01,0.000000000000e+00
138,1.500000000000e-01,1.496400000000e+01,0.000000000000e+00
139,7.060660171780e-01,1.747454415588e+01,0.000000000000e+00
140,4.939339828220e-01,1.247454415588e+01,0.000000000000e+00
141,-1.500000000000e-01,1.496400000000e+01,0.000000000000e+00
142,-7.060660171780e-01,1.747454415588e+01,0.000000000000e+00
143,-4.939339828220e-01,1.247454415588e+01,2.000000000000e+00
144,1.500000000000e-01,1.496400000000e+01,2.000000000000e+00
145,7.060660171780e-01,1.747454415588e+01,2.000000000000e+00
146,4.939339828220e-01,1.247454415588e+01,2.000000000000e+00
147,-1.500000000000e-01,1.496400000000e+01,2.000000000000e+00
148,-7.060660171780e-01,1.747454415588e+01,2.000000000000e+00
149,-1.200000000000e+00,3.503000000000e+01,8.500000000000e-01
150,-1.200000000000e+00,3.503000000000e+01,1.150000000000e+00
151,1.200000000000e+00,3.503000000000e+01,8.500000000000e-01
152,1.200000000000e+00,3.503000000000e+01,1.150000000000e+00
153,1.500000000000e-01,3.496400000000e+01,0.000000000000e+00
154,-1.500000000000e-01,3.496400000000e+01,0.000000000000e+00
155,1.500000000000e-01,3.496400000000e+01,2.000000000000e+00
156,-1.500000000000e-01,3.496400000000e+01,2.000000000000e+00
157,-1.200000000000e+00,4.503000000000e+01,8.500000000000e-01
158,-1.200000000000e+00,4.503000000000e+01,1.150000000000e+00
159,1.200000000000e+00,4.503000000000e+01,8.500000000000e-01
160,1.200000000000e+00,4.503000000000e+01,1.150000000000e+00
161,1.500000000000e-01,4.496400000000e+01,0.000000000000e+00
162,-1.500000000000e-01,4.496400000000e+01,0.000000000000e+00
163,1.500000000000e-01,4.496400000000e+01,2.000000000000e+00
164,-1.500000000000e-01,4.496400000000e+01,2.000000000000e+00
*ELEMENT,TYPE=B31,ELSET=ALL
1,1,25
2,25,26
3,26,27
4,27,5
5,2,28
6,28,29
7,29,30
8,30,6
9,3,31
10,31,32
11,32,33
12,33,7
13,4,34
14,34,35
15,35,36
16,36,8
17,5,37
18,37,9
19,6,38
20,38,10
21,7,39
22,39,11
23,8,40
24,40,12
25,9,41
26,41,13
27,10,42
28,42,14
29,11,43
30,43,15
31,12,44
32,44,16
33,13,45
34,45,46
35,46,47
36,47,17
37,14,48
38,48,49
39,49,50
40,50,18
41,15,51
42,51,52
43,52,53
44,53,19
45,16,54
46,54,55
47,55,56
48,56,20
49,17,57
50,57,58
51,58,59
52,59,21
53,18,60
54,60,61
55,61,62
56,62,22
57,19,63
58,63,64
59,64,65
60,65,23
61,20,66
62,66,67
63,67,68
64,68,24
65,1,69
66,69,2
67,3,70
68,70,4
69,1,71
70,71,3
71,2,72
72,72,4
73,5,73
74,73,74
75,74,75
76,75,6
77,7,76
78,76,77
79,77,78
80,78,8
81,5,79
82,79,80
83,80,81
84,81,7
85,6,82
86,82,83
87,83,84
88,84,8
89,9,85
90,85,10
91,11,86
92,86,12
93,9,87
94,87,11
95,10,88
96,88,12
97,13,14
98,15,16
99,13,15
100,14,16
101,17,89
102,89,90
103,90,91
104,91,18
105,19,92
106,92,93
107,93,94
108,94,20
109,17,95
110,95,96
111,96,97
112,97,19
113,18,98
114,98,99
115,99,100
116,100,20
117,21,22
118,23,24
119,21,23
120,22,24
121,1,101
122,101,102
123,102,103
124,103,7
125,3,104
126,104,105
127,105,106
128,106,5
129,2,107
130,107,108
131,108,109
132,109,8
133,4,110
134,110,111
135,111,112
136,112,6
137,1,113
138,113,114
139,114,115
140,115,6
141,2,116
142,116,117
143,117,118
144,118,5
145,3,119
146,119,120
147,120,121
148,121,8
149,4,122
150,122,123
151,123,124
152,124,7
153,5,125
154,125,126
155,126,127
156,127,11
157,7,128
158,128,129
159,129,130
160,130,9
161,6,131
162,131,132
163,132,133
164,133,12
165,8,134
166,134,135
167,135,136
168,136,10
169,5,137
170,137,138
171,138,139
172,139,10
173,6,140
174,140,141
175,141,142
176,142,9
177,7,143
178,143,144
179,144,145
180,145,12
181,8,146
182,146,147
183,147,148
184,148,11
185,9,15
186,11,13
187,10,16
188,12,14
189,9,14
190,10,13
191,11,16
192,12,15
193,13,149
194,149,19
195,15,150
196,150,17
197,14,151
198,151,20
199,16,152
200,152,18
201,13,153
202,153,18
203,14,154
204,154,17
205,15,155
206,155,20
207,16,156
208,156,19
209,17,157
210,157,23
211,19,158
212,158,21
213,18,159
214,159,24
215,20,160
216,160,22
217,17,161
218,161,22
219,18,162
220,162,21
221,19,163
222,163,24
223,20,164
224,164,23
*NSET,NSET=NALL,GENERATE
1,164,1
*NSET,NSET=LEFT
1,2,3,4
*NSET,NSET=RIGHT
21,22,23,24
*MATERIAL,NAME=STEEL
*ELASTIC
2.100000000000e+11,0.300000000000
*BEAM SECTION,ELSET=ALL,MATERIAL=STEEL,SECTION=RECT
6.000000000000e-02,4.000000000000e-02
0.371390676354,0.557086014531,0.742781352708
*BOUNDARY
LEFT,1,6,0.0
*STEP
*STATIC
*BOUNDARY
21,1,1,5.000000000000e-03
21,2,2,0.0
21,3,3,-6.000000000000e-03
*BOUNDARY
22,1,1,5.000000000000e-03
22,2,2,0.0
22,3,3,6.000000000000e-03
*BOUNDARY
23,1,1,-5.000000000000e-03
23,2,2,0.0
23,3,3,-6.000000000000e-03
*BOUNDARY
24,1,1,-5.000000000000e-03
24,2,2,0.0
24,3,3,6.000000000000e-03
*NODE FILE,NSET=NALL
U
*NODE PRINT,NSET=NALL
U
*NODE PRINT,NSET=RIGHT
RF
*EL PRINT,ELSET=ALL,TOTALS=YES
ELSE
*END STEP
