*HEADING
Normalized cross-passage space-truss torsion benchmark
*NODE
1,-1.200000000000e+00,0.000000000000e+00,0.000000000000e+00
2,1.200000000000e+00,0.000000000000e+00,0.000000000000e+00
3,-1.200000000000e+00,0.000000000000e+00,2.000000000000e+00
4,1.200000000000e+00,0.000000000000e+00,2.000000000000e+00
5,-1.200000000000e+00,1.000000000000e+01,0.000000000000e+00
6,1.200000000000e+00,1.000000000000e+01,0.000000000000e+00
7,-1.200000000000e+00,1.000000000000e+01,2.000000000000e+00
8,1.200000000000e+00,1.000000000000e+01,2.000000000000e+00
9,-1.200000000000e+00,2.000000000000e+01,0.000000000000e+00
10,1.200000000000e+00,2.000000000000e+01,0.000000000000e+00
11,-1.200000000000e+00,2.000000000000e+01,2.000000000000e+00
12,1.200000000000e+00,2.000000000000e+01,2.000000000000e+00
13,-1.200000000000e+00,3.000000000000e+01,0.000000000000e+00
14,1.200000000000e+00,3.000000000000e+01,0.000000000000e+00
15,-1.200000000000e+00,3.000000000000e+01,2.000000000000e+00
16,1.200000000000e+00,3.000000000000e+01,2.000000000000e+00
17,-1.200000000000e+00,4.000000000000e+01,0.000000000000e+00
18,1.200000000000e+00,4.000000000000e+01,0.000000000000e+00
19,-1.200000000000e+00,4.000000000000e+01,2.000000000000e+00
20,1.200000000000e+00,4.000000000000e+01,2.000000000000e+00
21,-1.200000000000e+00,5.000000000000e+01,0.000000000000e+00
22,1.200000000000e+00,5.000000000000e+01,0.000000000000e+00
23,-1.200000000000e+00,5.000000000000e+01,2.000000000000e+00
24,1.200000000000e+00,5.000000000000e+01,2.000000000000e+00
25,-1.200000000000e+00,5.000000000000e+00,-1.500000000000e-01
26,1.200000000000e+00,5.000000000000e+00,1.500000000000e-01
27,-1.200000000000e+00,5.000000000000e+00,1.850000000000e+00
28,1.200000000000e+00,5.000000000000e+00,2.150000000000e+00
29,-1.200000000000e+00,1.500000000000e+01,-1.500000000000e-01
30,1.200000000000e+00,1.500000000000e+01,1.500000000000e-01
31,-1.200000000000e+00,1.500000000000e+01,1.850000000000e+00
32,1.200000000000e+00,1.500000000000e+01,2.150000000000e+00
33,-1.200000000000e+00,2.500000000000e+01,-1.500000000000e-01
34,1.200000000000e+00,2.500000000000e+01,1.500000000000e-01
35,-1.200000000000e+00,2.500000000000e+01,1.850000000000e+00
36,1.200000000000e+00,2.500000000000e+01,2.150000000000e+00
37,-1.200000000000e+00,3.125000000000e+01,-5.740251485476e-02
38,-1.200000000000e+00,3.250000000000e+01,-1.060660171780e-01
39,-1.200000000000e+00,3.375000000000e+01,-1.385819298767e-01
40,-1.200000000000e+00,3.500000000000e+01,-1.500000000000e-01
41,-1.200000000000e+00,3.625000000000e+01,-1.385819298767e-01
42,-1.200000000000e+00,3.750000000000e+01,-1.060660171780e-01
43,-1.200000000000e+00,3.875000000000e+01,-5.740251485476e-02
44,1.200000000000e+00,3.125000000000e+01,5.740251485476e-02
45,1.200000000000e+00,3.250000000000e+01,1.060660171780e-01
46,1.200000000000e+00,3.375000000000e+01,1.385819298767e-01
47,1.200000000000e+00,3.500000000000e+01,1.500000000000e-01
48,1.200000000000e+00,3.625000000000e+01,1.385819298767e-01
49,1.200000000000e+00,3.750000000000e+01,1.060660171780e-01
50,1.200000000000e+00,3.875000000000e+01,5.740251485476e-02
51,-1.200000000000e+00,3.125000000000e+01,1.942597485145e+00
52,-1.200000000000e+00,3.250000000000e+01,1.893933982822e+00
53,-1.200000000000e+00,3.375000000000e+01,1.861418070123e+00
54,-1.200000000000e+00,3.500000000000e+01,1.850000000000e+00
55,-1.200000000000e+00,3.625000000000e+01,1.861418070123e+00
56,-1.200000000000e+00,3.750000000000e+01,1.893933982822e+00
57,-1.200000000000e+00,3.875000000000e+01,1.942597485145e+00
58,1.200000000000e+00,3.125000000000e+01,2.057402514855e+00
59,1.200000000000e+00,3.250000000000e+01,2.106066017178e+00
60,1.200000000000e+00,3.375000000000e+01,2.138581929877e+00
61,1.200000000000e+00,3.500000000000e+01,2.150000000000e+00
62,1.200000000000e+00,3.625000000000e+01,2.138581929877e+00
63,1.200000000000e+00,3.750000000000e+01,2.106066017178e+00
64,1.200000000000e+00,3.875000000000e+01,2.057402514855e+00
65,-1.200000000000e+00,4.250000000000e+01,-1.060660171780e-01
66,-1.200000000000e+00,4.500000000000e+01,-1.500000000000e-01
67,-1.200000000000e+00,4.750000000000e+01,-1.060660171780e-01
68,1.200000000000e+00,4.250000000000e+01,1.060660171780e-01
69,1.200000000000e+00,4.500000000000e+01,1.500000000000e-01
70,1.200000000000e+00,4.750000000000e+01,1.060660171780e-01
71,-1.200000000000e+00,4.250000000000e+01,1.893933982822e+00
72,-1.200000000000e+00,4.500000000000e+01,1.850000000000e+00
73,-1.200000000000e+00,4.750000000000e+01,1.893933982822e+00
74,1.200000000000e+00,4.250000000000e+01,2.106066017178e+00
75,1.200000000000e+00,4.500000000000e+01,2.150000000000e+00
76,1.200000000000e+00,4.750000000000e+01,2.106066017178e+00
77,-6.000000000000e-01,-2.545584412272e-02,0.000000000000e+00
78,0.000000000000e+00,-3.600000000000e-02,0.000000000000e+00
79,6.000000000000e-01,-2.545584412272e-02,0.000000000000e+00
80,-6.000000000000e-01,2.545584412272e-02,2.000000000000e+00
81,0.000000000000e+00,3.600000000000e-02,2.000000000000e+00
82,6.000000000000e-01,2.545584412272e-02,2.000000000000e+00
83,-1.200000000000e+00,2.121320343560e-02,5.000000000000e-01
84,-1.200000000000e+00,3.000000000000e-02,1.000000000000e+00
85,-1.200000000000e+00,2.121320343560e-02,1.500000000000e+00
86,1.200000000000e+00,-2.121320343560e-02,5.000000000000e-01
87,1.200000000000e+00,-3.000000000000e-02,1.000000000000e+00
88,1.200000000000e+00,-2.121320343560e-02,1.500000000000e+00
89,0.000000000000e+00,9.964000000000e+00,0.000000000000e+00
90,0.000000000000e+00,1.003600000000e+01,2.000000000000e+00
91,-1.200000000000e+00,1.003000000000e+01,1.000000000000e+00
92,1.200000000000e+00,9.970000000000e+00,1.000000000000e+00
93,0.000000000000e+00,1.996400000000e+01,0.000000000000e+00
94,0.000000000000e+00,2.003600000000e+01,2.000000000000e+00
95,-1.200000000000e+00,2.003000000000e+01,1.000000000000e+00
96,1.200000000000e+00,1.997000000000e+01,1.000000000000e+00
97,-9.000000000000e-01,4.998622339643e+01,0.000000000000e+00
98,-6.000000000000e-01,4.997454415588e+01,0.000000000000e+00
99,-3.000000000000e-01,4.996674033683e+01,0.000000000000e+00
100,0.000000000000e+00,4.996400000000e+01,0.000000000000e+00
101,3.000000000000e-01,4.996674033683e+01,0.000000000000e+00
102,6.000000000000e-01,4.997454415588e+01,0.000000000000e+00
103,9.000000000000e-01,4.998622339643e+01,0.000000000000e+00
104,-9.000000000000e-01,5.001377660357e+01,2.000000000000e+00
105,-6.000000000000e-01,5.002545584412e+01,2.000000000000e+00
106,-3.000000000000e-01,5.003325966317e+01,2.000000000000e+00
107,0.000000000000e+00,5.003600000000e+01,2.000000000000e+00
108,3.000000000000e-01,5.003325966317e+01,2.000000000000e+00
109,6.000000000000e-01,5.002545584412e+01,2.000000000000e+00
110,9.000000000000e-01,5.001377660357e+01,2.000000000000e+00
111,-1.200000000000e+00,5.001148050297e+01,2.500000000000e-01
112,-1.200000000000e+00,5.002121320344e+01,5.000000000000e-01
113,-1.200000000000e+00,5.002771638598e+01,7.500000000000e-01
114,-1.200000000000e+00,5.003000000000e+01,1.000000000000e+00
115,-1.200000000000e+00,5.002771638598e+01,1.250000000000e+00
116,-1.200000000000e+00,5.002121320344e+01,1.500000000000e+00
117,-1.200000000000e+00,5.001148050297e+01,1.750000000000e+00
118,1.200000000000e+00,4.998851949703e+01,2.500000000000e-01
119,1.200000000000e+00,4.997878679656e+01,5.000000000000e-01
120,1.200000000000e+00,4.997228361402e+01,7.500000000000e-01
121,1.200000000000e+00,4.997000000000e+01,1.000000000000e+00
122,1.200000000000e+00,4.997228361402e+01,1.250000000000e+00
123,1.200000000000e+00,4.997878679656e+01,1.500000000000e+00
124,1.200000000000e+00,4.998851949703e+01,1.750000000000e+00
125,-1.200000000000e+00,1.261480502971e+00,1.925974851452e-01
126,-1.200000000000e+00,2.521213203436e+00,3.939339828220e-01
127,-1.200000000000e+00,3.777716385975e+00,6.114180701233e-01
128,-1.200000000000e+00,5.030000000000e+00,8.500000000000e-01
129,-1.200000000000e+00,6.277716385975e+00,1.111418070123e+00
130,-1.200000000000e+00,7.521213203436e+00,1.393933982822e+00
131,-1.200000000000e+00,8.761480502971e+00,1.692597485145e+00
132,-1.200000000000e+00,1.261480502971e+00,1.807402514855e+00
133,-1.200000000000e+00,2.521213203436e+00,1.606066017178e+00
134,-1.200000000000e+00,3.777716385975e+00,1.388581929877e+00
135,-1.200000000000e+00,5.030000000000e+00,1.150000000000e+00
136,-1.200000000000e+00,6.277716385975e+00,8.885819298767e-01
137,-1.200000000000e+00,7.521213203436e+00,6.060660171780e-01
138,-1.200000000000e+00,8.761480502971e+00,3.074025148548e-01
139,1.200000000000e+00,1.261480502971e+00,1.925974851452e-01
140,1.200000000000e+00,2.521213203436e+00,3.939339828220e-01
141,1.200000000000e+00,3.777716385975e+00,6.114180701233e-01
142,1.200000000000e+00,5.030000000000e+00,8.500000000000e-01
143,1.200000000000e+00,6.277716385975e+00,1.111418070123e+00
144,1.200000000000e+00,7.521213203436e+00,1.393933982822e+00
145,1.200000000000e+00,8.761480502971e+00,1.692597485145e+00
146,1.200000000000e+00,1.261480502971e+00,1.807402514855e+00
147,1.200000000000e+00,2.521213203436e+00,1.606066017178e+00
148,1.200000000000e+00,3.777716385975e+00,1.388581929877e+00
149,1.200000000000e+00,5.030000000000e+00,1.150000000000e+00
150,1.200000000000e+00,6.277716385975e+00,8.885819298767e-01
151,1.200000000000e+00,7.521213203436e+00,6.060660171780e-01
152,1.200000000000e+00,8.761480502971e+00,3.074025148548e-01
153,-8.425974851452e-01,1.236223396435e+00,0.000000000000e+00
154,-4.939339828220e-01,2.474544155877e+00,0.000000000000e+00
155,-1.614180701233e-01,3.716740336830e+00,0.000000000000e+00
156,1.500000000000e-01,4.964000000000e+00,0.000000000000e+00
157,4.385819298767e-01,6.216740336830e+00,0.000000000000e+00
158,7.060660171780e-01,7.474544155877e+00,0.000000000000e+00
159,9.574025148548e-01,8.736223396435e+00,0.000000000000e+00
160,8.425974851452e-01,1.236223396435e+00,0.000000000000e+00
161,4.939339828220e-01,2.474544155877e+00,0.000000000000e+00
162,1.614180701233e-01,3.716740336830e+00,0.000000000000e+00
163,-1.500000000000e-01,4.964000000000e+00,0.000000000000e+00
164,-4.385819298767e-01,6.216740336830e+00,0.000000000000e+00
165,-7.060660171780e-01,7.474544155877e+00,0.000000000000e+00
166,-9.574025148548e-01,8.736223396435e+00,0.000000000000e+00
167,-8.425974851452e-01,1.236223396435e+00,2.000000000000e+00
168,-4.939339828220e-01,2.474544155877e+00,2.000000000000e+00
169,-1.614180701233e-01,3.716740336830e+00,2.000000000000e+00
170,1.500000000000e-01,4.964000000000e+00,2.000000000000e+00
171,4.385819298767e-01,6.216740336830e+00,2.000000000000e+00
172,7.060660171780e-01,7.474544155877e+00,2.000000000000e+00
173,9.574025148548e-01,8.736223396435e+00,2.000000000000e+00
174,8.425974851452e-01,1.236223396435e+00,2.000000000000e+00
175,4.939339828220e-01,2.474544155877e+00,2.000000000000e+00
176,1.614180701233e-01,3.716740336830e+00,2.000000000000e+00
177,-1.500000000000e-01,4.964000000000e+00,2.000000000000e+00
178,-4.385819298767e-01,6.216740336830e+00,2.000000000000e+00
179,-7.060660171780e-01,7.474544155877e+00,2.000000000000e+00
180,-9.574025148548e-01,8.736223396435e+00,2.000000000000e+00
181,-1.200000000000e+00,2.503000000000e+01,8.500000000000e-01
182,-1.200000000000e+00,2.503000000000e+01,1.150000000000e+00
183,1.200000000000e+00,2.503000000000e+01,8.500000000000e-01
184,1.200000000000e+00,2.503000000000e+01,1.150000000000e+00
185,1.500000000000e-01,2.496400000000e+01,0.000000000000e+00
186,-1.500000000000e-01,2.496400000000e+01,0.000000000000e+00
187,1.500000000000e-01,2.496400000000e+01,2.000000000000e+00
188,-1.500000000000e-01,2.496400000000e+01,2.000000000000e+00
189,-1.200000000000e+00,3.126148050297e+01,1.925974851452e-01
190,-1.200000000000e+00,3.252121320344e+01,3.939339828220e-01
191,-1.200000000000e+00,3.377771638598e+01,6.114180701233e-01
192,-1.200000000000e+00,3.503000000000e+01,8.500000000000e-01
193,-1.200000000000e+00,3.627771638598e+01,1.111418070123e+00
194,-1.200000000000e+00,3.752121320344e+01,1.393933982822e+00
195,-1.200000000000e+00,3.876148050297e+01,1.692597485145e+00
196,-1.200000000000e+00,3.126148050297e+01,1.807402514855e+00
197,-1.200000000000e+00,3.252121320344e+01,1.606066017178e+00
198,-1.200000000000e+00,3.377771638598e+01,1.388581929877e+00
199,-1.200000000000e+00,3.503000000000e+01,1.150000000000e+00
200,-1.200000000000e+00,3.627771638598e+01,8.885819298767e-01
201,-1.200000000000e+00,3.752121320344e+01,6.060660171780e-01
202,-1.200000000000e+00,3.876148050297e+01,3.074025148548e-01
203,1.200000000000e+00,3.126148050297e+01,1.925974851452e-01
204,1.200000000000e+00,3.252121320344e+01,3.939339828220e-01
205,1.200000000000e+00,3.377771638598e+01,6.114180701233e-01
206,1.200000000000e+00,3.503000000000e+01,8.500000000000e-01
207,1.200000000000e+00,3.627771638598e+01,1.111418070123e+00
208,1.200000000000e+00,3.752121320344e+01,1.393933982822e+00
209,1.200000000000e+00,3.876148050297e+01,1.692597485145e+00
210,1.200000000000e+00,3.126148050297e+01,1.807402514855e+00
211,1.200000000000e+00,3.252121320344e+01,1.606066017178e+00
212,1.200000000000e+00,3.377771638598e+01,1.388581929877e+00
213,1.200000000000e+00,3.503000000000e+01,1.150000000000e+00
214,1.200000000000e+00,3.627771638598e+01,8.885819298767e-01
215,1.200000000000e+00,3.752121320344e+01,6.060660171780e-01
216,1.200000000000e+00,3.876148050297e+01,3.074025148548e-01
217,-8.425974851452e-01,3.123622339643e+01,0.000000000000e+00
218,-4.939339828220e-01,3.247454415588e+01,0.000000000000e+00
219,-1.614180701233e-01,3.371674033683e+01,0.000000000000e+00
220,1.500000000000e-01,3.496400000000e+01,0.000000000000e+00
221,4.385819298767e-01,3.621674033683e+01,0.000000000000e+00
222,7.060660171780e-01,3.747454415588e+01,0.000000000000e+00
223,9.574025148548e-01,3.873622339643e+01,0.000000000000e+00
224,8.425974851452e-01,3.123622339643e+01,0.000000000000e+00
225,4.939339828220e-01,3.247454415588e+01,0.000000000000e+00
226,1.614180701233e-01,3.371674033683e+01,0.000000000000e+00
227,-1.500000000000e-01,3.496400000000e+01,0.000000000000e+00
228,-4.385819298767e-01,3.621674033683e+01,0.000000000000e+00
229,-7.060660171780e-01,3.747454415588e+01,0.000000000000e+00
230,-9.574025148548e-01,3.873622339643e+01,0.000000000000e+00
231,-8.425974851452e-01,3.123622339643e+01,2.000000000000e+00
232,-4.939339828220e-01,3.247454415588e+01,2.000000000000e+00
233,-1.614180701233e-01,3.371674033683e+01,2.000000000000e+00
234,1.500000000000e-01,3.496400000000e+01,2.000000000000e+00
235,4.385819298767e-01,3.621674033683e+01,2.000000000000e+00
236,7.060660171780e-01,3.747454415588e+01,2.000000000000e+00
237,9.574025148548e-01,3.873622339643e+01,2.000000000000e+00
238,8.425974851452e-01,3.123622339643e+01,2.000000000000e+00
239,4.939339828220e-01,3.247454415588e+01,2.000000000000e+00
240,1.614180701233e-01,3.371674033683e+01,2.000000000000e+00
241,-1.500000000000e-01,3.496400000000e+01,2.000000000000e+00
242,-4.385819298767e-01,3.621674033683e+01,2.000000000000e+00
243,-7.060660171780e-01,3.747454415588e+01,2.000000000000e+00
244,-9.574025148548e-01,3.873622339643e+01,2.000000000000e+00
245,-1.200000000000e+00,4.252121320344e+01,3.939339828220e-01
246,-1.200000000000e+00,4.503000000000e+01,8.500000000000e-01
247,-1.200000000000e+00,4.752121320344e+01,1.393933982822e+00
248,-1.200000000000e+00,4.252121320344e+01,1.606066017178e+00
249,-1.200000000000e+00,4.503000000000e+01,1.150000000000e+00
250,-1.200000000000e+00,4.752121320344e+01,6.060660171780e-01
251,1.200000000000e+00,4.252121320344e+01,3.939339828220e-01
252,1.200000000000e+00,4.503000000000e+01,8.500000000000e-01
253,1.200000000000e+00,4.752121320344e+01,1.393933982822e+00
254,1.200000000000e+00,4.252121320344e+01,1.606066017178e+00
255,1.200000000000e+00,4.503000000000e+01,1.150000000000e+00
256,1.200000000000e+00,4.752121320344e+01,6.060660171780e-01
257,-4.939339828220e-01,4.247454415588e+01,0.000000000000e+00
258,1.500000000000e-01,4.496400000000e+01,0.000000000000e+00
259,7.060660171780e-01,4.747454415588e+01,0.000000000000e+00
260,4.939339828220e-01,4.247454415588e+01,0.000000000000e+00
261,-1.500000000000e-01,4.496400000000e+01,0.000000000000e+00
262,-7.060660171780e-01,4.747454415588e+01,0.000000000000e+00
263,-4.939339828220e-01,4.247454415588e+01,2.000000000000e+00
264,1.500000000000e-01,4.496400000000e+01,2.000000000000e+00
265,7.060660171780e-01,4.747454415588e+01,2.000000000000e+00
266,4.939339828220e-01,4.247454415588e+01,2.000000000000e+00
267,-1.500000000000e-01,4.496400000000e+01,2.000000000000e+00
268,-7.060660171780e-01,4.747454415588e+01,2.000000000000e+00
*ELEMENT,TYPE=B31,ELSET=ALL
1,1,25
2,25,5
3,2,26
4,26,6
5,3,27
6,27,7
7,4,28
8,28,8
9,5,29
10,29,9
11,6,30
12,30,10
13,7,31
14,31,11
15,8,32
16,32,12
17,9,33
18,33,13
19,10,34
20,34,14
21,11,35
22,35,15
23,12,36
24,36,16
25,13,37
26,37,38
27,38,39
28,39,40
29,40,41
30,41,42
31,42,43
32,43,17
33,14,44
34,44,45
35,45,46
36,46,47
37,47,48
38,48,49
39,49,50
40,50,18
41,15,51
42,51,52
43,52,53
44,53,54
45,54,55
46,55,56
47,56,57
48,57,19
49,16,58
50,58,59
51,59,60
52,60,61
53,61,62
54,62,63
55,63,64
56,64,20
57,17,65
58,65,66
59,66,67
60,67,21
61,18,68
62,68,69
63,69,70
64,70,22
65,19,71
66,71,72
67,72,73
68,73,23
69,20,74
70,74,75
71,75,76
72,76,24
73,1,77
74,77,78
75,78,79
76,79,2
77,3,80
78,80,81
79,81,82
80,82,4
81,1,83
82,83,84
83,84,85
84,85,3
85,2,86
86,86,87
87,87,88
88,88,4
89,5,89
90,89,6
91,7,90
92,90,8
93,5,91
94,91,7
95,6,92
96,92,8
97,9,93
98,93,10
99,11,94
100,94,12
101,9,95
102,95,11
103,10,96
104,96,12
105,13,14
106,15,16
107,13,15
108,14,16
109,17,18
110,19,20
111,17,19
112,18,20
113,21,97
114,97,98
115,98,99
116,99,100
117,100,101
118,101,102
119,102,103
120,103,22
121,23,104
122,104,105
123,105,106
124,106,107
125,107,108
126,108,109
127,109,110
128,110,24
129,21,111
130,111,112
131,112,113
132,113,114
133,114,115
134,115,116
135,116,117
136,117,23
137,22,118
138,118,119
139,119,120
140,120,121
141,121,122
142,122,123
143,123,124
144,124,24
145,1,125
146,125,126
147,126,127
148,127,128
149,128,129
150,129,130
151,130,131
152,131,7
153,3,132
154,132,133
155,133,134
156,134,135
157,135,136
158,136,137
159,137,138
160,138,5
161,2,139
162,139,140
163,140,141
164,141,142
165,142,143
166,143,144
167,144,145
168,145,8
169,4,146
170,146,147
171,147,148
172,148,149
173,149,150
174,150,151
175,151,152
176,152,6
177,1,153
178,153,154
179,154,155
180,155,156
181,156,157
182,157,158
183,158,159
184,159,6
185,2,160
186,160,161
187,161,162
188,162,163
189,163,164
190,164,165
191,165,166
192,166,5
193,3,167
194,167,168
195,168,169
196,169,170
197,170,171
198,171,172
199,172,173
200,173,8
201,4,174
202,174,175
203,175,176
204,176,177
205,177,178
206,178,179
207,179,180
208,180,7
209,5,11
210,7,9
211,6,12
212,8,10
213,5,10
214,6,9
215,7,12
216,8,11
217,9,181
218,181,15
219,11,182
220,182,13
221,10,183
222,183,16
223,12,184
224,184,14
225,9,185
226,185,14
227,10,186
228,186,13
229,11,187
230,187,16
231,12,188
232,188,15
233,13,189
234,189,190
235,190,191
236,191,192
237,192,193
238,193,194
239,194,195
240,195,19
241,15,196
242,196,197
243,197,198
244,198,199
245,199,200
246,200,201
247,201,202
248,202,17
249,14,203
250,203,204
251,204,205
252,205,206
253,206,207
254,207,208
255,208,209
256,209,20
257,16,210
258,210,211
259,211,212
260,212,213
261,213,214
262,214,215
263,215,216
264,216,18
265,13,217
266,217,218
267,218,219
268,219,220
269,220,221
270,221,222
271,222,223
272,223,18
273,14,224
274,224,225
275,225,226
276,226,227
277,227,228
278,228,229
279,229,230
280,230,17
281,15,231
282,231,232
283,232,233
284,233,234
285,234,235
286,235,236
287,236,237
288,237,20
289,16,238
290,238,239
291,239,240
292,240,241
293,241,242
294,242,243
295,243,244
296,244,19
297,17,245
298,245,246
299,246,247
300,247,23
301,19,248
302,248,249
303,249,250
304,250,21
305,18,251
306,251,252
307,252,253
308,253,24
309,20,254
310,254,255
311,255,256
312,256,22
313,17,257
314,257,258
315,258,259
316,259,22
317,18,260
318,260,261
319,261,262
320,262,21
321,19,263
322,263,264
323,264,265
324,265,24
325,20,266
326,266,267
327,267,268
328,268,23
*NSET,NSET=NALL,GENERATE
1,268,1
*NSET,NSET=LEFT
1,2,3,4
*NSET,NSET=RIGHT
21,22,23,24
*MATERIAL,NAME=STEEL
*ELASTIC
2.100000000000e+11,0.300000000000
*BEAM SECTION,ELSET=ALL,MATERIAL=STEEL,SECTION=RECT
6.000000000000e-02,4.000000000000e-02
0.371390676354,0.557086014531,0.742781352708
*BOUNDARY
LEFT,1,6,0.0
*STEP
*STATIC
*BOUNDARY
21,1,1,5.000000000000e-03
21,2,2,0.0
21,3,3,-6.000000000000e-03
*BOUNDARY
22,1,1,5.000000000000e-03
22,2,2,0.0
22,3,3,6.000000000000e-03
*BOUNDARY
23,1,1,-5.000000000000e-03
23,2,2,0.0
23,3,3,-6.000000000000e-03
*BOUNDARY
24,1,1,-5.000000000000e-03
24,2,2,0.0
24,3,3,6.000000000000e-03
*NODE FILE,NSET=NALL
U
*NODE PRINT,NSET=NALL
U
*NODE PRINT,NSET=RIGHT
RF
*EL PRINT,ELSET=ALL,TOTALS=YES
ELSE
*END STEP
