*HEADING
Normalized cross-passage space-truss torsion benchmark
*NODE
1,-1.200000000000e+00,0.000000000000e+00,0.000000000000e+00
2,1.200000000000e+00,0.000000000000e+00,0.000000000000e+00
3,-1.200000000000e+00,0.000000000000e+00,2.000000000000e+00
4,1.200000000000e+00,0.000000000000e+00,2.000000000000e+00
5,-1.200000000000e+00,1.000000000000e+01,0.000000000000e+00
6,1.200000000000e+00,1.000000000000e+01,0.000000000000e+00
7,-1.200000000000e+00,1.000000000000e+01,2.000000000000e+00
8,1.200000000000e+00,1.000000000000e+01,2.000000000000e+00
9,-1.200000000000e+00,2.000000000000e+01,0.000000000000e+00
10,1.200000000000e+00,2.000000000000e+01,0.000000000000e+00
11,-1.200000000000e+00,2.000000000000e+01,2.000000000000e+00
12,1.200000000000e+00,2.000000000000e+01,2.000000000000e+00
13,-1.200000000000e+00,3.000000000000e+01,0.000000000000e+00
14,1.200000000000e+00,3.000000000000e+01,0.000000000000e+00
15,-1.200000000000e+00,3.000000000000e+01,2.000000000000e+00
16,1.200000000000e+00,3.000000000000e+01,2.000000000000e+00
17,-1.200000000000e+00,4.000000000000e+01,0.000000000000e+00
18,1.200000000000e+00,4.000000000000e+01,0.000000000000e+00
19,-1.200000000000e+00,4.000000000000e+01,2.000000000000e+00
20,1.200000000000e+00,4.000000000000e+01,2.000000000000e+00
21,-1.200000000000e+00,5.000000000000e+01,0.000000000000e+00
22,1.200000000000e+00,5.000000000000e+01,0.000000000000e+00
23,-1.200000000000e+00,5.000000000000e+01,2.000000000000e+00
24,1.200000000000e+00,5.000000000000e+01,2.000000000000e+00
25,-1.200000000000e+00,1.250000000000e+00,-5.740251485476e-02
26,-1.200000000000e+00,2.500000000000e+00,-1.060660171780e-01
27,-1.200000000000e+00,3.750000000000e+00,-1.385819298767e-01
28,-1.200000000000e+00,5.000000000000e+00,-1.500000000000e-01
29,-1.200000000000e+00,6.250000000000e+00,-1.385819298767e-01
30,-1.200000000000e+00,7.500000000000e+00,-1.060660171780e-01
31,-1.200000000000e+00,8.750000000000e+00,-5.740251485476e-02
32,1.200000000000e+00,1.250000000000e+00,5.740251485476e-02
33,1.200000000000e+00,2.500000000000e+00,1.060660171780e-01
34,1.200000000000e+00,3.750000000000e+00,1.385819298767e-01
35,1.200000000000e+00,5.000000000000e+00,1.500000000000e-01
36,1.200000000000e+00,6.250000000000e+00,1.385819298767e-01
37,1.200000000000e+00,7.500000000000e+00,1.060660171780e-01
38,1.200000000000e+00,8.750000000000e+00,5.740251485476e-02
39,-1.200000000000e+00,1.250000000000e+00,1.942597485145e+00
40,-1.200000000000e+00,2.500000000000e+00,1.893933982822e+00
41,-1.200000000000e+00,3.750000000000e+00,1.861418070123e+00
42,-1.200000000000e+00,5.000000000000e+00,1.850000000000e+00
43,-1.200000000000e+00,6.250000000000e+00,1.861418070123e+00
44,-1.200000000000e+00,7.500000000000e+00,1.893933982822e+00
45,-1.200000000000e+00,8.750000000000e+00,1.942597485145e+00
46,1.200000000000e+00,1.250000000000e+00,2.057402514855e+00
47,1.200000000000e+00,2.500000000000e+00,2.106066017178e+00
48,1.200000000000e+00,3.750000000000e+00,2.138581929877e+00
49,1.200000000000e+00,5.000000000000e+00,2.150000000000e+00
50,1.200000000000e+00,6.250000000000e+00,2.138581929877e+00
51,1.200000000000e+00,7.500000000000e+00,2.106066017178e+00
52,1.200000000000e+00,8.750000000000e+00,2.057402514855e+00
53,-1.200000000000e+00,2.250000000000e+01,-1.060660171780e-01
54,-1.200000000000e+00,2.500000000000e+01,-1.500000000000e-01
55,-1.200000000000e+00,2.750000000000e+01,-1.060660171780e-01
56,1.200000000000e+00,2.250000000000e+01,1.060660171780e-01
57,1.200000000000e+00,2.500000000000e+01,1.500000000000e-01
58,1.200000000000e+00,2.750000000000e+01,1.060660171780e-01
59,-1.200000000000e+00,2.250000000000e+01,1.893933982822e+00
60,-1.200000000000e+00,2.500000000000e+01,1.850000000000e+00
61,-1.200000000000e+00,2.750000000000e+01,1.893933982822e+00
62,1.200000000000e+00,2.250000000000e+01,2.106066017178e+00
63,1.200000000000e+00,2.500000000000e+01,2.150000000000e+00
64,1.200000000000e+00,2.750000000000e+01,2.106066017178e+00
65,-1.200000000000e+00,4.500000000000e+01,-1.500000000000e-01
66,1.200000000000e+00,4.500000000000e+01,1.500000000000e-01
67,-1.200000000000e+00,4.500000000000e+01,1.850000000000e+00
68,1.200000000000e+00,4.500000000000e+01,2.150000000000e+00
69,0.000000000000e+00,-3.600000000000e-02,0.000000000000e+00
70,0.000000000000e+00,3.600000000000e-02,2.000000000000e+00
71,-1.200000000000e+00,3.000000000000e-02,1.000000000000e+00
72,1.200000000000e+00,-3.000000000000e-02,1.000000000000e+00
73,0.000000000000e+00,1.996400000000e+01,0.000000000000e+00
74,0.000000000000e+00,2.003600000000e+01,2.000000000000e+00
75,-1.200000000000e+00,2.003000000000e+01,1.000000000000e+00
76,1.200000000000e+00,1.997000000000e+01,1.000000000000e+00
77,0.000000000000e+00,2.996400000000e+01,0.000000000000e+00
78,0.000000000000e+00,3.003600000000e+01,2.000000000000e+00
79,-1.200000000000e+00,3.003000000000e+01,1.000000000000e+00
80,1.200000000000e+00,2.997000000000e+01,1.000000000000e+00
81,-6.000000000000e-01,4.997454415588e+01,0.000000000000e+00
82,0.000000000000e+00,4.996400000000e+01,0.000000000000e+00
83,6.000000000000e-01,4.997454415588e+01,0.000000000000e+00
84,-6.000000000000e-01,5.002545584412e+01,2.000000000000e+00
85,0.000000000000e+00,5.003600000000e+01,2.000000000000e+00
86,6.000000000000e-01,5.002545584412e+01,2.000000000000e+00
87,-1.200000000000e+00,5.002121320344e+01,5.000000000000e-01
88,-1.200000000000e+00,5.003000000000e+01,1.000000000000e+00
89,-1.200000000000e+00,5.002121320344e+01,1.500000000000e+00
90,1.200000000000e+00,4.997878679656e+01,5.000000000000e-01
91,1.200000000000e+00,4.997000000000e+01,1.000000000000e+00
92,1.200000000000e+00,4.997878679656e+01,1.500000000000e+00
93,-1.200000000000e+00,1.261480502971e+00,1.925974851452e-01
94,-1.200000000000e+00,2.521213203436e+00,3.939339828220e-01
95,-1.200000000000e+00,3.777716385975e+00,6.114180701233e-01
96,-1.200000000000e+00,5.030000000000e+00,8.500000000000e-01
97,-1.200000000000e+00,6.277716385975e+00,1.111418070123e+00
98,-1.200000000000e+00,7.521213203436e+00,1.393933982822e+00
99,-1.200000000000e+00,8.761480502971e+00,1.692597485145e+00
100,-1.200000000000e+00,1.261480502971e+00,1.807402514855e+00
101,-1.200000000000e+00,2.521213203436e+00,1.606066017178e+00
102,-1.200000000000e+00,3.777716385975e+00,1.388581929877e+00
103,-1.200000000000e+00,5.030000000000e+00,1.150000000000e+00
104,-1.200000000000e+00,6.277716385975e+00,8.885819298767e-01
105,-1.200000000000e+00,7.521213203436e+00,6.060660171780e-01
106,-1.200000000000e+00,8.761480502971e+00,3.074025148548e-01
107,1.200000000000e+00,1.261480502971e+00,1.925974851452e-01
108,1.200000000000e+00,2.521213203436e+00,3.939339828220e-01
109,1.200000000000e+00,3.777716385975e+00,6.114180701233e-01
110,1.200000000000e+00,5.030000000000e+00,8.500000000000e-01
111,1.200000000000e+00,6.277716385975e+00,1.111418070123e+00
112,1.200000000000e+00,7.521213203436e+00,1.393933982822e+00
113,1.200000000000e+00,8.761480502971e+00,1.692597485145e+00
114,1.200000000000e+00,1.261480502971e+00,1.807402514855e+00
115,1.200000000000e+00,2.521213203436e+00,1.606066017178e+00
116,1.200000000000e+00,3.777716385975e+00,1.388581929877e+00
117,1.200000000000e+00,5.030000000000e+00,1.150000000000e+00
118,1.200000000000e+00,6.277716385975e+00,8.885819298767e-01
119,1.200000000000e+00,7.521213203436e+00,6.060660171780e-01
120,1.200000000000e+00,8.761480502971e+00,3.074025148548e-01
121,-8.425974851452e-01,1.236223396435e+00,0.000000000000e+00
122,-4.939339828220e-01,2.474544155877e+00,0.000000000000e+00
123,-1.614180701233e-01,3.716740336830e+00,0.000000000000e+00
124,1.500000000000e-01,4.964000000000e+00,0.000000000000e+00
125,4.385819298767e-01,6.216740336830e+00,0.000000000000e+00
126,7.060660171780e-01,7.474544155877e+00,0.000000000000e+00
127,9.574025148548e-01,8.736223396435e+00,0.000000000000e+00
128,8.425974851452e-01,1.236223396435e+00,0.000000000000e+00
129,4.939339828220e-01,2.474544155877e+00,0.000000000000e+00
130,1.614180701233e-01,3.716740336830e+00,0.000000000000e+00
131,-1.500000000000e-01,4.964000000000e+00,0.000000000000e+00
132,-4.385819298767e-01,6.216740336830e+00,0.000000000000e+00
133,-7.060660171780e-01,7.474544155877e+00,0.000000000000e+00
134,-9.574025148548e-01,8.736223396435e+00,0.000000000000e+00
135,-8.425974851452e-01,1.236223396435e+00,2.000000000000e+00
136,-4.939339828220e-01,2.474544155877e+00,2.000000000000e+00
137,-1.614180701233e-01,3.716740336830e+00,2.000000000000e+00
138,1.500000000000e-01,4.964000000000e+00,2.000000000000e+00
139,4.385819298767e-01,6.216740336830e+00,2.000000000000e+00
140,7.060660171780e-01,7.474544155877e+00,2.000000000000e+00
141,9.574025148548e-01,8.736223396435e+00,2.000000000000e+00
142,8.425974851452e-01,1.236223396435e+00,2.000000000000e+00
143,4.939339828220e-01,2.474544155877e+00,2.000000000000e+00
144,1.614180701233e-01,3.716740336830e+00,2.000000000000e+00
145,-1.500000000000e-01,4.964000000000e+00,2.000000000000e+00
146,-4.385819298767e-01,6.216740336830e+00,2.000000000000e+00
147,-7.060660171780e-01,7.474544155877e+00,2.000000000000e+00
148,-9.574025148548e-01,8.736223396435e+00,2.000000000000e+00
149,-1.200000000000e+00,1.126148050297e+01,1.925974851452e-01
150,-1.200000000000e+00,1.252121320344e+01,3.939339828220e-01
151,-1.200000000000e+00,1.377771638598e+01,6.114180701233e-01
152,-1.200000000000e+00,1.503000000000e+01,8.500000000000e-01
153,-1.200000000000e+00,1.627771638598e+01,1.111418070123e+00
154,-1.200000000000e+00,1.752121320344e+01,1.393933982822e+00
155,-1.200000000000e+00,1.876148050297e+01,1.692597485145e+00
156,-1.200000000000e+00,1.126148050297e+01,1.807402514855e+00
157,-1.200000000000e+00,1.252121320344e+01,1.606066017178e+00
158,-1.200000000000e+00,1.377771638598e+01,1.388581929877e+00
159,-1.200000000000e+00,1.503000000000e+01,1.150000000000e+00
160,-1.200000000000e+00,1.627771638598e+01,8.885819298767e-01
161,-1.200000000000e+00,1.752121320344e+01,6.060660171780e-01
162,-1.200000000000e+00,1.876148050297e+01,3.074025148548e-01
163,1.200000000000e+00,1.126148050297e+01,1.925974851452e-01
164,1.200000000000e+00,1.252121320344e+01,3.939339828220e-01
165,1.200000000000e+00,1.377771638598e+01,6.114180701233e-01
166,1.200000000000e+00,1.503000000000e+01,8.500000000000e-01
167,1.200000000000e+00,1.627771638598e+01,1.111418070123e+00
168,1.200000000000e+00,1.752121320344e+01,1.393933982822e+00
169,1.200000000000e+00,1.876148050297e+01,1.692597485145e+00
170,1.200000000000e+00,1.126148050297e+01,1.807402514855e+00
171,1.200000000000e+00,1.252121320344e+01,1.606066017178e+00
172,1.200000000000e+00,1.377771638598e+01,1.388581929877e+00
173,1.200000000000e+00,1.503000000000e+01,1.150000000000e+00
174,1.200000000000e+00,1.627771638598e+01,8.885819298767e-01
175,1.200000000000e+00,1.752121320344e+01,6.060660171780e-01
176,1.200000000000e+00,1.876148050297e+01,3.074025148548e-01
177,-8.425974851452e-01,1.123622339643e+01,0.000000000000e+00
178,-4.939339828220e-01,1.247454415588e+01,0.000000000000e+00
179,-1.614180701233e-01,1.371674033683e+01,0.000000000000e+00
180,1.500000000000e-01,1.496400000000e+01,0.000000000000e+00
181,4.385819298767e-01,1.621674033683e+01,0.000000000000e+00
182,7.060660171780e-01,1.747454415588e+01,0.000000000000e+00
183,9.574025148548e-01,1.873622339643e+01,0.000000000000e+00
184,8.425974851452e-01,1.123622339643e+01,0.000000000000e+00
185,4.939339828220e-01,1.247454415588e+01,0.000000000000e+00
186,1.614180701233e-01,1.371674033683e+01,0.000000000000e+00
187,-1.500000000000e-01,1.496400000000e+01,0.000000000000e+00
188,-4.385819298767e-01,1.621674033683e+01,0.000000000000e+00
189,-7.060660171780e-01,1.747454415588e+01,0.000000000000e+00
190,-9.574025148548e-01,1.873622339643e+01,0.000000000000e+00
191,-8.425974851452e-01,1.123622339643e+01,2.000000000000e+00
192,-4.939339828220e-01,1.247454415588e+01,2.000000000000e+00
193,-1.614180701233e-01,1.371674033683e+01,2.000000000000e+00
194,1.500000000000e-01,1.496400000000e+01,2.000000000000e+00
195,4.385819298767e-01,1.621674033683e+01,2.000000000000e+00
196,7.060660171780e-01,1.747454415588e+01,2.000000000000e+00
197,9.574025148548e-01,1.873622339643e+01,2.000000000000e+00
198,8.425974851452e-01,1.123622339643e+01,2.000000000000e+00
199,4.939339828220e-01,1.247454415588e+01,2.000000000000e+00
200,1.614180701233e-01,1.371674033683e+01,2.000000000000e+00
201,-1.500000000000e-01,1.496400000000e+01,2.000000000000e+00
202,-4.385819298767e-01,1.621674033683e+01,2.000000000000e+00
203,-7.060660171780e-01,1.747454415588e+01,2.000000000000e+00
204,-9.574025148548e-01,1.873622339643e+01,2.000000000000e+00
*ELEMENT,TYPE=B31,ELSET=ALL
1,1,25
2,25,26
3,26,27
4,27,28
5,28,29
6,29,30
7,30,31
8,31,5
9,2,32
10,32,33
11,33,34
12,34,35
13,35,36
14,36,37
15,37,38
16,38,6
17,3,39
18,39,40
19,40,41
20,41,42
21,42,43
22,43,44
23,44,45
24,45,7
25,4,46
26,46,47
27,47,48
28,48,49
29,49,50
30,50,51
31,51,52
32,52,8
33,5,9
34,6,10
35,7,11
36,8,12
37,9,53
38,53,54
39,54,55
40,55,13
41,10,56
42,56,57
43,57,58
44,58,14
45,11,59
46,59,60
47,60,61
48,61,15
49,12,62
50,62,63
51,63,64
52,64,16
53,13,17
54,14,18
55,15,19
56,16,20
57,17,65
58,65,21
59,18,66
60,66,22
61,19,67
62,67,23
63,20,68
64,68,24
65,1,69
66,69,2
67,3,70
68,70,4
69,1,71
70,71,3
71,2,72
72,72,4
73,5,6
74,7,8
75,5,7
76,6,8
77,9,73
78,73,10
79,11,74
80,74,12
81,9,75
82,75,11
83,10,76
84,76,12
85,13,77
86,77,14
87,15,78
88,78,16
89,13,79
90,79,15
91,14,80
92,80,16
93,17,18
94,19,20
95,17,19
96,18,20
97,21,81
98,81,82
99,82,83
100,83,22
101,23,84
102,84,85
103,85,86
104,86,24
105,21,87
106,87,88
107,88,89
108,89,23
109,22,90
110,90,91
111,91,92
112,92,24
113,1,93
114,93,94
115,94,95
116,95,96
117,96,97
118,97,98
119,98,99
120,99,7
121,3,100
122,100,101
123,101,102
124,102,103
125,103,104
126,104,105
127,105,106
128,106,5
129,2,107
130,107,108
131,108,109
132,109,110
133,110,111
134,111,112
135,112,113
136,113,8
137,4,114
138,114,115
139,115,116
140,116,117
141,117,118
142,118,119
143,119,120
144,120,6
145,1,121
146,121,122
147,122,123
148,123,124
149,124,125
150,125,126
151,126,127
152,127,6
153,2,128
154,128,129
155,129,130
156,130,131
157,131,132
158,132,133
159,133,134
160,134,5
161,3,135
162,135,136
163,136,137
164,137,138
165,138,139
166,139,140
167,140,141
168,141,8
169,4,142
170,142,143
171,143,144
172,144,145
173,145,146
174,146,147
175,147,148
176,148,7
177,5,149
178,149,150
179,150,151
180,151,152
181,152,153
182,153,154
183,154,155
184,155,11
185,7,156
186,156,157
187,157,158
188,158,159
189,159,160
190,160,161
191,161,162
192,162,9
193,6,163
194,163,164
195,164,165
196,165,166
197,166,167
198,167,168
199,168,169
200,169,12
201,8,170
202,170,171
203,171,172
204,172,173
205,173,174
206,174,175
207,175,176
208,176,10
209,5,177
210,177,178
211,178,179
212,179,180
213,180,181
214,181,182
215,182,183
216,183,10
217,6,184
218,184,185
219,185,186
220,186,187
221,187,188
222,188,189
223,189,190
224,190,9
225,7,191
226,191,192
227,192,193
228,193,194
229,194,195
230,195,196
231,196,197
232,197,12
233,8,198
234,198,199
235,199,200
236,200,201
237,201,202
238,202,203
239,203,204
240,204,11
241,9,15
242,11,13
243,10,16
244,12,14
245,9,14
246,10,13
247,11,16
248,12,15
249,13,19
250,15,17
251,14,20
252,16,18
253,13,18
254,14,17
255,15,20
256,16,19
257,17,23
258,19,21
259,18,24
260,20,22
261,17,22
262,18,21
263,19,24
264,20,23
*NSET,NSET=NALL,GENERATE
1,204,1
*NSET,NSET=LEFT
1,2,3,4
*NSET,NSET=RIGHT
21,22,23,24
*MATERIAL,NAME=STEEL
*ELASTIC
2.100000000000e+11,0.300000000000
*BEAM SECTION,ELSET=ALL,MATERIAL=STEEL,SECTION=RECT
6.000000000000e-02,4.000000000000e-02
0.371390676354,0.557086014531,0.742781352708
*BOUNDARY
LEFT,1,6,0.0
*STEP
*STATIC
*BOUNDARY
21,1,1,5.000000000000e-03
21,2,2,0.0
21,3,3,-6.000000000000e-03
*BOUNDARY
22,1,1,5.000000000000e-03
22,2,2,0.0
22,3,3,6.000000000000e-03
*BOUNDARY
23,1,1,-5.000000000000e-03
23,2,2,0.0
23,3,3,-6.000000000000e-03
*BOUNDARY
24,1,1,-5.000000000000e-03
24,2,2,0.0
24,3,3,6.000000000000e-03
*NODE FILE,NSET=NALL
U
*NODE PRINT,NSET=NALL
U
*NODE PRINT,NSET=RIGHT
RF
*EL PRINT,ELSET=ALL,TOTALS=YES
ELSE
*END STEP
