*HEADING
Normalized cross-passage space-truss torsion benchmark
*NODE
1,-1.200000000000e+00,0.000000000000e+00,0.000000000000e+00
2,1.200000000000e+00,0.000000000000e+00,0.000000000000e+00
3,-1.200000000000e+00,0.000000000000e+00,2.000000000000e+00
4,1.200000000000e+00,0.000000000000e+00,2.000000000000e+00
5,-1.200000000000e+00,1.000000000000e+01,0.000000000000e+00
6,1.200000000000e+00,1.000000000000e+01,0.000000000000e+00
7,-1.200000000000e+00,1.000000000000e+01,2.000000000000e+00
8,1.200000000000e+00,1.000000000000e+01,2.000000000000e+00
9,-1.200000000000e+00,2.000000000000e+01,0.000000000000e+00
10,1.200000000000e+00,2.000000000000e+01,0.000000000000e+00
11,-1.200000000000e+00,2.000000000000e+01,2.000000000000e+00
12,1.200000000000e+00,2.000000000000e+01,2.000000000000e+00
13,-1.200000000000e+00,3.000000000000e+01,0.000000000000e+00
14,1.200000000000e+00,3.000000000000e+01,0.000000000000e+00
15,-1.200000000000e+00,3.000000000000e+01,2.000000000000e+00
16,1.200000000000e+00,3.000000000000e+01,2.000000000000e+00
17,-1.200000000000e+00,4.000000000000e+01,0.000000000000e+00
18,1.200000000000e+00,4.000000000000e+01,0.000000000000e+00
19,-1.200000000000e+00,4.000000000000e+01,2.000000000000e+00
20,1.200000000000e+00,4.000000000000e+01,2.000000000000e+00
21,-1.200000000000e+00,5.000000000000e+01,0.000000000000e+00
22,1.200000000000e+00,5.000000000000e+01,0.000000000000e+00
23,-1.200000000000e+00,5.000000000000e+01,2.000000000000e+00
24,1.200000000000e+00,5.000000000000e+01,2.000000000000e+00
25,-1.200000000000e+00,5.000000000000e+00,-1.500000000000e-01
26,1.200000000000e+00,5.000000000000e+00,1.500000000000e-01
27,-1.200000000000e+00,5.000000000000e+00,1.850000000000e+00
28,1.200000000000e+00,5.000000000000e+00,2.150000000000e+00
29,-1.200000000000e+00,2.250000000000e+01,-1.060660171780e-01
30,-1.200000000000e+00,2.500000000000e+01,-1.500000000000e-01
31,-1.200000000000e+00,2.750000000000e+01,-1.060660171780e-01
32,1.200000000000e+00,2.250000000000e+01,1.060660171780e-01
33,1.200000000000e+00,2.500000000000e+01,1.500000000000e-01
34,1.200000000000e+00,2.750000000000e+01,1.060660171780e-01
35,-1.200000000000e+00,2.250000000000e+01,1.893933982822e+00
36,-1.200000000000e+00,2.500000000000e+01,1.850000000000e+00
37,-1.200000000000e+00,2.750000000000e+01,1.893933982822e+00
38,1.200000000000e+00,2.250000000000e+01,2.106066017178e+00
39,1.200000000000e+00,2.500000000000e+01,2.150000000000e+00
40,1.200000000000e+00,2.750000000000e+01,2.106066017178e+00
41,-1.200000000000e+00,4.500000000000e+01,-1.500000000000e-01
42,1.200000000000e+00,4.500000000000e+01,1.500000000000e-01
43,-1.200000000000e+00,4.500000000000e+01,1.850000000000e+00
44,1.200000000000e+00,4.500000000000e+01,2.150000000000e+00
45,0.000000000000e+00,-3.600000000000e-02,0.000000000000e+00
46,0.000000000000e+00,3.600000000000e-02,2.000000000000e+00
47,-1.200000000000e+00,3.000000000000e-02,1.000000000000e+00
48,1.200000000000e+00,-3.000000000000e-02,1.000000000000e+00
49,0.000000000000e+00,1.996400000000e+01,0.000000000000e+00
50,0.000000000000e+00,2.003600000000e+01,2.000000000000e+00
51,-1.200000000000e+00,2.003000000000e+01,1.000000000000e+00
52,1.200000000000e+00,1.997000000000e+01,1.000000000000e+00
53,0.000000000000e+00,2.996400000000e+01,0.000000000000e+00
54,0.000000000000e+00,3.003600000000e+01,2.000000000000e+00
55,-1.200000000000e+00,3.003000000000e+01,1.000000000000e+00
56,1.200000000000e+00,2.997000000000e+01,1.000000000000e+00
57,-6.000000000000e-01,4.997454415588e+01,0.000000000000e+00
58,0.000000000000e+00,4.996400000000e+01,0.000000000000e+00
59,6.000000000000e-01,4.997454415588e+01,0.000000000000e+00
60,-6.000000000000e-01,5.002545584412e+01,2.000000000000e+00
61,0.000000000000e+00,5.003600000000e+01,2.000000000000e+00
62,6.000000000000e-01,5.002545584412e+01,2.000000000000e+00
63,-1.200000000000e+00,5.002121320344e+01,5.000000000000e-01
64,-1.200000000000e+00,5.003000000000e+01,1.000000000000e+00
65,-1.200000000000e+00,5.002121320344e+01,1.500000000000e+00
66,1.200000000000e+00,4.997878679656e+01,5.000000000000e-01
67,1.200000000000e+00,4.997000000000e+01,1.000000000000e+00
68,1.200000000000e+00,4.997878679656e+01,1.500000000000e+00
69,-1.200000000000e+00,1.261480502971e+00,1.925974851452e-01
70,-1.200000000000e+00,2.521213203436e+00,3.939339828220e-01
71,-1.200000000000e+00,3.777716385975e+00,6.114180701233e-01
72,-1.200000000000e+00,5.030000000000e+00,8.500000000000e-01
73,-1.200000000000e+00,6.277716385975e+00,1.111418070123e+00
74,-1.200000000000e+00,7.521213203436e+00,1.393933982822e+00
75,-1.200000000000e+00,8.761480502971e+00,1.692597485145e+00
76,-1.200000000000e+00,1.261480502971e+00,1.807402514855e+00
77,-1.200000000000e+00,2.521213203436e+00,1.606066017178e+00
78,-1.200000000000e+00,3.777716385975e+00,1.388581929877e+00
79,-1.200000000000e+00,5.030000000000e+00,1.150000000000e+00
80,-1.200000000000e+00,6.277716385975e+00,8.885819298767e-01
81,-1.200000000000e+00,7.521213203436e+00,6.060660171780e-01
82,-1.200000000000e+00,8.761480502971e+00,3.074025148548e-01
83,1.200000000000e+00,1.261480502971e+00,1.925974851452e-01
84,1.200000000000e+00,2.521213203436e+00,3.939339828220e-01
85,1.200000000000e+00,3.777716385975e+00,6.114180701233e-01
86,1.200000000000e+00,5.030000000000e+00,8.500000000000e-01
87,1.200000000000e+00,6.277716385975e+00,1.111418070123e+00
88,1.200000000000e+00,7.521213203436e+00,1.393933982822e+00
89,1.200000000000e+00,8.761480502971e+00,1.692597485145e+00
90,1.200000000000e+00,1.261480502971e+00,1.807402514855e+00
91,1.200000000000e+00,2.521213203436e+00,1.606066017178e+00
92,1.200000000000e+00,3.777716385975e+00,1.388581929877e+00
93,1.200000000000e+00,5.030000000000e+00,1.150000000000e+00
94,1.200000000000e+00,6.277716385975e+00,8.885819298767e-01
95,1.200000000000e+00,7.521213203436e+00,6.060660171780e-01
96,1.200000000000e+00,8.761480502971e+00,3.074025148548e-01
97,-8.425974851452e-01,1.236223396435e+00,0.000000000000e+00
98,-4.939339828220e-01,2.474544155877e+00,0.000000000000e+00
99,-1.614180701233e-01,3.716740336830e+00,0.000000000000e+00
100,1.500000000000e-01,4.964000000000e+00,0.000000000000e+00
101,4.385819298767e-01,6.216740336830e+00,0.000000000000e+00
102,7.060660171780e-01,7.474544155877e+00,0.000000000000e+00
103,9.574025148548e-01,8.736223396435e+00,0.000000000000e+00
104,8.425974851452e-01,1.236223396435e+00,0.000000000000e+00
105,4.939339828220e-01,2.474544155877e+00,0.000000000000e+00
106,1.614180701233e-01,3.716740336830e+00,0.000000000000e+00
107,-1.500000000000e-01,4.964000000000e+00,0.000000000000e+00
108,-4.385819298767e-01,6.216740336830e+00,0.000000000000e+00
109,-7.060660171780e-01,7.474544155877e+00,0.000000000000e+00
110,-9.574025148548e-01,8.736223396435e+00,0.000000000000e+00
111,-8.425974851452e-01,1.236223396435e+00,2.000000000000e+00
112,-4.939339828220e-01,2.474544155877e+00,2.000000000000e+00
113,-1.614180701233e-01,3.716740336830e+00,2.000000000000e+00
114,1.500000000000e-01,4.964000000000e+00,2.000000000000e+00
115,4.385819298767e-01,6.216740336830e+00,2.000000000000e+00
116,7.060660171780e-01,7.474544155877e+00,2.000000000000e+00
117,9.574025148548e-01,8.736223396435e+00,2.000000000000e+00
118,8.425974851452e-01,1.236223396435e+00,2.000000000000e+00
119,4.939339828220e-01,2.474544155877e+00,2.000000000000e+00
120,1.614180701233e-01,3.716740336830e+00,2.000000000000e+00
121,-1.500000000000e-01,4.964000000000e+00,2.000000000000e+00
122,-4.385819298767e-01,6.216740336830e+00,2.000000000000e+00
123,-7.060660171780e-01,7.474544155877e+00,2.000000000000e+00
124,-9.574025148548e-01,8.736223396435e+00,2.000000000000e+00
125,-1.200000000000e+00,1.126148050297e+01,1.925974851452e-01
126,-1.200000000000e+00,1.252121320344e+01,3.939339828220e-01
127,-1.200000000000e+00,1.377771638598e+01,6.114180701233e-01
128,-1.200000000000e+00,1.503000000000e+01,8.500000000000e-01
129,-1.200000000000e+00,1.627771638598e+01,1.111418070123e+00
130,-1.200000000000e+00,1.752121320344e+01,1.393933982822e+00
131,-1.200000000000e+00,1.876148050297e+01,1.692597485145e+00
132,-1.200000000000e+00,1.126148050297e+01,1.807402514855e+00
133,-1.200000000000e+00,1.252121320344e+01,1.606066017178e+00
134,-1.200000000000e+00,1.377771638598e+01,1.388581929877e+00
135,-1.200000000000e+00,1.503000000000e+01,1.150000000000e+00
136,-1.200000000000e+00,1.627771638598e+01,8.885819298767e-01
137,-1.200000000000e+00,1.752121320344e+01,6.060660171780e-01
138,-1.200000000000e+00,1.876148050297e+01,3.074025148548e-01
139,1.200000000000e+00,1.126148050297e+01,1.925974851452e-01
140,1.200000000000e+00,1.252121320344e+01,3.939339828220e-01
141,1.200000000000e+00,1.377771638598e+01,6.114180701233e-01
142,1.200000000000e+00,1.503000000000e+01,8.500000000000e-01
143,1.200000000000e+00,1.627771638598e+01,1.111418070123e+00
144,1.200000000000e+00,1.752121320344e+01,1.393933982822e+00
145,1.200000000000e+00,1.876148050297e+01,1.692597485145e+00
146,1.200000000000e+00,1.126148050297e+01,1.807402514855e+00
147,1.200000000000e+00,1.252121320344e+01,1.606066017178e+00
148,1.200000000000e+00,1.377771638598e+01,1.388581929877e+00
149,1.200000000000e+00,1.503000000000e+01,1.150000000000e+00
150,1.200000000000e+00,1.627771638598e+01,8.885819298767e-01
151,1.200000000000e+00,1.752121320344e+01,6.060660171780e-01
152,1.200000000000e+00,1.876148050297e+01,3.074025148548e-01
153,-8.425974851452e-01,1.123622339643e+01,0.000000000000e+00
154,-4.939339828220e-01,1.247454415588e+01,0.000000000000e+00
155,-1.614180701233e-01,1.371674033683e+01,0.000000000000e+00
156,1.500000000000e-01,1.496400000000e+01,0.000000000000e+00
157,4.385819298767e-01,1.621674033683e+01,0.000000000000e+00
158,7.060660171780e-01,1.747454415588e+01,0.000000000000e+00
159,9.574025148548e-01,1.873622339643e+01,0.000000000000e+00
160,8.425974851452e-01,1.123622339643e+01,0.000000000000e+00
161,4.939339828220e-01,1.247454415588e+01,0.000000000000e+00
162,1.614180701233e-01,1.371674033683e+01,0.000000000000e+00
163,-1.500000000000e-01,1.496400000000e+01,0.000000000000e+00
164,-4.385819298767e-01,1.621674033683e+01,0.000000000000e+00
165,-7.060660171780e-01,1.747454415588e+01,0.000000000000e+00
166,-9.574025148548e-01,1.873622339643e+01,0.000000000000e+00
167,-8.425974851452e-01,1.123622339643e+01,2.000000000000e+00
168,-4.939339828220e-01,1.247454415588e+01,2.000000000000e+00
169,-1.614180701233e-01,1.371674033683e+01,2.000000000000e+00
170,1.500000000000e-01,1.496400000000e+01,2.000000000000e+00
171,4.385819298767e-01,1.621674033683e+01,2.000000000000e+00
172,7.060660171780e-01,1.747454415588e+01,2.000000000000e+00
173,9.574025148548e-01,1.873622339643e+01,2.000000000000e+00
174,8.425974851452e-01,1.123622339643e+01,2.000000000000e+00
175,4.939339828220e-01,1.247454415588e+01,2.000000000000e+00
176,1.614180701233e-01,1.371674033683e+01,2.000000000000e+00
177,-1.500000000000e-01,1.496400000000e+01,2.000000000000e+00
178,-4.385819298767e-01,1.621674033683e+01,2.000000000000e+00
179,-7.060660171780e-01,1.747454415588e+01,2.000000000000e+00
180,-9.574025148548e-01,1.873622339643e+01,2.000000000000e+00
*ELEMENT,TYPE=B31,ELSET=ALL
1,1,25
2,25,5
3,2,26
4,26,6
5,3,27
6,27,7
7,4,28
8,28,8
9,5,9
10,6,10
11,7,11
12,8,12
13,9,29
14,29,30
15,30,31
16,31,13
17,10,32
18,32,33
19,33,34
20,34,14
21,11,35
22,35,36
23,36,37
24,37,15
25,12,38
26,38,39
27,39,40
28,40,16
29,13,17
30,14,18
31,15,19
32,16,20
33,17,41
34,41,21
35,18,42
36,42,22
37,19,43
38,43,23
39,20,44
40,44,24
41,1,45
42,45,2
43,3,46
44,46,4
45,1,47
46,47,3
47,2,48
48,48,4
49,5,6
50,7,8
51,5,7
52,6,8
53,9,49
54,49,10
55,11,50
56,50,12
57,9,51
58,51,11
59,10,52
60,52,12
61,13,53
62,53,14
63,15,54
64,54,16
65,13,55
66,55,15
67,14,56
68,56,16
69,17,18
70,19,20
71,17,19
72,18,20
73,21,57
74,57,58
75,58,59
76,59,22
77,23,60
78,60,61
79,61,62
80,62,24
81,21,63
82,63,64
83,64,65
84,65,23
85,22,66
86,66,67
87,67,68
88,68,24
89,1,69
90,69,70
91,70,71
92,71,72
93,72,73
94,73,74
95,74,75
96,75,7
97,3,76
98,76,77
99,77,78
100,78,79
101,79,80
102,80,81
103,81,82
104,82,5
105,2,83
106,83,84
107,84,85
108,85,86
109,86,87
110,87,88
111,88,89
112,89,8
113,4,90
114,90,91
115,91,92
116,92,93
117,93,94
118,94,95
119,95,96
120,96,6
121,1,97
122,97,98
123,98,99
124,99,100
125,100,101
126,101,102
127,102,103
128,103,6
129,2,104
130,104,105
131,105,106
132,106,107
133,107,108
134,108,109
135,109,110
136,110,5
137,3,111
138,111,112
139,112,113
140,113,114
141,114,115
142,115,116
143,116,117
144,117,8
145,4,118
146,118,119
147,119,120
148,120,121
149,121,122
150,122,123
151,123,124
152,124,7
153,5,125
154,125,126
155,126,127
156,127,128
157,128,129
158,129,130
159,130,131
160,131,11
161,7,132
162,132,133
163,133,134
164,134,135
165,135,136
166,136,137
167,137,138
168,138,9
169,6,139
170,139,140
171,140,141
172,141,142
173,142,143
174,143,144
175,144,145
176,145,12
177,8,146
178,146,147
179,147,148
180,148,149
181,149,150
182,150,151
183,151,152
184,152,10
185,5,153
186,153,154
187,154,155
188,155,156
189,156,157
190,157,158
191,158,159
192,159,10
193,6,160
194,160,161
195,161,162
196,162,163
197,163,164
198,164,165
199,165,166
200,166,9
201,7,167
202,167,168
203,168,169
204,169,170
205,170,171
206,171,172
207,172,173
208,173,12
209,8,174
210,174,175
211,175,176
212,176,177
213,177,178
214,178,179
215,179,180
216,180,11
217,9,15
218,11,13
219,10,16
220,12,14
221,9,14
222,10,13
223,11,16
224,12,15
225,13,19
226,15,17
227,14,20
228,16,18
229,13,18
230,14,17
231,15,20
232,16,19
233,17,23
234,19,21
235,18,24
236,20,22
237,17,22
238,18,21
239,19,24
240,20,23
*NSET,NSET=NALL,GENERATE
1,180,1
*NSET,NSET=LEFT
1,2,3,4
*NSET,NSET=RIGHT
21,22,23,24
*MATERIAL,NAME=STEEL
*ELASTIC
2.100000000000e+11,0.300000000000
*BEAM SECTION,ELSET=ALL,MATERIAL=STEEL,SECTION=RECT
6.000000000000e-02,4.000000000000e-02
0.371390676354,0.557086014531,0.742781352708
*BOUNDARY
LEFT,1,6,0.0
*STEP
*STATIC
*BOUNDARY
21,1,1,5.000000000000e-03
21,2,2,0.0
21,3,3,-6.000000000000e-03
*BOUNDARY
22,1,1,5.000000000000e-03
22,2,2,0.0
22,3,3,6.000000000000e-03
*BOUNDARY
23,1,1,-5.000000000000e-03
23,2,2,0.0
23,3,3,-6.000000000000e-03
*BOUNDARY
24,1,1,-5.000000000000e-03
24,2,2,0.0
24,3,3,6.000000000000e-03
*NODE FILE,NSET=NALL
U
*NODE PRINT,NSET=NALL
U
*NODE PRINT,NSET=RIGHT
RF
*EL PRINT,ELSET=ALL,TOTALS=YES
ELSE
*END STEP
