*HEADING
Normalized cross-passage space-truss torsion benchmark
*NODE
1,-1.200000000000e+00,0.000000000000e+00,0.000000000000e+00
2,1.200000000000e+00,0.000000000000e+00,0.000000000000e+00
3,-1.200000000000e+00,0.000000000000e+00,2.000000000000e+00
4,1.200000000000e+00,0.000000000000e+00,2.000000000000e+00
5,-1.200000000000e+00,1.000000000000e+01,0.000000000000e+00
6,1.200000000000e+00,1.000000000000e+01,0.000000000000e+00
7,-1.200000000000e+00,1.000000000000e+01,2.000000000000e+00
8,1.200000000000e+00,1.000000000000e+01,2.000000000000e+00
9,-1.200000000000e+00,2.000000000000e+01,0.000000000000e+00
10,1.200000000000e+00,2.000000000000e+01,0.000000000000e+00
11,-1.200000000000e+00,2.000000000000e+01,2.000000000000e+00
12,1.200000000000e+00,2.000000000000e+01,2.000000000000e+00
13,-1.200000000000e+00,3.000000000000e+01,0.000000000000e+00
14,1.200000000000e+00,3.000000000000e+01,0.000000000000e+00
15,-1.200000000000e+00,3.000000000000e+01,2.000000000000e+00
16,1.200000000000e+00,3.000000000000e+01,2.000000000000e+00
17,-1.200000000000e+00,4.000000000000e+01,0.000000000000e+00
18,1.200000000000e+00,4.000000000000e+01,0.000000000000e+00
19,-1.200000000000e+00,4.000000000000e+01,2.000000000000e+00
20,1.200000000000e+00,4.000000000000e+01,2.000000000000e+00
21,-1.200000000000e+00,5.000000000000e+01,0.000000000000e+00
22,1.200000000000e+00,5.000000000000e+01,0.000000000000e+00
23,-1.200000000000e+00,5.000000000000e+01,2.000000000000e+00
24,1.200000000000e+00,5.000000000000e+01,2.000000000000e+00
25,-1.200000000000e+00,1.500000000000e+01,-1.500000000000e-01
26,1.200000000000e+00,1.500000000000e+01,1.500000000000e-01
27,-1.200000000000e+00,1.500000000000e+01,1.850000000000e+00
28,1.200000000000e+00,1.500000000000e+01,2.150000000000e+00
29,-1.200000000000e+00,2.500000000000e+01,-1.500000000000e-01
30,1.200000000000e+00,2.500000000000e+01,1.500000000000e-01
31,-1.200000000000e+00,2.500000000000e+01,1.850000000000e+00
32,1.200000000000e+00,2.500000000000e+01,2.150000000000e+00
33,-1.200000000000e+00,3.250000000000e+01,-1.060660171780e-01
34,-1.200000000000e+00,3.500000000000e+01,-1.500000000000e-01
35,-1.200000000000e+00,3.750000000000e+01,-1.060660171780e-01
36,1.200000000000e+00,3.250000000000e+01,1.060660171780e-01
37,1.200000000000e+00,3.500000000000e+01,1.500000000000e-01
38,1.200000000000e+00,3.750000000000e+01,1.060660171780e-01
39,-1.200000000000e+00,3.250000000000e+01,1.893933982822e+00
40,-1.200000000000e+00,3.500000000000e+01,1.850000000000e+00
41,-1.200000000000e+00,3.750000000000e+01,1.893933982822e+00
42,1.200000000000e+00,3.250000000000e+01,2.106066017178e+00
43,1.200000000000e+00,3.500000000000e+01,2.150000000000e+00
44,1.200000000000e+00,3.750000000000e+01,2.106066017178e+00
45,-1.200000000000e+00,4.500000000000e+01,-1.500000000000e-01
46,1.200000000000e+00,4.500000000000e+01,1.500000000000e-01
47,-1.200000000000e+00,4.500000000000e+01,1.850000000000e+00
48,1.200000000000e+00,4.500000000000e+01,2.150000000000e+00
49,0.000000000000e+00,-3.600000000000e-02,0.000000000000e+00
50,0.000000000000e+00,3.600000000000e-02,2.000000000000e+00
51,-1.200000000000e+00,3.000000000000e-02,1.000000000000e+00
52,1.200000000000e+00,-3.000000000000e-02,1.000000000000e+00
53,0.000000000000e+00,9.964000000000e+00,0.000000000000e+00
54,0.000000000000e+00,1.003600000000e+01,2.000000000000e+00
55,-1.200000000000e+00,1.003000000000e+01,1.000000000000e+00
56,1.200000000000e+00,9.970000000000e+00,1.000000000000e+00
57,0.000000000000e+00,1.996400000000e+01,0.000000000000e+00
58,0.000000000000e+00,2.003600000000e+01,2.000000000000e+00
59,-1.200000000000e+00,2.003000000000e+01,1.000000000000e+00
60,1.200000000000e+00,1.997000000000e+01,1.000000000000e+00
61,0.000000000000e+00,2.996400000000e+01,0.000000000000e+00
62,0.000000000000e+00,3.003600000000e+01,2.000000000000e+00
63,-1.200000000000e+00,3.003000000000e+01,1.000000000000e+00
64,1.200000000000e+00,2.997000000000e+01,1.000000000000e+00
65,0.000000000000e+00,4.996400000000e+01,0.000000000000e+00
66,0.000000000000e+00,5.003600000000e+01,2.000000000000e+00
67,-1.200000000000e+00,5.003000000000e+01,1.000000000000e+00
68,1.200000000000e+00,4.997000000000e+01,1.000000000000e+00
69,-1.200000000000e+00,5.030000000000e+00,8.500000000000e-01
70,-1.200000000000e+00,5.030000000000e+00,1.150000000000e+00
71,1.200000000000e+00,5.030000000000e+00,8.500000000000e-01
72,1.200000000000e+00,5.030000000000e+00,1.150000000000e+00
73,1.500000000000e-01,4.964000000000e+00,0.000000000000e+00
74,-1.500000000000e-01,4.964000000000e+00,0.000000000000e+00
75,1.500000000000e-01,4.964000000000e+00,2.000000000000e+00
76,-1.500000000000e-01,4.964000000000e+00,2.000000000000e+00
77,-1.200000000000e+00,1.503000000000e+01,8.500000000000e-01
78,-1.200000000000e+00,1.503000000000e+01,1.150000000000e+00
79,1.200000000000e+00,1.503000000000e+01,8.500000000000e-01
80,1.200000000000e+00,1.503000000000e+01,1.150000000000e+00
81,1.500000000000e-01,1.496400000000e+01,0.000000000000e+00
82,-1.500000000000e-01,1.496400000000e+01,0.000000000000e+00
83,1.500000000000e-01,1.496400000000e+01,2.000000000000e+00
84,-1.500000000000e-01,1.496400000000e+01,2.000000000000e+00
85,-1.200000000000e+00,2.503000000000e+01,8.500000000000e-01
86,-1.200000000000e+00,2.503000000000e+01,1.150000000000e+00
87,1.200000000000e+00,2.503000000000e+01,8.500000000000e-01
88,1.200000000000e+00,2.503000000000e+01,1.150000000000e+00
89,1.500000000000e-01,2.496400000000e+01,0.000000000000e+00
90,-1.500000000000e-01,2.496400000000e+01,0.000000000000e+00
91,1.500000000000e-01,2.496400000000e+01,2.000000000000e+00
92,-1.500000000000e-01,2.496400000000e+01,2.000000000000e+00
93,-1.200000000000e+00,3.503000000000e+01,8.500000000000e-01
94,-1.200000000000e+00,3.503000000000e+01,1.150000000000e+00
95,1.200000000000e+00,3.503000000000e+01,8.500000000000e-01
96,1.200000000000e+00,3.503000000000e+01,1.150000000000e+00
97,1.500000000000e-01,3.496400000000e+01,0.000000000000e+00
98,-1.500000000000e-01,3.496400000000e+01,0.000000000000e+00
99,1.500000000000e-01,3.496400000000e+01,2.000000000000e+00
100,-1.500000000000e-01,3.496400000000e+01,2.000000000000e+00
101,-1.200000000000e+00,4.503000000000e+01,8.500000000000e-01
102,-1.200000000000e+00,4.503000000000e+01,1.150000000000e+00
103,1.200000000000e+00,4.503000000000e+01,8.500000000000e-01
104,1.200000000000e+00,4.503000000000e+01,1.150000000000e+00
105,1.500000000000e-01,4.496400000000e+01,0.000000000000e+00
106,-1.500000000000e-01,4.496400000000e+01,0.000000000000e+00
107,1.500000000000e-01,4.496400000000e+01,2.000000000000e+00
108,-1.500000000000e-01,4.496400000000e+01,2.000000000000e+00
*ELEMENT,TYPE=B31,ELSET=ALL
1,1,5
2,2,6
3,3,7
4,4,8
5,5,25
6,25,9
7,6,26
8,26,10
9,7,27
10,27,11
11,8,28
12,28,12
13,9,29
14,29,13
15,10,30
16,30,14
17,11,31
18,31,15
19,12,32
20,32,16
21,13,33
22,33,34
23,34,35
24,35,17
25,14,36
26,36,37
27,37,38
28,38,18
29,15,39
30,39,40
31,40,41
32,41,19
33,16,42
34,42,43
35,43,44
36,44,20
37,17,45
38,45,21
39,18,46
40,46,22
41,19,47
42,47,23
43,20,48
44,48,24
45,1,49
46,49,2
47,3,50
48,50,4
49,1,51
50,51,3
51,2,52
52,52,4
53,5,53
54,53,6
55,7,54
56,54,8
57,5,55
58,55,7
59,6,56
60,56,8
61,9,57
62,57,10
63,11,58
64,58,12
65,9,59
66,59,11
67,10,60
68,60,12
69,13,61
70,61,14
71,15,62
72,62,16
73,13,63
74,63,15
75,14,64
76,64,16
77,17,18
78,19,20
79,17,19
80,18,20
81,21,65
82,65,22
83,23,66
84,66,24
85,21,67
86,67,23
87,22,68
88,68,24
89,1,69
90,69,7
91,3,70
92,70,5
93,2,71
94,71,8
95,4,72
96,72,6
97,1,73
98,73,6
99,2,74
100,74,5
101,3,75
102,75,8
103,4,76
104,76,7
105,5,77
106,77,11
107,7,78
108,78,9
109,6,79
110,79,12
111,8,80
112,80,10
113,5,81
114,81,10
115,6,82
116,82,9
117,7,83
118,83,12
119,8,84
120,84,11
121,9,85
122,85,15
123,11,86
124,86,13
125,10,87
126,87,16
127,12,88
128,88,14
129,9,89
130,89,14
131,10,90
132,90,13
133,11,91
134,91,16
135,12,92
136,92,15
137,13,93
138,93,19
139,15,94
140,94,17
141,14,95
142,95,20
143,16,96
144,96,18
145,13,97
146,97,18
147,14,98
148,98,17
149,15,99
150,99,20
151,16,100
152,100,19
153,17,101
154,101,23
155,19,102
156,102,21
157,18,103
158,103,24
159,20,104
160,104,22
161,17,105
162,105,22
163,18,106
164,106,21
165,19,107
166,107,24
167,20,108
168,108,23
*NSET,NSET=NALL,GENERATE
1,108,1
*NSET,NSET=LEFT
1,2,3,4
*NSET,NSET=RIGHT
21,22,23,24
*MATERIAL,NAME=STEEL
*ELASTIC
2.100000000000e+11,0.300000000000
*BEAM SECTION,ELSET=ALL,MATERIAL=STEEL,SECTION=RECT
6.000000000000e-02,4.000000000000e-02
0.371390676354,0.557086014531,0.742781352708
*BOUNDARY
LEFT,1,6,0.0
*STEP
*STATIC
*BOUNDARY
21,1,1,5.000000000000e-03
21,2,2,0.0
21,3,3,-6.000000000000e-03
*BOUNDARY
22,1,1,5.000000000000e-03
22,2,2,0.0
22,3,3,6.000000000000e-03
*BOUNDARY
23,1,1,-5.000000000000e-03
23,2,2,0.0
23,3,3,-6.000000000000e-03
*BOUNDARY
24,1,1,-5.000000000000e-03
24,2,2,0.0
24,3,3,6.000000000000e-03
*NODE FILE,NSET=NALL
U
*NODE PRINT,NSET=NALL
U
*NODE PRINT,NSET=RIGHT
RF
*EL PRINT,ELSET=ALL,TOTALS=YES
ELSE
*END STEP
