*HEADING
Normalized cross-passage space-truss torsion benchmark
*NODE
1,-1.200000000000e+00,0.000000000000e+00,0.000000000000e+00
2,1.200000000000e+00,0.000000000000e+00,0.000000000000e+00
3,-1.200000000000e+00,0.000000000000e+00,2.000000000000e+00
4,1.200000000000e+00,0.000000000000e+00,2.000000000000e+00
5,-1.200000000000e+00,1.000000000000e+01,0.000000000000e+00
6,1.200000000000e+00,1.000000000000e+01,0.000000000000e+00
7,-1.200000000000e+00,1.000000000000e+01,2.000000000000e+00
8,1.200000000000e+00,1.000000000000e+01,2.000000000000e+00
9,-1.200000000000e+00,2.000000000000e+01,0.000000000000e+00
10,1.200000000000e+00,2.000000000000e+01,0.000000000000e+00
11,-1.200000000000e+00,2.000000000000e+01,2.000000000000e+00
12,1.200000000000e+00,2.000000000000e+01,2.000000000000e+00
13,-1.200000000000e+00,3.000000000000e+01,0.000000000000e+00
14,1.200000000000e+00,3.000000000000e+01,0.000000000000e+00
15,-1.200000000000e+00,3.000000000000e+01,2.000000000000e+00
16,1.200000000000e+00,3.000000000000e+01,2.000000000000e+00
17,-1.200000000000e+00,4.000000000000e+01,0.000000000000e+00
18,1.200000000000e+00,4.000000000000e+01,0.000000000000e+00
19,-1.200000000000e+00,4.000000000000e+01,2.000000000000e+00
20,1.200000000000e+00,4.000000000000e+01,2.000000000000e+00
21,-1.200000000000e+00,5.000000000000e+01,0.000000000000e+00
22,1.200000000000e+00,5.000000000000e+01,0.000000000000e+00
23,-1.200000000000e+00,5.000000000000e+01,2.000000000000e+00
24,1.200000000000e+00,5.000000000000e+01,2.000000000000e+00
25,-1.200000000000e+00,2.500000000000e+00,-1.060660171780e-01
26,-1.200000000000e+00,5.000000000000e+00,-1.500000000000e-01
27,-1.200000000000e+00,7.500000000000e+00,-1.060660171780e-01
28,1.200000000000e+00,2.500000000000e+00,1.060660171780e-01
29,1.200000000000e+00,5.000000000000e+00,1.500000000000e-01
30,1.200000000000e+00,7.500000000000e+00,1.060660171780e-01
31,-1.200000000000e+00,2.500000000000e+00,1.893933982822e+00
32,-1.200000000000e+00,5.000000000000e+00,1.850000000000e+00
33,-1.200000000000e+00,7.500000000000e+00,1.893933982822e+00
34,1.200000000000e+00,2.500000000000e+00,2.106066017178e+00
35,1.200000000000e+00,5.000000000000e+00,2.150000000000e+00
36,1.200000000000e+00,7.500000000000e+00,2.106066017178e+00
37,-1.200000000000e+00,1.500000000000e+01,-1.500000000000e-01
38,1.200000000000e+00,1.500000000000e+01,1.500000000000e-01
39,-1.200000000000e+00,1.500000000000e+01,1.850000000000e+00
40,1.200000000000e+00,1.500000000000e+01,2.150000000000e+00
41,-1.200000000000e+00,2.500000000000e+01,-1.500000000000e-01
42,1.200000000000e+00,2.500000000000e+01,1.500000000000e-01
43,-1.200000000000e+00,2.500000000000e+01,1.850000000000e+00
44,1.200000000000e+00,2.500000000000e+01,2.150000000000e+00
45,-1.200000000000e+00,3.250000000000e+01,-1.060660171780e-01
46,-1.200000000000e+00,3.500000000000e+01,-1.500000000000e-01
47,-1.200000000000e+00,3.750000000000e+01,-1.060660171780e-01
48,1.200000000000e+00,3.250000000000e+01,1.060660171780e-01
49,1.200000000000e+00,3.500000000000e+01,1.500000000000e-01
50,1.200000000000e+00,3.750000000000e+01,1.060660171780e-01
51,-1.200000000000e+00,3.250000000000e+01,1.893933982822e+00
52,-1.200000000000e+00,3.500000000000e+01,1.850000000000e+00
53,-1.200000000000e+00,3.750000000000e+01,1.893933982822e+00
54,1.200000000000e+00,3.250000000000e+01,2.106066017178e+00
55,1.200000000000e+00,3.500000000000e+01,2.150000000000e+00
56,1.200000000000e+00,3.750000000000e+01,2.106066017178e+00
57,-1.200000000000e+00,4.250000000000e+01,-1.060660171780e-01
58,-1.200000000000e+00,4.500000000000e+01,-1.500000000000e-01
59,-1.200000000000e+00,4.750000000000e+01,-1.060660171780e-01
60,1.200000000000e+00,4.250000000000e+01,1.060660171780e-01
61,1.200000000000e+00,4.500000000000e+01,1.500000000000e-01
62,1.200000000000e+00,4.750000000000e+01,1.060660171780e-01
63,-1.200000000000e+00,4.250000000000e+01,1.893933982822e+00
64,-1.200000000000e+00,4.500000000000e+01,1.850000000000e+00
65,-1.200000000000e+00,4.750000000000e+01,1.893933982822e+00
66,1.200000000000e+00,4.250000000000e+01,2.106066017178e+00
67,1.200000000000e+00,4.500000000000e+01,2.150000000000e+00
68,1.200000000000e+00,4.750000000000e+01,2.106066017178e+00
69,0.000000000000e+00,-3.600000000000e-02,0.000000000000e+00
70,0.000000000000e+00,3.600000000000e-02,2.000000000000e+00
71,-1.200000000000e+00,3.000000000000e-02,1.000000000000e+00
72,1.200000000000e+00,-3.000000000000e-02,1.000000000000e+00
73,-6.000000000000e-01,9.974544155877e+00,0.000000000000e+00
74,0.000000000000e+00,9.964000000000e+00,0.000000000000e+00
75,6.000000000000e-01,9.974544155877e+00,0.000000000000e+00
76,-6.000000000000e-01,1.002545584412e+01,2.000000000000e+00
77,0.000000000000e+00,1.003600000000e+01,2.000000000000e+00
78,6.000000000000e-01,1.002545584412e+01,2.000000000000e+00
79,-1.200000000000e+00,1.002121320344e+01,5.000000000000e-01
80,-1.200000000000e+00,1.003000000000e+01,1.000000000000e+00
81,-1.200000000000e+00,1.002121320344e+01,1.500000000000e+00
82,1.200000000000e+00,9.978786796564e+00,5.000000000000e-01
83,1.200000000000e+00,9.970000000000e+00,1.000000000000e+00
84,1.200000000000e+00,9.978786796564e+00,1.500000000000e+00
85,0.000000000000e+00,1.996400000000e+01,0.000000000000e+00
86,0.000000000000e+00,2.003600000000e+01,2.000000000000e+00
87,-1.200000000000e+00,2.003000000000e+01,1.000000000000e+00
88,1.200000000000e+00,1.997000000000e+01,1.000000000000e+00
89,-6.000000000000e-01,3.997454415588e+01,0.000000000000e+00
90,0.000000000000e+00,3.996400000000e+01,0.000000000000e+00
91,6.000000000000e-01,3.997454415588e+01,0.000000000000e+00
92,-6.000000000000e-01,4.002545584412e+01,2.000000000000e+00
93,0.000000000000e+00,4.003600000000e+01,2.000000000000e+00
94,6.000000000000e-01,4.002545584412e+01,2.000000000000e+00
95,-1.200000000000e+00,4.002121320344e+01,5.000000000000e-01
96,-1.200000000000e+00,4.003000000000e+01,1.000000000000e+00
97,-1.200000000000e+00,4.002121320344e+01,1.500000000000e+00
98,1.200000000000e+00,3.997878679656e+01,5.000000000000e-01
99,1.200000000000e+00,3.997000000000e+01,1.000000000000e+00
100,1.200000000000e+00,3.997878679656e+01,1.500000000000e+00
101,-1.200000000000e+00,1.261480502971e+00,1.925974851452e-01
102,-1.200000000000e+00,2.521213203436e+00,3.939339828220e-01
103,-1.200000000000e+00,3.777716385975e+00,6.114180701233e-01
104,-1.200000000000e+00,5.030000000000e+00,8.500000000000e-01
105,-1.200000000000e+00,6.277716385975e+00,1.111418070123e+00
106,-1.200000000000e+00,7.521213203436e+00,1.393933982822e+00
107,-1.200000000000e+00,8.761480502971e+00,1.692597485145e+00
108,-1.200000000000e+00,1.261480502971e+00,1.807402514855e+00
109,-1.200000000000e+00,2.521213203436e+00,1.606066017178e+00
110,-1.200000000000e+00,3.777716385975e+00,1.388581929877e+00
111,-1.200000000000e+00,5.030000000000e+00,1.150000000000e+00
112,-1.200000000000e+00,6.277716385975e+00,8.885819298767e-01
113,-1.200000000000e+00,7.521213203436e+00,6.060660171780e-01
114,-1.200000000000e+00,8.761480502971e+00,3.074025148548e-01
115,1.200000000000e+00,1.261480502971e+00,1.925974851452e-01
116,1.200000000000e+00,2.521213203436e+00,3.939339828220e-01
117,1.200000000000e+00,3.777716385975e+00,6.114180701233e-01
118,1.200000000000e+00,5.030000000000e+00,8.500000000000e-01
119,1.200000000000e+00,6.277716385975e+00,1.111418070123e+00
120,1.200000000000e+00,7.521213203436e+00,1.393933982822e+00
121,1.200000000000e+00,8.761480502971e+00,1.692597485145e+00
122,1.200000000000e+00,1.261480502971e+00,1.807402514855e+00
123,1.200000000000e+00,2.521213203436e+00,1.606066017178e+00
124,1.200000000000e+00,3.777716385975e+00,1.388581929877e+00
125,1.200000000000e+00,5.030000000000e+00,1.150000000000e+00
126,1.200000000000e+00,6.277716385975e+00,8.885819298767e-01
127,1.200000000000e+00,7.521213203436e+00,6.060660171780e-01
128,1.200000000000e+00,8.761480502971e+00,3.074025148548e-01
129,-8.425974851452e-01,1.236223396435e+00,0.000000000000e+00
130,-4.939339828220e-01,2.474544155877e+00,0.000000000000e+00
131,-1.614180701233e-01,3.716740336830e+00,0.000000000000e+00
132,1.500000000000e-01,4.964000000000e+00,0.000000000000e+00
133,4.385819298767e-01,6.216740336830e+00,0.000000000000e+00
134,7.060660171780e-01,7.474544155877e+00,0.000000000000e+00
135,9.574025148548e-01,8.736223396435e+00,0.000000000000e+00
136,8.425974851452e-01,1.236223396435e+00,0.000000000000e+00
137,4.939339828220e-01,2.474544155877e+00,0.000000000000e+00
138,1.614180701233e-01,3.716740336830e+00,0.000000000000e+00
139,-1.500000000000e-01,4.964000000000e+00,0.000000000000e+00
140,-4.385819298767e-01,6.216740336830e+00,0.000000000000e+00
141,-7.060660171780e-01,7.474544155877e+00,0.000000000000e+00
142,-9.574025148548e-01,8.736223396435e+00,0.000000000000e+00
143,-8.425974851452e-01,1.236223396435e+00,2.000000000000e+00
144,-4.939339828220e-01,2.474544155877e+00,2.000000000000e+00
145,-1.614180701233e-01,3.716740336830e+00,2.000000000000e+00
146,1.500000000000e-01,4.964000000000e+00,2.000000000000e+00
147,4.385819298767e-01,6.216740336830e+00,2.000000000000e+00
148,7.060660171780e-01,7.474544155877e+00,2.000000000000e+00
149,9.574025148548e-01,8.736223396435e+00,2.000000000000e+00
150,8.425974851452e-01,1.236223396435e+00,2.000000000000e+00
151,4.939339828220e-01,2.474544155877e+00,2.000000000000e+00
152,1.614180701233e-01,3.716740336830e+00,2.000000000000e+00
153,-1.500000000000e-01,4.964000000000e+00,2.000000000000e+00
154,-4.385819298767e-01,6.216740336830e+00,2.000000000000e+00
155,-7.060660171780e-01,7.474544155877e+00,2.000000000000e+00
156,-9.574025148548e-01,8.736223396435e+00,2.000000000000e+00
157,-1.200000000000e+00,1.252121320344e+01,3.939339828220e-01
158,-1.200000000000e+00,1.503000000000e+01,8.500000000000e-01
159,-1.200000000000e+00,1.752121320344e+01,1.393933982822e+00
160,-1.200000000000e+00,1.252121320344e+01,1.606066017178e+00
161,-1.200000000000e+00,1.503000000000e+01,1.150000000000e+00
162,-1.200000000000e+00,1.752121320344e+01,6.060660171780e-01
163,1.200000000000e+00,1.252121320344e+01,3.939339828220e-01
164,1.200000000000e+00,1.503000000000e+01,8.500000000000e-01
165,1.200000000000e+00,1.752121320344e+01,1.393933982822e+00
166,1.200000000000e+00,1.252121320344e+01,1.606066017178e+00
167,1.200000000000e+00,1.503000000000e+01,1.150000000000e+00
168,1.200000000000e+00,1.752121320344e+01,6.060660171780e-01
169,-4.939339828220e-01,1.247454415588e+01,0.000000000000e+00
170,1.500000000000e-01,1.496400000000e+01,0.000000000000e+00
171,7.060660171780e-01,1.747454415588e+01,0.000000000000e+00
172,4.939339828220e-01,1.247454415588e+01,0.000000000000e+00
173,-1.500000000000e-01,1.496400000000e+01,0.000000000000e+00
174,-7.060660171780e-01,1.747454415588e+01,0.000000000000e+00
175,-4.939339828220e-01,1.247454415588e+01,2.000000000000e+00
176,1.500000000000e-01,1.496400000000e+01,2.000000000000e+00
177,7.060660171780e-01,1.747454415588e+01,2.000000000000e+00
178,4.939339828220e-01,1.247454415588e+01,2.000000000000e+00
179,-1.500000000000e-01,1.496400000000e+01,2.000000000000e+00
180,-7.060660171780e-01,1.747454415588e+01,2.000000000000e+00
181,-1.200000000000e+00,3.503000000000e+01,8.500000000000e-01
182,-1.200000000000e+00,3.503000000000e+01,1.150000000000e+00
183,1.200000000000e+00,3.503000000000e+01,8.500000000000e-01
184,1.200000000000e+00,3.503000000000e+01,1.150000000000e+00
185,1.500000000000e-01,3.496400000000e+01,0.000000000000e+00
186,-1.500000000000e-01,3.496400000000e+01,0.000000000000e+00
187,1.500000000000e-01,3.496400000000e+01,2.000000000000e+00
188,-1.500000000000e-01,3.496400000000e+01,2.000000000000e+00
189,-1.200000000000e+00,4.503000000000e+01,8.500000000000e-01
190,-1.200000000000e+00,4.503000000000e+01,1.150000000000e+00
191,1.200000000000e+00,4.503000000000e+01,8.500000000000e-01
192,1.200000000000e+00,4.503000000000e+01,1.150000000000e+00
193,1.500000000000e-01,4.496400000000e+01,0.000000000000e+00
194,-1.500000000000e-01,4.496400000000e+01,0.000000000000e+00
195,1.500000000000e-01,4.496400000000e+01,2.000000000000e+00
196,-1.500000000000e-01,4.496400000000e+01,2.000000000000e+00
*ELEMENT,TYPE=B31,ELSET=ALL
1,1,25
2,25,26
3,26,27
4,27,5
5,2,28
6,28,29
7,29,30
8,30,6
9,3,31
10,31,32
11,32,33
12,33,7
13,4,34
14,34,35
15,35,36
16,36,8
17,5,37
18,37,9
19,6,38
20,38,10
21,7,39
22,39,11
23,8,40
24,40,12
25,9,41
26,41,13
27,10,42
28,42,14
29,11,43
30,43,15
31,12,44
32,44,16
33,13,45
34,45,46
35,46,47
36,47,17
37,14,48
38,48,49
39,49,50
40,50,18
41,15,51
42,51,52
43,52,53
44,53,19
45,16,54
46,54,55
47,55,56
48,56,20
49,17,57
50,57,58
51,58,59
52,59,21
53,18,60
54,60,61
55,61,62
56,62,22
57,19,63
58,63,64
59,64,65
60,65,23
61,20,66
62,66,67
63,67,68
64,68,24
65,1,69
66,69,2
67,3,70
68,70,4
69,1,71
70,71,3
71,2,72
72,72,4
73,5,73
74,73,74
75,74,75
76,75,6
77,7,76
78,76,77
79,77,78
80,78,8
81,5,79
82,79,80
83,80,81
84,81,7
85,6,82
86,82,83
87,83,84
88,84,8
89,9,85
90,85,10
91,11,86
92,86,12
93,9,87
94,87,11
95,10,88
96,88,12
97,13,14
98,15,16
99,13,15
100,14,16
101,17,89
102,89,90
103,90,91
104,91,18
105,19,92
106,92,93
107,93,94
108,94,20
109,17,95
110,95,96
111,96,97
112,97,19
113,18,98
114,98,99
115,99,100
116,100,20
117,21,22
118,23,24
119,21,23
120,22,24
121,1,101
122,101,102
123,102,103
124,103,104
125,104,105
126,105,106
127,106,107
128,107,7
129,3,108
130,108,109
131,109,110
132,110,111
133,111,112
134,112,113
135,113,114
136,114,5
137,2,115
138,115,116
139,116,117
140,117,118
141,118,119
142,119,120
143,120,121
144,121,8
145,4,122
146,122,123
147,123,124
148,124,125
149,125,126
150,126,127
151,127,128
152,128,6
153,1,129
154,129,130
155,130,131
156,131,132
157,132,133
158,133,134
159,134,135
160,135,6
161,2,136
162,136,137
163,137,138
164,138,139
165,139,140
166,140,141
167,141,142
168,142,5
169,3,143
170,143,144
171,144,145
172,145,146
173,146,147
174,147,148
175,148,149
176,149,8
177,4,150
178,150,151
179,151,152
180,152,153
181,153,154
182,154,155
183,155,156
184,156,7
185,5,157
186,157,158
187,158,159
188,159,11
189,7,160
190,160,161
191,161,162
192,162,9
193,6,163
194,163,164
195,164,165
196,165,12
197,8,166
198,166,167
199,167,168
200,168,10
201,5,169
202,169,170
203,170,171
204,171,10
205,6,172
206,172,173
207,173,174
208,174,9
209,7,175
210,175,176
211,176,177
212,177,12
213,8,178
214,178,179
215,179,180
216,180,11
217,9,15
218,11,13
219,10,16
220,12,14
221,9,14
222,10,13
223,11,16
224,12,15
225,13,181
226,181,19
227,15,182
228,182,17
229,14,183
230,183,20
231,16,184
232,184,18
233,13,185
234,185,18
235,14,186
236,186,17
237,15,187
238,187,20
239,16,188
240,188,19
241,17,189
242,189,23
243,19,190
244,190,21
245,18,191
246,191,24
247,20,192
248,192,22
249,17,193
250,193,22
251,18,194
252,194,21
253,19,195
254,195,24
255,20,196
256,196,23
*NSET,NSET=NALL,GENERATE
1,196,1
*NSET,NSET=LEFT
1,2,3,4
*NSET,NSET=RIGHT
21,22,23,24
*MATERIAL,NAME=STEEL
*ELASTIC
2.100000000000e+11,0.300000000000
*BEAM SECTION,ELSET=ALL,MATERIAL=STEEL,SECTION=RECT
6.000000000000e-02,4.000000000000e-02
0.371390676354,0.557086014531,0.742781352708
*BOUNDARY
LEFT,1,6,0.0
*STEP
*STATIC
*BOUNDARY
21,1,1,5.000000000000e-03
21,2,2,0.0
21,3,3,-6.000000000000e-03
*BOUNDARY
22,1,1,5.000000000000e-03
22,2,2,0.0
22,3,3,6.000000000000e-03
*BOUNDARY
23,1,1,-5.000000000000e-03
23,2,2,0.0
23,3,3,-6.000000000000e-03
*BOUNDARY
24,1,1,-5.000000000000e-03
24,2,2,0.0
24,3,3,6.000000000000e-03
*NODE FILE,NSET=NALL
U
*NODE PRINT,NSET=NALL
U
*NODE PRINT,NSET=RIGHT
RF
*EL PRINT,ELSET=ALL,TOTALS=YES
ELSE
*END STEP
