*HEADING
Normalized cross-passage space-truss torsion benchmark
*NODE
1,-1.200000000000e+00,0.000000000000e+00,0.000000000000e+00
2,1.200000000000e+00,0.000000000000e+00,0.000000000000e+00
3,-1.200000000000e+00,0.000000000000e+00,2.000000000000e+00
4,1.200000000000e+00,0.000000000000e+00,2.000000000000e+00
5,-1.200000000000e+00,1.000000000000e+01,0.000000000000e+00
6,1.200000000000e+00,1.000000000000e+01,0.000000000000e+00
7,-1.200000000000e+00,1.000000000000e+01,2.000000000000e+00
8,1.200000000000e+00,1.000000000000e+01,2.000000000000e+00
9,-1.200000000000e+00,2.000000000000e+01,0.000000000000e+00
10,1.200000000000e+00,2.000000000000e+01,0.000000000000e+00
11,-1.200000000000e+00,2.000000000000e+01,2.000000000000e+00
12,1.200000000000e+00,2.000000000000e+01,2.000000000000e+00
13,-1.200000000000e+00,3.000000000000e+01,0.000000000000e+00
14,1.200000000000e+00,3.000000000000e+01,0.000000000000e+00
15,-1.200000000000e+00,3.000000000000e+01,2.000000000000e+00
16,1.200000000000e+00,3.000000000000e+01,2.000000000000e+00
17,-1.200000000000e+00,4.000000000000e+01,0.000000000000e+00
18,1.200000000000e+00,4.000000000000e+01,0.000000000000e+00
19,-1.200000000000e+00,4.000000000000e+01,2.000000000000e+00
20,1.200000000000e+00,4.000000000000e+01,2.000000000000e+00
21,-1.200000000000e+00,5.000000000000e+01,0.000000000000e+00
22,1.200000000000e+00,5.000000000000e+01,0.000000000000e+00
23,-1.200000000000e+00,5.000000000000e+01,2.000000000000e+00
24,1.200000000000e+00,5.000000000000e+01,2.000000000000e+00
25,-1.200000000000e+00,1.500000000000e+01,-1.500000000000e-01
26,1.200000000000e+00,1.500000000000e+01,1.500000000000e-01
27,-1.200000000000e+00,1.500000000000e+01,1.850000000000e+00
28,1.200000000000e+00,1.500000000000e+01,2.150000000000e+00
29,-1.200000000000e+00,2.250000000000e+01,-1.060660171780e-01
30,-1.200000000000e+00,2.500000000000e+01,-1.500000000000e-01
31,-1.200000000000e+00,2.750000000000e+01,-1.060660171780e-01
32,1.200000000000e+00,2.250000000000e+01,1.060660171780e-01
33,1.200000000000e+00,2.500000000000e+01,1.500000000000e-01
34,1.200000000000e+00,2.750000000000e+01,1.060660171780e-01
35,-1.200000000000e+00,2.250000000000e+01,1.893933982822e+00
36,-1.200000000000e+00,2.500000000000e+01,1.850000000000e+00
37,-1.200000000000e+00,2.750000000000e+01,1.893933982822e+00
38,1.200000000000e+00,2.250000000000e+01,2.106066017178e+00
39,1.200000000000e+00,2.500000000000e+01,2.150000000000e+00
40,1.200000000000e+00,2.750000000000e+01,2.106066017178e+00
41,-1.200000000000e+00,3.125000000000e+01,-5.740251485476e-02
42,-1.200000000000e+00,3.250000000000e+01,-1.060660171780e-01
43,-1.200000000000e+00,3.375000000000e+01,-1.385819298767e-01
44,-1.200000000000e+00,3.500000000000e+01,-1.500000000000e-01
45,-1.200000000000e+00,3.625000000000e+01,-1.385819298767e-01
46,-1.200000000000e+00,3.750000000000e+01,-1.060660171780e-01
47,-1.200000000000e+00,3.875000000000e+01,-5.740251485476e-02
48,1.200000000000e+00,3.125000000000e+01,5.740251485476e-02
49,1.200000000000e+00,3.250000000000e+01,1.060660171780e-01
50,1.200000000000e+00,3.375000000000e+01,1.385819298767e-01
51,1.200000000000e+00,3.500000000000e+01,1.500000000000e-01
52,1.200000000000e+00,3.625000000000e+01,1.385819298767e-01
53,1.200000000000e+00,3.750000000000e+01,1.060660171780e-01
54,1.200000000000e+00,3.875000000000e+01,5.740251485476e-02
55,-1.200000000000e+00,3.125000000000e+01,1.942597485145e+00
56,-1.200000000000e+00,3.250000000000e+01,1.893933982822e+00
57,-1.200000000000e+00,3.375000000000e+01,1.861418070123e+00
58,-1.200000000000e+00,3.500000000000e+01,1.850000000000e+00
59,-1.200000000000e+00,3.625000000000e+01,1.861418070123e+00
60,-1.200000000000e+00,3.750000000000e+01,1.893933982822e+00
61,-1.200000000000e+00,3.875000000000e+01,1.942597485145e+00
62,1.200000000000e+00,3.125000000000e+01,2.057402514855e+00
63,1.200000000000e+00,3.250000000000e+01,2.106066017178e+00
64,1.200000000000e+00,3.375000000000e+01,2.138581929877e+00
65,1.200000000000e+00,3.500000000000e+01,2.150000000000e+00
66,1.200000000000e+00,3.625000000000e+01,2.138581929877e+00
67,1.200000000000e+00,3.750000000000e+01,2.106066017178e+00
68,1.200000000000e+00,3.875000000000e+01,2.057402514855e+00
69,-1.200000000000e+00,4.250000000000e+01,-1.060660171780e-01
70,-1.200000000000e+00,4.500000000000e+01,-1.500000000000e-01
71,-1.200000000000e+00,4.750000000000e+01,-1.060660171780e-01
72,1.200000000000e+00,4.250000000000e+01,1.060660171780e-01
73,1.200000000000e+00,4.500000000000e+01,1.500000000000e-01
74,1.200000000000e+00,4.750000000000e+01,1.060660171780e-01
75,-1.200000000000e+00,4.250000000000e+01,1.893933982822e+00
76,-1.200000000000e+00,4.500000000000e+01,1.850000000000e+00
77,-1.200000000000e+00,4.750000000000e+01,1.893933982822e+00
78,1.200000000000e+00,4.250000000000e+01,2.106066017178e+00
79,1.200000000000e+00,4.500000000000e+01,2.150000000000e+00
80,1.200000000000e+00,4.750000000000e+01,2.106066017178e+00
81,0.000000000000e+00,-3.600000000000e-02,0.000000000000e+00
82,0.000000000000e+00,3.600000000000e-02,2.000000000000e+00
83,-1.200000000000e+00,3.000000000000e-02,1.000000000000e+00
84,1.200000000000e+00,-3.000000000000e-02,1.000000000000e+00
85,0.000000000000e+00,9.964000000000e+00,0.000000000000e+00
86,0.000000000000e+00,1.003600000000e+01,2.000000000000e+00
87,-1.200000000000e+00,1.003000000000e+01,1.000000000000e+00
88,1.200000000000e+00,9.970000000000e+00,1.000000000000e+00
89,0.000000000000e+00,1.996400000000e+01,0.000000000000e+00
90,0.000000000000e+00,2.003600000000e+01,2.000000000000e+00
91,-1.200000000000e+00,2.003000000000e+01,1.000000000000e+00
92,1.200000000000e+00,1.997000000000e+01,1.000000000000e+00
93,0.000000000000e+00,2.996400000000e+01,0.000000000000e+00
94,0.000000000000e+00,3.003600000000e+01,2.000000000000e+00
95,-1.200000000000e+00,3.003000000000e+01,1.000000000000e+00
96,1.200000000000e+00,2.997000000000e+01,1.000000000000e+00
97,0.000000000000e+00,3.996400000000e+01,0.000000000000e+00
98,0.000000000000e+00,4.003600000000e+01,2.000000000000e+00
99,-1.200000000000e+00,4.003000000000e+01,1.000000000000e+00
100,1.200000000000e+00,3.997000000000e+01,1.000000000000e+00
101,0.000000000000e+00,4.996400000000e+01,0.000000000000e+00
102,0.000000000000e+00,5.003600000000e+01,2.000000000000e+00
103,-1.200000000000e+00,5.003000000000e+01,1.000000000000e+00
104,1.200000000000e+00,4.997000000000e+01,1.000000000000e+00
105,-1.200000000000e+00,5.030000000000e+00,8.500000000000e-01
106,-1.200000000000e+00,5.030000000000e+00,1.150000000000e+00
107,1.200000000000e+00,5.030000000000e+00,8.500000000000e-01
108,1.200000000000e+00,5.030000000000e+00,1.150000000000e+00
109,1.500000000000e-01,4.964000000000e+00,0.000000000000e+00
110,-1.500000000000e-01,4.964000000000e+00,0.000000000000e+00
111,1.500000000000e-01,4.964000000000e+00,2.000000000000e+00
112,-1.500000000000e-01,4.964000000000e+00,2.000000000000e+00
113,-1.200000000000e+00,1.503000000000e+01,8.500000000000e-01
114,-1.200000000000e+00,1.503000000000e+01,1.150000000000e+00
115,1.200000000000e+00,1.503000000000e+01,8.500000000000e-01
116,1.200000000000e+00,1.503000000000e+01,1.150000000000e+00
117,1.500000000000e-01,1.496400000000e+01,0.000000000000e+00
118,-1.500000000000e-01,1.496400000000e+01,0.000000000000e+00
119,1.500000000000e-01,1.496400000000e+01,2.000000000000e+00
120,-1.500000000000e-01,1.496400000000e+01,2.000000000000e+00
121,-1.200000000000e+00,2.503000000000e+01,8.500000000000e-01
122,-1.200000000000e+00,2.503000000000e+01,1.150000000000e+00
123,1.200000000000e+00,2.503000000000e+01,8.500000000000e-01
124,1.200000000000e+00,2.503000000000e+01,1.150000000000e+00
125,1.500000000000e-01,2.496400000000e+01,0.000000000000e+00
126,-1.500000000000e-01,2.496400000000e+01,0.000000000000e+00
127,1.500000000000e-01,2.496400000000e+01,2.000000000000e+00
128,-1.500000000000e-01,2.496400000000e+01,2.000000000000e+00
129,-1.200000000000e+00,3.503000000000e+01,8.500000000000e-01
130,-1.200000000000e+00,3.503000000000e+01,1.150000000000e+00
131,1.200000000000e+00,3.503000000000e+01,8.500000000000e-01
132,1.200000000000e+00,3.503000000000e+01,1.150000000000e+00
133,1.500000000000e-01,3.496400000000e+01,0.000000000000e+00
134,-1.500000000000e-01,3.496400000000e+01,0.000000000000e+00
135,1.500000000000e-01,3.496400000000e+01,2.000000000000e+00
136,-1.500000000000e-01,3.496400000000e+01,2.000000000000e+00
137,-1.200000000000e+00,4.503000000000e+01,8.500000000000e-01
138,-1.200000000000e+00,4.503000000000e+01,1.150000000000e+00
139,1.200000000000e+00,4.503000000000e+01,8.500000000000e-01
140,1.200000000000e+00,4.503000000000e+01,1.150000000000e+00
141,1.500000000000e-01,4.496400000000e+01,0.000000000000e+00
142,-1.500000000000e-01,4.496400000000e+01,0.000000000000e+00
143,1.500000000000e-01,4.496400000000e+01,2.000000000000e+00
144,-1.500000000000e-01,4.496400000000e+01,2.000000000000e+00
*ELEMENT,TYPE=B31,ELSET=ALL
1,1,5
2,2,6
3,3,7
4,4,8
5,5,25
6,25,9
7,6,26
8,26,10
9,7,27
10,27,11
11,8,28
12,28,12
13,9,29
14,29,30
15,30,31
16,31,13
17,10,32
18,32,33
19,33,34
20,34,14
21,11,35
22,35,36
23,36,37
24,37,15
25,12,38
26,38,39
27,39,40
28,40,16
29,13,41
30,41,42
31,42,43
32,43,44
33,44,45
34,45,46
35,46,47
36,47,17
37,14,48
38,48,49
39,49,50
40,50,51
41,51,52
42,52,53
43,53,54
44,54,18
45,15,55
46,55,56
47,56,57
48,57,58
49,58,59
50,59,60
51,60,61
52,61,19
53,16,62
54,62,63
55,63,64
56,64,65
57,65,66
58,66,67
59,67,68
60,68,20
61,17,69
62,69,70
63,70,71
64,71,21
65,18,72
66,72,73
67,73,74
68,74,22
69,19,75
70,75,76
71,76,77
72,77,23
73,20,78
74,78,79
75,79,80
76,80,24
77,1,81
78,81,2
79,3,82
80,82,4
81,1,83
82,83,3
83,2,84
84,84,4
85,5,85
86,85,6
87,7,86
88,86,8
89,5,87
90,87,7
91,6,88
92,88,8
93,9,89
94,89,10
95,11,90
96,90,12
97,9,91
98,91,11
99,10,92
100,92,12
101,13,93
102,93,14
103,15,94
104,94,16
105,13,95
106,95,15
107,14,96
108,96,16
109,17,97
110,97,18
111,19,98
112,98,20
113,17,99
114,99,19
115,18,100
116,100,20
117,21,101
118,101,22
119,23,102
120,102,24
121,21,103
122,103,23
123,22,104
124,104,24
125,1,105
126,105,7
127,3,106
128,106,5
129,2,107
130,107,8
131,4,108
132,108,6
133,1,109
134,109,6
135,2,110
136,110,5
137,3,111
138,111,8
139,4,112
140,112,7
141,5,113
142,113,11
143,7,114
144,114,9
145,6,115
146,115,12
147,8,116
148,116,10
149,5,117
150,117,10
151,6,118
152,118,9
153,7,119
154,119,12
155,8,120
156,120,11
157,9,121
158,121,15
159,11,122
160,122,13
161,10,123
162,123,16
163,12,124
164,124,14
165,9,125
166,125,14
167,10,126
168,126,13
169,11,127
170,127,16
171,12,128
172,128,15
173,13,129
174,129,19
175,15,130
176,130,17
177,14,131
178,131,20
179,16,132
180,132,18
181,13,133
182,133,18
183,14,134
184,134,17
185,15,135
186,135,20
187,16,136
188,136,19
189,17,137
190,137,23
191,19,138
192,138,21
193,18,139
194,139,24
195,20,140
196,140,22
197,17,141
198,141,22
199,18,142
200,142,21
201,19,143
202,143,24
203,20,144
204,144,23
*NSET,NSET=NALL,GENERATE
1,144,1
*NSET,NSET=LEFT
1,2,3,4
*NSET,NSET=RIGHT
21,22,23,24
*MATERIAL,NAME=STEEL
*ELASTIC
2.100000000000e+11,0.300000000000
*BEAM SECTION,ELSET=ALL,MATERIAL=STEEL,SECTION=RECT
6.000000000000e-02,4.000000000000e-02
0.371390676354,0.557086014531,0.742781352708
*BOUNDARY
LEFT,1,6,0.0
*STEP
*STATIC
*BOUNDARY
21,1,1,5.000000000000e-03
21,2,2,0.0
21,3,3,-6.000000000000e-03
*BOUNDARY
22,1,1,5.000000000000e-03
22,2,2,0.0
22,3,3,6.000000000000e-03
*BOUNDARY
23,1,1,-5.000000000000e-03
23,2,2,0.0
23,3,3,-6.000000000000e-03
*BOUNDARY
24,1,1,-5.000000000000e-03
24,2,2,0.0
24,3,3,6.000000000000e-03
*NODE FILE,NSET=NALL
U
*NODE PRINT,NSET=NALL
U
*NODE PRINT,NSET=RIGHT
RF
*EL PRINT,ELSET=ALL,TOTALS=YES
ELSE
*END STEP
