*HEADING
Normalized cross-passage space-truss torsion benchmark
*NODE
1,-1.200000000000e+00,0.000000000000e+00,0.000000000000e+00
2,1.200000000000e+00,0.000000000000e+00,0.000000000000e+00
3,-1.200000000000e+00,0.000000000000e+00,2.000000000000e+00
4,1.200000000000e+00,0.000000000000e+00,2.000000000000e+00
5,-1.200000000000e+00,1.000000000000e+01,0.000000000000e+00
6,1.200000000000e+00,1.000000000000e+01,0.000000000000e+00
7,-1.200000000000e+00,1.000000000000e+01,2.000000000000e+00
8,1.200000000000e+00,1.000000000000e+01,2.000000000000e+00
9,-1.200000000000e+00,2.000000000000e+01,0.000000000000e+00
10,1.200000000000e+00,2.000000000000e+01,0.000000000000e+00
11,-1.200000000000e+00,2.000000000000e+01,2.000000000000e+00
12,1.200000000000e+00,2.000000000000e+01,2.000000000000e+00
13,-1.200000000000e+00,3.000000000000e+01,0.000000000000e+00
14,1.200000000000e+00,3.000000000000e+01,0.000000000000e+00
15,-1.200000000000e+00,3.000000000000e+01,2.000000000000e+00
16,1.200000000000e+00,3.000000000000e+01,2.000000000000e+00
17,-1.200000000000e+00,4.000000000000e+01,0.000000000000e+00
18,1.200000000000e+00,4.000000000000e+01,0.000000000000e+00
19,-1.200000000000e+00,4.000000000000e+01,2.000000000000e+00
20,1.200000000000e+00,4.000000000000e+01,2.000000000000e+00
21,-1.200000000000e+00,5.000000000000e+01,0.000000000000e+00
22,1.200000000000e+00,5.000000000000e+01,0.000000000000e+00
23,-1.200000000000e+00,5.000000000000e+01,2.000000000000e+00
24,1.200000000000e+00,5.000000000000e+01,2.000000000000e+00
25,-1.200000000000e+00,2.500000000000e+00,-1.060660171780e-01
26,-1.200000000000e+00,5.000000000000e+00,-1.500000000000e-01
27,-1.200000000000e+00,7.500000000000e+00,-1.060660171780e-01
28,1.200000000000e+00,2.500000000000e+00,1.060660171780e-01
29,1.200000000000e+00,5.000000000000e+00,1.500000000000e-01
30,1.200000000000e+00,7.500000000000e+00,1.060660171780e-01
31,-1.200000000000e+00,2.500000000000e+00,1.893933982822e+00
32,-1.200000000000e+00,5.000000000000e+00,1.850000000000e+00
33,-1.200000000000e+00,7.500000000000e+00,1.893933982822e+00
34,1.200000000000e+00,2.500000000000e+00,2.106066017178e+00
35,1.200000000000e+00,5.000000000000e+00,2.150000000000e+00
36,1.200000000000e+00,7.500000000000e+00,2.106066017178e+00
37,-1.200000000000e+00,1.500000000000e+01,-1.500000000000e-01
38,1.200000000000e+00,1.500000000000e+01,1.500000000000e-01
39,-1.200000000000e+00,1.500000000000e+01,1.850000000000e+00
40,1.200000000000e+00,1.500000000000e+01,2.150000000000e+00
41,-1.200000000000e+00,4.250000000000e+01,-1.060660171780e-01
42,-1.200000000000e+00,4.500000000000e+01,-1.500000000000e-01
43,-1.200000000000e+00,4.750000000000e+01,-1.060660171780e-01
44,1.200000000000e+00,4.250000000000e+01,1.060660171780e-01
45,1.200000000000e+00,4.500000000000e+01,1.500000000000e-01
46,1.200000000000e+00,4.750000000000e+01,1.060660171780e-01
47,-1.200000000000e+00,4.250000000000e+01,1.893933982822e+00
48,-1.200000000000e+00,4.500000000000e+01,1.850000000000e+00
49,-1.200000000000e+00,4.750000000000e+01,1.893933982822e+00
50,1.200000000000e+00,4.250000000000e+01,2.106066017178e+00
51,1.200000000000e+00,4.500000000000e+01,2.150000000000e+00
52,1.200000000000e+00,4.750000000000e+01,2.106066017178e+00
53,0.000000000000e+00,-3.600000000000e-02,0.000000000000e+00
54,0.000000000000e+00,3.600000000000e-02,2.000000000000e+00
55,-1.200000000000e+00,3.000000000000e-02,1.000000000000e+00
56,1.200000000000e+00,-3.000000000000e-02,1.000000000000e+00
57,-6.000000000000e-01,9.974544155877e+00,0.000000000000e+00
58,0.000000000000e+00,9.964000000000e+00,0.000000000000e+00
59,6.000000000000e-01,9.974544155877e+00,0.000000000000e+00
60,-6.000000000000e-01,1.002545584412e+01,2.000000000000e+00
61,0.000000000000e+00,1.003600000000e+01,2.000000000000e+00
62,6.000000000000e-01,1.002545584412e+01,2.000000000000e+00
63,-1.200000000000e+00,1.002121320344e+01,5.000000000000e-01
64,-1.200000000000e+00,1.003000000000e+01,1.000000000000e+00
65,-1.200000000000e+00,1.002121320344e+01,1.500000000000e+00
66,1.200000000000e+00,9.978786796564e+00,5.000000000000e-01
67,1.200000000000e+00,9.970000000000e+00,1.000000000000e+00
68,1.200000000000e+00,9.978786796564e+00,1.500000000000e+00
69,0.000000000000e+00,1.996400000000e+01,0.000000000000e+00
70,0.000000000000e+00,2.003600000000e+01,2.000000000000e+00
71,-1.200000000000e+00,2.003000000000e+01,1.000000000000e+00
72,1.200000000000e+00,1.997000000000e+01,1.000000000000e+00
73,-9.000000000000e-01,2.998622339643e+01,0.000000000000e+00
74,-6.000000000000e-01,2.997454415588e+01,0.000000000000e+00
75,-3.000000000000e-01,2.996674033683e+01,0.000000000000e+00
76,0.000000000000e+00,2.996400000000e+01,0.000000000000e+00
77,3.000000000000e-01,2.996674033683e+01,0.000000000000e+00
78,6.000000000000e-01,2.997454415588e+01,0.000000000000e+00
79,9.000000000000e-01,2.998622339643e+01,0.000000000000e+00
80,-9.000000000000e-01,3.001377660357e+01,2.000000000000e+00
81,-6.000000000000e-01,3.002545584412e+01,2.000000000000e+00
82,-3.000000000000e-01,3.003325966317e+01,2.000000000000e+00
83,0.000000000000e+00,3.003600000000e+01,2.000000000000e+00
84,3.000000000000e-01,3.003325966317e+01,2.000000000000e+00
85,6.000000000000e-01,3.002545584412e+01,2.000000000000e+00
86,9.000000000000e-01,3.001377660357e+01,2.000000000000e+00
87,-1.200000000000e+00,3.001148050297e+01,2.500000000000e-01
88,-1.200000000000e+00,3.002121320344e+01,5.000000000000e-01
89,-1.200000000000e+00,3.002771638598e+01,7.500000000000e-01
90,-1.200000000000e+00,3.003000000000e+01,1.000000000000e+00
91,-1.200000000000e+00,3.002771638598e+01,1.250000000000e+00
92,-1.200000000000e+00,3.002121320344e+01,1.500000000000e+00
93,-1.200000000000e+00,3.001148050297e+01,1.750000000000e+00
94,1.200000000000e+00,2.998851949703e+01,2.500000000000e-01
95,1.200000000000e+00,2.997878679656e+01,5.000000000000e-01
96,1.200000000000e+00,2.997228361402e+01,7.500000000000e-01
97,1.200000000000e+00,2.997000000000e+01,1.000000000000e+00
98,1.200000000000e+00,2.997228361402e+01,1.250000000000e+00
99,1.200000000000e+00,2.997878679656e+01,1.500000000000e+00
100,1.200000000000e+00,2.998851949703e+01,1.750000000000e+00
101,0.000000000000e+00,3.996400000000e+01,0.000000000000e+00
102,0.000000000000e+00,4.003600000000e+01,2.000000000000e+00
103,-1.200000000000e+00,4.003000000000e+01,1.000000000000e+00
104,1.200000000000e+00,3.997000000000e+01,1.000000000000e+00
105,-6.000000000000e-01,4.997454415588e+01,0.000000000000e+00
106,0.000000000000e+00,4.996400000000e+01,0.000000000000e+00
107,6.000000000000e-01,4.997454415588e+01,0.000000000000e+00
108,-6.000000000000e-01,5.002545584412e+01,2.000000000000e+00
109,0.000000000000e+00,5.003600000000e+01,2.000000000000e+00
110,6.000000000000e-01,5.002545584412e+01,2.000000000000e+00
111,-1.200000000000e+00,5.002121320344e+01,5.000000000000e-01
112,-1.200000000000e+00,5.003000000000e+01,1.000000000000e+00
113,-1.200000000000e+00,5.002121320344e+01,1.500000000000e+00
114,1.200000000000e+00,4.997878679656e+01,5.000000000000e-01
115,1.200000000000e+00,4.997000000000e+01,1.000000000000e+00
116,1.200000000000e+00,4.997878679656e+01,1.500000000000e+00
117,-1.200000000000e+00,1.261480502971e+00,1.925974851452e-01
118,-1.200000000000e+00,2.521213203436e+00,3.939339828220e-01
119,-1.200000000000e+00,3.777716385975e+00,6.114180701233e-01
120,-1.200000000000e+00,5.030000000000e+00,8.500000000000e-01
121,-1.200000000000e+00,6.277716385975e+00,1.111418070123e+00
122,-1.200000000000e+00,7.521213203436e+00,1.393933982822e+00
123,-1.200000000000e+00,8.761480502971e+00,1.692597485145e+00
124,-1.200000000000e+00,1.261480502971e+00,1.807402514855e+00
125,-1.200000000000e+00,2.521213203436e+00,1.606066017178e+00
126,-1.200000000000e+00,3.777716385975e+00,1.388581929877e+00
127,-1.200000000000e+00,5.030000000000e+00,1.150000000000e+00
128,-1.200000000000e+00,6.277716385975e+00,8.885819298767e-01
129,-1.200000000000e+00,7.521213203436e+00,6.060660171780e-01
130,-1.200000000000e+00,8.761480502971e+00,3.074025148548e-01
131,1.200000000000e+00,1.261480502971e+00,1.925974851452e-01
132,1.200000000000e+00,2.521213203436e+00,3.939339828220e-01
133,1.200000000000e+00,3.777716385975e+00,6.114180701233e-01
134,1.200000000000e+00,5.030000000000e+00,8.500000000000e-01
135,1.200000000000e+00,6.277716385975e+00,1.111418070123e+00
136,1.200000000000e+00,7.521213203436e+00,1.393933982822e+00
137,1.200000000000e+00,8.761480502971e+00,1.692597485145e+00
138,1.200000000000e+00,1.261480502971e+00,1.807402514855e+00
139,1.200000000000e+00,2.521213203436e+00,1.606066017178e+00
140,1.200000000000e+00,3.777716385975e+00,1.388581929877e+00
141,1.200000000000e+00,5.030000000000e+00,1.150000000000e+00
142,1.200000000000e+00,6.277716385975e+00,8.885819298767e-01
143,1.200000000000e+00,7.521213203436e+00,6.060660171780e-01
144,1.200000000000e+00,8.761480502971e+00,3.074025148548e-01
145,-8.425974851452e-01,1.236223396435e+00,0.000000000000e+00
146,-4.939339828220e-01,2.474544155877e+00,0.000000000000e+00
147,-1.614180701233e-01,3.716740336830e+00,0.000000000000e+00
148,1.500000000000e-01,4.964000000000e+00,0.000000000000e+00
149,4.385819298767e-01,6.216740336830e+00,0.000000000000e+00
150,7.060660171780e-01,7.474544155877e+00,0.000000000000e+00
151,9.574025148548e-01,8.736223396435e+00,0.000000000000e+00
152,8.425974851452e-01,1.236223396435e+00,0.000000000000e+00
153,4.939339828220e-01,2.474544155877e+00,0.000000000000e+00
154,1.614180701233e-01,3.716740336830e+00,0.000000000000e+00
155,-1.500000000000e-01,4.964000000000e+00,0.000000000000e+00
156,-4.385819298767e-01,6.216740336830e+00,0.000000000000e+00
157,-7.060660171780e-01,7.474544155877e+00,0.000000000000e+00
158,-9.574025148548e-01,8.736223396435e+00,0.000000000000e+00
159,-8.425974851452e-01,1.236223396435e+00,2.000000000000e+00
160,-4.939339828220e-01,2.474544155877e+00,2.000000000000e+00
161,-1.614180701233e-01,3.716740336830e+00,2.000000000000e+00
162,1.500000000000e-01,4.964000000000e+00,2.000000000000e+00
163,4.385819298767e-01,6.216740336830e+00,2.000000000000e+00
164,7.060660171780e-01,7.474544155877e+00,2.000000000000e+00
165,9.574025148548e-01,8.736223396435e+00,2.000000000000e+00
166,8.425974851452e-01,1.236223396435e+00,2.000000000000e+00
167,4.939339828220e-01,2.474544155877e+00,2.000000000000e+00
168,1.614180701233e-01,3.716740336830e+00,2.000000000000e+00
169,-1.500000000000e-01,4.964000000000e+00,2.000000000000e+00
170,-4.385819298767e-01,6.216740336830e+00,2.000000000000e+00
171,-7.060660171780e-01,7.474544155877e+00,2.000000000000e+00
172,-9.574025148548e-01,8.736223396435e+00,2.000000000000e+00
173,-1.200000000000e+00,1.503000000000e+01,8.500000000000e-01
174,-1.200000000000e+00,1.503000000000e+01,1.150000000000e+00
175,1.200000000000e+00,1.503000000000e+01,8.500000000000e-01
176,1.200000000000e+00,1.503000000000e+01,1.150000000000e+00
177,1.500000000000e-01,1.496400000000e+01,0.000000000000e+00
178,-1.500000000000e-01,1.496400000000e+01,0.000000000000e+00
179,1.500000000000e-01,1.496400000000e+01,2.000000000000e+00
180,-1.500000000000e-01,1.496400000000e+01,2.000000000000e+00
181,-1.200000000000e+00,2.503000000000e+01,8.500000000000e-01
182,-1.200000000000e+00,2.503000000000e+01,1.150000000000e+00
183,1.200000000000e+00,2.503000000000e+01,8.500000000000e-01
184,1.200000000000e+00,2.503000000000e+01,1.150000000000e+00
185,1.500000000000e-01,2.496400000000e+01,0.000000000000e+00
186,-1.500000000000e-01,2.496400000000e+01,0.000000000000e+00
187,1.500000000000e-01,2.496400000000e+01,2.000000000000e+00
188,-1.500000000000e-01,2.496400000000e+01,2.000000000000e+00
189,-1.200000000000e+00,3.252121320344e+01,3.939339828220e-01
190,-1.200000000000e+00,3.503000000000e+01,8.500000000000e-01
191,-1.200000000000e+00,3.752121320344e+01,1.393933982822e+00
192,-1.200000000000e+00,3.252121320344e+01,1.606066017178e+00
193,-1.200000000000e+00,3.503000000000e+01,1.150000000000e+00
194,-1.200000000000e+00,3.752121320344e+01,6.060660171780e-01
195,1.200000000000e+00,3.252121320344e+01,3.939339828220e-01
196,1.200000000000e+00,3.503000000000e+01,8.500000000000e-01
197,1.200000000000e+00,3.752121320344e+01,1.393933982822e+00
198,1.200000000000e+00,3.252121320344e+01,1.606066017178e+00
199,1.200000000000e+00,3.503000000000e+01,1.150000000000e+00
200,1.200000000000e+00,3.752121320344e+01,6.060660171780e-01
201,-4.939339828220e-01,3.247454415588e+01,0.000000000000e+00
202,1.500000000000e-01,3.496400000000e+01,0.000000000000e+00
203,7.060660171780e-01,3.747454415588e+01,0.000000000000e+00
204,4.939339828220e-01,3.247454415588e+01,0.000000000000e+00
205,-1.500000000000e-01,3.496400000000e+01,0.000000000000e+00
206,-7.060660171780e-01,3.747454415588e+01,0.000000000000e+00
207,-4.939339828220e-01,3.247454415588e+01,2.000000000000e+00
208,1.500000000000e-01,3.496400000000e+01,2.000000000000e+00
209,7.060660171780e-01,3.747454415588e+01,2.000000000000e+00
210,4.939339828220e-01,3.247454415588e+01,2.000000000000e+00
211,-1.500000000000e-01,3.496400000000e+01,2.000000000000e+00
212,-7.060660171780e-01,3.747454415588e+01,2.000000000000e+00
*ELEMENT,TYPE=B31,ELSET=ALL
1,1,25
2,25,26
3,26,27
4,27,5
5,2,28
6,28,29
7,29,30
8,30,6
9,3,31
10,31,32
11,32,33
12,33,7
13,4,34
14,34,35
15,35,36
16,36,8
17,5,37
18,37,9
19,6,38
20,38,10
21,7,39
22,39,11
23,8,40
24,40,12
25,9,13
26,10,14
27,11,15
28,12,16
29,13,17
30,14,18
31,15,19
32,16,20
33,17,41
34,41,42
35,42,43
36,43,21
37,18,44
38,44,45
39,45,46
40,46,22
41,19,47
42,47,48
43,48,49
44,49,23
45,20,50
46,50,51
47,51,52
48,52,24
49,1,53
50,53,2
51,3,54
52,54,4
53,1,55
54,55,3
55,2,56
56,56,4
57,5,57
58,57,58
59,58,59
60,59,6
61,7,60
62,60,61
63,61,62
64,62,8
65,5,63
66,63,64
67,64,65
68,65,7
69,6,66
70,66,67
71,67,68
72,68,8
73,9,69
74,69,10
75,11,70
76,70,12
77,9,71
78,71,11
79,10,72
80,72,12
81,13,73
82,73,74
83,74,75
84,75,76
85,76,77
86,77,78
87,78,79
88,79,14
89,15,80
90,80,81
91,81,82
92,82,83
93,83,84
94,84,85
95,85,86
96,86,16
97,13,87
98,87,88
99,88,89
100,89,90
101,90,91
102,91,92
103,92,93
104,93,15
105,14,94
106,94,95
107,95,96
108,96,97
109,97,98
110,98,99
111,99,100
112,100,16
113,17,101
114,101,18
115,19,102
116,102,20
117,17,103
118,103,19
119,18,104
120,104,20
121,21,105
122,105,106
123,106,107
124,107,22
125,23,108
126,108,109
127,109,110
128,110,24
129,21,111
130,111,112
131,112,113
132,113,23
133,22,114
134,114,115
135,115,116
136,116,24
137,1,117
138,117,118
139,118,119
140,119,120
141,120,121
142,121,122
143,122,123
144,123,7
145,3,124
146,124,125
147,125,126
148,126,127
149,127,128
150,128,129
151,129,130
152,130,5
153,2,131
154,131,132
155,132,133
156,133,134
157,134,135
158,135,136
159,136,137
160,137,8
161,4,138
162,138,139
163,139,140
164,140,141
165,141,142
166,142,143
167,143,144
168,144,6
169,1,145
170,145,146
171,146,147
172,147,148
173,148,149
174,149,150
175,150,151
176,151,6
177,2,152
178,152,153
179,153,154
180,154,155
181,155,156
182,156,157
183,157,158
184,158,5
185,3,159
186,159,160
187,160,161
188,161,162
189,162,163
190,163,164
191,164,165
192,165,8
193,4,166
194,166,167
195,167,168
196,168,169
197,169,170
198,170,171
199,171,172
200,172,7
201,5,173
202,173,11
203,7,174
204,174,9
205,6,175
206,175,12
207,8,176
208,176,10
209,5,177
210,177,10
211,6,178
212,178,9
213,7,179
214,179,12
215,8,180
216,180,11
217,9,181
218,181,15
219,11,182
220,182,13
221,10,183
222,183,16
223,12,184
224,184,14
225,9,185
226,185,14
227,10,186
228,186,13
229,11,187
230,187,16
231,12,188
232,188,15
233,13,189
234,189,190
235,190,191
236,191,19
237,15,192
238,192,193
239,193,194
240,194,17
241,14,195
242,195,196
243,196,197
244,197,20
245,16,198
246,198,199
247,199,200
248,200,18
249,13,201
250,201,202
251,202,203
252,203,18
253,14,204
254,204,205
255,205,206
256,206,17
257,15,207
258,207,208
259,208,209
260,209,20
261,16,210
262,210,211
263,211,212
264,212,19
265,17,23
266,19,21
267,18,24
268,20,22
269,17,22
270,18,21
271,19,24
272,20,23
*NSET,NSET=NALL,GENERATE
1,212,1
*NSET,NSET=LEFT
1,2,3,4
*NSET,NSET=RIGHT
21,22,23,24
*MATERIAL,NAME=STEEL
*ELASTIC
2.100000000000e+11,0.300000000000
*BEAM SECTION,ELSET=ALL,MATERIAL=STEEL,SECTION=RECT
6.000000000000e-02,4.000000000000e-02
0.371390676354,0.557086014531,0.742781352708
*BOUNDARY
LEFT,1,6,0.0
*STEP
*STATIC
*BOUNDARY
21,1,1,5.000000000000e-03
21,2,2,0.0
21,3,3,-6.000000000000e-03
*BOUNDARY
22,1,1,5.000000000000e-03
22,2,2,0.0
22,3,3,6.000000000000e-03
*BOUNDARY
23,1,1,-5.000000000000e-03
23,2,2,0.0
23,3,3,-6.000000000000e-03
*BOUNDARY
24,1,1,-5.000000000000e-03
24,2,2,0.0
24,3,3,6.000000000000e-03
*NODE FILE,NSET=NALL
U
*NODE PRINT,NSET=NALL
U
*NODE PRINT,NSET=RIGHT
RF
*EL PRINT,ELSET=ALL,TOTALS=YES
ELSE
*END STEP
