*HEADING
Normalized cross-passage space-truss torsion benchmark
*NODE
1,-1.200000000000e+00,0.000000000000e+00,0.000000000000e+00
2,1.200000000000e+00,0.000000000000e+00,0.000000000000e+00
3,-1.200000000000e+00,0.000000000000e+00,2.000000000000e+00
4,1.200000000000e+00,0.000000000000e+00,2.000000000000e+00
5,-1.200000000000e+00,1.000000000000e+01,0.000000000000e+00
6,1.200000000000e+00,1.000000000000e+01,0.000000000000e+00
7,-1.200000000000e+00,1.000000000000e+01,2.000000000000e+00
8,1.200000000000e+00,1.000000000000e+01,2.000000000000e+00
9,-1.200000000000e+00,2.000000000000e+01,0.000000000000e+00
10,1.200000000000e+00,2.000000000000e+01,0.000000000000e+00
11,-1.200000000000e+00,2.000000000000e+01,2.000000000000e+00
12,1.200000000000e+00,2.000000000000e+01,2.000000000000e+00
13,-1.200000000000e+00,3.000000000000e+01,0.000000000000e+00
14,1.200000000000e+00,3.000000000000e+01,0.000000000000e+00
15,-1.200000000000e+00,3.000000000000e+01,2.000000000000e+00
16,1.200000000000e+00,3.000000000000e+01,2.000000000000e+00
17,-1.200000000000e+00,4.000000000000e+01,0.000000000000e+00
18,1.200000000000e+00,4.000000000000e+01,0.000000000000e+00
19,-1.200000000000e+00,4.000000000000e+01,2.000000000000e+00
20,1.200000000000e+00,4.000000000000e+01,2.000000000000e+00
21,-1.200000000000e+00,5.000000000000e+01,0.000000000000e+00
22,1.200000000000e+00,5.000000000000e+01,0.000000000000e+00
23,-1.200000000000e+00,5.000000000000e+01,2.000000000000e+00
24,1.200000000000e+00,5.000000000000e+01,2.000000000000e+00
25,-1.200000000000e+00,5.000000000000e+00,-1.500000000000e-01
26,1.200000000000e+00,5.000000000000e+00,1.500000000000e-01
27,-1.200000000000e+00,5.000000000000e+00,1.850000000000e+00
28,1.200000000000e+00,5.000000000000e+00,2.150000000000e+00
29,-1.200000000000e+00,1.250000000000e+01,-1.060660171780e-01
30,-1.200000000000e+00,1.500000000000e+01,-1.500000000000e-01
31,-1.200000000000e+00,1.750000000000e+01,-1.060660171780e-01
32,1.200000000000e+00,1.250000000000e+01,1.060660171780e-01
33,1.200000000000e+00,1.500000000000e+01,1.500000000000e-01
34,1.200000000000e+00,1.750000000000e+01,1.060660171780e-01
35,-1.200000000000e+00,1.250000000000e+01,1.893933982822e+00
36,-1.200000000000e+00,1.500000000000e+01,1.850000000000e+00
37,-1.200000000000e+00,1.750000000000e+01,1.893933982822e+00
38,1.200000000000e+00,1.250000000000e+01,2.106066017178e+00
39,1.200000000000e+00,1.500000000000e+01,2.150000000000e+00
40,1.200000000000e+00,1.750000000000e+01,2.106066017178e+00
41,-1.200000000000e+00,2.500000000000e+01,-1.500000000000e-01
42,1.200000000000e+00,2.500000000000e+01,1.500000000000e-01
43,-1.200000000000e+00,2.500000000000e+01,1.850000000000e+00
44,1.200000000000e+00,2.500000000000e+01,2.150000000000e+00
45,-1.200000000000e+00,3.125000000000e+01,-5.740251485476e-02
46,-1.200000000000e+00,3.250000000000e+01,-1.060660171780e-01
47,-1.200000000000e+00,3.375000000000e+01,-1.385819298767e-01
48,-1.200000000000e+00,3.500000000000e+01,-1.500000000000e-01
49,-1.200000000000e+00,3.625000000000e+01,-1.385819298767e-01
50,-1.200000000000e+00,3.750000000000e+01,-1.060660171780e-01
51,-1.200000000000e+00,3.875000000000e+01,-5.740251485476e-02
52,1.200000000000e+00,3.125000000000e+01,5.740251485476e-02
53,1.200000000000e+00,3.250000000000e+01,1.060660171780e-01
54,1.200000000000e+00,3.375000000000e+01,1.385819298767e-01
55,1.200000000000e+00,3.500000000000e+01,1.500000000000e-01
56,1.200000000000e+00,3.625000000000e+01,1.385819298767e-01
57,1.200000000000e+00,3.750000000000e+01,1.060660171780e-01
58,1.200000000000e+00,3.875000000000e+01,5.740251485476e-02
59,-1.200000000000e+00,3.125000000000e+01,1.942597485145e+00
60,-1.200000000000e+00,3.250000000000e+01,1.893933982822e+00
61,-1.200000000000e+00,3.375000000000e+01,1.861418070123e+00
62,-1.200000000000e+00,3.500000000000e+01,1.850000000000e+00
63,-1.200000000000e+00,3.625000000000e+01,1.861418070123e+00
64,-1.200000000000e+00,3.750000000000e+01,1.893933982822e+00
65,-1.200000000000e+00,3.875000000000e+01,1.942597485145e+00
66,1.200000000000e+00,3.125000000000e+01,2.057402514855e+00
67,1.200000000000e+00,3.250000000000e+01,2.106066017178e+00
68,1.200000000000e+00,3.375000000000e+01,2.138581929877e+00
69,1.200000000000e+00,3.500000000000e+01,2.150000000000e+00
70,1.200000000000e+00,3.625000000000e+01,2.138581929877e+00
71,1.200000000000e+00,3.750000000000e+01,2.106066017178e+00
72,1.200000000000e+00,3.875000000000e+01,2.057402514855e+00
73,-1.200000000000e+00,4.500000000000e+01,-1.500000000000e-01
74,1.200000000000e+00,4.500000000000e+01,1.500000000000e-01
75,-1.200000000000e+00,4.500000000000e+01,1.850000000000e+00
76,1.200000000000e+00,4.500000000000e+01,2.150000000000e+00
77,-6.000000000000e-01,-2.545584412272e-02,0.000000000000e+00
78,0.000000000000e+00,-3.600000000000e-02,0.000000000000e+00
79,6.000000000000e-01,-2.545584412272e-02,0.000000000000e+00
80,-6.000000000000e-01,2.545584412272e-02,2.000000000000e+00
81,0.000000000000e+00,3.600000000000e-02,2.000000000000e+00
82,6.000000000000e-01,2.545584412272e-02,2.000000000000e+00
83,-1.200000000000e+00,2.121320343560e-02,5.000000000000e-01
84,-1.200000000000e+00,3.000000000000e-02,1.000000000000e+00
85,-1.200000000000e+00,2.121320343560e-02,1.500000000000e+00
86,1.200000000000e+00,-2.121320343560e-02,5.000000000000e-01
87,1.200000000000e+00,-3.000000000000e-02,1.000000000000e+00
88,1.200000000000e+00,-2.121320343560e-02,1.500000000000e+00
89,0.000000000000e+00,2.996400000000e+01,0.000000000000e+00
90,0.000000000000e+00,3.003600000000e+01,2.000000000000e+00
91,-1.200000000000e+00,3.003000000000e+01,1.000000000000e+00
92,1.200000000000e+00,2.997000000000e+01,1.000000000000e+00
93,-6.000000000000e-01,3.997454415588e+01,0.000000000000e+00
94,0.000000000000e+00,3.996400000000e+01,0.000000000000e+00
95,6.000000000000e-01,3.997454415588e+01,0.000000000000e+00
96,-6.000000000000e-01,4.002545584412e+01,2.000000000000e+00
97,0.000000000000e+00,4.003600000000e+01,2.000000000000e+00
98,6.000000000000e-01,4.002545584412e+01,2.000000000000e+00
99,-1.200000000000e+00,4.002121320344e+01,5.000000000000e-01
100,-1.200000000000e+00,4.003000000000e+01,1.000000000000e+00
101,-1.200000000000e+00,4.002121320344e+01,1.500000000000e+00
102,1.200000000000e+00,3.997878679656e+01,5.000000000000e-01
103,1.200000000000e+00,3.997000000000e+01,1.000000000000e+00
104,1.200000000000e+00,3.997878679656e+01,1.500000000000e+00
105,-6.000000000000e-01,4.997454415588e+01,0.000000000000e+00
106,0.000000000000e+00,4.996400000000e+01,0.000000000000e+00
107,6.000000000000e-01,4.997454415588e+01,0.000000000000e+00
108,-6.000000000000e-01,5.002545584412e+01,2.000000000000e+00
109,0.000000000000e+00,5.003600000000e+01,2.000000000000e+00
110,6.000000000000e-01,5.002545584412e+01,2.000000000000e+00
111,-1.200000000000e+00,5.002121320344e+01,5.000000000000e-01
112,-1.200000000000e+00,5.003000000000e+01,1.000000000000e+00
113,-1.200000000000e+00,5.002121320344e+01,1.500000000000e+00
114,1.200000000000e+00,4.997878679656e+01,5.000000000000e-01
115,1.200000000000e+00,4.997000000000e+01,1.000000000000e+00
116,1.200000000000e+00,4.997878679656e+01,1.500000000000e+00
117,-1.200000000000e+00,5.030000000000e+00,8.500000000000e-01
118,-1.200000000000e+00,5.030000000000e+00,1.150000000000e+00
119,1.200000000000e+00,5.030000000000e+00,8.500000000000e-01
120,1.200000000000e+00,5.030000000000e+00,1.150000000000e+00
121,1.500000000000e-01,4.964000000000e+00,0.000000000000e+00
122,-1.500000000000e-01,4.964000000000e+00,0.000000000000e+00
123,1.500000000000e-01,4.964000000000e+00,2.000000000000e+00
124,-1.500000000000e-01,4.964000000000e+00,2.000000000000e+00
125,-1.200000000000e+00,2.252121320344e+01,3.939339828220e-01
126,-1.200000000000e+00,2.503000000000e+01,8.500000000000e-01
127,-1.200000000000e+00,2.752121320344e+01,1.393933982822e+00
128,-1.200000000000e+00,2.252121320344e+01,1.606066017178e+00
129,-1.200000000000e+00,2.503000000000e+01,1.150000000000e+00
130,-1.200000000000e+00,2.752121320344e+01,6.060660171780e-01
131,1.200000000000e+00,2.252121320344e+01,3.939339828220e-01
132,1.200000000000e+00,2.503000000000e+01,8.500000000000e-01
133,1.200000000000e+00,2.752121320344e+01,1.393933982822e+00
134,1.200000000000e+00,2.252121320344e+01,1.606066017178e+00
135,1.200000000000e+00,2.503000000000e+01,1.150000000000e+00
136,1.200000000000e+00,2.752121320344e+01,6.060660171780e-01
137,-4.939339828220e-01,2.247454415588e+01,0.000000000000e+00
138,1.500000000000e-01,2.496400000000e+01,0.000000000000e+00
139,7.060660171780e-01,2.747454415588e+01,0.000000000000e+00
140,4.939339828220e-01,2.247454415588e+01,0.000000000000e+00
141,-1.500000000000e-01,2.496400000000e+01,0.000000000000e+00
142,-7.060660171780e-01,2.747454415588e+01,0.000000000000e+00
143,-4.939339828220e-01,2.247454415588e+01,2.000000000000e+00
144,1.500000000000e-01,2.496400000000e+01,2.000000000000e+00
145,7.060660171780e-01,2.747454415588e+01,2.000000000000e+00
146,4.939339828220e-01,2.247454415588e+01,2.000000000000e+00
147,-1.500000000000e-01,2.496400000000e+01,2.000000000000e+00
148,-7.060660171780e-01,2.747454415588e+01,2.000000000000e+00
149,-1.200000000000e+00,3.503000000000e+01,8.500000000000e-01
150,-1.200000000000e+00,3.503000000000e+01,1.150000000000e+00
151,1.200000000000e+00,3.503000000000e+01,8.500000000000e-01
152,1.200000000000e+00,3.503000000000e+01,1.150000000000e+00
153,1.500000000000e-01,3.496400000000e+01,0.000000000000e+00
154,-1.500000000000e-01,3.496400000000e+01,0.000000000000e+00
155,1.500000000000e-01,3.496400000000e+01,2.000000000000e+00
156,-1.500000000000e-01,3.496400000000e+01,2.000000000000e+00
157,-1.200000000000e+00,4.252121320344e+01,3.939339828220e-01
158,-1.200000000000e+00,4.503000000000e+01,8.500000000000e-01
159,-1.200000000000e+00,4.752121320344e+01,1.393933982822e+00
160,-1.200000000000e+00,4.252121320344e+01,1.606066017178e+00
161,-1.200000000000e+00,4.503000000000e+01,1.150000000000e+00
162,-1.200000000000e+00,4.752121320344e+01,6.060660171780e-01
163,1.200000000000e+00,4.252121320344e+01,3.939339828220e-01
164,1.200000000000e+00,4.503000000000e+01,8.500000000000e-01
165,1.200000000000e+00,4.752121320344e+01,1.393933982822e+00
166,1.200000000000e+00,4.252121320344e+01,1.606066017178e+00
167,1.200000000000e+00,4.503000000000e+01,1.150000000000e+00
168,1.200000000000e+00,4.752121320344e+01,6.060660171780e-01
169,-4.939339828220e-01,4.247454415588e+01,0.000000000000e+00
170,1.500000000000e-01,4.496400000000e+01,0.000000000000e+00
171,7.060660171780e-01,4.747454415588e+01,0.000000000000e+00
172,4.939339828220e-01,4.247454415588e+01,0.000000000000e+00
173,-1.500000000000e-01,4.496400000000e+01,0.000000000000e+00
174,-7.060660171780e-01,4.747454415588e+01,0.000000000000e+00
175,-4.939339828220e-01,4.247454415588e+01,2.000000000000e+00
176,1.500000000000e-01,4.496400000000e+01,2.000000000000e+00
177,7.060660171780e-01,4.747454415588e+01,2.000000000000e+00
178,4.939339828220e-01,4.247454415588e+01,2.000000000000e+00
179,-1.500000000000e-01,4.496400000000e+01,2.000000000000e+00
180,-7.060660171780e-01,4.747454415588e+01,2.000000000000e+00
*ELEMENT,TYPE=B31,ELSET=ALL
1,1,25
2,25,5
3,2,26
4,26,6
5,3,27
6,27,7
7,4,28
8,28,8
9,5,29
10,29,30
11,30,31
12,31,9
13,6,32
14,32,33
15,33,34
16,34,10
17,7,35
18,35,36
19,36,37
20,37,11
21,8,38
22,38,39
23,39,40
24,40,12
25,9,41
26,41,13
27,10,42
28,42,14
29,11,43
30,43,15
31,12,44
32,44,16
33,13,45
34,45,46
35,46,47
36,47,48
37,48,49
38,49,50
39,50,51
40,51,17
41,14,52
42,52,53
43,53,54
44,54,55
45,55,56
46,56,57
47,57,58
48,58,18
49,15,59
50,59,60
51,60,61
52,61,62
53,62,63
54,63,64
55,64,65
56,65,19
57,16,66
58,66,67
59,67,68
60,68,69
61,69,70
62,70,71
63,71,72
64,72,20
65,17,73
66,73,21
67,18,74
68,74,22
69,19,75
70,75,23
71,20,76
72,76,24
73,1,77
74,77,78
75,78,79
76,79,2
77,3,80
78,80,81
79,81,82
80,82,4
81,1,83
82,83,84
83,84,85
84,85,3
85,2,86
86,86,87
87,87,88
88,88,4
89,5,6
90,7,8
91,5,7
92,6,8
93,9,10
94,11,12
95,9,11
96,10,12
97,13,89
98,89,14
99,15,90
100,90,16
101,13,91
102,91,15
103,14,92
104,92,16
105,17,93
106,93,94
107,94,95
108,95,18
109,19,96
110,96,97
111,97,98
112,98,20
113,17,99
114,99,100
115,100,101
116,101,19
117,18,102
118,102,103
119,103,104
120,104,20
121,21,105
122,105,106
123,106,107
124,107,22
125,23,108
126,108,109
127,109,110
128,110,24
129,21,111
130,111,112
131,112,113
132,113,23
133,22,114
134,114,115
135,115,116
136,116,24
137,1,117
138,117,7
139,3,118
140,118,5
141,2,119
142,119,8
143,4,120
144,120,6
145,1,121
146,121,6
147,2,122
148,122,5
149,3,123
150,123,8
151,4,124
152,124,7
153,5,11
154,7,9
155,6,12
156,8,10
157,5,10
158,6,9
159,7,12
160,8,11
161,9,125
162,125,126
163,126,127
164,127,15
165,11,128
166,128,129
167,129,130
168,130,13
169,10,131
170,131,132
171,132,133
172,133,16
173,12,134
174,134,135
175,135,136
176,136,14
177,9,137
178,137,138
179,138,139
180,139,14
181,10,140
182,140,141
183,141,142
184,142,13
185,11,143
186,143,144
187,144,145
188,145,16
189,12,146
190,146,147
191,147,148
192,148,15
193,13,149
194,149,19
195,15,150
196,150,17
197,14,151
198,151,20
199,16,152
200,152,18
201,13,153
202,153,18
203,14,154
204,154,17
205,15,155
206,155,20
207,16,156
208,156,19
209,17,157
210,157,158
211,158,159
212,159,23
213,19,160
214,160,161
215,161,162
216,162,21
217,18,163
218,163,164
219,164,165
220,165,24
221,20,166
222,166,167
223,167,168
224,168,22
225,17,169
226,169,170
227,170,171
228,171,22
229,18,172
230,172,173
231,173,174
232,174,21
233,19,175
234,175,176
235,176,177
236,177,24
237,20,178
238,178,179
239,179,180
240,180,23
*NSET,NSET=NALL,GENERATE
1,180,1
*NSET,NSET=LEFT
1,2,3,4
*NSET,NSET=RIGHT
21,22,23,24
*MATERIAL,NAME=STEEL
*ELASTIC
2.100000000000e+11,0.300000000000
*BEAM SECTION,ELSET=ALL,MATERIAL=STEEL,SECTION=RECT
6.000000000000e-02,4.000000000000e-02
0.371390676354,0.557086014531,0.742781352708
*BOUNDARY
LEFT,1,6,0.0
*STEP
*STATIC
*BOUNDARY
21,1,1,5.000000000000e-03
21,2,2,0.0
21,3,3,-6.000000000000e-03
*BOUNDARY
22,1,1,5.000000000000e-03
22,2,2,0.0
22,3,3,6.000000000000e-03
*BOUNDARY
23,1,1,-5.000000000000e-03
23,2,2,0.0
23,3,3,-6.000000000000e-03
*BOUNDARY
24,1,1,-5.000000000000e-03
24,2,2,0.0
24,3,3,6.000000000000e-03
*NODE FILE,NSET=NALL
U
*NODE PRINT,NSET=NALL
U
*NODE PRINT,NSET=RIGHT
RF
*EL PRINT,ELSET=ALL,TOTALS=YES
ELSE
*END STEP
