*HEADING
Normalized cross-passage space-truss torsion benchmark
*NODE
1,-1.200000000000e+00,0.000000000000e+00,0.000000000000e+00
2,1.200000000000e+00,0.000000000000e+00,0.000000000000e+00
3,-1.200000000000e+00,0.000000000000e+00,2.000000000000e+00
4,1.200000000000e+00,0.000000000000e+00,2.000000000000e+00
5,-1.200000000000e+00,1.000000000000e+01,0.000000000000e+00
6,1.200000000000e+00,1.000000000000e+01,0.000000000000e+00
7,-1.200000000000e+00,1.000000000000e+01,2.000000000000e+00
8,1.200000000000e+00,1.000000000000e+01,2.000000000000e+00
9,-1.200000000000e+00,2.000000000000e+01,0.000000000000e+00
10,1.200000000000e+00,2.000000000000e+01,0.000000000000e+00
11,-1.200000000000e+00,2.000000000000e+01,2.000000000000e+00
12,1.200000000000e+00,2.000000000000e+01,2.000000000000e+00
13,-1.200000000000e+00,3.000000000000e+01,0.000000000000e+00
14,1.200000000000e+00,3.000000000000e+01,0.000000000000e+00
15,-1.200000000000e+00,3.000000000000e+01,2.000000000000e+00
16,1.200000000000e+00,3.000000000000e+01,2.000000000000e+00
17,-1.200000000000e+00,4.000000000000e+01,0.000000000000e+00
18,1.200000000000e+00,4.000000000000e+01,0.000000000000e+00
19,-1.200000000000e+00,4.000000000000e+01,2.000000000000e+00
20,1.200000000000e+00,4.000000000000e+01,2.000000000000e+00
21,-1.200000000000e+00,5.000000000000e+01,0.000000000000e+00
22,1.200000000000e+00,5.000000000000e+01,0.000000000000e+00
23,-1.200000000000e+00,5.000000000000e+01,2.000000000000e+00
24,1.200000000000e+00,5.000000000000e+01,2.000000000000e+00
25,-1.200000000000e+00,1.250000000000e+00,-5.740251485476e-02
26,-1.200000000000e+00,2.500000000000e+00,-1.060660171780e-01
27,-1.200000000000e+00,3.750000000000e+00,-1.385819298767e-01
28,-1.200000000000e+00,5.000000000000e+00,-1.500000000000e-01
29,-1.200000000000e+00,6.250000000000e+00,-1.385819298767e-01
30,-1.200000000000e+00,7.500000000000e+00,-1.060660171780e-01
31,-1.200000000000e+00,8.750000000000e+00,-5.740251485476e-02
32,1.200000000000e+00,1.250000000000e+00,5.740251485476e-02
33,1.200000000000e+00,2.500000000000e+00,1.060660171780e-01
34,1.200000000000e+00,3.750000000000e+00,1.385819298767e-01
35,1.200000000000e+00,5.000000000000e+00,1.500000000000e-01
36,1.200000000000e+00,6.250000000000e+00,1.385819298767e-01
37,1.200000000000e+00,7.500000000000e+00,1.060660171780e-01
38,1.200000000000e+00,8.750000000000e+00,5.740251485476e-02
39,-1.200000000000e+00,1.250000000000e+00,1.942597485145e+00
40,-1.200000000000e+00,2.500000000000e+00,1.893933982822e+00
41,-1.200000000000e+00,3.750000000000e+00,1.861418070123e+00
42,-1.200000000000e+00,5.000000000000e+00,1.850000000000e+00
43,-1.200000000000e+00,6.250000000000e+00,1.861418070123e+00
44,-1.200000000000e+00,7.500000000000e+00,1.893933982822e+00
45,-1.200000000000e+00,8.750000000000e+00,1.942597485145e+00
46,1.200000000000e+00,1.250000000000e+00,2.057402514855e+00
47,1.200000000000e+00,2.500000000000e+00,2.106066017178e+00
48,1.200000000000e+00,3.750000000000e+00,2.138581929877e+00
49,1.200000000000e+00,5.000000000000e+00,2.150000000000e+00
50,1.200000000000e+00,6.250000000000e+00,2.138581929877e+00
51,1.200000000000e+00,7.500000000000e+00,2.106066017178e+00
52,1.200000000000e+00,8.750000000000e+00,2.057402514855e+00
53,-1.200000000000e+00,1.500000000000e+01,-1.500000000000e-01
54,1.200000000000e+00,1.500000000000e+01,1.500000000000e-01
55,-1.200000000000e+00,1.500000000000e+01,1.850000000000e+00
56,1.200000000000e+00,1.500000000000e+01,2.150000000000e+00
57,-1.200000000000e+00,2.500000000000e+01,-1.500000000000e-01
58,1.200000000000e+00,2.500000000000e+01,1.500000000000e-01
59,-1.200000000000e+00,2.500000000000e+01,1.850000000000e+00
60,1.200000000000e+00,2.500000000000e+01,2.150000000000e+00
61,-1.200000000000e+00,3.250000000000e+01,-1.060660171780e-01
62,-1.200000000000e+00,3.500000000000e+01,-1.500000000000e-01
63,-1.200000000000e+00,3.750000000000e+01,-1.060660171780e-01
64,1.200000000000e+00,3.250000000000e+01,1.060660171780e-01
65,1.200000000000e+00,3.500000000000e+01,1.500000000000e-01
66,1.200000000000e+00,3.750000000000e+01,1.060660171780e-01
67,-1.200000000000e+00,3.250000000000e+01,1.893933982822e+00
68,-1.200000000000e+00,3.500000000000e+01,1.850000000000e+00
69,-1.200000000000e+00,3.750000000000e+01,1.893933982822e+00
70,1.200000000000e+00,3.250000000000e+01,2.106066017178e+00
71,1.200000000000e+00,3.500000000000e+01,2.150000000000e+00
72,1.200000000000e+00,3.750000000000e+01,2.106066017178e+00
73,-1.200000000000e+00,4.250000000000e+01,-1.060660171780e-01
74,-1.200000000000e+00,4.500000000000e+01,-1.500000000000e-01
75,-1.200000000000e+00,4.750000000000e+01,-1.060660171780e-01
76,1.200000000000e+00,4.250000000000e+01,1.060660171780e-01
77,1.200000000000e+00,4.500000000000e+01,1.500000000000e-01
78,1.200000000000e+00,4.750000000000e+01,1.060660171780e-01
79,-1.200000000000e+00,4.250000000000e+01,1.893933982822e+00
80,-1.200000000000e+00,4.500000000000e+01,1.850000000000e+00
81,-1.200000000000e+00,4.750000000000e+01,1.893933982822e+00
82,1.200000000000e+00,4.250000000000e+01,2.106066017178e+00
83,1.200000000000e+00,4.500000000000e+01,2.150000000000e+00
84,1.200000000000e+00,4.750000000000e+01,2.106066017178e+00
85,0.000000000000e+00,-3.600000000000e-02,0.000000000000e+00
86,0.000000000000e+00,3.600000000000e-02,2.000000000000e+00
87,-1.200000000000e+00,3.000000000000e-02,1.000000000000e+00
88,1.200000000000e+00,-3.000000000000e-02,1.000000000000e+00
89,-6.000000000000e-01,9.974544155877e+00,0.000000000000e+00
90,0.000000000000e+00,9.964000000000e+00,0.000000000000e+00
91,6.000000000000e-01,9.974544155877e+00,0.000000000000e+00
92,-6.000000000000e-01,1.002545584412e+01,2.000000000000e+00
93,0.000000000000e+00,1.003600000000e+01,2.000000000000e+00
94,6.000000000000e-01,1.002545584412e+01,2.000000000000e+00
95,-1.200000000000e+00,1.002121320344e+01,5.000000000000e-01
96,-1.200000000000e+00,1.003000000000e+01,1.000000000000e+00
97,-1.200000000000e+00,1.002121320344e+01,1.500000000000e+00
98,1.200000000000e+00,9.978786796564e+00,5.000000000000e-01
99,1.200000000000e+00,9.970000000000e+00,1.000000000000e+00
100,1.200000000000e+00,9.978786796564e+00,1.500000000000e+00
101,0.000000000000e+00,1.996400000000e+01,0.000000000000e+00
102,0.000000000000e+00,2.003600000000e+01,2.000000000000e+00
103,-1.200000000000e+00,2.003000000000e+01,1.000000000000e+00
104,1.200000000000e+00,1.997000000000e+01,1.000000000000e+00
105,-6.000000000000e-01,3.997454415588e+01,0.000000000000e+00
106,0.000000000000e+00,3.996400000000e+01,0.000000000000e+00
107,6.000000000000e-01,3.997454415588e+01,0.000000000000e+00
108,-6.000000000000e-01,4.002545584412e+01,2.000000000000e+00
109,0.000000000000e+00,4.003600000000e+01,2.000000000000e+00
110,6.000000000000e-01,4.002545584412e+01,2.000000000000e+00
111,-1.200000000000e+00,4.002121320344e+01,5.000000000000e-01
112,-1.200000000000e+00,4.003000000000e+01,1.000000000000e+00
113,-1.200000000000e+00,4.002121320344e+01,1.500000000000e+00
114,1.200000000000e+00,3.997878679656e+01,5.000000000000e-01
115,1.200000000000e+00,3.997000000000e+01,1.000000000000e+00
116,1.200000000000e+00,3.997878679656e+01,1.500000000000e+00
117,-1.200000000000e+00,1.261480502971e+00,1.925974851452e-01
118,-1.200000000000e+00,2.521213203436e+00,3.939339828220e-01
119,-1.200000000000e+00,3.777716385975e+00,6.114180701233e-01
120,-1.200000000000e+00,5.030000000000e+00,8.500000000000e-01
121,-1.200000000000e+00,6.277716385975e+00,1.111418070123e+00
122,-1.200000000000e+00,7.521213203436e+00,1.393933982822e+00
123,-1.200000000000e+00,8.761480502971e+00,1.692597485145e+00
124,-1.200000000000e+00,1.261480502971e+00,1.807402514855e+00
125,-1.200000000000e+00,2.521213203436e+00,1.606066017178e+00
126,-1.200000000000e+00,3.777716385975e+00,1.388581929877e+00
127,-1.200000000000e+00,5.030000000000e+00,1.150000000000e+00
128,-1.200000000000e+00,6.277716385975e+00,8.885819298767e-01
129,-1.200000000000e+00,7.521213203436e+00,6.060660171780e-01
130,-1.200000000000e+00,8.761480502971e+00,3.074025148548e-01
131,1.200000000000e+00,1.261480502971e+00,1.925974851452e-01
132,1.200000000000e+00,2.521213203436e+00,3.939339828220e-01
133,1.200000000000e+00,3.777716385975e+00,6.114180701233e-01
134,1.200000000000e+00,5.030000000000e+00,8.500000000000e-01
135,1.200000000000e+00,6.277716385975e+00,1.111418070123e+00
136,1.200000000000e+00,7.521213203436e+00,1.393933982822e+00
137,1.200000000000e+00,8.761480502971e+00,1.692597485145e+00
138,1.200000000000e+00,1.261480502971e+00,1.807402514855e+00
139,1.200000000000e+00,2.521213203436e+00,1.606066017178e+00
140,1.200000000000e+00,3.777716385975e+00,1.388581929877e+00
141,1.200000000000e+00,5.030000000000e+00,1.150000000000e+00
142,1.200000000000e+00,6.277716385975e+00,8.885819298767e-01
143,1.200000000000e+00,7.521213203436e+00,6.060660171780e-01
144,1.200000000000e+00,8.761480502971e+00,3.074025148548e-01
145,-8.425974851452e-01,1.236223396435e+00,0.000000000000e+00
146,-4.939339828220e-01,2.474544155877e+00,0.000000000000e+00
147,-1.614180701233e-01,3.716740336830e+00,0.000000000000e+00
148,1.500000000000e-01,4.964000000000e+00,0.000000000000e+00
149,4.385819298767e-01,6.216740336830e+00,0.000000000000e+00
150,7.060660171780e-01,7.474544155877e+00,0.000000000000e+00
151,9.574025148548e-01,8.736223396435e+00,0.000000000000e+00
152,8.425974851452e-01,1.236223396435e+00,0.000000000000e+00
153,4.939339828220e-01,2.474544155877e+00,0.000000000000e+00
154,1.614180701233e-01,3.716740336830e+00,0.000000000000e+00
155,-1.500000000000e-01,4.964000000000e+00,0.000000000000e+00
156,-4.385819298767e-01,6.216740336830e+00,0.000000000000e+00
157,-7.060660171780e-01,7.474544155877e+00,0.000000000000e+00
158,-9.574025148548e-01,8.736223396435e+00,0.000000000000e+00
159,-8.425974851452e-01,1.236223396435e+00,2.000000000000e+00
160,-4.939339828220e-01,2.474544155877e+00,2.000000000000e+00
161,-1.614180701233e-01,3.716740336830e+00,2.000000000000e+00
162,1.500000000000e-01,4.964000000000e+00,2.000000000000e+00
163,4.385819298767e-01,6.216740336830e+00,2.000000000000e+00
164,7.060660171780e-01,7.474544155877e+00,2.000000000000e+00
165,9.574025148548e-01,8.736223396435e+00,2.000000000000e+00
166,8.425974851452e-01,1.236223396435e+00,2.000000000000e+00
167,4.939339828220e-01,2.474544155877e+00,2.000000000000e+00
168,1.614180701233e-01,3.716740336830e+00,2.000000000000e+00
169,-1.500000000000e-01,4.964000000000e+00,2.000000000000e+00
170,-4.385819298767e-01,6.216740336830e+00,2.000000000000e+00
171,-7.060660171780e-01,7.474544155877e+00,2.000000000000e+00
172,-9.574025148548e-01,8.736223396435e+00,2.000000000000e+00
173,-1.200000000000e+00,1.252121320344e+01,3.939339828220e-01
174,-1.200000000000e+00,1.503000000000e+01,8.500000000000e-01
175,-1.200000000000e+00,1.752121320344e+01,1.393933982822e+00
176,-1.200000000000e+00,1.252121320344e+01,1.606066017178e+00
177,-1.200000000000e+00,1.503000000000e+01,1.150000000000e+00
178,-1.200000000000e+00,1.752121320344e+01,6.060660171780e-01
179,1.200000000000e+00,1.252121320344e+01,3.939339828220e-01
180,1.200000000000e+00,1.503000000000e+01,8.500000000000e-01
181,1.200000000000e+00,1.752121320344e+01,1.393933982822e+00
182,1.200000000000e+00,1.252121320344e+01,1.606066017178e+00
183,1.200000000000e+00,1.503000000000e+01,1.150000000000e+00
184,1.200000000000e+00,1.752121320344e+01,6.060660171780e-01
185,-4.939339828220e-01,1.247454415588e+01,0.000000000000e+00
186,1.500000000000e-01,1.496400000000e+01,0.000000000000e+00
187,7.060660171780e-01,1.747454415588e+01,0.000000000000e+00
188,4.939339828220e-01,1.247454415588e+01,0.000000000000e+00
189,-1.500000000000e-01,1.496400000000e+01,0.000000000000e+00
190,-7.060660171780e-01,1.747454415588e+01,0.000000000000e+00
191,-4.939339828220e-01,1.247454415588e+01,2.000000000000e+00
192,1.500000000000e-01,1.496400000000e+01,2.000000000000e+00
193,7.060660171780e-01,1.747454415588e+01,2.000000000000e+00
194,4.939339828220e-01,1.247454415588e+01,2.000000000000e+00
195,-1.500000000000e-01,1.496400000000e+01,2.000000000000e+00
196,-7.060660171780e-01,1.747454415588e+01,2.000000000000e+00
197,-1.200000000000e+00,3.503000000000e+01,8.500000000000e-01
198,-1.200000000000e+00,3.503000000000e+01,1.150000000000e+00
199,1.200000000000e+00,3.503000000000e+01,8.500000000000e-01
200,1.200000000000e+00,3.503000000000e+01,1.150000000000e+00
201,1.500000000000e-01,3.496400000000e+01,0.000000000000e+00
202,-1.500000000000e-01,3.496400000000e+01,0.000000000000e+00
203,1.500000000000e-01,3.496400000000e+01,2.000000000000e+00
204,-1.500000000000e-01,3.496400000000e+01,2.000000000000e+00
205,-1.200000000000e+00,4.503000000000e+01,8.500000000000e-01
206,-1.200000000000e+00,4.503000000000e+01,1.150000000000e+00
207,1.200000000000e+00,4.503000000000e+01,8.500000000000e-01
208,1.200000000000e+00,4.503000000000e+01,1.150000000000e+00
209,1.500000000000e-01,4.496400000000e+01,0.000000000000e+00
210,-1.500000000000e-01,4.496400000000e+01,0.000000000000e+00
211,1.500000000000e-01,4.496400000000e+01,2.000000000000e+00
212,-1.500000000000e-01,4.496400000000e+01,2.000000000000e+00
*ELEMENT,TYPE=B31,ELSET=ALL
1,1,25
2,25,26
3,26,27
4,27,28
5,28,29
6,29,30
7,30,31
8,31,5
9,2,32
10,32,33
11,33,34
12,34,35
13,35,36
14,36,37
15,37,38
16,38,6
17,3,39
18,39,40
19,40,41
20,41,42
21,42,43
22,43,44
23,44,45
24,45,7
25,4,46
26,46,47
27,47,48
28,48,49
29,49,50
30,50,51
31,51,52
32,52,8
33,5,53
34,53,9
35,6,54
36,54,10
37,7,55
38,55,11
39,8,56
40,56,12
41,9,57
42,57,13
43,10,58
44,58,14
45,11,59
46,59,15
47,12,60
48,60,16
49,13,61
50,61,62
51,62,63
52,63,17
53,14,64
54,64,65
55,65,66
56,66,18
57,15,67
58,67,68
59,68,69
60,69,19
61,16,70
62,70,71
63,71,72
64,72,20
65,17,73
66,73,74
67,74,75
68,75,21
69,18,76
70,76,77
71,77,78
72,78,22
73,19,79
74,79,80
75,80,81
76,81,23
77,20,82
78,82,83
79,83,84
80,84,24
81,1,85
82,85,2
83,3,86
84,86,4
85,1,87
86,87,3
87,2,88
88,88,4
89,5,89
90,89,90
91,90,91
92,91,6
93,7,92
94,92,93
95,93,94
96,94,8
97,5,95
98,95,96
99,96,97
100,97,7
101,6,98
102,98,99
103,99,100
104,100,8
105,9,101
106,101,10
107,11,102
108,102,12
109,9,103
110,103,11
111,10,104
112,104,12
113,13,14
114,15,16
115,13,15
116,14,16
117,17,105
118,105,106
119,106,107
120,107,18
121,19,108
122,108,109
123,109,110
124,110,20
125,17,111
126,111,112
127,112,113
128,113,19
129,18,114
130,114,115
131,115,116
132,116,20
133,21,22
134,23,24
135,21,23
136,22,24
137,1,117
138,117,118
139,118,119
140,119,120
141,120,121
142,121,122
143,122,123
144,123,7
145,3,124
146,124,125
147,125,126
148,126,127
149,127,128
150,128,129
151,129,130
152,130,5
153,2,131
154,131,132
155,132,133
156,133,134
157,134,135
158,135,136
159,136,137
160,137,8
161,4,138
162,138,139
163,139,140
164,140,141
165,141,142
166,142,143
167,143,144
168,144,6
169,1,145
170,145,146
171,146,147
172,147,148
173,148,149
174,149,150
175,150,151
176,151,6
177,2,152
178,152,153
179,153,154
180,154,155
181,155,156
182,156,157
183,157,158
184,158,5
185,3,159
186,159,160
187,160,161
188,161,162
189,162,163
190,163,164
191,164,165
192,165,8
193,4,166
194,166,167
195,167,168
196,168,169
197,169,170
198,170,171
199,171,172
200,172,7
201,5,173
202,173,174
203,174,175
204,175,11
205,7,176
206,176,177
207,177,178
208,178,9
209,6,179
210,179,180
211,180,181
212,181,12
213,8,182
214,182,183
215,183,184
216,184,10
217,5,185
218,185,186
219,186,187
220,187,10
221,6,188
222,188,189
223,189,190
224,190,9
225,7,191
226,191,192
227,192,193
228,193,12
229,8,194
230,194,195
231,195,196
232,196,11
233,9,15
234,11,13
235,10,16
236,12,14
237,9,14
238,10,13
239,11,16
240,12,15
241,13,197
242,197,19
243,15,198
244,198,17
245,14,199
246,199,20
247,16,200
248,200,18
249,13,201
250,201,18
251,14,202
252,202,17
253,15,203
254,203,20
255,16,204
256,204,19
257,17,205
258,205,23
259,19,206
260,206,21
261,18,207
262,207,24
263,20,208
264,208,22
265,17,209
266,209,22
267,18,210
268,210,21
269,19,211
270,211,24
271,20,212
272,212,23
*NSET,NSET=NALL,GENERATE
1,212,1
*NSET,NSET=LEFT
1,2,3,4
*NSET,NSET=RIGHT
21,22,23,24
*MATERIAL,NAME=STEEL
*ELASTIC
2.100000000000e+11,0.300000000000
*BEAM SECTION,ELSET=ALL,MATERIAL=STEEL,SECTION=RECT
6.000000000000e-02,4.000000000000e-02
0.371390676354,0.557086014531,0.742781352708
*BOUNDARY
LEFT,1,6,0.0
*STEP
*STATIC
*BOUNDARY
21,1,1,5.000000000000e-03
21,2,2,0.0
21,3,3,-6.000000000000e-03
*BOUNDARY
22,1,1,5.000000000000e-03
22,2,2,0.0
22,3,3,6.000000000000e-03
*BOUNDARY
23,1,1,-5.000000000000e-03
23,2,2,0.0
23,3,3,-6.000000000000e-03
*BOUNDARY
24,1,1,-5.000000000000e-03
24,2,2,0.0
24,3,3,6.000000000000e-03
*NODE FILE,NSET=NALL
U
*NODE PRINT,NSET=NALL
U
*NODE PRINT,NSET=RIGHT
RF
*EL PRINT,ELSET=ALL,TOTALS=YES
ELSE
*END STEP
