*HEADING
Normalized cross-passage space-truss torsion benchmark
*NODE
1,-1.200000000000e+00,0.000000000000e+00,0.000000000000e+00
2,1.200000000000e+00,0.000000000000e+00,0.000000000000e+00
3,-1.200000000000e+00,0.000000000000e+00,2.000000000000e+00
4,1.200000000000e+00,0.000000000000e+00,2.000000000000e+00
5,-1.200000000000e+00,1.000000000000e+01,0.000000000000e+00
6,1.200000000000e+00,1.000000000000e+01,0.000000000000e+00
7,-1.200000000000e+00,1.000000000000e+01,2.000000000000e+00
8,1.200000000000e+00,1.000000000000e+01,2.000000000000e+00
9,-1.200000000000e+00,2.000000000000e+01,0.000000000000e+00
10,1.200000000000e+00,2.000000000000e+01,0.000000000000e+00
11,-1.200000000000e+00,2.000000000000e+01,2.000000000000e+00
12,1.200000000000e+00,2.000000000000e+01,2.000000000000e+00
13,-1.200000000000e+00,3.000000000000e+01,0.000000000000e+00
14,1.200000000000e+00,3.000000000000e+01,0.000000000000e+00
15,-1.200000000000e+00,3.000000000000e+01,2.000000000000e+00
16,1.200000000000e+00,3.000000000000e+01,2.000000000000e+00
17,-1.200000000000e+00,4.000000000000e+01,0.000000000000e+00
18,1.200000000000e+00,4.000000000000e+01,0.000000000000e+00
19,-1.200000000000e+00,4.000000000000e+01,2.000000000000e+00
20,1.200000000000e+00,4.000000000000e+01,2.000000000000e+00
21,-1.200000000000e+00,5.000000000000e+01,0.000000000000e+00
22,1.200000000000e+00,5.000000000000e+01,0.000000000000e+00
23,-1.200000000000e+00,5.000000000000e+01,2.000000000000e+00
24,1.200000000000e+00,5.000000000000e+01,2.000000000000e+00
25,-1.200000000000e+00,2.500000000000e+00,-1.060660171780e-01
26,-1.200000000000e+00,5.000000000000e+00,-1.500000000000e-01
27,-1.200000000000e+00,7.500000000000e+00,-1.060660171780e-01
28,1.200000000000e+00,2.500000000000e+00,1.060660171780e-01
29,1.200000000000e+00,5.000000000000e+00,1.500000000000e-01
30,1.200000000000e+00,7.500000000000e+00,1.060660171780e-01
31,-1.200000000000e+00,2.500000000000e+00,1.893933982822e+00
32,-1.200000000000e+00,5.000000000000e+00,1.850000000000e+00
33,-1.200000000000e+00,7.500000000000e+00,1.893933982822e+00
34,1.200000000000e+00,2.500000000000e+00,2.106066017178e+00
35,1.200000000000e+00,5.000000000000e+00,2.150000000000e+00
36,1.200000000000e+00,7.500000000000e+00,2.106066017178e+00
37,-1.200000000000e+00,1.500000000000e+01,-1.500000000000e-01
38,1.200000000000e+00,1.500000000000e+01,1.500000000000e-01
39,-1.200000000000e+00,1.500000000000e+01,1.850000000000e+00
40,1.200000000000e+00,1.500000000000e+01,2.150000000000e+00
41,-1.200000000000e+00,4.250000000000e+01,-1.060660171780e-01
42,-1.200000000000e+00,4.500000000000e+01,-1.500000000000e-01
43,-1.200000000000e+00,4.750000000000e+01,-1.060660171780e-01
44,1.200000000000e+00,4.250000000000e+01,1.060660171780e-01
45,1.200000000000e+00,4.500000000000e+01,1.500000000000e-01
46,1.200000000000e+00,4.750000000000e+01,1.060660171780e-01
47,-1.200000000000e+00,4.250000000000e+01,1.893933982822e+00
48,-1.200000000000e+00,4.500000000000e+01,1.850000000000e+00
49,-1.200000000000e+00,4.750000000000e+01,1.893933982822e+00
50,1.200000000000e+00,4.250000000000e+01,2.106066017178e+00
51,1.200000000000e+00,4.500000000000e+01,2.150000000000e+00
52,1.200000000000e+00,4.750000000000e+01,2.106066017178e+00
53,-6.000000000000e-01,-2.545584412272e-02,0.000000000000e+00
54,0.000000000000e+00,-3.600000000000e-02,0.000000000000e+00
55,6.000000000000e-01,-2.545584412272e-02,0.000000000000e+00
56,-6.000000000000e-01,2.545584412272e-02,2.000000000000e+00
57,0.000000000000e+00,3.600000000000e-02,2.000000000000e+00
58,6.000000000000e-01,2.545584412272e-02,2.000000000000e+00
59,-1.200000000000e+00,2.121320343560e-02,5.000000000000e-01
60,-1.200000000000e+00,3.000000000000e-02,1.000000000000e+00
61,-1.200000000000e+00,2.121320343560e-02,1.500000000000e+00
62,1.200000000000e+00,-2.121320343560e-02,5.000000000000e-01
63,1.200000000000e+00,-3.000000000000e-02,1.000000000000e+00
64,1.200000000000e+00,-2.121320343560e-02,1.500000000000e+00
65,-6.000000000000e-01,9.974544155877e+00,0.000000000000e+00
66,0.000000000000e+00,9.964000000000e+00,0.000000000000e+00
67,6.000000000000e-01,9.974544155877e+00,0.000000000000e+00
68,-6.000000000000e-01,1.002545584412e+01,2.000000000000e+00
69,0.000000000000e+00,1.003600000000e+01,2.000000000000e+00
70,6.000000000000e-01,1.002545584412e+01,2.000000000000e+00
71,-1.200000000000e+00,1.002121320344e+01,5.000000000000e-01
72,-1.200000000000e+00,1.003000000000e+01,1.000000000000e+00
73,-1.200000000000e+00,1.002121320344e+01,1.500000000000e+00
74,1.200000000000e+00,9.978786796564e+00,5.000000000000e-01
75,1.200000000000e+00,9.970000000000e+00,1.000000000000e+00
76,1.200000000000e+00,9.978786796564e+00,1.500000000000e+00
77,0.000000000000e+00,1.996400000000e+01,0.000000000000e+00
78,0.000000000000e+00,2.003600000000e+01,2.000000000000e+00
79,-1.200000000000e+00,2.003000000000e+01,1.000000000000e+00
80,1.200000000000e+00,1.997000000000e+01,1.000000000000e+00
81,-9.000000000000e-01,2.998622339643e+01,0.000000000000e+00
82,-6.000000000000e-01,2.997454415588e+01,0.000000000000e+00
83,-3.000000000000e-01,2.996674033683e+01,0.000000000000e+00
84,0.000000000000e+00,2.996400000000e+01,0.000000000000e+00
85,3.000000000000e-01,2.996674033683e+01,0.000000000000e+00
86,6.000000000000e-01,2.997454415588e+01,0.000000000000e+00
87,9.000000000000e-01,2.998622339643e+01,0.000000000000e+00
88,-9.000000000000e-01,3.001377660357e+01,2.000000000000e+00
89,-6.000000000000e-01,3.002545584412e+01,2.000000000000e+00
90,-3.000000000000e-01,3.003325966317e+01,2.000000000000e+00
91,0.000000000000e+00,3.003600000000e+01,2.000000000000e+00
92,3.000000000000e-01,3.003325966317e+01,2.000000000000e+00
93,6.000000000000e-01,3.002545584412e+01,2.000000000000e+00
94,9.000000000000e-01,3.001377660357e+01,2.000000000000e+00
95,-1.200000000000e+00,3.001148050297e+01,2.500000000000e-01
96,-1.200000000000e+00,3.002121320344e+01,5.000000000000e-01
97,-1.200000000000e+00,3.002771638598e+01,7.500000000000e-01
98,-1.200000000000e+00,3.003000000000e+01,1.000000000000e+00
99,-1.200000000000e+00,3.002771638598e+01,1.250000000000e+00
100,-1.200000000000e+00,3.002121320344e+01,1.500000000000e+00
101,-1.200000000000e+00,3.001148050297e+01,1.750000000000e+00
102,1.200000000000e+00,2.998851949703e+01,2.500000000000e-01
103,1.200000000000e+00,2.997878679656e+01,5.000000000000e-01
104,1.200000000000e+00,2.997228361402e+01,7.500000000000e-01
105,1.200000000000e+00,2.997000000000e+01,1.000000000000e+00
106,1.200000000000e+00,2.997228361402e+01,1.250000000000e+00
107,1.200000000000e+00,2.997878679656e+01,1.500000000000e+00
108,1.200000000000e+00,2.998851949703e+01,1.750000000000e+00
109,-6.000000000000e-01,3.997454415588e+01,0.000000000000e+00
110,0.000000000000e+00,3.996400000000e+01,0.000000000000e+00
111,6.000000000000e-01,3.997454415588e+01,0.000000000000e+00
112,-6.000000000000e-01,4.002545584412e+01,2.000000000000e+00
113,0.000000000000e+00,4.003600000000e+01,2.000000000000e+00
114,6.000000000000e-01,4.002545584412e+01,2.000000000000e+00
115,-1.200000000000e+00,4.002121320344e+01,5.000000000000e-01
116,-1.200000000000e+00,4.003000000000e+01,1.000000000000e+00
117,-1.200000000000e+00,4.002121320344e+01,1.500000000000e+00
118,1.200000000000e+00,3.997878679656e+01,5.000000000000e-01
119,1.200000000000e+00,3.997000000000e+01,1.000000000000e+00
120,1.200000000000e+00,3.997878679656e+01,1.500000000000e+00
121,-9.000000000000e-01,4.998622339643e+01,0.000000000000e+00
122,-6.000000000000e-01,4.997454415588e+01,0.000000000000e+00
123,-3.000000000000e-01,4.996674033683e+01,0.000000000000e+00
124,0.000000000000e+00,4.996400000000e+01,0.000000000000e+00
125,3.000000000000e-01,4.996674033683e+01,0.000000000000e+00
126,6.000000000000e-01,4.997454415588e+01,0.000000000000e+00
127,9.000000000000e-01,4.998622339643e+01,0.000000000000e+00
128,-9.000000000000e-01,5.001377660357e+01,2.000000000000e+00
129,-6.000000000000e-01,5.002545584412e+01,2.000000000000e+00
130,-3.000000000000e-01,5.003325966317e+01,2.000000000000e+00
131,0.000000000000e+00,5.003600000000e+01,2.000000000000e+00
132,3.000000000000e-01,5.003325966317e+01,2.000000000000e+00
133,6.000000000000e-01,5.002545584412e+01,2.000000000000e+00
134,9.000000000000e-01,5.001377660357e+01,2.000000000000e+00
135,-1.200000000000e+00,5.001148050297e+01,2.500000000000e-01
136,-1.200000000000e+00,5.002121320344e+01,5.000000000000e-01
137,-1.200000000000e+00,5.002771638598e+01,7.500000000000e-01
138,-1.200000000000e+00,5.003000000000e+01,1.000000000000e+00
139,-1.200000000000e+00,5.002771638598e+01,1.250000000000e+00
140,-1.200000000000e+00,5.002121320344e+01,1.500000000000e+00
141,-1.200000000000e+00,5.001148050297e+01,1.750000000000e+00
142,1.200000000000e+00,4.998851949703e+01,2.500000000000e-01
143,1.200000000000e+00,4.997878679656e+01,5.000000000000e-01
144,1.200000000000e+00,4.997228361402e+01,7.500000000000e-01
145,1.200000000000e+00,4.997000000000e+01,1.000000000000e+00
146,1.200000000000e+00,4.997228361402e+01,1.250000000000e+00
147,1.200000000000e+00,4.997878679656e+01,1.500000000000e+00
148,1.200000000000e+00,4.998851949703e+01,1.750000000000e+00
149,-1.200000000000e+00,2.521213203436e+00,3.939339828220e-01
150,-1.200000000000e+00,5.030000000000e+00,8.500000000000e-01
151,-1.200000000000e+00,7.521213203436e+00,1.393933982822e+00
152,-1.200000000000e+00,2.521213203436e+00,1.606066017178e+00
153,-1.200000000000e+00,5.030000000000e+00,1.150000000000e+00
154,-1.200000000000e+00,7.521213203436e+00,6.060660171780e-01
155,1.200000000000e+00,2.521213203436e+00,3.939339828220e-01
156,1.200000000000e+00,5.030000000000e+00,8.500000000000e-01
157,1.200000000000e+00,7.521213203436e+00,1.393933982822e+00
158,1.200000000000e+00,2.521213203436e+00,1.606066017178e+00
159,1.200000000000e+00,5.030000000000e+00,1.150000000000e+00
160,1.200000000000e+00,7.521213203436e+00,6.060660171780e-01
161,-4.939339828220e-01,2.474544155877e+00,0.000000000000e+00
162,1.500000000000e-01,4.964000000000e+00,0.000000000000e+00
163,7.060660171780e-01,7.474544155877e+00,0.000000000000e+00
164,4.939339828220e-01,2.474544155877e+00,0.000000000000e+00
165,-1.500000000000e-01,4.964000000000e+00,0.000000000000e+00
166,-7.060660171780e-01,7.474544155877e+00,0.000000000000e+00
167,-4.939339828220e-01,2.474544155877e+00,2.000000000000e+00
168,1.500000000000e-01,4.964000000000e+00,2.000000000000e+00
169,7.060660171780e-01,7.474544155877e+00,2.000000000000e+00
170,4.939339828220e-01,2.474544155877e+00,2.000000000000e+00
171,-1.500000000000e-01,4.964000000000e+00,2.000000000000e+00
172,-7.060660171780e-01,7.474544155877e+00,2.000000000000e+00
173,-1.200000000000e+00,1.503000000000e+01,8.500000000000e-01
174,-1.200000000000e+00,1.503000000000e+01,1.150000000000e+00
175,1.200000000000e+00,1.503000000000e+01,8.500000000000e-01
176,1.200000000000e+00,1.503000000000e+01,1.150000000000e+00
177,1.500000000000e-01,1.496400000000e+01,0.000000000000e+00
178,-1.500000000000e-01,1.496400000000e+01,0.000000000000e+00
179,1.500000000000e-01,1.496400000000e+01,2.000000000000e+00
180,-1.500000000000e-01,1.496400000000e+01,2.000000000000e+00
181,-1.200000000000e+00,2.503000000000e+01,8.500000000000e-01
182,-1.200000000000e+00,2.503000000000e+01,1.150000000000e+00
183,1.200000000000e+00,2.503000000000e+01,8.500000000000e-01
184,1.200000000000e+00,2.503000000000e+01,1.150000000000e+00
185,1.500000000000e-01,2.496400000000e+01,0.000000000000e+00
186,-1.500000000000e-01,2.496400000000e+01,0.000000000000e+00
187,1.500000000000e-01,2.496400000000e+01,2.000000000000e+00
188,-1.500000000000e-01,2.496400000000e+01,2.000000000000e+00
189,-1.200000000000e+00,3.252121320344e+01,3.939339828220e-01
190,-1.200000000000e+00,3.503000000000e+01,8.500000000000e-01
191,-1.200000000000e+00,3.752121320344e+01,1.393933982822e+00
192,-1.200000000000e+00,3.252121320344e+01,1.606066017178e+00
193,-1.200000000000e+00,3.503000000000e+01,1.150000000000e+00
194,-1.200000000000e+00,3.752121320344e+01,6.060660171780e-01
195,1.200000000000e+00,3.252121320344e+01,3.939339828220e-01
196,1.200000000000e+00,3.503000000000e+01,8.500000000000e-01
197,1.200000000000e+00,3.752121320344e+01,1.393933982822e+00
198,1.200000000000e+00,3.252121320344e+01,1.606066017178e+00
199,1.200000000000e+00,3.503000000000e+01,1.150000000000e+00
200,1.200000000000e+00,3.752121320344e+01,6.060660171780e-01
201,-4.939339828220e-01,3.247454415588e+01,0.000000000000e+00
202,1.500000000000e-01,3.496400000000e+01,0.000000000000e+00
203,7.060660171780e-01,3.747454415588e+01,0.000000000000e+00
204,4.939339828220e-01,3.247454415588e+01,0.000000000000e+00
205,-1.500000000000e-01,3.496400000000e+01,0.000000000000e+00
206,-7.060660171780e-01,3.747454415588e+01,0.000000000000e+00
207,-4.939339828220e-01,3.247454415588e+01,2.000000000000e+00
208,1.500000000000e-01,3.496400000000e+01,2.000000000000e+00
209,7.060660171780e-01,3.747454415588e+01,2.000000000000e+00
210,4.939339828220e-01,3.247454415588e+01,2.000000000000e+00
211,-1.500000000000e-01,3.496400000000e+01,2.000000000000e+00
212,-7.060660171780e-01,3.747454415588e+01,2.000000000000e+00
*ELEMENT,TYPE=B31,ELSET=ALL
1,1,25
2,25,26
3,26,27
4,27,5
5,2,28
6,28,29
7,29,30
8,30,6
9,3,31
10,31,32
11,32,33
12,33,7
13,4,34
14,34,35
15,35,36
16,36,8
17,5,37
18,37,9
19,6,38
20,38,10
21,7,39
22,39,11
23,8,40
24,40,12
25,9,13
26,10,14
27,11,15
28,12,16
29,13,17
30,14,18
31,15,19
32,16,20
33,17,41
34,41,42
35,42,43
36,43,21
37,18,44
38,44,45
39,45,46
40,46,22
41,19,47
42,47,48
43,48,49
44,49,23
45,20,50
46,50,51
47,51,52
48,52,24
49,1,53
50,53,54
51,54,55
52,55,2
53,3,56
54,56,57
55,57,58
56,58,4
57,1,59
58,59,60
59,60,61
60,61,3
61,2,62
62,62,63
63,63,64
64,64,4
65,5,65
66,65,66
67,66,67
68,67,6
69,7,68
70,68,69
71,69,70
72,70,8
73,5,71
74,71,72
75,72,73
76,73,7
77,6,74
78,74,75
79,75,76
80,76,8
81,9,77
82,77,10
83,11,78
84,78,12
85,9,79
86,79,11
87,10,80
88,80,12
89,13,81
90,81,82
91,82,83
92,83,84
93,84,85
94,85,86
95,86,87
96,87,14
97,15,88
98,88,89
99,89,90
100,90,91
101,91,92
102,92,93
103,93,94
104,94,16
105,13,95
106,95,96
107,96,97
108,97,98
109,98,99
110,99,100
111,100,101
112,101,15
113,14,102
114,102,103
115,103,104
116,104,105
117,105,106
118,106,107
119,107,108
120,108,16
121,17,109
122,109,110
123,110,111
124,111,18
125,19,112
126,112,113
127,113,114
128,114,20
129,17,115
130,115,116
131,116,117
132,117,19
133,18,118
134,118,119
135,119,120
136,120,20
137,21,121
138,121,122
139,122,123
140,123,124
141,124,125
142,125,126
143,126,127
144,127,22
145,23,128
146,128,129
147,129,130
148,130,131
149,131,132
150,132,133
151,133,134
152,134,24
153,21,135
154,135,136
155,136,137
156,137,138
157,138,139
158,139,140
159,140,141
160,141,23
161,22,142
162,142,143
163,143,144
164,144,145
165,145,146
166,146,147
167,147,148
168,148,24
169,1,149
170,149,150
171,150,151
172,151,7
173,3,152
174,152,153
175,153,154
176,154,5
177,2,155
178,155,156
179,156,157
180,157,8
181,4,158
182,158,159
183,159,160
184,160,6
185,1,161
186,161,162
187,162,163
188,163,6
189,2,164
190,164,165
191,165,166
192,166,5
193,3,167
194,167,168
195,168,169
196,169,8
197,4,170
198,170,171
199,171,172
200,172,7
201,5,173
202,173,11
203,7,174
204,174,9
205,6,175
206,175,12
207,8,176
208,176,10
209,5,177
210,177,10
211,6,178
212,178,9
213,7,179
214,179,12
215,8,180
216,180,11
217,9,181
218,181,15
219,11,182
220,182,13
221,10,183
222,183,16
223,12,184
224,184,14
225,9,185
226,185,14
227,10,186
228,186,13
229,11,187
230,187,16
231,12,188
232,188,15
233,13,189
234,189,190
235,190,191
236,191,19
237,15,192
238,192,193
239,193,194
240,194,17
241,14,195
242,195,196
243,196,197
244,197,20
245,16,198
246,198,199
247,199,200
248,200,18
249,13,201
250,201,202
251,202,203
252,203,18
253,14,204
254,204,205
255,205,206
256,206,17
257,15,207
258,207,208
259,208,209
260,209,20
261,16,210
262,210,211
263,211,212
264,212,19
265,17,23
266,19,21
267,18,24
268,20,22
269,17,22
270,18,21
271,19,24
272,20,23
*NSET,NSET=NALL,GENERATE
1,212,1
*NSET,NSET=LEFT
1,2,3,4
*NSET,NSET=RIGHT
21,22,23,24
*MATERIAL,NAME=STEEL
*ELASTIC
2.100000000000e+11,0.300000000000
*BEAM SECTION,ELSET=ALL,MATERIAL=STEEL,SECTION=RECT
6.000000000000e-02,4.000000000000e-02
0.371390676354,0.557086014531,0.742781352708
*BOUNDARY
LEFT,1,6,0.0
*STEP
*STATIC
*BOUNDARY
21,1,1,5.000000000000e-03
21,2,2,0.0
21,3,3,-6.000000000000e-03
*BOUNDARY
22,1,1,5.000000000000e-03
22,2,2,0.0
22,3,3,6.000000000000e-03
*BOUNDARY
23,1,1,-5.000000000000e-03
23,2,2,0.0
23,3,3,-6.000000000000e-03
*BOUNDARY
24,1,1,-5.000000000000e-03
24,2,2,0.0
24,3,3,6.000000000000e-03
*NODE FILE,NSET=NALL
U
*NODE PRINT,NSET=NALL
U
*NODE PRINT,NSET=RIGHT
RF
*EL PRINT,ELSET=ALL,TOTALS=YES
ELSE
*END STEP
