*HEADING
Normalized cross-passage space-truss torsion benchmark
*NODE
1,-1.200000000000e+00,0.000000000000e+00,0.000000000000e+00
2,1.200000000000e+00,0.000000000000e+00,0.000000000000e+00
3,-1.200000000000e+00,0.000000000000e+00,2.000000000000e+00
4,1.200000000000e+00,0.000000000000e+00,2.000000000000e+00
5,-1.200000000000e+00,1.000000000000e+01,0.000000000000e+00
6,1.200000000000e+00,1.000000000000e+01,0.000000000000e+00
7,-1.200000000000e+00,1.000000000000e+01,2.000000000000e+00
8,1.200000000000e+00,1.000000000000e+01,2.000000000000e+00
9,-1.200000000000e+00,2.000000000000e+01,0.000000000000e+00
10,1.200000000000e+00,2.000000000000e+01,0.000000000000e+00
11,-1.200000000000e+00,2.000000000000e+01,2.000000000000e+00
12,1.200000000000e+00,2.000000000000e+01,2.000000000000e+00
13,-1.200000000000e+00,3.000000000000e+01,0.000000000000e+00
14,1.200000000000e+00,3.000000000000e+01,0.000000000000e+00
15,-1.200000000000e+00,3.000000000000e+01,2.000000000000e+00
16,1.200000000000e+00,3.000000000000e+01,2.000000000000e+00
17,-1.200000000000e+00,4.000000000000e+01,0.000000000000e+00
18,1.200000000000e+00,4.000000000000e+01,0.000000000000e+00
19,-1.200000000000e+00,4.000000000000e+01,2.000000000000e+00
20,1.200000000000e+00,4.000000000000e+01,2.000000000000e+00
21,-1.200000000000e+00,5.000000000000e+01,0.000000000000e+00
22,1.200000000000e+00,5.000000000000e+01,0.000000000000e+00
23,-1.200000000000e+00,5.000000000000e+01,2.000000000000e+00
24,1.200000000000e+00,5.000000000000e+01,2.000000000000e+00
25,-1.200000000000e+00,5.000000000000e+00,-1.500000000000e-01
26,1.200000000000e+00,5.000000000000e+00,1.500000000000e-01
27,-1.200000000000e+00,5.000000000000e+00,1.850000000000e+00
28,1.200000000000e+00,5.000000000000e+00,2.150000000000e+00
29,-1.200000000000e+00,1.500000000000e+01,-1.500000000000e-01
30,1.200000000000e+00,1.500000000000e+01,1.500000000000e-01
31,-1.200000000000e+00,1.500000000000e+01,1.850000000000e+00
32,1.200000000000e+00,1.500000000000e+01,2.150000000000e+00
33,-1.200000000000e+00,2.500000000000e+01,-1.500000000000e-01
34,1.200000000000e+00,2.500000000000e+01,1.500000000000e-01
35,-1.200000000000e+00,2.500000000000e+01,1.850000000000e+00
36,1.200000000000e+00,2.500000000000e+01,2.150000000000e+00
37,-1.200000000000e+00,3.500000000000e+01,-1.500000000000e-01
38,1.200000000000e+00,3.500000000000e+01,1.500000000000e-01
39,-1.200000000000e+00,3.500000000000e+01,1.850000000000e+00
40,1.200000000000e+00,3.500000000000e+01,2.150000000000e+00
41,-1.200000000000e+00,4.500000000000e+01,-1.500000000000e-01
42,1.200000000000e+00,4.500000000000e+01,1.500000000000e-01
43,-1.200000000000e+00,4.500000000000e+01,1.850000000000e+00
44,1.200000000000e+00,4.500000000000e+01,2.150000000000e+00
45,0.000000000000e+00,-3.600000000000e-02,0.000000000000e+00
46,0.000000000000e+00,3.600000000000e-02,2.000000000000e+00
47,-1.200000000000e+00,3.000000000000e-02,1.000000000000e+00
48,1.200000000000e+00,-3.000000000000e-02,1.000000000000e+00
49,0.000000000000e+00,9.964000000000e+00,0.000000000000e+00
50,0.000000000000e+00,1.003600000000e+01,2.000000000000e+00
51,-1.200000000000e+00,1.003000000000e+01,1.000000000000e+00
52,1.200000000000e+00,9.970000000000e+00,1.000000000000e+00
53,-9.000000000000e-01,1.998622339643e+01,0.000000000000e+00
54,-6.000000000000e-01,1.997454415588e+01,0.000000000000e+00
55,-3.000000000000e-01,1.996674033683e+01,0.000000000000e+00
56,0.000000000000e+00,1.996400000000e+01,0.000000000000e+00
57,3.000000000000e-01,1.996674033683e+01,0.000000000000e+00
58,6.000000000000e-01,1.997454415588e+01,0.000000000000e+00
59,9.000000000000e-01,1.998622339643e+01,0.000000000000e+00
60,-9.000000000000e-01,2.001377660357e+01,2.000000000000e+00
61,-6.000000000000e-01,2.002545584412e+01,2.000000000000e+00
62,-3.000000000000e-01,2.003325966317e+01,2.000000000000e+00
63,0.000000000000e+00,2.003600000000e+01,2.000000000000e+00
64,3.000000000000e-01,2.003325966317e+01,2.000000000000e+00
65,6.000000000000e-01,2.002545584412e+01,2.000000000000e+00
66,9.000000000000e-01,2.001377660357e+01,2.000000000000e+00
67,-1.200000000000e+00,2.001148050297e+01,2.500000000000e-01
68,-1.200000000000e+00,2.002121320344e+01,5.000000000000e-01
69,-1.200000000000e+00,2.002771638598e+01,7.500000000000e-01
70,-1.200000000000e+00,2.003000000000e+01,1.000000000000e+00
71,-1.200000000000e+00,2.002771638598e+01,1.250000000000e+00
72,-1.200000000000e+00,2.002121320344e+01,1.500000000000e+00
73,-1.200000000000e+00,2.001148050297e+01,1.750000000000e+00
74,1.200000000000e+00,1.998851949703e+01,2.500000000000e-01
75,1.200000000000e+00,1.997878679656e+01,5.000000000000e-01
76,1.200000000000e+00,1.997228361402e+01,7.500000000000e-01
77,1.200000000000e+00,1.997000000000e+01,1.000000000000e+00
78,1.200000000000e+00,1.997228361402e+01,1.250000000000e+00
79,1.200000000000e+00,1.997878679656e+01,1.500000000000e+00
80,1.200000000000e+00,1.998851949703e+01,1.750000000000e+00
81,0.000000000000e+00,2.996400000000e+01,0.000000000000e+00
82,0.000000000000e+00,3.003600000000e+01,2.000000000000e+00
83,-1.200000000000e+00,3.003000000000e+01,1.000000000000e+00
84,1.200000000000e+00,2.997000000000e+01,1.000000000000e+00
85,-9.000000000000e-01,3.998622339643e+01,0.000000000000e+00
86,-6.000000000000e-01,3.997454415588e+01,0.000000000000e+00
87,-3.000000000000e-01,3.996674033683e+01,0.000000000000e+00
88,0.000000000000e+00,3.996400000000e+01,0.000000000000e+00
89,3.000000000000e-01,3.996674033683e+01,0.000000000000e+00
90,6.000000000000e-01,3.997454415588e+01,0.000000000000e+00
91,9.000000000000e-01,3.998622339643e+01,0.000000000000e+00
92,-9.000000000000e-01,4.001377660357e+01,2.000000000000e+00
93,-6.000000000000e-01,4.002545584412e+01,2.000000000000e+00
94,-3.000000000000e-01,4.003325966317e+01,2.000000000000e+00
95,0.000000000000e+00,4.003600000000e+01,2.000000000000e+00
96,3.000000000000e-01,4.003325966317e+01,2.000000000000e+00
97,6.000000000000e-01,4.002545584412e+01,2.000000000000e+00
98,9.000000000000e-01,4.001377660357e+01,2.000000000000e+00
99,-1.200000000000e+00,4.001148050297e+01,2.500000000000e-01
100,-1.200000000000e+00,4.002121320344e+01,5.000000000000e-01
101,-1.200000000000e+00,4.002771638598e+01,7.500000000000e-01
102,-1.200000000000e+00,4.003000000000e+01,1.000000000000e+00
103,-1.200000000000e+00,4.002771638598e+01,1.250000000000e+00
104,-1.200000000000e+00,4.002121320344e+01,1.500000000000e+00
105,-1.200000000000e+00,4.001148050297e+01,1.750000000000e+00
106,1.200000000000e+00,3.998851949703e+01,2.500000000000e-01
107,1.200000000000e+00,3.997878679656e+01,5.000000000000e-01
108,1.200000000000e+00,3.997228361402e+01,7.500000000000e-01
109,1.200000000000e+00,3.997000000000e+01,1.000000000000e+00
110,1.200000000000e+00,3.997228361402e+01,1.250000000000e+00
111,1.200000000000e+00,3.997878679656e+01,1.500000000000e+00
112,1.200000000000e+00,3.998851949703e+01,1.750000000000e+00
113,0.000000000000e+00,4.996400000000e+01,0.000000000000e+00
114,0.000000000000e+00,5.003600000000e+01,2.000000000000e+00
115,-1.200000000000e+00,5.003000000000e+01,1.000000000000e+00
116,1.200000000000e+00,4.997000000000e+01,1.000000000000e+00
117,-1.200000000000e+00,5.030000000000e+00,8.500000000000e-01
118,-1.200000000000e+00,5.030000000000e+00,1.150000000000e+00
119,1.200000000000e+00,5.030000000000e+00,8.500000000000e-01
120,1.200000000000e+00,5.030000000000e+00,1.150000000000e+00
121,1.500000000000e-01,4.964000000000e+00,0.000000000000e+00
122,-1.500000000000e-01,4.964000000000e+00,0.000000000000e+00
123,1.500000000000e-01,4.964000000000e+00,2.000000000000e+00
124,-1.500000000000e-01,4.964000000000e+00,2.000000000000e+00
125,-1.200000000000e+00,1.503000000000e+01,8.500000000000e-01
126,-1.200000000000e+00,1.503000000000e+01,1.150000000000e+00
127,1.200000000000e+00,1.503000000000e+01,8.500000000000e-01
128,1.200000000000e+00,1.503000000000e+01,1.150000000000e+00
129,1.500000000000e-01,1.496400000000e+01,0.000000000000e+00
130,-1.500000000000e-01,1.496400000000e+01,0.000000000000e+00
131,1.500000000000e-01,1.496400000000e+01,2.000000000000e+00
132,-1.500000000000e-01,1.496400000000e+01,2.000000000000e+00
133,-1.200000000000e+00,2.252121320344e+01,3.939339828220e-01
134,-1.200000000000e+00,2.503000000000e+01,8.500000000000e-01
135,-1.200000000000e+00,2.752121320344e+01,1.393933982822e+00
136,-1.200000000000e+00,2.252121320344e+01,1.606066017178e+00
137,-1.200000000000e+00,2.503000000000e+01,1.150000000000e+00
138,-1.200000000000e+00,2.752121320344e+01,6.060660171780e-01
139,1.200000000000e+00,2.252121320344e+01,3.939339828220e-01
140,1.200000000000e+00,2.503000000000e+01,8.500000000000e-01
141,1.200000000000e+00,2.752121320344e+01,1.393933982822e+00
142,1.200000000000e+00,2.252121320344e+01,1.606066017178e+00
143,1.200000000000e+00,2.503000000000e+01,1.150000000000e+00
144,1.200000000000e+00,2.752121320344e+01,6.060660171780e-01
145,-4.939339828220e-01,2.247454415588e+01,0.000000000000e+00
146,1.500000000000e-01,2.496400000000e+01,0.000000000000e+00
147,7.060660171780e-01,2.747454415588e+01,0.000000000000e+00
148,4.939339828220e-01,2.247454415588e+01,0.000000000000e+00
149,-1.500000000000e-01,2.496400000000e+01,0.000000000000e+00
150,-7.060660171780e-01,2.747454415588e+01,0.000000000000e+00
151,-4.939339828220e-01,2.247454415588e+01,2.000000000000e+00
152,1.500000000000e-01,2.496400000000e+01,2.000000000000e+00
153,7.060660171780e-01,2.747454415588e+01,2.000000000000e+00
154,4.939339828220e-01,2.247454415588e+01,2.000000000000e+00
155,-1.500000000000e-01,2.496400000000e+01,2.000000000000e+00
156,-7.060660171780e-01,2.747454415588e+01,2.000000000000e+00
157,-1.200000000000e+00,3.252121320344e+01,3.939339828220e-01
158,-1.200000000000e+00,3.503000000000e+01,8.500000000000e-01
159,-1.200000000000e+00,3.752121320344e+01,1.393933982822e+00
160,-1.200000000000e+00,3.252121320344e+01,1.606066017178e+00
161,-1.200000000000e+00,3.503000000000e+01,1.150000000000e+00
162,-1.200000000000e+00,3.752121320344e+01,6.060660171780e-01
163,1.200000000000e+00,3.252121320344e+01,3.939339828220e-01
164,1.200000000000e+00,3.503000000000e+01,8.500000000000e-01
165,1.200000000000e+00,3.752121320344e+01,1.393933982822e+00
166,1.200000000000e+00,3.252121320344e+01,1.606066017178e+00
167,1.200000000000e+00,3.503000000000e+01,1.150000000000e+00
168,1.200000000000e+00,3.752121320344e+01,6.060660171780e-01
169,-4.939339828220e-01,3.247454415588e+01,0.000000000000e+00
170,1.500000000000e-01,3.496400000000e+01,0.000000000000e+00
171,7.060660171780e-01,3.747454415588e+01,0.000000000000e+00
172,4.939339828220e-01,3.247454415588e+01,0.000000000000e+00
173,-1.500000000000e-01,3.496400000000e+01,0.000000000000e+00
174,-7.060660171780e-01,3.747454415588e+01,0.000000000000e+00
175,-4.939339828220e-01,3.247454415588e+01,2.000000000000e+00
176,1.500000000000e-01,3.496400000000e+01,2.000000000000e+00
177,7.060660171780e-01,3.747454415588e+01,2.000000000000e+00
178,4.939339828220e-01,3.247454415588e+01,2.000000000000e+00
179,-1.500000000000e-01,3.496400000000e+01,2.000000000000e+00
180,-7.060660171780e-01,3.747454415588e+01,2.000000000000e+00
181,-1.200000000000e+00,4.503000000000e+01,8.500000000000e-01
182,-1.200000000000e+00,4.503000000000e+01,1.150000000000e+00
183,1.200000000000e+00,4.503000000000e+01,8.500000000000e-01
184,1.200000000000e+00,4.503000000000e+01,1.150000000000e+00
185,1.500000000000e-01,4.496400000000e+01,0.000000000000e+00
186,-1.500000000000e-01,4.496400000000e+01,0.000000000000e+00
187,1.500000000000e-01,4.496400000000e+01,2.000000000000e+00
188,-1.500000000000e-01,4.496400000000e+01,2.000000000000e+00
*ELEMENT,TYPE=B31,ELSET=ALL
1,1,25
2,25,5
3,2,26
4,26,6
5,3,27
6,27,7
7,4,28
8,28,8
9,5,29
10,29,9
11,6,30
12,30,10
13,7,31
14,31,11
15,8,32
16,32,12
17,9,33
18,33,13
19,10,34
20,34,14
21,11,35
22,35,15
23,12,36
24,36,16
25,13,37
26,37,17
27,14,38
28,38,18
29,15,39
30,39,19
31,16,40
32,40,20
33,17,41
34,41,21
35,18,42
36,42,22
37,19,43
38,43,23
39,20,44
40,44,24
41,1,45
42,45,2
43,3,46
44,46,4
45,1,47
46,47,3
47,2,48
48,48,4
49,5,49
50,49,6
51,7,50
52,50,8
53,5,51
54,51,7
55,6,52
56,52,8
57,9,53
58,53,54
59,54,55
60,55,56
61,56,57
62,57,58
63,58,59
64,59,10
65,11,60
66,60,61
67,61,62
68,62,63
69,63,64
70,64,65
71,65,66
72,66,12
73,9,67
74,67,68
75,68,69
76,69,70
77,70,71
78,71,72
79,72,73
80,73,11
81,10,74
82,74,75
83,75,76
84,76,77
85,77,78
86,78,79
87,79,80
88,80,12
89,13,81
90,81,14
91,15,82
92,82,16
93,13,83
94,83,15
95,14,84
96,84,16
97,17,85
98,85,86
99,86,87
100,87,88
101,88,89
102,89,90
103,90,91
104,91,18
105,19,92
106,92,93
107,93,94
108,94,95
109,95,96
110,96,97
111,97,98
112,98,20
113,17,99
114,99,100
115,100,101
116,101,102
117,102,103
118,103,104
119,104,105
120,105,19
121,18,106
122,106,107
123,107,108
124,108,109
125,109,110
126,110,111
127,111,112
128,112,20
129,21,113
130,113,22
131,23,114
132,114,24
133,21,115
134,115,23
135,22,116
136,116,24
137,1,117
138,117,7
139,3,118
140,118,5
141,2,119
142,119,8
143,4,120
144,120,6
145,1,121
146,121,6
147,2,122
148,122,5
149,3,123
150,123,8
151,4,124
152,124,7
153,5,125
154,125,11
155,7,126
156,126,9
157,6,127
158,127,12
159,8,128
160,128,10
161,5,129
162,129,10
163,6,130
164,130,9
165,7,131
166,131,12
167,8,132
168,132,11
169,9,133
170,133,134
171,134,135
172,135,15
173,11,136
174,136,137
175,137,138
176,138,13
177,10,139
178,139,140
179,140,141
180,141,16
181,12,142
182,142,143
183,143,144
184,144,14
185,9,145
186,145,146
187,146,147
188,147,14
189,10,148
190,148,149
191,149,150
192,150,13
193,11,151
194,151,152
195,152,153
196,153,16
197,12,154
198,154,155
199,155,156
200,156,15
201,13,157
202,157,158
203,158,159
204,159,19
205,15,160
206,160,161
207,161,162
208,162,17
209,14,163
210,163,164
211,164,165
212,165,20
213,16,166
214,166,167
215,167,168
216,168,18
217,13,169
218,169,170
219,170,171
220,171,18
221,14,172
222,172,173
223,173,174
224,174,17
225,15,175
226,175,176
227,176,177
228,177,20
229,16,178
230,178,179
231,179,180
232,180,19
233,17,181
234,181,23
235,19,182
236,182,21
237,18,183
238,183,24
239,20,184
240,184,22
241,17,185
242,185,22
243,18,186
244,186,21
245,19,187
246,187,24
247,20,188
248,188,23
*NSET,NSET=NALL,GENERATE
1,188,1
*NSET,NSET=LEFT
1,2,3,4
*NSET,NSET=RIGHT
21,22,23,24
*MATERIAL,NAME=STEEL
*ELASTIC
2.100000000000e+11,0.300000000000
*BEAM SECTION,ELSET=ALL,MATERIAL=STEEL,SECTION=RECT
6.000000000000e-02,4.000000000000e-02
0.371390676354,0.557086014531,0.742781352708
*BOUNDARY
LEFT,1,6,0.0
*STEP
*STATIC
*BOUNDARY
21,1,1,5.000000000000e-03
21,2,2,0.0
21,3,3,-6.000000000000e-03
*BOUNDARY
22,1,1,5.000000000000e-03
22,2,2,0.0
22,3,3,6.000000000000e-03
*BOUNDARY
23,1,1,-5.000000000000e-03
23,2,2,0.0
23,3,3,-6.000000000000e-03
*BOUNDARY
24,1,1,-5.000000000000e-03
24,2,2,0.0
24,3,3,6.000000000000e-03
*NODE FILE,NSET=NALL
U
*NODE PRINT,NSET=NALL
U
*NODE PRINT,NSET=RIGHT
RF
*EL PRINT,ELSET=ALL,TOTALS=YES
ELSE
*END STEP
