*HEADING
Normalized cross-passage space-truss torsion benchmark
*NODE
1,-1.200000000000e+00,0.000000000000e+00,0.000000000000e+00
2,1.200000000000e+00,0.000000000000e+00,0.000000000000e+00
3,-1.200000000000e+00,0.000000000000e+00,2.000000000000e+00
4,1.200000000000e+00,0.000000000000e+00,2.000000000000e+00
5,-1.200000000000e+00,1.000000000000e+01,0.000000000000e+00
6,1.200000000000e+00,1.000000000000e+01,0.000000000000e+00
7,-1.200000000000e+00,1.000000000000e+01,2.000000000000e+00
8,1.200000000000e+00,1.000000000000e+01,2.000000000000e+00
9,-1.200000000000e+00,2.000000000000e+01,0.000000000000e+00
10,1.200000000000e+00,2.000000000000e+01,0.000000000000e+00
11,-1.200000000000e+00,2.000000000000e+01,2.000000000000e+00
12,1.200000000000e+00,2.000000000000e+01,2.000000000000e+00
13,-1.200000000000e+00,3.000000000000e+01,0.000000000000e+00
14,1.200000000000e+00,3.000000000000e+01,0.000000000000e+00
15,-1.200000000000e+00,3.000000000000e+01,2.000000000000e+00
16,1.200000000000e+00,3.000000000000e+01,2.000000000000e+00
17,-1.200000000000e+00,4.000000000000e+01,0.000000000000e+00
18,1.200000000000e+00,4.000000000000e+01,0.000000000000e+00
19,-1.200000000000e+00,4.000000000000e+01,2.000000000000e+00
20,1.200000000000e+00,4.000000000000e+01,2.000000000000e+00
21,-1.200000000000e+00,5.000000000000e+01,0.000000000000e+00
22,1.200000000000e+00,5.000000000000e+01,0.000000000000e+00
23,-1.200000000000e+00,5.000000000000e+01,2.000000000000e+00
24,1.200000000000e+00,5.000000000000e+01,2.000000000000e+00
25,-1.200000000000e+00,5.000000000000e+00,-1.500000000000e-01
26,1.200000000000e+00,5.000000000000e+00,1.500000000000e-01
27,-1.200000000000e+00,5.000000000000e+00,1.850000000000e+00
28,1.200000000000e+00,5.000000000000e+00,2.150000000000e+00
29,-1.200000000000e+00,1.500000000000e+01,-1.500000000000e-01
30,1.200000000000e+00,1.500000000000e+01,1.500000000000e-01
31,-1.200000000000e+00,1.500000000000e+01,1.850000000000e+00
32,1.200000000000e+00,1.500000000000e+01,2.150000000000e+00
33,-1.200000000000e+00,2.500000000000e+01,-1.500000000000e-01
34,1.200000000000e+00,2.500000000000e+01,1.500000000000e-01
35,-1.200000000000e+00,2.500000000000e+01,1.850000000000e+00
36,1.200000000000e+00,2.500000000000e+01,2.150000000000e+00
37,-1.200000000000e+00,3.500000000000e+01,-1.500000000000e-01
38,1.200000000000e+00,3.500000000000e+01,1.500000000000e-01
39,-1.200000000000e+00,3.500000000000e+01,1.850000000000e+00
40,1.200000000000e+00,3.500000000000e+01,2.150000000000e+00
41,-1.200000000000e+00,4.500000000000e+01,-1.500000000000e-01
42,1.200000000000e+00,4.500000000000e+01,1.500000000000e-01
43,-1.200000000000e+00,4.500000000000e+01,1.850000000000e+00
44,1.200000000000e+00,4.500000000000e+01,2.150000000000e+00
45,0.000000000000e+00,-3.600000000000e-02,0.000000000000e+00
46,0.000000000000e+00,3.600000000000e-02,2.000000000000e+00
47,-1.200000000000e+00,3.000000000000e-02,1.000000000000e+00
48,1.200000000000e+00,-3.000000000000e-02,1.000000000000e+00
49,0.000000000000e+00,9.964000000000e+00,0.000000000000e+00
50,0.000000000000e+00,1.003600000000e+01,2.000000000000e+00
51,-1.200000000000e+00,1.003000000000e+01,1.000000000000e+00
52,1.200000000000e+00,9.970000000000e+00,1.000000000000e+00
53,0.000000000000e+00,1.996400000000e+01,0.000000000000e+00
54,0.000000000000e+00,2.003600000000e+01,2.000000000000e+00
55,-1.200000000000e+00,2.003000000000e+01,1.000000000000e+00
56,1.200000000000e+00,1.997000000000e+01,1.000000000000e+00
57,0.000000000000e+00,2.996400000000e+01,0.000000000000e+00
58,0.000000000000e+00,3.003600000000e+01,2.000000000000e+00
59,-1.200000000000e+00,3.003000000000e+01,1.000000000000e+00
60,1.200000000000e+00,2.997000000000e+01,1.000000000000e+00
61,0.000000000000e+00,3.996400000000e+01,0.000000000000e+00
62,0.000000000000e+00,4.003600000000e+01,2.000000000000e+00
63,-1.200000000000e+00,4.003000000000e+01,1.000000000000e+00
64,1.200000000000e+00,3.997000000000e+01,1.000000000000e+00
65,0.000000000000e+00,4.996400000000e+01,0.000000000000e+00
66,0.000000000000e+00,5.003600000000e+01,2.000000000000e+00
67,-1.200000000000e+00,5.003000000000e+01,1.000000000000e+00
68,1.200000000000e+00,4.997000000000e+01,1.000000000000e+00
69,-1.200000000000e+00,2.521213203436e+00,3.939339828220e-01
70,-1.200000000000e+00,5.030000000000e+00,8.500000000000e-01
71,-1.200000000000e+00,7.521213203436e+00,1.393933982822e+00
72,-1.200000000000e+00,2.521213203436e+00,1.606066017178e+00
73,-1.200000000000e+00,5.030000000000e+00,1.150000000000e+00
74,-1.200000000000e+00,7.521213203436e+00,6.060660171780e-01
75,1.200000000000e+00,2.521213203436e+00,3.939339828220e-01
76,1.200000000000e+00,5.030000000000e+00,8.500000000000e-01
77,1.200000000000e+00,7.521213203436e+00,1.393933982822e+00
78,1.200000000000e+00,2.521213203436e+00,1.606066017178e+00
79,1.200000000000e+00,5.030000000000e+00,1.150000000000e+00
80,1.200000000000e+00,7.521213203436e+00,6.060660171780e-01
81,-4.939339828220e-01,2.474544155877e+00,0.000000000000e+00
82,1.500000000000e-01,4.964000000000e+00,0.000000000000e+00
83,7.060660171780e-01,7.474544155877e+00,0.000000000000e+00
84,4.939339828220e-01,2.474544155877e+00,0.000000000000e+00
85,-1.500000000000e-01,4.964000000000e+00,0.000000000000e+00
86,-7.060660171780e-01,7.474544155877e+00,0.000000000000e+00
87,-4.939339828220e-01,2.474544155877e+00,2.000000000000e+00
88,1.500000000000e-01,4.964000000000e+00,2.000000000000e+00
89,7.060660171780e-01,7.474544155877e+00,2.000000000000e+00
90,4.939339828220e-01,2.474544155877e+00,2.000000000000e+00
91,-1.500000000000e-01,4.964000000000e+00,2.000000000000e+00
92,-7.060660171780e-01,7.474544155877e+00,2.000000000000e+00
93,-1.200000000000e+00,1.252121320344e+01,3.939339828220e-01
94,-1.200000000000e+00,1.503000000000e+01,8.500000000000e-01
95,-1.200000000000e+00,1.752121320344e+01,1.393933982822e+00
96,-1.200000000000e+00,1.252121320344e+01,1.606066017178e+00
97,-1.200000000000e+00,1.503000000000e+01,1.150000000000e+00
98,-1.200000000000e+00,1.752121320344e+01,6.060660171780e-01
99,1.200000000000e+00,1.252121320344e+01,3.939339828220e-01
100,1.200000000000e+00,1.503000000000e+01,8.500000000000e-01
101,1.200000000000e+00,1.752121320344e+01,1.393933982822e+00
102,1.200000000000e+00,1.252121320344e+01,1.606066017178e+00
103,1.200000000000e+00,1.503000000000e+01,1.150000000000e+00
104,1.200000000000e+00,1.752121320344e+01,6.060660171780e-01
105,-4.939339828220e-01,1.247454415588e+01,0.000000000000e+00
106,1.500000000000e-01,1.496400000000e+01,0.000000000000e+00
107,7.060660171780e-01,1.747454415588e+01,0.000000000000e+00
108,4.939339828220e-01,1.247454415588e+01,0.000000000000e+00
109,-1.500000000000e-01,1.496400000000e+01,0.000000000000e+00
110,-7.060660171780e-01,1.747454415588e+01,0.000000000000e+00
111,-4.939339828220e-01,1.247454415588e+01,2.000000000000e+00
112,1.500000000000e-01,1.496400000000e+01,2.000000000000e+00
113,7.060660171780e-01,1.747454415588e+01,2.000000000000e+00
114,4.939339828220e-01,1.247454415588e+01,2.000000000000e+00
115,-1.500000000000e-01,1.496400000000e+01,2.000000000000e+00
116,-7.060660171780e-01,1.747454415588e+01,2.000000000000e+00
117,-1.200000000000e+00,2.252121320344e+01,3.939339828220e-01
118,-1.200000000000e+00,2.503000000000e+01,8.500000000000e-01
119,-1.200000000000e+00,2.752121320344e+01,1.393933982822e+00
120,-1.200000000000e+00,2.252121320344e+01,1.606066017178e+00
121,-1.200000000000e+00,2.503000000000e+01,1.150000000000e+00
122,-1.200000000000e+00,2.752121320344e+01,6.060660171780e-01
123,1.200000000000e+00,2.252121320344e+01,3.939339828220e-01
124,1.200000000000e+00,2.503000000000e+01,8.500000000000e-01
125,1.200000000000e+00,2.752121320344e+01,1.393933982822e+00
126,1.200000000000e+00,2.252121320344e+01,1.606066017178e+00
127,1.200000000000e+00,2.503000000000e+01,1.150000000000e+00
128,1.200000000000e+00,2.752121320344e+01,6.060660171780e-01
129,-4.939339828220e-01,2.247454415588e+01,0.000000000000e+00
130,1.500000000000e-01,2.496400000000e+01,0.000000000000e+00
131,7.060660171780e-01,2.747454415588e+01,0.000000000000e+00
132,4.939339828220e-01,2.247454415588e+01,0.000000000000e+00
133,-1.500000000000e-01,2.496400000000e+01,0.000000000000e+00
134,-7.060660171780e-01,2.747454415588e+01,0.000000000000e+00
135,-4.939339828220e-01,2.247454415588e+01,2.000000000000e+00
136,1.500000000000e-01,2.496400000000e+01,2.000000000000e+00
137,7.060660171780e-01,2.747454415588e+01,2.000000000000e+00
138,4.939339828220e-01,2.247454415588e+01,2.000000000000e+00
139,-1.500000000000e-01,2.496400000000e+01,2.000000000000e+00
140,-7.060660171780e-01,2.747454415588e+01,2.000000000000e+00
141,-1.200000000000e+00,3.252121320344e+01,3.939339828220e-01
142,-1.200000000000e+00,3.503000000000e+01,8.500000000000e-01
143,-1.200000000000e+00,3.752121320344e+01,1.393933982822e+00
144,-1.200000000000e+00,3.252121320344e+01,1.606066017178e+00
145,-1.200000000000e+00,3.503000000000e+01,1.150000000000e+00
146,-1.200000000000e+00,3.752121320344e+01,6.060660171780e-01
147,1.200000000000e+00,3.252121320344e+01,3.939339828220e-01
148,1.200000000000e+00,3.503000000000e+01,8.500000000000e-01
149,1.200000000000e+00,3.752121320344e+01,1.393933982822e+00
150,1.200000000000e+00,3.252121320344e+01,1.606066017178e+00
151,1.200000000000e+00,3.503000000000e+01,1.150000000000e+00
152,1.200000000000e+00,3.752121320344e+01,6.060660171780e-01
153,-4.939339828220e-01,3.247454415588e+01,0.000000000000e+00
154,1.500000000000e-01,3.496400000000e+01,0.000000000000e+00
155,7.060660171780e-01,3.747454415588e+01,0.000000000000e+00
156,4.939339828220e-01,3.247454415588e+01,0.000000000000e+00
157,-1.500000000000e-01,3.496400000000e+01,0.000000000000e+00
158,-7.060660171780e-01,3.747454415588e+01,0.000000000000e+00
159,-4.939339828220e-01,3.247454415588e+01,2.000000000000e+00
160,1.500000000000e-01,3.496400000000e+01,2.000000000000e+00
161,7.060660171780e-01,3.747454415588e+01,2.000000000000e+00
162,4.939339828220e-01,3.247454415588e+01,2.000000000000e+00
163,-1.500000000000e-01,3.496400000000e+01,2.000000000000e+00
164,-7.060660171780e-01,3.747454415588e+01,2.000000000000e+00
165,-1.200000000000e+00,4.252121320344e+01,3.939339828220e-01
166,-1.200000000000e+00,4.503000000000e+01,8.500000000000e-01
167,-1.200000000000e+00,4.752121320344e+01,1.393933982822e+00
168,-1.200000000000e+00,4.252121320344e+01,1.606066017178e+00
169,-1.200000000000e+00,4.503000000000e+01,1.150000000000e+00
170,-1.200000000000e+00,4.752121320344e+01,6.060660171780e-01
171,1.200000000000e+00,4.252121320344e+01,3.939339828220e-01
172,1.200000000000e+00,4.503000000000e+01,8.500000000000e-01
173,1.200000000000e+00,4.752121320344e+01,1.393933982822e+00
174,1.200000000000e+00,4.252121320344e+01,1.606066017178e+00
175,1.200000000000e+00,4.503000000000e+01,1.150000000000e+00
176,1.200000000000e+00,4.752121320344e+01,6.060660171780e-01
177,-4.939339828220e-01,4.247454415588e+01,0.000000000000e+00
178,1.500000000000e-01,4.496400000000e+01,0.000000000000e+00
179,7.060660171780e-01,4.747454415588e+01,0.000000000000e+00
180,4.939339828220e-01,4.247454415588e+01,0.000000000000e+00
181,-1.500000000000e-01,4.496400000000e+01,0.000000000000e+00
182,-7.060660171780e-01,4.747454415588e+01,0.000000000000e+00
183,-4.939339828220e-01,4.247454415588e+01,2.000000000000e+00
184,1.500000000000e-01,4.496400000000e+01,2.000000000000e+00
185,7.060660171780e-01,4.747454415588e+01,2.000000000000e+00
186,4.939339828220e-01,4.247454415588e+01,2.000000000000e+00
187,-1.500000000000e-01,4.496400000000e+01,2.000000000000e+00
188,-7.060660171780e-01,4.747454415588e+01,2.000000000000e+00
*ELEMENT,TYPE=B31,ELSET=ALL
1,1,25
2,25,5
3,2,26
4,26,6
5,3,27
6,27,7
7,4,28
8,28,8
9,5,29
10,29,9
11,6,30
12,30,10
13,7,31
14,31,11
15,8,32
16,32,12
17,9,33
18,33,13
19,10,34
20,34,14
21,11,35
22,35,15
23,12,36
24,36,16
25,13,37
26,37,17
27,14,38
28,38,18
29,15,39
30,39,19
31,16,40
32,40,20
33,17,41
34,41,21
35,18,42
36,42,22
37,19,43
38,43,23
39,20,44
40,44,24
41,1,45
42,45,2
43,3,46
44,46,4
45,1,47
46,47,3
47,2,48
48,48,4
49,5,49
50,49,6
51,7,50
52,50,8
53,5,51
54,51,7
55,6,52
56,52,8
57,9,53
58,53,10
59,11,54
60,54,12
61,9,55
62,55,11
63,10,56
64,56,12
65,13,57
66,57,14
67,15,58
68,58,16
69,13,59
70,59,15
71,14,60
72,60,16
73,17,61
74,61,18
75,19,62
76,62,20
77,17,63
78,63,19
79,18,64
80,64,20
81,21,65
82,65,22
83,23,66
84,66,24
85,21,67
86,67,23
87,22,68
88,68,24
89,1,69
90,69,70
91,70,71
92,71,7
93,3,72
94,72,73
95,73,74
96,74,5
97,2,75
98,75,76
99,76,77
100,77,8
101,4,78
102,78,79
103,79,80
104,80,6
105,1,81
106,81,82
107,82,83
108,83,6
109,2,84
110,84,85
111,85,86
112,86,5
113,3,87
114,87,88
115,88,89
116,89,8
117,4,90
118,90,91
119,91,92
120,92,7
121,5,93
122,93,94
123,94,95
124,95,11
125,7,96
126,96,97
127,97,98
128,98,9
129,6,99
130,99,100
131,100,101
132,101,12
133,8,102
134,102,103
135,103,104
136,104,10
137,5,105
138,105,106
139,106,107
140,107,10
141,6,108
142,108,109
143,109,110
144,110,9
145,7,111
146,111,112
147,112,113
148,113,12
149,8,114
150,114,115
151,115,116
152,116,11
153,9,117
154,117,118
155,118,119
156,119,15
157,11,120
158,120,121
159,121,122
160,122,13
161,10,123
162,123,124
163,124,125
164,125,16
165,12,126
166,126,127
167,127,128
168,128,14
169,9,129
170,129,130
171,130,131
172,131,14
173,10,132
174,132,133
175,133,134
176,134,13
177,11,135
178,135,136
179,136,137
180,137,16
181,12,138
182,138,139
183,139,140
184,140,15
185,13,141
186,141,142
187,142,143
188,143,19
189,15,144
190,144,145
191,145,146
192,146,17
193,14,147
194,147,148
195,148,149
196,149,20
197,16,150
198,150,151
199,151,152
200,152,18
201,13,153
202,153,154
203,154,155
204,155,18
205,14,156
206,156,157
207,157,158
208,158,17
209,15,159
210,159,160
211,160,161
212,161,20
213,16,162
214,162,163
215,163,164
216,164,19
217,17,165
218,165,166
219,166,167
220,167,23
221,19,168
222,168,169
223,169,170
224,170,21
225,18,171
226,171,172
227,172,173
228,173,24
229,20,174
230,174,175
231,175,176
232,176,22
233,17,177
234,177,178
235,178,179
236,179,22
237,18,180
238,180,181
239,181,182
240,182,21
241,19,183
242,183,184
243,184,185
244,185,24
245,20,186
246,186,187
247,187,188
248,188,23
*NSET,NSET=NALL,GENERATE
1,188,1
*NSET,NSET=LEFT
1,2,3,4
*NSET,NSET=RIGHT
21,22,23,24
*MATERIAL,NAME=STEEL
*ELASTIC
2.100000000000e+11,0.300000000000
*BEAM SECTION,ELSET=ALL,MATERIAL=STEEL,SECTION=RECT
6.000000000000e-02,4.000000000000e-02
0.371390676354,0.557086014531,0.742781352708
*BOUNDARY
LEFT,1,6,0.0
*STEP
*STATIC
*BOUNDARY
21,1,1,5.000000000000e-03
21,2,2,0.0
21,3,3,-6.000000000000e-03
*BOUNDARY
22,1,1,5.000000000000e-03
22,2,2,0.0
22,3,3,6.000000000000e-03
*BOUNDARY
23,1,1,-5.000000000000e-03
23,2,2,0.0
23,3,3,-6.000000000000e-03
*BOUNDARY
24,1,1,-5.000000000000e-03
24,2,2,0.0
24,3,3,6.000000000000e-03
*NODE FILE,NSET=NALL
U
*NODE PRINT,NSET=NALL
U
*NODE PRINT,NSET=RIGHT
RF
*EL PRINT,ELSET=ALL,TOTALS=YES
ELSE
*END STEP
