*HEADING
Normalized cross-passage space-truss torsion benchmark
*NODE
1,-1.200000000000e+00,0.000000000000e+00,0.000000000000e+00
2,1.200000000000e+00,0.000000000000e+00,0.000000000000e+00
3,-1.200000000000e+00,0.000000000000e+00,2.000000000000e+00
4,1.200000000000e+00,0.000000000000e+00,2.000000000000e+00
5,-1.200000000000e+00,1.000000000000e+01,0.000000000000e+00
6,1.200000000000e+00,1.000000000000e+01,0.000000000000e+00
7,-1.200000000000e+00,1.000000000000e+01,2.000000000000e+00
8,1.200000000000e+00,1.000000000000e+01,2.000000000000e+00
9,-1.200000000000e+00,2.000000000000e+01,0.000000000000e+00
10,1.200000000000e+00,2.000000000000e+01,0.000000000000e+00
11,-1.200000000000e+00,2.000000000000e+01,2.000000000000e+00
12,1.200000000000e+00,2.000000000000e+01,2.000000000000e+00
13,-1.200000000000e+00,3.000000000000e+01,0.000000000000e+00
14,1.200000000000e+00,3.000000000000e+01,0.000000000000e+00
15,-1.200000000000e+00,3.000000000000e+01,2.000000000000e+00
16,1.200000000000e+00,3.000000000000e+01,2.000000000000e+00
17,-1.200000000000e+00,4.000000000000e+01,0.000000000000e+00
18,1.200000000000e+00,4.000000000000e+01,0.000000000000e+00
19,-1.200000000000e+00,4.000000000000e+01,2.000000000000e+00
20,1.200000000000e+00,4.000000000000e+01,2.000000000000e+00
21,-1.200000000000e+00,5.000000000000e+01,0.000000000000e+00
22,1.200000000000e+00,5.000000000000e+01,0.000000000000e+00
23,-1.200000000000e+00,5.000000000000e+01,2.000000000000e+00
24,1.200000000000e+00,5.000000000000e+01,2.000000000000e+00
25,-1.200000000000e+00,1.250000000000e+00,-5.740251485476e-02
26,-1.200000000000e+00,2.500000000000e+00,-1.060660171780e-01
27,-1.200000000000e+00,3.750000000000e+00,-1.385819298767e-01
28,-1.200000000000e+00,5.000000000000e+00,-1.500000000000e-01
29,-1.200000000000e+00,6.250000000000e+00,-1.385819298767e-01
30,-1.200000000000e+00,7.500000000000e+00,-1.060660171780e-01
31,-1.200000000000e+00,8.750000000000e+00,-5.740251485476e-02
32,1.200000000000e+00,1.250000000000e+00,5.740251485476e-02
33,1.200000000000e+00,2.500000000000e+00,1.060660171780e-01
34,1.200000000000e+00,3.750000000000e+00,1.385819298767e-01
35,1.200000000000e+00,5.000000000000e+00,1.500000000000e-01
36,1.200000000000e+00,6.250000000000e+00,1.385819298767e-01
37,1.200000000000e+00,7.500000000000e+00,1.060660171780e-01
38,1.200000000000e+00,8.750000000000e+00,5.740251485476e-02
39,-1.200000000000e+00,1.250000000000e+00,1.942597485145e+00
40,-1.200000000000e+00,2.500000000000e+00,1.893933982822e+00
41,-1.200000000000e+00,3.750000000000e+00,1.861418070123e+00
42,-1.200000000000e+00,5.000000000000e+00,1.850000000000e+00
43,-1.200000000000e+00,6.250000000000e+00,1.861418070123e+00
44,-1.200000000000e+00,7.500000000000e+00,1.893933982822e+00
45,-1.200000000000e+00,8.750000000000e+00,1.942597485145e+00
46,1.200000000000e+00,1.250000000000e+00,2.057402514855e+00
47,1.200000000000e+00,2.500000000000e+00,2.106066017178e+00
48,1.200000000000e+00,3.750000000000e+00,2.138581929877e+00
49,1.200000000000e+00,5.000000000000e+00,2.150000000000e+00
50,1.200000000000e+00,6.250000000000e+00,2.138581929877e+00
51,1.200000000000e+00,7.500000000000e+00,2.106066017178e+00
52,1.200000000000e+00,8.750000000000e+00,2.057402514855e+00
53,-1.200000000000e+00,1.500000000000e+01,-1.500000000000e-01
54,1.200000000000e+00,1.500000000000e+01,1.500000000000e-01
55,-1.200000000000e+00,1.500000000000e+01,1.850000000000e+00
56,1.200000000000e+00,1.500000000000e+01,2.150000000000e+00
57,-1.200000000000e+00,2.500000000000e+01,-1.500000000000e-01
58,1.200000000000e+00,2.500000000000e+01,1.500000000000e-01
59,-1.200000000000e+00,2.500000000000e+01,1.850000000000e+00
60,1.200000000000e+00,2.500000000000e+01,2.150000000000e+00
61,-1.200000000000e+00,3.500000000000e+01,-1.500000000000e-01
62,1.200000000000e+00,3.500000000000e+01,1.500000000000e-01
63,-1.200000000000e+00,3.500000000000e+01,1.850000000000e+00
64,1.200000000000e+00,3.500000000000e+01,2.150000000000e+00
65,-1.200000000000e+00,4.250000000000e+01,-1.060660171780e-01
66,-1.200000000000e+00,4.500000000000e+01,-1.500000000000e-01
67,-1.200000000000e+00,4.750000000000e+01,-1.060660171780e-01
68,1.200000000000e+00,4.250000000000e+01,1.060660171780e-01
69,1.200000000000e+00,4.500000000000e+01,1.500000000000e-01
70,1.200000000000e+00,4.750000000000e+01,1.060660171780e-01
71,-1.200000000000e+00,4.250000000000e+01,1.893933982822e+00
72,-1.200000000000e+00,4.500000000000e+01,1.850000000000e+00
73,-1.200000000000e+00,4.750000000000e+01,1.893933982822e+00
74,1.200000000000e+00,4.250000000000e+01,2.106066017178e+00
75,1.200000000000e+00,4.500000000000e+01,2.150000000000e+00
76,1.200000000000e+00,4.750000000000e+01,2.106066017178e+00
77,-6.000000000000e-01,-2.545584412272e-02,0.000000000000e+00
78,0.000000000000e+00,-3.600000000000e-02,0.000000000000e+00
79,6.000000000000e-01,-2.545584412272e-02,0.000000000000e+00
80,-6.000000000000e-01,2.545584412272e-02,2.000000000000e+00
81,0.000000000000e+00,3.600000000000e-02,2.000000000000e+00
82,6.000000000000e-01,2.545584412272e-02,2.000000000000e+00
83,-1.200000000000e+00,2.121320343560e-02,5.000000000000e-01
84,-1.200000000000e+00,3.000000000000e-02,1.000000000000e+00
85,-1.200000000000e+00,2.121320343560e-02,1.500000000000e+00
86,1.200000000000e+00,-2.121320343560e-02,5.000000000000e-01
87,1.200000000000e+00,-3.000000000000e-02,1.000000000000e+00
88,1.200000000000e+00,-2.121320343560e-02,1.500000000000e+00
89,-6.000000000000e-01,9.974544155877e+00,0.000000000000e+00
90,0.000000000000e+00,9.964000000000e+00,0.000000000000e+00
91,6.000000000000e-01,9.974544155877e+00,0.000000000000e+00
92,-6.000000000000e-01,1.002545584412e+01,2.000000000000e+00
93,0.000000000000e+00,1.003600000000e+01,2.000000000000e+00
94,6.000000000000e-01,1.002545584412e+01,2.000000000000e+00
95,-1.200000000000e+00,1.002121320344e+01,5.000000000000e-01
96,-1.200000000000e+00,1.003000000000e+01,1.000000000000e+00
97,-1.200000000000e+00,1.002121320344e+01,1.500000000000e+00
98,1.200000000000e+00,9.978786796564e+00,5.000000000000e-01
99,1.200000000000e+00,9.970000000000e+00,1.000000000000e+00
100,1.200000000000e+00,9.978786796564e+00,1.500000000000e+00
101,-6.000000000000e-01,1.997454415588e+01,0.000000000000e+00
102,0.000000000000e+00,1.996400000000e+01,0.000000000000e+00
103,6.000000000000e-01,1.997454415588e+01,0.000000000000e+00
104,-6.000000000000e-01,2.002545584412e+01,2.000000000000e+00
105,0.000000000000e+00,2.003600000000e+01,2.000000000000e+00
106,6.000000000000e-01,2.002545584412e+01,2.000000000000e+00
107,-1.200000000000e+00,2.002121320344e+01,5.000000000000e-01
108,-1.200000000000e+00,2.003000000000e+01,1.000000000000e+00
109,-1.200000000000e+00,2.002121320344e+01,1.500000000000e+00
110,1.200000000000e+00,1.997878679656e+01,5.000000000000e-01
111,1.200000000000e+00,1.997000000000e+01,1.000000000000e+00
112,1.200000000000e+00,1.997878679656e+01,1.500000000000e+00
113,-6.000000000000e-01,2.997454415588e+01,0.000000000000e+00
114,0.000000000000e+00,2.996400000000e+01,0.000000000000e+00
115,6.000000000000e-01,2.997454415588e+01,0.000000000000e+00
116,-6.000000000000e-01,3.002545584412e+01,2.000000000000e+00
117,0.000000000000e+00,3.003600000000e+01,2.000000000000e+00
118,6.000000000000e-01,3.002545584412e+01,2.000000000000e+00
119,-1.200000000000e+00,3.002121320344e+01,5.000000000000e-01
120,-1.200000000000e+00,3.003000000000e+01,1.000000000000e+00
121,-1.200000000000e+00,3.002121320344e+01,1.500000000000e+00
122,1.200000000000e+00,2.997878679656e+01,5.000000000000e-01
123,1.200000000000e+00,2.997000000000e+01,1.000000000000e+00
124,1.200000000000e+00,2.997878679656e+01,1.500000000000e+00
125,-6.000000000000e-01,3.997454415588e+01,0.000000000000e+00
126,0.000000000000e+00,3.996400000000e+01,0.000000000000e+00
127,6.000000000000e-01,3.997454415588e+01,0.000000000000e+00
128,-6.000000000000e-01,4.002545584412e+01,2.000000000000e+00
129,0.000000000000e+00,4.003600000000e+01,2.000000000000e+00
130,6.000000000000e-01,4.002545584412e+01,2.000000000000e+00
131,-1.200000000000e+00,4.002121320344e+01,5.000000000000e-01
132,-1.200000000000e+00,4.003000000000e+01,1.000000000000e+00
133,-1.200000000000e+00,4.002121320344e+01,1.500000000000e+00
134,1.200000000000e+00,3.997878679656e+01,5.000000000000e-01
135,1.200000000000e+00,3.997000000000e+01,1.000000000000e+00
136,1.200000000000e+00,3.997878679656e+01,1.500000000000e+00
137,-6.000000000000e-01,4.997454415588e+01,0.000000000000e+00
138,0.000000000000e+00,4.996400000000e+01,0.000000000000e+00
139,6.000000000000e-01,4.997454415588e+01,0.000000000000e+00
140,-6.000000000000e-01,5.002545584412e+01,2.000000000000e+00
141,0.000000000000e+00,5.003600000000e+01,2.000000000000e+00
142,6.000000000000e-01,5.002545584412e+01,2.000000000000e+00
143,-1.200000000000e+00,5.002121320344e+01,5.000000000000e-01
144,-1.200000000000e+00,5.003000000000e+01,1.000000000000e+00
145,-1.200000000000e+00,5.002121320344e+01,1.500000000000e+00
146,1.200000000000e+00,4.997878679656e+01,5.000000000000e-01
147,1.200000000000e+00,4.997000000000e+01,1.000000000000e+00
148,1.200000000000e+00,4.997878679656e+01,1.500000000000e+00
149,-1.200000000000e+00,2.521213203436e+00,3.939339828220e-01
150,-1.200000000000e+00,5.030000000000e+00,8.500000000000e-01
151,-1.200000000000e+00,7.521213203436e+00,1.393933982822e+00
152,-1.200000000000e+00,2.521213203436e+00,1.606066017178e+00
153,-1.200000000000e+00,5.030000000000e+00,1.150000000000e+00
154,-1.200000000000e+00,7.521213203436e+00,6.060660171780e-01
155,1.200000000000e+00,2.521213203436e+00,3.939339828220e-01
156,1.200000000000e+00,5.030000000000e+00,8.500000000000e-01
157,1.200000000000e+00,7.521213203436e+00,1.393933982822e+00
158,1.200000000000e+00,2.521213203436e+00,1.606066017178e+00
159,1.200000000000e+00,5.030000000000e+00,1.150000000000e+00
160,1.200000000000e+00,7.521213203436e+00,6.060660171780e-01
161,-4.939339828220e-01,2.474544155877e+00,0.000000000000e+00
162,1.500000000000e-01,4.964000000000e+00,0.000000000000e+00
163,7.060660171780e-01,7.474544155877e+00,0.000000000000e+00
164,4.939339828220e-01,2.474544155877e+00,0.000000000000e+00
165,-1.500000000000e-01,4.964000000000e+00,0.000000000000e+00
166,-7.060660171780e-01,7.474544155877e+00,0.000000000000e+00
167,-4.939339828220e-01,2.474544155877e+00,2.000000000000e+00
168,1.500000000000e-01,4.964000000000e+00,2.000000000000e+00
169,7.060660171780e-01,7.474544155877e+00,2.000000000000e+00
170,4.939339828220e-01,2.474544155877e+00,2.000000000000e+00
171,-1.500000000000e-01,4.964000000000e+00,2.000000000000e+00
172,-7.060660171780e-01,7.474544155877e+00,2.000000000000e+00
173,-1.200000000000e+00,1.252121320344e+01,3.939339828220e-01
174,-1.200000000000e+00,1.503000000000e+01,8.500000000000e-01
175,-1.200000000000e+00,1.752121320344e+01,1.393933982822e+00
176,-1.200000000000e+00,1.252121320344e+01,1.606066017178e+00
177,-1.200000000000e+00,1.503000000000e+01,1.150000000000e+00
178,-1.200000000000e+00,1.752121320344e+01,6.060660171780e-01
179,1.200000000000e+00,1.252121320344e+01,3.939339828220e-01
180,1.200000000000e+00,1.503000000000e+01,8.500000000000e-01
181,1.200000000000e+00,1.752121320344e+01,1.393933982822e+00
182,1.200000000000e+00,1.252121320344e+01,1.606066017178e+00
183,1.200000000000e+00,1.503000000000e+01,1.150000000000e+00
184,1.200000000000e+00,1.752121320344e+01,6.060660171780e-01
185,-4.939339828220e-01,1.247454415588e+01,0.000000000000e+00
186,1.500000000000e-01,1.496400000000e+01,0.000000000000e+00
187,7.060660171780e-01,1.747454415588e+01,0.000000000000e+00
188,4.939339828220e-01,1.247454415588e+01,0.000000000000e+00
189,-1.500000000000e-01,1.496400000000e+01,0.000000000000e+00
190,-7.060660171780e-01,1.747454415588e+01,0.000000000000e+00
191,-4.939339828220e-01,1.247454415588e+01,2.000000000000e+00
192,1.500000000000e-01,1.496400000000e+01,2.000000000000e+00
193,7.060660171780e-01,1.747454415588e+01,2.000000000000e+00
194,4.939339828220e-01,1.247454415588e+01,2.000000000000e+00
195,-1.500000000000e-01,1.496400000000e+01,2.000000000000e+00
196,-7.060660171780e-01,1.747454415588e+01,2.000000000000e+00
197,-1.200000000000e+00,2.252121320344e+01,3.939339828220e-01
198,-1.200000000000e+00,2.503000000000e+01,8.500000000000e-01
199,-1.200000000000e+00,2.752121320344e+01,1.393933982822e+00
200,-1.200000000000e+00,2.252121320344e+01,1.606066017178e+00
201,-1.200000000000e+00,2.503000000000e+01,1.150000000000e+00
202,-1.200000000000e+00,2.752121320344e+01,6.060660171780e-01
203,1.200000000000e+00,2.252121320344e+01,3.939339828220e-01
204,1.200000000000e+00,2.503000000000e+01,8.500000000000e-01
205,1.200000000000e+00,2.752121320344e+01,1.393933982822e+00
206,1.200000000000e+00,2.252121320344e+01,1.606066017178e+00
207,1.200000000000e+00,2.503000000000e+01,1.150000000000e+00
208,1.200000000000e+00,2.752121320344e+01,6.060660171780e-01
209,-4.939339828220e-01,2.247454415588e+01,0.000000000000e+00
210,1.500000000000e-01,2.496400000000e+01,0.000000000000e+00
211,7.060660171780e-01,2.747454415588e+01,0.000000000000e+00
212,4.939339828220e-01,2.247454415588e+01,0.000000000000e+00
213,-1.500000000000e-01,2.496400000000e+01,0.000000000000e+00
214,-7.060660171780e-01,2.747454415588e+01,0.000000000000e+00
215,-4.939339828220e-01,2.247454415588e+01,2.000000000000e+00
216,1.500000000000e-01,2.496400000000e+01,2.000000000000e+00
217,7.060660171780e-01,2.747454415588e+01,2.000000000000e+00
218,4.939339828220e-01,2.247454415588e+01,2.000000000000e+00
219,-1.500000000000e-01,2.496400000000e+01,2.000000000000e+00
220,-7.060660171780e-01,2.747454415588e+01,2.000000000000e+00
221,-1.200000000000e+00,3.252121320344e+01,3.939339828220e-01
222,-1.200000000000e+00,3.503000000000e+01,8.500000000000e-01
223,-1.200000000000e+00,3.752121320344e+01,1.393933982822e+00
224,-1.200000000000e+00,3.252121320344e+01,1.606066017178e+00
225,-1.200000000000e+00,3.503000000000e+01,1.150000000000e+00
226,-1.200000000000e+00,3.752121320344e+01,6.060660171780e-01
227,1.200000000000e+00,3.252121320344e+01,3.939339828220e-01
228,1.200000000000e+00,3.503000000000e+01,8.500000000000e-01
229,1.200000000000e+00,3.752121320344e+01,1.393933982822e+00
230,1.200000000000e+00,3.252121320344e+01,1.606066017178e+00
231,1.200000000000e+00,3.503000000000e+01,1.150000000000e+00
232,1.200000000000e+00,3.752121320344e+01,6.060660171780e-01
233,-4.939339828220e-01,3.247454415588e+01,0.000000000000e+00
234,1.500000000000e-01,3.496400000000e+01,0.000000000000e+00
235,7.060660171780e-01,3.747454415588e+01,0.000000000000e+00
236,4.939339828220e-01,3.247454415588e+01,0.000000000000e+00
237,-1.500000000000e-01,3.496400000000e+01,0.000000000000e+00
238,-7.060660171780e-01,3.747454415588e+01,0.000000000000e+00
239,-4.939339828220e-01,3.247454415588e+01,2.000000000000e+00
240,1.500000000000e-01,3.496400000000e+01,2.000000000000e+00
241,7.060660171780e-01,3.747454415588e+01,2.000000000000e+00
242,4.939339828220e-01,3.247454415588e+01,2.000000000000e+00
243,-1.500000000000e-01,3.496400000000e+01,2.000000000000e+00
244,-7.060660171780e-01,3.747454415588e+01,2.000000000000e+00
245,-1.200000000000e+00,4.252121320344e+01,3.939339828220e-01
246,-1.200000000000e+00,4.503000000000e+01,8.500000000000e-01
247,-1.200000000000e+00,4.752121320344e+01,1.393933982822e+00
248,-1.200000000000e+00,4.252121320344e+01,1.606066017178e+00
249,-1.200000000000e+00,4.503000000000e+01,1.150000000000e+00
250,-1.200000000000e+00,4.752121320344e+01,6.060660171780e-01
251,1.200000000000e+00,4.252121320344e+01,3.939339828220e-01
252,1.200000000000e+00,4.503000000000e+01,8.500000000000e-01
253,1.200000000000e+00,4.752121320344e+01,1.393933982822e+00
254,1.200000000000e+00,4.252121320344e+01,1.606066017178e+00
255,1.200000000000e+00,4.503000000000e+01,1.150000000000e+00
256,1.200000000000e+00,4.752121320344e+01,6.060660171780e-01
257,-4.939339828220e-01,4.247454415588e+01,0.000000000000e+00
258,1.500000000000e-01,4.496400000000e+01,0.000000000000e+00
259,7.060660171780e-01,4.747454415588e+01,0.000000000000e+00
260,4.939339828220e-01,4.247454415588e+01,0.000000000000e+00
261,-1.500000000000e-01,4.496400000000e+01,0.000000000000e+00
262,-7.060660171780e-01,4.747454415588e+01,0.000000000000e+00
263,-4.939339828220e-01,4.247454415588e+01,2.000000000000e+00
264,1.500000000000e-01,4.496400000000e+01,2.000000000000e+00
265,7.060660171780e-01,4.747454415588e+01,2.000000000000e+00
266,4.939339828220e-01,4.247454415588e+01,2.000000000000e+00
267,-1.500000000000e-01,4.496400000000e+01,2.000000000000e+00
268,-7.060660171780e-01,4.747454415588e+01,2.000000000000e+00
*ELEMENT,TYPE=B31,ELSET=ALL
1,1,25
2,25,26
3,26,27
4,27,28
5,28,29
6,29,30
7,30,31
8,31,5
9,2,32
10,32,33
11,33,34
12,34,35
13,35,36
14,36,37
15,37,38
16,38,6
17,3,39
18,39,40
19,40,41
20,41,42
21,42,43
22,43,44
23,44,45
24,45,7
25,4,46
26,46,47
27,47,48
28,48,49
29,49,50
30,50,51
31,51,52
32,52,8
33,5,53
34,53,9
35,6,54
36,54,10
37,7,55
38,55,11
39,8,56
40,56,12
41,9,57
42,57,13
43,10,58
44,58,14
45,11,59
46,59,15
47,12,60
48,60,16
49,13,61
50,61,17
51,14,62
52,62,18
53,15,63
54,63,19
55,16,64
56,64,20
57,17,65
58,65,66
59,66,67
60,67,21
61,18,68
62,68,69
63,69,70
64,70,22
65,19,71
66,71,72
67,72,73
68,73,23
69,20,74
70,74,75
71,75,76
72,76,24
73,1,77
74,77,78
75,78,79
76,79,2
77,3,80
78,80,81
79,81,82
80,82,4
81,1,83
82,83,84
83,84,85
84,85,3
85,2,86
86,86,87
87,87,88
88,88,4
89,5,89
90,89,90
91,90,91
92,91,6
93,7,92
94,92,93
95,93,94
96,94,8
97,5,95
98,95,96
99,96,97
100,97,7
101,6,98
102,98,99
103,99,100
104,100,8
105,9,101
106,101,102
107,102,103
108,103,10
109,11,104
110,104,105
111,105,106
112,106,12
113,9,107
114,107,108
115,108,109
116,109,11
117,10,110
118,110,111
119,111,112
120,112,12
121,13,113
122,113,114
123,114,115
124,115,14
125,15,116
126,116,117
127,117,118
128,118,16
129,13,119
130,119,120
131,120,121
132,121,15
133,14,122
134,122,123
135,123,124
136,124,16
137,17,125
138,125,126
139,126,127
140,127,18
141,19,128
142,128,129
143,129,130
144,130,20
145,17,131
146,131,132
147,132,133
148,133,19
149,18,134
150,134,135
151,135,136
152,136,20
153,21,137
154,137,138
155,138,139
156,139,22
157,23,140
158,140,141
159,141,142
160,142,24
161,21,143
162,143,144
163,144,145
164,145,23
165,22,146
166,146,147
167,147,148
168,148,24
169,1,149
170,149,150
171,150,151
172,151,7
173,3,152
174,152,153
175,153,154
176,154,5
177,2,155
178,155,156
179,156,157
180,157,8
181,4,158
182,158,159
183,159,160
184,160,6
185,1,161
186,161,162
187,162,163
188,163,6
189,2,164
190,164,165
191,165,166
192,166,5
193,3,167
194,167,168
195,168,169
196,169,8
197,4,170
198,170,171
199,171,172
200,172,7
201,5,173
202,173,174
203,174,175
204,175,11
205,7,176
206,176,177
207,177,178
208,178,9
209,6,179
210,179,180
211,180,181
212,181,12
213,8,182
214,182,183
215,183,184
216,184,10
217,5,185
218,185,186
219,186,187
220,187,10
221,6,188
222,188,189
223,189,190
224,190,9
225,7,191
226,191,192
227,192,193
228,193,12
229,8,194
230,194,195
231,195,196
232,196,11
233,9,197
234,197,198
235,198,199
236,199,15
237,11,200
238,200,201
239,201,202
240,202,13
241,10,203
242,203,204
243,204,205
244,205,16
245,12,206
246,206,207
247,207,208
248,208,14
249,9,209
250,209,210
251,210,211
252,211,14
253,10,212
254,212,213
255,213,214
256,214,13
257,11,215
258,215,216
259,216,217
260,217,16
261,12,218
262,218,219
263,219,220
264,220,15
265,13,221
266,221,222
267,222,223
268,223,19
269,15,224
270,224,225
271,225,226
272,226,17
273,14,227
274,227,228
275,228,229
276,229,20
277,16,230
278,230,231
279,231,232
280,232,18
281,13,233
282,233,234
283,234,235
284,235,18
285,14,236
286,236,237
287,237,238
288,238,17
289,15,239
290,239,240
291,240,241
292,241,20
293,16,242
294,242,243
295,243,244
296,244,19
297,17,245
298,245,246
299,246,247
300,247,23
301,19,248
302,248,249
303,249,250
304,250,21
305,18,251
306,251,252
307,252,253
308,253,24
309,20,254
310,254,255
311,255,256
312,256,22
313,17,257
314,257,258
315,258,259
316,259,22
317,18,260
318,260,261
319,261,262
320,262,21
321,19,263
322,263,264
323,264,265
324,265,24
325,20,266
326,266,267
327,267,268
328,268,23
*NSET,NSET=NALL,GENERATE
1,268,1
*NSET,NSET=LEFT
1,2,3,4
*NSET,NSET=RIGHT
21,22,23,24
*MATERIAL,NAME=STEEL
*ELASTIC
2.100000000000e+11,0.300000000000
*BEAM SECTION,ELSET=ALL,MATERIAL=STEEL,SECTION=RECT
6.000000000000e-02,4.000000000000e-02
0.371390676354,0.557086014531,0.742781352708
*BOUNDARY
LEFT,1,6,0.0
*STEP
*STATIC
*BOUNDARY
21,1,1,5.000000000000e-03
21,2,2,0.0
21,3,3,-6.000000000000e-03
*BOUNDARY
22,1,1,5.000000000000e-03
22,2,2,0.0
22,3,3,6.000000000000e-03
*BOUNDARY
23,1,1,-5.000000000000e-03
23,2,2,0.0
23,3,3,-6.000000000000e-03
*BOUNDARY
24,1,1,-5.000000000000e-03
24,2,2,0.0
24,3,3,6.000000000000e-03
*NODE FILE,NSET=NALL
U
*NODE PRINT,NSET=NALL
U
*NODE PRINT,NSET=RIGHT
RF
*EL PRINT,ELSET=ALL,TOTALS=YES
ELSE
*END STEP
