*HEADING
Normalized cross-passage space-truss torsion benchmark
*NODE
1,-1.200000000000e+00,0.000000000000e+00,0.000000000000e+00
2,1.200000000000e+00,0.000000000000e+00,0.000000000000e+00
3,-1.200000000000e+00,0.000000000000e+00,2.000000000000e+00
4,1.200000000000e+00,0.000000000000e+00,2.000000000000e+00
5,-1.200000000000e+00,1.000000000000e+01,0.000000000000e+00
6,1.200000000000e+00,1.000000000000e+01,0.000000000000e+00
7,-1.200000000000e+00,1.000000000000e+01,2.000000000000e+00
8,1.200000000000e+00,1.000000000000e+01,2.000000000000e+00
9,-1.200000000000e+00,2.000000000000e+01,0.000000000000e+00
10,1.200000000000e+00,2.000000000000e+01,0.000000000000e+00
11,-1.200000000000e+00,2.000000000000e+01,2.000000000000e+00
12,1.200000000000e+00,2.000000000000e+01,2.000000000000e+00
13,-1.200000000000e+00,3.000000000000e+01,0.000000000000e+00
14,1.200000000000e+00,3.000000000000e+01,0.000000000000e+00
15,-1.200000000000e+00,3.000000000000e+01,2.000000000000e+00
16,1.200000000000e+00,3.000000000000e+01,2.000000000000e+00
17,-1.200000000000e+00,4.000000000000e+01,0.000000000000e+00
18,1.200000000000e+00,4.000000000000e+01,0.000000000000e+00
19,-1.200000000000e+00,4.000000000000e+01,2.000000000000e+00
20,1.200000000000e+00,4.000000000000e+01,2.000000000000e+00
21,-1.200000000000e+00,5.000000000000e+01,0.000000000000e+00
22,1.200000000000e+00,5.000000000000e+01,0.000000000000e+00
23,-1.200000000000e+00,5.000000000000e+01,2.000000000000e+00
24,1.200000000000e+00,5.000000000000e+01,2.000000000000e+00
25,-1.200000000000e+00,2.500000000000e+00,-1.060660171780e-01
26,-1.200000000000e+00,5.000000000000e+00,-1.500000000000e-01
27,-1.200000000000e+00,7.500000000000e+00,-1.060660171780e-01
28,1.200000000000e+00,2.500000000000e+00,1.060660171780e-01
29,1.200000000000e+00,5.000000000000e+00,1.500000000000e-01
30,1.200000000000e+00,7.500000000000e+00,1.060660171780e-01
31,-1.200000000000e+00,2.500000000000e+00,1.893933982822e+00
32,-1.200000000000e+00,5.000000000000e+00,1.850000000000e+00
33,-1.200000000000e+00,7.500000000000e+00,1.893933982822e+00
34,1.200000000000e+00,2.500000000000e+00,2.106066017178e+00
35,1.200000000000e+00,5.000000000000e+00,2.150000000000e+00
36,1.200000000000e+00,7.500000000000e+00,2.106066017178e+00
37,-1.200000000000e+00,1.500000000000e+01,-1.500000000000e-01
38,1.200000000000e+00,1.500000000000e+01,1.500000000000e-01
39,-1.200000000000e+00,1.500000000000e+01,1.850000000000e+00
40,1.200000000000e+00,1.500000000000e+01,2.150000000000e+00
41,-1.200000000000e+00,4.250000000000e+01,-1.060660171780e-01
42,-1.200000000000e+00,4.500000000000e+01,-1.500000000000e-01
43,-1.200000000000e+00,4.750000000000e+01,-1.060660171780e-01
44,1.200000000000e+00,4.250000000000e+01,1.060660171780e-01
45,1.200000000000e+00,4.500000000000e+01,1.500000000000e-01
46,1.200000000000e+00,4.750000000000e+01,1.060660171780e-01
47,-1.200000000000e+00,4.250000000000e+01,1.893933982822e+00
48,-1.200000000000e+00,4.500000000000e+01,1.850000000000e+00
49,-1.200000000000e+00,4.750000000000e+01,1.893933982822e+00
50,1.200000000000e+00,4.250000000000e+01,2.106066017178e+00
51,1.200000000000e+00,4.500000000000e+01,2.150000000000e+00
52,1.200000000000e+00,4.750000000000e+01,2.106066017178e+00
53,0.000000000000e+00,-3.600000000000e-02,0.000000000000e+00
54,0.000000000000e+00,3.600000000000e-02,2.000000000000e+00
55,-1.200000000000e+00,3.000000000000e-02,1.000000000000e+00
56,1.200000000000e+00,-3.000000000000e-02,1.000000000000e+00
57,-6.000000000000e-01,9.974544155877e+00,0.000000000000e+00
58,0.000000000000e+00,9.964000000000e+00,0.000000000000e+00
59,6.000000000000e-01,9.974544155877e+00,0.000000000000e+00
60,-6.000000000000e-01,1.002545584412e+01,2.000000000000e+00
61,0.000000000000e+00,1.003600000000e+01,2.000000000000e+00
62,6.000000000000e-01,1.002545584412e+01,2.000000000000e+00
63,-1.200000000000e+00,1.002121320344e+01,5.000000000000e-01
64,-1.200000000000e+00,1.003000000000e+01,1.000000000000e+00
65,-1.200000000000e+00,1.002121320344e+01,1.500000000000e+00
66,1.200000000000e+00,9.978786796564e+00,5.000000000000e-01
67,1.200000000000e+00,9.970000000000e+00,1.000000000000e+00
68,1.200000000000e+00,9.978786796564e+00,1.500000000000e+00
69,0.000000000000e+00,1.996400000000e+01,0.000000000000e+00
70,0.000000000000e+00,2.003600000000e+01,2.000000000000e+00
71,-1.200000000000e+00,2.003000000000e+01,1.000000000000e+00
72,1.200000000000e+00,1.997000000000e+01,1.000000000000e+00
73,-9.000000000000e-01,2.998622339643e+01,0.000000000000e+00
74,-6.000000000000e-01,2.997454415588e+01,0.000000000000e+00
75,-3.000000000000e-01,2.996674033683e+01,0.000000000000e+00
76,0.000000000000e+00,2.996400000000e+01,0.000000000000e+00
77,3.000000000000e-01,2.996674033683e+01,0.000000000000e+00
78,6.000000000000e-01,2.997454415588e+01,0.000000000000e+00
79,9.000000000000e-01,2.998622339643e+01,0.000000000000e+00
80,-9.000000000000e-01,3.001377660357e+01,2.000000000000e+00
81,-6.000000000000e-01,3.002545584412e+01,2.000000000000e+00
82,-3.000000000000e-01,3.003325966317e+01,2.000000000000e+00
83,0.000000000000e+00,3.003600000000e+01,2.000000000000e+00
84,3.000000000000e-01,3.003325966317e+01,2.000000000000e+00
85,6.000000000000e-01,3.002545584412e+01,2.000000000000e+00
86,9.000000000000e-01,3.001377660357e+01,2.000000000000e+00
87,-1.200000000000e+00,3.001148050297e+01,2.500000000000e-01
88,-1.200000000000e+00,3.002121320344e+01,5.000000000000e-01
89,-1.200000000000e+00,3.002771638598e+01,7.500000000000e-01
90,-1.200000000000e+00,3.003000000000e+01,1.000000000000e+00
91,-1.200000000000e+00,3.002771638598e+01,1.250000000000e+00
92,-1.200000000000e+00,3.002121320344e+01,1.500000000000e+00
93,-1.200000000000e+00,3.001148050297e+01,1.750000000000e+00
94,1.200000000000e+00,2.998851949703e+01,2.500000000000e-01
95,1.200000000000e+00,2.997878679656e+01,5.000000000000e-01
96,1.200000000000e+00,2.997228361402e+01,7.500000000000e-01
97,1.200000000000e+00,2.997000000000e+01,1.000000000000e+00
98,1.200000000000e+00,2.997228361402e+01,1.250000000000e+00
99,1.200000000000e+00,2.997878679656e+01,1.500000000000e+00
100,1.200000000000e+00,2.998851949703e+01,1.750000000000e+00
101,-6.000000000000e-01,3.997454415588e+01,0.000000000000e+00
102,0.000000000000e+00,3.996400000000e+01,0.000000000000e+00
103,6.000000000000e-01,3.997454415588e+01,0.000000000000e+00
104,-6.000000000000e-01,4.002545584412e+01,2.000000000000e+00
105,0.000000000000e+00,4.003600000000e+01,2.000000000000e+00
106,6.000000000000e-01,4.002545584412e+01,2.000000000000e+00
107,-1.200000000000e+00,4.002121320344e+01,5.000000000000e-01
108,-1.200000000000e+00,4.003000000000e+01,1.000000000000e+00
109,-1.200000000000e+00,4.002121320344e+01,1.500000000000e+00
110,1.200000000000e+00,3.997878679656e+01,5.000000000000e-01
111,1.200000000000e+00,3.997000000000e+01,1.000000000000e+00
112,1.200000000000e+00,3.997878679656e+01,1.500000000000e+00
113,-9.000000000000e-01,4.998622339643e+01,0.000000000000e+00
114,-6.000000000000e-01,4.997454415588e+01,0.000000000000e+00
115,-3.000000000000e-01,4.996674033683e+01,0.000000000000e+00
116,0.000000000000e+00,4.996400000000e+01,0.000000000000e+00
117,3.000000000000e-01,4.996674033683e+01,0.000000000000e+00
118,6.000000000000e-01,4.997454415588e+01,0.000000000000e+00
119,9.000000000000e-01,4.998622339643e+01,0.000000000000e+00
120,-9.000000000000e-01,5.001377660357e+01,2.000000000000e+00
121,-6.000000000000e-01,5.002545584412e+01,2.000000000000e+00
122,-3.000000000000e-01,5.003325966317e+01,2.000000000000e+00
123,0.000000000000e+00,5.003600000000e+01,2.000000000000e+00
124,3.000000000000e-01,5.003325966317e+01,2.000000000000e+00
125,6.000000000000e-01,5.002545584412e+01,2.000000000000e+00
126,9.000000000000e-01,5.001377660357e+01,2.000000000000e+00
127,-1.200000000000e+00,5.001148050297e+01,2.500000000000e-01
128,-1.200000000000e+00,5.002121320344e+01,5.000000000000e-01
129,-1.200000000000e+00,5.002771638598e+01,7.500000000000e-01
130,-1.200000000000e+00,5.003000000000e+01,1.000000000000e+00
131,-1.200000000000e+00,5.002771638598e+01,1.250000000000e+00
132,-1.200000000000e+00,5.002121320344e+01,1.500000000000e+00
133,-1.200000000000e+00,5.001148050297e+01,1.750000000000e+00
134,1.200000000000e+00,4.998851949703e+01,2.500000000000e-01
135,1.200000000000e+00,4.997878679656e+01,5.000000000000e-01
136,1.200000000000e+00,4.997228361402e+01,7.500000000000e-01
137,1.200000000000e+00,4.997000000000e+01,1.000000000000e+00
138,1.200000000000e+00,4.997228361402e+01,1.250000000000e+00
139,1.200000000000e+00,4.997878679656e+01,1.500000000000e+00
140,1.200000000000e+00,4.998851949703e+01,1.750000000000e+00
141,-1.200000000000e+00,2.521213203436e+00,3.939339828220e-01
142,-1.200000000000e+00,5.030000000000e+00,8.500000000000e-01
143,-1.200000000000e+00,7.521213203436e+00,1.393933982822e+00
144,-1.200000000000e+00,2.521213203436e+00,1.606066017178e+00
145,-1.200000000000e+00,5.030000000000e+00,1.150000000000e+00
146,-1.200000000000e+00,7.521213203436e+00,6.060660171780e-01
147,1.200000000000e+00,2.521213203436e+00,3.939339828220e-01
148,1.200000000000e+00,5.030000000000e+00,8.500000000000e-01
149,1.200000000000e+00,7.521213203436e+00,1.393933982822e+00
150,1.200000000000e+00,2.521213203436e+00,1.606066017178e+00
151,1.200000000000e+00,5.030000000000e+00,1.150000000000e+00
152,1.200000000000e+00,7.521213203436e+00,6.060660171780e-01
153,-4.939339828220e-01,2.474544155877e+00,0.000000000000e+00
154,1.500000000000e-01,4.964000000000e+00,0.000000000000e+00
155,7.060660171780e-01,7.474544155877e+00,0.000000000000e+00
156,4.939339828220e-01,2.474544155877e+00,0.000000000000e+00
157,-1.500000000000e-01,4.964000000000e+00,0.000000000000e+00
158,-7.060660171780e-01,7.474544155877e+00,0.000000000000e+00
159,-4.939339828220e-01,2.474544155877e+00,2.000000000000e+00
160,1.500000000000e-01,4.964000000000e+00,2.000000000000e+00
161,7.060660171780e-01,7.474544155877e+00,2.000000000000e+00
162,4.939339828220e-01,2.474544155877e+00,2.000000000000e+00
163,-1.500000000000e-01,4.964000000000e+00,2.000000000000e+00
164,-7.060660171780e-01,7.474544155877e+00,2.000000000000e+00
165,-1.200000000000e+00,1.503000000000e+01,8.500000000000e-01
166,-1.200000000000e+00,1.503000000000e+01,1.150000000000e+00
167,1.200000000000e+00,1.503000000000e+01,8.500000000000e-01
168,1.200000000000e+00,1.503000000000e+01,1.150000000000e+00
169,1.500000000000e-01,1.496400000000e+01,0.000000000000e+00
170,-1.500000000000e-01,1.496400000000e+01,0.000000000000e+00
171,1.500000000000e-01,1.496400000000e+01,2.000000000000e+00
172,-1.500000000000e-01,1.496400000000e+01,2.000000000000e+00
173,-1.200000000000e+00,2.503000000000e+01,8.500000000000e-01
174,-1.200000000000e+00,2.503000000000e+01,1.150000000000e+00
175,1.200000000000e+00,2.503000000000e+01,8.500000000000e-01
176,1.200000000000e+00,2.503000000000e+01,1.150000000000e+00
177,1.500000000000e-01,2.496400000000e+01,0.000000000000e+00
178,-1.500000000000e-01,2.496400000000e+01,0.000000000000e+00
179,1.500000000000e-01,2.496400000000e+01,2.000000000000e+00
180,-1.500000000000e-01,2.496400000000e+01,2.000000000000e+00
181,-1.200000000000e+00,3.252121320344e+01,3.939339828220e-01
182,-1.200000000000e+00,3.503000000000e+01,8.500000000000e-01
183,-1.200000000000e+00,3.752121320344e+01,1.393933982822e+00
184,-1.200000000000e+00,3.252121320344e+01,1.606066017178e+00
185,-1.200000000000e+00,3.503000000000e+01,1.150000000000e+00
186,-1.200000000000e+00,3.752121320344e+01,6.060660171780e-01
187,1.200000000000e+00,3.252121320344e+01,3.939339828220e-01
188,1.200000000000e+00,3.503000000000e+01,8.500000000000e-01
189,1.200000000000e+00,3.752121320344e+01,1.393933982822e+00
190,1.200000000000e+00,3.252121320344e+01,1.606066017178e+00
191,1.200000000000e+00,3.503000000000e+01,1.150000000000e+00
192,1.200000000000e+00,3.752121320344e+01,6.060660171780e-01
193,-4.939339828220e-01,3.247454415588e+01,0.000000000000e+00
194,1.500000000000e-01,3.496400000000e+01,0.000000000000e+00
195,7.060660171780e-01,3.747454415588e+01,0.000000000000e+00
196,4.939339828220e-01,3.247454415588e+01,0.000000000000e+00
197,-1.500000000000e-01,3.496400000000e+01,0.000000000000e+00
198,-7.060660171780e-01,3.747454415588e+01,0.000000000000e+00
199,-4.939339828220e-01,3.247454415588e+01,2.000000000000e+00
200,1.500000000000e-01,3.496400000000e+01,2.000000000000e+00
201,7.060660171780e-01,3.747454415588e+01,2.000000000000e+00
202,4.939339828220e-01,3.247454415588e+01,2.000000000000e+00
203,-1.500000000000e-01,3.496400000000e+01,2.000000000000e+00
204,-7.060660171780e-01,3.747454415588e+01,2.000000000000e+00
*ELEMENT,TYPE=B31,ELSET=ALL
1,1,25
2,25,26
3,26,27
4,27,5
5,2,28
6,28,29
7,29,30
8,30,6
9,3,31
10,31,32
11,32,33
12,33,7
13,4,34
14,34,35
15,35,36
16,36,8
17,5,37
18,37,9
19,6,38
20,38,10
21,7,39
22,39,11
23,8,40
24,40,12
25,9,13
26,10,14
27,11,15
28,12,16
29,13,17
30,14,18
31,15,19
32,16,20
33,17,41
34,41,42
35,42,43
36,43,21
37,18,44
38,44,45
39,45,46
40,46,22
41,19,47
42,47,48
43,48,49
44,49,23
45,20,50
46,50,51
47,51,52
48,52,24
49,1,53
50,53,2
51,3,54
52,54,4
53,1,55
54,55,3
55,2,56
56,56,4
57,5,57
58,57,58
59,58,59
60,59,6
61,7,60
62,60,61
63,61,62
64,62,8
65,5,63
66,63,64
67,64,65
68,65,7
69,6,66
70,66,67
71,67,68
72,68,8
73,9,69
74,69,10
75,11,70
76,70,12
77,9,71
78,71,11
79,10,72
80,72,12
81,13,73
82,73,74
83,74,75
84,75,76
85,76,77
86,77,78
87,78,79
88,79,14
89,15,80
90,80,81
91,81,82
92,82,83
93,83,84
94,84,85
95,85,86
96,86,16
97,13,87
98,87,88
99,88,89
100,89,90
101,90,91
102,91,92
103,92,93
104,93,15
105,14,94
106,94,95
107,95,96
108,96,97
109,97,98
110,98,99
111,99,100
112,100,16
113,17,101
114,101,102
115,102,103
116,103,18
117,19,104
118,104,105
119,105,106
120,106,20
121,17,107
122,107,108
123,108,109
124,109,19
125,18,110
126,110,111
127,111,112
128,112,20
129,21,113
130,113,114
131,114,115
132,115,116
133,116,117
134,117,118
135,118,119
136,119,22
137,23,120
138,120,121
139,121,122
140,122,123
141,123,124
142,124,125
143,125,126
144,126,24
145,21,127
146,127,128
147,128,129
148,129,130
149,130,131
150,131,132
151,132,133
152,133,23
153,22,134
154,134,135
155,135,136
156,136,137
157,137,138
158,138,139
159,139,140
160,140,24
161,1,141
162,141,142
163,142,143
164,143,7
165,3,144
166,144,145
167,145,146
168,146,5
169,2,147
170,147,148
171,148,149
172,149,8
173,4,150
174,150,151
175,151,152
176,152,6
177,1,153
178,153,154
179,154,155
180,155,6
181,2,156
182,156,157
183,157,158
184,158,5
185,3,159
186,159,160
187,160,161
188,161,8
189,4,162
190,162,163
191,163,164
192,164,7
193,5,165
194,165,11
195,7,166
196,166,9
197,6,167
198,167,12
199,8,168
200,168,10
201,5,169
202,169,10
203,6,170
204,170,9
205,7,171
206,171,12
207,8,172
208,172,11
209,9,173
210,173,15
211,11,174
212,174,13
213,10,175
214,175,16
215,12,176
216,176,14
217,9,177
218,177,14
219,10,178
220,178,13
221,11,179
222,179,16
223,12,180
224,180,15
225,13,181
226,181,182
227,182,183
228,183,19
229,15,184
230,184,185
231,185,186
232,186,17
233,14,187
234,187,188
235,188,189
236,189,20
237,16,190
238,190,191
239,191,192
240,192,18
241,13,193
242,193,194
243,194,195
244,195,18
245,14,196
246,196,197
247,197,198
248,198,17
249,15,199
250,199,200
251,200,201
252,201,20
253,16,202
254,202,203
255,203,204
256,204,19
257,17,23
258,19,21
259,18,24
260,20,22
261,17,22
262,18,21
263,19,24
264,20,23
*NSET,NSET=NALL,GENERATE
1,204,1
*NSET,NSET=LEFT
1,2,3,4
*NSET,NSET=RIGHT
21,22,23,24
*MATERIAL,NAME=STEEL
*ELASTIC
2.100000000000e+11,0.300000000000
*BEAM SECTION,ELSET=ALL,MATERIAL=STEEL,SECTION=RECT
6.000000000000e-02,4.000000000000e-02
0.371390676354,0.557086014531,0.742781352708
*BOUNDARY
LEFT,1,6,0.0
*STEP
*STATIC
*BOUNDARY
21,1,1,5.000000000000e-03
21,2,2,0.0
21,3,3,-6.000000000000e-03
*BOUNDARY
22,1,1,5.000000000000e-03
22,2,2,0.0
22,3,3,6.000000000000e-03
*BOUNDARY
23,1,1,-5.000000000000e-03
23,2,2,0.0
23,3,3,-6.000000000000e-03
*BOUNDARY
24,1,1,-5.000000000000e-03
24,2,2,0.0
24,3,3,6.000000000000e-03
*NODE FILE,NSET=NALL
U
*NODE PRINT,NSET=NALL
U
*NODE PRINT,NSET=RIGHT
RF
*EL PRINT,ELSET=ALL,TOTALS=YES
ELSE
*END STEP
