*HEADING
Normalized cross-passage space-truss torsion benchmark
*NODE
1,-1.200000000000e+00,0.000000000000e+00,0.000000000000e+00
2,1.200000000000e+00,0.000000000000e+00,0.000000000000e+00
3,-1.200000000000e+00,0.000000000000e+00,2.000000000000e+00
4,1.200000000000e+00,0.000000000000e+00,2.000000000000e+00
5,-1.200000000000e+00,1.000000000000e+01,0.000000000000e+00
6,1.200000000000e+00,1.000000000000e+01,0.000000000000e+00
7,-1.200000000000e+00,1.000000000000e+01,2.000000000000e+00
8,1.200000000000e+00,1.000000000000e+01,2.000000000000e+00
9,-1.200000000000e+00,2.000000000000e+01,0.000000000000e+00
10,1.200000000000e+00,2.000000000000e+01,0.000000000000e+00
11,-1.200000000000e+00,2.000000000000e+01,2.000000000000e+00
12,1.200000000000e+00,2.000000000000e+01,2.000000000000e+00
13,-1.200000000000e+00,3.000000000000e+01,0.000000000000e+00
14,1.200000000000e+00,3.000000000000e+01,0.000000000000e+00
15,-1.200000000000e+00,3.000000000000e+01,2.000000000000e+00
16,1.200000000000e+00,3.000000000000e+01,2.000000000000e+00
17,-1.200000000000e+00,4.000000000000e+01,0.000000000000e+00
18,1.200000000000e+00,4.000000000000e+01,0.000000000000e+00
19,-1.200000000000e+00,4.000000000000e+01,2.000000000000e+00
20,1.200000000000e+00,4.000000000000e+01,2.000000000000e+00
21,-1.200000000000e+00,5.000000000000e+01,0.000000000000e+00
22,1.200000000000e+00,5.000000000000e+01,0.000000000000e+00
23,-1.200000000000e+00,5.000000000000e+01,2.000000000000e+00
24,1.200000000000e+00,5.000000000000e+01,2.000000000000e+00
25,-1.200000000000e+00,5.000000000000e+00,-1.500000000000e-01
26,1.200000000000e+00,5.000000000000e+00,1.500000000000e-01
27,-1.200000000000e+00,5.000000000000e+00,1.850000000000e+00
28,1.200000000000e+00,5.000000000000e+00,2.150000000000e+00
29,-1.200000000000e+00,1.500000000000e+01,-1.500000000000e-01
30,1.200000000000e+00,1.500000000000e+01,1.500000000000e-01
31,-1.200000000000e+00,1.500000000000e+01,1.850000000000e+00
32,1.200000000000e+00,1.500000000000e+01,2.150000000000e+00
33,-1.200000000000e+00,3.250000000000e+01,-1.060660171780e-01
34,-1.200000000000e+00,3.500000000000e+01,-1.500000000000e-01
35,-1.200000000000e+00,3.750000000000e+01,-1.060660171780e-01
36,1.200000000000e+00,3.250000000000e+01,1.060660171780e-01
37,1.200000000000e+00,3.500000000000e+01,1.500000000000e-01
38,1.200000000000e+00,3.750000000000e+01,1.060660171780e-01
39,-1.200000000000e+00,3.250000000000e+01,1.893933982822e+00
40,-1.200000000000e+00,3.500000000000e+01,1.850000000000e+00
41,-1.200000000000e+00,3.750000000000e+01,1.893933982822e+00
42,1.200000000000e+00,3.250000000000e+01,2.106066017178e+00
43,1.200000000000e+00,3.500000000000e+01,2.150000000000e+00
44,1.200000000000e+00,3.750000000000e+01,2.106066017178e+00
45,0.000000000000e+00,-3.600000000000e-02,0.000000000000e+00
46,0.000000000000e+00,3.600000000000e-02,2.000000000000e+00
47,-1.200000000000e+00,3.000000000000e-02,1.000000000000e+00
48,1.200000000000e+00,-3.000000000000e-02,1.000000000000e+00
49,0.000000000000e+00,9.964000000000e+00,0.000000000000e+00
50,0.000000000000e+00,1.003600000000e+01,2.000000000000e+00
51,-1.200000000000e+00,1.003000000000e+01,1.000000000000e+00
52,1.200000000000e+00,9.970000000000e+00,1.000000000000e+00
53,-6.000000000000e-01,1.997454415588e+01,0.000000000000e+00
54,0.000000000000e+00,1.996400000000e+01,0.000000000000e+00
55,6.000000000000e-01,1.997454415588e+01,0.000000000000e+00
56,-6.000000000000e-01,2.002545584412e+01,2.000000000000e+00
57,0.000000000000e+00,2.003600000000e+01,2.000000000000e+00
58,6.000000000000e-01,2.002545584412e+01,2.000000000000e+00
59,-1.200000000000e+00,2.002121320344e+01,5.000000000000e-01
60,-1.200000000000e+00,2.003000000000e+01,1.000000000000e+00
61,-1.200000000000e+00,2.002121320344e+01,1.500000000000e+00
62,1.200000000000e+00,1.997878679656e+01,5.000000000000e-01
63,1.200000000000e+00,1.997000000000e+01,1.000000000000e+00
64,1.200000000000e+00,1.997878679656e+01,1.500000000000e+00
65,0.000000000000e+00,2.996400000000e+01,0.000000000000e+00
66,0.000000000000e+00,3.003600000000e+01,2.000000000000e+00
67,-1.200000000000e+00,3.003000000000e+01,1.000000000000e+00
68,1.200000000000e+00,2.997000000000e+01,1.000000000000e+00
69,0.000000000000e+00,3.996400000000e+01,0.000000000000e+00
70,0.000000000000e+00,4.003600000000e+01,2.000000000000e+00
71,-1.200000000000e+00,4.003000000000e+01,1.000000000000e+00
72,1.200000000000e+00,3.997000000000e+01,1.000000000000e+00
73,0.000000000000e+00,4.996400000000e+01,0.000000000000e+00
74,0.000000000000e+00,5.003600000000e+01,2.000000000000e+00
75,-1.200000000000e+00,5.003000000000e+01,1.000000000000e+00
76,1.200000000000e+00,4.997000000000e+01,1.000000000000e+00
77,-1.200000000000e+00,5.030000000000e+00,8.500000000000e-01
78,-1.200000000000e+00,5.030000000000e+00,1.150000000000e+00
79,1.200000000000e+00,5.030000000000e+00,8.500000000000e-01
80,1.200000000000e+00,5.030000000000e+00,1.150000000000e+00
81,1.500000000000e-01,4.964000000000e+00,0.000000000000e+00
82,-1.500000000000e-01,4.964000000000e+00,0.000000000000e+00
83,1.500000000000e-01,4.964000000000e+00,2.000000000000e+00
84,-1.500000000000e-01,4.964000000000e+00,2.000000000000e+00
85,-1.200000000000e+00,1.503000000000e+01,8.500000000000e-01
86,-1.200000000000e+00,1.503000000000e+01,1.150000000000e+00
87,1.200000000000e+00,1.503000000000e+01,8.500000000000e-01
88,1.200000000000e+00,1.503000000000e+01,1.150000000000e+00
89,1.500000000000e-01,1.496400000000e+01,0.000000000000e+00
90,-1.500000000000e-01,1.496400000000e+01,0.000000000000e+00
91,1.500000000000e-01,1.496400000000e+01,2.000000000000e+00
92,-1.500000000000e-01,1.496400000000e+01,2.000000000000e+00
93,-1.200000000000e+00,2.252121320344e+01,3.939339828220e-01
94,-1.200000000000e+00,2.503000000000e+01,8.500000000000e-01
95,-1.200000000000e+00,2.752121320344e+01,1.393933982822e+00
96,-1.200000000000e+00,2.252121320344e+01,1.606066017178e+00
97,-1.200000000000e+00,2.503000000000e+01,1.150000000000e+00
98,-1.200000000000e+00,2.752121320344e+01,6.060660171780e-01
99,1.200000000000e+00,2.252121320344e+01,3.939339828220e-01
100,1.200000000000e+00,2.503000000000e+01,8.500000000000e-01
101,1.200000000000e+00,2.752121320344e+01,1.393933982822e+00
102,1.200000000000e+00,2.252121320344e+01,1.606066017178e+00
103,1.200000000000e+00,2.503000000000e+01,1.150000000000e+00
104,1.200000000000e+00,2.752121320344e+01,6.060660171780e-01
105,-4.939339828220e-01,2.247454415588e+01,0.000000000000e+00
106,1.500000000000e-01,2.496400000000e+01,0.000000000000e+00
107,7.060660171780e-01,2.747454415588e+01,0.000000000000e+00
108,4.939339828220e-01,2.247454415588e+01,0.000000000000e+00
109,-1.500000000000e-01,2.496400000000e+01,0.000000000000e+00
110,-7.060660171780e-01,2.747454415588e+01,0.000000000000e+00
111,-4.939339828220e-01,2.247454415588e+01,2.000000000000e+00
112,1.500000000000e-01,2.496400000000e+01,2.000000000000e+00
113,7.060660171780e-01,2.747454415588e+01,2.000000000000e+00
114,4.939339828220e-01,2.247454415588e+01,2.000000000000e+00
115,-1.500000000000e-01,2.496400000000e+01,2.000000000000e+00
116,-7.060660171780e-01,2.747454415588e+01,2.000000000000e+00
117,-1.200000000000e+00,3.252121320344e+01,3.939339828220e-01
118,-1.200000000000e+00,3.503000000000e+01,8.500000000000e-01
119,-1.200000000000e+00,3.752121320344e+01,1.393933982822e+00
120,-1.200000000000e+00,3.252121320344e+01,1.606066017178e+00
121,-1.200000000000e+00,3.503000000000e+01,1.150000000000e+00
122,-1.200000000000e+00,3.752121320344e+01,6.060660171780e-01
123,1.200000000000e+00,3.252121320344e+01,3.939339828220e-01
124,1.200000000000e+00,3.503000000000e+01,8.500000000000e-01
125,1.200000000000e+00,3.752121320344e+01,1.393933982822e+00
126,1.200000000000e+00,3.252121320344e+01,1.606066017178e+00
127,1.200000000000e+00,3.503000000000e+01,1.150000000000e+00
128,1.200000000000e+00,3.752121320344e+01,6.060660171780e-01
129,-4.939339828220e-01,3.247454415588e+01,0.000000000000e+00
130,1.500000000000e-01,3.496400000000e+01,0.000000000000e+00
131,7.060660171780e-01,3.747454415588e+01,0.000000000000e+00
132,4.939339828220e-01,3.247454415588e+01,0.000000000000e+00
133,-1.500000000000e-01,3.496400000000e+01,0.000000000000e+00
134,-7.060660171780e-01,3.747454415588e+01,0.000000000000e+00
135,-4.939339828220e-01,3.247454415588e+01,2.000000000000e+00
136,1.500000000000e-01,3.496400000000e+01,2.000000000000e+00
137,7.060660171780e-01,3.747454415588e+01,2.000000000000e+00
138,4.939339828220e-01,3.247454415588e+01,2.000000000000e+00
139,-1.500000000000e-01,3.496400000000e+01,2.000000000000e+00
140,-7.060660171780e-01,3.747454415588e+01,2.000000000000e+00
141,-1.200000000000e+00,4.252121320344e+01,3.939339828220e-01
142,-1.200000000000e+00,4.503000000000e+01,8.500000000000e-01
143,-1.200000000000e+00,4.752121320344e+01,1.393933982822e+00
144,-1.200000000000e+00,4.252121320344e+01,1.606066017178e+00
145,-1.200000000000e+00,4.503000000000e+01,1.150000000000e+00
146,-1.200000000000e+00,4.752121320344e+01,6.060660171780e-01
147,1.200000000000e+00,4.252121320344e+01,3.939339828220e-01
148,1.200000000000e+00,4.503000000000e+01,8.500000000000e-01
149,1.200000000000e+00,4.752121320344e+01,1.393933982822e+00
150,1.200000000000e+00,4.252121320344e+01,1.606066017178e+00
151,1.200000000000e+00,4.503000000000e+01,1.150000000000e+00
152,1.200000000000e+00,4.752121320344e+01,6.060660171780e-01
153,-4.939339828220e-01,4.247454415588e+01,0.000000000000e+00
154,1.500000000000e-01,4.496400000000e+01,0.000000000000e+00
155,7.060660171780e-01,4.747454415588e+01,0.000000000000e+00
156,4.939339828220e-01,4.247454415588e+01,0.000000000000e+00
157,-1.500000000000e-01,4.496400000000e+01,0.000000000000e+00
158,-7.060660171780e-01,4.747454415588e+01,0.000000000000e+00
159,-4.939339828220e-01,4.247454415588e+01,2.000000000000e+00
160,1.500000000000e-01,4.496400000000e+01,2.000000000000e+00
161,7.060660171780e-01,4.747454415588e+01,2.000000000000e+00
162,4.939339828220e-01,4.247454415588e+01,2.000000000000e+00
163,-1.500000000000e-01,4.496400000000e+01,2.000000000000e+00
164,-7.060660171780e-01,4.747454415588e+01,2.000000000000e+00
*ELEMENT,TYPE=B31,ELSET=ALL
1,1,25
2,25,5
3,2,26
4,26,6
5,3,27
6,27,7
7,4,28
8,28,8
9,5,29
10,29,9
11,6,30
12,30,10
13,7,31
14,31,11
15,8,32
16,32,12
17,9,13
18,10,14
19,11,15
20,12,16
21,13,33
22,33,34
23,34,35
24,35,17
25,14,36
26,36,37
27,37,38
28,38,18
29,15,39
30,39,40
31,40,41
32,41,19
33,16,42
34,42,43
35,43,44
36,44,20
37,17,21
38,18,22
39,19,23
40,20,24
41,1,45
42,45,2
43,3,46
44,46,4
45,1,47
46,47,3
47,2,48
48,48,4
49,5,49
50,49,6
51,7,50
52,50,8
53,5,51
54,51,7
55,6,52
56,52,8
57,9,53
58,53,54
59,54,55
60,55,10
61,11,56
62,56,57
63,57,58
64,58,12
65,9,59
66,59,60
67,60,61
68,61,11
69,10,62
70,62,63
71,63,64
72,64,12
73,13,65
74,65,14
75,15,66
76,66,16
77,13,67
78,67,15
79,14,68
80,68,16
81,17,69
82,69,18
83,19,70
84,70,20
85,17,71
86,71,19
87,18,72
88,72,20
89,21,73
90,73,22
91,23,74
92,74,24
93,21,75
94,75,23
95,22,76
96,76,24
97,1,77
98,77,7
99,3,78
100,78,5
101,2,79
102,79,8
103,4,80
104,80,6
105,1,81
106,81,6
107,2,82
108,82,5
109,3,83
110,83,8
111,4,84
112,84,7
113,5,85
114,85,11
115,7,86
116,86,9
117,6,87
118,87,12
119,8,88
120,88,10
121,5,89
122,89,10
123,6,90
124,90,9
125,7,91
126,91,12
127,8,92
128,92,11
129,9,93
130,93,94
131,94,95
132,95,15
133,11,96
134,96,97
135,97,98
136,98,13
137,10,99
138,99,100
139,100,101
140,101,16
141,12,102
142,102,103
143,103,104
144,104,14
145,9,105
146,105,106
147,106,107
148,107,14
149,10,108
150,108,109
151,109,110
152,110,13
153,11,111
154,111,112
155,112,113
156,113,16
157,12,114
158,114,115
159,115,116
160,116,15
161,13,117
162,117,118
163,118,119
164,119,19
165,15,120
166,120,121
167,121,122
168,122,17
169,14,123
170,123,124
171,124,125
172,125,20
173,16,126
174,126,127
175,127,128
176,128,18
177,13,129
178,129,130
179,130,131
180,131,18
181,14,132
182,132,133
183,133,134
184,134,17
185,15,135
186,135,136
187,136,137
188,137,20
189,16,138
190,138,139
191,139,140
192,140,19
193,17,141
194,141,142
195,142,143
196,143,23
197,19,144
198,144,145
199,145,146
200,146,21
201,18,147
202,147,148
203,148,149
204,149,24
205,20,150
206,150,151
207,151,152
208,152,22
209,17,153
210,153,154
211,154,155
212,155,22
213,18,156
214,156,157
215,157,158
216,158,21
217,19,159
218,159,160
219,160,161
220,161,24
221,20,162
222,162,163
223,163,164
224,164,23
*NSET,NSET=NALL,GENERATE
1,164,1
*NSET,NSET=LEFT
1,2,3,4
*NSET,NSET=RIGHT
21,22,23,24
*MATERIAL,NAME=STEEL
*ELASTIC
2.100000000000e+11,0.300000000000
*BEAM SECTION,ELSET=ALL,MATERIAL=STEEL,SECTION=RECT
6.000000000000e-02,4.000000000000e-02
0.371390676354,0.557086014531,0.742781352708
*BOUNDARY
LEFT,1,6,0.0
*STEP
*STATIC
*BOUNDARY
21,1,1,5.000000000000e-03
21,2,2,0.0
21,3,3,-6.000000000000e-03
*BOUNDARY
22,1,1,5.000000000000e-03
22,2,2,0.0
22,3,3,6.000000000000e-03
*BOUNDARY
23,1,1,-5.000000000000e-03
23,2,2,0.0
23,3,3,-6.000000000000e-03
*BOUNDARY
24,1,1,-5.000000000000e-03
24,2,2,0.0
24,3,3,6.000000000000e-03
*NODE FILE,NSET=NALL
U
*NODE PRINT,NSET=NALL
U
*NODE PRINT,NSET=RIGHT
RF
*EL PRINT,ELSET=ALL,TOTALS=YES
ELSE
*END STEP
