*HEADING
Normalized cross-passage space-truss torsion benchmark
*NODE
1,-1.200000000000e+00,0.000000000000e+00,0.000000000000e+00
2,1.200000000000e+00,0.000000000000e+00,0.000000000000e+00
3,-1.200000000000e+00,0.000000000000e+00,2.000000000000e+00
4,1.200000000000e+00,0.000000000000e+00,2.000000000000e+00
5,-1.200000000000e+00,1.000000000000e+01,0.000000000000e+00
6,1.200000000000e+00,1.000000000000e+01,0.000000000000e+00
7,-1.200000000000e+00,1.000000000000e+01,2.000000000000e+00
8,1.200000000000e+00,1.000000000000e+01,2.000000000000e+00
9,-1.200000000000e+00,2.000000000000e+01,0.000000000000e+00
10,1.200000000000e+00,2.000000000000e+01,0.000000000000e+00
11,-1.200000000000e+00,2.000000000000e+01,2.000000000000e+00
12,1.200000000000e+00,2.000000000000e+01,2.000000000000e+00
13,-1.200000000000e+00,3.000000000000e+01,0.000000000000e+00
14,1.200000000000e+00,3.000000000000e+01,0.000000000000e+00
15,-1.200000000000e+00,3.000000000000e+01,2.000000000000e+00
16,1.200000000000e+00,3.000000000000e+01,2.000000000000e+00
17,-1.200000000000e+00,4.000000000000e+01,0.000000000000e+00
18,1.200000000000e+00,4.000000000000e+01,0.000000000000e+00
19,-1.200000000000e+00,4.000000000000e+01,2.000000000000e+00
20,1.200000000000e+00,4.000000000000e+01,2.000000000000e+00
21,-1.200000000000e+00,5.000000000000e+01,0.000000000000e+00
22,1.200000000000e+00,5.000000000000e+01,0.000000000000e+00
23,-1.200000000000e+00,5.000000000000e+01,2.000000000000e+00
24,1.200000000000e+00,5.000000000000e+01,2.000000000000e+00
25,-1.200000000000e+00,5.000000000000e+00,-1.500000000000e-01
26,1.200000000000e+00,5.000000000000e+00,1.500000000000e-01
27,-1.200000000000e+00,5.000000000000e+00,1.850000000000e+00
28,1.200000000000e+00,5.000000000000e+00,2.150000000000e+00
29,-1.200000000000e+00,1.500000000000e+01,-1.500000000000e-01
30,1.200000000000e+00,1.500000000000e+01,1.500000000000e-01
31,-1.200000000000e+00,1.500000000000e+01,1.850000000000e+00
32,1.200000000000e+00,1.500000000000e+01,2.150000000000e+00
33,-1.200000000000e+00,2.500000000000e+01,-1.500000000000e-01
34,1.200000000000e+00,2.500000000000e+01,1.500000000000e-01
35,-1.200000000000e+00,2.500000000000e+01,1.850000000000e+00
36,1.200000000000e+00,2.500000000000e+01,2.150000000000e+00
37,-1.200000000000e+00,3.500000000000e+01,-1.500000000000e-01
38,1.200000000000e+00,3.500000000000e+01,1.500000000000e-01
39,-1.200000000000e+00,3.500000000000e+01,1.850000000000e+00
40,1.200000000000e+00,3.500000000000e+01,2.150000000000e+00
41,-1.200000000000e+00,4.500000000000e+01,-1.500000000000e-01
42,1.200000000000e+00,4.500000000000e+01,1.500000000000e-01
43,-1.200000000000e+00,4.500000000000e+01,1.850000000000e+00
44,1.200000000000e+00,4.500000000000e+01,2.150000000000e+00
45,0.000000000000e+00,-3.600000000000e-02,0.000000000000e+00
46,0.000000000000e+00,3.600000000000e-02,2.000000000000e+00
47,-1.200000000000e+00,3.000000000000e-02,1.000000000000e+00
48,1.200000000000e+00,-3.000000000000e-02,1.000000000000e+00
49,0.000000000000e+00,9.964000000000e+00,0.000000000000e+00
50,0.000000000000e+00,1.003600000000e+01,2.000000000000e+00
51,-1.200000000000e+00,1.003000000000e+01,1.000000000000e+00
52,1.200000000000e+00,9.970000000000e+00,1.000000000000e+00
53,0.000000000000e+00,1.996400000000e+01,0.000000000000e+00
54,0.000000000000e+00,2.003600000000e+01,2.000000000000e+00
55,-1.200000000000e+00,2.003000000000e+01,1.000000000000e+00
56,1.200000000000e+00,1.997000000000e+01,1.000000000000e+00
57,0.000000000000e+00,2.996400000000e+01,0.000000000000e+00
58,0.000000000000e+00,3.003600000000e+01,2.000000000000e+00
59,-1.200000000000e+00,3.003000000000e+01,1.000000000000e+00
60,1.200000000000e+00,2.997000000000e+01,1.000000000000e+00
61,0.000000000000e+00,3.996400000000e+01,0.000000000000e+00
62,0.000000000000e+00,4.003600000000e+01,2.000000000000e+00
63,-1.200000000000e+00,4.003000000000e+01,1.000000000000e+00
64,1.200000000000e+00,3.997000000000e+01,1.000000000000e+00
65,0.000000000000e+00,4.996400000000e+01,0.000000000000e+00
66,0.000000000000e+00,5.003600000000e+01,2.000000000000e+00
67,-1.200000000000e+00,5.003000000000e+01,1.000000000000e+00
68,1.200000000000e+00,4.997000000000e+01,1.000000000000e+00
69,-1.200000000000e+00,5.030000000000e+00,8.500000000000e-01
70,-1.200000000000e+00,5.030000000000e+00,1.150000000000e+00
71,1.200000000000e+00,5.030000000000e+00,8.500000000000e-01
72,1.200000000000e+00,5.030000000000e+00,1.150000000000e+00
73,1.500000000000e-01,4.964000000000e+00,0.000000000000e+00
74,-1.500000000000e-01,4.964000000000e+00,0.000000000000e+00
75,1.500000000000e-01,4.964000000000e+00,2.000000000000e+00
76,-1.500000000000e-01,4.964000000000e+00,2.000000000000e+00
77,-1.200000000000e+00,1.503000000000e+01,8.500000000000e-01
78,-1.200000000000e+00,1.503000000000e+01,1.150000000000e+00
79,1.200000000000e+00,1.503000000000e+01,8.500000000000e-01
80,1.200000000000e+00,1.503000000000e+01,1.150000000000e+00
81,1.500000000000e-01,1.496400000000e+01,0.000000000000e+00
82,-1.500000000000e-01,1.496400000000e+01,0.000000000000e+00
83,1.500000000000e-01,1.496400000000e+01,2.000000000000e+00
84,-1.500000000000e-01,1.496400000000e+01,2.000000000000e+00
85,-1.200000000000e+00,2.503000000000e+01,8.500000000000e-01
86,-1.200000000000e+00,2.503000000000e+01,1.150000000000e+00
87,1.200000000000e+00,2.503000000000e+01,8.500000000000e-01
88,1.200000000000e+00,2.503000000000e+01,1.150000000000e+00
89,1.500000000000e-01,2.496400000000e+01,0.000000000000e+00
90,-1.500000000000e-01,2.496400000000e+01,0.000000000000e+00
91,1.500000000000e-01,2.496400000000e+01,2.000000000000e+00
92,-1.500000000000e-01,2.496400000000e+01,2.000000000000e+00
93,-1.200000000000e+00,3.126148050297e+01,1.925974851452e-01
94,-1.200000000000e+00,3.252121320344e+01,3.939339828220e-01
95,-1.200000000000e+00,3.377771638598e+01,6.114180701233e-01
96,-1.200000000000e+00,3.503000000000e+01,8.500000000000e-01
97,-1.200000000000e+00,3.627771638598e+01,1.111418070123e+00
98,-1.200000000000e+00,3.752121320344e+01,1.393933982822e+00
99,-1.200000000000e+00,3.876148050297e+01,1.692597485145e+00
100,-1.200000000000e+00,3.126148050297e+01,1.807402514855e+00
101,-1.200000000000e+00,3.252121320344e+01,1.606066017178e+00
102,-1.200000000000e+00,3.377771638598e+01,1.388581929877e+00
103,-1.200000000000e+00,3.503000000000e+01,1.150000000000e+00
104,-1.200000000000e+00,3.627771638598e+01,8.885819298767e-01
105,-1.200000000000e+00,3.752121320344e+01,6.060660171780e-01
106,-1.200000000000e+00,3.876148050297e+01,3.074025148548e-01
107,1.200000000000e+00,3.126148050297e+01,1.925974851452e-01
108,1.200000000000e+00,3.252121320344e+01,3.939339828220e-01
109,1.200000000000e+00,3.377771638598e+01,6.114180701233e-01
110,1.200000000000e+00,3.503000000000e+01,8.500000000000e-01
111,1.200000000000e+00,3.627771638598e+01,1.111418070123e+00
112,1.200000000000e+00,3.752121320344e+01,1.393933982822e+00
113,1.200000000000e+00,3.876148050297e+01,1.692597485145e+00
114,1.200000000000e+00,3.126148050297e+01,1.807402514855e+00
115,1.200000000000e+00,3.252121320344e+01,1.606066017178e+00
116,1.200000000000e+00,3.377771638598e+01,1.388581929877e+00
117,1.200000000000e+00,3.503000000000e+01,1.150000000000e+00
118,1.200000000000e+00,3.627771638598e+01,8.885819298767e-01
119,1.200000000000e+00,3.752121320344e+01,6.060660171780e-01
120,1.200000000000e+00,3.876148050297e+01,3.074025148548e-01
121,-8.425974851452e-01,3.123622339643e+01,0.000000000000e+00
122,-4.939339828220e-01,3.247454415588e+01,0.000000000000e+00
123,-1.614180701233e-01,3.371674033683e+01,0.000000000000e+00
124,1.500000000000e-01,3.496400000000e+01,0.000000000000e+00
125,4.385819298767e-01,3.621674033683e+01,0.000000000000e+00
126,7.060660171780e-01,3.747454415588e+01,0.000000000000e+00
127,9.574025148548e-01,3.873622339643e+01,0.000000000000e+00
128,8.425974851452e-01,3.123622339643e+01,0.000000000000e+00
129,4.939339828220e-01,3.247454415588e+01,0.000000000000e+00
130,1.614180701233e-01,3.371674033683e+01,0.000000000000e+00
131,-1.500000000000e-01,3.496400000000e+01,0.000000000000e+00
132,-4.385819298767e-01,3.621674033683e+01,0.000000000000e+00
133,-7.060660171780e-01,3.747454415588e+01,0.000000000000e+00
134,-9.574025148548e-01,3.873622339643e+01,0.000000000000e+00
135,-8.425974851452e-01,3.123622339643e+01,2.000000000000e+00
136,-4.939339828220e-01,3.247454415588e+01,2.000000000000e+00
137,-1.614180701233e-01,3.371674033683e+01,2.000000000000e+00
138,1.500000000000e-01,3.496400000000e+01,2.000000000000e+00
139,4.385819298767e-01,3.621674033683e+01,2.000000000000e+00
140,7.060660171780e-01,3.747454415588e+01,2.000000000000e+00
141,9.574025148548e-01,3.873622339643e+01,2.000000000000e+00
142,8.425974851452e-01,3.123622339643e+01,2.000000000000e+00
143,4.939339828220e-01,3.247454415588e+01,2.000000000000e+00
144,1.614180701233e-01,3.371674033683e+01,2.000000000000e+00
145,-1.500000000000e-01,3.496400000000e+01,2.000000000000e+00
146,-4.385819298767e-01,3.621674033683e+01,2.000000000000e+00
147,-7.060660171780e-01,3.747454415588e+01,2.000000000000e+00
148,-9.574025148548e-01,3.873622339643e+01,2.000000000000e+00
149,-1.200000000000e+00,4.503000000000e+01,8.500000000000e-01
150,-1.200000000000e+00,4.503000000000e+01,1.150000000000e+00
151,1.200000000000e+00,4.503000000000e+01,8.500000000000e-01
152,1.200000000000e+00,4.503000000000e+01,1.150000000000e+00
153,1.500000000000e-01,4.496400000000e+01,0.000000000000e+00
154,-1.500000000000e-01,4.496400000000e+01,0.000000000000e+00
155,1.500000000000e-01,4.496400000000e+01,2.000000000000e+00
156,-1.500000000000e-01,4.496400000000e+01,2.000000000000e+00
*ELEMENT,TYPE=B31,ELSET=ALL
1,1,25
2,25,5
3,2,26
4,26,6
5,3,27
6,27,7
7,4,28
8,28,8
9,5,29
10,29,9
11,6,30
12,30,10
13,7,31
14,31,11
15,8,32
16,32,12
17,9,33
18,33,13
19,10,34
20,34,14
21,11,35
22,35,15
23,12,36
24,36,16
25,13,37
26,37,17
27,14,38
28,38,18
29,15,39
30,39,19
31,16,40
32,40,20
33,17,41
34,41,21
35,18,42
36,42,22
37,19,43
38,43,23
39,20,44
40,44,24
41,1,45
42,45,2
43,3,46
44,46,4
45,1,47
46,47,3
47,2,48
48,48,4
49,5,49
50,49,6
51,7,50
52,50,8
53,5,51
54,51,7
55,6,52
56,52,8
57,9,53
58,53,10
59,11,54
60,54,12
61,9,55
62,55,11
63,10,56
64,56,12
65,13,57
66,57,14
67,15,58
68,58,16
69,13,59
70,59,15
71,14,60
72,60,16
73,17,61
74,61,18
75,19,62
76,62,20
77,17,63
78,63,19
79,18,64
80,64,20
81,21,65
82,65,22
83,23,66
84,66,24
85,21,67
86,67,23
87,22,68
88,68,24
89,1,69
90,69,7
91,3,70
92,70,5
93,2,71
94,71,8
95,4,72
96,72,6
97,1,73
98,73,6
99,2,74
100,74,5
101,3,75
102,75,8
103,4,76
104,76,7
105,5,77
106,77,11
107,7,78
108,78,9
109,6,79
110,79,12
111,8,80
112,80,10
113,5,81
114,81,10
115,6,82
116,82,9
117,7,83
118,83,12
119,8,84
120,84,11
121,9,85
122,85,15
123,11,86
124,86,13
125,10,87
126,87,16
127,12,88
128,88,14
129,9,89
130,89,14
131,10,90
132,90,13
133,11,91
134,91,16
135,12,92
136,92,15
137,13,93
138,93,94
139,94,95
140,95,96
141,96,97
142,97,98
143,98,99
144,99,19
145,15,100
146,100,101
147,101,102
148,102,103
149,103,104
150,104,105
151,105,106
152,106,17
153,14,107
154,107,108
155,108,109
156,109,110
157,110,111
158,111,112
159,112,113
160,113,20
161,16,114
162,114,115
163,115,116
164,116,117
165,117,118
166,118,119
167,119,120
168,120,18
169,13,121
170,121,122
171,122,123
172,123,124
173,124,125
174,125,126
175,126,127
176,127,18
177,14,128
178,128,129
179,129,130
180,130,131
181,131,132
182,132,133
183,133,134
184,134,17
185,15,135
186,135,136
187,136,137
188,137,138
189,138,139
190,139,140
191,140,141
192,141,20
193,16,142
194,142,143
195,143,144
196,144,145
197,145,146
198,146,147
199,147,148
200,148,19
201,17,149
202,149,23
203,19,150
204,150,21
205,18,151
206,151,24
207,20,152
208,152,22
209,17,153
210,153,22
211,18,154
212,154,21
213,19,155
214,155,24
215,20,156
216,156,23
*NSET,NSET=NALL,GENERATE
1,156,1
*NSET,NSET=LEFT
1,2,3,4
*NSET,NSET=RIGHT
21,22,23,24
*MATERIAL,NAME=STEEL
*ELASTIC
2.100000000000e+11,0.300000000000
*BEAM SECTION,ELSET=ALL,MATERIAL=STEEL,SECTION=RECT
6.000000000000e-02,4.000000000000e-02
0.371390676354,0.557086014531,0.742781352708
*BOUNDARY
LEFT,1,6,0.0
*STEP
*STATIC
*BOUNDARY
21,1,1,5.000000000000e-03
21,2,2,0.0
21,3,3,-6.000000000000e-03
*BOUNDARY
22,1,1,5.000000000000e-03
22,2,2,0.0
22,3,3,6.000000000000e-03
*BOUNDARY
23,1,1,-5.000000000000e-03
23,2,2,0.0
23,3,3,-6.000000000000e-03
*BOUNDARY
24,1,1,-5.000000000000e-03
24,2,2,0.0
24,3,3,6.000000000000e-03
*NODE FILE,NSET=NALL
U
*NODE PRINT,NSET=NALL
U
*NODE PRINT,NSET=RIGHT
RF
*EL PRINT,ELSET=ALL,TOTALS=YES
ELSE
*END STEP
