*HEADING
R8 tip_flange h-branch ccx vs in-process
local Dirichlet problem; displacements on the cut from the global FE solution
*NODE, NSET=NALL
1, 1777.77777778, 0, 150
2, 1777.77777778, 0, 155
3, 1777.77777778, 0, 160
4, 1777.77777778, 5, 150
5, 1777.77777778, 5, 155
6, 1777.77777778, 5, 160
7, 1777.77777778, 10, 150
8, 1777.77777778, 10, 155
9, 1777.77777778, 10, 160
10, 1833.33333333, 0, 150
11, 1833.33333333, 0, 155
12, 1833.33333333, 0, 160
13, 1833.33333333, 5, 150
14, 1833.33333333, 5, 155
15, 1833.33333333, 5, 160
16, 1833.33333333, 10, 150
17, 1833.33333333, 10, 155
18, 1833.33333333, 10, 160
19, 1888.88888889, 0, 150
20, 1888.88888889, 0, 155
21, 1888.88888889, 0, 160
22, 1888.88888889, 5, 150
23, 1888.88888889, 5, 155
24, 1888.88888889, 5, 160
25, 1888.88888889, 10, 150
26, 1888.88888889, 10, 155
27, 1888.88888889, 10, 160
28, 1888.88888889, -10, 150
29, 1888.88888889, -10, 155
30, 1888.88888889, -10, 160
31, 1888.88888889, -5, 150
32, 1888.88888889, -5, 155
33, 1888.88888889, -5, 160
34, 1944.44444444, -10, 150
35, 1944.44444444, -10, 155
36, 1944.44444444, -10, 160
37, 1944.44444444, -5, 150
38, 1944.44444444, -5, 155
39, 1944.44444444, -5, 160
40, 1944.44444444, 0, 150
41, 1944.44444444, 0, 155
42, 1944.44444444, 0, 160
43, 2000, -10, 150
44, 2000, -10, 155
45, 2000, -10, 160
46, 2000, -5, 150
47, 2000, -5, 155
48, 2000, -5, 160
49, 2000, 0, 150
50, 2000, 0, 155
51, 2000, 0, 160
52, 1888.88888889, 0, 140
53, 1888.88888889, 0, 145
54, 1888.88888889, 5, 140
55, 1888.88888889, 5, 145
56, 1888.88888889, 10, 140
57, 1888.88888889, 10, 145
58, 1944.44444444, 0, 140
59, 1944.44444444, 0, 145
60, 1944.44444444, 5, 140
61, 1944.44444444, 5, 145
62, 1944.44444444, 5, 150
63, 1944.44444444, 10, 140
64, 1944.44444444, 10, 145
65, 1944.44444444, 10, 150
66, 2000, 0, 140
67, 2000, 0, 145
68, 2000, 5, 140
69, 2000, 5, 145
70, 2000, 5, 150
71, 2000, 10, 140
72, 2000, 10, 145
73, 2000, 10, 150
74, 1944.44444444, 5, 155
75, 1944.44444444, 5, 160
76, 1944.44444444, 10, 155
77, 1944.44444444, 10, 160
78, 2000, 5, 155
79, 2000, 5, 160
80, 2000, 10, 155
81, 2000, 10, 160
82, 1888.88888889, 23.75, 150
83, 1888.88888889, 23.75, 155
84, 1888.88888889, 23.75, 160
85, 1888.88888889, 37.5, 150
86, 1888.88888889, 37.5, 155
87, 1888.88888889, 37.5, 160
88, 1944.44444444, 23.75, 150
89, 1944.44444444, 23.75, 155
90, 1944.44444444, 23.75, 160
91, 1944.44444444, 37.5, 150
92, 1944.44444444, 37.5, 155
93, 1944.44444444, 37.5, 160
94, 2000, 23.75, 150
95, 2000, 23.75, 155
96, 2000, 23.75, 160
97, 2000, 37.5, 150
98, 2000, 37.5, 155
99, 2000, 37.5, 160
*ELEMENT, TYPE=C3D8, ELSET=EALL
1, 1, 10, 13, 4, 2, 11, 14, 5
2, 2, 11, 14, 5, 3, 12, 15, 6
3, 4, 13, 16, 7, 5, 14, 17, 8
4, 5, 14, 17, 8, 6, 15, 18, 9
5, 10, 19, 22, 13, 11, 20, 23, 14
6, 11, 20, 23, 14, 12, 21, 24, 15
7, 13, 22, 25, 16, 14, 23, 26, 17
8, 14, 23, 26, 17, 15, 24, 27, 18
9, 28, 34, 37, 31, 29, 35, 38, 32
10, 29, 35, 38, 32, 30, 36, 39, 33
11, 31, 37, 40, 19, 32, 38, 41, 20
12, 32, 38, 41, 20, 33, 39, 42, 21
13, 34, 43, 46, 37, 35, 44, 47, 38
14, 35, 44, 47, 38, 36, 45, 48, 39
15, 37, 46, 49, 40, 38, 47, 50, 41
16, 38, 47, 50, 41, 39, 48, 51, 42
17, 52, 58, 60, 54, 53, 59, 61, 55
18, 53, 59, 61, 55, 19, 40, 62, 22
19, 54, 60, 63, 56, 55, 61, 64, 57
20, 55, 61, 64, 57, 22, 62, 65, 25
21, 58, 66, 68, 60, 59, 67, 69, 61
22, 59, 67, 69, 61, 40, 49, 70, 62
23, 60, 68, 71, 63, 61, 69, 72, 64
24, 61, 69, 72, 64, 62, 70, 73, 65
25, 19, 40, 62, 22, 20, 41, 74, 23
26, 20, 41, 74, 23, 21, 42, 75, 24
27, 22, 62, 65, 25, 23, 74, 76, 26
28, 23, 74, 76, 26, 24, 75, 77, 27
29, 40, 49, 70, 62, 41, 50, 78, 74
30, 41, 50, 78, 74, 42, 51, 79, 75
31, 62, 70, 73, 65, 74, 78, 80, 76
32, 74, 78, 80, 76, 75, 79, 81, 77
33, 25, 65, 88, 82, 26, 76, 89, 83
34, 26, 76, 89, 83, 27, 77, 90, 84
35, 82, 88, 91, 85, 83, 89, 92, 86
36, 83, 89, 92, 86, 84, 90, 93, 87
37, 65, 73, 94, 88, 76, 80, 95, 89
38, 76, 80, 95, 89, 77, 81, 96, 90
39, 88, 94, 97, 91, 89, 95, 98, 92
40, 89, 95, 98, 92, 90, 96, 99, 93
*NSET, NSET=BDRY
1, 2, 3, 4, 5, 6, 7, 8, 9, 10, 11, 12, 13, 15, 16, 17
18, 19, 20, 21, 22, 24, 25, 26, 27, 28, 29, 30, 31, 32, 33, 34
35, 36, 37, 39, 40, 42, 43, 44, 45, 46, 47, 48, 49, 50, 51, 52
53, 54, 55, 56, 57, 58, 59, 60, 63, 64, 65, 66, 67, 68, 69, 70
71, 72, 73, 75, 77, 78, 79, 80, 81, 82, 83, 84, 85, 86, 87, 88
90, 91, 92, 93, 94, 95, 96, 97, 98, 99
*NSET, NSET=FREE
14, 23, 38, 41, 61, 62, 74, 76, 89
*MATERIAL, NAME=STEEL
*ELASTIC
210000, 0.3
*SOLID SECTION, ELSET=EALL, MATERIAL=STEEL
*BOUNDARY
1, 1, 1, 0.0721903
1, 2, 2, 1.279e-11
1, 3, 3, -2.76993
2, 1, 1, 0.08448145
2, 2, 2, 1.57394e-11
2, 3, 3, -2.76995
3, 1, 1, 0.0967726
3, 2, 2, 1.86888e-11
3, 3, 3, -2.76997
4, 1, 1, 0.0721754
4, 2, 2, -1.0901843605e-05
4, 3, 3, -2.76993
5, 1, 1, 0.0844685
5, 2, 2, -9.3145921303e-06
5, 3, 3, -2.7699475
6, 1, 1, 0.0967616
6, 2, 2, -7.7273406556e-06
6, 3, 3, -2.769965
7, 1, 1, 0.0721605
7, 2, 2, -2.18037e-05
7, 3, 3, -2.76993
8, 1, 1, 0.08445555
8, 2, 2, -1.86292e-05
8, 3, 3, -2.769945
9, 1, 1, 0.0967506
9, 2, 2, -1.54547e-05
9, 3, 3, -2.76996
10, 1, 1, 0.0725035
10, 2, 2, 1.33616e-11
10, 3, 3, -2.90732
11, 1, 1, 0.08485465
11, 2, 2, 1.638915e-11
11, 3, 3, -2.9073375
12, 1, 1, 0.0972058
12, 2, 2, 1.94167e-11
12, 3, 3, -2.907355
13, 1, 1, 0.07248805
13, 2, 2, -6.0626858192e-06
13, 3, 3, -2.9073325
15, 1, 1, 0.097195225
15, 2, 2, 3.60735847084e-05
15, 3, 3, -2.90737
16, 1, 1, 0.0724726
16, 2, 2, -1.2125385e-05
16, 3, 3, -2.907345
17, 1, 1, 0.084828625
17, 2, 2, 3.00108825e-05
17, 3, 3, -2.907365
18, 1, 1, 0.09718465
18, 2, 2, 7.214715e-05
18, 3, 3, -2.907385
19, 1, 1, 0.0728167
19, 2, 2, 1.39332e-11
19, 3, 3, -3.04471
20, 1, 1, 0.08522785
20, 2, 2, 1.70389e-11
20, 3, 3, -3.044725
21, 1, 1, 0.097639
21, 2, 2, 2.01446e-11
21, 3, 3, -3.04474
22, 1, 1, 0.0728007
22, 2, 2, -1.2235280334e-06
22, 3, 3, -3.044735
24, 1, 1, 0.09762885
24, 2, 2, 7.98745100723e-05
24, 3, 3, -3.044775
25, 1, 1, 0.0727847
25, 2, 2, -2.44707e-06
25, 3, 3, -3.04476
26, 1, 1, 0.0852017
26, 2, 2, 7.8650965e-05
26, 3, 3, -3.044785
27, 1, 1, 0.0976187
27, 2, 2, 0.000159749
27, 3, 3, -3.04481
28, 1, 1, 0.0727847
28, 2, 2, 2.4471e-06
28, 3, 3, -3.04476
29, 1, 1, 0.0852017
29, 2, 2, -7.865095e-05
29, 3, 3, -3.044785
30, 1, 1, 0.0976187
30, 2, 2, -0.000159749
30, 3, 3, -3.04481
31, 1, 1, 0.0728007
31, 2, 2, 1.2235569666e-06
31, 3, 3, -3.044735
32, 1, 1, 0.085214775
32, 2, 2, -3.93254664805e-05
32, 3, 3, -3.044755
33, 1, 1, 0.09762885
33, 2, 2, -7.98744899277e-05
33, 3, 3, -3.044775
34, 1, 1, 0.0729074
34, 2, 2, -6.357995e-05
34, 3, 3, -3.18287
35, 1, 1, 0.085327225
35, 2, 2, -0.000231560725
35, 3, 3, -3.1829275
36, 1, 1, 0.09774705
36, 2, 2, -0.0003995415
36, 3, 3, -3.182985
37, 1, 1, 0.072921125
37, 2, 2, -3.17899677561e-05
37, 3, 3, -3.182805
39, 1, 1, 0.097752625
39, 2, 2, -0.000199770739587
39, 3, 3, -3.1829225
40, 1, 1, 0.07293485
40, 2, 2, 1.44879e-11
40, 3, 3, -3.18274
42, 1, 1, 0.0977582
42, 2, 2, 2.08256e-11
42, 3, 3, -3.18286
43, 1, 1, 0.0730301
43, 2, 2, -0.000129607
43, 3, 3, -3.32098
44, 1, 1, 0.08545275
44, 2, 2, -0.0003844705
44, 3, 3, -3.32107
45, 1, 1, 0.0978754
45, 2, 2, -0.000639334
45, 3, 3, -3.32116
46, 1, 1, 0.07304155
46, 2, 2, -6.48034924787e-05
46, 3, 3, -3.320875
47, 1, 1, 0.085458975
47, 2, 2, -0.000192235240863
47, 3, 3, -3.3209725
48, 1, 1, 0.0978764
48, 2, 2, -0.000319666989247
48, 3, 3, -3.32107
49, 1, 1, 0.073053
49, 2, 2, 1.50426e-11
49, 3, 3, -3.32077
50, 1, 1, 0.0854652
50, 2, 2, 1.82746e-11
50, 3, 3, -3.320875
51, 1, 1, 0.0978774
51, 2, 2, 2.15066e-11
51, 3, 3, -3.32098
52, 1, 1, 0.0480506
52, 2, 2, 7.71962e-12
52, 3, 3, -3.04475
53, 1, 1, 0.06043365
53, 2, 2, 1.082641e-11
53, 3, 3, -3.04473
54, 1, 1, 0.04802705
54, 2, 2, -4.46925461402e-05
54, 3, 3, -3.044765
55, 1, 1, 0.060413875
55, 2, 2, -2.29580370868e-05
55, 3, 3, -3.04475
56, 1, 1, 0.0480035
56, 2, 2, -8.93851e-05
56, 3, 3, -3.04478
57, 1, 1, 0.0603941
57, 2, 2, -4.5916085e-05
57, 3, 3, -3.04477
58, 1, 1, 0.04818115
58, 2, 2, 8.14849e-12
58, 3, 3, -3.182755
59, 1, 1, 0.060558
59, 2, 2, 1.1318195e-11
59, 3, 3, -3.1827475
60, 1, 1, 0.04815665
60, 2, 2, -6.75790209258e-05
60, 3, 3, -3.1828025
63, 1, 1, 0.04813215
63, 2, 2, -0.00013515805
63, 3, 3, -3.18285
64, 1, 1, 0.060519775
64, 2, 2, -3.57890425e-05
64, 3, 3, -3.18286
65, 1, 1, 0.0729074
65, 2, 2, 6.3579965e-05
65, 3, 3, -3.18287
66, 1, 1, 0.0483117
66, 2, 2, 8.57736e-12
66, 3, 3, -3.32076
67, 1, 1, 0.06068235
67, 2, 2, 1.180998e-11
67, 3, 3, -3.320765
68, 1, 1, 0.04828625
68, 2, 2, -9.04654957113e-05
68, 3, 3, -3.32084
69, 1, 1, 0.0606639
69, 2, 2, -1.2830994095e-05
69, 3, 3, -3.3208575
70, 1, 1, 0.07304155
70, 2, 2, 6.48035075213e-05
70, 3, 3, -3.320875
71, 1, 1, 0.0482608
71, 2, 2, -0.000180931
71, 3, 3, -3.32092
72, 1, 1, 0.06064545
72, 2, 2, -2.5662e-05
72, 3, 3, -3.32095
73, 1, 1, 0.0730301
73, 2, 2, 0.000129607
73, 3, 3, -3.32098
75, 1, 1, 0.097752625
75, 2, 2, 0.000199770760413
75, 3, 3, -3.1829225
77, 1, 1, 0.09774705
77, 2, 2, 0.0003995415
77, 3, 3, -3.182985
78, 1, 1, 0.085458975
78, 2, 2, 0.000192235259137
78, 3, 3, -3.3209725
79, 1, 1, 0.0978764
79, 2, 2, 0.000319667010753
79, 3, 3, -3.32107
80, 1, 1, 0.08545275
80, 2, 2, 0.0003844705
80, 3, 3, -3.32107
81, 1, 1, 0.0978754
81, 2, 2, 0.000639334
81, 3, 3, -3.32116
82, 1, 1, 0.0726617
82, 2, 2, -5.44076e-06
82, 3, 3, -3.045205
83, 1, 1, 0.08511405
83, 2, 2, 0.00015508487
83, 3, 3, -3.0452275
84, 1, 1, 0.0975664
84, 2, 2, 0.0003156105
84, 3, 3, -3.04525
85, 1, 1, 0.0725387
85, 2, 2, -8.43445e-06
85, 3, 3, -3.04565
86, 1, 1, 0.0850264
86, 2, 2, 0.000231518775
86, 3, 3, -3.04567
87, 1, 1, 0.0975141
87, 2, 2, 0.000471472
87, 3, 3, -3.04569
88, 1, 1, 0.072778825
88, 2, 2, 0.00011167562
88, 3, 3, -3.18383
90, 1, 1, 0.097712425
90, 2, 2, 0.00074202375
90, 3, 3, -3.1839175
91, 1, 1, 0.07265025
91, 2, 2, 0.000159771275
91, 3, 3, -3.18479
92, 1, 1, 0.085164025
92, 2, 2, 0.0006221386375
92, 3, 3, -3.18482
93, 1, 1, 0.0976778
93, 2, 2, 0.001084506
93, 3, 3, -3.18485
94, 1, 1, 0.07289595
94, 2, 2, 0.000228792
94, 3, 3, -3.322455
95, 1, 1, 0.0853772
95, 2, 2, 0.0006986145
95, 3, 3, -3.32252
96, 1, 1, 0.09785845
96, 2, 2, 0.001168437
96, 3, 3, -3.322585
97, 1, 1, 0.0727618
97, 2, 2, 0.000327977
97, 3, 3, -3.32393
98, 1, 1, 0.08530165
98, 2, 2, 0.0010127585
98, 3, 3, -3.32397
99, 1, 1, 0.0978415
99, 2, 2, 0.00169754
99, 3, 3, -3.32401
*STEP
*STATIC
*NODE FILE
U
*EL FILE
S, ENER
*EL PRINT, ELSET=EALL
ELSE
*ENERGY PRINT
*END STEP
