*HEADING
Normalized cross-passage space-truss torsion benchmark
*NODE
1,-1.200000000000e+00,0.000000000000e+00,0.000000000000e+00
2,1.200000000000e+00,0.000000000000e+00,0.000000000000e+00
3,-1.200000000000e+00,0.000000000000e+00,2.000000000000e+00
4,1.200000000000e+00,0.000000000000e+00,2.000000000000e+00
5,-1.200000000000e+00,1.000000000000e+01,0.000000000000e+00
6,1.200000000000e+00,1.000000000000e+01,0.000000000000e+00
7,-1.200000000000e+00,1.000000000000e+01,2.000000000000e+00
8,1.200000000000e+00,1.000000000000e+01,2.000000000000e+00
9,-1.200000000000e+00,2.000000000000e+01,0.000000000000e+00
10,1.200000000000e+00,2.000000000000e+01,0.000000000000e+00
11,-1.200000000000e+00,2.000000000000e+01,2.000000000000e+00
12,1.200000000000e+00,2.000000000000e+01,2.000000000000e+00
13,-1.200000000000e+00,3.000000000000e+01,0.000000000000e+00
14,1.200000000000e+00,3.000000000000e+01,0.000000000000e+00
15,-1.200000000000e+00,3.000000000000e+01,2.000000000000e+00
16,1.200000000000e+00,3.000000000000e+01,2.000000000000e+00
17,-1.200000000000e+00,4.000000000000e+01,0.000000000000e+00
18,1.200000000000e+00,4.000000000000e+01,0.000000000000e+00
19,-1.200000000000e+00,4.000000000000e+01,2.000000000000e+00
20,1.200000000000e+00,4.000000000000e+01,2.000000000000e+00
21,-1.200000000000e+00,5.000000000000e+01,0.000000000000e+00
22,1.200000000000e+00,5.000000000000e+01,0.000000000000e+00
23,-1.200000000000e+00,5.000000000000e+01,2.000000000000e+00
24,1.200000000000e+00,5.000000000000e+01,2.000000000000e+00
25,-1.200000000000e+00,5.000000000000e+00,-1.500000000000e-01
26,1.200000000000e+00,5.000000000000e+00,1.500000000000e-01
27,-1.200000000000e+00,5.000000000000e+00,1.850000000000e+00
28,1.200000000000e+00,5.000000000000e+00,2.150000000000e+00
29,-1.200000000000e+00,1.500000000000e+01,-1.500000000000e-01
30,1.200000000000e+00,1.500000000000e+01,1.500000000000e-01
31,-1.200000000000e+00,1.500000000000e+01,1.850000000000e+00
32,1.200000000000e+00,1.500000000000e+01,2.150000000000e+00
33,-1.200000000000e+00,2.500000000000e+01,-1.500000000000e-01
34,1.200000000000e+00,2.500000000000e+01,1.500000000000e-01
35,-1.200000000000e+00,2.500000000000e+01,1.850000000000e+00
36,1.200000000000e+00,2.500000000000e+01,2.150000000000e+00
37,-1.200000000000e+00,3.500000000000e+01,-1.500000000000e-01
38,1.200000000000e+00,3.500000000000e+01,1.500000000000e-01
39,-1.200000000000e+00,3.500000000000e+01,1.850000000000e+00
40,1.200000000000e+00,3.500000000000e+01,2.150000000000e+00
41,-1.200000000000e+00,4.500000000000e+01,-1.500000000000e-01
42,1.200000000000e+00,4.500000000000e+01,1.500000000000e-01
43,-1.200000000000e+00,4.500000000000e+01,1.850000000000e+00
44,1.200000000000e+00,4.500000000000e+01,2.150000000000e+00
45,0.000000000000e+00,-3.600000000000e-02,0.000000000000e+00
46,0.000000000000e+00,3.600000000000e-02,2.000000000000e+00
47,-1.200000000000e+00,3.000000000000e-02,1.000000000000e+00
48,1.200000000000e+00,-3.000000000000e-02,1.000000000000e+00
49,0.000000000000e+00,9.964000000000e+00,0.000000000000e+00
50,0.000000000000e+00,1.003600000000e+01,2.000000000000e+00
51,-1.200000000000e+00,1.003000000000e+01,1.000000000000e+00
52,1.200000000000e+00,9.970000000000e+00,1.000000000000e+00
53,-9.000000000000e-01,1.998622339643e+01,0.000000000000e+00
54,-6.000000000000e-01,1.997454415588e+01,0.000000000000e+00
55,-3.000000000000e-01,1.996674033683e+01,0.000000000000e+00
56,0.000000000000e+00,1.996400000000e+01,0.000000000000e+00
57,3.000000000000e-01,1.996674033683e+01,0.000000000000e+00
58,6.000000000000e-01,1.997454415588e+01,0.000000000000e+00
59,9.000000000000e-01,1.998622339643e+01,0.000000000000e+00
60,-9.000000000000e-01,2.001377660357e+01,2.000000000000e+00
61,-6.000000000000e-01,2.002545584412e+01,2.000000000000e+00
62,-3.000000000000e-01,2.003325966317e+01,2.000000000000e+00
63,0.000000000000e+00,2.003600000000e+01,2.000000000000e+00
64,3.000000000000e-01,2.003325966317e+01,2.000000000000e+00
65,6.000000000000e-01,2.002545584412e+01,2.000000000000e+00
66,9.000000000000e-01,2.001377660357e+01,2.000000000000e+00
67,-1.200000000000e+00,2.001148050297e+01,2.500000000000e-01
68,-1.200000000000e+00,2.002121320344e+01,5.000000000000e-01
69,-1.200000000000e+00,2.002771638598e+01,7.500000000000e-01
70,-1.200000000000e+00,2.003000000000e+01,1.000000000000e+00
71,-1.200000000000e+00,2.002771638598e+01,1.250000000000e+00
72,-1.200000000000e+00,2.002121320344e+01,1.500000000000e+00
73,-1.200000000000e+00,2.001148050297e+01,1.750000000000e+00
74,1.200000000000e+00,1.998851949703e+01,2.500000000000e-01
75,1.200000000000e+00,1.997878679656e+01,5.000000000000e-01
76,1.200000000000e+00,1.997228361402e+01,7.500000000000e-01
77,1.200000000000e+00,1.997000000000e+01,1.000000000000e+00
78,1.200000000000e+00,1.997228361402e+01,1.250000000000e+00
79,1.200000000000e+00,1.997878679656e+01,1.500000000000e+00
80,1.200000000000e+00,1.998851949703e+01,1.750000000000e+00
81,-9.000000000000e-01,2.998622339643e+01,0.000000000000e+00
82,-6.000000000000e-01,2.997454415588e+01,0.000000000000e+00
83,-3.000000000000e-01,2.996674033683e+01,0.000000000000e+00
84,0.000000000000e+00,2.996400000000e+01,0.000000000000e+00
85,3.000000000000e-01,2.996674033683e+01,0.000000000000e+00
86,6.000000000000e-01,2.997454415588e+01,0.000000000000e+00
87,9.000000000000e-01,2.998622339643e+01,0.000000000000e+00
88,-9.000000000000e-01,3.001377660357e+01,2.000000000000e+00
89,-6.000000000000e-01,3.002545584412e+01,2.000000000000e+00
90,-3.000000000000e-01,3.003325966317e+01,2.000000000000e+00
91,0.000000000000e+00,3.003600000000e+01,2.000000000000e+00
92,3.000000000000e-01,3.003325966317e+01,2.000000000000e+00
93,6.000000000000e-01,3.002545584412e+01,2.000000000000e+00
94,9.000000000000e-01,3.001377660357e+01,2.000000000000e+00
95,-1.200000000000e+00,3.001148050297e+01,2.500000000000e-01
96,-1.200000000000e+00,3.002121320344e+01,5.000000000000e-01
97,-1.200000000000e+00,3.002771638598e+01,7.500000000000e-01
98,-1.200000000000e+00,3.003000000000e+01,1.000000000000e+00
99,-1.200000000000e+00,3.002771638598e+01,1.250000000000e+00
100,-1.200000000000e+00,3.002121320344e+01,1.500000000000e+00
101,-1.200000000000e+00,3.001148050297e+01,1.750000000000e+00
102,1.200000000000e+00,2.998851949703e+01,2.500000000000e-01
103,1.200000000000e+00,2.997878679656e+01,5.000000000000e-01
104,1.200000000000e+00,2.997228361402e+01,7.500000000000e-01
105,1.200000000000e+00,2.997000000000e+01,1.000000000000e+00
106,1.200000000000e+00,2.997228361402e+01,1.250000000000e+00
107,1.200000000000e+00,2.997878679656e+01,1.500000000000e+00
108,1.200000000000e+00,2.998851949703e+01,1.750000000000e+00
109,-6.000000000000e-01,3.997454415588e+01,0.000000000000e+00
110,0.000000000000e+00,3.996400000000e+01,0.000000000000e+00
111,6.000000000000e-01,3.997454415588e+01,0.000000000000e+00
112,-6.000000000000e-01,4.002545584412e+01,2.000000000000e+00
113,0.000000000000e+00,4.003600000000e+01,2.000000000000e+00
114,6.000000000000e-01,4.002545584412e+01,2.000000000000e+00
115,-1.200000000000e+00,4.002121320344e+01,5.000000000000e-01
116,-1.200000000000e+00,4.003000000000e+01,1.000000000000e+00
117,-1.200000000000e+00,4.002121320344e+01,1.500000000000e+00
118,1.200000000000e+00,3.997878679656e+01,5.000000000000e-01
119,1.200000000000e+00,3.997000000000e+01,1.000000000000e+00
120,1.200000000000e+00,3.997878679656e+01,1.500000000000e+00
121,0.000000000000e+00,4.996400000000e+01,0.000000000000e+00
122,0.000000000000e+00,5.003600000000e+01,2.000000000000e+00
123,-1.200000000000e+00,5.003000000000e+01,1.000000000000e+00
124,1.200000000000e+00,4.997000000000e+01,1.000000000000e+00
125,-1.200000000000e+00,5.030000000000e+00,8.500000000000e-01
126,-1.200000000000e+00,5.030000000000e+00,1.150000000000e+00
127,1.200000000000e+00,5.030000000000e+00,8.500000000000e-01
128,1.200000000000e+00,5.030000000000e+00,1.150000000000e+00
129,1.500000000000e-01,4.964000000000e+00,0.000000000000e+00
130,-1.500000000000e-01,4.964000000000e+00,0.000000000000e+00
131,1.500000000000e-01,4.964000000000e+00,2.000000000000e+00
132,-1.500000000000e-01,4.964000000000e+00,2.000000000000e+00
133,-1.200000000000e+00,1.503000000000e+01,8.500000000000e-01
134,-1.200000000000e+00,1.503000000000e+01,1.150000000000e+00
135,1.200000000000e+00,1.503000000000e+01,8.500000000000e-01
136,1.200000000000e+00,1.503000000000e+01,1.150000000000e+00
137,1.500000000000e-01,1.496400000000e+01,0.000000000000e+00
138,-1.500000000000e-01,1.496400000000e+01,0.000000000000e+00
139,1.500000000000e-01,1.496400000000e+01,2.000000000000e+00
140,-1.500000000000e-01,1.496400000000e+01,2.000000000000e+00
141,-1.200000000000e+00,2.252121320344e+01,3.939339828220e-01
142,-1.200000000000e+00,2.503000000000e+01,8.500000000000e-01
143,-1.200000000000e+00,2.752121320344e+01,1.393933982822e+00
144,-1.200000000000e+00,2.252121320344e+01,1.606066017178e+00
145,-1.200000000000e+00,2.503000000000e+01,1.150000000000e+00
146,-1.200000000000e+00,2.752121320344e+01,6.060660171780e-01
147,1.200000000000e+00,2.252121320344e+01,3.939339828220e-01
148,1.200000000000e+00,2.503000000000e+01,8.500000000000e-01
149,1.200000000000e+00,2.752121320344e+01,1.393933982822e+00
150,1.200000000000e+00,2.252121320344e+01,1.606066017178e+00
151,1.200000000000e+00,2.503000000000e+01,1.150000000000e+00
152,1.200000000000e+00,2.752121320344e+01,6.060660171780e-01
153,-4.939339828220e-01,2.247454415588e+01,0.000000000000e+00
154,1.500000000000e-01,2.496400000000e+01,0.000000000000e+00
155,7.060660171780e-01,2.747454415588e+01,0.000000000000e+00
156,4.939339828220e-01,2.247454415588e+01,0.000000000000e+00
157,-1.500000000000e-01,2.496400000000e+01,0.000000000000e+00
158,-7.060660171780e-01,2.747454415588e+01,0.000000000000e+00
159,-4.939339828220e-01,2.247454415588e+01,2.000000000000e+00
160,1.500000000000e-01,2.496400000000e+01,2.000000000000e+00
161,7.060660171780e-01,2.747454415588e+01,2.000000000000e+00
162,4.939339828220e-01,2.247454415588e+01,2.000000000000e+00
163,-1.500000000000e-01,2.496400000000e+01,2.000000000000e+00
164,-7.060660171780e-01,2.747454415588e+01,2.000000000000e+00
165,-1.200000000000e+00,3.126148050297e+01,1.925974851452e-01
166,-1.200000000000e+00,3.252121320344e+01,3.939339828220e-01
167,-1.200000000000e+00,3.377771638598e+01,6.114180701233e-01
168,-1.200000000000e+00,3.503000000000e+01,8.500000000000e-01
169,-1.200000000000e+00,3.627771638598e+01,1.111418070123e+00
170,-1.200000000000e+00,3.752121320344e+01,1.393933982822e+00
171,-1.200000000000e+00,3.876148050297e+01,1.692597485145e+00
172,-1.200000000000e+00,3.126148050297e+01,1.807402514855e+00
173,-1.200000000000e+00,3.252121320344e+01,1.606066017178e+00
174,-1.200000000000e+00,3.377771638598e+01,1.388581929877e+00
175,-1.200000000000e+00,3.503000000000e+01,1.150000000000e+00
176,-1.200000000000e+00,3.627771638598e+01,8.885819298767e-01
177,-1.200000000000e+00,3.752121320344e+01,6.060660171780e-01
178,-1.200000000000e+00,3.876148050297e+01,3.074025148548e-01
179,1.200000000000e+00,3.126148050297e+01,1.925974851452e-01
180,1.200000000000e+00,3.252121320344e+01,3.939339828220e-01
181,1.200000000000e+00,3.377771638598e+01,6.114180701233e-01
182,1.200000000000e+00,3.503000000000e+01,8.500000000000e-01
183,1.200000000000e+00,3.627771638598e+01,1.111418070123e+00
184,1.200000000000e+00,3.752121320344e+01,1.393933982822e+00
185,1.200000000000e+00,3.876148050297e+01,1.692597485145e+00
186,1.200000000000e+00,3.126148050297e+01,1.807402514855e+00
187,1.200000000000e+00,3.252121320344e+01,1.606066017178e+00
188,1.200000000000e+00,3.377771638598e+01,1.388581929877e+00
189,1.200000000000e+00,3.503000000000e+01,1.150000000000e+00
190,1.200000000000e+00,3.627771638598e+01,8.885819298767e-01
191,1.200000000000e+00,3.752121320344e+01,6.060660171780e-01
192,1.200000000000e+00,3.876148050297e+01,3.074025148548e-01
193,-8.425974851452e-01,3.123622339643e+01,0.000000000000e+00
194,-4.939339828220e-01,3.247454415588e+01,0.000000000000e+00
195,-1.614180701233e-01,3.371674033683e+01,0.000000000000e+00
196,1.500000000000e-01,3.496400000000e+01,0.000000000000e+00
197,4.385819298767e-01,3.621674033683e+01,0.000000000000e+00
198,7.060660171780e-01,3.747454415588e+01,0.000000000000e+00
199,9.574025148548e-01,3.873622339643e+01,0.000000000000e+00
200,8.425974851452e-01,3.123622339643e+01,0.000000000000e+00
201,4.939339828220e-01,3.247454415588e+01,0.000000000000e+00
202,1.614180701233e-01,3.371674033683e+01,0.000000000000e+00
203,-1.500000000000e-01,3.496400000000e+01,0.000000000000e+00
204,-4.385819298767e-01,3.621674033683e+01,0.000000000000e+00
205,-7.060660171780e-01,3.747454415588e+01,0.000000000000e+00
206,-9.574025148548e-01,3.873622339643e+01,0.000000000000e+00
207,-8.425974851452e-01,3.123622339643e+01,2.000000000000e+00
208,-4.939339828220e-01,3.247454415588e+01,2.000000000000e+00
209,-1.614180701233e-01,3.371674033683e+01,2.000000000000e+00
210,1.500000000000e-01,3.496400000000e+01,2.000000000000e+00
211,4.385819298767e-01,3.621674033683e+01,2.000000000000e+00
212,7.060660171780e-01,3.747454415588e+01,2.000000000000e+00
213,9.574025148548e-01,3.873622339643e+01,2.000000000000e+00
214,8.425974851452e-01,3.123622339643e+01,2.000000000000e+00
215,4.939339828220e-01,3.247454415588e+01,2.000000000000e+00
216,1.614180701233e-01,3.371674033683e+01,2.000000000000e+00
217,-1.500000000000e-01,3.496400000000e+01,2.000000000000e+00
218,-4.385819298767e-01,3.621674033683e+01,2.000000000000e+00
219,-7.060660171780e-01,3.747454415588e+01,2.000000000000e+00
220,-9.574025148548e-01,3.873622339643e+01,2.000000000000e+00
221,-1.200000000000e+00,4.126148050297e+01,1.925974851452e-01
222,-1.200000000000e+00,4.252121320344e+01,3.939339828220e-01
223,-1.200000000000e+00,4.377771638598e+01,6.114180701233e-01
224,-1.200000000000e+00,4.503000000000e+01,8.500000000000e-01
225,-1.200000000000e+00,4.627771638598e+01,1.111418070123e+00
226,-1.200000000000e+00,4.752121320344e+01,1.393933982822e+00
227,-1.200000000000e+00,4.876148050297e+01,1.692597485145e+00
228,-1.200000000000e+00,4.126148050297e+01,1.807402514855e+00
229,-1.200000000000e+00,4.252121320344e+01,1.606066017178e+00
230,-1.200000000000e+00,4.377771638598e+01,1.388581929877e+00
231,-1.200000000000e+00,4.503000000000e+01,1.150000000000e+00
232,-1.200000000000e+00,4.627771638598e+01,8.885819298767e-01
233,-1.200000000000e+00,4.752121320344e+01,6.060660171780e-01
234,-1.200000000000e+00,4.876148050297e+01,3.074025148548e-01
235,1.200000000000e+00,4.126148050297e+01,1.925974851452e-01
236,1.200000000000e+00,4.252121320344e+01,3.939339828220e-01
237,1.200000000000e+00,4.377771638598e+01,6.114180701233e-01
238,1.200000000000e+00,4.503000000000e+01,8.500000000000e-01
239,1.200000000000e+00,4.627771638598e+01,1.111418070123e+00
240,1.200000000000e+00,4.752121320344e+01,1.393933982822e+00
241,1.200000000000e+00,4.876148050297e+01,1.692597485145e+00
242,1.200000000000e+00,4.126148050297e+01,1.807402514855e+00
243,1.200000000000e+00,4.252121320344e+01,1.606066017178e+00
244,1.200000000000e+00,4.377771638598e+01,1.388581929877e+00
245,1.200000000000e+00,4.503000000000e+01,1.150000000000e+00
246,1.200000000000e+00,4.627771638598e+01,8.885819298767e-01
247,1.200000000000e+00,4.752121320344e+01,6.060660171780e-01
248,1.200000000000e+00,4.876148050297e+01,3.074025148548e-01
249,-8.425974851452e-01,4.123622339643e+01,0.000000000000e+00
250,-4.939339828220e-01,4.247454415588e+01,0.000000000000e+00
251,-1.614180701233e-01,4.371674033683e+01,0.000000000000e+00
252,1.500000000000e-01,4.496400000000e+01,0.000000000000e+00
253,4.385819298767e-01,4.621674033683e+01,0.000000000000e+00
254,7.060660171780e-01,4.747454415588e+01,0.000000000000e+00
255,9.574025148548e-01,4.873622339643e+01,0.000000000000e+00
256,8.425974851452e-01,4.123622339643e+01,0.000000000000e+00
257,4.939339828220e-01,4.247454415588e+01,0.000000000000e+00
258,1.614180701233e-01,4.371674033683e+01,0.000000000000e+00
259,-1.500000000000e-01,4.496400000000e+01,0.000000000000e+00
260,-4.385819298767e-01,4.621674033683e+01,0.000000000000e+00
261,-7.060660171780e-01,4.747454415588e+01,0.000000000000e+00
262,-9.574025148548e-01,4.873622339643e+01,0.000000000000e+00
263,-8.425974851452e-01,4.123622339643e+01,2.000000000000e+00
264,-4.939339828220e-01,4.247454415588e+01,2.000000000000e+00
265,-1.614180701233e-01,4.371674033683e+01,2.000000000000e+00
266,1.500000000000e-01,4.496400000000e+01,2.000000000000e+00
267,4.385819298767e-01,4.621674033683e+01,2.000000000000e+00
268,7.060660171780e-01,4.747454415588e+01,2.000000000000e+00
269,9.574025148548e-01,4.873622339643e+01,2.000000000000e+00
270,8.425974851452e-01,4.123622339643e+01,2.000000000000e+00
271,4.939339828220e-01,4.247454415588e+01,2.000000000000e+00
272,1.614180701233e-01,4.371674033683e+01,2.000000000000e+00
273,-1.500000000000e-01,4.496400000000e+01,2.000000000000e+00
274,-4.385819298767e-01,4.621674033683e+01,2.000000000000e+00
275,-7.060660171780e-01,4.747454415588e+01,2.000000000000e+00
276,-9.574025148548e-01,4.873622339643e+01,2.000000000000e+00
*ELEMENT,TYPE=B31,ELSET=ALL
1,1,25
2,25,5
3,2,26
4,26,6
5,3,27
6,27,7
7,4,28
8,28,8
9,5,29
10,29,9
11,6,30
12,30,10
13,7,31
14,31,11
15,8,32
16,32,12
17,9,33
18,33,13
19,10,34
20,34,14
21,11,35
22,35,15
23,12,36
24,36,16
25,13,37
26,37,17
27,14,38
28,38,18
29,15,39
30,39,19
31,16,40
32,40,20
33,17,41
34,41,21
35,18,42
36,42,22
37,19,43
38,43,23
39,20,44
40,44,24
41,1,45
42,45,2
43,3,46
44,46,4
45,1,47
46,47,3
47,2,48
48,48,4
49,5,49
50,49,6
51,7,50
52,50,8
53,5,51
54,51,7
55,6,52
56,52,8
57,9,53
58,53,54
59,54,55
60,55,56
61,56,57
62,57,58
63,58,59
64,59,10
65,11,60
66,60,61
67,61,62
68,62,63
69,63,64
70,64,65
71,65,66
72,66,12
73,9,67
74,67,68
75,68,69
76,69,70
77,70,71
78,71,72
79,72,73
80,73,11
81,10,74
82,74,75
83,75,76
84,76,77
85,77,78
86,78,79
87,79,80
88,80,12
89,13,81
90,81,82
91,82,83
92,83,84
93,84,85
94,85,86
95,86,87
96,87,14
97,15,88
98,88,89
99,89,90
100,90,91
101,91,92
102,92,93
103,93,94
104,94,16
105,13,95
106,95,96
107,96,97
108,97,98
109,98,99
110,99,100
111,100,101
112,101,15
113,14,102
114,102,103
115,103,104
116,104,105
117,105,106
118,106,107
119,107,108
120,108,16
121,17,109
122,109,110
123,110,111
124,111,18
125,19,112
126,112,113
127,113,114
128,114,20
129,17,115
130,115,116
131,116,117
132,117,19
133,18,118
134,118,119
135,119,120
136,120,20
137,21,121
138,121,22
139,23,122
140,122,24
141,21,123
142,123,23
143,22,124
144,124,24
145,1,125
146,125,7
147,3,126
148,126,5
149,2,127
150,127,8
151,4,128
152,128,6
153,1,129
154,129,6
155,2,130
156,130,5
157,3,131
158,131,8
159,4,132
160,132,7
161,5,133
162,133,11
163,7,134
164,134,9
165,6,135
166,135,12
167,8,136
168,136,10
169,5,137
170,137,10
171,6,138
172,138,9
173,7,139
174,139,12
175,8,140
176,140,11
177,9,141
178,141,142
179,142,143
180,143,15
181,11,144
182,144,145
183,145,146
184,146,13
185,10,147
186,147,148
187,148,149
188,149,16
189,12,150
190,150,151
191,151,152
192,152,14
193,9,153
194,153,154
195,154,155
196,155,14
197,10,156
198,156,157
199,157,158
200,158,13
201,11,159
202,159,160
203,160,161
204,161,16
205,12,162
206,162,163
207,163,164
208,164,15
209,13,165
210,165,166
211,166,167
212,167,168
213,168,169
214,169,170
215,170,171
216,171,19
217,15,172
218,172,173
219,173,174
220,174,175
221,175,176
222,176,177
223,177,178
224,178,17
225,14,179
226,179,180
227,180,181
228,181,182
229,182,183
230,183,184
231,184,185
232,185,20
233,16,186
234,186,187
235,187,188
236,188,189
237,189,190
238,190,191
239,191,192
240,192,18
241,13,193
242,193,194
243,194,195
244,195,196
245,196,197
246,197,198
247,198,199
248,199,18
249,14,200
250,200,201
251,201,202
252,202,203
253,203,204
254,204,205
255,205,206
256,206,17
257,15,207
258,207,208
259,208,209
260,209,210
261,210,211
262,211,212
263,212,213
264,213,20
265,16,214
266,214,215
267,215,216
268,216,217
269,217,218
270,218,219
271,219,220
272,220,19
273,17,221
274,221,222
275,222,223
276,223,224
277,224,225
278,225,226
279,226,227
280,227,23
281,19,228
282,228,229
283,229,230
284,230,231
285,231,232
286,232,233
287,233,234
288,234,21
289,18,235
290,235,236
291,236,237
292,237,238
293,238,239
294,239,240
295,240,241
296,241,24
297,20,242
298,242,243
299,243,244
300,244,245
301,245,246
302,246,247
303,247,248
304,248,22
305,17,249
306,249,250
307,250,251
308,251,252
309,252,253
310,253,254
311,254,255
312,255,22
313,18,256
314,256,257
315,257,258
316,258,259
317,259,260
318,260,261
319,261,262
320,262,21
321,19,263
322,263,264
323,264,265
324,265,266
325,266,267
326,267,268
327,268,269
328,269,24
329,20,270
330,270,271
331,271,272
332,272,273
333,273,274
334,274,275
335,275,276
336,276,23
*NSET,NSET=NALL,GENERATE
1,276,1
*NSET,NSET=LEFT
1,2,3,4
*NSET,NSET=RIGHT
21,22,23,24
*MATERIAL,NAME=STEEL
*ELASTIC
2.100000000000e+11,0.300000000000
*BEAM SECTION,ELSET=ALL,MATERIAL=STEEL,SECTION=RECT
6.000000000000e-02,4.000000000000e-02
0.371390676354,0.557086014531,0.742781352708
*BOUNDARY
LEFT,1,6,0.0
*STEP
*STATIC
*BOUNDARY
21,1,1,5.000000000000e-03
21,2,2,0.0
21,3,3,-6.000000000000e-03
*BOUNDARY
22,1,1,5.000000000000e-03
22,2,2,0.0
22,3,3,6.000000000000e-03
*BOUNDARY
23,1,1,-5.000000000000e-03
23,2,2,0.0
23,3,3,-6.000000000000e-03
*BOUNDARY
24,1,1,-5.000000000000e-03
24,2,2,0.0
24,3,3,6.000000000000e-03
*NODE FILE,NSET=NALL
U
*NODE PRINT,NSET=NALL
U
*NODE PRINT,NSET=RIGHT
RF
*EL PRINT,ELSET=ALL,TOTALS=YES
ELSE
*END STEP
