*HEADING
Normalized cross-passage space-truss torsion benchmark
*NODE
1,-1.200000000000e+00,0.000000000000e+00,0.000000000000e+00
2,1.200000000000e+00,0.000000000000e+00,0.000000000000e+00
3,-1.200000000000e+00,0.000000000000e+00,2.000000000000e+00
4,1.200000000000e+00,0.000000000000e+00,2.000000000000e+00
5,-1.200000000000e+00,1.000000000000e+01,0.000000000000e+00
6,1.200000000000e+00,1.000000000000e+01,0.000000000000e+00
7,-1.200000000000e+00,1.000000000000e+01,2.000000000000e+00
8,1.200000000000e+00,1.000000000000e+01,2.000000000000e+00
9,-1.200000000000e+00,2.000000000000e+01,0.000000000000e+00
10,1.200000000000e+00,2.000000000000e+01,0.000000000000e+00
11,-1.200000000000e+00,2.000000000000e+01,2.000000000000e+00
12,1.200000000000e+00,2.000000000000e+01,2.000000000000e+00
13,-1.200000000000e+00,3.000000000000e+01,0.000000000000e+00
14,1.200000000000e+00,3.000000000000e+01,0.000000000000e+00
15,-1.200000000000e+00,3.000000000000e+01,2.000000000000e+00
16,1.200000000000e+00,3.000000000000e+01,2.000000000000e+00
17,-1.200000000000e+00,4.000000000000e+01,0.000000000000e+00
18,1.200000000000e+00,4.000000000000e+01,0.000000000000e+00
19,-1.200000000000e+00,4.000000000000e+01,2.000000000000e+00
20,1.200000000000e+00,4.000000000000e+01,2.000000000000e+00
21,-1.200000000000e+00,5.000000000000e+01,0.000000000000e+00
22,1.200000000000e+00,5.000000000000e+01,0.000000000000e+00
23,-1.200000000000e+00,5.000000000000e+01,2.000000000000e+00
24,1.200000000000e+00,5.000000000000e+01,2.000000000000e+00
25,-1.200000000000e+00,2.500000000000e+00,-1.060660171780e-01
26,-1.200000000000e+00,5.000000000000e+00,-1.500000000000e-01
27,-1.200000000000e+00,7.500000000000e+00,-1.060660171780e-01
28,1.200000000000e+00,2.500000000000e+00,1.060660171780e-01
29,1.200000000000e+00,5.000000000000e+00,1.500000000000e-01
30,1.200000000000e+00,7.500000000000e+00,1.060660171780e-01
31,-1.200000000000e+00,2.500000000000e+00,1.893933982822e+00
32,-1.200000000000e+00,5.000000000000e+00,1.850000000000e+00
33,-1.200000000000e+00,7.500000000000e+00,1.893933982822e+00
34,1.200000000000e+00,2.500000000000e+00,2.106066017178e+00
35,1.200000000000e+00,5.000000000000e+00,2.150000000000e+00
36,1.200000000000e+00,7.500000000000e+00,2.106066017178e+00
37,-1.200000000000e+00,1.500000000000e+01,-1.500000000000e-01
38,1.200000000000e+00,1.500000000000e+01,1.500000000000e-01
39,-1.200000000000e+00,1.500000000000e+01,1.850000000000e+00
40,1.200000000000e+00,1.500000000000e+01,2.150000000000e+00
41,-1.200000000000e+00,4.250000000000e+01,-1.060660171780e-01
42,-1.200000000000e+00,4.500000000000e+01,-1.500000000000e-01
43,-1.200000000000e+00,4.750000000000e+01,-1.060660171780e-01
44,1.200000000000e+00,4.250000000000e+01,1.060660171780e-01
45,1.200000000000e+00,4.500000000000e+01,1.500000000000e-01
46,1.200000000000e+00,4.750000000000e+01,1.060660171780e-01
47,-1.200000000000e+00,4.250000000000e+01,1.893933982822e+00
48,-1.200000000000e+00,4.500000000000e+01,1.850000000000e+00
49,-1.200000000000e+00,4.750000000000e+01,1.893933982822e+00
50,1.200000000000e+00,4.250000000000e+01,2.106066017178e+00
51,1.200000000000e+00,4.500000000000e+01,2.150000000000e+00
52,1.200000000000e+00,4.750000000000e+01,2.106066017178e+00
53,-6.000000000000e-01,-2.545584412272e-02,0.000000000000e+00
54,0.000000000000e+00,-3.600000000000e-02,0.000000000000e+00
55,6.000000000000e-01,-2.545584412272e-02,0.000000000000e+00
56,-6.000000000000e-01,2.545584412272e-02,2.000000000000e+00
57,0.000000000000e+00,3.600000000000e-02,2.000000000000e+00
58,6.000000000000e-01,2.545584412272e-02,2.000000000000e+00
59,-1.200000000000e+00,2.121320343560e-02,5.000000000000e-01
60,-1.200000000000e+00,3.000000000000e-02,1.000000000000e+00
61,-1.200000000000e+00,2.121320343560e-02,1.500000000000e+00
62,1.200000000000e+00,-2.121320343560e-02,5.000000000000e-01
63,1.200000000000e+00,-3.000000000000e-02,1.000000000000e+00
64,1.200000000000e+00,-2.121320343560e-02,1.500000000000e+00
65,-6.000000000000e-01,9.974544155877e+00,0.000000000000e+00
66,0.000000000000e+00,9.964000000000e+00,0.000000000000e+00
67,6.000000000000e-01,9.974544155877e+00,0.000000000000e+00
68,-6.000000000000e-01,1.002545584412e+01,2.000000000000e+00
69,0.000000000000e+00,1.003600000000e+01,2.000000000000e+00
70,6.000000000000e-01,1.002545584412e+01,2.000000000000e+00
71,-1.200000000000e+00,1.002121320344e+01,5.000000000000e-01
72,-1.200000000000e+00,1.003000000000e+01,1.000000000000e+00
73,-1.200000000000e+00,1.002121320344e+01,1.500000000000e+00
74,1.200000000000e+00,9.978786796564e+00,5.000000000000e-01
75,1.200000000000e+00,9.970000000000e+00,1.000000000000e+00
76,1.200000000000e+00,9.978786796564e+00,1.500000000000e+00
77,0.000000000000e+00,1.996400000000e+01,0.000000000000e+00
78,0.000000000000e+00,2.003600000000e+01,2.000000000000e+00
79,-1.200000000000e+00,2.003000000000e+01,1.000000000000e+00
80,1.200000000000e+00,1.997000000000e+01,1.000000000000e+00
81,-6.000000000000e-01,2.997454415588e+01,0.000000000000e+00
82,0.000000000000e+00,2.996400000000e+01,0.000000000000e+00
83,6.000000000000e-01,2.997454415588e+01,0.000000000000e+00
84,-6.000000000000e-01,3.002545584412e+01,2.000000000000e+00
85,0.000000000000e+00,3.003600000000e+01,2.000000000000e+00
86,6.000000000000e-01,3.002545584412e+01,2.000000000000e+00
87,-1.200000000000e+00,3.002121320344e+01,5.000000000000e-01
88,-1.200000000000e+00,3.003000000000e+01,1.000000000000e+00
89,-1.200000000000e+00,3.002121320344e+01,1.500000000000e+00
90,1.200000000000e+00,2.997878679656e+01,5.000000000000e-01
91,1.200000000000e+00,2.997000000000e+01,1.000000000000e+00
92,1.200000000000e+00,2.997878679656e+01,1.500000000000e+00
93,-6.000000000000e-01,3.997454415588e+01,0.000000000000e+00
94,0.000000000000e+00,3.996400000000e+01,0.000000000000e+00
95,6.000000000000e-01,3.997454415588e+01,0.000000000000e+00
96,-6.000000000000e-01,4.002545584412e+01,2.000000000000e+00
97,0.000000000000e+00,4.003600000000e+01,2.000000000000e+00
98,6.000000000000e-01,4.002545584412e+01,2.000000000000e+00
99,-1.200000000000e+00,4.002121320344e+01,5.000000000000e-01
100,-1.200000000000e+00,4.003000000000e+01,1.000000000000e+00
101,-1.200000000000e+00,4.002121320344e+01,1.500000000000e+00
102,1.200000000000e+00,3.997878679656e+01,5.000000000000e-01
103,1.200000000000e+00,3.997000000000e+01,1.000000000000e+00
104,1.200000000000e+00,3.997878679656e+01,1.500000000000e+00
105,-9.000000000000e-01,4.998622339643e+01,0.000000000000e+00
106,-6.000000000000e-01,4.997454415588e+01,0.000000000000e+00
107,-3.000000000000e-01,4.996674033683e+01,0.000000000000e+00
108,0.000000000000e+00,4.996400000000e+01,0.000000000000e+00
109,3.000000000000e-01,4.996674033683e+01,0.000000000000e+00
110,6.000000000000e-01,4.997454415588e+01,0.000000000000e+00
111,9.000000000000e-01,4.998622339643e+01,0.000000000000e+00
112,-9.000000000000e-01,5.001377660357e+01,2.000000000000e+00
113,-6.000000000000e-01,5.002545584412e+01,2.000000000000e+00
114,-3.000000000000e-01,5.003325966317e+01,2.000000000000e+00
115,0.000000000000e+00,5.003600000000e+01,2.000000000000e+00
116,3.000000000000e-01,5.003325966317e+01,2.000000000000e+00
117,6.000000000000e-01,5.002545584412e+01,2.000000000000e+00
118,9.000000000000e-01,5.001377660357e+01,2.000000000000e+00
119,-1.200000000000e+00,5.001148050297e+01,2.500000000000e-01
120,-1.200000000000e+00,5.002121320344e+01,5.000000000000e-01
121,-1.200000000000e+00,5.002771638598e+01,7.500000000000e-01
122,-1.200000000000e+00,5.003000000000e+01,1.000000000000e+00
123,-1.200000000000e+00,5.002771638598e+01,1.250000000000e+00
124,-1.200000000000e+00,5.002121320344e+01,1.500000000000e+00
125,-1.200000000000e+00,5.001148050297e+01,1.750000000000e+00
126,1.200000000000e+00,4.998851949703e+01,2.500000000000e-01
127,1.200000000000e+00,4.997878679656e+01,5.000000000000e-01
128,1.200000000000e+00,4.997228361402e+01,7.500000000000e-01
129,1.200000000000e+00,4.997000000000e+01,1.000000000000e+00
130,1.200000000000e+00,4.997228361402e+01,1.250000000000e+00
131,1.200000000000e+00,4.997878679656e+01,1.500000000000e+00
132,1.200000000000e+00,4.998851949703e+01,1.750000000000e+00
133,-1.200000000000e+00,2.521213203436e+00,3.939339828220e-01
134,-1.200000000000e+00,5.030000000000e+00,8.500000000000e-01
135,-1.200000000000e+00,7.521213203436e+00,1.393933982822e+00
136,-1.200000000000e+00,2.521213203436e+00,1.606066017178e+00
137,-1.200000000000e+00,5.030000000000e+00,1.150000000000e+00
138,-1.200000000000e+00,7.521213203436e+00,6.060660171780e-01
139,1.200000000000e+00,2.521213203436e+00,3.939339828220e-01
140,1.200000000000e+00,5.030000000000e+00,8.500000000000e-01
141,1.200000000000e+00,7.521213203436e+00,1.393933982822e+00
142,1.200000000000e+00,2.521213203436e+00,1.606066017178e+00
143,1.200000000000e+00,5.030000000000e+00,1.150000000000e+00
144,1.200000000000e+00,7.521213203436e+00,6.060660171780e-01
145,-4.939339828220e-01,2.474544155877e+00,0.000000000000e+00
146,1.500000000000e-01,4.964000000000e+00,0.000000000000e+00
147,7.060660171780e-01,7.474544155877e+00,0.000000000000e+00
148,4.939339828220e-01,2.474544155877e+00,0.000000000000e+00
149,-1.500000000000e-01,4.964000000000e+00,0.000000000000e+00
150,-7.060660171780e-01,7.474544155877e+00,0.000000000000e+00
151,-4.939339828220e-01,2.474544155877e+00,2.000000000000e+00
152,1.500000000000e-01,4.964000000000e+00,2.000000000000e+00
153,7.060660171780e-01,7.474544155877e+00,2.000000000000e+00
154,4.939339828220e-01,2.474544155877e+00,2.000000000000e+00
155,-1.500000000000e-01,4.964000000000e+00,2.000000000000e+00
156,-7.060660171780e-01,7.474544155877e+00,2.000000000000e+00
157,-1.200000000000e+00,1.503000000000e+01,8.500000000000e-01
158,-1.200000000000e+00,1.503000000000e+01,1.150000000000e+00
159,1.200000000000e+00,1.503000000000e+01,8.500000000000e-01
160,1.200000000000e+00,1.503000000000e+01,1.150000000000e+00
161,1.500000000000e-01,1.496400000000e+01,0.000000000000e+00
162,-1.500000000000e-01,1.496400000000e+01,0.000000000000e+00
163,1.500000000000e-01,1.496400000000e+01,2.000000000000e+00
164,-1.500000000000e-01,1.496400000000e+01,2.000000000000e+00
165,-1.200000000000e+00,2.503000000000e+01,8.500000000000e-01
166,-1.200000000000e+00,2.503000000000e+01,1.150000000000e+00
167,1.200000000000e+00,2.503000000000e+01,8.500000000000e-01
168,1.200000000000e+00,2.503000000000e+01,1.150000000000e+00
169,1.500000000000e-01,2.496400000000e+01,0.000000000000e+00
170,-1.500000000000e-01,2.496400000000e+01,0.000000000000e+00
171,1.500000000000e-01,2.496400000000e+01,2.000000000000e+00
172,-1.500000000000e-01,2.496400000000e+01,2.000000000000e+00
173,-1.200000000000e+00,3.252121320344e+01,3.939339828220e-01
174,-1.200000000000e+00,3.503000000000e+01,8.500000000000e-01
175,-1.200000000000e+00,3.752121320344e+01,1.393933982822e+00
176,-1.200000000000e+00,3.252121320344e+01,1.606066017178e+00
177,-1.200000000000e+00,3.503000000000e+01,1.150000000000e+00
178,-1.200000000000e+00,3.752121320344e+01,6.060660171780e-01
179,1.200000000000e+00,3.252121320344e+01,3.939339828220e-01
180,1.200000000000e+00,3.503000000000e+01,8.500000000000e-01
181,1.200000000000e+00,3.752121320344e+01,1.393933982822e+00
182,1.200000000000e+00,3.252121320344e+01,1.606066017178e+00
183,1.200000000000e+00,3.503000000000e+01,1.150000000000e+00
184,1.200000000000e+00,3.752121320344e+01,6.060660171780e-01
185,-4.939339828220e-01,3.247454415588e+01,0.000000000000e+00
186,1.500000000000e-01,3.496400000000e+01,0.000000000000e+00
187,7.060660171780e-01,3.747454415588e+01,0.000000000000e+00
188,4.939339828220e-01,3.247454415588e+01,0.000000000000e+00
189,-1.500000000000e-01,3.496400000000e+01,0.000000000000e+00
190,-7.060660171780e-01,3.747454415588e+01,0.000000000000e+00
191,-4.939339828220e-01,3.247454415588e+01,2.000000000000e+00
192,1.500000000000e-01,3.496400000000e+01,2.000000000000e+00
193,7.060660171780e-01,3.747454415588e+01,2.000000000000e+00
194,4.939339828220e-01,3.247454415588e+01,2.000000000000e+00
195,-1.500000000000e-01,3.496400000000e+01,2.000000000000e+00
196,-7.060660171780e-01,3.747454415588e+01,2.000000000000e+00
*ELEMENT,TYPE=B31,ELSET=ALL
1,1,25
2,25,26
3,26,27
4,27,5
5,2,28
6,28,29
7,29,30
8,30,6
9,3,31
10,31,32
11,32,33
12,33,7
13,4,34
14,34,35
15,35,36
16,36,8
17,5,37
18,37,9
19,6,38
20,38,10
21,7,39
22,39,11
23,8,40
24,40,12
25,9,13
26,10,14
27,11,15
28,12,16
29,13,17
30,14,18
31,15,19
32,16,20
33,17,41
34,41,42
35,42,43
36,43,21
37,18,44
38,44,45
39,45,46
40,46,22
41,19,47
42,47,48
43,48,49
44,49,23
45,20,50
46,50,51
47,51,52
48,52,24
49,1,53
50,53,54
51,54,55
52,55,2
53,3,56
54,56,57
55,57,58
56,58,4
57,1,59
58,59,60
59,60,61
60,61,3
61,2,62
62,62,63
63,63,64
64,64,4
65,5,65
66,65,66
67,66,67
68,67,6
69,7,68
70,68,69
71,69,70
72,70,8
73,5,71
74,71,72
75,72,73
76,73,7
77,6,74
78,74,75
79,75,76
80,76,8
81,9,77
82,77,10
83,11,78
84,78,12
85,9,79
86,79,11
87,10,80
88,80,12
89,13,81
90,81,82
91,82,83
92,83,14
93,15,84
94,84,85
95,85,86
96,86,16
97,13,87
98,87,88
99,88,89
100,89,15
101,14,90
102,90,91
103,91,92
104,92,16
105,17,93
106,93,94
107,94,95
108,95,18
109,19,96
110,96,97
111,97,98
112,98,20
113,17,99
114,99,100
115,100,101
116,101,19
117,18,102
118,102,103
119,103,104
120,104,20
121,21,105
122,105,106
123,106,107
124,107,108
125,108,109
126,109,110
127,110,111
128,111,22
129,23,112
130,112,113
131,113,114
132,114,115
133,115,116
134,116,117
135,117,118
136,118,24
137,21,119
138,119,120
139,120,121
140,121,122
141,122,123
142,123,124
143,124,125
144,125,23
145,22,126
146,126,127
147,127,128
148,128,129
149,129,130
150,130,131
151,131,132
152,132,24
153,1,133
154,133,134
155,134,135
156,135,7
157,3,136
158,136,137
159,137,138
160,138,5
161,2,139
162,139,140
163,140,141
164,141,8
165,4,142
166,142,143
167,143,144
168,144,6
169,1,145
170,145,146
171,146,147
172,147,6
173,2,148
174,148,149
175,149,150
176,150,5
177,3,151
178,151,152
179,152,153
180,153,8
181,4,154
182,154,155
183,155,156
184,156,7
185,5,157
186,157,11
187,7,158
188,158,9
189,6,159
190,159,12
191,8,160
192,160,10
193,5,161
194,161,10
195,6,162
196,162,9
197,7,163
198,163,12
199,8,164
200,164,11
201,9,165
202,165,15
203,11,166
204,166,13
205,10,167
206,167,16
207,12,168
208,168,14
209,9,169
210,169,14
211,10,170
212,170,13
213,11,171
214,171,16
215,12,172
216,172,15
217,13,173
218,173,174
219,174,175
220,175,19
221,15,176
222,176,177
223,177,178
224,178,17
225,14,179
226,179,180
227,180,181
228,181,20
229,16,182
230,182,183
231,183,184
232,184,18
233,13,185
234,185,186
235,186,187
236,187,18
237,14,188
238,188,189
239,189,190
240,190,17
241,15,191
242,191,192
243,192,193
244,193,20
245,16,194
246,194,195
247,195,196
248,196,19
249,17,23
250,19,21
251,18,24
252,20,22
253,17,22
254,18,21
255,19,24
256,20,23
*NSET,NSET=NALL,GENERATE
1,196,1
*NSET,NSET=LEFT
1,2,3,4
*NSET,NSET=RIGHT
21,22,23,24
*MATERIAL,NAME=STEEL
*ELASTIC
2.100000000000e+11,0.300000000000
*BEAM SECTION,ELSET=ALL,MATERIAL=STEEL,SECTION=RECT
6.000000000000e-02,4.000000000000e-02
0.371390676354,0.557086014531,0.742781352708
*BOUNDARY
LEFT,1,6,0.0
*STEP
*STATIC
*BOUNDARY
21,1,1,5.000000000000e-03
21,2,2,0.0
21,3,3,-6.000000000000e-03
*BOUNDARY
22,1,1,5.000000000000e-03
22,2,2,0.0
22,3,3,6.000000000000e-03
*BOUNDARY
23,1,1,-5.000000000000e-03
23,2,2,0.0
23,3,3,-6.000000000000e-03
*BOUNDARY
24,1,1,-5.000000000000e-03
24,2,2,0.0
24,3,3,6.000000000000e-03
*NODE FILE,NSET=NALL
U
*NODE PRINT,NSET=NALL
U
*NODE PRINT,NSET=RIGHT
RF
*EL PRINT,ELSET=ALL,TOTALS=YES
ELSE
*END STEP
