*HEADING
Normalized cross-passage space-truss torsion benchmark
*NODE
1,-1.200000000000e+00,0.000000000000e+00,0.000000000000e+00
2,1.200000000000e+00,0.000000000000e+00,0.000000000000e+00
3,-1.200000000000e+00,0.000000000000e+00,2.000000000000e+00
4,1.200000000000e+00,0.000000000000e+00,2.000000000000e+00
5,-1.200000000000e+00,1.000000000000e+01,0.000000000000e+00
6,1.200000000000e+00,1.000000000000e+01,0.000000000000e+00
7,-1.200000000000e+00,1.000000000000e+01,2.000000000000e+00
8,1.200000000000e+00,1.000000000000e+01,2.000000000000e+00
9,-1.200000000000e+00,2.000000000000e+01,0.000000000000e+00
10,1.200000000000e+00,2.000000000000e+01,0.000000000000e+00
11,-1.200000000000e+00,2.000000000000e+01,2.000000000000e+00
12,1.200000000000e+00,2.000000000000e+01,2.000000000000e+00
13,-1.200000000000e+00,3.000000000000e+01,0.000000000000e+00
14,1.200000000000e+00,3.000000000000e+01,0.000000000000e+00
15,-1.200000000000e+00,3.000000000000e+01,2.000000000000e+00
16,1.200000000000e+00,3.000000000000e+01,2.000000000000e+00
17,-1.200000000000e+00,4.000000000000e+01,0.000000000000e+00
18,1.200000000000e+00,4.000000000000e+01,0.000000000000e+00
19,-1.200000000000e+00,4.000000000000e+01,2.000000000000e+00
20,1.200000000000e+00,4.000000000000e+01,2.000000000000e+00
21,-1.200000000000e+00,5.000000000000e+01,0.000000000000e+00
22,1.200000000000e+00,5.000000000000e+01,0.000000000000e+00
23,-1.200000000000e+00,5.000000000000e+01,2.000000000000e+00
24,1.200000000000e+00,5.000000000000e+01,2.000000000000e+00
25,-1.200000000000e+00,5.000000000000e+00,-1.500000000000e-01
26,1.200000000000e+00,5.000000000000e+00,1.500000000000e-01
27,-1.200000000000e+00,5.000000000000e+00,1.850000000000e+00
28,1.200000000000e+00,5.000000000000e+00,2.150000000000e+00
29,-1.200000000000e+00,1.500000000000e+01,-1.500000000000e-01
30,1.200000000000e+00,1.500000000000e+01,1.500000000000e-01
31,-1.200000000000e+00,1.500000000000e+01,1.850000000000e+00
32,1.200000000000e+00,1.500000000000e+01,2.150000000000e+00
33,-1.200000000000e+00,4.500000000000e+01,-1.500000000000e-01
34,1.200000000000e+00,4.500000000000e+01,1.500000000000e-01
35,-1.200000000000e+00,4.500000000000e+01,1.850000000000e+00
36,1.200000000000e+00,4.500000000000e+01,2.150000000000e+00
37,0.000000000000e+00,-3.600000000000e-02,0.000000000000e+00
38,0.000000000000e+00,3.600000000000e-02,2.000000000000e+00
39,-1.200000000000e+00,3.000000000000e-02,1.000000000000e+00
40,1.200000000000e+00,-3.000000000000e-02,1.000000000000e+00
41,0.000000000000e+00,1.996400000000e+01,0.000000000000e+00
42,0.000000000000e+00,2.003600000000e+01,2.000000000000e+00
43,-1.200000000000e+00,2.003000000000e+01,1.000000000000e+00
44,1.200000000000e+00,1.997000000000e+01,1.000000000000e+00
45,-6.000000000000e-01,2.997454415588e+01,0.000000000000e+00
46,0.000000000000e+00,2.996400000000e+01,0.000000000000e+00
47,6.000000000000e-01,2.997454415588e+01,0.000000000000e+00
48,-6.000000000000e-01,3.002545584412e+01,2.000000000000e+00
49,0.000000000000e+00,3.003600000000e+01,2.000000000000e+00
50,6.000000000000e-01,3.002545584412e+01,2.000000000000e+00
51,-1.200000000000e+00,3.002121320344e+01,5.000000000000e-01
52,-1.200000000000e+00,3.003000000000e+01,1.000000000000e+00
53,-1.200000000000e+00,3.002121320344e+01,1.500000000000e+00
54,1.200000000000e+00,2.997878679656e+01,5.000000000000e-01
55,1.200000000000e+00,2.997000000000e+01,1.000000000000e+00
56,1.200000000000e+00,2.997878679656e+01,1.500000000000e+00
57,0.000000000000e+00,3.996400000000e+01,0.000000000000e+00
58,0.000000000000e+00,4.003600000000e+01,2.000000000000e+00
59,-1.200000000000e+00,4.003000000000e+01,1.000000000000e+00
60,1.200000000000e+00,3.997000000000e+01,1.000000000000e+00
61,0.000000000000e+00,4.996400000000e+01,0.000000000000e+00
62,0.000000000000e+00,5.003600000000e+01,2.000000000000e+00
63,-1.200000000000e+00,5.003000000000e+01,1.000000000000e+00
64,1.200000000000e+00,4.997000000000e+01,1.000000000000e+00
65,-1.200000000000e+00,5.030000000000e+00,8.500000000000e-01
66,-1.200000000000e+00,5.030000000000e+00,1.150000000000e+00
67,1.200000000000e+00,5.030000000000e+00,8.500000000000e-01
68,1.200000000000e+00,5.030000000000e+00,1.150000000000e+00
69,1.500000000000e-01,4.964000000000e+00,0.000000000000e+00
70,-1.500000000000e-01,4.964000000000e+00,0.000000000000e+00
71,1.500000000000e-01,4.964000000000e+00,2.000000000000e+00
72,-1.500000000000e-01,4.964000000000e+00,2.000000000000e+00
73,-1.200000000000e+00,1.252121320344e+01,3.939339828220e-01
74,-1.200000000000e+00,1.503000000000e+01,8.500000000000e-01
75,-1.200000000000e+00,1.752121320344e+01,1.393933982822e+00
76,-1.200000000000e+00,1.252121320344e+01,1.606066017178e+00
77,-1.200000000000e+00,1.503000000000e+01,1.150000000000e+00
78,-1.200000000000e+00,1.752121320344e+01,6.060660171780e-01
79,1.200000000000e+00,1.252121320344e+01,3.939339828220e-01
80,1.200000000000e+00,1.503000000000e+01,8.500000000000e-01
81,1.200000000000e+00,1.752121320344e+01,1.393933982822e+00
82,1.200000000000e+00,1.252121320344e+01,1.606066017178e+00
83,1.200000000000e+00,1.503000000000e+01,1.150000000000e+00
84,1.200000000000e+00,1.752121320344e+01,6.060660171780e-01
85,-4.939339828220e-01,1.247454415588e+01,0.000000000000e+00
86,1.500000000000e-01,1.496400000000e+01,0.000000000000e+00
87,7.060660171780e-01,1.747454415588e+01,0.000000000000e+00
88,4.939339828220e-01,1.247454415588e+01,0.000000000000e+00
89,-1.500000000000e-01,1.496400000000e+01,0.000000000000e+00
90,-7.060660171780e-01,1.747454415588e+01,0.000000000000e+00
91,-4.939339828220e-01,1.247454415588e+01,2.000000000000e+00
92,1.500000000000e-01,1.496400000000e+01,2.000000000000e+00
93,7.060660171780e-01,1.747454415588e+01,2.000000000000e+00
94,4.939339828220e-01,1.247454415588e+01,2.000000000000e+00
95,-1.500000000000e-01,1.496400000000e+01,2.000000000000e+00
96,-7.060660171780e-01,1.747454415588e+01,2.000000000000e+00
97,-1.200000000000e+00,3.503000000000e+01,8.500000000000e-01
98,-1.200000000000e+00,3.503000000000e+01,1.150000000000e+00
99,1.200000000000e+00,3.503000000000e+01,8.500000000000e-01
100,1.200000000000e+00,3.503000000000e+01,1.150000000000e+00
101,1.500000000000e-01,3.496400000000e+01,0.000000000000e+00
102,-1.500000000000e-01,3.496400000000e+01,0.000000000000e+00
103,1.500000000000e-01,3.496400000000e+01,2.000000000000e+00
104,-1.500000000000e-01,3.496400000000e+01,2.000000000000e+00
105,-1.200000000000e+00,4.252121320344e+01,3.939339828220e-01
106,-1.200000000000e+00,4.503000000000e+01,8.500000000000e-01
107,-1.200000000000e+00,4.752121320344e+01,1.393933982822e+00
108,-1.200000000000e+00,4.252121320344e+01,1.606066017178e+00
109,-1.200000000000e+00,4.503000000000e+01,1.150000000000e+00
110,-1.200000000000e+00,4.752121320344e+01,6.060660171780e-01
111,1.200000000000e+00,4.252121320344e+01,3.939339828220e-01
112,1.200000000000e+00,4.503000000000e+01,8.500000000000e-01
113,1.200000000000e+00,4.752121320344e+01,1.393933982822e+00
114,1.200000000000e+00,4.252121320344e+01,1.606066017178e+00
115,1.200000000000e+00,4.503000000000e+01,1.150000000000e+00
116,1.200000000000e+00,4.752121320344e+01,6.060660171780e-01
117,-4.939339828220e-01,4.247454415588e+01,0.000000000000e+00
118,1.500000000000e-01,4.496400000000e+01,0.000000000000e+00
119,7.060660171780e-01,4.747454415588e+01,0.000000000000e+00
120,4.939339828220e-01,4.247454415588e+01,0.000000000000e+00
121,-1.500000000000e-01,4.496400000000e+01,0.000000000000e+00
122,-7.060660171780e-01,4.747454415588e+01,0.000000000000e+00
123,-4.939339828220e-01,4.247454415588e+01,2.000000000000e+00
124,1.500000000000e-01,4.496400000000e+01,2.000000000000e+00
125,7.060660171780e-01,4.747454415588e+01,2.000000000000e+00
126,4.939339828220e-01,4.247454415588e+01,2.000000000000e+00
127,-1.500000000000e-01,4.496400000000e+01,2.000000000000e+00
128,-7.060660171780e-01,4.747454415588e+01,2.000000000000e+00
*ELEMENT,TYPE=B31,ELSET=ALL
1,1,25
2,25,5
3,2,26
4,26,6
5,3,27
6,27,7
7,4,28
8,28,8
9,5,29
10,29,9
11,6,30
12,30,10
13,7,31
14,31,11
15,8,32
16,32,12
17,9,13
18,10,14
19,11,15
20,12,16
21,13,17
22,14,18
23,15,19
24,16,20
25,17,33
26,33,21
27,18,34
28,34,22
29,19,35
30,35,23
31,20,36
32,36,24
33,1,37
34,37,2
35,3,38
36,38,4
37,1,39
38,39,3
39,2,40
40,40,4
41,5,6
42,7,8
43,5,7
44,6,8
45,9,41
46,41,10
47,11,42
48,42,12
49,9,43
50,43,11
51,10,44
52,44,12
53,13,45
54,45,46
55,46,47
56,47,14
57,15,48
58,48,49
59,49,50
60,50,16
61,13,51
62,51,52
63,52,53
64,53,15
65,14,54
66,54,55
67,55,56
68,56,16
69,17,57
70,57,18
71,19,58
72,58,20
73,17,59
74,59,19
75,18,60
76,60,20
77,21,61
78,61,22
79,23,62
80,62,24
81,21,63
82,63,23
83,22,64
84,64,24
85,1,65
86,65,7
87,3,66
88,66,5
89,2,67
90,67,8
91,4,68
92,68,6
93,1,69
94,69,6
95,2,70
96,70,5
97,3,71
98,71,8
99,4,72
100,72,7
101,5,73
102,73,74
103,74,75
104,75,11
105,7,76
106,76,77
107,77,78
108,78,9
109,6,79
110,79,80
111,80,81
112,81,12
113,8,82
114,82,83
115,83,84
116,84,10
117,5,85
118,85,86
119,86,87
120,87,10
121,6,88
122,88,89
123,89,90
124,90,9
125,7,91
126,91,92
127,92,93
128,93,12
129,8,94
130,94,95
131,95,96
132,96,11
133,9,15
134,11,13
135,10,16
136,12,14
137,9,14
138,10,13
139,11,16
140,12,15
141,13,97
142,97,19
143,15,98
144,98,17
145,14,99
146,99,20
147,16,100
148,100,18
149,13,101
150,101,18
151,14,102
152,102,17
153,15,103
154,103,20
155,16,104
156,104,19
157,17,105
158,105,106
159,106,107
160,107,23
161,19,108
162,108,109
163,109,110
164,110,21
165,18,111
166,111,112
167,112,113
168,113,24
169,20,114
170,114,115
171,115,116
172,116,22
173,17,117
174,117,118
175,118,119
176,119,22
177,18,120
178,120,121
179,121,122
180,122,21
181,19,123
182,123,124
183,124,125
184,125,24
185,20,126
186,126,127
187,127,128
188,128,23
*NSET,NSET=NALL,GENERATE
1,128,1
*NSET,NSET=LEFT
1,2,3,4
*NSET,NSET=RIGHT
21,22,23,24
*MATERIAL,NAME=STEEL
*ELASTIC
2.100000000000e+11,0.300000000000
*BEAM SECTION,ELSET=ALL,MATERIAL=STEEL,SECTION=RECT
6.000000000000e-02,4.000000000000e-02
0.371390676354,0.557086014531,0.742781352708
*BOUNDARY
LEFT,1,6,0.0
*STEP
*STATIC
*BOUNDARY
21,1,1,5.000000000000e-03
21,2,2,0.0
21,3,3,-6.000000000000e-03
*BOUNDARY
22,1,1,5.000000000000e-03
22,2,2,0.0
22,3,3,6.000000000000e-03
*BOUNDARY
23,1,1,-5.000000000000e-03
23,2,2,0.0
23,3,3,-6.000000000000e-03
*BOUNDARY
24,1,1,-5.000000000000e-03
24,2,2,0.0
24,3,3,6.000000000000e-03
*NODE FILE,NSET=NALL
U
*NODE PRINT,NSET=NALL
U
*NODE PRINT,NSET=RIGHT
RF
*EL PRINT,ELSET=ALL,TOTALS=YES
ELSE
*END STEP
