*HEADING
Normalized cross-passage space-truss torsion benchmark
*NODE
1,-1.200000000000e+00,0.000000000000e+00,0.000000000000e+00
2,1.200000000000e+00,0.000000000000e+00,0.000000000000e+00
3,-1.200000000000e+00,0.000000000000e+00,2.000000000000e+00
4,1.200000000000e+00,0.000000000000e+00,2.000000000000e+00
5,-1.200000000000e+00,1.000000000000e+01,0.000000000000e+00
6,1.200000000000e+00,1.000000000000e+01,0.000000000000e+00
7,-1.200000000000e+00,1.000000000000e+01,2.000000000000e+00
8,1.200000000000e+00,1.000000000000e+01,2.000000000000e+00
9,-1.200000000000e+00,2.000000000000e+01,0.000000000000e+00
10,1.200000000000e+00,2.000000000000e+01,0.000000000000e+00
11,-1.200000000000e+00,2.000000000000e+01,2.000000000000e+00
12,1.200000000000e+00,2.000000000000e+01,2.000000000000e+00
13,-1.200000000000e+00,3.000000000000e+01,0.000000000000e+00
14,1.200000000000e+00,3.000000000000e+01,0.000000000000e+00
15,-1.200000000000e+00,3.000000000000e+01,2.000000000000e+00
16,1.200000000000e+00,3.000000000000e+01,2.000000000000e+00
17,-1.200000000000e+00,4.000000000000e+01,0.000000000000e+00
18,1.200000000000e+00,4.000000000000e+01,0.000000000000e+00
19,-1.200000000000e+00,4.000000000000e+01,2.000000000000e+00
20,1.200000000000e+00,4.000000000000e+01,2.000000000000e+00
21,-1.200000000000e+00,5.000000000000e+01,0.000000000000e+00
22,1.200000000000e+00,5.000000000000e+01,0.000000000000e+00
23,-1.200000000000e+00,5.000000000000e+01,2.000000000000e+00
24,1.200000000000e+00,5.000000000000e+01,2.000000000000e+00
25,-1.200000000000e+00,1.500000000000e+01,-1.500000000000e-01
26,1.200000000000e+00,1.500000000000e+01,1.500000000000e-01
27,-1.200000000000e+00,1.500000000000e+01,1.850000000000e+00
28,1.200000000000e+00,1.500000000000e+01,2.150000000000e+00
29,-1.200000000000e+00,3.125000000000e+01,-5.740251485476e-02
30,-1.200000000000e+00,3.250000000000e+01,-1.060660171780e-01
31,-1.200000000000e+00,3.375000000000e+01,-1.385819298767e-01
32,-1.200000000000e+00,3.500000000000e+01,-1.500000000000e-01
33,-1.200000000000e+00,3.625000000000e+01,-1.385819298767e-01
34,-1.200000000000e+00,3.750000000000e+01,-1.060660171780e-01
35,-1.200000000000e+00,3.875000000000e+01,-5.740251485476e-02
36,1.200000000000e+00,3.125000000000e+01,5.740251485476e-02
37,1.200000000000e+00,3.250000000000e+01,1.060660171780e-01
38,1.200000000000e+00,3.375000000000e+01,1.385819298767e-01
39,1.200000000000e+00,3.500000000000e+01,1.500000000000e-01
40,1.200000000000e+00,3.625000000000e+01,1.385819298767e-01
41,1.200000000000e+00,3.750000000000e+01,1.060660171780e-01
42,1.200000000000e+00,3.875000000000e+01,5.740251485476e-02
43,-1.200000000000e+00,3.125000000000e+01,1.942597485145e+00
44,-1.200000000000e+00,3.250000000000e+01,1.893933982822e+00
45,-1.200000000000e+00,3.375000000000e+01,1.861418070123e+00
46,-1.200000000000e+00,3.500000000000e+01,1.850000000000e+00
47,-1.200000000000e+00,3.625000000000e+01,1.861418070123e+00
48,-1.200000000000e+00,3.750000000000e+01,1.893933982822e+00
49,-1.200000000000e+00,3.875000000000e+01,1.942597485145e+00
50,1.200000000000e+00,3.125000000000e+01,2.057402514855e+00
51,1.200000000000e+00,3.250000000000e+01,2.106066017178e+00
52,1.200000000000e+00,3.375000000000e+01,2.138581929877e+00
53,1.200000000000e+00,3.500000000000e+01,2.150000000000e+00
54,1.200000000000e+00,3.625000000000e+01,2.138581929877e+00
55,1.200000000000e+00,3.750000000000e+01,2.106066017178e+00
56,1.200000000000e+00,3.875000000000e+01,2.057402514855e+00
57,-1.200000000000e+00,4.250000000000e+01,-1.060660171780e-01
58,-1.200000000000e+00,4.500000000000e+01,-1.500000000000e-01
59,-1.200000000000e+00,4.750000000000e+01,-1.060660171780e-01
60,1.200000000000e+00,4.250000000000e+01,1.060660171780e-01
61,1.200000000000e+00,4.500000000000e+01,1.500000000000e-01
62,1.200000000000e+00,4.750000000000e+01,1.060660171780e-01
63,-1.200000000000e+00,4.250000000000e+01,1.893933982822e+00
64,-1.200000000000e+00,4.500000000000e+01,1.850000000000e+00
65,-1.200000000000e+00,4.750000000000e+01,1.893933982822e+00
66,1.200000000000e+00,4.250000000000e+01,2.106066017178e+00
67,1.200000000000e+00,4.500000000000e+01,2.150000000000e+00
68,1.200000000000e+00,4.750000000000e+01,2.106066017178e+00
69,0.000000000000e+00,-3.600000000000e-02,0.000000000000e+00
70,0.000000000000e+00,3.600000000000e-02,2.000000000000e+00
71,-1.200000000000e+00,3.000000000000e-02,1.000000000000e+00
72,1.200000000000e+00,-3.000000000000e-02,1.000000000000e+00
73,0.000000000000e+00,9.964000000000e+00,0.000000000000e+00
74,0.000000000000e+00,1.003600000000e+01,2.000000000000e+00
75,-1.200000000000e+00,1.003000000000e+01,1.000000000000e+00
76,1.200000000000e+00,9.970000000000e+00,1.000000000000e+00
77,0.000000000000e+00,1.996400000000e+01,0.000000000000e+00
78,0.000000000000e+00,2.003600000000e+01,2.000000000000e+00
79,-1.200000000000e+00,2.003000000000e+01,1.000000000000e+00
80,1.200000000000e+00,1.997000000000e+01,1.000000000000e+00
81,0.000000000000e+00,3.996400000000e+01,0.000000000000e+00
82,0.000000000000e+00,4.003600000000e+01,2.000000000000e+00
83,-1.200000000000e+00,4.003000000000e+01,1.000000000000e+00
84,1.200000000000e+00,3.997000000000e+01,1.000000000000e+00
85,-9.000000000000e-01,4.998622339643e+01,0.000000000000e+00
86,-6.000000000000e-01,4.997454415588e+01,0.000000000000e+00
87,-3.000000000000e-01,4.996674033683e+01,0.000000000000e+00
88,0.000000000000e+00,4.996400000000e+01,0.000000000000e+00
89,3.000000000000e-01,4.996674033683e+01,0.000000000000e+00
90,6.000000000000e-01,4.997454415588e+01,0.000000000000e+00
91,9.000000000000e-01,4.998622339643e+01,0.000000000000e+00
92,-9.000000000000e-01,5.001377660357e+01,2.000000000000e+00
93,-6.000000000000e-01,5.002545584412e+01,2.000000000000e+00
94,-3.000000000000e-01,5.003325966317e+01,2.000000000000e+00
95,0.000000000000e+00,5.003600000000e+01,2.000000000000e+00
96,3.000000000000e-01,5.003325966317e+01,2.000000000000e+00
97,6.000000000000e-01,5.002545584412e+01,2.000000000000e+00
98,9.000000000000e-01,5.001377660357e+01,2.000000000000e+00
99,-1.200000000000e+00,5.001148050297e+01,2.500000000000e-01
100,-1.200000000000e+00,5.002121320344e+01,5.000000000000e-01
101,-1.200000000000e+00,5.002771638598e+01,7.500000000000e-01
102,-1.200000000000e+00,5.003000000000e+01,1.000000000000e+00
103,-1.200000000000e+00,5.002771638598e+01,1.250000000000e+00
104,-1.200000000000e+00,5.002121320344e+01,1.500000000000e+00
105,-1.200000000000e+00,5.001148050297e+01,1.750000000000e+00
106,1.200000000000e+00,4.998851949703e+01,2.500000000000e-01
107,1.200000000000e+00,4.997878679656e+01,5.000000000000e-01
108,1.200000000000e+00,4.997228361402e+01,7.500000000000e-01
109,1.200000000000e+00,4.997000000000e+01,1.000000000000e+00
110,1.200000000000e+00,4.997228361402e+01,1.250000000000e+00
111,1.200000000000e+00,4.997878679656e+01,1.500000000000e+00
112,1.200000000000e+00,4.998851949703e+01,1.750000000000e+00
113,-1.200000000000e+00,2.521213203436e+00,3.939339828220e-01
114,-1.200000000000e+00,5.030000000000e+00,8.500000000000e-01
115,-1.200000000000e+00,7.521213203436e+00,1.393933982822e+00
116,-1.200000000000e+00,2.521213203436e+00,1.606066017178e+00
117,-1.200000000000e+00,5.030000000000e+00,1.150000000000e+00
118,-1.200000000000e+00,7.521213203436e+00,6.060660171780e-01
119,1.200000000000e+00,2.521213203436e+00,3.939339828220e-01
120,1.200000000000e+00,5.030000000000e+00,8.500000000000e-01
121,1.200000000000e+00,7.521213203436e+00,1.393933982822e+00
122,1.200000000000e+00,2.521213203436e+00,1.606066017178e+00
123,1.200000000000e+00,5.030000000000e+00,1.150000000000e+00
124,1.200000000000e+00,7.521213203436e+00,6.060660171780e-01
125,-4.939339828220e-01,2.474544155877e+00,0.000000000000e+00
126,1.500000000000e-01,4.964000000000e+00,0.000000000000e+00
127,7.060660171780e-01,7.474544155877e+00,0.000000000000e+00
128,4.939339828220e-01,2.474544155877e+00,0.000000000000e+00
129,-1.500000000000e-01,4.964000000000e+00,0.000000000000e+00
130,-7.060660171780e-01,7.474544155877e+00,0.000000000000e+00
131,-4.939339828220e-01,2.474544155877e+00,2.000000000000e+00
132,1.500000000000e-01,4.964000000000e+00,2.000000000000e+00
133,7.060660171780e-01,7.474544155877e+00,2.000000000000e+00
134,4.939339828220e-01,2.474544155877e+00,2.000000000000e+00
135,-1.500000000000e-01,4.964000000000e+00,2.000000000000e+00
136,-7.060660171780e-01,7.474544155877e+00,2.000000000000e+00
137,-1.200000000000e+00,2.126148050297e+01,1.925974851452e-01
138,-1.200000000000e+00,2.252121320344e+01,3.939339828220e-01
139,-1.200000000000e+00,2.377771638598e+01,6.114180701233e-01
140,-1.200000000000e+00,2.503000000000e+01,8.500000000000e-01
141,-1.200000000000e+00,2.627771638598e+01,1.111418070123e+00
142,-1.200000000000e+00,2.752121320344e+01,1.393933982822e+00
143,-1.200000000000e+00,2.876148050297e+01,1.692597485145e+00
144,-1.200000000000e+00,2.126148050297e+01,1.807402514855e+00
145,-1.200000000000e+00,2.252121320344e+01,1.606066017178e+00
146,-1.200000000000e+00,2.377771638598e+01,1.388581929877e+00
147,-1.200000000000e+00,2.503000000000e+01,1.150000000000e+00
148,-1.200000000000e+00,2.627771638598e+01,8.885819298767e-01
149,-1.200000000000e+00,2.752121320344e+01,6.060660171780e-01
150,-1.200000000000e+00,2.876148050297e+01,3.074025148548e-01
151,1.200000000000e+00,2.126148050297e+01,1.925974851452e-01
152,1.200000000000e+00,2.252121320344e+01,3.939339828220e-01
153,1.200000000000e+00,2.377771638598e+01,6.114180701233e-01
154,1.200000000000e+00,2.503000000000e+01,8.500000000000e-01
155,1.200000000000e+00,2.627771638598e+01,1.111418070123e+00
156,1.200000000000e+00,2.752121320344e+01,1.393933982822e+00
157,1.200000000000e+00,2.876148050297e+01,1.692597485145e+00
158,1.200000000000e+00,2.126148050297e+01,1.807402514855e+00
159,1.200000000000e+00,2.252121320344e+01,1.606066017178e+00
160,1.200000000000e+00,2.377771638598e+01,1.388581929877e+00
161,1.200000000000e+00,2.503000000000e+01,1.150000000000e+00
162,1.200000000000e+00,2.627771638598e+01,8.885819298767e-01
163,1.200000000000e+00,2.752121320344e+01,6.060660171780e-01
164,1.200000000000e+00,2.876148050297e+01,3.074025148548e-01
165,-8.425974851452e-01,2.123622339643e+01,0.000000000000e+00
166,-4.939339828220e-01,2.247454415588e+01,0.000000000000e+00
167,-1.614180701233e-01,2.371674033683e+01,0.000000000000e+00
168,1.500000000000e-01,2.496400000000e+01,0.000000000000e+00
169,4.385819298767e-01,2.621674033683e+01,0.000000000000e+00
170,7.060660171780e-01,2.747454415588e+01,0.000000000000e+00
171,9.574025148548e-01,2.873622339643e+01,0.000000000000e+00
172,8.425974851452e-01,2.123622339643e+01,0.000000000000e+00
173,4.939339828220e-01,2.247454415588e+01,0.000000000000e+00
174,1.614180701233e-01,2.371674033683e+01,0.000000000000e+00
175,-1.500000000000e-01,2.496400000000e+01,0.000000000000e+00
176,-4.385819298767e-01,2.621674033683e+01,0.000000000000e+00
177,-7.060660171780e-01,2.747454415588e+01,0.000000000000e+00
178,-9.574025148548e-01,2.873622339643e+01,0.000000000000e+00
179,-8.425974851452e-01,2.123622339643e+01,2.000000000000e+00
180,-4.939339828220e-01,2.247454415588e+01,2.000000000000e+00
181,-1.614180701233e-01,2.371674033683e+01,2.000000000000e+00
182,1.500000000000e-01,2.496400000000e+01,2.000000000000e+00
183,4.385819298767e-01,2.621674033683e+01,2.000000000000e+00
184,7.060660171780e-01,2.747454415588e+01,2.000000000000e+00
185,9.574025148548e-01,2.873622339643e+01,2.000000000000e+00
186,8.425974851452e-01,2.123622339643e+01,2.000000000000e+00
187,4.939339828220e-01,2.247454415588e+01,2.000000000000e+00
188,1.614180701233e-01,2.371674033683e+01,2.000000000000e+00
189,-1.500000000000e-01,2.496400000000e+01,2.000000000000e+00
190,-4.385819298767e-01,2.621674033683e+01,2.000000000000e+00
191,-7.060660171780e-01,2.747454415588e+01,2.000000000000e+00
192,-9.574025148548e-01,2.873622339643e+01,2.000000000000e+00
193,-1.200000000000e+00,3.126148050297e+01,1.925974851452e-01
194,-1.200000000000e+00,3.252121320344e+01,3.939339828220e-01
195,-1.200000000000e+00,3.377771638598e+01,6.114180701233e-01
196,-1.200000000000e+00,3.503000000000e+01,8.500000000000e-01
197,-1.200000000000e+00,3.627771638598e+01,1.111418070123e+00
198,-1.200000000000e+00,3.752121320344e+01,1.393933982822e+00
199,-1.200000000000e+00,3.876148050297e+01,1.692597485145e+00
200,-1.200000000000e+00,3.126148050297e+01,1.807402514855e+00
201,-1.200000000000e+00,3.252121320344e+01,1.606066017178e+00
202,-1.200000000000e+00,3.377771638598e+01,1.388581929877e+00
203,-1.200000000000e+00,3.503000000000e+01,1.150000000000e+00
204,-1.200000000000e+00,3.627771638598e+01,8.885819298767e-01
205,-1.200000000000e+00,3.752121320344e+01,6.060660171780e-01
206,-1.200000000000e+00,3.876148050297e+01,3.074025148548e-01
207,1.200000000000e+00,3.126148050297e+01,1.925974851452e-01
208,1.200000000000e+00,3.252121320344e+01,3.939339828220e-01
209,1.200000000000e+00,3.377771638598e+01,6.114180701233e-01
210,1.200000000000e+00,3.503000000000e+01,8.500000000000e-01
211,1.200000000000e+00,3.627771638598e+01,1.111418070123e+00
212,1.200000000000e+00,3.752121320344e+01,1.393933982822e+00
213,1.200000000000e+00,3.876148050297e+01,1.692597485145e+00
214,1.200000000000e+00,3.126148050297e+01,1.807402514855e+00
215,1.200000000000e+00,3.252121320344e+01,1.606066017178e+00
216,1.200000000000e+00,3.377771638598e+01,1.388581929877e+00
217,1.200000000000e+00,3.503000000000e+01,1.150000000000e+00
218,1.200000000000e+00,3.627771638598e+01,8.885819298767e-01
219,1.200000000000e+00,3.752121320344e+01,6.060660171780e-01
220,1.200000000000e+00,3.876148050297e+01,3.074025148548e-01
221,-8.425974851452e-01,3.123622339643e+01,0.000000000000e+00
222,-4.939339828220e-01,3.247454415588e+01,0.000000000000e+00
223,-1.614180701233e-01,3.371674033683e+01,0.000000000000e+00
224,1.500000000000e-01,3.496400000000e+01,0.000000000000e+00
225,4.385819298767e-01,3.621674033683e+01,0.000000000000e+00
226,7.060660171780e-01,3.747454415588e+01,0.000000000000e+00
227,9.574025148548e-01,3.873622339643e+01,0.000000000000e+00
228,8.425974851452e-01,3.123622339643e+01,0.000000000000e+00
229,4.939339828220e-01,3.247454415588e+01,0.000000000000e+00
230,1.614180701233e-01,3.371674033683e+01,0.000000000000e+00
231,-1.500000000000e-01,3.496400000000e+01,0.000000000000e+00
232,-4.385819298767e-01,3.621674033683e+01,0.000000000000e+00
233,-7.060660171780e-01,3.747454415588e+01,0.000000000000e+00
234,-9.574025148548e-01,3.873622339643e+01,0.000000000000e+00
235,-8.425974851452e-01,3.123622339643e+01,2.000000000000e+00
236,-4.939339828220e-01,3.247454415588e+01,2.000000000000e+00
237,-1.614180701233e-01,3.371674033683e+01,2.000000000000e+00
238,1.500000000000e-01,3.496400000000e+01,2.000000000000e+00
239,4.385819298767e-01,3.621674033683e+01,2.000000000000e+00
240,7.060660171780e-01,3.747454415588e+01,2.000000000000e+00
241,9.574025148548e-01,3.873622339643e+01,2.000000000000e+00
242,8.425974851452e-01,3.123622339643e+01,2.000000000000e+00
243,4.939339828220e-01,3.247454415588e+01,2.000000000000e+00
244,1.614180701233e-01,3.371674033683e+01,2.000000000000e+00
245,-1.500000000000e-01,3.496400000000e+01,2.000000000000e+00
246,-4.385819298767e-01,3.621674033683e+01,2.000000000000e+00
247,-7.060660171780e-01,3.747454415588e+01,2.000000000000e+00
248,-9.574025148548e-01,3.873622339643e+01,2.000000000000e+00
249,-1.200000000000e+00,4.252121320344e+01,3.939339828220e-01
250,-1.200000000000e+00,4.503000000000e+01,8.500000000000e-01
251,-1.200000000000e+00,4.752121320344e+01,1.393933982822e+00
252,-1.200000000000e+00,4.252121320344e+01,1.606066017178e+00
253,-1.200000000000e+00,4.503000000000e+01,1.150000000000e+00
254,-1.200000000000e+00,4.752121320344e+01,6.060660171780e-01
255,1.200000000000e+00,4.252121320344e+01,3.939339828220e-01
256,1.200000000000e+00,4.503000000000e+01,8.500000000000e-01
257,1.200000000000e+00,4.752121320344e+01,1.393933982822e+00
258,1.200000000000e+00,4.252121320344e+01,1.606066017178e+00
259,1.200000000000e+00,4.503000000000e+01,1.150000000000e+00
260,1.200000000000e+00,4.752121320344e+01,6.060660171780e-01
261,-4.939339828220e-01,4.247454415588e+01,0.000000000000e+00
262,1.500000000000e-01,4.496400000000e+01,0.000000000000e+00
263,7.060660171780e-01,4.747454415588e+01,0.000000000000e+00
264,4.939339828220e-01,4.247454415588e+01,0.000000000000e+00
265,-1.500000000000e-01,4.496400000000e+01,0.000000000000e+00
266,-7.060660171780e-01,4.747454415588e+01,0.000000000000e+00
267,-4.939339828220e-01,4.247454415588e+01,2.000000000000e+00
268,1.500000000000e-01,4.496400000000e+01,2.000000000000e+00
269,7.060660171780e-01,4.747454415588e+01,2.000000000000e+00
270,4.939339828220e-01,4.247454415588e+01,2.000000000000e+00
271,-1.500000000000e-01,4.496400000000e+01,2.000000000000e+00
272,-7.060660171780e-01,4.747454415588e+01,2.000000000000e+00
*ELEMENT,TYPE=B31,ELSET=ALL
1,1,5
2,2,6
3,3,7
4,4,8
5,5,25
6,25,9
7,6,26
8,26,10
9,7,27
10,27,11
11,8,28
12,28,12
13,9,13
14,10,14
15,11,15
16,12,16
17,13,29
18,29,30
19,30,31
20,31,32
21,32,33
22,33,34
23,34,35
24,35,17
25,14,36
26,36,37
27,37,38
28,38,39
29,39,40
30,40,41
31,41,42
32,42,18
33,15,43
34,43,44
35,44,45
36,45,46
37,46,47
38,47,48
39,48,49
40,49,19
41,16,50
42,50,51
43,51,52
44,52,53
45,53,54
46,54,55
47,55,56
48,56,20
49,17,57
50,57,58
51,58,59
52,59,21
53,18,60
54,60,61
55,61,62
56,62,22
57,19,63
58,63,64
59,64,65
60,65,23
61,20,66
62,66,67
63,67,68
64,68,24
65,1,69
66,69,2
67,3,70
68,70,4
69,1,71
70,71,3
71,2,72
72,72,4
73,5,73
74,73,6
75,7,74
76,74,8
77,5,75
78,75,7
79,6,76
80,76,8
81,9,77
82,77,10
83,11,78
84,78,12
85,9,79
86,79,11
87,10,80
88,80,12
89,13,14
90,15,16
91,13,15
92,14,16
93,17,81
94,81,18
95,19,82
96,82,20
97,17,83
98,83,19
99,18,84
100,84,20
101,21,85
102,85,86
103,86,87
104,87,88
105,88,89
106,89,90
107,90,91
108,91,22
109,23,92
110,92,93
111,93,94
112,94,95
113,95,96
114,96,97
115,97,98
116,98,24
117,21,99
118,99,100
119,100,101
120,101,102
121,102,103
122,103,104
123,104,105
124,105,23
125,22,106
126,106,107
127,107,108
128,108,109
129,109,110
130,110,111
131,111,112
132,112,24
133,1,113
134,113,114
135,114,115
136,115,7
137,3,116
138,116,117
139,117,118
140,118,5
141,2,119
142,119,120
143,120,121
144,121,8
145,4,122
146,122,123
147,123,124
148,124,6
149,1,125
150,125,126
151,126,127
152,127,6
153,2,128
154,128,129
155,129,130
156,130,5
157,3,131
158,131,132
159,132,133
160,133,8
161,4,134
162,134,135
163,135,136
164,136,7
165,5,11
166,7,9
167,6,12
168,8,10
169,5,10
170,6,9
171,7,12
172,8,11
173,9,137
174,137,138
175,138,139
176,139,140
177,140,141
178,141,142
179,142,143
180,143,15
181,11,144
182,144,145
183,145,146
184,146,147
185,147,148
186,148,149
187,149,150
188,150,13
189,10,151
190,151,152
191,152,153
192,153,154
193,154,155
194,155,156
195,156,157
196,157,16
197,12,158
198,158,159
199,159,160
200,160,161
201,161,162
202,162,163
203,163,164
204,164,14
205,9,165
206,165,166
207,166,167
208,167,168
209,168,169
210,169,170
211,170,171
212,171,14
213,10,172
214,172,173
215,173,174
216,174,175
217,175,176
218,176,177
219,177,178
220,178,13
221,11,179
222,179,180
223,180,181
224,181,182
225,182,183
226,183,184
227,184,185
228,185,16
229,12,186
230,186,187
231,187,188
232,188,189
233,189,190
234,190,191
235,191,192
236,192,15
237,13,193
238,193,194
239,194,195
240,195,196
241,196,197
242,197,198
243,198,199
244,199,19
245,15,200
246,200,201
247,201,202
248,202,203
249,203,204
250,204,205
251,205,206
252,206,17
253,14,207
254,207,208
255,208,209
256,209,210
257,210,211
258,211,212
259,212,213
260,213,20
261,16,214
262,214,215
263,215,216
264,216,217
265,217,218
266,218,219
267,219,220
268,220,18
269,13,221
270,221,222
271,222,223
272,223,224
273,224,225
274,225,226
275,226,227
276,227,18
277,14,228
278,228,229
279,229,230
280,230,231
281,231,232
282,232,233
283,233,234
284,234,17
285,15,235
286,235,236
287,236,237
288,237,238
289,238,239
290,239,240
291,240,241
292,241,20
293,16,242
294,242,243
295,243,244
296,244,245
297,245,246
298,246,247
299,247,248
300,248,19
301,17,249
302,249,250
303,250,251
304,251,23
305,19,252
306,252,253
307,253,254
308,254,21
309,18,255
310,255,256
311,256,257
312,257,24
313,20,258
314,258,259
315,259,260
316,260,22
317,17,261
318,261,262
319,262,263
320,263,22
321,18,264
322,264,265
323,265,266
324,266,21
325,19,267
326,267,268
327,268,269
328,269,24
329,20,270
330,270,271
331,271,272
332,272,23
*NSET,NSET=NALL,GENERATE
1,272,1
*NSET,NSET=LEFT
1,2,3,4
*NSET,NSET=RIGHT
21,22,23,24
*MATERIAL,NAME=STEEL
*ELASTIC
2.100000000000e+11,0.300000000000
*BEAM SECTION,ELSET=ALL,MATERIAL=STEEL,SECTION=RECT
6.000000000000e-02,4.000000000000e-02
0.371390676354,0.557086014531,0.742781352708
*BOUNDARY
LEFT,1,6,0.0
*STEP
*STATIC
*BOUNDARY
21,1,1,5.000000000000e-03
21,2,2,0.0
21,3,3,-6.000000000000e-03
*BOUNDARY
22,1,1,5.000000000000e-03
22,2,2,0.0
22,3,3,6.000000000000e-03
*BOUNDARY
23,1,1,-5.000000000000e-03
23,2,2,0.0
23,3,3,-6.000000000000e-03
*BOUNDARY
24,1,1,-5.000000000000e-03
24,2,2,0.0
24,3,3,6.000000000000e-03
*NODE FILE,NSET=NALL
U
*NODE PRINT,NSET=NALL
U
*NODE PRINT,NSET=RIGHT
RF
*EL PRINT,ELSET=ALL,TOTALS=YES
ELSE
*END STEP
