*HEADING
Normalized cross-passage space-truss torsion benchmark
*NODE
1,-1.200000000000e+00,0.000000000000e+00,0.000000000000e+00
2,1.200000000000e+00,0.000000000000e+00,0.000000000000e+00
3,-1.200000000000e+00,0.000000000000e+00,2.000000000000e+00
4,1.200000000000e+00,0.000000000000e+00,2.000000000000e+00
5,-1.200000000000e+00,1.000000000000e+01,0.000000000000e+00
6,1.200000000000e+00,1.000000000000e+01,0.000000000000e+00
7,-1.200000000000e+00,1.000000000000e+01,2.000000000000e+00
8,1.200000000000e+00,1.000000000000e+01,2.000000000000e+00
9,-1.200000000000e+00,2.000000000000e+01,0.000000000000e+00
10,1.200000000000e+00,2.000000000000e+01,0.000000000000e+00
11,-1.200000000000e+00,2.000000000000e+01,2.000000000000e+00
12,1.200000000000e+00,2.000000000000e+01,2.000000000000e+00
13,-1.200000000000e+00,3.000000000000e+01,0.000000000000e+00
14,1.200000000000e+00,3.000000000000e+01,0.000000000000e+00
15,-1.200000000000e+00,3.000000000000e+01,2.000000000000e+00
16,1.200000000000e+00,3.000000000000e+01,2.000000000000e+00
17,-1.200000000000e+00,4.000000000000e+01,0.000000000000e+00
18,1.200000000000e+00,4.000000000000e+01,0.000000000000e+00
19,-1.200000000000e+00,4.000000000000e+01,2.000000000000e+00
20,1.200000000000e+00,4.000000000000e+01,2.000000000000e+00
21,-1.200000000000e+00,5.000000000000e+01,0.000000000000e+00
22,1.200000000000e+00,5.000000000000e+01,0.000000000000e+00
23,-1.200000000000e+00,5.000000000000e+01,2.000000000000e+00
24,1.200000000000e+00,5.000000000000e+01,2.000000000000e+00
25,-1.200000000000e+00,5.000000000000e+00,-1.500000000000e-01
26,1.200000000000e+00,5.000000000000e+00,1.500000000000e-01
27,-1.200000000000e+00,5.000000000000e+00,1.850000000000e+00
28,1.200000000000e+00,5.000000000000e+00,2.150000000000e+00
29,-1.200000000000e+00,2.250000000000e+01,-1.060660171780e-01
30,-1.200000000000e+00,2.500000000000e+01,-1.500000000000e-01
31,-1.200000000000e+00,2.750000000000e+01,-1.060660171780e-01
32,1.200000000000e+00,2.250000000000e+01,1.060660171780e-01
33,1.200000000000e+00,2.500000000000e+01,1.500000000000e-01
34,1.200000000000e+00,2.750000000000e+01,1.060660171780e-01
35,-1.200000000000e+00,2.250000000000e+01,1.893933982822e+00
36,-1.200000000000e+00,2.500000000000e+01,1.850000000000e+00
37,-1.200000000000e+00,2.750000000000e+01,1.893933982822e+00
38,1.200000000000e+00,2.250000000000e+01,2.106066017178e+00
39,1.200000000000e+00,2.500000000000e+01,2.150000000000e+00
40,1.200000000000e+00,2.750000000000e+01,2.106066017178e+00
41,-1.200000000000e+00,3.250000000000e+01,-1.060660171780e-01
42,-1.200000000000e+00,3.500000000000e+01,-1.500000000000e-01
43,-1.200000000000e+00,3.750000000000e+01,-1.060660171780e-01
44,1.200000000000e+00,3.250000000000e+01,1.060660171780e-01
45,1.200000000000e+00,3.500000000000e+01,1.500000000000e-01
46,1.200000000000e+00,3.750000000000e+01,1.060660171780e-01
47,-1.200000000000e+00,3.250000000000e+01,1.893933982822e+00
48,-1.200000000000e+00,3.500000000000e+01,1.850000000000e+00
49,-1.200000000000e+00,3.750000000000e+01,1.893933982822e+00
50,1.200000000000e+00,3.250000000000e+01,2.106066017178e+00
51,1.200000000000e+00,3.500000000000e+01,2.150000000000e+00
52,1.200000000000e+00,3.750000000000e+01,2.106066017178e+00
53,0.000000000000e+00,-3.600000000000e-02,0.000000000000e+00
54,0.000000000000e+00,3.600000000000e-02,2.000000000000e+00
55,-1.200000000000e+00,3.000000000000e-02,1.000000000000e+00
56,1.200000000000e+00,-3.000000000000e-02,1.000000000000e+00
57,0.000000000000e+00,9.964000000000e+00,0.000000000000e+00
58,0.000000000000e+00,1.003600000000e+01,2.000000000000e+00
59,-1.200000000000e+00,1.003000000000e+01,1.000000000000e+00
60,1.200000000000e+00,9.970000000000e+00,1.000000000000e+00
61,0.000000000000e+00,1.996400000000e+01,0.000000000000e+00
62,0.000000000000e+00,2.003600000000e+01,2.000000000000e+00
63,-1.200000000000e+00,2.003000000000e+01,1.000000000000e+00
64,1.200000000000e+00,1.997000000000e+01,1.000000000000e+00
65,0.000000000000e+00,2.996400000000e+01,0.000000000000e+00
66,0.000000000000e+00,3.003600000000e+01,2.000000000000e+00
67,-1.200000000000e+00,3.003000000000e+01,1.000000000000e+00
68,1.200000000000e+00,2.997000000000e+01,1.000000000000e+00
69,-6.000000000000e-01,3.997454415588e+01,0.000000000000e+00
70,0.000000000000e+00,3.996400000000e+01,0.000000000000e+00
71,6.000000000000e-01,3.997454415588e+01,0.000000000000e+00
72,-6.000000000000e-01,4.002545584412e+01,2.000000000000e+00
73,0.000000000000e+00,4.003600000000e+01,2.000000000000e+00
74,6.000000000000e-01,4.002545584412e+01,2.000000000000e+00
75,-1.200000000000e+00,4.002121320344e+01,5.000000000000e-01
76,-1.200000000000e+00,4.003000000000e+01,1.000000000000e+00
77,-1.200000000000e+00,4.002121320344e+01,1.500000000000e+00
78,1.200000000000e+00,3.997878679656e+01,5.000000000000e-01
79,1.200000000000e+00,3.997000000000e+01,1.000000000000e+00
80,1.200000000000e+00,3.997878679656e+01,1.500000000000e+00
81,-6.000000000000e-01,4.997454415588e+01,0.000000000000e+00
82,0.000000000000e+00,4.996400000000e+01,0.000000000000e+00
83,6.000000000000e-01,4.997454415588e+01,0.000000000000e+00
84,-6.000000000000e-01,5.002545584412e+01,2.000000000000e+00
85,0.000000000000e+00,5.003600000000e+01,2.000000000000e+00
86,6.000000000000e-01,5.002545584412e+01,2.000000000000e+00
87,-1.200000000000e+00,5.002121320344e+01,5.000000000000e-01
88,-1.200000000000e+00,5.003000000000e+01,1.000000000000e+00
89,-1.200000000000e+00,5.002121320344e+01,1.500000000000e+00
90,1.200000000000e+00,4.997878679656e+01,5.000000000000e-01
91,1.200000000000e+00,4.997000000000e+01,1.000000000000e+00
92,1.200000000000e+00,4.997878679656e+01,1.500000000000e+00
93,-1.200000000000e+00,5.030000000000e+00,8.500000000000e-01
94,-1.200000000000e+00,5.030000000000e+00,1.150000000000e+00
95,1.200000000000e+00,5.030000000000e+00,8.500000000000e-01
96,1.200000000000e+00,5.030000000000e+00,1.150000000000e+00
97,1.500000000000e-01,4.964000000000e+00,0.000000000000e+00
98,-1.500000000000e-01,4.964000000000e+00,0.000000000000e+00
99,1.500000000000e-01,4.964000000000e+00,2.000000000000e+00
100,-1.500000000000e-01,4.964000000000e+00,2.000000000000e+00
101,-1.200000000000e+00,1.503000000000e+01,8.500000000000e-01
102,-1.200000000000e+00,1.503000000000e+01,1.150000000000e+00
103,1.200000000000e+00,1.503000000000e+01,8.500000000000e-01
104,1.200000000000e+00,1.503000000000e+01,1.150000000000e+00
105,1.500000000000e-01,1.496400000000e+01,0.000000000000e+00
106,-1.500000000000e-01,1.496400000000e+01,0.000000000000e+00
107,1.500000000000e-01,1.496400000000e+01,2.000000000000e+00
108,-1.500000000000e-01,1.496400000000e+01,2.000000000000e+00
109,-1.200000000000e+00,2.503000000000e+01,8.500000000000e-01
110,-1.200000000000e+00,2.503000000000e+01,1.150000000000e+00
111,1.200000000000e+00,2.503000000000e+01,8.500000000000e-01
112,1.200000000000e+00,2.503000000000e+01,1.150000000000e+00
113,1.500000000000e-01,2.496400000000e+01,0.000000000000e+00
114,-1.500000000000e-01,2.496400000000e+01,0.000000000000e+00
115,1.500000000000e-01,2.496400000000e+01,2.000000000000e+00
116,-1.500000000000e-01,2.496400000000e+01,2.000000000000e+00
117,-1.200000000000e+00,3.503000000000e+01,8.500000000000e-01
118,-1.200000000000e+00,3.503000000000e+01,1.150000000000e+00
119,1.200000000000e+00,3.503000000000e+01,8.500000000000e-01
120,1.200000000000e+00,3.503000000000e+01,1.150000000000e+00
121,1.500000000000e-01,3.496400000000e+01,0.000000000000e+00
122,-1.500000000000e-01,3.496400000000e+01,0.000000000000e+00
123,1.500000000000e-01,3.496400000000e+01,2.000000000000e+00
124,-1.500000000000e-01,3.496400000000e+01,2.000000000000e+00
125,-1.200000000000e+00,4.126148050297e+01,1.925974851452e-01
126,-1.200000000000e+00,4.252121320344e+01,3.939339828220e-01
127,-1.200000000000e+00,4.377771638598e+01,6.114180701233e-01
128,-1.200000000000e+00,4.503000000000e+01,8.500000000000e-01
129,-1.200000000000e+00,4.627771638598e+01,1.111418070123e+00
130,-1.200000000000e+00,4.752121320344e+01,1.393933982822e+00
131,-1.200000000000e+00,4.876148050297e+01,1.692597485145e+00
132,-1.200000000000e+00,4.126148050297e+01,1.807402514855e+00
133,-1.200000000000e+00,4.252121320344e+01,1.606066017178e+00
134,-1.200000000000e+00,4.377771638598e+01,1.388581929877e+00
135,-1.200000000000e+00,4.503000000000e+01,1.150000000000e+00
136,-1.200000000000e+00,4.627771638598e+01,8.885819298767e-01
137,-1.200000000000e+00,4.752121320344e+01,6.060660171780e-01
138,-1.200000000000e+00,4.876148050297e+01,3.074025148548e-01
139,1.200000000000e+00,4.126148050297e+01,1.925974851452e-01
140,1.200000000000e+00,4.252121320344e+01,3.939339828220e-01
141,1.200000000000e+00,4.377771638598e+01,6.114180701233e-01
142,1.200000000000e+00,4.503000000000e+01,8.500000000000e-01
143,1.200000000000e+00,4.627771638598e+01,1.111418070123e+00
144,1.200000000000e+00,4.752121320344e+01,1.393933982822e+00
145,1.200000000000e+00,4.876148050297e+01,1.692597485145e+00
146,1.200000000000e+00,4.126148050297e+01,1.807402514855e+00
147,1.200000000000e+00,4.252121320344e+01,1.606066017178e+00
148,1.200000000000e+00,4.377771638598e+01,1.388581929877e+00
149,1.200000000000e+00,4.503000000000e+01,1.150000000000e+00
150,1.200000000000e+00,4.627771638598e+01,8.885819298767e-01
151,1.200000000000e+00,4.752121320344e+01,6.060660171780e-01
152,1.200000000000e+00,4.876148050297e+01,3.074025148548e-01
153,-8.425974851452e-01,4.123622339643e+01,0.000000000000e+00
154,-4.939339828220e-01,4.247454415588e+01,0.000000000000e+00
155,-1.614180701233e-01,4.371674033683e+01,0.000000000000e+00
156,1.500000000000e-01,4.496400000000e+01,0.000000000000e+00
157,4.385819298767e-01,4.621674033683e+01,0.000000000000e+00
158,7.060660171780e-01,4.747454415588e+01,0.000000000000e+00
159,9.574025148548e-01,4.873622339643e+01,0.000000000000e+00
160,8.425974851452e-01,4.123622339643e+01,0.000000000000e+00
161,4.939339828220e-01,4.247454415588e+01,0.000000000000e+00
162,1.614180701233e-01,4.371674033683e+01,0.000000000000e+00
163,-1.500000000000e-01,4.496400000000e+01,0.000000000000e+00
164,-4.385819298767e-01,4.621674033683e+01,0.000000000000e+00
165,-7.060660171780e-01,4.747454415588e+01,0.000000000000e+00
166,-9.574025148548e-01,4.873622339643e+01,0.000000000000e+00
167,-8.425974851452e-01,4.123622339643e+01,2.000000000000e+00
168,-4.939339828220e-01,4.247454415588e+01,2.000000000000e+00
169,-1.614180701233e-01,4.371674033683e+01,2.000000000000e+00
170,1.500000000000e-01,4.496400000000e+01,2.000000000000e+00
171,4.385819298767e-01,4.621674033683e+01,2.000000000000e+00
172,7.060660171780e-01,4.747454415588e+01,2.000000000000e+00
173,9.574025148548e-01,4.873622339643e+01,2.000000000000e+00
174,8.425974851452e-01,4.123622339643e+01,2.000000000000e+00
175,4.939339828220e-01,4.247454415588e+01,2.000000000000e+00
176,1.614180701233e-01,4.371674033683e+01,2.000000000000e+00
177,-1.500000000000e-01,4.496400000000e+01,2.000000000000e+00
178,-4.385819298767e-01,4.621674033683e+01,2.000000000000e+00
179,-7.060660171780e-01,4.747454415588e+01,2.000000000000e+00
180,-9.574025148548e-01,4.873622339643e+01,2.000000000000e+00
*ELEMENT,TYPE=B31,ELSET=ALL
1,1,25
2,25,5
3,2,26
4,26,6
5,3,27
6,27,7
7,4,28
8,28,8
9,5,9
10,6,10
11,7,11
12,8,12
13,9,29
14,29,30
15,30,31
16,31,13
17,10,32
18,32,33
19,33,34
20,34,14
21,11,35
22,35,36
23,36,37
24,37,15
25,12,38
26,38,39
27,39,40
28,40,16
29,13,41
30,41,42
31,42,43
32,43,17
33,14,44
34,44,45
35,45,46
36,46,18
37,15,47
38,47,48
39,48,49
40,49,19
41,16,50
42,50,51
43,51,52
44,52,20
45,17,21
46,18,22
47,19,23
48,20,24
49,1,53
50,53,2
51,3,54
52,54,4
53,1,55
54,55,3
55,2,56
56,56,4
57,5,57
58,57,6
59,7,58
60,58,8
61,5,59
62,59,7
63,6,60
64,60,8
65,9,61
66,61,10
67,11,62
68,62,12
69,9,63
70,63,11
71,10,64
72,64,12
73,13,65
74,65,14
75,15,66
76,66,16
77,13,67
78,67,15
79,14,68
80,68,16
81,17,69
82,69,70
83,70,71
84,71,18
85,19,72
86,72,73
87,73,74
88,74,20
89,17,75
90,75,76
91,76,77
92,77,19
93,18,78
94,78,79
95,79,80
96,80,20
97,21,81
98,81,82
99,82,83
100,83,22
101,23,84
102,84,85
103,85,86
104,86,24
105,21,87
106,87,88
107,88,89
108,89,23
109,22,90
110,90,91
111,91,92
112,92,24
113,1,93
114,93,7
115,3,94
116,94,5
117,2,95
118,95,8
119,4,96
120,96,6
121,1,97
122,97,6
123,2,98
124,98,5
125,3,99
126,99,8
127,4,100
128,100,7
129,5,101
130,101,11
131,7,102
132,102,9
133,6,103
134,103,12
135,8,104
136,104,10
137,5,105
138,105,10
139,6,106
140,106,9
141,7,107
142,107,12
143,8,108
144,108,11
145,9,109
146,109,15
147,11,110
148,110,13
149,10,111
150,111,16
151,12,112
152,112,14
153,9,113
154,113,14
155,10,114
156,114,13
157,11,115
158,115,16
159,12,116
160,116,15
161,13,117
162,117,19
163,15,118
164,118,17
165,14,119
166,119,20
167,16,120
168,120,18
169,13,121
170,121,18
171,14,122
172,122,17
173,15,123
174,123,20
175,16,124
176,124,19
177,17,125
178,125,126
179,126,127
180,127,128
181,128,129
182,129,130
183,130,131
184,131,23
185,19,132
186,132,133
187,133,134
188,134,135
189,135,136
190,136,137
191,137,138
192,138,21
193,18,139
194,139,140
195,140,141
196,141,142
197,142,143
198,143,144
199,144,145
200,145,24
201,20,146
202,146,147
203,147,148
204,148,149
205,149,150
206,150,151
207,151,152
208,152,22
209,17,153
210,153,154
211,154,155
212,155,156
213,156,157
214,157,158
215,158,159
216,159,22
217,18,160
218,160,161
219,161,162
220,162,163
221,163,164
222,164,165
223,165,166
224,166,21
225,19,167
226,167,168
227,168,169
228,169,170
229,170,171
230,171,172
231,172,173
232,173,24
233,20,174
234,174,175
235,175,176
236,176,177
237,177,178
238,178,179
239,179,180
240,180,23
*NSET,NSET=NALL,GENERATE
1,180,1
*NSET,NSET=LEFT
1,2,3,4
*NSET,NSET=RIGHT
21,22,23,24
*MATERIAL,NAME=STEEL
*ELASTIC
2.100000000000e+11,0.300000000000
*BEAM SECTION,ELSET=ALL,MATERIAL=STEEL,SECTION=RECT
6.000000000000e-02,4.000000000000e-02
0.371390676354,0.557086014531,0.742781352708
*BOUNDARY
LEFT,1,6,0.0
*STEP
*STATIC
*BOUNDARY
21,1,1,5.000000000000e-03
21,2,2,0.0
21,3,3,-6.000000000000e-03
*BOUNDARY
22,1,1,5.000000000000e-03
22,2,2,0.0
22,3,3,6.000000000000e-03
*BOUNDARY
23,1,1,-5.000000000000e-03
23,2,2,0.0
23,3,3,-6.000000000000e-03
*BOUNDARY
24,1,1,-5.000000000000e-03
24,2,2,0.0
24,3,3,6.000000000000e-03
*NODE FILE,NSET=NALL
U
*NODE PRINT,NSET=NALL
U
*NODE PRINT,NSET=RIGHT
RF
*EL PRINT,ELSET=ALL,TOTALS=YES
ELSE
*END STEP
