*HEADING
Normalized cross-passage space-truss torsion benchmark
*NODE
1,-1.200000000000e+00,0.000000000000e+00,0.000000000000e+00
2,1.200000000000e+00,0.000000000000e+00,0.000000000000e+00
3,-1.200000000000e+00,0.000000000000e+00,2.000000000000e+00
4,1.200000000000e+00,0.000000000000e+00,2.000000000000e+00
5,-1.200000000000e+00,1.000000000000e+01,0.000000000000e+00
6,1.200000000000e+00,1.000000000000e+01,0.000000000000e+00
7,-1.200000000000e+00,1.000000000000e+01,2.000000000000e+00
8,1.200000000000e+00,1.000000000000e+01,2.000000000000e+00
9,-1.200000000000e+00,2.000000000000e+01,0.000000000000e+00
10,1.200000000000e+00,2.000000000000e+01,0.000000000000e+00
11,-1.200000000000e+00,2.000000000000e+01,2.000000000000e+00
12,1.200000000000e+00,2.000000000000e+01,2.000000000000e+00
13,-1.200000000000e+00,3.000000000000e+01,0.000000000000e+00
14,1.200000000000e+00,3.000000000000e+01,0.000000000000e+00
15,-1.200000000000e+00,3.000000000000e+01,2.000000000000e+00
16,1.200000000000e+00,3.000000000000e+01,2.000000000000e+00
17,-1.200000000000e+00,4.000000000000e+01,0.000000000000e+00
18,1.200000000000e+00,4.000000000000e+01,0.000000000000e+00
19,-1.200000000000e+00,4.000000000000e+01,2.000000000000e+00
20,1.200000000000e+00,4.000000000000e+01,2.000000000000e+00
21,-1.200000000000e+00,5.000000000000e+01,0.000000000000e+00
22,1.200000000000e+00,5.000000000000e+01,0.000000000000e+00
23,-1.200000000000e+00,5.000000000000e+01,2.000000000000e+00
24,1.200000000000e+00,5.000000000000e+01,2.000000000000e+00
25,-1.200000000000e+00,1.250000000000e+01,-1.060660171780e-01
26,-1.200000000000e+00,1.500000000000e+01,-1.500000000000e-01
27,-1.200000000000e+00,1.750000000000e+01,-1.060660171780e-01
28,1.200000000000e+00,1.250000000000e+01,1.060660171780e-01
29,1.200000000000e+00,1.500000000000e+01,1.500000000000e-01
30,1.200000000000e+00,1.750000000000e+01,1.060660171780e-01
31,-1.200000000000e+00,1.250000000000e+01,1.893933982822e+00
32,-1.200000000000e+00,1.500000000000e+01,1.850000000000e+00
33,-1.200000000000e+00,1.750000000000e+01,1.893933982822e+00
34,1.200000000000e+00,1.250000000000e+01,2.106066017178e+00
35,1.200000000000e+00,1.500000000000e+01,2.150000000000e+00
36,1.200000000000e+00,1.750000000000e+01,2.106066017178e+00
37,-1.200000000000e+00,2.500000000000e+01,-1.500000000000e-01
38,1.200000000000e+00,2.500000000000e+01,1.500000000000e-01
39,-1.200000000000e+00,2.500000000000e+01,1.850000000000e+00
40,1.200000000000e+00,2.500000000000e+01,2.150000000000e+00
41,-1.200000000000e+00,3.125000000000e+01,-5.740251485476e-02
42,-1.200000000000e+00,3.250000000000e+01,-1.060660171780e-01
43,-1.200000000000e+00,3.375000000000e+01,-1.385819298767e-01
44,-1.200000000000e+00,3.500000000000e+01,-1.500000000000e-01
45,-1.200000000000e+00,3.625000000000e+01,-1.385819298767e-01
46,-1.200000000000e+00,3.750000000000e+01,-1.060660171780e-01
47,-1.200000000000e+00,3.875000000000e+01,-5.740251485476e-02
48,1.200000000000e+00,3.125000000000e+01,5.740251485476e-02
49,1.200000000000e+00,3.250000000000e+01,1.060660171780e-01
50,1.200000000000e+00,3.375000000000e+01,1.385819298767e-01
51,1.200000000000e+00,3.500000000000e+01,1.500000000000e-01
52,1.200000000000e+00,3.625000000000e+01,1.385819298767e-01
53,1.200000000000e+00,3.750000000000e+01,1.060660171780e-01
54,1.200000000000e+00,3.875000000000e+01,5.740251485476e-02
55,-1.200000000000e+00,3.125000000000e+01,1.942597485145e+00
56,-1.200000000000e+00,3.250000000000e+01,1.893933982822e+00
57,-1.200000000000e+00,3.375000000000e+01,1.861418070123e+00
58,-1.200000000000e+00,3.500000000000e+01,1.850000000000e+00
59,-1.200000000000e+00,3.625000000000e+01,1.861418070123e+00
60,-1.200000000000e+00,3.750000000000e+01,1.893933982822e+00
61,-1.200000000000e+00,3.875000000000e+01,1.942597485145e+00
62,1.200000000000e+00,3.125000000000e+01,2.057402514855e+00
63,1.200000000000e+00,3.250000000000e+01,2.106066017178e+00
64,1.200000000000e+00,3.375000000000e+01,2.138581929877e+00
65,1.200000000000e+00,3.500000000000e+01,2.150000000000e+00
66,1.200000000000e+00,3.625000000000e+01,2.138581929877e+00
67,1.200000000000e+00,3.750000000000e+01,2.106066017178e+00
68,1.200000000000e+00,3.875000000000e+01,2.057402514855e+00
69,-1.200000000000e+00,4.250000000000e+01,-1.060660171780e-01
70,-1.200000000000e+00,4.500000000000e+01,-1.500000000000e-01
71,-1.200000000000e+00,4.750000000000e+01,-1.060660171780e-01
72,1.200000000000e+00,4.250000000000e+01,1.060660171780e-01
73,1.200000000000e+00,4.500000000000e+01,1.500000000000e-01
74,1.200000000000e+00,4.750000000000e+01,1.060660171780e-01
75,-1.200000000000e+00,4.250000000000e+01,1.893933982822e+00
76,-1.200000000000e+00,4.500000000000e+01,1.850000000000e+00
77,-1.200000000000e+00,4.750000000000e+01,1.893933982822e+00
78,1.200000000000e+00,4.250000000000e+01,2.106066017178e+00
79,1.200000000000e+00,4.500000000000e+01,2.150000000000e+00
80,1.200000000000e+00,4.750000000000e+01,2.106066017178e+00
81,-6.000000000000e-01,-2.545584412272e-02,0.000000000000e+00
82,0.000000000000e+00,-3.600000000000e-02,0.000000000000e+00
83,6.000000000000e-01,-2.545584412272e-02,0.000000000000e+00
84,-6.000000000000e-01,2.545584412272e-02,2.000000000000e+00
85,0.000000000000e+00,3.600000000000e-02,2.000000000000e+00
86,6.000000000000e-01,2.545584412272e-02,2.000000000000e+00
87,-1.200000000000e+00,2.121320343560e-02,5.000000000000e-01
88,-1.200000000000e+00,3.000000000000e-02,1.000000000000e+00
89,-1.200000000000e+00,2.121320343560e-02,1.500000000000e+00
90,1.200000000000e+00,-2.121320343560e-02,5.000000000000e-01
91,1.200000000000e+00,-3.000000000000e-02,1.000000000000e+00
92,1.200000000000e+00,-2.121320343560e-02,1.500000000000e+00
93,0.000000000000e+00,1.996400000000e+01,0.000000000000e+00
94,0.000000000000e+00,2.003600000000e+01,2.000000000000e+00
95,-1.200000000000e+00,2.003000000000e+01,1.000000000000e+00
96,1.200000000000e+00,1.997000000000e+01,1.000000000000e+00
97,0.000000000000e+00,2.996400000000e+01,0.000000000000e+00
98,0.000000000000e+00,3.003600000000e+01,2.000000000000e+00
99,-1.200000000000e+00,3.003000000000e+01,1.000000000000e+00
100,1.200000000000e+00,2.997000000000e+01,1.000000000000e+00
101,-6.000000000000e-01,4.997454415588e+01,0.000000000000e+00
102,0.000000000000e+00,4.996400000000e+01,0.000000000000e+00
103,6.000000000000e-01,4.997454415588e+01,0.000000000000e+00
104,-6.000000000000e-01,5.002545584412e+01,2.000000000000e+00
105,0.000000000000e+00,5.003600000000e+01,2.000000000000e+00
106,6.000000000000e-01,5.002545584412e+01,2.000000000000e+00
107,-1.200000000000e+00,5.002121320344e+01,5.000000000000e-01
108,-1.200000000000e+00,5.003000000000e+01,1.000000000000e+00
109,-1.200000000000e+00,5.002121320344e+01,1.500000000000e+00
110,1.200000000000e+00,4.997878679656e+01,5.000000000000e-01
111,1.200000000000e+00,4.997000000000e+01,1.000000000000e+00
112,1.200000000000e+00,4.997878679656e+01,1.500000000000e+00
113,-1.200000000000e+00,2.521213203436e+00,3.939339828220e-01
114,-1.200000000000e+00,5.030000000000e+00,8.500000000000e-01
115,-1.200000000000e+00,7.521213203436e+00,1.393933982822e+00
116,-1.200000000000e+00,2.521213203436e+00,1.606066017178e+00
117,-1.200000000000e+00,5.030000000000e+00,1.150000000000e+00
118,-1.200000000000e+00,7.521213203436e+00,6.060660171780e-01
119,1.200000000000e+00,2.521213203436e+00,3.939339828220e-01
120,1.200000000000e+00,5.030000000000e+00,8.500000000000e-01
121,1.200000000000e+00,7.521213203436e+00,1.393933982822e+00
122,1.200000000000e+00,2.521213203436e+00,1.606066017178e+00
123,1.200000000000e+00,5.030000000000e+00,1.150000000000e+00
124,1.200000000000e+00,7.521213203436e+00,6.060660171780e-01
125,-4.939339828220e-01,2.474544155877e+00,0.000000000000e+00
126,1.500000000000e-01,4.964000000000e+00,0.000000000000e+00
127,7.060660171780e-01,7.474544155877e+00,0.000000000000e+00
128,4.939339828220e-01,2.474544155877e+00,0.000000000000e+00
129,-1.500000000000e-01,4.964000000000e+00,0.000000000000e+00
130,-7.060660171780e-01,7.474544155877e+00,0.000000000000e+00
131,-4.939339828220e-01,2.474544155877e+00,2.000000000000e+00
132,1.500000000000e-01,4.964000000000e+00,2.000000000000e+00
133,7.060660171780e-01,7.474544155877e+00,2.000000000000e+00
134,4.939339828220e-01,2.474544155877e+00,2.000000000000e+00
135,-1.500000000000e-01,4.964000000000e+00,2.000000000000e+00
136,-7.060660171780e-01,7.474544155877e+00,2.000000000000e+00
137,-1.200000000000e+00,2.126148050297e+01,1.925974851452e-01
138,-1.200000000000e+00,2.252121320344e+01,3.939339828220e-01
139,-1.200000000000e+00,2.377771638598e+01,6.114180701233e-01
140,-1.200000000000e+00,2.503000000000e+01,8.500000000000e-01
141,-1.200000000000e+00,2.627771638598e+01,1.111418070123e+00
142,-1.200000000000e+00,2.752121320344e+01,1.393933982822e+00
143,-1.200000000000e+00,2.876148050297e+01,1.692597485145e+00
144,-1.200000000000e+00,2.126148050297e+01,1.807402514855e+00
145,-1.200000000000e+00,2.252121320344e+01,1.606066017178e+00
146,-1.200000000000e+00,2.377771638598e+01,1.388581929877e+00
147,-1.200000000000e+00,2.503000000000e+01,1.150000000000e+00
148,-1.200000000000e+00,2.627771638598e+01,8.885819298767e-01
149,-1.200000000000e+00,2.752121320344e+01,6.060660171780e-01
150,-1.200000000000e+00,2.876148050297e+01,3.074025148548e-01
151,1.200000000000e+00,2.126148050297e+01,1.925974851452e-01
152,1.200000000000e+00,2.252121320344e+01,3.939339828220e-01
153,1.200000000000e+00,2.377771638598e+01,6.114180701233e-01
154,1.200000000000e+00,2.503000000000e+01,8.500000000000e-01
155,1.200000000000e+00,2.627771638598e+01,1.111418070123e+00
156,1.200000000000e+00,2.752121320344e+01,1.393933982822e+00
157,1.200000000000e+00,2.876148050297e+01,1.692597485145e+00
158,1.200000000000e+00,2.126148050297e+01,1.807402514855e+00
159,1.200000000000e+00,2.252121320344e+01,1.606066017178e+00
160,1.200000000000e+00,2.377771638598e+01,1.388581929877e+00
161,1.200000000000e+00,2.503000000000e+01,1.150000000000e+00
162,1.200000000000e+00,2.627771638598e+01,8.885819298767e-01
163,1.200000000000e+00,2.752121320344e+01,6.060660171780e-01
164,1.200000000000e+00,2.876148050297e+01,3.074025148548e-01
165,-8.425974851452e-01,2.123622339643e+01,0.000000000000e+00
166,-4.939339828220e-01,2.247454415588e+01,0.000000000000e+00
167,-1.614180701233e-01,2.371674033683e+01,0.000000000000e+00
168,1.500000000000e-01,2.496400000000e+01,0.000000000000e+00
169,4.385819298767e-01,2.621674033683e+01,0.000000000000e+00
170,7.060660171780e-01,2.747454415588e+01,0.000000000000e+00
171,9.574025148548e-01,2.873622339643e+01,0.000000000000e+00
172,8.425974851452e-01,2.123622339643e+01,0.000000000000e+00
173,4.939339828220e-01,2.247454415588e+01,0.000000000000e+00
174,1.614180701233e-01,2.371674033683e+01,0.000000000000e+00
175,-1.500000000000e-01,2.496400000000e+01,0.000000000000e+00
176,-4.385819298767e-01,2.621674033683e+01,0.000000000000e+00
177,-7.060660171780e-01,2.747454415588e+01,0.000000000000e+00
178,-9.574025148548e-01,2.873622339643e+01,0.000000000000e+00
179,-8.425974851452e-01,2.123622339643e+01,2.000000000000e+00
180,-4.939339828220e-01,2.247454415588e+01,2.000000000000e+00
181,-1.614180701233e-01,2.371674033683e+01,2.000000000000e+00
182,1.500000000000e-01,2.496400000000e+01,2.000000000000e+00
183,4.385819298767e-01,2.621674033683e+01,2.000000000000e+00
184,7.060660171780e-01,2.747454415588e+01,2.000000000000e+00
185,9.574025148548e-01,2.873622339643e+01,2.000000000000e+00
186,8.425974851452e-01,2.123622339643e+01,2.000000000000e+00
187,4.939339828220e-01,2.247454415588e+01,2.000000000000e+00
188,1.614180701233e-01,2.371674033683e+01,2.000000000000e+00
189,-1.500000000000e-01,2.496400000000e+01,2.000000000000e+00
190,-4.385819298767e-01,2.621674033683e+01,2.000000000000e+00
191,-7.060660171780e-01,2.747454415588e+01,2.000000000000e+00
192,-9.574025148548e-01,2.873622339643e+01,2.000000000000e+00
193,-1.200000000000e+00,3.252121320344e+01,3.939339828220e-01
194,-1.200000000000e+00,3.503000000000e+01,8.500000000000e-01
195,-1.200000000000e+00,3.752121320344e+01,1.393933982822e+00
196,-1.200000000000e+00,3.252121320344e+01,1.606066017178e+00
197,-1.200000000000e+00,3.503000000000e+01,1.150000000000e+00
198,-1.200000000000e+00,3.752121320344e+01,6.060660171780e-01
199,1.200000000000e+00,3.252121320344e+01,3.939339828220e-01
200,1.200000000000e+00,3.503000000000e+01,8.500000000000e-01
201,1.200000000000e+00,3.752121320344e+01,1.393933982822e+00
202,1.200000000000e+00,3.252121320344e+01,1.606066017178e+00
203,1.200000000000e+00,3.503000000000e+01,1.150000000000e+00
204,1.200000000000e+00,3.752121320344e+01,6.060660171780e-01
205,-4.939339828220e-01,3.247454415588e+01,0.000000000000e+00
206,1.500000000000e-01,3.496400000000e+01,0.000000000000e+00
207,7.060660171780e-01,3.747454415588e+01,0.000000000000e+00
208,4.939339828220e-01,3.247454415588e+01,0.000000000000e+00
209,-1.500000000000e-01,3.496400000000e+01,0.000000000000e+00
210,-7.060660171780e-01,3.747454415588e+01,0.000000000000e+00
211,-4.939339828220e-01,3.247454415588e+01,2.000000000000e+00
212,1.500000000000e-01,3.496400000000e+01,2.000000000000e+00
213,7.060660171780e-01,3.747454415588e+01,2.000000000000e+00
214,4.939339828220e-01,3.247454415588e+01,2.000000000000e+00
215,-1.500000000000e-01,3.496400000000e+01,2.000000000000e+00
216,-7.060660171780e-01,3.747454415588e+01,2.000000000000e+00
217,-1.200000000000e+00,4.126148050297e+01,1.925974851452e-01
218,-1.200000000000e+00,4.252121320344e+01,3.939339828220e-01
219,-1.200000000000e+00,4.377771638598e+01,6.114180701233e-01
220,-1.200000000000e+00,4.503000000000e+01,8.500000000000e-01
221,-1.200000000000e+00,4.627771638598e+01,1.111418070123e+00
222,-1.200000000000e+00,4.752121320344e+01,1.393933982822e+00
223,-1.200000000000e+00,4.876148050297e+01,1.692597485145e+00
224,-1.200000000000e+00,4.126148050297e+01,1.807402514855e+00
225,-1.200000000000e+00,4.252121320344e+01,1.606066017178e+00
226,-1.200000000000e+00,4.377771638598e+01,1.388581929877e+00
227,-1.200000000000e+00,4.503000000000e+01,1.150000000000e+00
228,-1.200000000000e+00,4.627771638598e+01,8.885819298767e-01
229,-1.200000000000e+00,4.752121320344e+01,6.060660171780e-01
230,-1.200000000000e+00,4.876148050297e+01,3.074025148548e-01
231,1.200000000000e+00,4.126148050297e+01,1.925974851452e-01
232,1.200000000000e+00,4.252121320344e+01,3.939339828220e-01
233,1.200000000000e+00,4.377771638598e+01,6.114180701233e-01
234,1.200000000000e+00,4.503000000000e+01,8.500000000000e-01
235,1.200000000000e+00,4.627771638598e+01,1.111418070123e+00
236,1.200000000000e+00,4.752121320344e+01,1.393933982822e+00
237,1.200000000000e+00,4.876148050297e+01,1.692597485145e+00
238,1.200000000000e+00,4.126148050297e+01,1.807402514855e+00
239,1.200000000000e+00,4.252121320344e+01,1.606066017178e+00
240,1.200000000000e+00,4.377771638598e+01,1.388581929877e+00
241,1.200000000000e+00,4.503000000000e+01,1.150000000000e+00
242,1.200000000000e+00,4.627771638598e+01,8.885819298767e-01
243,1.200000000000e+00,4.752121320344e+01,6.060660171780e-01
244,1.200000000000e+00,4.876148050297e+01,3.074025148548e-01
245,-8.425974851452e-01,4.123622339643e+01,0.000000000000e+00
246,-4.939339828220e-01,4.247454415588e+01,0.000000000000e+00
247,-1.614180701233e-01,4.371674033683e+01,0.000000000000e+00
248,1.500000000000e-01,4.496400000000e+01,0.000000000000e+00
249,4.385819298767e-01,4.621674033683e+01,0.000000000000e+00
250,7.060660171780e-01,4.747454415588e+01,0.000000000000e+00
251,9.574025148548e-01,4.873622339643e+01,0.000000000000e+00
252,8.425974851452e-01,4.123622339643e+01,0.000000000000e+00
253,4.939339828220e-01,4.247454415588e+01,0.000000000000e+00
254,1.614180701233e-01,4.371674033683e+01,0.000000000000e+00
255,-1.500000000000e-01,4.496400000000e+01,0.000000000000e+00
256,-4.385819298767e-01,4.621674033683e+01,0.000000000000e+00
257,-7.060660171780e-01,4.747454415588e+01,0.000000000000e+00
258,-9.574025148548e-01,4.873622339643e+01,0.000000000000e+00
259,-8.425974851452e-01,4.123622339643e+01,2.000000000000e+00
260,-4.939339828220e-01,4.247454415588e+01,2.000000000000e+00
261,-1.614180701233e-01,4.371674033683e+01,2.000000000000e+00
262,1.500000000000e-01,4.496400000000e+01,2.000000000000e+00
263,4.385819298767e-01,4.621674033683e+01,2.000000000000e+00
264,7.060660171780e-01,4.747454415588e+01,2.000000000000e+00
265,9.574025148548e-01,4.873622339643e+01,2.000000000000e+00
266,8.425974851452e-01,4.123622339643e+01,2.000000000000e+00
267,4.939339828220e-01,4.247454415588e+01,2.000000000000e+00
268,1.614180701233e-01,4.371674033683e+01,2.000000000000e+00
269,-1.500000000000e-01,4.496400000000e+01,2.000000000000e+00
270,-4.385819298767e-01,4.621674033683e+01,2.000000000000e+00
271,-7.060660171780e-01,4.747454415588e+01,2.000000000000e+00
272,-9.574025148548e-01,4.873622339643e+01,2.000000000000e+00
*ELEMENT,TYPE=B31,ELSET=ALL
1,1,5
2,2,6
3,3,7
4,4,8
5,5,25
6,25,26
7,26,27
8,27,9
9,6,28
10,28,29
11,29,30
12,30,10
13,7,31
14,31,32
15,32,33
16,33,11
17,8,34
18,34,35
19,35,36
20,36,12
21,9,37
22,37,13
23,10,38
24,38,14
25,11,39
26,39,15
27,12,40
28,40,16
29,13,41
30,41,42
31,42,43
32,43,44
33,44,45
34,45,46
35,46,47
36,47,17
37,14,48
38,48,49
39,49,50
40,50,51
41,51,52
42,52,53
43,53,54
44,54,18
45,15,55
46,55,56
47,56,57
48,57,58
49,58,59
50,59,60
51,60,61
52,61,19
53,16,62
54,62,63
55,63,64
56,64,65
57,65,66
58,66,67
59,67,68
60,68,20
61,17,69
62,69,70
63,70,71
64,71,21
65,18,72
66,72,73
67,73,74
68,74,22
69,19,75
70,75,76
71,76,77
72,77,23
73,20,78
74,78,79
75,79,80
76,80,24
77,1,81
78,81,82
79,82,83
80,83,2
81,3,84
82,84,85
83,85,86
84,86,4
85,1,87
86,87,88
87,88,89
88,89,3
89,2,90
90,90,91
91,91,92
92,92,4
93,5,6
94,7,8
95,5,7
96,6,8
97,9,93
98,93,10
99,11,94
100,94,12
101,9,95
102,95,11
103,10,96
104,96,12
105,13,97
106,97,14
107,15,98
108,98,16
109,13,99
110,99,15
111,14,100
112,100,16
113,17,18
114,19,20
115,17,19
116,18,20
117,21,101
118,101,102
119,102,103
120,103,22
121,23,104
122,104,105
123,105,106
124,106,24
125,21,107
126,107,108
127,108,109
128,109,23
129,22,110
130,110,111
131,111,112
132,112,24
133,1,113
134,113,114
135,114,115
136,115,7
137,3,116
138,116,117
139,117,118
140,118,5
141,2,119
142,119,120
143,120,121
144,121,8
145,4,122
146,122,123
147,123,124
148,124,6
149,1,125
150,125,126
151,126,127
152,127,6
153,2,128
154,128,129
155,129,130
156,130,5
157,3,131
158,131,132
159,132,133
160,133,8
161,4,134
162,134,135
163,135,136
164,136,7
165,5,11
166,7,9
167,6,12
168,8,10
169,5,10
170,6,9
171,7,12
172,8,11
173,9,137
174,137,138
175,138,139
176,139,140
177,140,141
178,141,142
179,142,143
180,143,15
181,11,144
182,144,145
183,145,146
184,146,147
185,147,148
186,148,149
187,149,150
188,150,13
189,10,151
190,151,152
191,152,153
192,153,154
193,154,155
194,155,156
195,156,157
196,157,16
197,12,158
198,158,159
199,159,160
200,160,161
201,161,162
202,162,163
203,163,164
204,164,14
205,9,165
206,165,166
207,166,167
208,167,168
209,168,169
210,169,170
211,170,171
212,171,14
213,10,172
214,172,173
215,173,174
216,174,175
217,175,176
218,176,177
219,177,178
220,178,13
221,11,179
222,179,180
223,180,181
224,181,182
225,182,183
226,183,184
227,184,185
228,185,16
229,12,186
230,186,187
231,187,188
232,188,189
233,189,190
234,190,191
235,191,192
236,192,15
237,13,193
238,193,194
239,194,195
240,195,19
241,15,196
242,196,197
243,197,198
244,198,17
245,14,199
246,199,200
247,200,201
248,201,20
249,16,202
250,202,203
251,203,204
252,204,18
253,13,205
254,205,206
255,206,207
256,207,18
257,14,208
258,208,209
259,209,210
260,210,17
261,15,211
262,211,212
263,212,213
264,213,20
265,16,214
266,214,215
267,215,216
268,216,19
269,17,217
270,217,218
271,218,219
272,219,220
273,220,221
274,221,222
275,222,223
276,223,23
277,19,224
278,224,225
279,225,226
280,226,227
281,227,228
282,228,229
283,229,230
284,230,21
285,18,231
286,231,232
287,232,233
288,233,234
289,234,235
290,235,236
291,236,237
292,237,24
293,20,238
294,238,239
295,239,240
296,240,241
297,241,242
298,242,243
299,243,244
300,244,22
301,17,245
302,245,246
303,246,247
304,247,248
305,248,249
306,249,250
307,250,251
308,251,22
309,18,252
310,252,253
311,253,254
312,254,255
313,255,256
314,256,257
315,257,258
316,258,21
317,19,259
318,259,260
319,260,261
320,261,262
321,262,263
322,263,264
323,264,265
324,265,24
325,20,266
326,266,267
327,267,268
328,268,269
329,269,270
330,270,271
331,271,272
332,272,23
*NSET,NSET=NALL,GENERATE
1,272,1
*NSET,NSET=LEFT
1,2,3,4
*NSET,NSET=RIGHT
21,22,23,24
*MATERIAL,NAME=STEEL
*ELASTIC
2.100000000000e+11,0.300000000000
*BEAM SECTION,ELSET=ALL,MATERIAL=STEEL,SECTION=RECT
6.000000000000e-02,4.000000000000e-02
0.371390676354,0.557086014531,0.742781352708
*BOUNDARY
LEFT,1,6,0.0
*STEP
*STATIC
*BOUNDARY
21,1,1,5.000000000000e-03
21,2,2,0.0
21,3,3,-6.000000000000e-03
*BOUNDARY
22,1,1,5.000000000000e-03
22,2,2,0.0
22,3,3,6.000000000000e-03
*BOUNDARY
23,1,1,-5.000000000000e-03
23,2,2,0.0
23,3,3,-6.000000000000e-03
*BOUNDARY
24,1,1,-5.000000000000e-03
24,2,2,0.0
24,3,3,6.000000000000e-03
*NODE FILE,NSET=NALL
U
*NODE PRINT,NSET=NALL
U
*NODE PRINT,NSET=RIGHT
RF
*EL PRINT,ELSET=ALL,TOTALS=YES
ELSE
*END STEP
