*HEADING
Normalized cross-passage space-truss torsion benchmark
*NODE
1,-1.200000000000e+00,0.000000000000e+00,0.000000000000e+00
2,1.200000000000e+00,0.000000000000e+00,0.000000000000e+00
3,-1.200000000000e+00,0.000000000000e+00,2.000000000000e+00
4,1.200000000000e+00,0.000000000000e+00,2.000000000000e+00
5,-1.200000000000e+00,1.000000000000e+01,0.000000000000e+00
6,1.200000000000e+00,1.000000000000e+01,0.000000000000e+00
7,-1.200000000000e+00,1.000000000000e+01,2.000000000000e+00
8,1.200000000000e+00,1.000000000000e+01,2.000000000000e+00
9,-1.200000000000e+00,2.000000000000e+01,0.000000000000e+00
10,1.200000000000e+00,2.000000000000e+01,0.000000000000e+00
11,-1.200000000000e+00,2.000000000000e+01,2.000000000000e+00
12,1.200000000000e+00,2.000000000000e+01,2.000000000000e+00
13,-1.200000000000e+00,3.000000000000e+01,0.000000000000e+00
14,1.200000000000e+00,3.000000000000e+01,0.000000000000e+00
15,-1.200000000000e+00,3.000000000000e+01,2.000000000000e+00
16,1.200000000000e+00,3.000000000000e+01,2.000000000000e+00
17,-1.200000000000e+00,4.000000000000e+01,0.000000000000e+00
18,1.200000000000e+00,4.000000000000e+01,0.000000000000e+00
19,-1.200000000000e+00,4.000000000000e+01,2.000000000000e+00
20,1.200000000000e+00,4.000000000000e+01,2.000000000000e+00
21,-1.200000000000e+00,5.000000000000e+01,0.000000000000e+00
22,1.200000000000e+00,5.000000000000e+01,0.000000000000e+00
23,-1.200000000000e+00,5.000000000000e+01,2.000000000000e+00
24,1.200000000000e+00,5.000000000000e+01,2.000000000000e+00
25,-1.200000000000e+00,5.000000000000e+00,-1.500000000000e-01
26,1.200000000000e+00,5.000000000000e+00,1.500000000000e-01
27,-1.200000000000e+00,5.000000000000e+00,1.850000000000e+00
28,1.200000000000e+00,5.000000000000e+00,2.150000000000e+00
29,-1.200000000000e+00,1.500000000000e+01,-1.500000000000e-01
30,1.200000000000e+00,1.500000000000e+01,1.500000000000e-01
31,-1.200000000000e+00,1.500000000000e+01,1.850000000000e+00
32,1.200000000000e+00,1.500000000000e+01,2.150000000000e+00
33,-1.200000000000e+00,2.500000000000e+01,-1.500000000000e-01
34,1.200000000000e+00,2.500000000000e+01,1.500000000000e-01
35,-1.200000000000e+00,2.500000000000e+01,1.850000000000e+00
36,1.200000000000e+00,2.500000000000e+01,2.150000000000e+00
37,-1.200000000000e+00,3.500000000000e+01,-1.500000000000e-01
38,1.200000000000e+00,3.500000000000e+01,1.500000000000e-01
39,-1.200000000000e+00,3.500000000000e+01,1.850000000000e+00
40,1.200000000000e+00,3.500000000000e+01,2.150000000000e+00
41,-1.200000000000e+00,4.500000000000e+01,-1.500000000000e-01
42,1.200000000000e+00,4.500000000000e+01,1.500000000000e-01
43,-1.200000000000e+00,4.500000000000e+01,1.850000000000e+00
44,1.200000000000e+00,4.500000000000e+01,2.150000000000e+00
45,0.000000000000e+00,-3.600000000000e-02,0.000000000000e+00
46,0.000000000000e+00,3.600000000000e-02,2.000000000000e+00
47,-1.200000000000e+00,3.000000000000e-02,1.000000000000e+00
48,1.200000000000e+00,-3.000000000000e-02,1.000000000000e+00
49,0.000000000000e+00,9.964000000000e+00,0.000000000000e+00
50,0.000000000000e+00,1.003600000000e+01,2.000000000000e+00
51,-1.200000000000e+00,1.003000000000e+01,1.000000000000e+00
52,1.200000000000e+00,9.970000000000e+00,1.000000000000e+00
53,0.000000000000e+00,1.996400000000e+01,0.000000000000e+00
54,0.000000000000e+00,2.003600000000e+01,2.000000000000e+00
55,-1.200000000000e+00,2.003000000000e+01,1.000000000000e+00
56,1.200000000000e+00,1.997000000000e+01,1.000000000000e+00
57,0.000000000000e+00,2.996400000000e+01,0.000000000000e+00
58,0.000000000000e+00,3.003600000000e+01,2.000000000000e+00
59,-1.200000000000e+00,3.003000000000e+01,1.000000000000e+00
60,1.200000000000e+00,2.997000000000e+01,1.000000000000e+00
61,0.000000000000e+00,3.996400000000e+01,0.000000000000e+00
62,0.000000000000e+00,4.003600000000e+01,2.000000000000e+00
63,-1.200000000000e+00,4.003000000000e+01,1.000000000000e+00
64,1.200000000000e+00,3.997000000000e+01,1.000000000000e+00
65,0.000000000000e+00,4.996400000000e+01,0.000000000000e+00
66,0.000000000000e+00,5.003600000000e+01,2.000000000000e+00
67,-1.200000000000e+00,5.003000000000e+01,1.000000000000e+00
68,1.200000000000e+00,4.997000000000e+01,1.000000000000e+00
69,-1.200000000000e+00,1.261480502971e+00,1.925974851452e-01
70,-1.200000000000e+00,2.521213203436e+00,3.939339828220e-01
71,-1.200000000000e+00,3.777716385975e+00,6.114180701233e-01
72,-1.200000000000e+00,5.030000000000e+00,8.500000000000e-01
73,-1.200000000000e+00,6.277716385975e+00,1.111418070123e+00
74,-1.200000000000e+00,7.521213203436e+00,1.393933982822e+00
75,-1.200000000000e+00,8.761480502971e+00,1.692597485145e+00
76,-1.200000000000e+00,1.261480502971e+00,1.807402514855e+00
77,-1.200000000000e+00,2.521213203436e+00,1.606066017178e+00
78,-1.200000000000e+00,3.777716385975e+00,1.388581929877e+00
79,-1.200000000000e+00,5.030000000000e+00,1.150000000000e+00
80,-1.200000000000e+00,6.277716385975e+00,8.885819298767e-01
81,-1.200000000000e+00,7.521213203436e+00,6.060660171780e-01
82,-1.200000000000e+00,8.761480502971e+00,3.074025148548e-01
83,1.200000000000e+00,1.261480502971e+00,1.925974851452e-01
84,1.200000000000e+00,2.521213203436e+00,3.939339828220e-01
85,1.200000000000e+00,3.777716385975e+00,6.114180701233e-01
86,1.200000000000e+00,5.030000000000e+00,8.500000000000e-01
87,1.200000000000e+00,6.277716385975e+00,1.111418070123e+00
88,1.200000000000e+00,7.521213203436e+00,1.393933982822e+00
89,1.200000000000e+00,8.761480502971e+00,1.692597485145e+00
90,1.200000000000e+00,1.261480502971e+00,1.807402514855e+00
91,1.200000000000e+00,2.521213203436e+00,1.606066017178e+00
92,1.200000000000e+00,3.777716385975e+00,1.388581929877e+00
93,1.200000000000e+00,5.030000000000e+00,1.150000000000e+00
94,1.200000000000e+00,6.277716385975e+00,8.885819298767e-01
95,1.200000000000e+00,7.521213203436e+00,6.060660171780e-01
96,1.200000000000e+00,8.761480502971e+00,3.074025148548e-01
97,-8.425974851452e-01,1.236223396435e+00,0.000000000000e+00
98,-4.939339828220e-01,2.474544155877e+00,0.000000000000e+00
99,-1.614180701233e-01,3.716740336830e+00,0.000000000000e+00
100,1.500000000000e-01,4.964000000000e+00,0.000000000000e+00
101,4.385819298767e-01,6.216740336830e+00,0.000000000000e+00
102,7.060660171780e-01,7.474544155877e+00,0.000000000000e+00
103,9.574025148548e-01,8.736223396435e+00,0.000000000000e+00
104,8.425974851452e-01,1.236223396435e+00,0.000000000000e+00
105,4.939339828220e-01,2.474544155877e+00,0.000000000000e+00
106,1.614180701233e-01,3.716740336830e+00,0.000000000000e+00
107,-1.500000000000e-01,4.964000000000e+00,0.000000000000e+00
108,-4.385819298767e-01,6.216740336830e+00,0.000000000000e+00
109,-7.060660171780e-01,7.474544155877e+00,0.000000000000e+00
110,-9.574025148548e-01,8.736223396435e+00,0.000000000000e+00
111,-8.425974851452e-01,1.236223396435e+00,2.000000000000e+00
112,-4.939339828220e-01,2.474544155877e+00,2.000000000000e+00
113,-1.614180701233e-01,3.716740336830e+00,2.000000000000e+00
114,1.500000000000e-01,4.964000000000e+00,2.000000000000e+00
115,4.385819298767e-01,6.216740336830e+00,2.000000000000e+00
116,7.060660171780e-01,7.474544155877e+00,2.000000000000e+00
117,9.574025148548e-01,8.736223396435e+00,2.000000000000e+00
118,8.425974851452e-01,1.236223396435e+00,2.000000000000e+00
119,4.939339828220e-01,2.474544155877e+00,2.000000000000e+00
120,1.614180701233e-01,3.716740336830e+00,2.000000000000e+00
121,-1.500000000000e-01,4.964000000000e+00,2.000000000000e+00
122,-4.385819298767e-01,6.216740336830e+00,2.000000000000e+00
123,-7.060660171780e-01,7.474544155877e+00,2.000000000000e+00
124,-9.574025148548e-01,8.736223396435e+00,2.000000000000e+00
125,-1.200000000000e+00,1.503000000000e+01,8.500000000000e-01
126,-1.200000000000e+00,1.503000000000e+01,1.150000000000e+00
127,1.200000000000e+00,1.503000000000e+01,8.500000000000e-01
128,1.200000000000e+00,1.503000000000e+01,1.150000000000e+00
129,1.500000000000e-01,1.496400000000e+01,0.000000000000e+00
130,-1.500000000000e-01,1.496400000000e+01,0.000000000000e+00
131,1.500000000000e-01,1.496400000000e+01,2.000000000000e+00
132,-1.500000000000e-01,1.496400000000e+01,2.000000000000e+00
133,-1.200000000000e+00,2.126148050297e+01,1.925974851452e-01
134,-1.200000000000e+00,2.252121320344e+01,3.939339828220e-01
135,-1.200000000000e+00,2.377771638598e+01,6.114180701233e-01
136,-1.200000000000e+00,2.503000000000e+01,8.500000000000e-01
137,-1.200000000000e+00,2.627771638598e+01,1.111418070123e+00
138,-1.200000000000e+00,2.752121320344e+01,1.393933982822e+00
139,-1.200000000000e+00,2.876148050297e+01,1.692597485145e+00
140,-1.200000000000e+00,2.126148050297e+01,1.807402514855e+00
141,-1.200000000000e+00,2.252121320344e+01,1.606066017178e+00
142,-1.200000000000e+00,2.377771638598e+01,1.388581929877e+00
143,-1.200000000000e+00,2.503000000000e+01,1.150000000000e+00
144,-1.200000000000e+00,2.627771638598e+01,8.885819298767e-01
145,-1.200000000000e+00,2.752121320344e+01,6.060660171780e-01
146,-1.200000000000e+00,2.876148050297e+01,3.074025148548e-01
147,1.200000000000e+00,2.126148050297e+01,1.925974851452e-01
148,1.200000000000e+00,2.252121320344e+01,3.939339828220e-01
149,1.200000000000e+00,2.377771638598e+01,6.114180701233e-01
150,1.200000000000e+00,2.503000000000e+01,8.500000000000e-01
151,1.200000000000e+00,2.627771638598e+01,1.111418070123e+00
152,1.200000000000e+00,2.752121320344e+01,1.393933982822e+00
153,1.200000000000e+00,2.876148050297e+01,1.692597485145e+00
154,1.200000000000e+00,2.126148050297e+01,1.807402514855e+00
155,1.200000000000e+00,2.252121320344e+01,1.606066017178e+00
156,1.200000000000e+00,2.377771638598e+01,1.388581929877e+00
157,1.200000000000e+00,2.503000000000e+01,1.150000000000e+00
158,1.200000000000e+00,2.627771638598e+01,8.885819298767e-01
159,1.200000000000e+00,2.752121320344e+01,6.060660171780e-01
160,1.200000000000e+00,2.876148050297e+01,3.074025148548e-01
161,-8.425974851452e-01,2.123622339643e+01,0.000000000000e+00
162,-4.939339828220e-01,2.247454415588e+01,0.000000000000e+00
163,-1.614180701233e-01,2.371674033683e+01,0.000000000000e+00
164,1.500000000000e-01,2.496400000000e+01,0.000000000000e+00
165,4.385819298767e-01,2.621674033683e+01,0.000000000000e+00
166,7.060660171780e-01,2.747454415588e+01,0.000000000000e+00
167,9.574025148548e-01,2.873622339643e+01,0.000000000000e+00
168,8.425974851452e-01,2.123622339643e+01,0.000000000000e+00
169,4.939339828220e-01,2.247454415588e+01,0.000000000000e+00
170,1.614180701233e-01,2.371674033683e+01,0.000000000000e+00
171,-1.500000000000e-01,2.496400000000e+01,0.000000000000e+00
172,-4.385819298767e-01,2.621674033683e+01,0.000000000000e+00
173,-7.060660171780e-01,2.747454415588e+01,0.000000000000e+00
174,-9.574025148548e-01,2.873622339643e+01,0.000000000000e+00
175,-8.425974851452e-01,2.123622339643e+01,2.000000000000e+00
176,-4.939339828220e-01,2.247454415588e+01,2.000000000000e+00
177,-1.614180701233e-01,2.371674033683e+01,2.000000000000e+00
178,1.500000000000e-01,2.496400000000e+01,2.000000000000e+00
179,4.385819298767e-01,2.621674033683e+01,2.000000000000e+00
180,7.060660171780e-01,2.747454415588e+01,2.000000000000e+00
181,9.574025148548e-01,2.873622339643e+01,2.000000000000e+00
182,8.425974851452e-01,2.123622339643e+01,2.000000000000e+00
183,4.939339828220e-01,2.247454415588e+01,2.000000000000e+00
184,1.614180701233e-01,2.371674033683e+01,2.000000000000e+00
185,-1.500000000000e-01,2.496400000000e+01,2.000000000000e+00
186,-4.385819298767e-01,2.621674033683e+01,2.000000000000e+00
187,-7.060660171780e-01,2.747454415588e+01,2.000000000000e+00
188,-9.574025148548e-01,2.873622339643e+01,2.000000000000e+00
189,-1.200000000000e+00,3.126148050297e+01,1.925974851452e-01
190,-1.200000000000e+00,3.252121320344e+01,3.939339828220e-01
191,-1.200000000000e+00,3.377771638598e+01,6.114180701233e-01
192,-1.200000000000e+00,3.503000000000e+01,8.500000000000e-01
193,-1.200000000000e+00,3.627771638598e+01,1.111418070123e+00
194,-1.200000000000e+00,3.752121320344e+01,1.393933982822e+00
195,-1.200000000000e+00,3.876148050297e+01,1.692597485145e+00
196,-1.200000000000e+00,3.126148050297e+01,1.807402514855e+00
197,-1.200000000000e+00,3.252121320344e+01,1.606066017178e+00
198,-1.200000000000e+00,3.377771638598e+01,1.388581929877e+00
199,-1.200000000000e+00,3.503000000000e+01,1.150000000000e+00
200,-1.200000000000e+00,3.627771638598e+01,8.885819298767e-01
201,-1.200000000000e+00,3.752121320344e+01,6.060660171780e-01
202,-1.200000000000e+00,3.876148050297e+01,3.074025148548e-01
203,1.200000000000e+00,3.126148050297e+01,1.925974851452e-01
204,1.200000000000e+00,3.252121320344e+01,3.939339828220e-01
205,1.200000000000e+00,3.377771638598e+01,6.114180701233e-01
206,1.200000000000e+00,3.503000000000e+01,8.500000000000e-01
207,1.200000000000e+00,3.627771638598e+01,1.111418070123e+00
208,1.200000000000e+00,3.752121320344e+01,1.393933982822e+00
209,1.200000000000e+00,3.876148050297e+01,1.692597485145e+00
210,1.200000000000e+00,3.126148050297e+01,1.807402514855e+00
211,1.200000000000e+00,3.252121320344e+01,1.606066017178e+00
212,1.200000000000e+00,3.377771638598e+01,1.388581929877e+00
213,1.200000000000e+00,3.503000000000e+01,1.150000000000e+00
214,1.200000000000e+00,3.627771638598e+01,8.885819298767e-01
215,1.200000000000e+00,3.752121320344e+01,6.060660171780e-01
216,1.200000000000e+00,3.876148050297e+01,3.074025148548e-01
217,-8.425974851452e-01,3.123622339643e+01,0.000000000000e+00
218,-4.939339828220e-01,3.247454415588e+01,0.000000000000e+00
219,-1.614180701233e-01,3.371674033683e+01,0.000000000000e+00
220,1.500000000000e-01,3.496400000000e+01,0.000000000000e+00
221,4.385819298767e-01,3.621674033683e+01,0.000000000000e+00
222,7.060660171780e-01,3.747454415588e+01,0.000000000000e+00
223,9.574025148548e-01,3.873622339643e+01,0.000000000000e+00
224,8.425974851452e-01,3.123622339643e+01,0.000000000000e+00
225,4.939339828220e-01,3.247454415588e+01,0.000000000000e+00
226,1.614180701233e-01,3.371674033683e+01,0.000000000000e+00
227,-1.500000000000e-01,3.496400000000e+01,0.000000000000e+00
228,-4.385819298767e-01,3.621674033683e+01,0.000000000000e+00
229,-7.060660171780e-01,3.747454415588e+01,0.000000000000e+00
230,-9.574025148548e-01,3.873622339643e+01,0.000000000000e+00
231,-8.425974851452e-01,3.123622339643e+01,2.000000000000e+00
232,-4.939339828220e-01,3.247454415588e+01,2.000000000000e+00
233,-1.614180701233e-01,3.371674033683e+01,2.000000000000e+00
234,1.500000000000e-01,3.496400000000e+01,2.000000000000e+00
235,4.385819298767e-01,3.621674033683e+01,2.000000000000e+00
236,7.060660171780e-01,3.747454415588e+01,2.000000000000e+00
237,9.574025148548e-01,3.873622339643e+01,2.000000000000e+00
238,8.425974851452e-01,3.123622339643e+01,2.000000000000e+00
239,4.939339828220e-01,3.247454415588e+01,2.000000000000e+00
240,1.614180701233e-01,3.371674033683e+01,2.000000000000e+00
241,-1.500000000000e-01,3.496400000000e+01,2.000000000000e+00
242,-4.385819298767e-01,3.621674033683e+01,2.000000000000e+00
243,-7.060660171780e-01,3.747454415588e+01,2.000000000000e+00
244,-9.574025148548e-01,3.873622339643e+01,2.000000000000e+00
245,-1.200000000000e+00,4.503000000000e+01,8.500000000000e-01
246,-1.200000000000e+00,4.503000000000e+01,1.150000000000e+00
247,1.200000000000e+00,4.503000000000e+01,8.500000000000e-01
248,1.200000000000e+00,4.503000000000e+01,1.150000000000e+00
249,1.500000000000e-01,4.496400000000e+01,0.000000000000e+00
250,-1.500000000000e-01,4.496400000000e+01,0.000000000000e+00
251,1.500000000000e-01,4.496400000000e+01,2.000000000000e+00
252,-1.500000000000e-01,4.496400000000e+01,2.000000000000e+00
*ELEMENT,TYPE=B31,ELSET=ALL
1,1,25
2,25,5
3,2,26
4,26,6
5,3,27
6,27,7
7,4,28
8,28,8
9,5,29
10,29,9
11,6,30
12,30,10
13,7,31
14,31,11
15,8,32
16,32,12
17,9,33
18,33,13
19,10,34
20,34,14
21,11,35
22,35,15
23,12,36
24,36,16
25,13,37
26,37,17
27,14,38
28,38,18
29,15,39
30,39,19
31,16,40
32,40,20
33,17,41
34,41,21
35,18,42
36,42,22
37,19,43
38,43,23
39,20,44
40,44,24
41,1,45
42,45,2
43,3,46
44,46,4
45,1,47
46,47,3
47,2,48
48,48,4
49,5,49
50,49,6
51,7,50
52,50,8
53,5,51
54,51,7
55,6,52
56,52,8
57,9,53
58,53,10
59,11,54
60,54,12
61,9,55
62,55,11
63,10,56
64,56,12
65,13,57
66,57,14
67,15,58
68,58,16
69,13,59
70,59,15
71,14,60
72,60,16
73,17,61
74,61,18
75,19,62
76,62,20
77,17,63
78,63,19
79,18,64
80,64,20
81,21,65
82,65,22
83,23,66
84,66,24
85,21,67
86,67,23
87,22,68
88,68,24
89,1,69
90,69,70
91,70,71
92,71,72
93,72,73
94,73,74
95,74,75
96,75,7
97,3,76
98,76,77
99,77,78
100,78,79
101,79,80
102,80,81
103,81,82
104,82,5
105,2,83
106,83,84
107,84,85
108,85,86
109,86,87
110,87,88
111,88,89
112,89,8
113,4,90
114,90,91
115,91,92
116,92,93
117,93,94
118,94,95
119,95,96
120,96,6
121,1,97
122,97,98
123,98,99
124,99,100
125,100,101
126,101,102
127,102,103
128,103,6
129,2,104
130,104,105
131,105,106
132,106,107
133,107,108
134,108,109
135,109,110
136,110,5
137,3,111
138,111,112
139,112,113
140,113,114
141,114,115
142,115,116
143,116,117
144,117,8
145,4,118
146,118,119
147,119,120
148,120,121
149,121,122
150,122,123
151,123,124
152,124,7
153,5,125
154,125,11
155,7,126
156,126,9
157,6,127
158,127,12
159,8,128
160,128,10
161,5,129
162,129,10
163,6,130
164,130,9
165,7,131
166,131,12
167,8,132
168,132,11
169,9,133
170,133,134
171,134,135
172,135,136
173,136,137
174,137,138
175,138,139
176,139,15
177,11,140
178,140,141
179,141,142
180,142,143
181,143,144
182,144,145
183,145,146
184,146,13
185,10,147
186,147,148
187,148,149
188,149,150
189,150,151
190,151,152
191,152,153
192,153,16
193,12,154
194,154,155
195,155,156
196,156,157
197,157,158
198,158,159
199,159,160
200,160,14
201,9,161
202,161,162
203,162,163
204,163,164
205,164,165
206,165,166
207,166,167
208,167,14
209,10,168
210,168,169
211,169,170
212,170,171
213,171,172
214,172,173
215,173,174
216,174,13
217,11,175
218,175,176
219,176,177
220,177,178
221,178,179
222,179,180
223,180,181
224,181,16
225,12,182
226,182,183
227,183,184
228,184,185
229,185,186
230,186,187
231,187,188
232,188,15
233,13,189
234,189,190
235,190,191
236,191,192
237,192,193
238,193,194
239,194,195
240,195,19
241,15,196
242,196,197
243,197,198
244,198,199
245,199,200
246,200,201
247,201,202
248,202,17
249,14,203
250,203,204
251,204,205
252,205,206
253,206,207
254,207,208
255,208,209
256,209,20
257,16,210
258,210,211
259,211,212
260,212,213
261,213,214
262,214,215
263,215,216
264,216,18
265,13,217
266,217,218
267,218,219
268,219,220
269,220,221
270,221,222
271,222,223
272,223,18
273,14,224
274,224,225
275,225,226
276,226,227
277,227,228
278,228,229
279,229,230
280,230,17
281,15,231
282,231,232
283,232,233
284,233,234
285,234,235
286,235,236
287,236,237
288,237,20
289,16,238
290,238,239
291,239,240
292,240,241
293,241,242
294,242,243
295,243,244
296,244,19
297,17,245
298,245,23
299,19,246
300,246,21
301,18,247
302,247,24
303,20,248
304,248,22
305,17,249
306,249,22
307,18,250
308,250,21
309,19,251
310,251,24
311,20,252
312,252,23
*NSET,NSET=NALL,GENERATE
1,252,1
*NSET,NSET=LEFT
1,2,3,4
*NSET,NSET=RIGHT
21,22,23,24
*MATERIAL,NAME=STEEL
*ELASTIC
2.100000000000e+11,0.300000000000
*BEAM SECTION,ELSET=ALL,MATERIAL=STEEL,SECTION=RECT
6.000000000000e-02,4.000000000000e-02
0.371390676354,0.557086014531,0.742781352708
*BOUNDARY
LEFT,1,6,0.0
*STEP
*STATIC
*BOUNDARY
21,1,1,5.000000000000e-03
21,2,2,0.0
21,3,3,-6.000000000000e-03
*BOUNDARY
22,1,1,5.000000000000e-03
22,2,2,0.0
22,3,3,6.000000000000e-03
*BOUNDARY
23,1,1,-5.000000000000e-03
23,2,2,0.0
23,3,3,-6.000000000000e-03
*BOUNDARY
24,1,1,-5.000000000000e-03
24,2,2,0.0
24,3,3,6.000000000000e-03
*NODE FILE,NSET=NALL
U
*NODE PRINT,NSET=NALL
U
*NODE PRINT,NSET=RIGHT
RF
*EL PRINT,ELSET=ALL,TOTALS=YES
ELSE
*END STEP
