*HEADING
Normalized cross-passage space-truss torsion benchmark
*NODE
1,-1.200000000000e+00,0.000000000000e+00,0.000000000000e+00
2,1.200000000000e+00,0.000000000000e+00,0.000000000000e+00
3,-1.200000000000e+00,0.000000000000e+00,2.000000000000e+00
4,1.200000000000e+00,0.000000000000e+00,2.000000000000e+00
5,-1.200000000000e+00,1.000000000000e+01,0.000000000000e+00
6,1.200000000000e+00,1.000000000000e+01,0.000000000000e+00
7,-1.200000000000e+00,1.000000000000e+01,2.000000000000e+00
8,1.200000000000e+00,1.000000000000e+01,2.000000000000e+00
9,-1.200000000000e+00,2.000000000000e+01,0.000000000000e+00
10,1.200000000000e+00,2.000000000000e+01,0.000000000000e+00
11,-1.200000000000e+00,2.000000000000e+01,2.000000000000e+00
12,1.200000000000e+00,2.000000000000e+01,2.000000000000e+00
13,-1.200000000000e+00,3.000000000000e+01,0.000000000000e+00
14,1.200000000000e+00,3.000000000000e+01,0.000000000000e+00
15,-1.200000000000e+00,3.000000000000e+01,2.000000000000e+00
16,1.200000000000e+00,3.000000000000e+01,2.000000000000e+00
17,-1.200000000000e+00,4.000000000000e+01,0.000000000000e+00
18,1.200000000000e+00,4.000000000000e+01,0.000000000000e+00
19,-1.200000000000e+00,4.000000000000e+01,2.000000000000e+00
20,1.200000000000e+00,4.000000000000e+01,2.000000000000e+00
21,-1.200000000000e+00,5.000000000000e+01,0.000000000000e+00
22,1.200000000000e+00,5.000000000000e+01,0.000000000000e+00
23,-1.200000000000e+00,5.000000000000e+01,2.000000000000e+00
24,1.200000000000e+00,5.000000000000e+01,2.000000000000e+00
25,-1.200000000000e+00,1.250000000000e+00,-5.740251485476e-02
26,-1.200000000000e+00,2.500000000000e+00,-1.060660171780e-01
27,-1.200000000000e+00,3.750000000000e+00,-1.385819298767e-01
28,-1.200000000000e+00,5.000000000000e+00,-1.500000000000e-01
29,-1.200000000000e+00,6.250000000000e+00,-1.385819298767e-01
30,-1.200000000000e+00,7.500000000000e+00,-1.060660171780e-01
31,-1.200000000000e+00,8.750000000000e+00,-5.740251485476e-02
32,1.200000000000e+00,1.250000000000e+00,5.740251485476e-02
33,1.200000000000e+00,2.500000000000e+00,1.060660171780e-01
34,1.200000000000e+00,3.750000000000e+00,1.385819298767e-01
35,1.200000000000e+00,5.000000000000e+00,1.500000000000e-01
36,1.200000000000e+00,6.250000000000e+00,1.385819298767e-01
37,1.200000000000e+00,7.500000000000e+00,1.060660171780e-01
38,1.200000000000e+00,8.750000000000e+00,5.740251485476e-02
39,-1.200000000000e+00,1.250000000000e+00,1.942597485145e+00
40,-1.200000000000e+00,2.500000000000e+00,1.893933982822e+00
41,-1.200000000000e+00,3.750000000000e+00,1.861418070123e+00
42,-1.200000000000e+00,5.000000000000e+00,1.850000000000e+00
43,-1.200000000000e+00,6.250000000000e+00,1.861418070123e+00
44,-1.200000000000e+00,7.500000000000e+00,1.893933982822e+00
45,-1.200000000000e+00,8.750000000000e+00,1.942597485145e+00
46,1.200000000000e+00,1.250000000000e+00,2.057402514855e+00
47,1.200000000000e+00,2.500000000000e+00,2.106066017178e+00
48,1.200000000000e+00,3.750000000000e+00,2.138581929877e+00
49,1.200000000000e+00,5.000000000000e+00,2.150000000000e+00
50,1.200000000000e+00,6.250000000000e+00,2.138581929877e+00
51,1.200000000000e+00,7.500000000000e+00,2.106066017178e+00
52,1.200000000000e+00,8.750000000000e+00,2.057402514855e+00
53,-1.200000000000e+00,1.500000000000e+01,-1.500000000000e-01
54,1.200000000000e+00,1.500000000000e+01,1.500000000000e-01
55,-1.200000000000e+00,1.500000000000e+01,1.850000000000e+00
56,1.200000000000e+00,1.500000000000e+01,2.150000000000e+00
57,-1.200000000000e+00,3.250000000000e+01,-1.060660171780e-01
58,-1.200000000000e+00,3.500000000000e+01,-1.500000000000e-01
59,-1.200000000000e+00,3.750000000000e+01,-1.060660171780e-01
60,1.200000000000e+00,3.250000000000e+01,1.060660171780e-01
61,1.200000000000e+00,3.500000000000e+01,1.500000000000e-01
62,1.200000000000e+00,3.750000000000e+01,1.060660171780e-01
63,-1.200000000000e+00,3.250000000000e+01,1.893933982822e+00
64,-1.200000000000e+00,3.500000000000e+01,1.850000000000e+00
65,-1.200000000000e+00,3.750000000000e+01,1.893933982822e+00
66,1.200000000000e+00,3.250000000000e+01,2.106066017178e+00
67,1.200000000000e+00,3.500000000000e+01,2.150000000000e+00
68,1.200000000000e+00,3.750000000000e+01,2.106066017178e+00
69,-1.200000000000e+00,4.250000000000e+01,-1.060660171780e-01
70,-1.200000000000e+00,4.500000000000e+01,-1.500000000000e-01
71,-1.200000000000e+00,4.750000000000e+01,-1.060660171780e-01
72,1.200000000000e+00,4.250000000000e+01,1.060660171780e-01
73,1.200000000000e+00,4.500000000000e+01,1.500000000000e-01
74,1.200000000000e+00,4.750000000000e+01,1.060660171780e-01
75,-1.200000000000e+00,4.250000000000e+01,1.893933982822e+00
76,-1.200000000000e+00,4.500000000000e+01,1.850000000000e+00
77,-1.200000000000e+00,4.750000000000e+01,1.893933982822e+00
78,1.200000000000e+00,4.250000000000e+01,2.106066017178e+00
79,1.200000000000e+00,4.500000000000e+01,2.150000000000e+00
80,1.200000000000e+00,4.750000000000e+01,2.106066017178e+00
81,-6.000000000000e-01,-2.545584412272e-02,0.000000000000e+00
82,0.000000000000e+00,-3.600000000000e-02,0.000000000000e+00
83,6.000000000000e-01,-2.545584412272e-02,0.000000000000e+00
84,-6.000000000000e-01,2.545584412272e-02,2.000000000000e+00
85,0.000000000000e+00,3.600000000000e-02,2.000000000000e+00
86,6.000000000000e-01,2.545584412272e-02,2.000000000000e+00
87,-1.200000000000e+00,2.121320343560e-02,5.000000000000e-01
88,-1.200000000000e+00,3.000000000000e-02,1.000000000000e+00
89,-1.200000000000e+00,2.121320343560e-02,1.500000000000e+00
90,1.200000000000e+00,-2.121320343560e-02,5.000000000000e-01
91,1.200000000000e+00,-3.000000000000e-02,1.000000000000e+00
92,1.200000000000e+00,-2.121320343560e-02,1.500000000000e+00
93,-6.000000000000e-01,9.974544155877e+00,0.000000000000e+00
94,0.000000000000e+00,9.964000000000e+00,0.000000000000e+00
95,6.000000000000e-01,9.974544155877e+00,0.000000000000e+00
96,-6.000000000000e-01,1.002545584412e+01,2.000000000000e+00
97,0.000000000000e+00,1.003600000000e+01,2.000000000000e+00
98,6.000000000000e-01,1.002545584412e+01,2.000000000000e+00
99,-1.200000000000e+00,1.002121320344e+01,5.000000000000e-01
100,-1.200000000000e+00,1.003000000000e+01,1.000000000000e+00
101,-1.200000000000e+00,1.002121320344e+01,1.500000000000e+00
102,1.200000000000e+00,9.978786796564e+00,5.000000000000e-01
103,1.200000000000e+00,9.970000000000e+00,1.000000000000e+00
104,1.200000000000e+00,9.978786796564e+00,1.500000000000e+00
105,0.000000000000e+00,1.996400000000e+01,0.000000000000e+00
106,0.000000000000e+00,2.003600000000e+01,2.000000000000e+00
107,-1.200000000000e+00,2.003000000000e+01,1.000000000000e+00
108,1.200000000000e+00,1.997000000000e+01,1.000000000000e+00
109,-9.000000000000e-01,2.998622339643e+01,0.000000000000e+00
110,-6.000000000000e-01,2.997454415588e+01,0.000000000000e+00
111,-3.000000000000e-01,2.996674033683e+01,0.000000000000e+00
112,0.000000000000e+00,2.996400000000e+01,0.000000000000e+00
113,3.000000000000e-01,2.996674033683e+01,0.000000000000e+00
114,6.000000000000e-01,2.997454415588e+01,0.000000000000e+00
115,9.000000000000e-01,2.998622339643e+01,0.000000000000e+00
116,-9.000000000000e-01,3.001377660357e+01,2.000000000000e+00
117,-6.000000000000e-01,3.002545584412e+01,2.000000000000e+00
118,-3.000000000000e-01,3.003325966317e+01,2.000000000000e+00
119,0.000000000000e+00,3.003600000000e+01,2.000000000000e+00
120,3.000000000000e-01,3.003325966317e+01,2.000000000000e+00
121,6.000000000000e-01,3.002545584412e+01,2.000000000000e+00
122,9.000000000000e-01,3.001377660357e+01,2.000000000000e+00
123,-1.200000000000e+00,3.001148050297e+01,2.500000000000e-01
124,-1.200000000000e+00,3.002121320344e+01,5.000000000000e-01
125,-1.200000000000e+00,3.002771638598e+01,7.500000000000e-01
126,-1.200000000000e+00,3.003000000000e+01,1.000000000000e+00
127,-1.200000000000e+00,3.002771638598e+01,1.250000000000e+00
128,-1.200000000000e+00,3.002121320344e+01,1.500000000000e+00
129,-1.200000000000e+00,3.001148050297e+01,1.750000000000e+00
130,1.200000000000e+00,2.998851949703e+01,2.500000000000e-01
131,1.200000000000e+00,2.997878679656e+01,5.000000000000e-01
132,1.200000000000e+00,2.997228361402e+01,7.500000000000e-01
133,1.200000000000e+00,2.997000000000e+01,1.000000000000e+00
134,1.200000000000e+00,2.997228361402e+01,1.250000000000e+00
135,1.200000000000e+00,2.997878679656e+01,1.500000000000e+00
136,1.200000000000e+00,2.998851949703e+01,1.750000000000e+00
137,0.000000000000e+00,3.996400000000e+01,0.000000000000e+00
138,0.000000000000e+00,4.003600000000e+01,2.000000000000e+00
139,-1.200000000000e+00,4.003000000000e+01,1.000000000000e+00
140,1.200000000000e+00,3.997000000000e+01,1.000000000000e+00
141,-6.000000000000e-01,4.997454415588e+01,0.000000000000e+00
142,0.000000000000e+00,4.996400000000e+01,0.000000000000e+00
143,6.000000000000e-01,4.997454415588e+01,0.000000000000e+00
144,-6.000000000000e-01,5.002545584412e+01,2.000000000000e+00
145,0.000000000000e+00,5.003600000000e+01,2.000000000000e+00
146,6.000000000000e-01,5.002545584412e+01,2.000000000000e+00
147,-1.200000000000e+00,5.002121320344e+01,5.000000000000e-01
148,-1.200000000000e+00,5.003000000000e+01,1.000000000000e+00
149,-1.200000000000e+00,5.002121320344e+01,1.500000000000e+00
150,1.200000000000e+00,4.997878679656e+01,5.000000000000e-01
151,1.200000000000e+00,4.997000000000e+01,1.000000000000e+00
152,1.200000000000e+00,4.997878679656e+01,1.500000000000e+00
153,-1.200000000000e+00,1.261480502971e+00,1.925974851452e-01
154,-1.200000000000e+00,2.521213203436e+00,3.939339828220e-01
155,-1.200000000000e+00,3.777716385975e+00,6.114180701233e-01
156,-1.200000000000e+00,5.030000000000e+00,8.500000000000e-01
157,-1.200000000000e+00,6.277716385975e+00,1.111418070123e+00
158,-1.200000000000e+00,7.521213203436e+00,1.393933982822e+00
159,-1.200000000000e+00,8.761480502971e+00,1.692597485145e+00
160,-1.200000000000e+00,1.261480502971e+00,1.807402514855e+00
161,-1.200000000000e+00,2.521213203436e+00,1.606066017178e+00
162,-1.200000000000e+00,3.777716385975e+00,1.388581929877e+00
163,-1.200000000000e+00,5.030000000000e+00,1.150000000000e+00
164,-1.200000000000e+00,6.277716385975e+00,8.885819298767e-01
165,-1.200000000000e+00,7.521213203436e+00,6.060660171780e-01
166,-1.200000000000e+00,8.761480502971e+00,3.074025148548e-01
167,1.200000000000e+00,1.261480502971e+00,1.925974851452e-01
168,1.200000000000e+00,2.521213203436e+00,3.939339828220e-01
169,1.200000000000e+00,3.777716385975e+00,6.114180701233e-01
170,1.200000000000e+00,5.030000000000e+00,8.500000000000e-01
171,1.200000000000e+00,6.277716385975e+00,1.111418070123e+00
172,1.200000000000e+00,7.521213203436e+00,1.393933982822e+00
173,1.200000000000e+00,8.761480502971e+00,1.692597485145e+00
174,1.200000000000e+00,1.261480502971e+00,1.807402514855e+00
175,1.200000000000e+00,2.521213203436e+00,1.606066017178e+00
176,1.200000000000e+00,3.777716385975e+00,1.388581929877e+00
177,1.200000000000e+00,5.030000000000e+00,1.150000000000e+00
178,1.200000000000e+00,6.277716385975e+00,8.885819298767e-01
179,1.200000000000e+00,7.521213203436e+00,6.060660171780e-01
180,1.200000000000e+00,8.761480502971e+00,3.074025148548e-01
181,-8.425974851452e-01,1.236223396435e+00,0.000000000000e+00
182,-4.939339828220e-01,2.474544155877e+00,0.000000000000e+00
183,-1.614180701233e-01,3.716740336830e+00,0.000000000000e+00
184,1.500000000000e-01,4.964000000000e+00,0.000000000000e+00
185,4.385819298767e-01,6.216740336830e+00,0.000000000000e+00
186,7.060660171780e-01,7.474544155877e+00,0.000000000000e+00
187,9.574025148548e-01,8.736223396435e+00,0.000000000000e+00
188,8.425974851452e-01,1.236223396435e+00,0.000000000000e+00
189,4.939339828220e-01,2.474544155877e+00,0.000000000000e+00
190,1.614180701233e-01,3.716740336830e+00,0.000000000000e+00
191,-1.500000000000e-01,4.964000000000e+00,0.000000000000e+00
192,-4.385819298767e-01,6.216740336830e+00,0.000000000000e+00
193,-7.060660171780e-01,7.474544155877e+00,0.000000000000e+00
194,-9.574025148548e-01,8.736223396435e+00,0.000000000000e+00
195,-8.425974851452e-01,1.236223396435e+00,2.000000000000e+00
196,-4.939339828220e-01,2.474544155877e+00,2.000000000000e+00
197,-1.614180701233e-01,3.716740336830e+00,2.000000000000e+00
198,1.500000000000e-01,4.964000000000e+00,2.000000000000e+00
199,4.385819298767e-01,6.216740336830e+00,2.000000000000e+00
200,7.060660171780e-01,7.474544155877e+00,2.000000000000e+00
201,9.574025148548e-01,8.736223396435e+00,2.000000000000e+00
202,8.425974851452e-01,1.236223396435e+00,2.000000000000e+00
203,4.939339828220e-01,2.474544155877e+00,2.000000000000e+00
204,1.614180701233e-01,3.716740336830e+00,2.000000000000e+00
205,-1.500000000000e-01,4.964000000000e+00,2.000000000000e+00
206,-4.385819298767e-01,6.216740336830e+00,2.000000000000e+00
207,-7.060660171780e-01,7.474544155877e+00,2.000000000000e+00
208,-9.574025148548e-01,8.736223396435e+00,2.000000000000e+00
209,-1.200000000000e+00,1.503000000000e+01,8.500000000000e-01
210,-1.200000000000e+00,1.503000000000e+01,1.150000000000e+00
211,1.200000000000e+00,1.503000000000e+01,8.500000000000e-01
212,1.200000000000e+00,1.503000000000e+01,1.150000000000e+00
213,1.500000000000e-01,1.496400000000e+01,0.000000000000e+00
214,-1.500000000000e-01,1.496400000000e+01,0.000000000000e+00
215,1.500000000000e-01,1.496400000000e+01,2.000000000000e+00
216,-1.500000000000e-01,1.496400000000e+01,2.000000000000e+00
217,-1.200000000000e+00,2.503000000000e+01,8.500000000000e-01
218,-1.200000000000e+00,2.503000000000e+01,1.150000000000e+00
219,1.200000000000e+00,2.503000000000e+01,8.500000000000e-01
220,1.200000000000e+00,2.503000000000e+01,1.150000000000e+00
221,1.500000000000e-01,2.496400000000e+01,0.000000000000e+00
222,-1.500000000000e-01,2.496400000000e+01,0.000000000000e+00
223,1.500000000000e-01,2.496400000000e+01,2.000000000000e+00
224,-1.500000000000e-01,2.496400000000e+01,2.000000000000e+00
225,-1.200000000000e+00,3.252121320344e+01,3.939339828220e-01
226,-1.200000000000e+00,3.503000000000e+01,8.500000000000e-01
227,-1.200000000000e+00,3.752121320344e+01,1.393933982822e+00
228,-1.200000000000e+00,3.252121320344e+01,1.606066017178e+00
229,-1.200000000000e+00,3.503000000000e+01,1.150000000000e+00
230,-1.200000000000e+00,3.752121320344e+01,6.060660171780e-01
231,1.200000000000e+00,3.252121320344e+01,3.939339828220e-01
232,1.200000000000e+00,3.503000000000e+01,8.500000000000e-01
233,1.200000000000e+00,3.752121320344e+01,1.393933982822e+00
234,1.200000000000e+00,3.252121320344e+01,1.606066017178e+00
235,1.200000000000e+00,3.503000000000e+01,1.150000000000e+00
236,1.200000000000e+00,3.752121320344e+01,6.060660171780e-01
237,-4.939339828220e-01,3.247454415588e+01,0.000000000000e+00
238,1.500000000000e-01,3.496400000000e+01,0.000000000000e+00
239,7.060660171780e-01,3.747454415588e+01,0.000000000000e+00
240,4.939339828220e-01,3.247454415588e+01,0.000000000000e+00
241,-1.500000000000e-01,3.496400000000e+01,0.000000000000e+00
242,-7.060660171780e-01,3.747454415588e+01,0.000000000000e+00
243,-4.939339828220e-01,3.247454415588e+01,2.000000000000e+00
244,1.500000000000e-01,3.496400000000e+01,2.000000000000e+00
245,7.060660171780e-01,3.747454415588e+01,2.000000000000e+00
246,4.939339828220e-01,3.247454415588e+01,2.000000000000e+00
247,-1.500000000000e-01,3.496400000000e+01,2.000000000000e+00
248,-7.060660171780e-01,3.747454415588e+01,2.000000000000e+00
*ELEMENT,TYPE=B31,ELSET=ALL
1,1,25
2,25,26
3,26,27
4,27,28
5,28,29
6,29,30
7,30,31
8,31,5
9,2,32
10,32,33
11,33,34
12,34,35
13,35,36
14,36,37
15,37,38
16,38,6
17,3,39
18,39,40
19,40,41
20,41,42
21,42,43
22,43,44
23,44,45
24,45,7
25,4,46
26,46,47
27,47,48
28,48,49
29,49,50
30,50,51
31,51,52
32,52,8
33,5,53
34,53,9
35,6,54
36,54,10
37,7,55
38,55,11
39,8,56
40,56,12
41,9,13
42,10,14
43,11,15
44,12,16
45,13,57
46,57,58
47,58,59
48,59,17
49,14,60
50,60,61
51,61,62
52,62,18
53,15,63
54,63,64
55,64,65
56,65,19
57,16,66
58,66,67
59,67,68
60,68,20
61,17,69
62,69,70
63,70,71
64,71,21
65,18,72
66,72,73
67,73,74
68,74,22
69,19,75
70,75,76
71,76,77
72,77,23
73,20,78
74,78,79
75,79,80
76,80,24
77,1,81
78,81,82
79,82,83
80,83,2
81,3,84
82,84,85
83,85,86
84,86,4
85,1,87
86,87,88
87,88,89
88,89,3
89,2,90
90,90,91
91,91,92
92,92,4
93,5,93
94,93,94
95,94,95
96,95,6
97,7,96
98,96,97
99,97,98
100,98,8
101,5,99
102,99,100
103,100,101
104,101,7
105,6,102
106,102,103
107,103,104
108,104,8
109,9,105
110,105,10
111,11,106
112,106,12
113,9,107
114,107,11
115,10,108
116,108,12
117,13,109
118,109,110
119,110,111
120,111,112
121,112,113
122,113,114
123,114,115
124,115,14
125,15,116
126,116,117
127,117,118
128,118,119
129,119,120
130,120,121
131,121,122
132,122,16
133,13,123
134,123,124
135,124,125
136,125,126
137,126,127
138,127,128
139,128,129
140,129,15
141,14,130
142,130,131
143,131,132
144,132,133
145,133,134
146,134,135
147,135,136
148,136,16
149,17,137
150,137,18
151,19,138
152,138,20
153,17,139
154,139,19
155,18,140
156,140,20
157,21,141
158,141,142
159,142,143
160,143,22
161,23,144
162,144,145
163,145,146
164,146,24
165,21,147
166,147,148
167,148,149
168,149,23
169,22,150
170,150,151
171,151,152
172,152,24
173,1,153
174,153,154
175,154,155
176,155,156
177,156,157
178,157,158
179,158,159
180,159,7
181,3,160
182,160,161
183,161,162
184,162,163
185,163,164
186,164,165
187,165,166
188,166,5
189,2,167
190,167,168
191,168,169
192,169,170
193,170,171
194,171,172
195,172,173
196,173,8
197,4,174
198,174,175
199,175,176
200,176,177
201,177,178
202,178,179
203,179,180
204,180,6
205,1,181
206,181,182
207,182,183
208,183,184
209,184,185
210,185,186
211,186,187
212,187,6
213,2,188
214,188,189
215,189,190
216,190,191
217,191,192
218,192,193
219,193,194
220,194,5
221,3,195
222,195,196
223,196,197
224,197,198
225,198,199
226,199,200
227,200,201
228,201,8
229,4,202
230,202,203
231,203,204
232,204,205
233,205,206
234,206,207
235,207,208
236,208,7
237,5,209
238,209,11
239,7,210
240,210,9
241,6,211
242,211,12
243,8,212
244,212,10
245,5,213
246,213,10
247,6,214
248,214,9
249,7,215
250,215,12
251,8,216
252,216,11
253,9,217
254,217,15
255,11,218
256,218,13
257,10,219
258,219,16
259,12,220
260,220,14
261,9,221
262,221,14
263,10,222
264,222,13
265,11,223
266,223,16
267,12,224
268,224,15
269,13,225
270,225,226
271,226,227
272,227,19
273,15,228
274,228,229
275,229,230
276,230,17
277,14,231
278,231,232
279,232,233
280,233,20
281,16,234
282,234,235
283,235,236
284,236,18
285,13,237
286,237,238
287,238,239
288,239,18
289,14,240
290,240,241
291,241,242
292,242,17
293,15,243
294,243,244
295,244,245
296,245,20
297,16,246
298,246,247
299,247,248
300,248,19
301,17,23
302,19,21
303,18,24
304,20,22
305,17,22
306,18,21
307,19,24
308,20,23
*NSET,NSET=NALL,GENERATE
1,248,1
*NSET,NSET=LEFT
1,2,3,4
*NSET,NSET=RIGHT
21,22,23,24
*MATERIAL,NAME=STEEL
*ELASTIC
2.100000000000e+11,0.300000000000
*BEAM SECTION,ELSET=ALL,MATERIAL=STEEL,SECTION=RECT
6.000000000000e-02,4.000000000000e-02
0.371390676354,0.557086014531,0.742781352708
*BOUNDARY
LEFT,1,6,0.0
*STEP
*STATIC
*BOUNDARY
21,1,1,5.000000000000e-03
21,2,2,0.0
21,3,3,-6.000000000000e-03
*BOUNDARY
22,1,1,5.000000000000e-03
22,2,2,0.0
22,3,3,6.000000000000e-03
*BOUNDARY
23,1,1,-5.000000000000e-03
23,2,2,0.0
23,3,3,-6.000000000000e-03
*BOUNDARY
24,1,1,-5.000000000000e-03
24,2,2,0.0
24,3,3,6.000000000000e-03
*NODE FILE,NSET=NALL
U
*NODE PRINT,NSET=NALL
U
*NODE PRINT,NSET=RIGHT
RF
*EL PRINT,ELSET=ALL,TOTALS=YES
ELSE
*END STEP
