*HEADING
Normalized cross-passage space-truss torsion benchmark
*NODE
1,-1.200000000000e+00,0.000000000000e+00,0.000000000000e+00
2,1.200000000000e+00,0.000000000000e+00,0.000000000000e+00
3,-1.200000000000e+00,0.000000000000e+00,2.000000000000e+00
4,1.200000000000e+00,0.000000000000e+00,2.000000000000e+00
5,-1.200000000000e+00,1.000000000000e+01,0.000000000000e+00
6,1.200000000000e+00,1.000000000000e+01,0.000000000000e+00
7,-1.200000000000e+00,1.000000000000e+01,2.000000000000e+00
8,1.200000000000e+00,1.000000000000e+01,2.000000000000e+00
9,-1.200000000000e+00,2.000000000000e+01,0.000000000000e+00
10,1.200000000000e+00,2.000000000000e+01,0.000000000000e+00
11,-1.200000000000e+00,2.000000000000e+01,2.000000000000e+00
12,1.200000000000e+00,2.000000000000e+01,2.000000000000e+00
13,-1.200000000000e+00,3.000000000000e+01,0.000000000000e+00
14,1.200000000000e+00,3.000000000000e+01,0.000000000000e+00
15,-1.200000000000e+00,3.000000000000e+01,2.000000000000e+00
16,1.200000000000e+00,3.000000000000e+01,2.000000000000e+00
17,-1.200000000000e+00,4.000000000000e+01,0.000000000000e+00
18,1.200000000000e+00,4.000000000000e+01,0.000000000000e+00
19,-1.200000000000e+00,4.000000000000e+01,2.000000000000e+00
20,1.200000000000e+00,4.000000000000e+01,2.000000000000e+00
21,-1.200000000000e+00,5.000000000000e+01,0.000000000000e+00
22,1.200000000000e+00,5.000000000000e+01,0.000000000000e+00
23,-1.200000000000e+00,5.000000000000e+01,2.000000000000e+00
24,1.200000000000e+00,5.000000000000e+01,2.000000000000e+00
25,-1.200000000000e+00,1.250000000000e+01,-1.060660171780e-01
26,-1.200000000000e+00,1.500000000000e+01,-1.500000000000e-01
27,-1.200000000000e+00,1.750000000000e+01,-1.060660171780e-01
28,1.200000000000e+00,1.250000000000e+01,1.060660171780e-01
29,1.200000000000e+00,1.500000000000e+01,1.500000000000e-01
30,1.200000000000e+00,1.750000000000e+01,1.060660171780e-01
31,-1.200000000000e+00,1.250000000000e+01,1.893933982822e+00
32,-1.200000000000e+00,1.500000000000e+01,1.850000000000e+00
33,-1.200000000000e+00,1.750000000000e+01,1.893933982822e+00
34,1.200000000000e+00,1.250000000000e+01,2.106066017178e+00
35,1.200000000000e+00,1.500000000000e+01,2.150000000000e+00
36,1.200000000000e+00,1.750000000000e+01,2.106066017178e+00
37,-1.200000000000e+00,2.250000000000e+01,-1.060660171780e-01
38,-1.200000000000e+00,2.500000000000e+01,-1.500000000000e-01
39,-1.200000000000e+00,2.750000000000e+01,-1.060660171780e-01
40,1.200000000000e+00,2.250000000000e+01,1.060660171780e-01
41,1.200000000000e+00,2.500000000000e+01,1.500000000000e-01
42,1.200000000000e+00,2.750000000000e+01,1.060660171780e-01
43,-1.200000000000e+00,2.250000000000e+01,1.893933982822e+00
44,-1.200000000000e+00,2.500000000000e+01,1.850000000000e+00
45,-1.200000000000e+00,2.750000000000e+01,1.893933982822e+00
46,1.200000000000e+00,2.250000000000e+01,2.106066017178e+00
47,1.200000000000e+00,2.500000000000e+01,2.150000000000e+00
48,1.200000000000e+00,2.750000000000e+01,2.106066017178e+00
49,-1.200000000000e+00,3.125000000000e+01,-5.740251485476e-02
50,-1.200000000000e+00,3.250000000000e+01,-1.060660171780e-01
51,-1.200000000000e+00,3.375000000000e+01,-1.385819298767e-01
52,-1.200000000000e+00,3.500000000000e+01,-1.500000000000e-01
53,-1.200000000000e+00,3.625000000000e+01,-1.385819298767e-01
54,-1.200000000000e+00,3.750000000000e+01,-1.060660171780e-01
55,-1.200000000000e+00,3.875000000000e+01,-5.740251485476e-02
56,1.200000000000e+00,3.125000000000e+01,5.740251485476e-02
57,1.200000000000e+00,3.250000000000e+01,1.060660171780e-01
58,1.200000000000e+00,3.375000000000e+01,1.385819298767e-01
59,1.200000000000e+00,3.500000000000e+01,1.500000000000e-01
60,1.200000000000e+00,3.625000000000e+01,1.385819298767e-01
61,1.200000000000e+00,3.750000000000e+01,1.060660171780e-01
62,1.200000000000e+00,3.875000000000e+01,5.740251485476e-02
63,-1.200000000000e+00,3.125000000000e+01,1.942597485145e+00
64,-1.200000000000e+00,3.250000000000e+01,1.893933982822e+00
65,-1.200000000000e+00,3.375000000000e+01,1.861418070123e+00
66,-1.200000000000e+00,3.500000000000e+01,1.850000000000e+00
67,-1.200000000000e+00,3.625000000000e+01,1.861418070123e+00
68,-1.200000000000e+00,3.750000000000e+01,1.893933982822e+00
69,-1.200000000000e+00,3.875000000000e+01,1.942597485145e+00
70,1.200000000000e+00,3.125000000000e+01,2.057402514855e+00
71,1.200000000000e+00,3.250000000000e+01,2.106066017178e+00
72,1.200000000000e+00,3.375000000000e+01,2.138581929877e+00
73,1.200000000000e+00,3.500000000000e+01,2.150000000000e+00
74,1.200000000000e+00,3.625000000000e+01,2.138581929877e+00
75,1.200000000000e+00,3.750000000000e+01,2.106066017178e+00
76,1.200000000000e+00,3.875000000000e+01,2.057402514855e+00
77,-1.200000000000e+00,4.500000000000e+01,-1.500000000000e-01
78,1.200000000000e+00,4.500000000000e+01,1.500000000000e-01
79,-1.200000000000e+00,4.500000000000e+01,1.850000000000e+00
80,1.200000000000e+00,4.500000000000e+01,2.150000000000e+00
81,0.000000000000e+00,-3.600000000000e-02,0.000000000000e+00
82,0.000000000000e+00,3.600000000000e-02,2.000000000000e+00
83,-1.200000000000e+00,3.000000000000e-02,1.000000000000e+00
84,1.200000000000e+00,-3.000000000000e-02,1.000000000000e+00
85,-6.000000000000e-01,9.974544155877e+00,0.000000000000e+00
86,0.000000000000e+00,9.964000000000e+00,0.000000000000e+00
87,6.000000000000e-01,9.974544155877e+00,0.000000000000e+00
88,-6.000000000000e-01,1.002545584412e+01,2.000000000000e+00
89,0.000000000000e+00,1.003600000000e+01,2.000000000000e+00
90,6.000000000000e-01,1.002545584412e+01,2.000000000000e+00
91,-1.200000000000e+00,1.002121320344e+01,5.000000000000e-01
92,-1.200000000000e+00,1.003000000000e+01,1.000000000000e+00
93,-1.200000000000e+00,1.002121320344e+01,1.500000000000e+00
94,1.200000000000e+00,9.978786796564e+00,5.000000000000e-01
95,1.200000000000e+00,9.970000000000e+00,1.000000000000e+00
96,1.200000000000e+00,9.978786796564e+00,1.500000000000e+00
97,0.000000000000e+00,1.996400000000e+01,0.000000000000e+00
98,0.000000000000e+00,2.003600000000e+01,2.000000000000e+00
99,-1.200000000000e+00,2.003000000000e+01,1.000000000000e+00
100,1.200000000000e+00,1.997000000000e+01,1.000000000000e+00
101,0.000000000000e+00,2.996400000000e+01,0.000000000000e+00
102,0.000000000000e+00,3.003600000000e+01,2.000000000000e+00
103,-1.200000000000e+00,3.003000000000e+01,1.000000000000e+00
104,1.200000000000e+00,2.997000000000e+01,1.000000000000e+00
105,0.000000000000e+00,3.996400000000e+01,0.000000000000e+00
106,0.000000000000e+00,4.003600000000e+01,2.000000000000e+00
107,-1.200000000000e+00,4.003000000000e+01,1.000000000000e+00
108,1.200000000000e+00,3.997000000000e+01,1.000000000000e+00
109,-6.000000000000e-01,4.997454415588e+01,0.000000000000e+00
110,0.000000000000e+00,4.996400000000e+01,0.000000000000e+00
111,6.000000000000e-01,4.997454415588e+01,0.000000000000e+00
112,-6.000000000000e-01,5.002545584412e+01,2.000000000000e+00
113,0.000000000000e+00,5.003600000000e+01,2.000000000000e+00
114,6.000000000000e-01,5.002545584412e+01,2.000000000000e+00
115,-1.200000000000e+00,5.002121320344e+01,5.000000000000e-01
116,-1.200000000000e+00,5.003000000000e+01,1.000000000000e+00
117,-1.200000000000e+00,5.002121320344e+01,1.500000000000e+00
118,1.200000000000e+00,4.997878679656e+01,5.000000000000e-01
119,1.200000000000e+00,4.997000000000e+01,1.000000000000e+00
120,1.200000000000e+00,4.997878679656e+01,1.500000000000e+00
121,-1.200000000000e+00,2.521213203436e+00,3.939339828220e-01
122,-1.200000000000e+00,5.030000000000e+00,8.500000000000e-01
123,-1.200000000000e+00,7.521213203436e+00,1.393933982822e+00
124,-1.200000000000e+00,2.521213203436e+00,1.606066017178e+00
125,-1.200000000000e+00,5.030000000000e+00,1.150000000000e+00
126,-1.200000000000e+00,7.521213203436e+00,6.060660171780e-01
127,1.200000000000e+00,2.521213203436e+00,3.939339828220e-01
128,1.200000000000e+00,5.030000000000e+00,8.500000000000e-01
129,1.200000000000e+00,7.521213203436e+00,1.393933982822e+00
130,1.200000000000e+00,2.521213203436e+00,1.606066017178e+00
131,1.200000000000e+00,5.030000000000e+00,1.150000000000e+00
132,1.200000000000e+00,7.521213203436e+00,6.060660171780e-01
133,-4.939339828220e-01,2.474544155877e+00,0.000000000000e+00
134,1.500000000000e-01,4.964000000000e+00,0.000000000000e+00
135,7.060660171780e-01,7.474544155877e+00,0.000000000000e+00
136,4.939339828220e-01,2.474544155877e+00,0.000000000000e+00
137,-1.500000000000e-01,4.964000000000e+00,0.000000000000e+00
138,-7.060660171780e-01,7.474544155877e+00,0.000000000000e+00
139,-4.939339828220e-01,2.474544155877e+00,2.000000000000e+00
140,1.500000000000e-01,4.964000000000e+00,2.000000000000e+00
141,7.060660171780e-01,7.474544155877e+00,2.000000000000e+00
142,4.939339828220e-01,2.474544155877e+00,2.000000000000e+00
143,-1.500000000000e-01,4.964000000000e+00,2.000000000000e+00
144,-7.060660171780e-01,7.474544155877e+00,2.000000000000e+00
145,-1.200000000000e+00,2.126148050297e+01,1.925974851452e-01
146,-1.200000000000e+00,2.252121320344e+01,3.939339828220e-01
147,-1.200000000000e+00,2.377771638598e+01,6.114180701233e-01
148,-1.200000000000e+00,2.503000000000e+01,8.500000000000e-01
149,-1.200000000000e+00,2.627771638598e+01,1.111418070123e+00
150,-1.200000000000e+00,2.752121320344e+01,1.393933982822e+00
151,-1.200000000000e+00,2.876148050297e+01,1.692597485145e+00
152,-1.200000000000e+00,2.126148050297e+01,1.807402514855e+00
153,-1.200000000000e+00,2.252121320344e+01,1.606066017178e+00
154,-1.200000000000e+00,2.377771638598e+01,1.388581929877e+00
155,-1.200000000000e+00,2.503000000000e+01,1.150000000000e+00
156,-1.200000000000e+00,2.627771638598e+01,8.885819298767e-01
157,-1.200000000000e+00,2.752121320344e+01,6.060660171780e-01
158,-1.200000000000e+00,2.876148050297e+01,3.074025148548e-01
159,1.200000000000e+00,2.126148050297e+01,1.925974851452e-01
160,1.200000000000e+00,2.252121320344e+01,3.939339828220e-01
161,1.200000000000e+00,2.377771638598e+01,6.114180701233e-01
162,1.200000000000e+00,2.503000000000e+01,8.500000000000e-01
163,1.200000000000e+00,2.627771638598e+01,1.111418070123e+00
164,1.200000000000e+00,2.752121320344e+01,1.393933982822e+00
165,1.200000000000e+00,2.876148050297e+01,1.692597485145e+00
166,1.200000000000e+00,2.126148050297e+01,1.807402514855e+00
167,1.200000000000e+00,2.252121320344e+01,1.606066017178e+00
168,1.200000000000e+00,2.377771638598e+01,1.388581929877e+00
169,1.200000000000e+00,2.503000000000e+01,1.150000000000e+00
170,1.200000000000e+00,2.627771638598e+01,8.885819298767e-01
171,1.200000000000e+00,2.752121320344e+01,6.060660171780e-01
172,1.200000000000e+00,2.876148050297e+01,3.074025148548e-01
173,-8.425974851452e-01,2.123622339643e+01,0.000000000000e+00
174,-4.939339828220e-01,2.247454415588e+01,0.000000000000e+00
175,-1.614180701233e-01,2.371674033683e+01,0.000000000000e+00
176,1.500000000000e-01,2.496400000000e+01,0.000000000000e+00
177,4.385819298767e-01,2.621674033683e+01,0.000000000000e+00
178,7.060660171780e-01,2.747454415588e+01,0.000000000000e+00
179,9.574025148548e-01,2.873622339643e+01,0.000000000000e+00
180,8.425974851452e-01,2.123622339643e+01,0.000000000000e+00
181,4.939339828220e-01,2.247454415588e+01,0.000000000000e+00
182,1.614180701233e-01,2.371674033683e+01,0.000000000000e+00
183,-1.500000000000e-01,2.496400000000e+01,0.000000000000e+00
184,-4.385819298767e-01,2.621674033683e+01,0.000000000000e+00
185,-7.060660171780e-01,2.747454415588e+01,0.000000000000e+00
186,-9.574025148548e-01,2.873622339643e+01,0.000000000000e+00
187,-8.425974851452e-01,2.123622339643e+01,2.000000000000e+00
188,-4.939339828220e-01,2.247454415588e+01,2.000000000000e+00
189,-1.614180701233e-01,2.371674033683e+01,2.000000000000e+00
190,1.500000000000e-01,2.496400000000e+01,2.000000000000e+00
191,4.385819298767e-01,2.621674033683e+01,2.000000000000e+00
192,7.060660171780e-01,2.747454415588e+01,2.000000000000e+00
193,9.574025148548e-01,2.873622339643e+01,2.000000000000e+00
194,8.425974851452e-01,2.123622339643e+01,2.000000000000e+00
195,4.939339828220e-01,2.247454415588e+01,2.000000000000e+00
196,1.614180701233e-01,2.371674033683e+01,2.000000000000e+00
197,-1.500000000000e-01,2.496400000000e+01,2.000000000000e+00
198,-4.385819298767e-01,2.621674033683e+01,2.000000000000e+00
199,-7.060660171780e-01,2.747454415588e+01,2.000000000000e+00
200,-9.574025148548e-01,2.873622339643e+01,2.000000000000e+00
201,-1.200000000000e+00,3.503000000000e+01,8.500000000000e-01
202,-1.200000000000e+00,3.503000000000e+01,1.150000000000e+00
203,1.200000000000e+00,3.503000000000e+01,8.500000000000e-01
204,1.200000000000e+00,3.503000000000e+01,1.150000000000e+00
205,1.500000000000e-01,3.496400000000e+01,0.000000000000e+00
206,-1.500000000000e-01,3.496400000000e+01,0.000000000000e+00
207,1.500000000000e-01,3.496400000000e+01,2.000000000000e+00
208,-1.500000000000e-01,3.496400000000e+01,2.000000000000e+00
209,-1.200000000000e+00,4.252121320344e+01,3.939339828220e-01
210,-1.200000000000e+00,4.503000000000e+01,8.500000000000e-01
211,-1.200000000000e+00,4.752121320344e+01,1.393933982822e+00
212,-1.200000000000e+00,4.252121320344e+01,1.606066017178e+00
213,-1.200000000000e+00,4.503000000000e+01,1.150000000000e+00
214,-1.200000000000e+00,4.752121320344e+01,6.060660171780e-01
215,1.200000000000e+00,4.252121320344e+01,3.939339828220e-01
216,1.200000000000e+00,4.503000000000e+01,8.500000000000e-01
217,1.200000000000e+00,4.752121320344e+01,1.393933982822e+00
218,1.200000000000e+00,4.252121320344e+01,1.606066017178e+00
219,1.200000000000e+00,4.503000000000e+01,1.150000000000e+00
220,1.200000000000e+00,4.752121320344e+01,6.060660171780e-01
221,-4.939339828220e-01,4.247454415588e+01,0.000000000000e+00
222,1.500000000000e-01,4.496400000000e+01,0.000000000000e+00
223,7.060660171780e-01,4.747454415588e+01,0.000000000000e+00
224,4.939339828220e-01,4.247454415588e+01,0.000000000000e+00
225,-1.500000000000e-01,4.496400000000e+01,0.000000000000e+00
226,-7.060660171780e-01,4.747454415588e+01,0.000000000000e+00
227,-4.939339828220e-01,4.247454415588e+01,2.000000000000e+00
228,1.500000000000e-01,4.496400000000e+01,2.000000000000e+00
229,7.060660171780e-01,4.747454415588e+01,2.000000000000e+00
230,4.939339828220e-01,4.247454415588e+01,2.000000000000e+00
231,-1.500000000000e-01,4.496400000000e+01,2.000000000000e+00
232,-7.060660171780e-01,4.747454415588e+01,2.000000000000e+00
*ELEMENT,TYPE=B31,ELSET=ALL
1,1,5
2,2,6
3,3,7
4,4,8
5,5,25
6,25,26
7,26,27
8,27,9
9,6,28
10,28,29
11,29,30
12,30,10
13,7,31
14,31,32
15,32,33
16,33,11
17,8,34
18,34,35
19,35,36
20,36,12
21,9,37
22,37,38
23,38,39
24,39,13
25,10,40
26,40,41
27,41,42
28,42,14
29,11,43
30,43,44
31,44,45
32,45,15
33,12,46
34,46,47
35,47,48
36,48,16
37,13,49
38,49,50
39,50,51
40,51,52
41,52,53
42,53,54
43,54,55
44,55,17
45,14,56
46,56,57
47,57,58
48,58,59
49,59,60
50,60,61
51,61,62
52,62,18
53,15,63
54,63,64
55,64,65
56,65,66
57,66,67
58,67,68
59,68,69
60,69,19
61,16,70
62,70,71
63,71,72
64,72,73
65,73,74
66,74,75
67,75,76
68,76,20
69,17,77
70,77,21
71,18,78
72,78,22
73,19,79
74,79,23
75,20,80
76,80,24
77,1,81
78,81,2
79,3,82
80,82,4
81,1,83
82,83,3
83,2,84
84,84,4
85,5,85
86,85,86
87,86,87
88,87,6
89,7,88
90,88,89
91,89,90
92,90,8
93,5,91
94,91,92
95,92,93
96,93,7
97,6,94
98,94,95
99,95,96
100,96,8
101,9,97
102,97,10
103,11,98
104,98,12
105,9,99
106,99,11
107,10,100
108,100,12
109,13,101
110,101,14
111,15,102
112,102,16
113,13,103
114,103,15
115,14,104
116,104,16
117,17,105
118,105,18
119,19,106
120,106,20
121,17,107
122,107,19
123,18,108
124,108,20
125,21,109
126,109,110
127,110,111
128,111,22
129,23,112
130,112,113
131,113,114
132,114,24
133,21,115
134,115,116
135,116,117
136,117,23
137,22,118
138,118,119
139,119,120
140,120,24
141,1,121
142,121,122
143,122,123
144,123,7
145,3,124
146,124,125
147,125,126
148,126,5
149,2,127
150,127,128
151,128,129
152,129,8
153,4,130
154,130,131
155,131,132
156,132,6
157,1,133
158,133,134
159,134,135
160,135,6
161,2,136
162,136,137
163,137,138
164,138,5
165,3,139
166,139,140
167,140,141
168,141,8
169,4,142
170,142,143
171,143,144
172,144,7
173,5,11
174,7,9
175,6,12
176,8,10
177,5,10
178,6,9
179,7,12
180,8,11
181,9,145
182,145,146
183,146,147
184,147,148
185,148,149
186,149,150
187,150,151
188,151,15
189,11,152
190,152,153
191,153,154
192,154,155
193,155,156
194,156,157
195,157,158
196,158,13
197,10,159
198,159,160
199,160,161
200,161,162
201,162,163
202,163,164
203,164,165
204,165,16
205,12,166
206,166,167
207,167,168
208,168,169
209,169,170
210,170,171
211,171,172
212,172,14
213,9,173
214,173,174
215,174,175
216,175,176
217,176,177
218,177,178
219,178,179
220,179,14
221,10,180
222,180,181
223,181,182
224,182,183
225,183,184
226,184,185
227,185,186
228,186,13
229,11,187
230,187,188
231,188,189
232,189,190
233,190,191
234,191,192
235,192,193
236,193,16
237,12,194
238,194,195
239,195,196
240,196,197
241,197,198
242,198,199
243,199,200
244,200,15
245,13,201
246,201,19
247,15,202
248,202,17
249,14,203
250,203,20
251,16,204
252,204,18
253,13,205
254,205,18
255,14,206
256,206,17
257,15,207
258,207,20
259,16,208
260,208,19
261,17,209
262,209,210
263,210,211
264,211,23
265,19,212
266,212,213
267,213,214
268,214,21
269,18,215
270,215,216
271,216,217
272,217,24
273,20,218
274,218,219
275,219,220
276,220,22
277,17,221
278,221,222
279,222,223
280,223,22
281,18,224
282,224,225
283,225,226
284,226,21
285,19,227
286,227,228
287,228,229
288,229,24
289,20,230
290,230,231
291,231,232
292,232,23
*NSET,NSET=NALL,GENERATE
1,232,1
*NSET,NSET=LEFT
1,2,3,4
*NSET,NSET=RIGHT
21,22,23,24
*MATERIAL,NAME=STEEL
*ELASTIC
2.100000000000e+11,0.300000000000
*BEAM SECTION,ELSET=ALL,MATERIAL=STEEL,SECTION=RECT
6.000000000000e-02,4.000000000000e-02
0.371390676354,0.557086014531,0.742781352708
*BOUNDARY
LEFT,1,6,0.0
*STEP
*STATIC
*BOUNDARY
21,1,1,5.000000000000e-03
21,2,2,0.0
21,3,3,-6.000000000000e-03
*BOUNDARY
22,1,1,5.000000000000e-03
22,2,2,0.0
22,3,3,6.000000000000e-03
*BOUNDARY
23,1,1,-5.000000000000e-03
23,2,2,0.0
23,3,3,-6.000000000000e-03
*BOUNDARY
24,1,1,-5.000000000000e-03
24,2,2,0.0
24,3,3,6.000000000000e-03
*NODE FILE,NSET=NALL
U
*NODE PRINT,NSET=NALL
U
*NODE PRINT,NSET=RIGHT
RF
*EL PRINT,ELSET=ALL,TOTALS=YES
ELSE
*END STEP
