*HEADING
Normalized cross-passage space-truss torsion benchmark
*NODE
1,-1.200000000000e+00,0.000000000000e+00,0.000000000000e+00
2,1.200000000000e+00,0.000000000000e+00,0.000000000000e+00
3,-1.200000000000e+00,0.000000000000e+00,2.000000000000e+00
4,1.200000000000e+00,0.000000000000e+00,2.000000000000e+00
5,-1.200000000000e+00,1.000000000000e+01,0.000000000000e+00
6,1.200000000000e+00,1.000000000000e+01,0.000000000000e+00
7,-1.200000000000e+00,1.000000000000e+01,2.000000000000e+00
8,1.200000000000e+00,1.000000000000e+01,2.000000000000e+00
9,-1.200000000000e+00,2.000000000000e+01,0.000000000000e+00
10,1.200000000000e+00,2.000000000000e+01,0.000000000000e+00
11,-1.200000000000e+00,2.000000000000e+01,2.000000000000e+00
12,1.200000000000e+00,2.000000000000e+01,2.000000000000e+00
13,-1.200000000000e+00,3.000000000000e+01,0.000000000000e+00
14,1.200000000000e+00,3.000000000000e+01,0.000000000000e+00
15,-1.200000000000e+00,3.000000000000e+01,2.000000000000e+00
16,1.200000000000e+00,3.000000000000e+01,2.000000000000e+00
17,-1.200000000000e+00,4.000000000000e+01,0.000000000000e+00
18,1.200000000000e+00,4.000000000000e+01,0.000000000000e+00
19,-1.200000000000e+00,4.000000000000e+01,2.000000000000e+00
20,1.200000000000e+00,4.000000000000e+01,2.000000000000e+00
21,-1.200000000000e+00,5.000000000000e+01,0.000000000000e+00
22,1.200000000000e+00,5.000000000000e+01,0.000000000000e+00
23,-1.200000000000e+00,5.000000000000e+01,2.000000000000e+00
24,1.200000000000e+00,5.000000000000e+01,2.000000000000e+00
25,-1.200000000000e+00,5.000000000000e+00,-1.500000000000e-01
26,1.200000000000e+00,5.000000000000e+00,1.500000000000e-01
27,-1.200000000000e+00,5.000000000000e+00,1.850000000000e+00
28,1.200000000000e+00,5.000000000000e+00,2.150000000000e+00
29,-1.200000000000e+00,3.500000000000e+01,-1.500000000000e-01
30,1.200000000000e+00,3.500000000000e+01,1.500000000000e-01
31,-1.200000000000e+00,3.500000000000e+01,1.850000000000e+00
32,1.200000000000e+00,3.500000000000e+01,2.150000000000e+00
33,-1.200000000000e+00,4.250000000000e+01,-1.060660171780e-01
34,-1.200000000000e+00,4.500000000000e+01,-1.500000000000e-01
35,-1.200000000000e+00,4.750000000000e+01,-1.060660171780e-01
36,1.200000000000e+00,4.250000000000e+01,1.060660171780e-01
37,1.200000000000e+00,4.500000000000e+01,1.500000000000e-01
38,1.200000000000e+00,4.750000000000e+01,1.060660171780e-01
39,-1.200000000000e+00,4.250000000000e+01,1.893933982822e+00
40,-1.200000000000e+00,4.500000000000e+01,1.850000000000e+00
41,-1.200000000000e+00,4.750000000000e+01,1.893933982822e+00
42,1.200000000000e+00,4.250000000000e+01,2.106066017178e+00
43,1.200000000000e+00,4.500000000000e+01,2.150000000000e+00
44,1.200000000000e+00,4.750000000000e+01,2.106066017178e+00
45,-6.000000000000e-01,-2.545584412272e-02,0.000000000000e+00
46,0.000000000000e+00,-3.600000000000e-02,0.000000000000e+00
47,6.000000000000e-01,-2.545584412272e-02,0.000000000000e+00
48,-6.000000000000e-01,2.545584412272e-02,2.000000000000e+00
49,0.000000000000e+00,3.600000000000e-02,2.000000000000e+00
50,6.000000000000e-01,2.545584412272e-02,2.000000000000e+00
51,-1.200000000000e+00,2.121320343560e-02,5.000000000000e-01
52,-1.200000000000e+00,3.000000000000e-02,1.000000000000e+00
53,-1.200000000000e+00,2.121320343560e-02,1.500000000000e+00
54,1.200000000000e+00,-2.121320343560e-02,5.000000000000e-01
55,1.200000000000e+00,-3.000000000000e-02,1.000000000000e+00
56,1.200000000000e+00,-2.121320343560e-02,1.500000000000e+00
57,0.000000000000e+00,1.996400000000e+01,0.000000000000e+00
58,0.000000000000e+00,2.003600000000e+01,2.000000000000e+00
59,-1.200000000000e+00,2.003000000000e+01,1.000000000000e+00
60,1.200000000000e+00,1.997000000000e+01,1.000000000000e+00
61,-6.000000000000e-01,3.997454415588e+01,0.000000000000e+00
62,0.000000000000e+00,3.996400000000e+01,0.000000000000e+00
63,6.000000000000e-01,3.997454415588e+01,0.000000000000e+00
64,-6.000000000000e-01,4.002545584412e+01,2.000000000000e+00
65,0.000000000000e+00,4.003600000000e+01,2.000000000000e+00
66,6.000000000000e-01,4.002545584412e+01,2.000000000000e+00
67,-1.200000000000e+00,4.002121320344e+01,5.000000000000e-01
68,-1.200000000000e+00,4.003000000000e+01,1.000000000000e+00
69,-1.200000000000e+00,4.002121320344e+01,1.500000000000e+00
70,1.200000000000e+00,3.997878679656e+01,5.000000000000e-01
71,1.200000000000e+00,3.997000000000e+01,1.000000000000e+00
72,1.200000000000e+00,3.997878679656e+01,1.500000000000e+00
73,-9.000000000000e-01,4.998622339643e+01,0.000000000000e+00
74,-6.000000000000e-01,4.997454415588e+01,0.000000000000e+00
75,-3.000000000000e-01,4.996674033683e+01,0.000000000000e+00
76,0.000000000000e+00,4.996400000000e+01,0.000000000000e+00
77,3.000000000000e-01,4.996674033683e+01,0.000000000000e+00
78,6.000000000000e-01,4.997454415588e+01,0.000000000000e+00
79,9.000000000000e-01,4.998622339643e+01,0.000000000000e+00
80,-9.000000000000e-01,5.001377660357e+01,2.000000000000e+00
81,-6.000000000000e-01,5.002545584412e+01,2.000000000000e+00
82,-3.000000000000e-01,5.003325966317e+01,2.000000000000e+00
83,0.000000000000e+00,5.003600000000e+01,2.000000000000e+00
84,3.000000000000e-01,5.003325966317e+01,2.000000000000e+00
85,6.000000000000e-01,5.002545584412e+01,2.000000000000e+00
86,9.000000000000e-01,5.001377660357e+01,2.000000000000e+00
87,-1.200000000000e+00,5.001148050297e+01,2.500000000000e-01
88,-1.200000000000e+00,5.002121320344e+01,5.000000000000e-01
89,-1.200000000000e+00,5.002771638598e+01,7.500000000000e-01
90,-1.200000000000e+00,5.003000000000e+01,1.000000000000e+00
91,-1.200000000000e+00,5.002771638598e+01,1.250000000000e+00
92,-1.200000000000e+00,5.002121320344e+01,1.500000000000e+00
93,-1.200000000000e+00,5.001148050297e+01,1.750000000000e+00
94,1.200000000000e+00,4.998851949703e+01,2.500000000000e-01
95,1.200000000000e+00,4.997878679656e+01,5.000000000000e-01
96,1.200000000000e+00,4.997228361402e+01,7.500000000000e-01
97,1.200000000000e+00,4.997000000000e+01,1.000000000000e+00
98,1.200000000000e+00,4.997228361402e+01,1.250000000000e+00
99,1.200000000000e+00,4.997878679656e+01,1.500000000000e+00
100,1.200000000000e+00,4.998851949703e+01,1.750000000000e+00
101,-1.200000000000e+00,2.521213203436e+00,3.939339828220e-01
102,-1.200000000000e+00,5.030000000000e+00,8.500000000000e-01
103,-1.200000000000e+00,7.521213203436e+00,1.393933982822e+00
104,-1.200000000000e+00,2.521213203436e+00,1.606066017178e+00
105,-1.200000000000e+00,5.030000000000e+00,1.150000000000e+00
106,-1.200000000000e+00,7.521213203436e+00,6.060660171780e-01
107,1.200000000000e+00,2.521213203436e+00,3.939339828220e-01
108,1.200000000000e+00,5.030000000000e+00,8.500000000000e-01
109,1.200000000000e+00,7.521213203436e+00,1.393933982822e+00
110,1.200000000000e+00,2.521213203436e+00,1.606066017178e+00
111,1.200000000000e+00,5.030000000000e+00,1.150000000000e+00
112,1.200000000000e+00,7.521213203436e+00,6.060660171780e-01
113,-4.939339828220e-01,2.474544155877e+00,0.000000000000e+00
114,1.500000000000e-01,4.964000000000e+00,0.000000000000e+00
115,7.060660171780e-01,7.474544155877e+00,0.000000000000e+00
116,4.939339828220e-01,2.474544155877e+00,0.000000000000e+00
117,-1.500000000000e-01,4.964000000000e+00,0.000000000000e+00
118,-7.060660171780e-01,7.474544155877e+00,0.000000000000e+00
119,-4.939339828220e-01,2.474544155877e+00,2.000000000000e+00
120,1.500000000000e-01,4.964000000000e+00,2.000000000000e+00
121,7.060660171780e-01,7.474544155877e+00,2.000000000000e+00
122,4.939339828220e-01,2.474544155877e+00,2.000000000000e+00
123,-1.500000000000e-01,4.964000000000e+00,2.000000000000e+00
124,-7.060660171780e-01,7.474544155877e+00,2.000000000000e+00
125,-1.200000000000e+00,1.252121320344e+01,3.939339828220e-01
126,-1.200000000000e+00,1.503000000000e+01,8.500000000000e-01
127,-1.200000000000e+00,1.752121320344e+01,1.393933982822e+00
128,-1.200000000000e+00,1.252121320344e+01,1.606066017178e+00
129,-1.200000000000e+00,1.503000000000e+01,1.150000000000e+00
130,-1.200000000000e+00,1.752121320344e+01,6.060660171780e-01
131,1.200000000000e+00,1.252121320344e+01,3.939339828220e-01
132,1.200000000000e+00,1.503000000000e+01,8.500000000000e-01
133,1.200000000000e+00,1.752121320344e+01,1.393933982822e+00
134,1.200000000000e+00,1.252121320344e+01,1.606066017178e+00
135,1.200000000000e+00,1.503000000000e+01,1.150000000000e+00
136,1.200000000000e+00,1.752121320344e+01,6.060660171780e-01
137,-4.939339828220e-01,1.247454415588e+01,0.000000000000e+00
138,1.500000000000e-01,1.496400000000e+01,0.000000000000e+00
139,7.060660171780e-01,1.747454415588e+01,0.000000000000e+00
140,4.939339828220e-01,1.247454415588e+01,0.000000000000e+00
141,-1.500000000000e-01,1.496400000000e+01,0.000000000000e+00
142,-7.060660171780e-01,1.747454415588e+01,0.000000000000e+00
143,-4.939339828220e-01,1.247454415588e+01,2.000000000000e+00
144,1.500000000000e-01,1.496400000000e+01,2.000000000000e+00
145,7.060660171780e-01,1.747454415588e+01,2.000000000000e+00
146,4.939339828220e-01,1.247454415588e+01,2.000000000000e+00
147,-1.500000000000e-01,1.496400000000e+01,2.000000000000e+00
148,-7.060660171780e-01,1.747454415588e+01,2.000000000000e+00
149,-1.200000000000e+00,3.126148050297e+01,1.925974851452e-01
150,-1.200000000000e+00,3.252121320344e+01,3.939339828220e-01
151,-1.200000000000e+00,3.377771638598e+01,6.114180701233e-01
152,-1.200000000000e+00,3.503000000000e+01,8.500000000000e-01
153,-1.200000000000e+00,3.627771638598e+01,1.111418070123e+00
154,-1.200000000000e+00,3.752121320344e+01,1.393933982822e+00
155,-1.200000000000e+00,3.876148050297e+01,1.692597485145e+00
156,-1.200000000000e+00,3.126148050297e+01,1.807402514855e+00
157,-1.200000000000e+00,3.252121320344e+01,1.606066017178e+00
158,-1.200000000000e+00,3.377771638598e+01,1.388581929877e+00
159,-1.200000000000e+00,3.503000000000e+01,1.150000000000e+00
160,-1.200000000000e+00,3.627771638598e+01,8.885819298767e-01
161,-1.200000000000e+00,3.752121320344e+01,6.060660171780e-01
162,-1.200000000000e+00,3.876148050297e+01,3.074025148548e-01
163,1.200000000000e+00,3.126148050297e+01,1.925974851452e-01
164,1.200000000000e+00,3.252121320344e+01,3.939339828220e-01
165,1.200000000000e+00,3.377771638598e+01,6.114180701233e-01
166,1.200000000000e+00,3.503000000000e+01,8.500000000000e-01
167,1.200000000000e+00,3.627771638598e+01,1.111418070123e+00
168,1.200000000000e+00,3.752121320344e+01,1.393933982822e+00
169,1.200000000000e+00,3.876148050297e+01,1.692597485145e+00
170,1.200000000000e+00,3.126148050297e+01,1.807402514855e+00
171,1.200000000000e+00,3.252121320344e+01,1.606066017178e+00
172,1.200000000000e+00,3.377771638598e+01,1.388581929877e+00
173,1.200000000000e+00,3.503000000000e+01,1.150000000000e+00
174,1.200000000000e+00,3.627771638598e+01,8.885819298767e-01
175,1.200000000000e+00,3.752121320344e+01,6.060660171780e-01
176,1.200000000000e+00,3.876148050297e+01,3.074025148548e-01
177,-8.425974851452e-01,3.123622339643e+01,0.000000000000e+00
178,-4.939339828220e-01,3.247454415588e+01,0.000000000000e+00
179,-1.614180701233e-01,3.371674033683e+01,0.000000000000e+00
180,1.500000000000e-01,3.496400000000e+01,0.000000000000e+00
181,4.385819298767e-01,3.621674033683e+01,0.000000000000e+00
182,7.060660171780e-01,3.747454415588e+01,0.000000000000e+00
183,9.574025148548e-01,3.873622339643e+01,0.000000000000e+00
184,8.425974851452e-01,3.123622339643e+01,0.000000000000e+00
185,4.939339828220e-01,3.247454415588e+01,0.000000000000e+00
186,1.614180701233e-01,3.371674033683e+01,0.000000000000e+00
187,-1.500000000000e-01,3.496400000000e+01,0.000000000000e+00
188,-4.385819298767e-01,3.621674033683e+01,0.000000000000e+00
189,-7.060660171780e-01,3.747454415588e+01,0.000000000000e+00
190,-9.574025148548e-01,3.873622339643e+01,0.000000000000e+00
191,-8.425974851452e-01,3.123622339643e+01,2.000000000000e+00
192,-4.939339828220e-01,3.247454415588e+01,2.000000000000e+00
193,-1.614180701233e-01,3.371674033683e+01,2.000000000000e+00
194,1.500000000000e-01,3.496400000000e+01,2.000000000000e+00
195,4.385819298767e-01,3.621674033683e+01,2.000000000000e+00
196,7.060660171780e-01,3.747454415588e+01,2.000000000000e+00
197,9.574025148548e-01,3.873622339643e+01,2.000000000000e+00
198,8.425974851452e-01,3.123622339643e+01,2.000000000000e+00
199,4.939339828220e-01,3.247454415588e+01,2.000000000000e+00
200,1.614180701233e-01,3.371674033683e+01,2.000000000000e+00
201,-1.500000000000e-01,3.496400000000e+01,2.000000000000e+00
202,-4.385819298767e-01,3.621674033683e+01,2.000000000000e+00
203,-7.060660171780e-01,3.747454415588e+01,2.000000000000e+00
204,-9.574025148548e-01,3.873622339643e+01,2.000000000000e+00
205,-1.200000000000e+00,4.126148050297e+01,1.925974851452e-01
206,-1.200000000000e+00,4.252121320344e+01,3.939339828220e-01
207,-1.200000000000e+00,4.377771638598e+01,6.114180701233e-01
208,-1.200000000000e+00,4.503000000000e+01,8.500000000000e-01
209,-1.200000000000e+00,4.627771638598e+01,1.111418070123e+00
210,-1.200000000000e+00,4.752121320344e+01,1.393933982822e+00
211,-1.200000000000e+00,4.876148050297e+01,1.692597485145e+00
212,-1.200000000000e+00,4.126148050297e+01,1.807402514855e+00
213,-1.200000000000e+00,4.252121320344e+01,1.606066017178e+00
214,-1.200000000000e+00,4.377771638598e+01,1.388581929877e+00
215,-1.200000000000e+00,4.503000000000e+01,1.150000000000e+00
216,-1.200000000000e+00,4.627771638598e+01,8.885819298767e-01
217,-1.200000000000e+00,4.752121320344e+01,6.060660171780e-01
218,-1.200000000000e+00,4.876148050297e+01,3.074025148548e-01
219,1.200000000000e+00,4.126148050297e+01,1.925974851452e-01
220,1.200000000000e+00,4.252121320344e+01,3.939339828220e-01
221,1.200000000000e+00,4.377771638598e+01,6.114180701233e-01
222,1.200000000000e+00,4.503000000000e+01,8.500000000000e-01
223,1.200000000000e+00,4.627771638598e+01,1.111418070123e+00
224,1.200000000000e+00,4.752121320344e+01,1.393933982822e+00
225,1.200000000000e+00,4.876148050297e+01,1.692597485145e+00
226,1.200000000000e+00,4.126148050297e+01,1.807402514855e+00
227,1.200000000000e+00,4.252121320344e+01,1.606066017178e+00
228,1.200000000000e+00,4.377771638598e+01,1.388581929877e+00
229,1.200000000000e+00,4.503000000000e+01,1.150000000000e+00
230,1.200000000000e+00,4.627771638598e+01,8.885819298767e-01
231,1.200000000000e+00,4.752121320344e+01,6.060660171780e-01
232,1.200000000000e+00,4.876148050297e+01,3.074025148548e-01
233,-8.425974851452e-01,4.123622339643e+01,0.000000000000e+00
234,-4.939339828220e-01,4.247454415588e+01,0.000000000000e+00
235,-1.614180701233e-01,4.371674033683e+01,0.000000000000e+00
236,1.500000000000e-01,4.496400000000e+01,0.000000000000e+00
237,4.385819298767e-01,4.621674033683e+01,0.000000000000e+00
238,7.060660171780e-01,4.747454415588e+01,0.000000000000e+00
239,9.574025148548e-01,4.873622339643e+01,0.000000000000e+00
240,8.425974851452e-01,4.123622339643e+01,0.000000000000e+00
241,4.939339828220e-01,4.247454415588e+01,0.000000000000e+00
242,1.614180701233e-01,4.371674033683e+01,0.000000000000e+00
243,-1.500000000000e-01,4.496400000000e+01,0.000000000000e+00
244,-4.385819298767e-01,4.621674033683e+01,0.000000000000e+00
245,-7.060660171780e-01,4.747454415588e+01,0.000000000000e+00
246,-9.574025148548e-01,4.873622339643e+01,0.000000000000e+00
247,-8.425974851452e-01,4.123622339643e+01,2.000000000000e+00
248,-4.939339828220e-01,4.247454415588e+01,2.000000000000e+00
249,-1.614180701233e-01,4.371674033683e+01,2.000000000000e+00
250,1.500000000000e-01,4.496400000000e+01,2.000000000000e+00
251,4.385819298767e-01,4.621674033683e+01,2.000000000000e+00
252,7.060660171780e-01,4.747454415588e+01,2.000000000000e+00
253,9.574025148548e-01,4.873622339643e+01,2.000000000000e+00
254,8.425974851452e-01,4.123622339643e+01,2.000000000000e+00
255,4.939339828220e-01,4.247454415588e+01,2.000000000000e+00
256,1.614180701233e-01,4.371674033683e+01,2.000000000000e+00
257,-1.500000000000e-01,4.496400000000e+01,2.000000000000e+00
258,-4.385819298767e-01,4.621674033683e+01,2.000000000000e+00
259,-7.060660171780e-01,4.747454415588e+01,2.000000000000e+00
260,-9.574025148548e-01,4.873622339643e+01,2.000000000000e+00
*ELEMENT,TYPE=B31,ELSET=ALL
1,1,25
2,25,5
3,2,26
4,26,6
5,3,27
6,27,7
7,4,28
8,28,8
9,5,9
10,6,10
11,7,11
12,8,12
13,9,13
14,10,14
15,11,15
16,12,16
17,13,29
18,29,17
19,14,30
20,30,18
21,15,31
22,31,19
23,16,32
24,32,20
25,17,33
26,33,34
27,34,35
28,35,21
29,18,36
30,36,37
31,37,38
32,38,22
33,19,39
34,39,40
35,40,41
36,41,23
37,20,42
38,42,43
39,43,44
40,44,24
41,1,45
42,45,46
43,46,47
44,47,2
45,3,48
46,48,49
47,49,50
48,50,4
49,1,51
50,51,52
51,52,53
52,53,3
53,2,54
54,54,55
55,55,56
56,56,4
57,5,6
58,7,8
59,5,7
60,6,8
61,9,57
62,57,10
63,11,58
64,58,12
65,9,59
66,59,11
67,10,60
68,60,12
69,13,14
70,15,16
71,13,15
72,14,16
73,17,61
74,61,62
75,62,63
76,63,18
77,19,64
78,64,65
79,65,66
80,66,20
81,17,67
82,67,68
83,68,69
84,69,19
85,18,70
86,70,71
87,71,72
88,72,20
89,21,73
90,73,74
91,74,75
92,75,76
93,76,77
94,77,78
95,78,79
96,79,22
97,23,80
98,80,81
99,81,82
100,82,83
101,83,84
102,84,85
103,85,86
104,86,24
105,21,87
106,87,88
107,88,89
108,89,90
109,90,91
110,91,92
111,92,93
112,93,23
113,22,94
114,94,95
115,95,96
116,96,97
117,97,98
118,98,99
119,99,100
120,100,24
121,1,101
122,101,102
123,102,103
124,103,7
125,3,104
126,104,105
127,105,106
128,106,5
129,2,107
130,107,108
131,108,109
132,109,8
133,4,110
134,110,111
135,111,112
136,112,6
137,1,113
138,113,114
139,114,115
140,115,6
141,2,116
142,116,117
143,117,118
144,118,5
145,3,119
146,119,120
147,120,121
148,121,8
149,4,122
150,122,123
151,123,124
152,124,7
153,5,125
154,125,126
155,126,127
156,127,11
157,7,128
158,128,129
159,129,130
160,130,9
161,6,131
162,131,132
163,132,133
164,133,12
165,8,134
166,134,135
167,135,136
168,136,10
169,5,137
170,137,138
171,138,139
172,139,10
173,6,140
174,140,141
175,141,142
176,142,9
177,7,143
178,143,144
179,144,145
180,145,12
181,8,146
182,146,147
183,147,148
184,148,11
185,9,15
186,11,13
187,10,16
188,12,14
189,9,14
190,10,13
191,11,16
192,12,15
193,13,149
194,149,150
195,150,151
196,151,152
197,152,153
198,153,154
199,154,155
200,155,19
201,15,156
202,156,157
203,157,158
204,158,159
205,159,160
206,160,161
207,161,162
208,162,17
209,14,163
210,163,164
211,164,165
212,165,166
213,166,167
214,167,168
215,168,169
216,169,20
217,16,170
218,170,171
219,171,172
220,172,173
221,173,174
222,174,175
223,175,176
224,176,18
225,13,177
226,177,178
227,178,179
228,179,180
229,180,181
230,181,182
231,182,183
232,183,18
233,14,184
234,184,185
235,185,186
236,186,187
237,187,188
238,188,189
239,189,190
240,190,17
241,15,191
242,191,192
243,192,193
244,193,194
245,194,195
246,195,196
247,196,197
248,197,20
249,16,198
250,198,199
251,199,200
252,200,201
253,201,202
254,202,203
255,203,204
256,204,19
257,17,205
258,205,206
259,206,207
260,207,208
261,208,209
262,209,210
263,210,211
264,211,23
265,19,212
266,212,213
267,213,214
268,214,215
269,215,216
270,216,217
271,217,218
272,218,21
273,18,219
274,219,220
275,220,221
276,221,222
277,222,223
278,223,224
279,224,225
280,225,24
281,20,226
282,226,227
283,227,228
284,228,229
285,229,230
286,230,231
287,231,232
288,232,22
289,17,233
290,233,234
291,234,235
292,235,236
293,236,237
294,237,238
295,238,239
296,239,22
297,18,240
298,240,241
299,241,242
300,242,243
301,243,244
302,244,245
303,245,246
304,246,21
305,19,247
306,247,248
307,248,249
308,249,250
309,250,251
310,251,252
311,252,253
312,253,24
313,20,254
314,254,255
315,255,256
316,256,257
317,257,258
318,258,259
319,259,260
320,260,23
*NSET,NSET=NALL,GENERATE
1,260,1
*NSET,NSET=LEFT
1,2,3,4
*NSET,NSET=RIGHT
21,22,23,24
*MATERIAL,NAME=STEEL
*ELASTIC
2.100000000000e+11,0.300000000000
*BEAM SECTION,ELSET=ALL,MATERIAL=STEEL,SECTION=RECT
6.000000000000e-02,4.000000000000e-02
0.371390676354,0.557086014531,0.742781352708
*BOUNDARY
LEFT,1,6,0.0
*STEP
*STATIC
*BOUNDARY
21,1,1,5.000000000000e-03
21,2,2,0.0
21,3,3,-6.000000000000e-03
*BOUNDARY
22,1,1,5.000000000000e-03
22,2,2,0.0
22,3,3,6.000000000000e-03
*BOUNDARY
23,1,1,-5.000000000000e-03
23,2,2,0.0
23,3,3,-6.000000000000e-03
*BOUNDARY
24,1,1,-5.000000000000e-03
24,2,2,0.0
24,3,3,6.000000000000e-03
*NODE FILE,NSET=NALL
U
*NODE PRINT,NSET=NALL
U
*NODE PRINT,NSET=RIGHT
RF
*EL PRINT,ELSET=ALL,TOTALS=YES
ELSE
*END STEP
