*HEADING
Normalized cross-passage space-truss torsion benchmark
*NODE
1,-1.200000000000e+00,0.000000000000e+00,0.000000000000e+00
2,1.200000000000e+00,0.000000000000e+00,0.000000000000e+00
3,-1.200000000000e+00,0.000000000000e+00,2.000000000000e+00
4,1.200000000000e+00,0.000000000000e+00,2.000000000000e+00
5,-1.200000000000e+00,1.000000000000e+01,0.000000000000e+00
6,1.200000000000e+00,1.000000000000e+01,0.000000000000e+00
7,-1.200000000000e+00,1.000000000000e+01,2.000000000000e+00
8,1.200000000000e+00,1.000000000000e+01,2.000000000000e+00
9,-1.200000000000e+00,2.000000000000e+01,0.000000000000e+00
10,1.200000000000e+00,2.000000000000e+01,0.000000000000e+00
11,-1.200000000000e+00,2.000000000000e+01,2.000000000000e+00
12,1.200000000000e+00,2.000000000000e+01,2.000000000000e+00
13,-1.200000000000e+00,3.000000000000e+01,0.000000000000e+00
14,1.200000000000e+00,3.000000000000e+01,0.000000000000e+00
15,-1.200000000000e+00,3.000000000000e+01,2.000000000000e+00
16,1.200000000000e+00,3.000000000000e+01,2.000000000000e+00
17,-1.200000000000e+00,4.000000000000e+01,0.000000000000e+00
18,1.200000000000e+00,4.000000000000e+01,0.000000000000e+00
19,-1.200000000000e+00,4.000000000000e+01,2.000000000000e+00
20,1.200000000000e+00,4.000000000000e+01,2.000000000000e+00
21,-1.200000000000e+00,5.000000000000e+01,0.000000000000e+00
22,1.200000000000e+00,5.000000000000e+01,0.000000000000e+00
23,-1.200000000000e+00,5.000000000000e+01,2.000000000000e+00
24,1.200000000000e+00,5.000000000000e+01,2.000000000000e+00
25,-1.200000000000e+00,1.500000000000e+01,-1.500000000000e-01
26,1.200000000000e+00,1.500000000000e+01,1.500000000000e-01
27,-1.200000000000e+00,1.500000000000e+01,1.850000000000e+00
28,1.200000000000e+00,1.500000000000e+01,2.150000000000e+00
29,-1.200000000000e+00,3.500000000000e+01,-1.500000000000e-01
30,1.200000000000e+00,3.500000000000e+01,1.500000000000e-01
31,-1.200000000000e+00,3.500000000000e+01,1.850000000000e+00
32,1.200000000000e+00,3.500000000000e+01,2.150000000000e+00
33,-1.200000000000e+00,4.125000000000e+01,-5.740251485476e-02
34,-1.200000000000e+00,4.250000000000e+01,-1.060660171780e-01
35,-1.200000000000e+00,4.375000000000e+01,-1.385819298767e-01
36,-1.200000000000e+00,4.500000000000e+01,-1.500000000000e-01
37,-1.200000000000e+00,4.625000000000e+01,-1.385819298767e-01
38,-1.200000000000e+00,4.750000000000e+01,-1.060660171780e-01
39,-1.200000000000e+00,4.875000000000e+01,-5.740251485476e-02
40,1.200000000000e+00,4.125000000000e+01,5.740251485476e-02
41,1.200000000000e+00,4.250000000000e+01,1.060660171780e-01
42,1.200000000000e+00,4.375000000000e+01,1.385819298767e-01
43,1.200000000000e+00,4.500000000000e+01,1.500000000000e-01
44,1.200000000000e+00,4.625000000000e+01,1.385819298767e-01
45,1.200000000000e+00,4.750000000000e+01,1.060660171780e-01
46,1.200000000000e+00,4.875000000000e+01,5.740251485476e-02
47,-1.200000000000e+00,4.125000000000e+01,1.942597485145e+00
48,-1.200000000000e+00,4.250000000000e+01,1.893933982822e+00
49,-1.200000000000e+00,4.375000000000e+01,1.861418070123e+00
50,-1.200000000000e+00,4.500000000000e+01,1.850000000000e+00
51,-1.200000000000e+00,4.625000000000e+01,1.861418070123e+00
52,-1.200000000000e+00,4.750000000000e+01,1.893933982822e+00
53,-1.200000000000e+00,4.875000000000e+01,1.942597485145e+00
54,1.200000000000e+00,4.125000000000e+01,2.057402514855e+00
55,1.200000000000e+00,4.250000000000e+01,2.106066017178e+00
56,1.200000000000e+00,4.375000000000e+01,2.138581929877e+00
57,1.200000000000e+00,4.500000000000e+01,2.150000000000e+00
58,1.200000000000e+00,4.625000000000e+01,2.138581929877e+00
59,1.200000000000e+00,4.750000000000e+01,2.106066017178e+00
60,1.200000000000e+00,4.875000000000e+01,2.057402514855e+00
61,0.000000000000e+00,-3.600000000000e-02,0.000000000000e+00
62,0.000000000000e+00,3.600000000000e-02,2.000000000000e+00
63,-1.200000000000e+00,3.000000000000e-02,1.000000000000e+00
64,1.200000000000e+00,-3.000000000000e-02,1.000000000000e+00
65,-6.000000000000e-01,2.997454415588e+01,0.000000000000e+00
66,0.000000000000e+00,2.996400000000e+01,0.000000000000e+00
67,6.000000000000e-01,2.997454415588e+01,0.000000000000e+00
68,-6.000000000000e-01,3.002545584412e+01,2.000000000000e+00
69,0.000000000000e+00,3.003600000000e+01,2.000000000000e+00
70,6.000000000000e-01,3.002545584412e+01,2.000000000000e+00
71,-1.200000000000e+00,3.002121320344e+01,5.000000000000e-01
72,-1.200000000000e+00,3.003000000000e+01,1.000000000000e+00
73,-1.200000000000e+00,3.002121320344e+01,1.500000000000e+00
74,1.200000000000e+00,2.997878679656e+01,5.000000000000e-01
75,1.200000000000e+00,2.997000000000e+01,1.000000000000e+00
76,1.200000000000e+00,2.997878679656e+01,1.500000000000e+00
77,-9.000000000000e-01,3.998622339643e+01,0.000000000000e+00
78,-6.000000000000e-01,3.997454415588e+01,0.000000000000e+00
79,-3.000000000000e-01,3.996674033683e+01,0.000000000000e+00
80,0.000000000000e+00,3.996400000000e+01,0.000000000000e+00
81,3.000000000000e-01,3.996674033683e+01,0.000000000000e+00
82,6.000000000000e-01,3.997454415588e+01,0.000000000000e+00
83,9.000000000000e-01,3.998622339643e+01,0.000000000000e+00
84,-9.000000000000e-01,4.001377660357e+01,2.000000000000e+00
85,-6.000000000000e-01,4.002545584412e+01,2.000000000000e+00
86,-3.000000000000e-01,4.003325966317e+01,2.000000000000e+00
87,0.000000000000e+00,4.003600000000e+01,2.000000000000e+00
88,3.000000000000e-01,4.003325966317e+01,2.000000000000e+00
89,6.000000000000e-01,4.002545584412e+01,2.000000000000e+00
90,9.000000000000e-01,4.001377660357e+01,2.000000000000e+00
91,-1.200000000000e+00,4.001148050297e+01,2.500000000000e-01
92,-1.200000000000e+00,4.002121320344e+01,5.000000000000e-01
93,-1.200000000000e+00,4.002771638598e+01,7.500000000000e-01
94,-1.200000000000e+00,4.003000000000e+01,1.000000000000e+00
95,-1.200000000000e+00,4.002771638598e+01,1.250000000000e+00
96,-1.200000000000e+00,4.002121320344e+01,1.500000000000e+00
97,-1.200000000000e+00,4.001148050297e+01,1.750000000000e+00
98,1.200000000000e+00,3.998851949703e+01,2.500000000000e-01
99,1.200000000000e+00,3.997878679656e+01,5.000000000000e-01
100,1.200000000000e+00,3.997228361402e+01,7.500000000000e-01
101,1.200000000000e+00,3.997000000000e+01,1.000000000000e+00
102,1.200000000000e+00,3.997228361402e+01,1.250000000000e+00
103,1.200000000000e+00,3.997878679656e+01,1.500000000000e+00
104,1.200000000000e+00,3.998851949703e+01,1.750000000000e+00
105,-9.000000000000e-01,4.998622339643e+01,0.000000000000e+00
106,-6.000000000000e-01,4.997454415588e+01,0.000000000000e+00
107,-3.000000000000e-01,4.996674033683e+01,0.000000000000e+00
108,0.000000000000e+00,4.996400000000e+01,0.000000000000e+00
109,3.000000000000e-01,4.996674033683e+01,0.000000000000e+00
110,6.000000000000e-01,4.997454415588e+01,0.000000000000e+00
111,9.000000000000e-01,4.998622339643e+01,0.000000000000e+00
112,-9.000000000000e-01,5.001377660357e+01,2.000000000000e+00
113,-6.000000000000e-01,5.002545584412e+01,2.000000000000e+00
114,-3.000000000000e-01,5.003325966317e+01,2.000000000000e+00
115,0.000000000000e+00,5.003600000000e+01,2.000000000000e+00
116,3.000000000000e-01,5.003325966317e+01,2.000000000000e+00
117,6.000000000000e-01,5.002545584412e+01,2.000000000000e+00
118,9.000000000000e-01,5.001377660357e+01,2.000000000000e+00
119,-1.200000000000e+00,5.001148050297e+01,2.500000000000e-01
120,-1.200000000000e+00,5.002121320344e+01,5.000000000000e-01
121,-1.200000000000e+00,5.002771638598e+01,7.500000000000e-01
122,-1.200000000000e+00,5.003000000000e+01,1.000000000000e+00
123,-1.200000000000e+00,5.002771638598e+01,1.250000000000e+00
124,-1.200000000000e+00,5.002121320344e+01,1.500000000000e+00
125,-1.200000000000e+00,5.001148050297e+01,1.750000000000e+00
126,1.200000000000e+00,4.998851949703e+01,2.500000000000e-01
127,1.200000000000e+00,4.997878679656e+01,5.000000000000e-01
128,1.200000000000e+00,4.997228361402e+01,7.500000000000e-01
129,1.200000000000e+00,4.997000000000e+01,1.000000000000e+00
130,1.200000000000e+00,4.997228361402e+01,1.250000000000e+00
131,1.200000000000e+00,4.997878679656e+01,1.500000000000e+00
132,1.200000000000e+00,4.998851949703e+01,1.750000000000e+00
133,-1.200000000000e+00,2.521213203436e+00,3.939339828220e-01
134,-1.200000000000e+00,5.030000000000e+00,8.500000000000e-01
135,-1.200000000000e+00,7.521213203436e+00,1.393933982822e+00
136,-1.200000000000e+00,2.521213203436e+00,1.606066017178e+00
137,-1.200000000000e+00,5.030000000000e+00,1.150000000000e+00
138,-1.200000000000e+00,7.521213203436e+00,6.060660171780e-01
139,1.200000000000e+00,2.521213203436e+00,3.939339828220e-01
140,1.200000000000e+00,5.030000000000e+00,8.500000000000e-01
141,1.200000000000e+00,7.521213203436e+00,1.393933982822e+00
142,1.200000000000e+00,2.521213203436e+00,1.606066017178e+00
143,1.200000000000e+00,5.030000000000e+00,1.150000000000e+00
144,1.200000000000e+00,7.521213203436e+00,6.060660171780e-01
145,-4.939339828220e-01,2.474544155877e+00,0.000000000000e+00
146,1.500000000000e-01,4.964000000000e+00,0.000000000000e+00
147,7.060660171780e-01,7.474544155877e+00,0.000000000000e+00
148,4.939339828220e-01,2.474544155877e+00,0.000000000000e+00
149,-1.500000000000e-01,4.964000000000e+00,0.000000000000e+00
150,-7.060660171780e-01,7.474544155877e+00,0.000000000000e+00
151,-4.939339828220e-01,2.474544155877e+00,2.000000000000e+00
152,1.500000000000e-01,4.964000000000e+00,2.000000000000e+00
153,7.060660171780e-01,7.474544155877e+00,2.000000000000e+00
154,4.939339828220e-01,2.474544155877e+00,2.000000000000e+00
155,-1.500000000000e-01,4.964000000000e+00,2.000000000000e+00
156,-7.060660171780e-01,7.474544155877e+00,2.000000000000e+00
157,-1.200000000000e+00,1.252121320344e+01,3.939339828220e-01
158,-1.200000000000e+00,1.503000000000e+01,8.500000000000e-01
159,-1.200000000000e+00,1.752121320344e+01,1.393933982822e+00
160,-1.200000000000e+00,1.252121320344e+01,1.606066017178e+00
161,-1.200000000000e+00,1.503000000000e+01,1.150000000000e+00
162,-1.200000000000e+00,1.752121320344e+01,6.060660171780e-01
163,1.200000000000e+00,1.252121320344e+01,3.939339828220e-01
164,1.200000000000e+00,1.503000000000e+01,8.500000000000e-01
165,1.200000000000e+00,1.752121320344e+01,1.393933982822e+00
166,1.200000000000e+00,1.252121320344e+01,1.606066017178e+00
167,1.200000000000e+00,1.503000000000e+01,1.150000000000e+00
168,1.200000000000e+00,1.752121320344e+01,6.060660171780e-01
169,-4.939339828220e-01,1.247454415588e+01,0.000000000000e+00
170,1.500000000000e-01,1.496400000000e+01,0.000000000000e+00
171,7.060660171780e-01,1.747454415588e+01,0.000000000000e+00
172,4.939339828220e-01,1.247454415588e+01,0.000000000000e+00
173,-1.500000000000e-01,1.496400000000e+01,0.000000000000e+00
174,-7.060660171780e-01,1.747454415588e+01,0.000000000000e+00
175,-4.939339828220e-01,1.247454415588e+01,2.000000000000e+00
176,1.500000000000e-01,1.496400000000e+01,2.000000000000e+00
177,7.060660171780e-01,1.747454415588e+01,2.000000000000e+00
178,4.939339828220e-01,1.247454415588e+01,2.000000000000e+00
179,-1.500000000000e-01,1.496400000000e+01,2.000000000000e+00
180,-7.060660171780e-01,1.747454415588e+01,2.000000000000e+00
181,-1.200000000000e+00,3.503000000000e+01,8.500000000000e-01
182,-1.200000000000e+00,3.503000000000e+01,1.150000000000e+00
183,1.200000000000e+00,3.503000000000e+01,8.500000000000e-01
184,1.200000000000e+00,3.503000000000e+01,1.150000000000e+00
185,1.500000000000e-01,3.496400000000e+01,0.000000000000e+00
186,-1.500000000000e-01,3.496400000000e+01,0.000000000000e+00
187,1.500000000000e-01,3.496400000000e+01,2.000000000000e+00
188,-1.500000000000e-01,3.496400000000e+01,2.000000000000e+00
189,-1.200000000000e+00,4.126148050297e+01,1.925974851452e-01
190,-1.200000000000e+00,4.252121320344e+01,3.939339828220e-01
191,-1.200000000000e+00,4.377771638598e+01,6.114180701233e-01
192,-1.200000000000e+00,4.503000000000e+01,8.500000000000e-01
193,-1.200000000000e+00,4.627771638598e+01,1.111418070123e+00
194,-1.200000000000e+00,4.752121320344e+01,1.393933982822e+00
195,-1.200000000000e+00,4.876148050297e+01,1.692597485145e+00
196,-1.200000000000e+00,4.126148050297e+01,1.807402514855e+00
197,-1.200000000000e+00,4.252121320344e+01,1.606066017178e+00
198,-1.200000000000e+00,4.377771638598e+01,1.388581929877e+00
199,-1.200000000000e+00,4.503000000000e+01,1.150000000000e+00
200,-1.200000000000e+00,4.627771638598e+01,8.885819298767e-01
201,-1.200000000000e+00,4.752121320344e+01,6.060660171780e-01
202,-1.200000000000e+00,4.876148050297e+01,3.074025148548e-01
203,1.200000000000e+00,4.126148050297e+01,1.925974851452e-01
204,1.200000000000e+00,4.252121320344e+01,3.939339828220e-01
205,1.200000000000e+00,4.377771638598e+01,6.114180701233e-01
206,1.200000000000e+00,4.503000000000e+01,8.500000000000e-01
207,1.200000000000e+00,4.627771638598e+01,1.111418070123e+00
208,1.200000000000e+00,4.752121320344e+01,1.393933982822e+00
209,1.200000000000e+00,4.876148050297e+01,1.692597485145e+00
210,1.200000000000e+00,4.126148050297e+01,1.807402514855e+00
211,1.200000000000e+00,4.252121320344e+01,1.606066017178e+00
212,1.200000000000e+00,4.377771638598e+01,1.388581929877e+00
213,1.200000000000e+00,4.503000000000e+01,1.150000000000e+00
214,1.200000000000e+00,4.627771638598e+01,8.885819298767e-01
215,1.200000000000e+00,4.752121320344e+01,6.060660171780e-01
216,1.200000000000e+00,4.876148050297e+01,3.074025148548e-01
217,-8.425974851452e-01,4.123622339643e+01,0.000000000000e+00
218,-4.939339828220e-01,4.247454415588e+01,0.000000000000e+00
219,-1.614180701233e-01,4.371674033683e+01,0.000000000000e+00
220,1.500000000000e-01,4.496400000000e+01,0.000000000000e+00
221,4.385819298767e-01,4.621674033683e+01,0.000000000000e+00
222,7.060660171780e-01,4.747454415588e+01,0.000000000000e+00
223,9.574025148548e-01,4.873622339643e+01,0.000000000000e+00
224,8.425974851452e-01,4.123622339643e+01,0.000000000000e+00
225,4.939339828220e-01,4.247454415588e+01,0.000000000000e+00
226,1.614180701233e-01,4.371674033683e+01,0.000000000000e+00
227,-1.500000000000e-01,4.496400000000e+01,0.000000000000e+00
228,-4.385819298767e-01,4.621674033683e+01,0.000000000000e+00
229,-7.060660171780e-01,4.747454415588e+01,0.000000000000e+00
230,-9.574025148548e-01,4.873622339643e+01,0.000000000000e+00
231,-8.425974851452e-01,4.123622339643e+01,2.000000000000e+00
232,-4.939339828220e-01,4.247454415588e+01,2.000000000000e+00
233,-1.614180701233e-01,4.371674033683e+01,2.000000000000e+00
234,1.500000000000e-01,4.496400000000e+01,2.000000000000e+00
235,4.385819298767e-01,4.621674033683e+01,2.000000000000e+00
236,7.060660171780e-01,4.747454415588e+01,2.000000000000e+00
237,9.574025148548e-01,4.873622339643e+01,2.000000000000e+00
238,8.425974851452e-01,4.123622339643e+01,2.000000000000e+00
239,4.939339828220e-01,4.247454415588e+01,2.000000000000e+00
240,1.614180701233e-01,4.371674033683e+01,2.000000000000e+00
241,-1.500000000000e-01,4.496400000000e+01,2.000000000000e+00
242,-4.385819298767e-01,4.621674033683e+01,2.000000000000e+00
243,-7.060660171780e-01,4.747454415588e+01,2.000000000000e+00
244,-9.574025148548e-01,4.873622339643e+01,2.000000000000e+00
*ELEMENT,TYPE=B31,ELSET=ALL
1,1,5
2,2,6
3,3,7
4,4,8
5,5,25
6,25,9
7,6,26
8,26,10
9,7,27
10,27,11
11,8,28
12,28,12
13,9,13
14,10,14
15,11,15
16,12,16
17,13,29
18,29,17
19,14,30
20,30,18
21,15,31
22,31,19
23,16,32
24,32,20
25,17,33
26,33,34
27,34,35
28,35,36
29,36,37
30,37,38
31,38,39
32,39,21
33,18,40
34,40,41
35,41,42
36,42,43
37,43,44
38,44,45
39,45,46
40,46,22
41,19,47
42,47,48
43,48,49
44,49,50
45,50,51
46,51,52
47,52,53
48,53,23
49,20,54
50,54,55
51,55,56
52,56,57
53,57,58
54,58,59
55,59,60
56,60,24
57,1,61
58,61,2
59,3,62
60,62,4
61,1,63
62,63,3
63,2,64
64,64,4
65,5,6
66,7,8
67,5,7
68,6,8
69,9,10
70,11,12
71,9,11
72,10,12
73,13,65
74,65,66
75,66,67
76,67,14
77,15,68
78,68,69
79,69,70
80,70,16
81,13,71
82,71,72
83,72,73
84,73,15
85,14,74
86,74,75
87,75,76
88,76,16
89,17,77
90,77,78
91,78,79
92,79,80
93,80,81
94,81,82
95,82,83
96,83,18
97,19,84
98,84,85
99,85,86
100,86,87
101,87,88
102,88,89
103,89,90
104,90,20
105,17,91
106,91,92
107,92,93
108,93,94
109,94,95
110,95,96
111,96,97
112,97,19
113,18,98
114,98,99
115,99,100
116,100,101
117,101,102
118,102,103
119,103,104
120,104,20
121,21,105
122,105,106
123,106,107
124,107,108
125,108,109
126,109,110
127,110,111
128,111,22
129,23,112
130,112,113
131,113,114
132,114,115
133,115,116
134,116,117
135,117,118
136,118,24
137,21,119
138,119,120
139,120,121
140,121,122
141,122,123
142,123,124
143,124,125
144,125,23
145,22,126
146,126,127
147,127,128
148,128,129
149,129,130
150,130,131
151,131,132
152,132,24
153,1,133
154,133,134
155,134,135
156,135,7
157,3,136
158,136,137
159,137,138
160,138,5
161,2,139
162,139,140
163,140,141
164,141,8
165,4,142
166,142,143
167,143,144
168,144,6
169,1,145
170,145,146
171,146,147
172,147,6
173,2,148
174,148,149
175,149,150
176,150,5
177,3,151
178,151,152
179,152,153
180,153,8
181,4,154
182,154,155
183,155,156
184,156,7
185,5,157
186,157,158
187,158,159
188,159,11
189,7,160
190,160,161
191,161,162
192,162,9
193,6,163
194,163,164
195,164,165
196,165,12
197,8,166
198,166,167
199,167,168
200,168,10
201,5,169
202,169,170
203,170,171
204,171,10
205,6,172
206,172,173
207,173,174
208,174,9
209,7,175
210,175,176
211,176,177
212,177,12
213,8,178
214,178,179
215,179,180
216,180,11
217,9,15
218,11,13
219,10,16
220,12,14
221,9,14
222,10,13
223,11,16
224,12,15
225,13,181
226,181,19
227,15,182
228,182,17
229,14,183
230,183,20
231,16,184
232,184,18
233,13,185
234,185,18
235,14,186
236,186,17
237,15,187
238,187,20
239,16,188
240,188,19
241,17,189
242,189,190
243,190,191
244,191,192
245,192,193
246,193,194
247,194,195
248,195,23
249,19,196
250,196,197
251,197,198
252,198,199
253,199,200
254,200,201
255,201,202
256,202,21
257,18,203
258,203,204
259,204,205
260,205,206
261,206,207
262,207,208
263,208,209
264,209,24
265,20,210
266,210,211
267,211,212
268,212,213
269,213,214
270,214,215
271,215,216
272,216,22
273,17,217
274,217,218
275,218,219
276,219,220
277,220,221
278,221,222
279,222,223
280,223,22
281,18,224
282,224,225
283,225,226
284,226,227
285,227,228
286,228,229
287,229,230
288,230,21
289,19,231
290,231,232
291,232,233
292,233,234
293,234,235
294,235,236
295,236,237
296,237,24
297,20,238
298,238,239
299,239,240
300,240,241
301,241,242
302,242,243
303,243,244
304,244,23
*NSET,NSET=NALL,GENERATE
1,244,1
*NSET,NSET=LEFT
1,2,3,4
*NSET,NSET=RIGHT
21,22,23,24
*MATERIAL,NAME=STEEL
*ELASTIC
2.100000000000e+11,0.300000000000
*BEAM SECTION,ELSET=ALL,MATERIAL=STEEL,SECTION=RECT
6.000000000000e-02,4.000000000000e-02
0.371390676354,0.557086014531,0.742781352708
*BOUNDARY
LEFT,1,6,0.0
*STEP
*STATIC
*BOUNDARY
21,1,1,5.000000000000e-03
21,2,2,0.0
21,3,3,-6.000000000000e-03
*BOUNDARY
22,1,1,5.000000000000e-03
22,2,2,0.0
22,3,3,6.000000000000e-03
*BOUNDARY
23,1,1,-5.000000000000e-03
23,2,2,0.0
23,3,3,-6.000000000000e-03
*BOUNDARY
24,1,1,-5.000000000000e-03
24,2,2,0.0
24,3,3,6.000000000000e-03
*NODE FILE,NSET=NALL
U
*NODE PRINT,NSET=NALL
U
*NODE PRINT,NSET=RIGHT
RF
*EL PRINT,ELSET=ALL,TOTALS=YES
ELSE
*END STEP
