*HEADING
Normalized cross-passage space-truss torsion benchmark
*NODE
1,-1.200000000000e+00,0.000000000000e+00,0.000000000000e+00
2,1.200000000000e+00,0.000000000000e+00,0.000000000000e+00
3,-1.200000000000e+00,0.000000000000e+00,2.000000000000e+00
4,1.200000000000e+00,0.000000000000e+00,2.000000000000e+00
5,-1.200000000000e+00,1.000000000000e+01,0.000000000000e+00
6,1.200000000000e+00,1.000000000000e+01,0.000000000000e+00
7,-1.200000000000e+00,1.000000000000e+01,2.000000000000e+00
8,1.200000000000e+00,1.000000000000e+01,2.000000000000e+00
9,-1.200000000000e+00,2.000000000000e+01,0.000000000000e+00
10,1.200000000000e+00,2.000000000000e+01,0.000000000000e+00
11,-1.200000000000e+00,2.000000000000e+01,2.000000000000e+00
12,1.200000000000e+00,2.000000000000e+01,2.000000000000e+00
13,-1.200000000000e+00,3.000000000000e+01,0.000000000000e+00
14,1.200000000000e+00,3.000000000000e+01,0.000000000000e+00
15,-1.200000000000e+00,3.000000000000e+01,2.000000000000e+00
16,1.200000000000e+00,3.000000000000e+01,2.000000000000e+00
17,-1.200000000000e+00,4.000000000000e+01,0.000000000000e+00
18,1.200000000000e+00,4.000000000000e+01,0.000000000000e+00
19,-1.200000000000e+00,4.000000000000e+01,2.000000000000e+00
20,1.200000000000e+00,4.000000000000e+01,2.000000000000e+00
21,-1.200000000000e+00,5.000000000000e+01,0.000000000000e+00
22,1.200000000000e+00,5.000000000000e+01,0.000000000000e+00
23,-1.200000000000e+00,5.000000000000e+01,2.000000000000e+00
24,1.200000000000e+00,5.000000000000e+01,2.000000000000e+00
25,-1.200000000000e+00,5.000000000000e+00,-1.500000000000e-01
26,1.200000000000e+00,5.000000000000e+00,1.500000000000e-01
27,-1.200000000000e+00,5.000000000000e+00,1.850000000000e+00
28,1.200000000000e+00,5.000000000000e+00,2.150000000000e+00
29,-1.200000000000e+00,1.500000000000e+01,-1.500000000000e-01
30,1.200000000000e+00,1.500000000000e+01,1.500000000000e-01
31,-1.200000000000e+00,1.500000000000e+01,1.850000000000e+00
32,1.200000000000e+00,1.500000000000e+01,2.150000000000e+00
33,-1.200000000000e+00,2.500000000000e+01,-1.500000000000e-01
34,1.200000000000e+00,2.500000000000e+01,1.500000000000e-01
35,-1.200000000000e+00,2.500000000000e+01,1.850000000000e+00
36,1.200000000000e+00,2.500000000000e+01,2.150000000000e+00
37,-1.200000000000e+00,3.500000000000e+01,-1.500000000000e-01
38,1.200000000000e+00,3.500000000000e+01,1.500000000000e-01
39,-1.200000000000e+00,3.500000000000e+01,1.850000000000e+00
40,1.200000000000e+00,3.500000000000e+01,2.150000000000e+00
41,-1.200000000000e+00,4.250000000000e+01,-1.060660171780e-01
42,-1.200000000000e+00,4.500000000000e+01,-1.500000000000e-01
43,-1.200000000000e+00,4.750000000000e+01,-1.060660171780e-01
44,1.200000000000e+00,4.250000000000e+01,1.060660171780e-01
45,1.200000000000e+00,4.500000000000e+01,1.500000000000e-01
46,1.200000000000e+00,4.750000000000e+01,1.060660171780e-01
47,-1.200000000000e+00,4.250000000000e+01,1.893933982822e+00
48,-1.200000000000e+00,4.500000000000e+01,1.850000000000e+00
49,-1.200000000000e+00,4.750000000000e+01,1.893933982822e+00
50,1.200000000000e+00,4.250000000000e+01,2.106066017178e+00
51,1.200000000000e+00,4.500000000000e+01,2.150000000000e+00
52,1.200000000000e+00,4.750000000000e+01,2.106066017178e+00
53,-6.000000000000e-01,-2.545584412272e-02,0.000000000000e+00
54,0.000000000000e+00,-3.600000000000e-02,0.000000000000e+00
55,6.000000000000e-01,-2.545584412272e-02,0.000000000000e+00
56,-6.000000000000e-01,2.545584412272e-02,2.000000000000e+00
57,0.000000000000e+00,3.600000000000e-02,2.000000000000e+00
58,6.000000000000e-01,2.545584412272e-02,2.000000000000e+00
59,-1.200000000000e+00,2.121320343560e-02,5.000000000000e-01
60,-1.200000000000e+00,3.000000000000e-02,1.000000000000e+00
61,-1.200000000000e+00,2.121320343560e-02,1.500000000000e+00
62,1.200000000000e+00,-2.121320343560e-02,5.000000000000e-01
63,1.200000000000e+00,-3.000000000000e-02,1.000000000000e+00
64,1.200000000000e+00,-2.121320343560e-02,1.500000000000e+00
65,0.000000000000e+00,9.964000000000e+00,0.000000000000e+00
66,0.000000000000e+00,1.003600000000e+01,2.000000000000e+00
67,-1.200000000000e+00,1.003000000000e+01,1.000000000000e+00
68,1.200000000000e+00,9.970000000000e+00,1.000000000000e+00
69,0.000000000000e+00,1.996400000000e+01,0.000000000000e+00
70,0.000000000000e+00,2.003600000000e+01,2.000000000000e+00
71,-1.200000000000e+00,2.003000000000e+01,1.000000000000e+00
72,1.200000000000e+00,1.997000000000e+01,1.000000000000e+00
73,0.000000000000e+00,2.996400000000e+01,0.000000000000e+00
74,0.000000000000e+00,3.003600000000e+01,2.000000000000e+00
75,-1.200000000000e+00,3.003000000000e+01,1.000000000000e+00
76,1.200000000000e+00,2.997000000000e+01,1.000000000000e+00
77,-6.000000000000e-01,3.997454415588e+01,0.000000000000e+00
78,0.000000000000e+00,3.996400000000e+01,0.000000000000e+00
79,6.000000000000e-01,3.997454415588e+01,0.000000000000e+00
80,-6.000000000000e-01,4.002545584412e+01,2.000000000000e+00
81,0.000000000000e+00,4.003600000000e+01,2.000000000000e+00
82,6.000000000000e-01,4.002545584412e+01,2.000000000000e+00
83,-1.200000000000e+00,4.002121320344e+01,5.000000000000e-01
84,-1.200000000000e+00,4.003000000000e+01,1.000000000000e+00
85,-1.200000000000e+00,4.002121320344e+01,1.500000000000e+00
86,1.200000000000e+00,3.997878679656e+01,5.000000000000e-01
87,1.200000000000e+00,3.997000000000e+01,1.000000000000e+00
88,1.200000000000e+00,3.997878679656e+01,1.500000000000e+00
89,-6.000000000000e-01,4.997454415588e+01,0.000000000000e+00
90,0.000000000000e+00,4.996400000000e+01,0.000000000000e+00
91,6.000000000000e-01,4.997454415588e+01,0.000000000000e+00
92,-6.000000000000e-01,5.002545584412e+01,2.000000000000e+00
93,0.000000000000e+00,5.003600000000e+01,2.000000000000e+00
94,6.000000000000e-01,5.002545584412e+01,2.000000000000e+00
95,-1.200000000000e+00,5.002121320344e+01,5.000000000000e-01
96,-1.200000000000e+00,5.003000000000e+01,1.000000000000e+00
97,-1.200000000000e+00,5.002121320344e+01,1.500000000000e+00
98,1.200000000000e+00,4.997878679656e+01,5.000000000000e-01
99,1.200000000000e+00,4.997000000000e+01,1.000000000000e+00
100,1.200000000000e+00,4.997878679656e+01,1.500000000000e+00
101,-1.200000000000e+00,2.521213203436e+00,3.939339828220e-01
102,-1.200000000000e+00,5.030000000000e+00,8.500000000000e-01
103,-1.200000000000e+00,7.521213203436e+00,1.393933982822e+00
104,-1.200000000000e+00,2.521213203436e+00,1.606066017178e+00
105,-1.200000000000e+00,5.030000000000e+00,1.150000000000e+00
106,-1.200000000000e+00,7.521213203436e+00,6.060660171780e-01
107,1.200000000000e+00,2.521213203436e+00,3.939339828220e-01
108,1.200000000000e+00,5.030000000000e+00,8.500000000000e-01
109,1.200000000000e+00,7.521213203436e+00,1.393933982822e+00
110,1.200000000000e+00,2.521213203436e+00,1.606066017178e+00
111,1.200000000000e+00,5.030000000000e+00,1.150000000000e+00
112,1.200000000000e+00,7.521213203436e+00,6.060660171780e-01
113,-4.939339828220e-01,2.474544155877e+00,0.000000000000e+00
114,1.500000000000e-01,4.964000000000e+00,0.000000000000e+00
115,7.060660171780e-01,7.474544155877e+00,0.000000000000e+00
116,4.939339828220e-01,2.474544155877e+00,0.000000000000e+00
117,-1.500000000000e-01,4.964000000000e+00,0.000000000000e+00
118,-7.060660171780e-01,7.474544155877e+00,0.000000000000e+00
119,-4.939339828220e-01,2.474544155877e+00,2.000000000000e+00
120,1.500000000000e-01,4.964000000000e+00,2.000000000000e+00
121,7.060660171780e-01,7.474544155877e+00,2.000000000000e+00
122,4.939339828220e-01,2.474544155877e+00,2.000000000000e+00
123,-1.500000000000e-01,4.964000000000e+00,2.000000000000e+00
124,-7.060660171780e-01,7.474544155877e+00,2.000000000000e+00
125,-1.200000000000e+00,1.252121320344e+01,3.939339828220e-01
126,-1.200000000000e+00,1.503000000000e+01,8.500000000000e-01
127,-1.200000000000e+00,1.752121320344e+01,1.393933982822e+00
128,-1.200000000000e+00,1.252121320344e+01,1.606066017178e+00
129,-1.200000000000e+00,1.503000000000e+01,1.150000000000e+00
130,-1.200000000000e+00,1.752121320344e+01,6.060660171780e-01
131,1.200000000000e+00,1.252121320344e+01,3.939339828220e-01
132,1.200000000000e+00,1.503000000000e+01,8.500000000000e-01
133,1.200000000000e+00,1.752121320344e+01,1.393933982822e+00
134,1.200000000000e+00,1.252121320344e+01,1.606066017178e+00
135,1.200000000000e+00,1.503000000000e+01,1.150000000000e+00
136,1.200000000000e+00,1.752121320344e+01,6.060660171780e-01
137,-4.939339828220e-01,1.247454415588e+01,0.000000000000e+00
138,1.500000000000e-01,1.496400000000e+01,0.000000000000e+00
139,7.060660171780e-01,1.747454415588e+01,0.000000000000e+00
140,4.939339828220e-01,1.247454415588e+01,0.000000000000e+00
141,-1.500000000000e-01,1.496400000000e+01,0.000000000000e+00
142,-7.060660171780e-01,1.747454415588e+01,0.000000000000e+00
143,-4.939339828220e-01,1.247454415588e+01,2.000000000000e+00
144,1.500000000000e-01,1.496400000000e+01,2.000000000000e+00
145,7.060660171780e-01,1.747454415588e+01,2.000000000000e+00
146,4.939339828220e-01,1.247454415588e+01,2.000000000000e+00
147,-1.500000000000e-01,1.496400000000e+01,2.000000000000e+00
148,-7.060660171780e-01,1.747454415588e+01,2.000000000000e+00
149,-1.200000000000e+00,2.252121320344e+01,3.939339828220e-01
150,-1.200000000000e+00,2.503000000000e+01,8.500000000000e-01
151,-1.200000000000e+00,2.752121320344e+01,1.393933982822e+00
152,-1.200000000000e+00,2.252121320344e+01,1.606066017178e+00
153,-1.200000000000e+00,2.503000000000e+01,1.150000000000e+00
154,-1.200000000000e+00,2.752121320344e+01,6.060660171780e-01
155,1.200000000000e+00,2.252121320344e+01,3.939339828220e-01
156,1.200000000000e+00,2.503000000000e+01,8.500000000000e-01
157,1.200000000000e+00,2.752121320344e+01,1.393933982822e+00
158,1.200000000000e+00,2.252121320344e+01,1.606066017178e+00
159,1.200000000000e+00,2.503000000000e+01,1.150000000000e+00
160,1.200000000000e+00,2.752121320344e+01,6.060660171780e-01
161,-4.939339828220e-01,2.247454415588e+01,0.000000000000e+00
162,1.500000000000e-01,2.496400000000e+01,0.000000000000e+00
163,7.060660171780e-01,2.747454415588e+01,0.000000000000e+00
164,4.939339828220e-01,2.247454415588e+01,0.000000000000e+00
165,-1.500000000000e-01,2.496400000000e+01,0.000000000000e+00
166,-7.060660171780e-01,2.747454415588e+01,0.000000000000e+00
167,-4.939339828220e-01,2.247454415588e+01,2.000000000000e+00
168,1.500000000000e-01,2.496400000000e+01,2.000000000000e+00
169,7.060660171780e-01,2.747454415588e+01,2.000000000000e+00
170,4.939339828220e-01,2.247454415588e+01,2.000000000000e+00
171,-1.500000000000e-01,2.496400000000e+01,2.000000000000e+00
172,-7.060660171780e-01,2.747454415588e+01,2.000000000000e+00
173,-1.200000000000e+00,3.252121320344e+01,3.939339828220e-01
174,-1.200000000000e+00,3.503000000000e+01,8.500000000000e-01
175,-1.200000000000e+00,3.752121320344e+01,1.393933982822e+00
176,-1.200000000000e+00,3.252121320344e+01,1.606066017178e+00
177,-1.200000000000e+00,3.503000000000e+01,1.150000000000e+00
178,-1.200000000000e+00,3.752121320344e+01,6.060660171780e-01
179,1.200000000000e+00,3.252121320344e+01,3.939339828220e-01
180,1.200000000000e+00,3.503000000000e+01,8.500000000000e-01
181,1.200000000000e+00,3.752121320344e+01,1.393933982822e+00
182,1.200000000000e+00,3.252121320344e+01,1.606066017178e+00
183,1.200000000000e+00,3.503000000000e+01,1.150000000000e+00
184,1.200000000000e+00,3.752121320344e+01,6.060660171780e-01
185,-4.939339828220e-01,3.247454415588e+01,0.000000000000e+00
186,1.500000000000e-01,3.496400000000e+01,0.000000000000e+00
187,7.060660171780e-01,3.747454415588e+01,0.000000000000e+00
188,4.939339828220e-01,3.247454415588e+01,0.000000000000e+00
189,-1.500000000000e-01,3.496400000000e+01,0.000000000000e+00
190,-7.060660171780e-01,3.747454415588e+01,0.000000000000e+00
191,-4.939339828220e-01,3.247454415588e+01,2.000000000000e+00
192,1.500000000000e-01,3.496400000000e+01,2.000000000000e+00
193,7.060660171780e-01,3.747454415588e+01,2.000000000000e+00
194,4.939339828220e-01,3.247454415588e+01,2.000000000000e+00
195,-1.500000000000e-01,3.496400000000e+01,2.000000000000e+00
196,-7.060660171780e-01,3.747454415588e+01,2.000000000000e+00
197,-1.200000000000e+00,4.252121320344e+01,3.939339828220e-01
198,-1.200000000000e+00,4.503000000000e+01,8.500000000000e-01
199,-1.200000000000e+00,4.752121320344e+01,1.393933982822e+00
200,-1.200000000000e+00,4.252121320344e+01,1.606066017178e+00
201,-1.200000000000e+00,4.503000000000e+01,1.150000000000e+00
202,-1.200000000000e+00,4.752121320344e+01,6.060660171780e-01
203,1.200000000000e+00,4.252121320344e+01,3.939339828220e-01
204,1.200000000000e+00,4.503000000000e+01,8.500000000000e-01
205,1.200000000000e+00,4.752121320344e+01,1.393933982822e+00
206,1.200000000000e+00,4.252121320344e+01,1.606066017178e+00
207,1.200000000000e+00,4.503000000000e+01,1.150000000000e+00
208,1.200000000000e+00,4.752121320344e+01,6.060660171780e-01
209,-4.939339828220e-01,4.247454415588e+01,0.000000000000e+00
210,1.500000000000e-01,4.496400000000e+01,0.000000000000e+00
211,7.060660171780e-01,4.747454415588e+01,0.000000000000e+00
212,4.939339828220e-01,4.247454415588e+01,0.000000000000e+00
213,-1.500000000000e-01,4.496400000000e+01,0.000000000000e+00
214,-7.060660171780e-01,4.747454415588e+01,0.000000000000e+00
215,-4.939339828220e-01,4.247454415588e+01,2.000000000000e+00
216,1.500000000000e-01,4.496400000000e+01,2.000000000000e+00
217,7.060660171780e-01,4.747454415588e+01,2.000000000000e+00
218,4.939339828220e-01,4.247454415588e+01,2.000000000000e+00
219,-1.500000000000e-01,4.496400000000e+01,2.000000000000e+00
220,-7.060660171780e-01,4.747454415588e+01,2.000000000000e+00
*ELEMENT,TYPE=B31,ELSET=ALL
1,1,25
2,25,5
3,2,26
4,26,6
5,3,27
6,27,7
7,4,28
8,28,8
9,5,29
10,29,9
11,6,30
12,30,10
13,7,31
14,31,11
15,8,32
16,32,12
17,9,33
18,33,13
19,10,34
20,34,14
21,11,35
22,35,15
23,12,36
24,36,16
25,13,37
26,37,17
27,14,38
28,38,18
29,15,39
30,39,19
31,16,40
32,40,20
33,17,41
34,41,42
35,42,43
36,43,21
37,18,44
38,44,45
39,45,46
40,46,22
41,19,47
42,47,48
43,48,49
44,49,23
45,20,50
46,50,51
47,51,52
48,52,24
49,1,53
50,53,54
51,54,55
52,55,2
53,3,56
54,56,57
55,57,58
56,58,4
57,1,59
58,59,60
59,60,61
60,61,3
61,2,62
62,62,63
63,63,64
64,64,4
65,5,65
66,65,6
67,7,66
68,66,8
69,5,67
70,67,7
71,6,68
72,68,8
73,9,69
74,69,10
75,11,70
76,70,12
77,9,71
78,71,11
79,10,72
80,72,12
81,13,73
82,73,14
83,15,74
84,74,16
85,13,75
86,75,15
87,14,76
88,76,16
89,17,77
90,77,78
91,78,79
92,79,18
93,19,80
94,80,81
95,81,82
96,82,20
97,17,83
98,83,84
99,84,85
100,85,19
101,18,86
102,86,87
103,87,88
104,88,20
105,21,89
106,89,90
107,90,91
108,91,22
109,23,92
110,92,93
111,93,94
112,94,24
113,21,95
114,95,96
115,96,97
116,97,23
117,22,98
118,98,99
119,99,100
120,100,24
121,1,101
122,101,102
123,102,103
124,103,7
125,3,104
126,104,105
127,105,106
128,106,5
129,2,107
130,107,108
131,108,109
132,109,8
133,4,110
134,110,111
135,111,112
136,112,6
137,1,113
138,113,114
139,114,115
140,115,6
141,2,116
142,116,117
143,117,118
144,118,5
145,3,119
146,119,120
147,120,121
148,121,8
149,4,122
150,122,123
151,123,124
152,124,7
153,5,125
154,125,126
155,126,127
156,127,11
157,7,128
158,128,129
159,129,130
160,130,9
161,6,131
162,131,132
163,132,133
164,133,12
165,8,134
166,134,135
167,135,136
168,136,10
169,5,137
170,137,138
171,138,139
172,139,10
173,6,140
174,140,141
175,141,142
176,142,9
177,7,143
178,143,144
179,144,145
180,145,12
181,8,146
182,146,147
183,147,148
184,148,11
185,9,149
186,149,150
187,150,151
188,151,15
189,11,152
190,152,153
191,153,154
192,154,13
193,10,155
194,155,156
195,156,157
196,157,16
197,12,158
198,158,159
199,159,160
200,160,14
201,9,161
202,161,162
203,162,163
204,163,14
205,10,164
206,164,165
207,165,166
208,166,13
209,11,167
210,167,168
211,168,169
212,169,16
213,12,170
214,170,171
215,171,172
216,172,15
217,13,173
218,173,174
219,174,175
220,175,19
221,15,176
222,176,177
223,177,178
224,178,17
225,14,179
226,179,180
227,180,181
228,181,20
229,16,182
230,182,183
231,183,184
232,184,18
233,13,185
234,185,186
235,186,187
236,187,18
237,14,188
238,188,189
239,189,190
240,190,17
241,15,191
242,191,192
243,192,193
244,193,20
245,16,194
246,194,195
247,195,196
248,196,19
249,17,197
250,197,198
251,198,199
252,199,23
253,19,200
254,200,201
255,201,202
256,202,21
257,18,203
258,203,204
259,204,205
260,205,24
261,20,206
262,206,207
263,207,208
264,208,22
265,17,209
266,209,210
267,210,211
268,211,22
269,18,212
270,212,213
271,213,214
272,214,21
273,19,215
274,215,216
275,216,217
276,217,24
277,20,218
278,218,219
279,219,220
280,220,23
*NSET,NSET=NALL,GENERATE
1,220,1
*NSET,NSET=LEFT
1,2,3,4
*NSET,NSET=RIGHT
21,22,23,24
*MATERIAL,NAME=STEEL
*ELASTIC
2.100000000000e+11,0.300000000000
*BEAM SECTION,ELSET=ALL,MATERIAL=STEEL,SECTION=RECT
6.000000000000e-02,4.000000000000e-02
0.371390676354,0.557086014531,0.742781352708
*BOUNDARY
LEFT,1,6,0.0
*STEP
*STATIC
*BOUNDARY
21,1,1,5.000000000000e-03
21,2,2,0.0
21,3,3,-6.000000000000e-03
*BOUNDARY
22,1,1,5.000000000000e-03
22,2,2,0.0
22,3,3,6.000000000000e-03
*BOUNDARY
23,1,1,-5.000000000000e-03
23,2,2,0.0
23,3,3,-6.000000000000e-03
*BOUNDARY
24,1,1,-5.000000000000e-03
24,2,2,0.0
24,3,3,6.000000000000e-03
*NODE FILE,NSET=NALL
U
*NODE PRINT,NSET=NALL
U
*NODE PRINT,NSET=RIGHT
RF
*EL PRINT,ELSET=ALL,TOTALS=YES
ELSE
*END STEP
