*HEADING
Normalized cross-passage space-truss torsion benchmark
*NODE
1,-1.200000000000e+00,0.000000000000e+00,0.000000000000e+00
2,1.200000000000e+00,0.000000000000e+00,0.000000000000e+00
3,-1.200000000000e+00,0.000000000000e+00,2.000000000000e+00
4,1.200000000000e+00,0.000000000000e+00,2.000000000000e+00
5,-1.200000000000e+00,1.000000000000e+01,0.000000000000e+00
6,1.200000000000e+00,1.000000000000e+01,0.000000000000e+00
7,-1.200000000000e+00,1.000000000000e+01,2.000000000000e+00
8,1.200000000000e+00,1.000000000000e+01,2.000000000000e+00
9,-1.200000000000e+00,2.000000000000e+01,0.000000000000e+00
10,1.200000000000e+00,2.000000000000e+01,0.000000000000e+00
11,-1.200000000000e+00,2.000000000000e+01,2.000000000000e+00
12,1.200000000000e+00,2.000000000000e+01,2.000000000000e+00
13,-1.200000000000e+00,3.000000000000e+01,0.000000000000e+00
14,1.200000000000e+00,3.000000000000e+01,0.000000000000e+00
15,-1.200000000000e+00,3.000000000000e+01,2.000000000000e+00
16,1.200000000000e+00,3.000000000000e+01,2.000000000000e+00
17,-1.200000000000e+00,4.000000000000e+01,0.000000000000e+00
18,1.200000000000e+00,4.000000000000e+01,0.000000000000e+00
19,-1.200000000000e+00,4.000000000000e+01,2.000000000000e+00
20,1.200000000000e+00,4.000000000000e+01,2.000000000000e+00
21,-1.200000000000e+00,5.000000000000e+01,0.000000000000e+00
22,1.200000000000e+00,5.000000000000e+01,0.000000000000e+00
23,-1.200000000000e+00,5.000000000000e+01,2.000000000000e+00
24,1.200000000000e+00,5.000000000000e+01,2.000000000000e+00
25,-1.200000000000e+00,5.000000000000e+00,-1.500000000000e-01
26,1.200000000000e+00,5.000000000000e+00,1.500000000000e-01
27,-1.200000000000e+00,5.000000000000e+00,1.850000000000e+00
28,1.200000000000e+00,5.000000000000e+00,2.150000000000e+00
29,-1.200000000000e+00,2.250000000000e+01,-1.060660171780e-01
30,-1.200000000000e+00,2.500000000000e+01,-1.500000000000e-01
31,-1.200000000000e+00,2.750000000000e+01,-1.060660171780e-01
32,1.200000000000e+00,2.250000000000e+01,1.060660171780e-01
33,1.200000000000e+00,2.500000000000e+01,1.500000000000e-01
34,1.200000000000e+00,2.750000000000e+01,1.060660171780e-01
35,-1.200000000000e+00,2.250000000000e+01,1.893933982822e+00
36,-1.200000000000e+00,2.500000000000e+01,1.850000000000e+00
37,-1.200000000000e+00,2.750000000000e+01,1.893933982822e+00
38,1.200000000000e+00,2.250000000000e+01,2.106066017178e+00
39,1.200000000000e+00,2.500000000000e+01,2.150000000000e+00
40,1.200000000000e+00,2.750000000000e+01,2.106066017178e+00
41,-1.200000000000e+00,3.250000000000e+01,-1.060660171780e-01
42,-1.200000000000e+00,3.500000000000e+01,-1.500000000000e-01
43,-1.200000000000e+00,3.750000000000e+01,-1.060660171780e-01
44,1.200000000000e+00,3.250000000000e+01,1.060660171780e-01
45,1.200000000000e+00,3.500000000000e+01,1.500000000000e-01
46,1.200000000000e+00,3.750000000000e+01,1.060660171780e-01
47,-1.200000000000e+00,3.250000000000e+01,1.893933982822e+00
48,-1.200000000000e+00,3.500000000000e+01,1.850000000000e+00
49,-1.200000000000e+00,3.750000000000e+01,1.893933982822e+00
50,1.200000000000e+00,3.250000000000e+01,2.106066017178e+00
51,1.200000000000e+00,3.500000000000e+01,2.150000000000e+00
52,1.200000000000e+00,3.750000000000e+01,2.106066017178e+00
53,-1.200000000000e+00,4.125000000000e+01,-5.740251485476e-02
54,-1.200000000000e+00,4.250000000000e+01,-1.060660171780e-01
55,-1.200000000000e+00,4.375000000000e+01,-1.385819298767e-01
56,-1.200000000000e+00,4.500000000000e+01,-1.500000000000e-01
57,-1.200000000000e+00,4.625000000000e+01,-1.385819298767e-01
58,-1.200000000000e+00,4.750000000000e+01,-1.060660171780e-01
59,-1.200000000000e+00,4.875000000000e+01,-5.740251485476e-02
60,1.200000000000e+00,4.125000000000e+01,5.740251485476e-02
61,1.200000000000e+00,4.250000000000e+01,1.060660171780e-01
62,1.200000000000e+00,4.375000000000e+01,1.385819298767e-01
63,1.200000000000e+00,4.500000000000e+01,1.500000000000e-01
64,1.200000000000e+00,4.625000000000e+01,1.385819298767e-01
65,1.200000000000e+00,4.750000000000e+01,1.060660171780e-01
66,1.200000000000e+00,4.875000000000e+01,5.740251485476e-02
67,-1.200000000000e+00,4.125000000000e+01,1.942597485145e+00
68,-1.200000000000e+00,4.250000000000e+01,1.893933982822e+00
69,-1.200000000000e+00,4.375000000000e+01,1.861418070123e+00
70,-1.200000000000e+00,4.500000000000e+01,1.850000000000e+00
71,-1.200000000000e+00,4.625000000000e+01,1.861418070123e+00
72,-1.200000000000e+00,4.750000000000e+01,1.893933982822e+00
73,-1.200000000000e+00,4.875000000000e+01,1.942597485145e+00
74,1.200000000000e+00,4.125000000000e+01,2.057402514855e+00
75,1.200000000000e+00,4.250000000000e+01,2.106066017178e+00
76,1.200000000000e+00,4.375000000000e+01,2.138581929877e+00
77,1.200000000000e+00,4.500000000000e+01,2.150000000000e+00
78,1.200000000000e+00,4.625000000000e+01,2.138581929877e+00
79,1.200000000000e+00,4.750000000000e+01,2.106066017178e+00
80,1.200000000000e+00,4.875000000000e+01,2.057402514855e+00
81,0.000000000000e+00,-3.600000000000e-02,0.000000000000e+00
82,0.000000000000e+00,3.600000000000e-02,2.000000000000e+00
83,-1.200000000000e+00,3.000000000000e-02,1.000000000000e+00
84,1.200000000000e+00,-3.000000000000e-02,1.000000000000e+00
85,0.000000000000e+00,9.964000000000e+00,0.000000000000e+00
86,0.000000000000e+00,1.003600000000e+01,2.000000000000e+00
87,-1.200000000000e+00,1.003000000000e+01,1.000000000000e+00
88,1.200000000000e+00,9.970000000000e+00,1.000000000000e+00
89,0.000000000000e+00,1.996400000000e+01,0.000000000000e+00
90,0.000000000000e+00,2.003600000000e+01,2.000000000000e+00
91,-1.200000000000e+00,2.003000000000e+01,1.000000000000e+00
92,1.200000000000e+00,1.997000000000e+01,1.000000000000e+00
93,0.000000000000e+00,2.996400000000e+01,0.000000000000e+00
94,0.000000000000e+00,3.003600000000e+01,2.000000000000e+00
95,-1.200000000000e+00,3.003000000000e+01,1.000000000000e+00
96,1.200000000000e+00,2.997000000000e+01,1.000000000000e+00
97,-6.000000000000e-01,3.997454415588e+01,0.000000000000e+00
98,0.000000000000e+00,3.996400000000e+01,0.000000000000e+00
99,6.000000000000e-01,3.997454415588e+01,0.000000000000e+00
100,-6.000000000000e-01,4.002545584412e+01,2.000000000000e+00
101,0.000000000000e+00,4.003600000000e+01,2.000000000000e+00
102,6.000000000000e-01,4.002545584412e+01,2.000000000000e+00
103,-1.200000000000e+00,4.002121320344e+01,5.000000000000e-01
104,-1.200000000000e+00,4.003000000000e+01,1.000000000000e+00
105,-1.200000000000e+00,4.002121320344e+01,1.500000000000e+00
106,1.200000000000e+00,3.997878679656e+01,5.000000000000e-01
107,1.200000000000e+00,3.997000000000e+01,1.000000000000e+00
108,1.200000000000e+00,3.997878679656e+01,1.500000000000e+00
109,-9.000000000000e-01,4.998622339643e+01,0.000000000000e+00
110,-6.000000000000e-01,4.997454415588e+01,0.000000000000e+00
111,-3.000000000000e-01,4.996674033683e+01,0.000000000000e+00
112,0.000000000000e+00,4.996400000000e+01,0.000000000000e+00
113,3.000000000000e-01,4.996674033683e+01,0.000000000000e+00
114,6.000000000000e-01,4.997454415588e+01,0.000000000000e+00
115,9.000000000000e-01,4.998622339643e+01,0.000000000000e+00
116,-9.000000000000e-01,5.001377660357e+01,2.000000000000e+00
117,-6.000000000000e-01,5.002545584412e+01,2.000000000000e+00
118,-3.000000000000e-01,5.003325966317e+01,2.000000000000e+00
119,0.000000000000e+00,5.003600000000e+01,2.000000000000e+00
120,3.000000000000e-01,5.003325966317e+01,2.000000000000e+00
121,6.000000000000e-01,5.002545584412e+01,2.000000000000e+00
122,9.000000000000e-01,5.001377660357e+01,2.000000000000e+00
123,-1.200000000000e+00,5.001148050297e+01,2.500000000000e-01
124,-1.200000000000e+00,5.002121320344e+01,5.000000000000e-01
125,-1.200000000000e+00,5.002771638598e+01,7.500000000000e-01
126,-1.200000000000e+00,5.003000000000e+01,1.000000000000e+00
127,-1.200000000000e+00,5.002771638598e+01,1.250000000000e+00
128,-1.200000000000e+00,5.002121320344e+01,1.500000000000e+00
129,-1.200000000000e+00,5.001148050297e+01,1.750000000000e+00
130,1.200000000000e+00,4.998851949703e+01,2.500000000000e-01
131,1.200000000000e+00,4.997878679656e+01,5.000000000000e-01
132,1.200000000000e+00,4.997228361402e+01,7.500000000000e-01
133,1.200000000000e+00,4.997000000000e+01,1.000000000000e+00
134,1.200000000000e+00,4.997228361402e+01,1.250000000000e+00
135,1.200000000000e+00,4.997878679656e+01,1.500000000000e+00
136,1.200000000000e+00,4.998851949703e+01,1.750000000000e+00
137,-1.200000000000e+00,5.030000000000e+00,8.500000000000e-01
138,-1.200000000000e+00,5.030000000000e+00,1.150000000000e+00
139,1.200000000000e+00,5.030000000000e+00,8.500000000000e-01
140,1.200000000000e+00,5.030000000000e+00,1.150000000000e+00
141,1.500000000000e-01,4.964000000000e+00,0.000000000000e+00
142,-1.500000000000e-01,4.964000000000e+00,0.000000000000e+00
143,1.500000000000e-01,4.964000000000e+00,2.000000000000e+00
144,-1.500000000000e-01,4.964000000000e+00,2.000000000000e+00
145,-1.200000000000e+00,1.503000000000e+01,8.500000000000e-01
146,-1.200000000000e+00,1.503000000000e+01,1.150000000000e+00
147,1.200000000000e+00,1.503000000000e+01,8.500000000000e-01
148,1.200000000000e+00,1.503000000000e+01,1.150000000000e+00
149,1.500000000000e-01,1.496400000000e+01,0.000000000000e+00
150,-1.500000000000e-01,1.496400000000e+01,0.000000000000e+00
151,1.500000000000e-01,1.496400000000e+01,2.000000000000e+00
152,-1.500000000000e-01,1.496400000000e+01,2.000000000000e+00
153,-1.200000000000e+00,2.503000000000e+01,8.500000000000e-01
154,-1.200000000000e+00,2.503000000000e+01,1.150000000000e+00
155,1.200000000000e+00,2.503000000000e+01,8.500000000000e-01
156,1.200000000000e+00,2.503000000000e+01,1.150000000000e+00
157,1.500000000000e-01,2.496400000000e+01,0.000000000000e+00
158,-1.500000000000e-01,2.496400000000e+01,0.000000000000e+00
159,1.500000000000e-01,2.496400000000e+01,2.000000000000e+00
160,-1.500000000000e-01,2.496400000000e+01,2.000000000000e+00
161,-1.200000000000e+00,3.503000000000e+01,8.500000000000e-01
162,-1.200000000000e+00,3.503000000000e+01,1.150000000000e+00
163,1.200000000000e+00,3.503000000000e+01,8.500000000000e-01
164,1.200000000000e+00,3.503000000000e+01,1.150000000000e+00
165,1.500000000000e-01,3.496400000000e+01,0.000000000000e+00
166,-1.500000000000e-01,3.496400000000e+01,0.000000000000e+00
167,1.500000000000e-01,3.496400000000e+01,2.000000000000e+00
168,-1.500000000000e-01,3.496400000000e+01,2.000000000000e+00
169,-1.200000000000e+00,4.126148050297e+01,1.925974851452e-01
170,-1.200000000000e+00,4.252121320344e+01,3.939339828220e-01
171,-1.200000000000e+00,4.377771638598e+01,6.114180701233e-01
172,-1.200000000000e+00,4.503000000000e+01,8.500000000000e-01
173,-1.200000000000e+00,4.627771638598e+01,1.111418070123e+00
174,-1.200000000000e+00,4.752121320344e+01,1.393933982822e+00
175,-1.200000000000e+00,4.876148050297e+01,1.692597485145e+00
176,-1.200000000000e+00,4.126148050297e+01,1.807402514855e+00
177,-1.200000000000e+00,4.252121320344e+01,1.606066017178e+00
178,-1.200000000000e+00,4.377771638598e+01,1.388581929877e+00
179,-1.200000000000e+00,4.503000000000e+01,1.150000000000e+00
180,-1.200000000000e+00,4.627771638598e+01,8.885819298767e-01
181,-1.200000000000e+00,4.752121320344e+01,6.060660171780e-01
182,-1.200000000000e+00,4.876148050297e+01,3.074025148548e-01
183,1.200000000000e+00,4.126148050297e+01,1.925974851452e-01
184,1.200000000000e+00,4.252121320344e+01,3.939339828220e-01
185,1.200000000000e+00,4.377771638598e+01,6.114180701233e-01
186,1.200000000000e+00,4.503000000000e+01,8.500000000000e-01
187,1.200000000000e+00,4.627771638598e+01,1.111418070123e+00
188,1.200000000000e+00,4.752121320344e+01,1.393933982822e+00
189,1.200000000000e+00,4.876148050297e+01,1.692597485145e+00
190,1.200000000000e+00,4.126148050297e+01,1.807402514855e+00
191,1.200000000000e+00,4.252121320344e+01,1.606066017178e+00
192,1.200000000000e+00,4.377771638598e+01,1.388581929877e+00
193,1.200000000000e+00,4.503000000000e+01,1.150000000000e+00
194,1.200000000000e+00,4.627771638598e+01,8.885819298767e-01
195,1.200000000000e+00,4.752121320344e+01,6.060660171780e-01
196,1.200000000000e+00,4.876148050297e+01,3.074025148548e-01
197,-8.425974851452e-01,4.123622339643e+01,0.000000000000e+00
198,-4.939339828220e-01,4.247454415588e+01,0.000000000000e+00
199,-1.614180701233e-01,4.371674033683e+01,0.000000000000e+00
200,1.500000000000e-01,4.496400000000e+01,0.000000000000e+00
201,4.385819298767e-01,4.621674033683e+01,0.000000000000e+00
202,7.060660171780e-01,4.747454415588e+01,0.000000000000e+00
203,9.574025148548e-01,4.873622339643e+01,0.000000000000e+00
204,8.425974851452e-01,4.123622339643e+01,0.000000000000e+00
205,4.939339828220e-01,4.247454415588e+01,0.000000000000e+00
206,1.614180701233e-01,4.371674033683e+01,0.000000000000e+00
207,-1.500000000000e-01,4.496400000000e+01,0.000000000000e+00
208,-4.385819298767e-01,4.621674033683e+01,0.000000000000e+00
209,-7.060660171780e-01,4.747454415588e+01,0.000000000000e+00
210,-9.574025148548e-01,4.873622339643e+01,0.000000000000e+00
211,-8.425974851452e-01,4.123622339643e+01,2.000000000000e+00
212,-4.939339828220e-01,4.247454415588e+01,2.000000000000e+00
213,-1.614180701233e-01,4.371674033683e+01,2.000000000000e+00
214,1.500000000000e-01,4.496400000000e+01,2.000000000000e+00
215,4.385819298767e-01,4.621674033683e+01,2.000000000000e+00
216,7.060660171780e-01,4.747454415588e+01,2.000000000000e+00
217,9.574025148548e-01,4.873622339643e+01,2.000000000000e+00
218,8.425974851452e-01,4.123622339643e+01,2.000000000000e+00
219,4.939339828220e-01,4.247454415588e+01,2.000000000000e+00
220,1.614180701233e-01,4.371674033683e+01,2.000000000000e+00
221,-1.500000000000e-01,4.496400000000e+01,2.000000000000e+00
222,-4.385819298767e-01,4.621674033683e+01,2.000000000000e+00
223,-7.060660171780e-01,4.747454415588e+01,2.000000000000e+00
224,-9.574025148548e-01,4.873622339643e+01,2.000000000000e+00
*ELEMENT,TYPE=B31,ELSET=ALL
1,1,25
2,25,5
3,2,26
4,26,6
5,3,27
6,27,7
7,4,28
8,28,8
9,5,9
10,6,10
11,7,11
12,8,12
13,9,29
14,29,30
15,30,31
16,31,13
17,10,32
18,32,33
19,33,34
20,34,14
21,11,35
22,35,36
23,36,37
24,37,15
25,12,38
26,38,39
27,39,40
28,40,16
29,13,41
30,41,42
31,42,43
32,43,17
33,14,44
34,44,45
35,45,46
36,46,18
37,15,47
38,47,48
39,48,49
40,49,19
41,16,50
42,50,51
43,51,52
44,52,20
45,17,53
46,53,54
47,54,55
48,55,56
49,56,57
50,57,58
51,58,59
52,59,21
53,18,60
54,60,61
55,61,62
56,62,63
57,63,64
58,64,65
59,65,66
60,66,22
61,19,67
62,67,68
63,68,69
64,69,70
65,70,71
66,71,72
67,72,73
68,73,23
69,20,74
70,74,75
71,75,76
72,76,77
73,77,78
74,78,79
75,79,80
76,80,24
77,1,81
78,81,2
79,3,82
80,82,4
81,1,83
82,83,3
83,2,84
84,84,4
85,5,85
86,85,6
87,7,86
88,86,8
89,5,87
90,87,7
91,6,88
92,88,8
93,9,89
94,89,10
95,11,90
96,90,12
97,9,91
98,91,11
99,10,92
100,92,12
101,13,93
102,93,14
103,15,94
104,94,16
105,13,95
106,95,15
107,14,96
108,96,16
109,17,97
110,97,98
111,98,99
112,99,18
113,19,100
114,100,101
115,101,102
116,102,20
117,17,103
118,103,104
119,104,105
120,105,19
121,18,106
122,106,107
123,107,108
124,108,20
125,21,109
126,109,110
127,110,111
128,111,112
129,112,113
130,113,114
131,114,115
132,115,22
133,23,116
134,116,117
135,117,118
136,118,119
137,119,120
138,120,121
139,121,122
140,122,24
141,21,123
142,123,124
143,124,125
144,125,126
145,126,127
146,127,128
147,128,129
148,129,23
149,22,130
150,130,131
151,131,132
152,132,133
153,133,134
154,134,135
155,135,136
156,136,24
157,1,137
158,137,7
159,3,138
160,138,5
161,2,139
162,139,8
163,4,140
164,140,6
165,1,141
166,141,6
167,2,142
168,142,5
169,3,143
170,143,8
171,4,144
172,144,7
173,5,145
174,145,11
175,7,146
176,146,9
177,6,147
178,147,12
179,8,148
180,148,10
181,5,149
182,149,10
183,6,150
184,150,9
185,7,151
186,151,12
187,8,152
188,152,11
189,9,153
190,153,15
191,11,154
192,154,13
193,10,155
194,155,16
195,12,156
196,156,14
197,9,157
198,157,14
199,10,158
200,158,13
201,11,159
202,159,16
203,12,160
204,160,15
205,13,161
206,161,19
207,15,162
208,162,17
209,14,163
210,163,20
211,16,164
212,164,18
213,13,165
214,165,18
215,14,166
216,166,17
217,15,167
218,167,20
219,16,168
220,168,19
221,17,169
222,169,170
223,170,171
224,171,172
225,172,173
226,173,174
227,174,175
228,175,23
229,19,176
230,176,177
231,177,178
232,178,179
233,179,180
234,180,181
235,181,182
236,182,21
237,18,183
238,183,184
239,184,185
240,185,186
241,186,187
242,187,188
243,188,189
244,189,24
245,20,190
246,190,191
247,191,192
248,192,193
249,193,194
250,194,195
251,195,196
252,196,22
253,17,197
254,197,198
255,198,199
256,199,200
257,200,201
258,201,202
259,202,203
260,203,22
261,18,204
262,204,205
263,205,206
264,206,207
265,207,208
266,208,209
267,209,210
268,210,21
269,19,211
270,211,212
271,212,213
272,213,214
273,214,215
274,215,216
275,216,217
276,217,24
277,20,218
278,218,219
279,219,220
280,220,221
281,221,222
282,222,223
283,223,224
284,224,23
*NSET,NSET=NALL,GENERATE
1,224,1
*NSET,NSET=LEFT
1,2,3,4
*NSET,NSET=RIGHT
21,22,23,24
*MATERIAL,NAME=STEEL
*ELASTIC
2.100000000000e+11,0.300000000000
*BEAM SECTION,ELSET=ALL,MATERIAL=STEEL,SECTION=RECT
6.000000000000e-02,4.000000000000e-02
0.371390676354,0.557086014531,0.742781352708
*BOUNDARY
LEFT,1,6,0.0
*STEP
*STATIC
*BOUNDARY
21,1,1,5.000000000000e-03
21,2,2,0.0
21,3,3,-6.000000000000e-03
*BOUNDARY
22,1,1,5.000000000000e-03
22,2,2,0.0
22,3,3,6.000000000000e-03
*BOUNDARY
23,1,1,-5.000000000000e-03
23,2,2,0.0
23,3,3,-6.000000000000e-03
*BOUNDARY
24,1,1,-5.000000000000e-03
24,2,2,0.0
24,3,3,6.000000000000e-03
*NODE FILE,NSET=NALL
U
*NODE PRINT,NSET=NALL
U
*NODE PRINT,NSET=RIGHT
RF
*EL PRINT,ELSET=ALL,TOTALS=YES
ELSE
*END STEP
