*HEADING
R8 reentrant h-branch ccx vs in-process
local Dirichlet problem; displacements on the cut from the global FE solution
*NODE, NSET=NALL
1, 0, -10, 140
2, 0, -10, 145
3, 0, -10, 150
4, 0, -5, 140
5, 0, -5, 145
6, 0, -5, 150
7, 0, 0, 140
8, 0, 0, 145
9, 0, 0, 150
10, 55.5555555556, -10, 140
11, 55.5555555556, -10, 145
12, 55.5555555556, -10, 150
13, 55.5555555556, -5, 140
14, 55.5555555556, -5, 145
15, 55.5555555556, -5, 150
16, 55.5555555556, 0, 140
17, 55.5555555556, 0, 145
18, 55.5555555556, 0, 150
19, 111.111111111, -10, 140
20, 111.111111111, -10, 145
21, 111.111111111, -10, 150
22, 111.111111111, -5, 140
23, 111.111111111, -5, 145
24, 111.111111111, -5, 150
25, 111.111111111, 0, 140
26, 111.111111111, 0, 145
27, 111.111111111, 0, 150
28, 111.111111111, -10, 112
29, 111.111111111, -10, 126
30, 111.111111111, -5, 112
31, 111.111111111, -5, 126
32, 111.111111111, 0, 112
33, 111.111111111, 0, 126
34, 166.666666667, -10, 112
35, 166.666666667, -10, 126
36, 166.666666667, -10, 140
37, 166.666666667, -5, 112
38, 166.666666667, -5, 126
39, 166.666666667, -5, 140
40, 166.666666667, 0, 112
41, 166.666666667, 0, 126
42, 166.666666667, 0, 140
43, 222.222222222, -10, 112
44, 222.222222222, -10, 126
45, 222.222222222, -10, 140
46, 222.222222222, -5, 112
47, 222.222222222, -5, 126
48, 222.222222222, -5, 140
49, 222.222222222, 0, 112
50, 222.222222222, 0, 126
51, 222.222222222, 0, 140
52, 111.111111111, -37.5, 140
53, 111.111111111, -37.5, 145
54, 111.111111111, -37.5, 150
55, 111.111111111, -23.75, 140
56, 111.111111111, -23.75, 145
57, 111.111111111, -23.75, 150
58, 166.666666667, -37.5, 140
59, 166.666666667, -37.5, 145
60, 166.666666667, -37.5, 150
61, 166.666666667, -23.75, 140
62, 166.666666667, -23.75, 145
63, 166.666666667, -23.75, 150
64, 166.666666667, -10, 145
65, 166.666666667, -10, 150
66, 222.222222222, -37.5, 140
67, 222.222222222, -37.5, 145
68, 222.222222222, -37.5, 150
69, 222.222222222, -23.75, 140
70, 222.222222222, -23.75, 145
71, 222.222222222, -23.75, 150
72, 222.222222222, -10, 145
73, 222.222222222, -10, 150
74, 166.666666667, -5, 145
75, 166.666666667, -5, 150
76, 166.666666667, 0, 145
77, 166.666666667, 0, 150
78, 222.222222222, -5, 145
79, 222.222222222, -5, 150
80, 222.222222222, 0, 145
81, 222.222222222, 0, 150
82, 111.111111111, -10, 155
83, 111.111111111, -10, 160
84, 111.111111111, -5, 155
85, 111.111111111, -5, 160
86, 111.111111111, 0, 155
87, 111.111111111, 0, 160
88, 166.666666667, -10, 155
89, 166.666666667, -10, 160
90, 166.666666667, -5, 155
91, 166.666666667, -5, 160
92, 166.666666667, 0, 155
93, 166.666666667, 0, 160
94, 222.222222222, -10, 155
95, 222.222222222, -10, 160
96, 222.222222222, -5, 155
97, 222.222222222, -5, 160
98, 222.222222222, 0, 155
99, 222.222222222, 0, 160
100, 111.111111111, 5, 140
101, 111.111111111, 5, 145
102, 111.111111111, 5, 150
103, 111.111111111, 10, 140
104, 111.111111111, 10, 145
105, 111.111111111, 10, 150
106, 166.666666667, 5, 140
107, 166.666666667, 5, 145
108, 166.666666667, 5, 150
109, 166.666666667, 10, 140
110, 166.666666667, 10, 145
111, 166.666666667, 10, 150
112, 222.222222222, 5, 140
113, 222.222222222, 5, 145
114, 222.222222222, 5, 150
115, 222.222222222, 10, 140
116, 222.222222222, 10, 145
117, 222.222222222, 10, 150
118, 277.777777778, -10, 140
119, 277.777777778, -10, 145
120, 277.777777778, -10, 150
121, 277.777777778, -5, 140
122, 277.777777778, -5, 145
123, 277.777777778, -5, 150
124, 277.777777778, 0, 140
125, 277.777777778, 0, 145
126, 277.777777778, 0, 150
127, 333.333333333, -10, 140
128, 333.333333333, -10, 145
129, 333.333333333, -10, 150
130, 333.333333333, -5, 140
131, 333.333333333, -5, 145
132, 333.333333333, -5, 150
133, 333.333333333, 0, 140
134, 333.333333333, 0, 145
135, 333.333333333, 0, 150
*ELEMENT, TYPE=C3D8, ELSET=EALL
1, 1, 10, 13, 4, 2, 11, 14, 5
2, 2, 11, 14, 5, 3, 12, 15, 6
3, 4, 13, 16, 7, 5, 14, 17, 8
4, 5, 14, 17, 8, 6, 15, 18, 9
5, 10, 19, 22, 13, 11, 20, 23, 14
6, 11, 20, 23, 14, 12, 21, 24, 15
7, 13, 22, 25, 16, 14, 23, 26, 17
8, 14, 23, 26, 17, 15, 24, 27, 18
9, 28, 34, 37, 30, 29, 35, 38, 31
10, 29, 35, 38, 31, 19, 36, 39, 22
11, 30, 37, 40, 32, 31, 38, 41, 33
12, 31, 38, 41, 33, 22, 39, 42, 25
13, 34, 43, 46, 37, 35, 44, 47, 38
14, 35, 44, 47, 38, 36, 45, 48, 39
15, 37, 46, 49, 40, 38, 47, 50, 41
16, 38, 47, 50, 41, 39, 48, 51, 42
17, 52, 58, 61, 55, 53, 59, 62, 56
18, 53, 59, 62, 56, 54, 60, 63, 57
19, 55, 61, 36, 19, 56, 62, 64, 20
20, 56, 62, 64, 20, 57, 63, 65, 21
21, 58, 66, 69, 61, 59, 67, 70, 62
22, 59, 67, 70, 62, 60, 68, 71, 63
23, 61, 69, 45, 36, 62, 70, 72, 64
24, 62, 70, 72, 64, 63, 71, 73, 65
25, 19, 36, 39, 22, 20, 64, 74, 23
26, 20, 64, 74, 23, 21, 65, 75, 24
27, 22, 39, 42, 25, 23, 74, 76, 26
28, 23, 74, 76, 26, 24, 75, 77, 27
29, 36, 45, 48, 39, 64, 72, 78, 74
30, 64, 72, 78, 74, 65, 73, 79, 75
31, 39, 48, 51, 42, 74, 78, 80, 76
32, 74, 78, 80, 76, 75, 79, 81, 77
33, 21, 65, 75, 24, 82, 88, 90, 84
34, 82, 88, 90, 84, 83, 89, 91, 85
35, 24, 75, 77, 27, 84, 90, 92, 86
36, 84, 90, 92, 86, 85, 91, 93, 87
37, 65, 73, 79, 75, 88, 94, 96, 90
38, 88, 94, 96, 90, 89, 95, 97, 91
39, 75, 79, 81, 77, 90, 96, 98, 92
40, 90, 96, 98, 92, 91, 97, 99, 93
41, 25, 42, 106, 100, 26, 76, 107, 101
42, 26, 76, 107, 101, 27, 77, 108, 102
43, 100, 106, 109, 103, 101, 107, 110, 104
44, 101, 107, 110, 104, 102, 108, 111, 105
45, 42, 51, 112, 106, 76, 80, 113, 107
46, 76, 80, 113, 107, 77, 81, 114, 108
47, 106, 112, 115, 109, 107, 113, 116, 110
48, 107, 113, 116, 110, 108, 114, 117, 111
49, 45, 118, 121, 48, 72, 119, 122, 78
50, 72, 119, 122, 78, 73, 120, 123, 79
51, 48, 121, 124, 51, 78, 122, 125, 80
52, 78, 122, 125, 80, 79, 123, 126, 81
53, 118, 127, 130, 121, 119, 128, 131, 122
54, 119, 128, 131, 122, 120, 129, 132, 123
55, 121, 130, 133, 124, 122, 131, 134, 125
56, 122, 131, 134, 125, 123, 132, 135, 126
*NSET, NSET=BDRY
1, 2, 3, 4, 5, 6, 7, 8, 9, 10, 11, 12, 13, 15, 16, 17
18, 19, 20, 21, 22, 24, 25, 26, 27, 28, 29, 30, 31, 32, 33, 34
35, 36, 37, 40, 41, 42, 43, 44, 45, 46, 47, 48, 49, 50, 51, 52
53, 54, 55, 56, 57, 58, 59, 60, 61, 63, 65, 66, 67, 68, 69, 70
71, 72, 73, 77, 79, 80, 81, 82, 83, 84, 85, 86, 87, 88, 89, 91
92, 93, 94, 95, 96, 97, 98, 99, 100, 101, 102, 103, 104, 105, 106, 108
109, 110, 111, 112, 113, 114, 115, 116, 117, 118, 119, 120, 121, 123, 124, 125
126, 127, 128, 129, 130, 131, 132, 133, 134, 135
*NSET, NSET=FREE
14, 23, 38, 39, 62, 64, 74, 75, 76, 78, 90, 107, 122
*MATERIAL, NAME=STEEL
*ELASTIC
210000, 0.3
*SOLID SECTION, ELSET=EALL, MATERIAL=STEEL
*BOUNDARY
1, 1, 1, 0
1, 2, 2, 0
1, 3, 3, 0
2, 1, 1, 0
2, 2, 2, 0
2, 3, 3, 0
3, 1, 1, 0
3, 2, 2, 0
3, 3, 3, 0
4, 1, 1, 0
4, 2, 2, 0
4, 3, 3, 0
5, 1, 1, 0
5, 2, 2, 0
5, 3, 3, 0
6, 1, 1, 0
6, 2, 2, 0
6, 3, 3, 0
7, 1, 1, 0
7, 2, 2, 0
7, 3, 3, 0
8, 1, 1, 0
8, 2, 2, 0
8, 3, 3, 0
9, 1, 1, 0
9, 2, 2, 0
9, 3, 3, 0
10, 1, 1, 0.002332885
10, 2, 2, 9.58795e-05
10, 3, 3, -0.00733855
11, 1, 1, 0.00296928
11, 2, 2, 9.901975e-05
11, 3, 3, -0.00739485
12, 1, 1, 0.003605675
12, 2, 2, 0.00010216
12, 3, 3, -0.00745115
13, 1, 1, 0.00234717
13, 2, 2, 4.79397500065e-05
13, 3, 3, -0.0073449
15, 1, 1, 0.0036124225
15, 2, 2, 5.1080000031e-05
15, 3, 3, -0.00745385
16, 1, 1, 0.002361455
16, 2, 2, 1.30545e-14
16, 3, 3, -0.00735125
17, 1, 1, 0.0029903125
17, 2, 2, 3.75295e-14
17, 3, 3, -0.0074039
18, 1, 1, 0.00361917
18, 2, 2, 6.20045e-14
18, 3, 3, -0.00745655
19, 1, 1, 0.00466577
19, 2, 2, 0.000191759
19, 3, 3, -0.0146771
20, 1, 1, 0.00593856
20, 2, 2, 0.0001980395
20, 3, 3, -0.0147897
21, 1, 1, 0.00721135
21, 2, 2, 0.00020432
21, 3, 3, -0.0149023
22, 1, 1, 0.00469434
22, 2, 2, 9.58795000131e-05
22, 3, 3, -0.0146898
24, 1, 1, 0.007224845
24, 2, 2, 0.000102160000062
24, 3, 3, -0.0149077
25, 1, 1, 0.00472291
25, 2, 2, 2.6109e-14
25, 3, 3, -0.0147025
26, 1, 1, 0.005980625
26, 2, 2, 7.5059e-14
26, 3, 3, -0.0148078
27, 1, 1, 0.00723834
27, 2, 2, 1.24009e-13
27, 3, 3, -0.0149131
28, 1, 1, -0.00188033
28, 2, 2, -8.68114e-05
28, 3, 3, -0.0144788
29, 1, 1, 0.00139272
29, 2, 2, 5.24738e-05
29, 3, 3, -0.01457795
30, 1, 1, -0.00188675
30, 2, 2, -4.34057001201e-05
30, 3, 3, -0.01450405
31, 1, 1, 0.001403795
31, 2, 2, 2.62368999465e-05
31, 3, 3, -0.014596925
32, 1, 1, -0.00189317
32, 2, 2, -2.40189e-13
32, 3, 3, -0.0145293
33, 1, 1, 0.00141487
33, 2, 2, -1.0704e-13
33, 3, 3, -0.0146159
34, 1, 1, -0.00296425
34, 2, 2, -7.22435e-05
34, 3, 3, -0.0364986
35, 1, 1, 0.002152545
35, 2, 2, 5.150475e-05
35, 3, 3, -0.036569625
36, 1, 1, 0.00726934
36, 2, 2, 0.000175253
36, 3, 3, -0.03664065
37, 1, 1, -0.002970775
37, 2, 2, -3.61217502682e-05
37, 3, 3, -0.03652035
40, 1, 1, -0.0029773
40, 2, 2, -5.36355e-13
40, 3, 3, -0.0365421
41, 1, 1, 0.002173125
41, 2, 2, -2.40401525e-13
41, 3, 3, -0.036604625
42, 1, 1, 0.00732355
42, 2, 2, 5.555195e-14
42, 3, 3, -0.03666715
43, 1, 1, -0.00404817
43, 2, 2, -5.76756e-05
43, 3, 3, -0.0585184
44, 1, 1, 0.00291237
44, 2, 2, 5.05357e-05
44, 3, 3, -0.0585613
45, 1, 1, 0.00987291
45, 2, 2, 0.000158747
45, 3, 3, -0.0586042
46, 1, 1, -0.0040548
46, 2, 2, -2.88378004163e-05
46, 3, 3, -0.05853665
47, 1, 1, 0.002921875
47, 2, 2, 2.52678498131e-05
47, 3, 3, -0.058577325
48, 1, 1, 0.00989855
48, 2, 2, 7.93735000425e-05
48, 3, 3, -0.058618
49, 1, 1, -0.00406143
49, 2, 2, -8.32521e-13
49, 3, 3, -0.0585549
50, 1, 1, 0.00293138
50, 2, 2, -3.7376305e-13
50, 3, 3, -0.05859335
51, 1, 1, 0.00992419
51, 2, 2, 8.49949e-14
51, 3, 3, -0.0586318
52, 1, 1, 0.00433594
52, 2, 2, 0.00071708
52, 3, 3, -0.0146418
53, 1, 1, 0.005666905
53, 2, 2, 0.0007352985
53, 3, 3, -0.0147469
54, 1, 1, 0.00699787
54, 2, 2, 0.000753517
54, 3, 3, -0.014852
55, 1, 1, 0.004500855
55, 2, 2, 0.0004544195
55, 3, 3, -0.01465945
56, 1, 1, 0.0058027325
56, 2, 2, 0.000466669
56, 3, 3, -0.0147683
57, 1, 1, 0.00710461
57, 2, 2, 0.0004789185
57, 3, 3, -0.01487715
58, 1, 1, 0.00694416
58, 2, 2, 0.000693243
58, 3, 3, -0.0365224
59, 1, 1, 0.0089133725
59, 2, 2, 0.000732093
59, 3, 3, -0.036610825
60, 1, 1, 0.010882585
60, 2, 2, 0.000770943
60, 3, 3, -0.03669925
61, 1, 1, 0.00710675
61, 2, 2, 0.000434248
61, 3, 3, -0.036581525
63, 1, 1, 0.01099463
63, 2, 2, 0.00048879425
63, 3, 3, -0.0367631
65, 1, 1, 0.011106675
65, 2, 2, 0.0002066455
65, 3, 3, -0.03682695
66, 1, 1, 0.00955238
66, 2, 2, 0.000669406
66, 3, 3, -0.058403
67, 1, 1, 0.01215984
67, 2, 2, 0.0007288875
67, 3, 3, -0.05847475
68, 1, 1, 0.0147673
68, 2, 2, 0.000788369
68, 3, 3, -0.0585465
69, 1, 1, 0.009712645
69, 2, 2, 0.0004140765
69, 3, 3, -0.0585036
70, 1, 1, 0.0122986475
70, 2, 2, 0.00045637325
70, 3, 3, -0.058576325
71, 1, 1, 0.01488465
71, 2, 2, 0.00049867
71, 3, 3, -0.05864905
72, 1, 1, 0.012437455
72, 2, 2, 0.000183859
72, 3, 3, -0.0586779
73, 1, 1, 0.015002
73, 2, 2, 0.000208971
73, 3, 3, -0.0587516
77, 1, 1, 0.01113372
77, 2, 2, 2.696785e-13
77, 3, 3, -0.03684485
79, 1, 1, 0.01501555
79, 2, 2, 0.000104485500208
79, 3, 3, -0.0587641
80, 1, 1, 0.012476645
80, 2, 2, 2.5017145e-13
80, 3, 3, -0.0587042
81, 1, 1, 0.0150291
81, 2, 2, 4.15348e-13
81, 3, 3, -0.0587766
82, 1, 1, 0.00852841
82, 2, 2, 0.0002092575
82, 3, 3, -0.01507365
83, 1, 1, 0.00984547
83, 2, 2, 0.000214195
83, 3, 3, -0.015245
84, 1, 1, 0.008540665
84, 2, 2, 0.000104628750086
84, 3, 3, -0.015077925
85, 1, 1, 0.009856485
85, 2, 2, 0.000107097500111
85, 3, 3, -0.01524815
86, 1, 1, 0.00855292
86, 2, 2, 1.72765e-13
86, 3, 3, -0.0150822
87, 1, 1, 0.0098675
87, 2, 2, 2.21521e-13
87, 3, 3, -0.0152513
88, 1, 1, 0.01305908
88, 2, 2, 0.00021904125
88, 3, 3, -0.03696775
89, 1, 1, 0.015011485
89, 2, 2, 0.000231437
89, 3, 3, -0.03710855
91, 1, 1, 0.0150229175
91, 2, 2, 0.000115718500242
91, 3, 3, -0.037115125
92, 1, 1, 0.013084035
92, 2, 2, 3.765935e-13
92, 3, 3, -0.036983275
93, 1, 1, 0.01503435
93, 2, 2, 4.835085e-13
93, 3, 3, -0.0371217
94, 1, 1, 0.01758975
94, 2, 2, 0.000228825
94, 3, 3, -0.05886185
95, 1, 1, 0.0201775
95, 2, 2, 0.000248679
95, 3, 3, -0.0589721
96, 1, 1, 0.01760245
96, 2, 2, 0.00011441250029
96, 3, 3, -0.0588731
97, 1, 1, 0.02018935
97, 2, 2, 0.000124339500373
97, 3, 3, -0.0589821
98, 1, 1, 0.01761515
98, 2, 2, 5.80422e-13
98, 3, 3, -0.05888435
99, 1, 1, 0.0202012
99, 2, 2, 7.45496e-13
99, 3, 3, -0.0589921
100, 1, 1, 0.00469434
100, 2, 2, -9.58794999869e-05
100, 3, 3, -0.0146898
101, 1, 1, 0.0059595925
101, 2, 2, -9.90197499625e-05
101, 3, 3, -0.01479875
102, 1, 1, 0.007224845
102, 2, 2, -0.000102159999938
102, 3, 3, -0.0149077
103, 1, 1, 0.00466577
103, 2, 2, -0.000191759
103, 3, 3, -0.0146771
104, 1, 1, 0.00593856
104, 2, 2, -0.0001980395
104, 3, 3, -0.0147897
105, 1, 1, 0.00721135
105, 2, 2, -0.00020432
105, 3, 3, -0.0149023
106, 1, 1, 0.007296445
106, 2, 2, -8.76264999722e-05
106, 3, 3, -0.0366539
108, 1, 1, 0.0111201975
108, 2, 2, -0.000103322749865
108, 3, 3, -0.0368359
109, 1, 1, 0.00726934
109, 2, 2, -0.000175253
109, 3, 3, -0.03664065
110, 1, 1, 0.0091880075
110, 2, 2, -0.00019094925
110, 3, 3, -0.0367338
111, 1, 1, 0.011106675
111, 2, 2, -0.0002066455
111, 3, 3, -0.03682695
112, 1, 1, 0.00989855
112, 2, 2, -7.93734999575e-05
112, 3, 3, -0.058618
113, 1, 1, 0.01245705
113, 2, 2, -9.19294998749e-05
113, 3, 3, -0.05869105
114, 1, 1, 0.01501555
114, 2, 2, -0.000104485499792
114, 3, 3, -0.0587641
115, 1, 1, 0.00987291
115, 2, 2, -0.000158747
115, 3, 3, -0.0586042
116, 1, 1, 0.012437455
116, 2, 2, -0.000183859
116, 3, 3, -0.0586779
117, 1, 1, 0.015002
117, 2, 2, -0.000208971
117, 3, 3, -0.0587516
118, 1, 1, 0.012201055
118, 2, 2, 0.000146981
118, 3, 3, -0.0942886
119, 1, 1, 0.0153630275
119, 2, 2, 0.000172619
119, 3, 3, -0.0943627
120, 1, 1, 0.018525
120, 2, 2, 0.000198257
120, 3, 3, -0.0944368
121, 1, 1, 0.0122259
121, 2, 2, 7.34905000701e-05
121, 3, 3, -0.09430375
123, 1, 1, 0.01853835
123, 2, 2, 9.91285003141e-05
123, 3, 3, -0.09445105
124, 1, 1, 0.012250745
124, 2, 2, 1.4010995e-13
124, 3, 3, -0.0943189
125, 1, 1, 0.0154012225
125, 2, 2, 3.84134475e-13
125, 3, 3, -0.0943921
126, 1, 1, 0.0185517
126, 2, 2, 6.28159e-13
126, 3, 3, -0.0944653
127, 1, 1, 0.0145292
127, 2, 2, 0.000135215
127, 3, 3, -0.129973
128, 1, 1, 0.0182886
128, 2, 2, 0.000161379
128, 3, 3, -0.1300475
129, 1, 1, 0.022048
129, 2, 2, 0.000187543
129, 3, 3, -0.130122
130, 1, 1, 0.01455325
130, 2, 2, 6.76075000976e-05
130, 3, 3, -0.1299895
131, 1, 1, 0.0183072
131, 2, 2, 8.0689500259e-05
131, 3, 3, -0.13006375
132, 1, 1, 0.02206115
132, 2, 2, 9.37715004205e-05
132, 3, 3, -0.130138
133, 1, 1, 0.0145773
133, 2, 2, 1.95225e-13
133, 3, 3, -0.130006
134, 1, 1, 0.0183258
134, 2, 2, 5.180975e-13
134, 3, 3, -0.13008
135, 1, 1, 0.0220743
135, 2, 2, 8.4097e-13
135, 3, 3, -0.130154
*STEP
*STATIC
*NODE FILE
U
*EL FILE
S, ENER
*EL PRINT, ELSET=EALL
ELSE
*ENERGY PRINT
*END STEP
