*HEADING
G01 S-LIN hanging 8-split zz cycle 6
units: mm, N, s, MPa. Material is illustrative steel, not a coupon card.
E=210000.0 nu=0.3. load -5000.0 N on TIP_TOP.
*NODE, NSET=NALL
1, 0, -10, 0
2, 111.111111111, -10, 0
3, 111.111111111, 0, 0
4, 0, 0, 0
5, 0, -10, 28
6, 111.111111111, -10, 28
7, 111.111111111, 0, 28
8, 0, 0, 28
9, 0, -10, 56
10, 111.111111111, -10, 56
11, 111.111111111, 0, 56
12, 0, 0, 56
13, 0, -10, 84
14, 111.111111111, -10, 84
15, 111.111111111, 0, 84
16, 0, 0, 84
17, 0, -10, 112
18, 111.111111111, -10, 112
19, 111.111111111, 0, 112
20, 0, 0, 112
21, 0, -10, 140
22, 111.111111111, -10, 140
23, 111.111111111, 0, 140
24, 0, 0, 140
25, 111.111111111, 10, 0
26, 0, 10, 0
27, 111.111111111, 10, 28
28, 0, 10, 28
29, 111.111111111, 10, 56
30, 0, 10, 56
31, 111.111111111, 10, 84
32, 0, 10, 84
33, 111.111111111, 10, 112
34, 0, 10, 112
35, 111.111111111, 10, 140
36, 0, 10, 140
37, 0, -120, 140
38, 111.111111111, -120, 140
39, 111.111111111, -92.5, 140
40, 0, -92.5, 140
41, 0, -120, 150
42, 111.111111111, -120, 150
43, 111.111111111, -92.5, 150
44, 0, -92.5, 150
45, 0, -120, 160
46, 111.111111111, -120, 160
47, 111.111111111, -92.5, 160
48, 0, -92.5, 160
49, 111.111111111, -65, 140
50, 0, -65, 140
51, 111.111111111, -65, 150
52, 0, -65, 150
53, 111.111111111, -65, 160
54, 0, -65, 160
55, 111.111111111, -37.5, 140
56, 0, -37.5, 140
57, 111.111111111, -37.5, 150
58, 0, -37.5, 150
59, 111.111111111, -37.5, 160
60, 0, -37.5, 160
61, 111.111111111, -10, 150
62, 0, -10, 150
63, 111.111111111, -10, 160
64, 0, -10, 160
65, 111.111111111, 0, 150
66, 0, 0, 150
67, 111.111111111, 0, 160
68, 0, 0, 160
69, 111.111111111, 10, 150
70, 0, 10, 150
71, 111.111111111, 10, 160
72, 0, 10, 160
73, 111.111111111, 37.5, 140
74, 0, 37.5, 140
75, 111.111111111, 37.5, 150
76, 0, 37.5, 150
77, 111.111111111, 37.5, 160
78, 0, 37.5, 160
79, 111.111111111, 65, 140
80, 0, 65, 140
81, 111.111111111, 65, 150
82, 0, 65, 150
83, 111.111111111, 65, 160
84, 0, 65, 160
85, 111.111111111, 92.5, 140
86, 0, 92.5, 140
87, 111.111111111, 92.5, 150
88, 0, 92.5, 150
89, 111.111111111, 92.5, 160
90, 0, 92.5, 160
91, 111.111111111, 120, 140
92, 0, 120, 140
93, 111.111111111, 120, 150
94, 0, 120, 150
95, 111.111111111, 120, 160
96, 0, 120, 160
97, 222.222222222, -10, 0
98, 222.222222222, 0, 0
99, 222.222222222, -10, 28
100, 222.222222222, 0, 28
101, 222.222222222, -10, 56
102, 222.222222222, 0, 56
103, 222.222222222, -10, 84
104, 222.222222222, 0, 84
105, 222.222222222, -10, 112
106, 222.222222222, 0, 112
107, 222.222222222, -10, 140
108, 222.222222222, 0, 140
109, 222.222222222, 10, 0
110, 222.222222222, 10, 28
111, 222.222222222, 10, 56
112, 222.222222222, 10, 84
113, 222.222222222, 10, 112
114, 222.222222222, 10, 140
115, 222.222222222, -120, 140
116, 222.222222222, -92.5, 140
117, 222.222222222, -120, 150
118, 222.222222222, -92.5, 150
119, 222.222222222, -120, 160
120, 222.222222222, -92.5, 160
121, 222.222222222, -65, 140
122, 222.222222222, -65, 150
123, 222.222222222, -65, 160
124, 222.222222222, -37.5, 140
125, 222.222222222, -37.5, 150
126, 222.222222222, -37.5, 160
127, 222.222222222, -10, 150
128, 222.222222222, -10, 160
129, 222.222222222, 0, 150
130, 222.222222222, 0, 160
131, 222.222222222, 10, 150
132, 222.222222222, 10, 160
133, 222.222222222, 37.5, 140
134, 222.222222222, 37.5, 150
135, 222.222222222, 37.5, 160
136, 222.222222222, 65, 140
137, 222.222222222, 65, 150
138, 222.222222222, 65, 160
139, 222.222222222, 92.5, 140
140, 222.222222222, 92.5, 150
141, 222.222222222, 92.5, 160
142, 222.222222222, 120, 140
143, 222.222222222, 120, 150
144, 222.222222222, 120, 160
145, 333.333333333, -10, 0
146, 333.333333333, 0, 0
147, 333.333333333, -10, 28
148, 333.333333333, 0, 28
149, 333.333333333, -10, 56
150, 333.333333333, 0, 56
151, 333.333333333, -10, 84
152, 333.333333333, 0, 84
153, 333.333333333, -10, 112
154, 333.333333333, 0, 112
155, 333.333333333, -10, 140
156, 333.333333333, 0, 140
157, 333.333333333, 10, 0
158, 333.333333333, 10, 28
159, 333.333333333, 10, 56
160, 333.333333333, 10, 84
161, 333.333333333, 10, 112
162, 333.333333333, 10, 140
163, 333.333333333, -120, 140
164, 333.333333333, -92.5, 140
165, 333.333333333, -120, 150
166, 333.333333333, -92.5, 150
167, 333.333333333, -120, 160
168, 333.333333333, -92.5, 160
169, 333.333333333, -65, 140
170, 333.333333333, -65, 150
171, 333.333333333, -65, 160
172, 333.333333333, -37.5, 140
173, 333.333333333, -37.5, 150
174, 333.333333333, -37.5, 160
175, 333.333333333, -10, 150
176, 333.333333333, -10, 160
177, 333.333333333, 0, 150
178, 333.333333333, 0, 160
179, 333.333333333, 10, 150
180, 333.333333333, 10, 160
181, 333.333333333, 37.5, 140
182, 333.333333333, 37.5, 150
183, 333.333333333, 37.5, 160
184, 333.333333333, 65, 140
185, 333.333333333, 65, 150
186, 333.333333333, 65, 160
187, 333.333333333, 92.5, 140
188, 333.333333333, 92.5, 150
189, 333.333333333, 92.5, 160
190, 333.333333333, 120, 140
191, 333.333333333, 120, 150
192, 333.333333333, 120, 160
193, 444.444444444, -10, 0
194, 444.444444444, 0, 0
195, 444.444444444, -10, 28
196, 444.444444444, 0, 28
197, 444.444444444, -10, 56
198, 444.444444444, 0, 56
199, 444.444444444, -10, 84
200, 444.444444444, 0, 84
201, 444.444444444, -10, 112
202, 444.444444444, 0, 112
203, 444.444444444, -10, 140
204, 444.444444444, 0, 140
205, 444.444444444, 10, 0
206, 444.444444444, 10, 28
207, 444.444444444, 10, 56
208, 444.444444444, 10, 84
209, 444.444444444, 10, 112
210, 444.444444444, 10, 140
211, 444.444444444, -120, 140
212, 444.444444444, -92.5, 140
213, 444.444444444, -120, 150
214, 444.444444444, -92.5, 150
215, 444.444444444, -120, 160
216, 444.444444444, -92.5, 160
217, 444.444444444, -65, 140
218, 444.444444444, -65, 150
219, 444.444444444, -65, 160
220, 444.444444444, -37.5, 140
221, 444.444444444, -37.5, 150
222, 444.444444444, -37.5, 160
223, 444.444444444, -10, 150
224, 444.444444444, -10, 160
225, 444.444444444, 0, 150
226, 444.444444444, 0, 160
227, 444.444444444, 10, 150
228, 444.444444444, 10, 160
229, 444.444444444, 37.5, 140
230, 444.444444444, 37.5, 150
231, 444.444444444, 37.5, 160
232, 444.444444444, 65, 140
233, 444.444444444, 65, 150
234, 444.444444444, 65, 160
235, 444.444444444, 92.5, 140
236, 444.444444444, 92.5, 150
237, 444.444444444, 92.5, 160
238, 444.444444444, 120, 140
239, 444.444444444, 120, 150
240, 444.444444444, 120, 160
241, 555.555555556, -10, 0
242, 555.555555556, 0, 0
243, 555.555555556, -10, 28
244, 555.555555556, 0, 28
245, 555.555555556, -10, 56
246, 555.555555556, 0, 56
247, 555.555555556, -10, 84
248, 555.555555556, 0, 84
249, 555.555555556, -10, 112
250, 555.555555556, 0, 112
251, 555.555555556, -10, 140
252, 555.555555556, 0, 140
253, 555.555555556, 10, 0
254, 555.555555556, 10, 28
255, 555.555555556, 10, 56
256, 555.555555556, 10, 84
257, 555.555555556, 10, 112
258, 555.555555556, 10, 140
259, 555.555555556, -120, 140
260, 555.555555556, -92.5, 140
261, 555.555555556, -120, 150
262, 555.555555556, -92.5, 150
263, 555.555555556, -120, 160
264, 555.555555556, -92.5, 160
265, 555.555555556, -65, 140
266, 555.555555556, -65, 150
267, 555.555555556, -65, 160
268, 555.555555556, -37.5, 140
269, 555.555555556, -37.5, 150
270, 555.555555556, -37.5, 160
271, 555.555555556, -10, 150
272, 555.555555556, -10, 160
273, 555.555555556, 0, 150
274, 555.555555556, 0, 160
275, 555.555555556, 10, 150
276, 555.555555556, 10, 160
277, 555.555555556, 37.5, 140
278, 555.555555556, 37.5, 150
279, 555.555555556, 37.5, 160
280, 555.555555556, 65, 140
281, 555.555555556, 65, 150
282, 555.555555556, 65, 160
283, 555.555555556, 92.5, 140
284, 555.555555556, 92.5, 150
285, 555.555555556, 92.5, 160
286, 555.555555556, 120, 140
287, 555.555555556, 120, 150
288, 555.555555556, 120, 160
289, 666.666666667, -10, 0
290, 666.666666667, 0, 0
291, 666.666666667, -10, 28
292, 666.666666667, 0, 28
293, 666.666666667, -10, 56
294, 666.666666667, 0, 56
295, 666.666666667, -10, 84
296, 666.666666667, 0, 84
297, 666.666666667, -10, 112
298, 666.666666667, 0, 112
299, 666.666666667, -10, 140
300, 666.666666667, 0, 140
301, 666.666666667, 10, 0
302, 666.666666667, 10, 28
303, 666.666666667, 10, 56
304, 666.666666667, 10, 84
305, 666.666666667, 10, 112
306, 666.666666667, 10, 140
307, 666.666666667, -120, 140
308, 666.666666667, -92.5, 140
309, 666.666666667, -120, 150
310, 666.666666667, -92.5, 150
311, 666.666666667, -120, 160
312, 666.666666667, -92.5, 160
313, 666.666666667, -65, 140
314, 666.666666667, -65, 150
315, 666.666666667, -65, 160
316, 666.666666667, -37.5, 140
317, 666.666666667, -37.5, 150
318, 666.666666667, -37.5, 160
319, 666.666666667, -10, 150
320, 666.666666667, -10, 160
321, 666.666666667, 0, 150
322, 666.666666667, 0, 160
323, 666.666666667, 10, 150
324, 666.666666667, 10, 160
325, 666.666666667, 37.5, 140
326, 666.666666667, 37.5, 150
327, 666.666666667, 37.5, 160
328, 666.666666667, 65, 140
329, 666.666666667, 65, 150
330, 666.666666667, 65, 160
331, 666.666666667, 92.5, 140
332, 666.666666667, 92.5, 150
333, 666.666666667, 92.5, 160
334, 666.666666667, 120, 140
335, 666.666666667, 120, 150
336, 666.666666667, 120, 160
337, 777.777777778, -10, 0
338, 777.777777778, 0, 0
339, 777.777777778, -10, 28
340, 777.777777778, 0, 28
341, 777.777777778, -10, 56
342, 777.777777778, 0, 56
343, 777.777777778, -10, 84
344, 777.777777778, 0, 84
345, 777.777777778, -10, 112
346, 777.777777778, 0, 112
347, 777.777777778, -10, 140
348, 777.777777778, 0, 140
349, 777.777777778, 10, 0
350, 777.777777778, 10, 28
351, 777.777777778, 10, 56
352, 777.777777778, 10, 84
353, 777.777777778, 10, 112
354, 777.777777778, 10, 140
355, 777.777777778, -120, 140
356, 777.777777778, -92.5, 140
357, 777.777777778, -120, 150
358, 777.777777778, -92.5, 150
359, 777.777777778, -120, 160
360, 777.777777778, -92.5, 160
361, 777.777777778, -65, 140
362, 777.777777778, -65, 150
363, 777.777777778, -65, 160
364, 777.777777778, -37.5, 140
365, 777.777777778, -37.5, 150
366, 777.777777778, -37.5, 160
367, 777.777777778, -10, 150
368, 777.777777778, -10, 160
369, 777.777777778, 0, 150
370, 777.777777778, 0, 160
371, 777.777777778, 10, 150
372, 777.777777778, 10, 160
373, 777.777777778, 37.5, 140
374, 777.777777778, 37.5, 150
375, 777.777777778, 37.5, 160
376, 777.777777778, 65, 140
377, 777.777777778, 65, 150
378, 777.777777778, 65, 160
379, 777.777777778, 92.5, 140
380, 777.777777778, 92.5, 150
381, 777.777777778, 92.5, 160
382, 777.777777778, 120, 140
383, 777.777777778, 120, 150
384, 777.777777778, 120, 160
385, 888.888888889, -10, 0
386, 888.888888889, 0, 0
387, 888.888888889, -10, 28
388, 888.888888889, 0, 28
389, 888.888888889, -10, 56
390, 888.888888889, 0, 56
391, 888.888888889, -10, 84
392, 888.888888889, 0, 84
393, 888.888888889, -10, 112
394, 888.888888889, 0, 112
395, 888.888888889, -10, 140
396, 888.888888889, 0, 140
397, 888.888888889, 10, 0
398, 888.888888889, 10, 28
399, 888.888888889, 10, 56
400, 888.888888889, 10, 84
401, 888.888888889, 10, 112
402, 888.888888889, 10, 140
403, 888.888888889, -120, 140
404, 888.888888889, -92.5, 140
405, 888.888888889, -120, 150
406, 888.888888889, -92.5, 150
407, 888.888888889, -120, 160
408, 888.888888889, -92.5, 160
409, 888.888888889, -65, 140
410, 888.888888889, -65, 150
411, 888.888888889, -65, 160
412, 888.888888889, -37.5, 140
413, 888.888888889, -37.5, 150
414, 888.888888889, -37.5, 160
415, 888.888888889, -10, 150
416, 888.888888889, -10, 160
417, 888.888888889, 0, 150
418, 888.888888889, 0, 160
419, 888.888888889, 10, 150
420, 888.888888889, 10, 160
421, 888.888888889, 37.5, 140
422, 888.888888889, 37.5, 150
423, 888.888888889, 37.5, 160
424, 888.888888889, 65, 140
425, 888.888888889, 65, 150
426, 888.888888889, 65, 160
427, 888.888888889, 92.5, 140
428, 888.888888889, 92.5, 150
429, 888.888888889, 92.5, 160
430, 888.888888889, 120, 140
431, 888.888888889, 120, 150
432, 888.888888889, 120, 160
433, 1000, -10, 0
434, 1000, 0, 0
435, 1000, -10, 28
436, 1000, 0, 28
437, 1000, -10, 56
438, 1000, 0, 56
439, 1000, -10, 84
440, 1000, 0, 84
441, 1000, -10, 112
442, 1000, 0, 112
443, 1000, -10, 140
444, 1000, 0, 140
445, 1000, 10, 0
446, 1000, 10, 28
447, 1000, 10, 56
448, 1000, 10, 84
449, 1000, 10, 112
450, 1000, 10, 140
451, 1000, -120, 140
452, 1000, -92.5, 140
453, 1000, -120, 150
454, 1000, -92.5, 150
455, 1000, -120, 160
456, 1000, -92.5, 160
457, 1000, -65, 140
458, 1000, -65, 150
459, 1000, -65, 160
460, 1000, -37.5, 140
461, 1000, -37.5, 150
462, 1000, -37.5, 160
463, 1000, -10, 150
464, 1000, -10, 160
465, 1000, 0, 150
466, 1000, 0, 160
467, 1000, 10, 150
468, 1000, 10, 160
469, 1000, 37.5, 140
470, 1000, 37.5, 150
471, 1000, 37.5, 160
472, 1000, 65, 140
473, 1000, 65, 150
474, 1000, 65, 160
475, 1000, 92.5, 140
476, 1000, 92.5, 150
477, 1000, 92.5, 160
478, 1000, 120, 140
479, 1000, 120, 150
480, 1000, 120, 160
481, 1111.11111111, -10, 0
482, 1111.11111111, 0, 0
483, 1111.11111111, -10, 28
484, 1111.11111111, 0, 28
485, 1111.11111111, -10, 56
486, 1111.11111111, 0, 56
487, 1111.11111111, -10, 84
488, 1111.11111111, 0, 84
489, 1111.11111111, -10, 112
490, 1111.11111111, 0, 112
491, 1111.11111111, -10, 140
492, 1111.11111111, 0, 140
493, 1111.11111111, 10, 0
494, 1111.11111111, 10, 28
495, 1111.11111111, 10, 56
496, 1111.11111111, 10, 84
497, 1111.11111111, 10, 112
498, 1111.11111111, 10, 140
499, 1111.11111111, -120, 140
500, 1111.11111111, -92.5, 140
501, 1111.11111111, -120, 150
502, 1111.11111111, -92.5, 150
503, 1111.11111111, -120, 160
504, 1111.11111111, -92.5, 160
505, 1111.11111111, -65, 140
506, 1111.11111111, -65, 150
507, 1111.11111111, -65, 160
508, 1111.11111111, -37.5, 140
509, 1111.11111111, -37.5, 150
510, 1111.11111111, -37.5, 160
511, 1111.11111111, -10, 150
512, 1111.11111111, -10, 160
513, 1111.11111111, 0, 150
514, 1111.11111111, 0, 160
515, 1111.11111111, 10, 150
516, 1111.11111111, 10, 160
517, 1111.11111111, 37.5, 140
518, 1111.11111111, 37.5, 150
519, 1111.11111111, 37.5, 160
520, 1111.11111111, 65, 140
521, 1111.11111111, 65, 150
522, 1111.11111111, 65, 160
523, 1111.11111111, 92.5, 140
524, 1111.11111111, 92.5, 150
525, 1111.11111111, 92.5, 160
526, 1111.11111111, 120, 140
527, 1111.11111111, 120, 150
528, 1111.11111111, 120, 160
529, 1222.22222222, -10, 0
530, 1222.22222222, 0, 0
531, 1222.22222222, -10, 28
532, 1222.22222222, 0, 28
533, 1222.22222222, -10, 56
534, 1222.22222222, 0, 56
535, 1222.22222222, -10, 84
536, 1222.22222222, 0, 84
537, 1222.22222222, -10, 112
538, 1222.22222222, 0, 112
539, 1222.22222222, -10, 140
540, 1222.22222222, 0, 140
541, 1222.22222222, 10, 0
542, 1222.22222222, 10, 28
543, 1222.22222222, 10, 56
544, 1222.22222222, 10, 84
545, 1222.22222222, 10, 112
546, 1222.22222222, 10, 140
547, 1222.22222222, -120, 140
548, 1222.22222222, -92.5, 140
549, 1222.22222222, -120, 150
550, 1222.22222222, -92.5, 150
551, 1222.22222222, -120, 160
552, 1222.22222222, -92.5, 160
553, 1222.22222222, -65, 140
554, 1222.22222222, -65, 150
555, 1222.22222222, -65, 160
556, 1222.22222222, -37.5, 140
557, 1222.22222222, -37.5, 150
558, 1222.22222222, -37.5, 160
559, 1222.22222222, -10, 150
560, 1222.22222222, -10, 160
561, 1222.22222222, 0, 150
562, 1222.22222222, 0, 160
563, 1222.22222222, 10, 150
564, 1222.22222222, 10, 160
565, 1222.22222222, 37.5, 140
566, 1222.22222222, 37.5, 150
567, 1222.22222222, 37.5, 160
568, 1222.22222222, 65, 140
569, 1222.22222222, 65, 150
570, 1222.22222222, 65, 160
571, 1222.22222222, 92.5, 140
572, 1222.22222222, 92.5, 150
573, 1222.22222222, 92.5, 160
574, 1222.22222222, 120, 140
575, 1222.22222222, 120, 150
576, 1222.22222222, 120, 160
577, 1333.33333333, -10, 0
578, 1333.33333333, 0, 0
579, 1333.33333333, -10, 28
580, 1333.33333333, 0, 28
581, 1333.33333333, -10, 56
582, 1333.33333333, 0, 56
583, 1333.33333333, -10, 84
584, 1333.33333333, 0, 84
585, 1333.33333333, -10, 112
586, 1333.33333333, 0, 112
587, 1333.33333333, -10, 140
588, 1333.33333333, 0, 140
589, 1333.33333333, 10, 0
590, 1333.33333333, 10, 28
591, 1333.33333333, 10, 56
592, 1333.33333333, 10, 84
593, 1333.33333333, 10, 112
594, 1333.33333333, 10, 140
595, 1333.33333333, -120, 140
596, 1333.33333333, -92.5, 140
597, 1333.33333333, -120, 150
598, 1333.33333333, -92.5, 150
599, 1333.33333333, -120, 160
600, 1333.33333333, -92.5, 160
601, 1333.33333333, -65, 140
602, 1333.33333333, -65, 150
603, 1333.33333333, -65, 160
604, 1333.33333333, -37.5, 140
605, 1333.33333333, -37.5, 150
606, 1333.33333333, -37.5, 160
607, 1333.33333333, -10, 150
608, 1333.33333333, -10, 160
609, 1333.33333333, 0, 150
610, 1333.33333333, 0, 160
611, 1333.33333333, 10, 150
612, 1333.33333333, 10, 160
613, 1333.33333333, 37.5, 140
614, 1333.33333333, 37.5, 150
615, 1333.33333333, 37.5, 160
616, 1333.33333333, 65, 140
617, 1333.33333333, 65, 150
618, 1333.33333333, 65, 160
619, 1333.33333333, 92.5, 140
620, 1333.33333333, 92.5, 150
621, 1333.33333333, 92.5, 160
622, 1333.33333333, 120, 140
623, 1333.33333333, 120, 150
624, 1333.33333333, 120, 160
625, 1444.44444444, -10, 0
626, 1444.44444444, 0, 0
627, 1444.44444444, -10, 28
628, 1444.44444444, 0, 28
629, 1444.44444444, -10, 56
630, 1444.44444444, 0, 56
631, 1444.44444444, -10, 84
632, 1444.44444444, 0, 84
633, 1444.44444444, -10, 112
634, 1444.44444444, 0, 112
635, 1444.44444444, -10, 140
636, 1444.44444444, 0, 140
637, 1444.44444444, 10, 0
638, 1444.44444444, 10, 28
639, 1444.44444444, 10, 56
640, 1444.44444444, 10, 84
641, 1444.44444444, 10, 112
642, 1444.44444444, 10, 140
643, 1444.44444444, -120, 140
644, 1444.44444444, -92.5, 140
645, 1444.44444444, -120, 150
646, 1444.44444444, -92.5, 150
647, 1444.44444444, -120, 160
648, 1444.44444444, -92.5, 160
649, 1444.44444444, -65, 140
650, 1444.44444444, -65, 150
651, 1444.44444444, -65, 160
652, 1444.44444444, -37.5, 140
653, 1444.44444444, -37.5, 150
654, 1444.44444444, -37.5, 160
655, 1444.44444444, -10, 150
656, 1444.44444444, -10, 160
657, 1444.44444444, 0, 150
658, 1444.44444444, 0, 160
659, 1444.44444444, 10, 150
660, 1444.44444444, 10, 160
661, 1444.44444444, 37.5, 140
662, 1444.44444444, 37.5, 150
663, 1444.44444444, 37.5, 160
664, 1444.44444444, 65, 140
665, 1444.44444444, 65, 150
666, 1444.44444444, 65, 160
667, 1444.44444444, 92.5, 140
668, 1444.44444444, 92.5, 150
669, 1444.44444444, 92.5, 160
670, 1444.44444444, 120, 140
671, 1444.44444444, 120, 150
672, 1444.44444444, 120, 160
673, 1555.55555556, -10, 0
674, 1555.55555556, 0, 0
675, 1555.55555556, -10, 28
676, 1555.55555556, 0, 28
677, 1555.55555556, -10, 56
678, 1555.55555556, 0, 56
679, 1555.55555556, -10, 84
680, 1555.55555556, 0, 84
681, 1555.55555556, -10, 112
682, 1555.55555556, 0, 112
683, 1555.55555556, -10, 140
684, 1555.55555556, 0, 140
685, 1555.55555556, 10, 0
686, 1555.55555556, 10, 28
687, 1555.55555556, 10, 56
688, 1555.55555556, 10, 84
689, 1555.55555556, 10, 112
690, 1555.55555556, 10, 140
691, 1555.55555556, -120, 140
692, 1555.55555556, -92.5, 140
693, 1555.55555556, -120, 150
694, 1555.55555556, -92.5, 150
695, 1555.55555556, -120, 160
696, 1555.55555556, -92.5, 160
697, 1555.55555556, -65, 140
698, 1555.55555556, -65, 150
699, 1555.55555556, -65, 160
700, 1555.55555556, -37.5, 140
701, 1555.55555556, -37.5, 150
702, 1555.55555556, -37.5, 160
703, 1555.55555556, -10, 150
704, 1555.55555556, -10, 160
705, 1555.55555556, 0, 150
706, 1555.55555556, 0, 160
707, 1555.55555556, 10, 150
708, 1555.55555556, 10, 160
709, 1555.55555556, 37.5, 140
710, 1555.55555556, 37.5, 150
711, 1555.55555556, 37.5, 160
712, 1555.55555556, 65, 140
713, 1555.55555556, 65, 150
714, 1555.55555556, 65, 160
715, 1555.55555556, 92.5, 140
716, 1555.55555556, 92.5, 150
717, 1555.55555556, 92.5, 160
718, 1555.55555556, 120, 140
719, 1555.55555556, 120, 150
720, 1555.55555556, 120, 160
721, 1666.66666667, -10, 0
722, 1666.66666667, 0, 0
723, 1666.66666667, -10, 28
724, 1666.66666667, 0, 28
725, 1666.66666667, -10, 56
726, 1666.66666667, 0, 56
727, 1666.66666667, -10, 84
728, 1666.66666667, 0, 84
729, 1666.66666667, -10, 112
730, 1666.66666667, 0, 112
731, 1666.66666667, -10, 140
732, 1666.66666667, 0, 140
733, 1666.66666667, 10, 0
734, 1666.66666667, 10, 28
735, 1666.66666667, 10, 56
736, 1666.66666667, 10, 84
737, 1666.66666667, 10, 112
738, 1666.66666667, 10, 140
739, 1666.66666667, -120, 140
740, 1666.66666667, -92.5, 140
741, 1666.66666667, -120, 150
742, 1666.66666667, -92.5, 150
743, 1666.66666667, -120, 160
744, 1666.66666667, -92.5, 160
745, 1666.66666667, -65, 140
746, 1666.66666667, -65, 150
747, 1666.66666667, -65, 160
748, 1666.66666667, -37.5, 140
749, 1666.66666667, -37.5, 150
750, 1666.66666667, -37.5, 160
751, 1666.66666667, -10, 150
752, 1666.66666667, -10, 160
753, 1666.66666667, 0, 150
754, 1666.66666667, 0, 160
755, 1666.66666667, 10, 150
756, 1666.66666667, 10, 160
757, 1666.66666667, 37.5, 140
758, 1666.66666667, 37.5, 150
759, 1666.66666667, 37.5, 160
760, 1666.66666667, 65, 140
761, 1666.66666667, 65, 150
762, 1666.66666667, 65, 160
763, 1666.66666667, 92.5, 140
764, 1666.66666667, 92.5, 150
765, 1666.66666667, 92.5, 160
766, 1666.66666667, 120, 140
767, 1666.66666667, 120, 150
768, 1666.66666667, 120, 160
769, 1777.77777778, -10, 0
770, 1777.77777778, 0, 0
771, 1777.77777778, -10, 28
772, 1777.77777778, 0, 28
773, 1777.77777778, -10, 56
774, 1777.77777778, 0, 56
775, 1777.77777778, -10, 84
776, 1777.77777778, 0, 84
777, 1777.77777778, -10, 112
778, 1777.77777778, 0, 112
779, 1777.77777778, -10, 140
780, 1777.77777778, 0, 140
781, 1777.77777778, 10, 0
782, 1777.77777778, 10, 28
783, 1777.77777778, 10, 56
784, 1777.77777778, 10, 84
785, 1777.77777778, 10, 112
786, 1777.77777778, 10, 140
787, 1777.77777778, -120, 140
788, 1777.77777778, -92.5, 140
789, 1777.77777778, -120, 150
790, 1777.77777778, -92.5, 150
791, 1777.77777778, -120, 160
792, 1777.77777778, -92.5, 160
793, 1777.77777778, -65, 140
794, 1777.77777778, -65, 150
795, 1777.77777778, -65, 160
796, 1777.77777778, -37.5, 140
797, 1777.77777778, -37.5, 150
798, 1777.77777778, -37.5, 160
799, 1777.77777778, -10, 150
800, 1777.77777778, -10, 160
801, 1777.77777778, 0, 150
802, 1777.77777778, 0, 160
803, 1777.77777778, 10, 150
804, 1777.77777778, 10, 160
805, 1777.77777778, 37.5, 140
806, 1777.77777778, 37.5, 150
807, 1777.77777778, 37.5, 160
808, 1777.77777778, 65, 140
809, 1777.77777778, 65, 150
810, 1777.77777778, 65, 160
811, 1777.77777778, 92.5, 140
812, 1777.77777778, 92.5, 150
813, 1777.77777778, 92.5, 160
814, 1777.77777778, 120, 140
815, 1777.77777778, 120, 150
816, 1777.77777778, 120, 160
817, 1888.88888889, -10, 0
818, 1888.88888889, 0, 0
819, 1888.88888889, -10, 28
820, 1888.88888889, 0, 28
821, 1888.88888889, -10, 56
822, 1888.88888889, 0, 56
823, 1888.88888889, -10, 84
824, 1888.88888889, 0, 84
825, 1888.88888889, -10, 112
826, 1888.88888889, 0, 112
827, 1888.88888889, -10, 140
828, 1888.88888889, 0, 140
829, 1888.88888889, 10, 0
830, 1888.88888889, 10, 28
831, 1888.88888889, 10, 56
832, 1888.88888889, 10, 84
833, 1888.88888889, 10, 112
834, 1888.88888889, 10, 140
835, 1888.88888889, -120, 140
836, 1888.88888889, -92.5, 140
837, 1888.88888889, -120, 150
838, 1888.88888889, -92.5, 150
839, 1888.88888889, -120, 160
840, 1888.88888889, -92.5, 160
841, 1888.88888889, -65, 140
842, 1888.88888889, -65, 150
843, 1888.88888889, -65, 160
844, 1888.88888889, -37.5, 140
845, 1888.88888889, -37.5, 150
846, 1888.88888889, -37.5, 160
847, 1888.88888889, -10, 150
848, 1888.88888889, -10, 160
849, 1888.88888889, 0, 150
850, 1888.88888889, 0, 160
851, 1888.88888889, 10, 150
852, 1888.88888889, 10, 160
853, 1888.88888889, 37.5, 140
854, 1888.88888889, 37.5, 150
855, 1888.88888889, 37.5, 160
856, 1888.88888889, 65, 140
857, 1888.88888889, 65, 150
858, 1888.88888889, 65, 160
859, 1888.88888889, 92.5, 140
860, 1888.88888889, 92.5, 150
861, 1888.88888889, 92.5, 160
862, 1888.88888889, 120, 140
863, 1888.88888889, 120, 150
864, 1888.88888889, 120, 160
865, 2000, -10, 0
866, 2000, 0, 0
867, 2000, -10, 28
868, 2000, 0, 28
869, 2000, -10, 56
870, 2000, 0, 56
871, 2000, -10, 84
872, 2000, 0, 84
873, 2000, -10, 112
874, 2000, 0, 112
875, 2000, -10, 140
876, 2000, 0, 140
877, 2000, 10, 0
878, 2000, 10, 28
879, 2000, 10, 56
880, 2000, 10, 84
881, 2000, 10, 112
882, 2000, 10, 140
883, 2000, -120, 140
884, 2000, -92.5, 140
885, 2000, -120, 150
886, 2000, -92.5, 150
887, 2000, -120, 160
888, 2000, -92.5, 160
889, 2000, -65, 140
890, 2000, -65, 150
891, 2000, -65, 160
892, 2000, -37.5, 140
893, 2000, -37.5, 150
894, 2000, -37.5, 160
895, 2000, -10, 150
896, 2000, -10, 160
897, 2000, 0, 150
898, 2000, 0, 160
899, 2000, 10, 150
900, 2000, 10, 160
901, 2000, 37.5, 140
902, 2000, 37.5, 150
903, 2000, 37.5, 160
904, 2000, 65, 140
905, 2000, 65, 150
906, 2000, 65, 160
907, 2000, 92.5, 140
908, 2000, 92.5, 150
909, 2000, 92.5, 160
910, 2000, 120, 140
911, 2000, 120, 150
912, 2000, 120, 160
913, 0, -10, 14
914, 0, -5, 0
915, 0, -5, 14
916, 0, -5, 28
917, 0, 0, 14
918, 55.5555555556, -10, 0
919, 55.5555555556, -10, 14
920, 55.5555555556, -10, 28
921, 55.5555555556, -5, 0
922, 55.5555555556, -5, 14
923, 55.5555555556, -5, 28
924, 55.5555555556, 0, 0
925, 55.5555555556, 0, 14
926, 55.5555555556, 0, 28
927, 111.111111111, -10, 14
928, 111.111111111, -5, 0
929, 111.111111111, -5, 14
930, 111.111111111, -5, 28
931, 111.111111111, 0, 14
932, 0, -10, 42
933, 0, -5, 42
934, 0, -5, 56
935, 0, 0, 42
936, 55.5555555556, -10, 42
937, 55.5555555556, -10, 56
938, 55.5555555556, -5, 42
939, 55.5555555556, -5, 56
940, 55.5555555556, 0, 42
941, 55.5555555556, 0, 56
942, 111.111111111, -10, 42
943, 111.111111111, -5, 42
944, 111.111111111, -5, 56
945, 111.111111111, 0, 42
946, 0, 5, 0
947, 0, 5, 14
948, 0, 5, 28
949, 0, 10, 14
950, 55.5555555556, 5, 0
951, 55.5555555556, 5, 14
952, 55.5555555556, 5, 28
953, 55.5555555556, 10, 0
954, 55.5555555556, 10, 14
955, 55.5555555556, 10, 28
956, 111.111111111, 5, 0
957, 111.111111111, 5, 14
958, 111.111111111, 5, 28
959, 111.111111111, 10, 14
960, 0, 5, 42
961, 0, 5, 56
962, 0, 10, 42
963, 55.5555555556, 5, 42
964, 55.5555555556, 5, 56
965, 55.5555555556, 10, 42
966, 55.5555555556, 10, 56
967, 111.111111111, 5, 42
968, 111.111111111, 5, 56
969, 111.111111111, 10, 42
970, 166.666666667, -10, 0
971, 166.666666667, -10, 14
972, 166.666666667, -10, 28
973, 166.666666667, -5, 0
974, 166.666666667, -5, 14
975, 166.666666667, -5, 28
976, 166.666666667, 0, 0
977, 166.666666667, 0, 14
978, 166.666666667, 0, 28
979, 222.222222222, -10, 14
980, 222.222222222, -5, 0
981, 222.222222222, -5, 14
982, 222.222222222, -5, 28
983, 222.222222222, 0, 14
984, 166.666666667, -10, 42
985, 166.666666667, -10, 56
986, 166.666666667, -5, 42
987, 166.666666667, -5, 56
988, 166.666666667, 0, 42
989, 166.666666667, 0, 56
990, 222.222222222, -10, 42
991, 222.222222222, -5, 42
992, 222.222222222, -5, 56
993, 222.222222222, 0, 42
994, 111.111111111, -10, 70
995, 111.111111111, -5, 70
996, 111.111111111, -5, 84
997, 111.111111111, 0, 70
998, 166.666666667, -10, 70
999, 166.666666667, -10, 84
1000, 166.666666667, -5, 70
1001, 166.666666667, -5, 84
1002, 166.666666667, 0, 70
1003, 166.666666667, 0, 84
1004, 222.222222222, -10, 70
1005, 222.222222222, -5, 70
1006, 222.222222222, -5, 84
1007, 222.222222222, 0, 70
1008, 111.111111111, -10, 126
1009, 111.111111111, -5, 112
1010, 111.111111111, -5, 126
1011, 111.111111111, -5, 140
1012, 111.111111111, 0, 126
1013, 166.666666667, -10, 112
1014, 166.666666667, -10, 126
1015, 166.666666667, -10, 140
1016, 166.666666667, -5, 112
1017, 166.666666667, -5, 126
1018, 166.666666667, -5, 140
1019, 166.666666667, 0, 112
1020, 166.666666667, 0, 126
1021, 166.666666667, 0, 140
1022, 222.222222222, -10, 126
1023, 222.222222222, -5, 112
1024, 222.222222222, -5, 126
1025, 222.222222222, -5, 140
1026, 222.222222222, 0, 126
1027, 166.666666667, 5, 0
1028, 166.666666667, 5, 14
1029, 166.666666667, 5, 28
1030, 166.666666667, 10, 0
1031, 166.666666667, 10, 14
1032, 166.666666667, 10, 28
1033, 222.222222222, 5, 0
1034, 222.222222222, 5, 14
1035, 222.222222222, 5, 28
1036, 222.222222222, 10, 14
1037, 166.666666667, 5, 42
1038, 166.666666667, 5, 56
1039, 166.666666667, 10, 42
1040, 166.666666667, 10, 56
1041, 222.222222222, 5, 42
1042, 222.222222222, 5, 56
1043, 222.222222222, 10, 42
1044, 111.111111111, 5, 70
1045, 111.111111111, 5, 84
1046, 111.111111111, 10, 70
1047, 166.666666667, 5, 70
1048, 166.666666667, 5, 84
1049, 166.666666667, 10, 70
1050, 166.666666667, 10, 84
1051, 222.222222222, 5, 70
1052, 222.222222222, 5, 84
1053, 222.222222222, 10, 70
1054, 111.111111111, -120, 155
1055, 111.111111111, -106.25, 150
1056, 111.111111111, -106.25, 155
1057, 111.111111111, -106.25, 160
1058, 111.111111111, -92.5, 155
1059, 166.666666667, -120, 150
1060, 166.666666667, -120, 155
1061, 166.666666667, -120, 160
1062, 166.666666667, -106.25, 150
1063, 166.666666667, -106.25, 155
1064, 166.666666667, -106.25, 160
1065, 166.666666667, -92.5, 150
1066, 166.666666667, -92.5, 155
1067, 166.666666667, -92.5, 160
1068, 222.222222222, -120, 155
1069, 222.222222222, -106.25, 150
1070, 222.222222222, -106.25, 155
1071, 222.222222222, -106.25, 160
1072, 222.222222222, -92.5, 155
1073, 111.111111111, -78.75, 150
1074, 111.111111111, -78.75, 155
1075, 111.111111111, -78.75, 160
1076, 111.111111111, -65, 155
1077, 166.666666667, -78.75, 150
1078, 166.666666667, -78.75, 155
1079, 166.666666667, -78.75, 160
1080, 166.666666667, -65, 150
1081, 166.666666667, -65, 155
1082, 166.666666667, -65, 160
1083, 222.222222222, -78.75, 150
1084, 222.222222222, -78.75, 155
1085, 222.222222222, -78.75, 160
1086, 222.222222222, -65, 155
1087, 111.111111111, -51.25, 150
1088, 111.111111111, -51.25, 155
1089, 111.111111111, -51.25, 160
1090, 111.111111111, -37.5, 155
1091, 166.666666667, -51.25, 150
1092, 166.666666667, -51.25, 155
1093, 166.666666667, -51.25, 160
1094, 166.666666667, -37.5, 150
1095, 166.666666667, -37.5, 155
1096, 166.666666667, -37.5, 160
1097, 222.222222222, -51.25, 150
1098, 222.222222222, -51.25, 155
1099, 222.222222222, -51.25, 160
1100, 222.222222222, -37.5, 155
1101, 111.111111111, -23.75, 150
1102, 111.111111111, -23.75, 155
1103, 111.111111111, -23.75, 160
1104, 111.111111111, -10, 155
1105, 166.666666667, -23.75, 150
1106, 166.666666667, -23.75, 155
1107, 166.666666667, -23.75, 160
1108, 166.666666667, -10, 150
1109, 166.666666667, -10, 155
1110, 166.666666667, -10, 160
1111, 222.222222222, -23.75, 150
1112, 222.222222222, -23.75, 155
1113, 222.222222222, -23.75, 160
1114, 222.222222222, -10, 155
1115, 111.111111111, 10, 155
1116, 111.111111111, 23.75, 150
1117, 111.111111111, 23.75, 155
1118, 111.111111111, 23.75, 160
1119, 111.111111111, 37.5, 155
1120, 166.666666667, 10, 150
1121, 166.666666667, 10, 155
1122, 166.666666667, 10, 160
1123, 166.666666667, 23.75, 150
1124, 166.666666667, 23.75, 155
1125, 166.666666667, 23.75, 160
1126, 166.666666667, 37.5, 150
1127, 166.666666667, 37.5, 155
1128, 166.666666667, 37.5, 160
1129, 222.222222222, 10, 155
1130, 222.222222222, 23.75, 150
1131, 222.222222222, 23.75, 155
1132, 222.222222222, 23.75, 160
1133, 222.222222222, 37.5, 155
1134, 111.111111111, 51.25, 150
1135, 111.111111111, 51.25, 155
1136, 111.111111111, 51.25, 160
1137, 111.111111111, 65, 155
1138, 166.666666667, 51.25, 150
1139, 166.666666667, 51.25, 155
1140, 166.666666667, 51.25, 160
1141, 166.666666667, 65, 150
1142, 166.666666667, 65, 155
1143, 166.666666667, 65, 160
1144, 222.222222222, 51.25, 150
1145, 222.222222222, 51.25, 155
1146, 222.222222222, 51.25, 160
1147, 222.222222222, 65, 155
1148, 111.111111111, 78.75, 150
1149, 111.111111111, 78.75, 155
1150, 111.111111111, 78.75, 160
1151, 111.111111111, 92.5, 155
1152, 166.666666667, 78.75, 150
1153, 166.666666667, 78.75, 155
1154, 166.666666667, 78.75, 160
1155, 166.666666667, 92.5, 150
1156, 166.666666667, 92.5, 155
1157, 166.666666667, 92.5, 160
1158, 222.222222222, 78.75, 150
1159, 222.222222222, 78.75, 155
1160, 222.222222222, 78.75, 160
1161, 222.222222222, 92.5, 155
1162, 111.111111111, 106.25, 150
1163, 111.111111111, 106.25, 155
1164, 111.111111111, 106.25, 160
1165, 111.111111111, 120, 155
1166, 166.666666667, 106.25, 150
1167, 166.666666667, 106.25, 155
1168, 166.666666667, 106.25, 160
1169, 166.666666667, 120, 150
1170, 166.666666667, 120, 155
1171, 166.666666667, 120, 160
1172, 222.222222222, 106.25, 150
1173, 222.222222222, 106.25, 155
1174, 222.222222222, 106.25, 160
1175, 222.222222222, 120, 155
1176, 277.777777778, -10, 0
1177, 277.777777778, -10, 14
1178, 277.777777778, -10, 28
1179, 277.777777778, -5, 0
1180, 277.777777778, -5, 14
1181, 277.777777778, -5, 28
1182, 277.777777778, 0, 0
1183, 277.777777778, 0, 14
1184, 277.777777778, 0, 28
1185, 333.333333333, -10, 14
1186, 333.333333333, -5, 0
1187, 333.333333333, -5, 14
1188, 333.333333333, -5, 28
1189, 333.333333333, 0, 14
1190, 277.777777778, 5, 0
1191, 277.777777778, 5, 14
1192, 277.777777778, 5, 28
1193, 277.777777778, 10, 0
1194, 277.777777778, 10, 14
1195, 277.777777778, 10, 28
1196, 333.333333333, 5, 0
1197, 333.333333333, 5, 14
1198, 333.333333333, 5, 28
1199, 333.333333333, 10, 14
1200, 388.888888889, -10, 0
1201, 388.888888889, -10, 14
1202, 388.888888889, -10, 28
1203, 388.888888889, -5, 0
1204, 388.888888889, -5, 14
1205, 388.888888889, -5, 28
1206, 388.888888889, 0, 0
1207, 388.888888889, 0, 14
1208, 388.888888889, 0, 28
1209, 444.444444444, -10, 14
1210, 444.444444444, -5, 0
1211, 444.444444444, -5, 14
1212, 444.444444444, -5, 28
1213, 444.444444444, 0, 14
1214, 388.888888889, 5, 0
1215, 388.888888889, 5, 14
1216, 388.888888889, 5, 28
1217, 388.888888889, 10, 0
1218, 388.888888889, 10, 14
1219, 388.888888889, 10, 28
1220, 444.444444444, 5, 0
1221, 444.444444444, 5, 14
1222, 444.444444444, 5, 28
1223, 444.444444444, 10, 14
1224, 500, -10, 0
1225, 500, -10, 14
1226, 500, -10, 28
1227, 500, -5, 0
1228, 500, -5, 14
1229, 500, -5, 28
1230, 500, 0, 0
1231, 500, 0, 14
1232, 500, 0, 28
1233, 555.555555556, -10, 14
1234, 555.555555556, -5, 0
1235, 555.555555556, -5, 14
1236, 555.555555556, -5, 28
1237, 555.555555556, 0, 14
1238, 500, 5, 0
1239, 500, 5, 14
1240, 500, 5, 28
1241, 500, 10, 0
1242, 500, 10, 14
1243, 500, 10, 28
1244, 555.555555556, 5, 0
1245, 555.555555556, 5, 14
1246, 555.555555556, 5, 28
1247, 555.555555556, 10, 14
1248, 611.111111111, -10, 0
1249, 611.111111111, -10, 14
1250, 611.111111111, -10, 28
1251, 611.111111111, -5, 0
1252, 611.111111111, -5, 14
1253, 611.111111111, -5, 28
1254, 611.111111111, 0, 0
1255, 611.111111111, 0, 14
1256, 611.111111111, 0, 28
1257, 666.666666667, -10, 14
1258, 666.666666667, -5, 0
1259, 666.666666667, -5, 14
1260, 666.666666667, -5, 28
1261, 666.666666667, 0, 14
1262, 611.111111111, 5, 0
1263, 611.111111111, 5, 14
1264, 611.111111111, 5, 28
1265, 611.111111111, 10, 0
1266, 611.111111111, 10, 14
1267, 611.111111111, 10, 28
1268, 666.666666667, 5, 0
1269, 666.666666667, 5, 14
1270, 666.666666667, 5, 28
1271, 666.666666667, 10, 14
1272, 722.222222222, -10, 0
1273, 722.222222222, -10, 14
1274, 722.222222222, -10, 28
1275, 722.222222222, -5, 0
1276, 722.222222222, -5, 14
1277, 722.222222222, -5, 28
1278, 722.222222222, 0, 0
1279, 722.222222222, 0, 14
1280, 722.222222222, 0, 28
1281, 777.777777778, -10, 14
1282, 777.777777778, -5, 0
1283, 777.777777778, -5, 14
1284, 777.777777778, -5, 28
1285, 777.777777778, 0, 14
1286, 722.222222222, 5, 0
1287, 722.222222222, 5, 14
1288, 722.222222222, 5, 28
1289, 722.222222222, 10, 0
1290, 722.222222222, 10, 14
1291, 722.222222222, 10, 28
1292, 777.777777778, 5, 0
1293, 777.777777778, 5, 14
1294, 777.777777778, 5, 28
1295, 777.777777778, 10, 14
1296, 833.333333333, -10, 0
1297, 833.333333333, -10, 14
1298, 833.333333333, -10, 28
1299, 833.333333333, -5, 0
1300, 833.333333333, -5, 14
1301, 833.333333333, -5, 28
1302, 833.333333333, 0, 0
1303, 833.333333333, 0, 14
1304, 833.333333333, 0, 28
1305, 888.888888889, -10, 14
1306, 888.888888889, -5, 0
1307, 888.888888889, -5, 14
1308, 888.888888889, -5, 28
1309, 888.888888889, 0, 14
1310, 833.333333333, 5, 0
1311, 833.333333333, 5, 14
1312, 833.333333333, 5, 28
1313, 833.333333333, 10, 0
1314, 833.333333333, 10, 14
1315, 833.333333333, 10, 28
1316, 888.888888889, 5, 0
1317, 888.888888889, 5, 14
1318, 888.888888889, 5, 28
1319, 888.888888889, 10, 14
1320, 1888.88888889, -37.5, 145
1321, 1888.88888889, -23.75, 140
1322, 1888.88888889, -23.75, 145
1323, 1888.88888889, -23.75, 150
1324, 1888.88888889, -10, 145
1325, 1944.44444444, -37.5, 140
1326, 1944.44444444, -37.5, 145
1327, 1944.44444444, -37.5, 150
1328, 1944.44444444, -23.75, 140
1329, 1944.44444444, -23.75, 145
1330, 1944.44444444, -23.75, 150
1331, 1944.44444444, -10, 140
1332, 1944.44444444, -10, 145
1333, 1944.44444444, -10, 150
1334, 2000, -37.5, 145
1335, 2000, -23.75, 140
1336, 2000, -23.75, 145
1337, 2000, -23.75, 150
1338, 2000, -10, 145
1339, 1888.88888889, 10, 145
1340, 1888.88888889, 23.75, 140
1341, 1888.88888889, 23.75, 145
1342, 1888.88888889, 23.75, 150
1343, 1888.88888889, 37.5, 145
1344, 1944.44444444, 10, 140
1345, 1944.44444444, 10, 145
1346, 1944.44444444, 10, 150
1347, 1944.44444444, 23.75, 140
1348, 1944.44444444, 23.75, 145
1349, 1944.44444444, 23.75, 150
1350, 1944.44444444, 37.5, 140
1351, 1944.44444444, 37.5, 145
1352, 1944.44444444, 37.5, 150
1353, 2000, 10, 145
1354, 2000, 23.75, 140
1355, 2000, 23.75, 145
1356, 2000, 23.75, 150
1357, 2000, 37.5, 145
1358, 0, -10, 7
1359, 0, -7.5, 0
1360, 0, -7.5, 7
1361, 0, -7.5, 14
1362, 0, -5, 7
1363, 27.7777777778, -10, 0
1364, 27.7777777778, -10, 7
1365, 27.7777777778, -10, 14
1366, 27.7777777778, -7.5, 0
1367, 27.7777777778, -7.5, 7
1368, 27.7777777778, -7.5, 14
1369, 27.7777777778, -5, 0
1370, 27.7777777778, -5, 7
1371, 27.7777777778, -5, 14
1372, 55.5555555556, -10, 7
1373, 55.5555555556, -7.5, 0
1374, 55.5555555556, -7.5, 7
1375, 55.5555555556, -7.5, 14
1376, 55.5555555556, -5, 7
1377, 0, -2.5, 0
1378, 0, -2.5, 7
1379, 0, -2.5, 14
1380, 0, 0, 7
1381, 27.7777777778, -2.5, 0
1382, 27.7777777778, -2.5, 7
1383, 27.7777777778, -2.5, 14
1384, 27.7777777778, 0, 0
1385, 27.7777777778, 0, 7
1386, 27.7777777778, 0, 14
1387, 55.5555555556, -2.5, 0
1388, 55.5555555556, -2.5, 7
1389, 55.5555555556, -2.5, 14
1390, 55.5555555556, 0, 7
1391, 83.3333333333, -10, 0
1392, 83.3333333333, -10, 7
1393, 83.3333333333, -10, 14
1394, 83.3333333333, -7.5, 0
1395, 83.3333333333, -7.5, 7
1396, 83.3333333333, -7.5, 14
1397, 83.3333333333, -5, 0
1398, 83.3333333333, -5, 7
1399, 83.3333333333, -5, 14
1400, 111.111111111, -10, 7
1401, 111.111111111, -7.5, 0
1402, 111.111111111, -7.5, 7
1403, 111.111111111, -7.5, 14
1404, 111.111111111, -5, 7
1405, 55.5555555556, -10, 21
1406, 55.5555555556, -7.5, 21
1407, 55.5555555556, -7.5, 28
1408, 55.5555555556, -5, 21
1409, 83.3333333333, -10, 21
1410, 83.3333333333, -10, 28
1411, 83.3333333333, -7.5, 21
1412, 83.3333333333, -7.5, 28
1413, 83.3333333333, -5, 21
1414, 83.3333333333, -5, 28
1415, 111.111111111, -10, 21
1416, 111.111111111, -7.5, 21
1417, 111.111111111, -7.5, 28
1418, 111.111111111, -5, 21
1419, 83.3333333333, -2.5, 0
1420, 83.3333333333, -2.5, 7
1421, 83.3333333333, -2.5, 14
1422, 83.3333333333, 0, 0
1423, 83.3333333333, 0, 7
1424, 83.3333333333, 0, 14
1425, 111.111111111, -2.5, 0
1426, 111.111111111, -2.5, 7
1427, 111.111111111, -2.5, 14
1428, 111.111111111, 0, 7
1429, 55.5555555556, -2.5, 21
1430, 55.5555555556, -2.5, 28
1431, 55.5555555556, 0, 21
1432, 83.3333333333, -2.5, 21
1433, 83.3333333333, -2.5, 28
1434, 83.3333333333, 0, 21
1435, 83.3333333333, 0, 28
1436, 111.111111111, -2.5, 21
1437, 111.111111111, -2.5, 28
1438, 111.111111111, 0, 21
1439, 55.5555555556, -10, 35
1440, 55.5555555556, -7.5, 35
1441, 55.5555555556, -7.5, 42
1442, 55.5555555556, -5, 35
1443, 83.3333333333, -10, 35
1444, 83.3333333333, -10, 42
1445, 83.3333333333, -7.5, 35
1446, 83.3333333333, -7.5, 42
1447, 83.3333333333, -5, 35
1448, 83.3333333333, -5, 42
1449, 111.111111111, -10, 35
1450, 111.111111111, -7.5, 35
1451, 111.111111111, -7.5, 42
1452, 111.111111111, -5, 35
1453, 55.5555555556, -2.5, 35
1454, 55.5555555556, -2.5, 42
1455, 55.5555555556, 0, 35
1456, 83.3333333333, -2.5, 35
1457, 83.3333333333, -2.5, 42
1458, 83.3333333333, 0, 35
1459, 83.3333333333, 0, 42
1460, 111.111111111, -2.5, 35
1461, 111.111111111, -2.5, 42
1462, 111.111111111, 0, 35
1463, 0, -10, 70
1464, 0, -5, 70
1465, 0, -5, 84
1466, 0, 0, 70
1467, 55.5555555556, -10, 70
1468, 55.5555555556, -10, 84
1469, 55.5555555556, -5, 70
1470, 55.5555555556, -5, 84
1471, 55.5555555556, 0, 70
1472, 55.5555555556, 0, 84
1473, 0, 2.5, 0
1474, 0, 2.5, 7
1475, 0, 2.5, 14
1476, 0, 5, 7
1477, 27.7777777778, 2.5, 0
1478, 27.7777777778, 2.5, 7
1479, 27.7777777778, 2.5, 14
1480, 27.7777777778, 5, 0
1481, 27.7777777778, 5, 7
1482, 27.7777777778, 5, 14
1483, 55.5555555556, 2.5, 0
1484, 55.5555555556, 2.5, 7
1485, 55.5555555556, 2.5, 14
1486, 55.5555555556, 5, 7
1487, 0, 7.5, 0
1488, 0, 7.5, 7
1489, 0, 7.5, 14
1490, 0, 10, 7
1491, 27.7777777778, 7.5, 0
1492, 27.7777777778, 7.5, 7
1493, 27.7777777778, 7.5, 14
1494, 27.7777777778, 10, 0
1495, 27.7777777778, 10, 7
1496, 27.7777777778, 10, 14
1497, 55.5555555556, 7.5, 0
1498, 55.5555555556, 7.5, 7
1499, 55.5555555556, 7.5, 14
1500, 55.5555555556, 10, 7
1501, 83.3333333333, 2.5, 0
1502, 83.3333333333, 2.5, 7
1503, 83.3333333333, 2.5, 14
1504, 83.3333333333, 5, 0
1505, 83.3333333333, 5, 7
1506, 83.3333333333, 5, 14
1507, 111.111111111, 2.5, 0
1508, 111.111111111, 2.5, 7
1509, 111.111111111, 2.5, 14
1510, 111.111111111, 5, 7
1511, 55.5555555556, 2.5, 21
1512, 55.5555555556, 2.5, 28
1513, 55.5555555556, 5, 21
1514, 83.3333333333, 2.5, 21
1515, 83.3333333333, 2.5, 28
1516, 83.3333333333, 5, 21
1517, 83.3333333333, 5, 28
1518, 111.111111111, 2.5, 21
1519, 111.111111111, 2.5, 28
1520, 111.111111111, 5, 21
1521, 83.3333333333, 7.5, 0
1522, 83.3333333333, 7.5, 7
1523, 83.3333333333, 7.5, 14
1524, 83.3333333333, 10, 0
1525, 83.3333333333, 10, 7
1526, 83.3333333333, 10, 14
1527, 111.111111111, 7.5, 0
1528, 111.111111111, 7.5, 7
1529, 111.111111111, 7.5, 14
1530, 111.111111111, 10, 7
1531, 55.5555555556, 7.5, 21
1532, 55.5555555556, 7.5, 28
1533, 55.5555555556, 10, 21
1534, 83.3333333333, 7.5, 21
1535, 83.3333333333, 7.5, 28
1536, 83.3333333333, 10, 21
1537, 83.3333333333, 10, 28
1538, 111.111111111, 7.5, 21
1539, 111.111111111, 7.5, 28
1540, 111.111111111, 10, 21
1541, 55.5555555556, 2.5, 35
1542, 55.5555555556, 2.5, 42
1543, 55.5555555556, 5, 35
1544, 83.3333333333, 2.5, 35
1545, 83.3333333333, 2.5, 42
1546, 83.3333333333, 5, 35
1547, 83.3333333333, 5, 42
1548, 111.111111111, 2.5, 35
1549, 111.111111111, 2.5, 42
1550, 111.111111111, 5, 35
1551, 55.5555555556, 7.5, 35
1552, 55.5555555556, 7.5, 42
1553, 55.5555555556, 10, 35
1554, 83.3333333333, 7.5, 35
1555, 83.3333333333, 7.5, 42
1556, 83.3333333333, 10, 35
1557, 83.3333333333, 10, 42
1558, 111.111111111, 7.5, 35
1559, 111.111111111, 7.5, 42
1560, 111.111111111, 10, 35
1561, 0, 5, 70
1562, 0, 5, 84
1563, 0, 10, 70
1564, 55.5555555556, 5, 70
1565, 55.5555555556, 5, 84
1566, 55.5555555556, 10, 70
1567, 55.5555555556, 10, 84
1568, 111.111111111, -10, 98
1569, 111.111111111, -5, 98
1570, 111.111111111, 0, 98
1571, 166.666666667, -10, 98
1572, 166.666666667, -5, 98
1573, 166.666666667, 0, 98
1574, 222.222222222, -10, 98
1575, 222.222222222, -5, 98
1576, 222.222222222, 0, 98
1577, 111.111111111, 5, 112
1578, 111.111111111, 5, 126
1579, 111.111111111, 5, 140
1580, 111.111111111, 10, 126
1581, 166.666666667, 5, 112
1582, 166.666666667, 5, 126
1583, 166.666666667, 5, 140
1584, 166.666666667, 10, 112
1585, 166.666666667, 10, 126
1586, 166.666666667, 10, 140
1587, 222.222222222, 5, 112
1588, 222.222222222, 5, 126
1589, 222.222222222, 5, 140
1590, 222.222222222, 10, 126
1591, 111.111111111, -120, 145
1592, 111.111111111, -106.25, 140
1593, 111.111111111, -106.25, 145
1594, 111.111111111, -92.5, 145
1595, 166.666666667, -120, 140
1596, 166.666666667, -120, 145
1597, 166.666666667, -106.25, 140
1598, 166.666666667, -106.25, 145
1599, 166.666666667, -92.5, 140
1600, 166.666666667, -92.5, 145
1601, 222.222222222, -120, 145
1602, 222.222222222, -106.25, 140
1603, 222.222222222, -106.25, 145
1604, 222.222222222, -92.5, 145
1605, 111.111111111, -120, 157.5
1606, 111.111111111, -113.125, 155
1607, 111.111111111, -113.125, 157.5
1608, 111.111111111, -113.125, 160
1609, 111.111111111, -106.25, 157.5
1610, 138.888888889, -120, 155
1611, 138.888888889, -120, 157.5
1612, 138.888888889, -120, 160
1613, 138.888888889, -113.125, 155
1614, 138.888888889, -113.125, 157.5
1615, 138.888888889, -113.125, 160
1616, 138.888888889, -106.25, 155
1617, 138.888888889, -106.25, 157.5
1618, 138.888888889, -106.25, 160
1619, 166.666666667, -120, 157.5
1620, 166.666666667, -113.125, 155
1621, 166.666666667, -113.125, 157.5
1622, 166.666666667, -113.125, 160
1623, 166.666666667, -106.25, 157.5
1624, 111.111111111, -99.375, 155
1625, 111.111111111, -99.375, 157.5
1626, 111.111111111, -99.375, 160
1627, 111.111111111, -92.5, 157.5
1628, 138.888888889, -99.375, 155
1629, 138.888888889, -99.375, 157.5
1630, 138.888888889, -99.375, 160
1631, 138.888888889, -92.5, 155
1632, 138.888888889, -92.5, 157.5
1633, 138.888888889, -92.5, 160
1634, 166.666666667, -99.375, 155
1635, 166.666666667, -99.375, 157.5
1636, 166.666666667, -99.375, 160
1637, 166.666666667, -92.5, 157.5
1638, 111.111111111, -78.75, 140
1639, 111.111111111, -78.75, 145
1640, 111.111111111, -65, 145
1641, 166.666666667, -78.75, 140
1642, 166.666666667, -78.75, 145
1643, 166.666666667, -65, 140
1644, 166.666666667, -65, 145
1645, 222.222222222, -78.75, 140
1646, 222.222222222, -78.75, 145
1647, 222.222222222, -65, 145
1648, 111.111111111, -51.25, 140
1649, 111.111111111, -51.25, 145
1650, 111.111111111, -37.5, 145
1651, 166.666666667, -51.25, 140
1652, 166.666666667, -51.25, 145
1653, 166.666666667, -37.5, 140
1654, 166.666666667, -37.5, 145
1655, 222.222222222, -51.25, 140
1656, 222.222222222, -51.25, 145
1657, 222.222222222, -37.5, 145
1658, 111.111111111, -23.75, 140
1659, 111.111111111, -23.75, 145
1660, 111.111111111, -10, 145
1661, 166.666666667, -23.75, 140
1662, 166.666666667, -23.75, 145
1663, 166.666666667, -10, 145
1664, 222.222222222, -23.75, 140
1665, 222.222222222, -23.75, 145
1666, 222.222222222, -10, 145
1667, 111.111111111, -5, 145
1668, 111.111111111, -5, 150
1669, 111.111111111, 0, 145
1670, 166.666666667, -5, 145
1671, 166.666666667, -5, 150
1672, 166.666666667, 0, 145
1673, 166.666666667, 0, 150
1674, 222.222222222, -5, 145
1675, 222.222222222, -5, 150
1676, 222.222222222, 0, 145
1677, 111.111111111, -5, 155
1678, 111.111111111, -5, 160
1679, 111.111111111, 0, 155
1680, 166.666666667, -5, 155
1681, 166.666666667, -5, 160
1682, 166.666666667, 0, 155
1683, 166.666666667, 0, 160
1684, 222.222222222, -5, 155
1685, 222.222222222, -5, 160
1686, 222.222222222, 0, 155
1687, 111.111111111, 5, 150
1688, 111.111111111, 5, 155
1689, 111.111111111, 5, 160
1690, 166.666666667, 5, 150
1691, 166.666666667, 5, 155
1692, 166.666666667, 5, 160
1693, 222.222222222, 5, 150
1694, 222.222222222, 5, 155
1695, 222.222222222, 5, 160
1696, 111.111111111, 10, 145
1697, 111.111111111, 23.75, 140
1698, 111.111111111, 23.75, 145
1699, 111.111111111, 37.5, 145
1700, 166.666666667, 10, 145
1701, 166.666666667, 23.75, 140
1702, 166.666666667, 23.75, 145
1703, 166.666666667, 37.5, 140
1704, 166.666666667, 37.5, 145
1705, 222.222222222, 10, 145
1706, 222.222222222, 23.75, 140
1707, 222.222222222, 23.75, 145
1708, 222.222222222, 37.5, 145
1709, 111.111111111, 51.25, 140
1710, 111.111111111, 51.25, 145
1711, 111.111111111, 65, 145
1712, 166.666666667, 51.25, 140
1713, 166.666666667, 51.25, 145
1714, 166.666666667, 65, 140
1715, 166.666666667, 65, 145
1716, 222.222222222, 51.25, 140
1717, 222.222222222, 51.25, 145
1718, 222.222222222, 65, 145
1719, 111.111111111, 78.75, 140
1720, 111.111111111, 78.75, 145
1721, 111.111111111, 92.5, 145
1722, 166.666666667, 78.75, 140
1723, 166.666666667, 78.75, 145
1724, 166.666666667, 92.5, 140
1725, 166.666666667, 92.5, 145
1726, 222.222222222, 78.75, 140
1727, 222.222222222, 78.75, 145
1728, 222.222222222, 92.5, 145
1729, 111.111111111, 106.25, 140
1730, 111.111111111, 106.25, 145
1731, 111.111111111, 120, 145
1732, 166.666666667, 106.25, 140
1733, 166.666666667, 106.25, 145
1734, 166.666666667, 120, 140
1735, 166.666666667, 120, 145
1736, 222.222222222, 106.25, 140
1737, 222.222222222, 106.25, 145
1738, 222.222222222, 120, 145
1739, 111.111111111, 92.5, 157.5
1740, 111.111111111, 99.375, 155
1741, 111.111111111, 99.375, 157.5
1742, 111.111111111, 99.375, 160
1743, 111.111111111, 106.25, 157.5
1744, 138.888888889, 92.5, 155
1745, 138.888888889, 92.5, 157.5
1746, 138.888888889, 92.5, 160
1747, 138.888888889, 99.375, 155
1748, 138.888888889, 99.375, 157.5
1749, 138.888888889, 99.375, 160
1750, 138.888888889, 106.25, 155
1751, 138.888888889, 106.25, 157.5
1752, 138.888888889, 106.25, 160
1753, 166.666666667, 92.5, 157.5
1754, 166.666666667, 99.375, 155
1755, 166.666666667, 99.375, 157.5
1756, 166.666666667, 99.375, 160
1757, 166.666666667, 106.25, 157.5
1758, 111.111111111, 113.125, 155
1759, 111.111111111, 113.125, 157.5
1760, 111.111111111, 113.125, 160
1761, 111.111111111, 120, 157.5
1762, 138.888888889, 113.125, 155
1763, 138.888888889, 113.125, 157.5
1764, 138.888888889, 113.125, 160
1765, 138.888888889, 120, 155
1766, 138.888888889, 120, 157.5
1767, 138.888888889, 120, 160
1768, 166.666666667, 113.125, 155
1769, 166.666666667, 113.125, 157.5
1770, 166.666666667, 113.125, 160
1771, 166.666666667, 120, 157.5
1772, 277.777777778, -10, 7
1773, 277.777777778, -7.5, 0
1774, 277.777777778, -7.5, 7
1775, 277.777777778, -7.5, 14
1776, 277.777777778, -5, 7
1777, 305.555555556, -10, 0
1778, 305.555555556, -10, 7
1779, 305.555555556, -10, 14
1780, 305.555555556, -7.5, 0
1781, 305.555555556, -7.5, 7
1782, 305.555555556, -7.5, 14
1783, 305.555555556, -5, 0
1784, 305.555555556, -5, 7
1785, 305.555555556, -5, 14
1786, 333.333333333, -10, 7
1787, 333.333333333, -7.5, 0
1788, 333.333333333, -7.5, 7
1789, 333.333333333, -7.5, 14
1790, 333.333333333, -5, 7
1791, 277.777777778, -2.5, 0
1792, 277.777777778, -2.5, 7
1793, 277.777777778, -2.5, 14
1794, 277.777777778, 0, 7
1795, 305.555555556, -2.5, 0
1796, 305.555555556, -2.5, 7
1797, 305.555555556, -2.5, 14
1798, 305.555555556, 0, 0
1799, 305.555555556, 0, 7
1800, 305.555555556, 0, 14
1801, 333.333333333, -2.5, 0
1802, 333.333333333, -2.5, 7
1803, 333.333333333, -2.5, 14
1804, 333.333333333, 0, 7
1805, 277.777777778, -10, 42
1806, 277.777777778, -10, 56
1807, 277.777777778, -5, 42
1808, 277.777777778, -5, 56
1809, 277.777777778, 0, 42
1810, 277.777777778, 0, 56
1811, 333.333333333, -10, 42
1812, 333.333333333, -5, 42
1813, 333.333333333, -5, 56
1814, 333.333333333, 0, 42
1815, 277.777777778, 2.5, 0
1816, 277.777777778, 2.5, 7
1817, 277.777777778, 2.5, 14
1818, 277.777777778, 5, 7
1819, 305.555555556, 2.5, 0
1820, 305.555555556, 2.5, 7
1821, 305.555555556, 2.5, 14
1822, 305.555555556, 5, 0
1823, 305.555555556, 5, 7
1824, 305.555555556, 5, 14
1825, 333.333333333, 2.5, 0
1826, 333.333333333, 2.5, 7
1827, 333.333333333, 2.5, 14
1828, 333.333333333, 5, 7
1829, 277.777777778, 7.5, 0
1830, 277.777777778, 7.5, 7
1831, 277.777777778, 7.5, 14
1832, 277.777777778, 10, 7
1833, 305.555555556, 7.5, 0
1834, 305.555555556, 7.5, 7
1835, 305.555555556, 7.5, 14
1836, 305.555555556, 10, 0
1837, 305.555555556, 10, 7
1838, 305.555555556, 10, 14
1839, 333.333333333, 7.5, 0
1840, 333.333333333, 7.5, 7
1841, 333.333333333, 7.5, 14
1842, 333.333333333, 10, 7
1843, 277.777777778, 5, 42
1844, 277.777777778, 5, 56
1845, 277.777777778, 10, 42
1846, 277.777777778, 10, 56
1847, 333.333333333, 5, 42
1848, 333.333333333, 5, 56
1849, 333.333333333, 10, 42
1850, 361.111111111, -10, 0
1851, 361.111111111, -10, 7
1852, 361.111111111, -10, 14
1853, 361.111111111, -7.5, 0
1854, 361.111111111, -7.5, 7
1855, 361.111111111, -7.5, 14
1856, 361.111111111, -5, 0
1857, 361.111111111, -5, 7
1858, 361.111111111, -5, 14
1859, 388.888888889, -10, 7
1860, 388.888888889, -7.5, 0
1861, 388.888888889, -7.5, 7
1862, 388.888888889, -7.5, 14
1863, 388.888888889, -5, 7
1864, 361.111111111, -2.5, 0
1865, 361.111111111, -2.5, 7
1866, 361.111111111, -2.5, 14
1867, 361.111111111, 0, 0
1868, 361.111111111, 0, 7
1869, 361.111111111, 0, 14
1870, 388.888888889, -2.5, 0
1871, 388.888888889, -2.5, 7
1872, 388.888888889, -2.5, 14
1873, 388.888888889, 0, 7
1874, 416.666666667, -10, 0
1875, 416.666666667, -10, 7
1876, 416.666666667, -10, 14
1877, 416.666666667, -7.5, 0
1878, 416.666666667, -7.5, 7
1879, 416.666666667, -7.5, 14
1880, 416.666666667, -5, 0
1881, 416.666666667, -5, 7
1882, 416.666666667, -5, 14
1883, 444.444444444, -10, 7
1884, 444.444444444, -7.5, 0
1885, 444.444444444, -7.5, 7
1886, 444.444444444, -7.5, 14
1887, 444.444444444, -5, 7
1888, 416.666666667, -2.5, 0
1889, 416.666666667, -2.5, 7
1890, 416.666666667, -2.5, 14
1891, 416.666666667, 0, 0
1892, 416.666666667, 0, 7
1893, 416.666666667, 0, 14
1894, 444.444444444, -2.5, 0
1895, 444.444444444, -2.5, 7
1896, 444.444444444, -2.5, 14
1897, 444.444444444, 0, 7
1898, 388.888888889, -10, 42
1899, 388.888888889, -10, 56
1900, 388.888888889, -5, 42
1901, 388.888888889, -5, 56
1902, 388.888888889, 0, 42
1903, 388.888888889, 0, 56
1904, 444.444444444, -10, 42
1905, 444.444444444, -5, 42
1906, 444.444444444, -5, 56
1907, 444.444444444, 0, 42
1908, 361.111111111, 2.5, 0
1909, 361.111111111, 2.5, 7
1910, 361.111111111, 2.5, 14
1911, 361.111111111, 5, 0
1912, 361.111111111, 5, 7
1913, 361.111111111, 5, 14
1914, 388.888888889, 2.5, 0
1915, 388.888888889, 2.5, 7
1916, 388.888888889, 2.5, 14
1917, 388.888888889, 5, 7
1918, 361.111111111, 7.5, 0
1919, 361.111111111, 7.5, 7
1920, 361.111111111, 7.5, 14
1921, 361.111111111, 10, 0
1922, 361.111111111, 10, 7
1923, 361.111111111, 10, 14
1924, 388.888888889, 7.5, 0
1925, 388.888888889, 7.5, 7
1926, 388.888888889, 7.5, 14
1927, 388.888888889, 10, 7
1928, 416.666666667, 2.5, 0
1929, 416.666666667, 2.5, 7
1930, 416.666666667, 2.5, 14
1931, 416.666666667, 5, 0
1932, 416.666666667, 5, 7
1933, 416.666666667, 5, 14
1934, 444.444444444, 2.5, 0
1935, 444.444444444, 2.5, 7
1936, 444.444444444, 2.5, 14
1937, 444.444444444, 5, 7
1938, 416.666666667, 7.5, 0
1939, 416.666666667, 7.5, 7
1940, 416.666666667, 7.5, 14
1941, 416.666666667, 10, 0
1942, 416.666666667, 10, 7
1943, 416.666666667, 10, 14
1944, 444.444444444, 7.5, 0
1945, 444.444444444, 7.5, 7
1946, 444.444444444, 7.5, 14
1947, 444.444444444, 10, 7
1948, 388.888888889, 5, 42
1949, 388.888888889, 5, 56
1950, 388.888888889, 10, 42
1951, 388.888888889, 10, 56
1952, 444.444444444, 5, 42
1953, 444.444444444, 5, 56
1954, 444.444444444, 10, 42
1955, 500, -10, 42
1956, 500, -10, 56
1957, 500, -5, 42
1958, 500, -5, 56
1959, 500, 0, 42
1960, 500, 0, 56
1961, 555.555555556, -10, 42
1962, 555.555555556, -5, 42
1963, 555.555555556, -5, 56
1964, 555.555555556, 0, 42
1965, 500, 5, 42
1966, 500, 5, 56
1967, 500, 10, 42
1968, 500, 10, 56
1969, 555.555555556, 5, 42
1970, 555.555555556, 5, 56
1971, 555.555555556, 10, 42
1972, 611.111111111, -10, 42
1973, 611.111111111, -10, 56
1974, 611.111111111, -5, 42
1975, 611.111111111, -5, 56
1976, 611.111111111, 0, 42
1977, 611.111111111, 0, 56
1978, 666.666666667, -10, 42
1979, 666.666666667, -5, 42
1980, 666.666666667, -5, 56
1981, 666.666666667, 0, 42
1982, 611.111111111, 5, 42
1983, 611.111111111, 5, 56
1984, 611.111111111, 10, 42
1985, 611.111111111, 10, 56
1986, 666.666666667, 5, 42
1987, 666.666666667, 5, 56
1988, 666.666666667, 10, 42
1989, 722.222222222, -10, 42
1990, 722.222222222, -10, 56
1991, 722.222222222, -5, 42
1992, 722.222222222, -5, 56
1993, 722.222222222, 0, 42
1994, 722.222222222, 0, 56
1995, 777.777777778, -10, 42
1996, 777.777777778, -5, 42
1997, 777.777777778, -5, 56
1998, 777.777777778, 0, 42
1999, 722.222222222, 5, 42
2000, 722.222222222, 5, 56
2001, 722.222222222, 10, 42
2002, 722.222222222, 10, 56
2003, 777.777777778, 5, 42
2004, 777.777777778, 5, 56
2005, 777.777777778, 10, 42
2006, 944.444444444, -10, 0
2007, 944.444444444, -10, 14
2008, 944.444444444, -10, 28
2009, 944.444444444, -5, 0
2010, 944.444444444, -5, 14
2011, 944.444444444, -5, 28
2012, 944.444444444, 0, 0
2013, 944.444444444, 0, 14
2014, 944.444444444, 0, 28
2015, 1000, -10, 14
2016, 1000, -5, 0
2017, 1000, -5, 14
2018, 1000, -5, 28
2019, 1000, 0, 14
2020, 944.444444444, 5, 0
2021, 944.444444444, 5, 14
2022, 944.444444444, 5, 28
2023, 944.444444444, 10, 0
2024, 944.444444444, 10, 14
2025, 944.444444444, 10, 28
2026, 1000, 5, 0
2027, 1000, 5, 14
2028, 1000, 5, 28
2029, 1000, 10, 14
2030, 55.5555555556, -10, 49
2031, 55.5555555556, -7.5, 49
2032, 55.5555555556, -7.5, 56
2033, 55.5555555556, -5, 49
2034, 83.3333333333, -10, 49
2035, 83.3333333333, -10, 56
2036, 83.3333333333, -7.5, 49
2037, 83.3333333333, -7.5, 56
2038, 83.3333333333, -5, 49
2039, 83.3333333333, -5, 56
2040, 111.111111111, -10, 49
2041, 111.111111111, -7.5, 49
2042, 111.111111111, -7.5, 56
2043, 111.111111111, -5, 49
2044, 55.5555555556, -2.5, 49
2045, 55.5555555556, -2.5, 56
2046, 55.5555555556, 0, 49
2047, 83.3333333333, -2.5, 49
2048, 83.3333333333, -2.5, 56
2049, 83.3333333333, 0, 49
2050, 83.3333333333, 0, 56
2051, 111.111111111, -2.5, 49
2052, 111.111111111, -2.5, 56
2053, 111.111111111, 0, 49
2054, 55.5555555556, -10, 63
2055, 55.5555555556, -7.5, 63
2056, 55.5555555556, -7.5, 70
2057, 55.5555555556, -5, 63
2058, 83.3333333333, -10, 63
2059, 83.3333333333, -10, 70
2060, 83.3333333333, -7.5, 63
2061, 83.3333333333, -7.5, 70
2062, 83.3333333333, -5, 63
2063, 83.3333333333, -5, 70
2064, 111.111111111, -10, 63
2065, 111.111111111, -7.5, 63
2066, 111.111111111, -7.5, 70
2067, 111.111111111, -5, 63
2068, 55.5555555556, -2.5, 63
2069, 55.5555555556, -2.5, 70
2070, 55.5555555556, 0, 63
2071, 83.3333333333, -2.5, 63
2072, 83.3333333333, -2.5, 70
2073, 83.3333333333, 0, 63
2074, 83.3333333333, 0, 70
2075, 111.111111111, -2.5, 63
2076, 111.111111111, -2.5, 70
2077, 111.111111111, 0, 63
2078, 0, -10, 98
2079, 0, -5, 98
2080, 0, -5, 112
2081, 0, 0, 98
2082, 55.5555555556, -10, 98
2083, 55.5555555556, -10, 112
2084, 55.5555555556, -5, 98
2085, 55.5555555556, -5, 112
2086, 55.5555555556, 0, 98
2087, 55.5555555556, 0, 112
2088, 0, -10, 126
2089, 0, -5, 126
2090, 0, -5, 140
2091, 0, 0, 126
2092, 55.5555555556, -10, 126
2093, 55.5555555556, -10, 140
2094, 55.5555555556, -5, 126
2095, 55.5555555556, -5, 140
2096, 55.5555555556, 0, 126
2097, 55.5555555556, 0, 140
2098, 55.5555555556, 2.5, 49
2099, 55.5555555556, 2.5, 56
2100, 55.5555555556, 5, 49
2101, 83.3333333333, 2.5, 49
2102, 83.3333333333, 2.5, 56
2103, 83.3333333333, 5, 49
2104, 83.3333333333, 5, 56
2105, 111.111111111, 2.5, 49
2106, 111.111111111, 2.5, 56
2107, 111.111111111, 5, 49
2108, 55.5555555556, 7.5, 49
2109, 55.5555555556, 7.5, 56
2110, 55.5555555556, 10, 49
2111, 83.3333333333, 7.5, 49
2112, 83.3333333333, 7.5, 56
2113, 83.3333333333, 10, 49
2114, 83.3333333333, 10, 56
2115, 111.111111111, 7.5, 49
2116, 111.111111111, 7.5, 56
2117, 111.111111111, 10, 49
2118, 55.5555555556, 2.5, 63
2119, 55.5555555556, 2.5, 70
2120, 55.5555555556, 5, 63
2121, 83.3333333333, 2.5, 63
2122, 83.3333333333, 2.5, 70
2123, 83.3333333333, 5, 63
2124, 83.3333333333, 5, 70
2125, 111.111111111, 2.5, 63
2126, 111.111111111, 2.5, 70
2127, 111.111111111, 5, 63
2128, 55.5555555556, 7.5, 63
2129, 55.5555555556, 7.5, 70
2130, 55.5555555556, 10, 63
2131, 83.3333333333, 7.5, 63
2132, 83.3333333333, 7.5, 70
2133, 83.3333333333, 10, 63
2134, 83.3333333333, 10, 70
2135, 111.111111111, 7.5, 63
2136, 111.111111111, 7.5, 70
2137, 111.111111111, 10, 63
2138, 0, 5, 98
2139, 0, 5, 112
2140, 0, 10, 98
2141, 55.5555555556, 5, 98
2142, 55.5555555556, 5, 112
2143, 55.5555555556, 10, 98
2144, 55.5555555556, 10, 112
2145, 111.111111111, 5, 98
2146, 111.111111111, 10, 98
2147, 0, 5, 126
2148, 0, 5, 140
2149, 0, 10, 126
2150, 55.5555555556, 5, 126
2151, 55.5555555556, 5, 140
2152, 55.5555555556, 10, 126
2153, 55.5555555556, 10, 140
2154, 138.888888889, -10, 56
2155, 138.888888889, -10, 63
2156, 138.888888889, -10, 70
2157, 138.888888889, -7.5, 56
2158, 138.888888889, -7.5, 63
2159, 138.888888889, -7.5, 70
2160, 138.888888889, -5, 56
2161, 138.888888889, -5, 63
2162, 138.888888889, -5, 70
2163, 166.666666667, -10, 63
2164, 166.666666667, -7.5, 56
2165, 166.666666667, -7.5, 63
2166, 166.666666667, -7.5, 70
2167, 166.666666667, -5, 63
2168, 111.111111111, -10, 77
2169, 111.111111111, -7.5, 77
2170, 111.111111111, -7.5, 84
2171, 111.111111111, -5, 77
2172, 138.888888889, -10, 77
2173, 138.888888889, -10, 84
2174, 138.888888889, -7.5, 77
2175, 138.888888889, -7.5, 84
2176, 138.888888889, -5, 77
2177, 138.888888889, -5, 84
2178, 166.666666667, -10, 77
2179, 166.666666667, -7.5, 77
2180, 166.666666667, -7.5, 84
2181, 166.666666667, -5, 77
2182, 138.888888889, -2.5, 56
2183, 138.888888889, -2.5, 63
2184, 138.888888889, -2.5, 70
2185, 138.888888889, 0, 56
2186, 138.888888889, 0, 63
2187, 138.888888889, 0, 70
2188, 166.666666667, -2.5, 56
2189, 166.666666667, -2.5, 63
2190, 166.666666667, -2.5, 70
2191, 166.666666667, 0, 63
2192, 111.111111111, -2.5, 77
2193, 111.111111111, -2.5, 84
2194, 111.111111111, 0, 77
2195, 138.888888889, -2.5, 77
2196, 138.888888889, -2.5, 84
2197, 138.888888889, 0, 77
2198, 138.888888889, 0, 84
2199, 166.666666667, -2.5, 77
2200, 166.666666667, -2.5, 84
2201, 166.666666667, 0, 77
2202, 194.444444444, -10, 70
2203, 194.444444444, -10, 77
2204, 194.444444444, -10, 84
2205, 194.444444444, -7.5, 70
2206, 194.444444444, -7.5, 77
2207, 194.444444444, -7.5, 84
2208, 194.444444444, -5, 70
2209, 194.444444444, -5, 77
2210, 194.444444444, -5, 84
2211, 222.222222222, -10, 77
2212, 222.222222222, -7.5, 70
2213, 222.222222222, -7.5, 77
2214, 222.222222222, -7.5, 84
2215, 222.222222222, -5, 77
2216, 194.444444444, -2.5, 70
2217, 194.444444444, -2.5, 77
2218, 194.444444444, -2.5, 84
2219, 194.444444444, 0, 70
2220, 194.444444444, 0, 77
2221, 194.444444444, 0, 84
2222, 222.222222222, -2.5, 70
2223, 222.222222222, -2.5, 77
2224, 222.222222222, -2.5, 84
2225, 222.222222222, 0, 77
2226, 111.111111111, -10, 91
2227, 111.111111111, -7.5, 91
2228, 111.111111111, -7.5, 98
2229, 111.111111111, -5, 91
2230, 138.888888889, -10, 91
2231, 138.888888889, -10, 98
2232, 138.888888889, -7.5, 91
2233, 138.888888889, -7.5, 98
2234, 138.888888889, -5, 91
2235, 138.888888889, -5, 98
2236, 166.666666667, -10, 91
2237, 166.666666667, -7.5, 91
2238, 166.666666667, -7.5, 98
2239, 166.666666667, -5, 91
2240, 111.111111111, -10, 105
2241, 111.111111111, -7.5, 105
2242, 111.111111111, -7.5, 112
2243, 111.111111111, -5, 105
2244, 138.888888889, -10, 105
2245, 138.888888889, -10, 112
2246, 138.888888889, -7.5, 105
2247, 138.888888889, -7.5, 112
2248, 138.888888889, -5, 105
2249, 138.888888889, -5, 112
2250, 166.666666667, -10, 105
2251, 166.666666667, -7.5, 105
2252, 166.666666667, -7.5, 112
2253, 166.666666667, -5, 105
2254, 194.444444444, -10, 91
2255, 194.444444444, -10, 98
2256, 194.444444444, -7.5, 91
2257, 194.444444444, -7.5, 98
2258, 194.444444444, -5, 91
2259, 194.444444444, -5, 98
2260, 222.222222222, -10, 91
2261, 222.222222222, -7.5, 91
2262, 222.222222222, -7.5, 98
2263, 222.222222222, -5, 91
2264, 194.444444444, -10, 105
2265, 194.444444444, -10, 112
2266, 194.444444444, -7.5, 105
2267, 194.444444444, -7.5, 112
2268, 194.444444444, -5, 105
2269, 194.444444444, -5, 112
2270, 222.222222222, -10, 105
2271, 222.222222222, -7.5, 105
2272, 222.222222222, -7.5, 112
2273, 222.222222222, -5, 105
2274, 111.111111111, -10, 119
2275, 111.111111111, -7.5, 119
2276, 111.111111111, -7.5, 126
2277, 111.111111111, -5, 119
2278, 138.888888889, -10, 119
2279, 138.888888889, -10, 126
2280, 138.888888889, -7.5, 119
2281, 138.888888889, -7.5, 126
2282, 138.888888889, -5, 119
2283, 138.888888889, -5, 126
2284, 166.666666667, -10, 119
2285, 166.666666667, -7.5, 119
2286, 166.666666667, -7.5, 126
2287, 166.666666667, -5, 119
2288, 111.111111111, -10, 133
2289, 111.111111111, -7.5, 133
2290, 111.111111111, -7.5, 140
2291, 111.111111111, -5, 133
2292, 138.888888889, -10, 133
2293, 138.888888889, -10, 140
2294, 138.888888889, -7.5, 133
2295, 138.888888889, -7.5, 140
2296, 138.888888889, -5, 133
2297, 138.888888889, -5, 140
2298, 166.666666667, -10, 133
2299, 166.666666667, -7.5, 133
2300, 166.666666667, -7.5, 140
2301, 166.666666667, -5, 133
2302, 111.111111111, -2.5, 112
2303, 111.111111111, -2.5, 119
2304, 111.111111111, -2.5, 126
2305, 111.111111111, 0, 119
2306, 138.888888889, -2.5, 112
2307, 138.888888889, -2.5, 119
2308, 138.888888889, -2.5, 126
2309, 138.888888889, 0, 112
2310, 138.888888889, 0, 119
2311, 138.888888889, 0, 126
2312, 166.666666667, -2.5, 112
2313, 166.666666667, -2.5, 119
2314, 166.666666667, -2.5, 126
2315, 166.666666667, 0, 119
2316, 111.111111111, -2.5, 133
2317, 111.111111111, -2.5, 140
2318, 111.111111111, 0, 133
2319, 138.888888889, -2.5, 133
2320, 138.888888889, -2.5, 140
2321, 138.888888889, 0, 133
2322, 138.888888889, 0, 140
2323, 166.666666667, -2.5, 133
2324, 166.666666667, -2.5, 140
2325, 166.666666667, 0, 133
2326, 194.444444444, -10, 119
2327, 194.444444444, -10, 126
2328, 194.444444444, -7.5, 119
2329, 194.444444444, -7.5, 126
2330, 194.444444444, -5, 119
2331, 194.444444444, -5, 126
2332, 222.222222222, -10, 119
2333, 222.222222222, -7.5, 119
2334, 222.222222222, -7.5, 126
2335, 222.222222222, -5, 119
2336, 194.444444444, -2.5, 112
2337, 194.444444444, -2.5, 119
2338, 194.444444444, -2.5, 126
2339, 194.444444444, 0, 112
2340, 194.444444444, 0, 119
2341, 194.444444444, 0, 126
2342, 222.222222222, -2.5, 112
2343, 222.222222222, -2.5, 119
2344, 222.222222222, -2.5, 126
2345, 222.222222222, 0, 119
2346, 194.444444444, -5, 133
2347, 194.444444444, -5, 140
2348, 194.444444444, -2.5, 133
2349, 194.444444444, -2.5, 140
2350, 194.444444444, 0, 133
2351, 194.444444444, 0, 140
2352, 222.222222222, -5, 133
2353, 222.222222222, -2.5, 133
2354, 222.222222222, -2.5, 140
2355, 222.222222222, 0, 133
2356, 138.888888889, 2.5, 56
2357, 138.888888889, 2.5, 63
2358, 138.888888889, 2.5, 70
2359, 138.888888889, 5, 56
2360, 138.888888889, 5, 63
2361, 138.888888889, 5, 70
2362, 166.666666667, 2.5, 56
2363, 166.666666667, 2.5, 63
2364, 166.666666667, 2.5, 70
2365, 166.666666667, 5, 63
2366, 138.888888889, 7.5, 56
2367, 138.888888889, 7.5, 63
2368, 138.888888889, 7.5, 70
2369, 138.888888889, 10, 56
2370, 138.888888889, 10, 63
2371, 138.888888889, 10, 70
2372, 166.666666667, 7.5, 56
2373, 166.666666667, 7.5, 63
2374, 166.666666667, 7.5, 70
2375, 166.666666667, 10, 63
2376, 166.666666667, 5, 98
2377, 166.666666667, 10, 98
2378, 222.222222222, 5, 98
2379, 222.222222222, 10, 98
2380, 111.111111111, -23.75, 142.5
2381, 111.111111111, -16.875, 140
2382, 111.111111111, -16.875, 142.5
2383, 111.111111111, -16.875, 145
2384, 111.111111111, -10, 142.5
2385, 138.888888889, -23.75, 140
2386, 138.888888889, -23.75, 142.5
2387, 138.888888889, -23.75, 145
2388, 138.888888889, -16.875, 140
2389, 138.888888889, -16.875, 142.5
2390, 138.888888889, -16.875, 145
2391, 138.888888889, -10, 142.5
2392, 138.888888889, -10, 145
2393, 166.666666667, -23.75, 142.5
2394, 166.666666667, -16.875, 140
2395, 166.666666667, -16.875, 142.5
2396, 166.666666667, -16.875, 145
2397, 166.666666667, -10, 142.5
2398, 194.444444444, -23.75, 140
2399, 194.444444444, -23.75, 142.5
2400, 194.444444444, -23.75, 145
2401, 194.444444444, -16.875, 140
2402, 194.444444444, -16.875, 142.5
2403, 194.444444444, -16.875, 145
2404, 194.444444444, -10, 140
2405, 194.444444444, -10, 142.5
2406, 194.444444444, -10, 145
2407, 222.222222222, -23.75, 142.5
2408, 222.222222222, -16.875, 140
2409, 222.222222222, -16.875, 142.5
2410, 222.222222222, -16.875, 145
2411, 222.222222222, -10, 142.5
2412, 111.111111111, 5, 145
2413, 166.666666667, 5, 145
2414, 222.222222222, 5, 145
2415, 111.111111111, 10, 152.5
2416, 111.111111111, 16.875, 150
2417, 111.111111111, 16.875, 152.5
2418, 111.111111111, 16.875, 155
2419, 111.111111111, 23.75, 152.5
2420, 138.888888889, 10, 150
2421, 138.888888889, 10, 152.5
2422, 138.888888889, 10, 155
2423, 138.888888889, 16.875, 150
2424, 138.888888889, 16.875, 152.5
2425, 138.888888889, 16.875, 155
2426, 138.888888889, 23.75, 150
2427, 138.888888889, 23.75, 152.5
2428, 138.888888889, 23.75, 155
2429, 166.666666667, 10, 152.5
2430, 166.666666667, 16.875, 150
2431, 166.666666667, 16.875, 152.5
2432, 166.666666667, 16.875, 155
2433, 166.666666667, 23.75, 152.5
2434, 111.111111111, 10, 157.5
2435, 111.111111111, 16.875, 157.5
2436, 111.111111111, 16.875, 160
2437, 111.111111111, 23.75, 157.5
2438, 138.888888889, 10, 157.5
2439, 138.888888889, 10, 160
2440, 138.888888889, 16.875, 157.5
2441, 138.888888889, 16.875, 160
2442, 138.888888889, 23.75, 157.5
2443, 138.888888889, 23.75, 160
2444, 166.666666667, 10, 157.5
2445, 166.666666667, 16.875, 157.5
2446, 166.666666667, 16.875, 160
2447, 166.666666667, 23.75, 157.5
2448, 194.444444444, 10, 150
2449, 194.444444444, 10, 152.5
2450, 194.444444444, 10, 155
2451, 194.444444444, 16.875, 150
2452, 194.444444444, 16.875, 152.5
2453, 194.444444444, 16.875, 155
2454, 194.444444444, 23.75, 150
2455, 194.444444444, 23.75, 152.5
2456, 194.444444444, 23.75, 155
2457, 222.222222222, 10, 152.5
2458, 222.222222222, 16.875, 150
2459, 222.222222222, 16.875, 152.5
2460, 222.222222222, 16.875, 155
2461, 222.222222222, 23.75, 152.5
2462, 194.444444444, 10, 157.5
2463, 194.444444444, 10, 160
2464, 194.444444444, 16.875, 157.5
2465, 194.444444444, 16.875, 160
2466, 194.444444444, 23.75, 157.5
2467, 194.444444444, 23.75, 160
2468, 222.222222222, 10, 157.5
2469, 222.222222222, 16.875, 157.5
2470, 222.222222222, 16.875, 160
2471, 222.222222222, 23.75, 157.5
2472, 277.777777778, -10, 35
2473, 277.777777778, -7.5, 28
2474, 277.777777778, -7.5, 35
2475, 277.777777778, -7.5, 42
2476, 277.777777778, -5, 35
2477, 305.555555556, -10, 28
2478, 305.555555556, -10, 35
2479, 305.555555556, -10, 42
2480, 305.555555556, -7.5, 28
2481, 305.555555556, -7.5, 35
2482, 305.555555556, -7.5, 42
2483, 305.555555556, -5, 28
2484, 305.555555556, -5, 35
2485, 305.555555556, -5, 42
2486, 333.333333333, -10, 35
2487, 333.333333333, -7.5, 28
2488, 333.333333333, -7.5, 35
2489, 333.333333333, -7.5, 42
2490, 333.333333333, -5, 35
2491, 277.777777778, -10, 70
2492, 277.777777778, -10, 84
2493, 277.777777778, -5, 70
2494, 277.777777778, -5, 84
2495, 277.777777778, 0, 70
2496, 277.777777778, 0, 84
2497, 333.333333333, -10, 70
2498, 333.333333333, -5, 70
2499, 333.333333333, -5, 84
2500, 333.333333333, 0, 70
2501, 277.777777778, -10, 112
2502, 277.777777778, -10, 126
2503, 277.777777778, -10, 140
2504, 277.777777778, -5, 112
2505, 277.777777778, -5, 126
2506, 277.777777778, -5, 140
2507, 277.777777778, 0, 112
2508, 277.777777778, 0, 126
2509, 277.777777778, 0, 140
2510, 333.333333333, -10, 126
2511, 333.333333333, -5, 112
2512, 333.333333333, -5, 126
2513, 333.333333333, -5, 140
2514, 333.333333333, 0, 126
2515, 277.777777778, 0, 35
2516, 277.777777778, 2.5, 28
2517, 277.777777778, 2.5, 35
2518, 277.777777778, 2.5, 42
2519, 277.777777778, 5, 35
2520, 305.555555556, 0, 28
2521, 305.555555556, 0, 35
2522, 305.555555556, 0, 42
2523, 305.555555556, 2.5, 28
2524, 305.555555556, 2.5, 35
2525, 305.555555556, 2.5, 42
2526, 305.555555556, 5, 28
2527, 305.555555556, 5, 35
2528, 305.555555556, 5, 42
2529, 333.333333333, 0, 35
2530, 333.333333333, 2.5, 28
2531, 333.333333333, 2.5, 35
2532, 333.333333333, 2.5, 42
2533, 333.333333333, 5, 35
2534, 277.777777778, 7.5, 28
2535, 277.777777778, 7.5, 35
2536, 277.777777778, 7.5, 42
2537, 277.777777778, 10, 35
2538, 305.555555556, 7.5, 28
2539, 305.555555556, 7.5, 35
2540, 305.555555556, 7.5, 42
2541, 305.555555556, 10, 28
2542, 305.555555556, 10, 35
2543, 305.555555556, 10, 42
2544, 333.333333333, 7.5, 28
2545, 333.333333333, 7.5, 35
2546, 333.333333333, 7.5, 42
2547, 333.333333333, 10, 35
2548, 277.777777778, 5, 70
2549, 277.777777778, 5, 84
2550, 277.777777778, 10, 70
2551, 277.777777778, 10, 84
2552, 333.333333333, 5, 70
2553, 333.333333333, 5, 84
2554, 333.333333333, 10, 70
2555, 277.777777778, 5, 112
2556, 277.777777778, 5, 126
2557, 277.777777778, 5, 140
2558, 277.777777778, 10, 112
2559, 277.777777778, 10, 126
2560, 277.777777778, 10, 140
2561, 333.333333333, 5, 112
2562, 333.333333333, 5, 126
2563, 333.333333333, 5, 140
2564, 333.333333333, 10, 126
2565, 388.888888889, -10, 70
2566, 388.888888889, -10, 84
2567, 388.888888889, -5, 70
2568, 388.888888889, -5, 84
2569, 388.888888889, 0, 70
2570, 388.888888889, 0, 84
2571, 444.444444444, -10, 70
2572, 444.444444444, -5, 70
2573, 444.444444444, -5, 84
2574, 444.444444444, 0, 70
2575, 388.888888889, 5, 70
2576, 388.888888889, 5, 84
2577, 388.888888889, 10, 70
2578, 388.888888889, 10, 84
2579, 444.444444444, 5, 70
2580, 444.444444444, 5, 84
2581, 444.444444444, 10, 70
2582, 500, -10, 70
2583, 500, -10, 84
2584, 500, -5, 70
2585, 500, -5, 84
2586, 500, 0, 70
2587, 500, 0, 84
2588, 555.555555556, -10, 70
2589, 555.555555556, -5, 70
2590, 555.555555556, -5, 84
2591, 555.555555556, 0, 70
2592, 500, 5, 70
2593, 500, 5, 84
2594, 500, 10, 70
2595, 500, 10, 84
2596, 555.555555556, 5, 70
2597, 555.555555556, 5, 84
2598, 555.555555556, 10, 70
2599, 611.111111111, -10, 70
2600, 611.111111111, -10, 84
2601, 611.111111111, -5, 70
2602, 611.111111111, -5, 84
2603, 611.111111111, 0, 70
2604, 611.111111111, 0, 84
2605, 666.666666667, -10, 70
2606, 666.666666667, -5, 70
2607, 666.666666667, -5, 84
2608, 666.666666667, 0, 70
2609, 611.111111111, 5, 70
2610, 611.111111111, 5, 84
2611, 611.111111111, 10, 70
2612, 611.111111111, 10, 84
2613, 666.666666667, 5, 70
2614, 666.666666667, 5, 84
2615, 666.666666667, 10, 70
2616, 722.222222222, -10, 70
2617, 722.222222222, -10, 84
2618, 722.222222222, -5, 70
2619, 722.222222222, -5, 84
2620, 722.222222222, 0, 70
2621, 722.222222222, 0, 84
2622, 777.777777778, -10, 70
2623, 777.777777778, -5, 70
2624, 777.777777778, -5, 84
2625, 777.777777778, 0, 70
2626, 722.222222222, 5, 70
2627, 722.222222222, 5, 84
2628, 722.222222222, 10, 70
2629, 722.222222222, 10, 84
2630, 777.777777778, 5, 70
2631, 777.777777778, 5, 84
2632, 777.777777778, 10, 70
2633, 833.333333333, -10, 42
2634, 833.333333333, -10, 56
2635, 833.333333333, -5, 42
2636, 833.333333333, -5, 56
2637, 833.333333333, 0, 42
2638, 833.333333333, 0, 56
2639, 888.888888889, -10, 42
2640, 888.888888889, -5, 42
2641, 888.888888889, -5, 56
2642, 888.888888889, 0, 42
2643, 833.333333333, 5, 42
2644, 833.333333333, 5, 56
2645, 833.333333333, 10, 42
2646, 833.333333333, 10, 56
2647, 888.888888889, 5, 42
2648, 888.888888889, 5, 56
2649, 888.888888889, 10, 42
2650, 944.444444444, -10, 42
2651, 944.444444444, -10, 56
2652, 944.444444444, -5, 42
2653, 944.444444444, -5, 56
2654, 944.444444444, 0, 42
2655, 944.444444444, 0, 56
2656, 1000, -10, 42
2657, 1000, -5, 42
2658, 1000, -5, 56
2659, 1000, 0, 42
2660, 944.444444444, 5, 42
2661, 944.444444444, 5, 56
2662, 944.444444444, 10, 42
2663, 944.444444444, 10, 56
2664, 1000, 5, 42
2665, 1000, 5, 56
2666, 1000, 10, 42
2667, 1055.55555556, -10, 0
2668, 1055.55555556, -10, 14
2669, 1055.55555556, -10, 28
2670, 1055.55555556, -5, 0
2671, 1055.55555556, -5, 14
2672, 1055.55555556, -5, 28
2673, 1055.55555556, 0, 0
2674, 1055.55555556, 0, 14
2675, 1055.55555556, 0, 28
2676, 1111.11111111, -10, 14
2677, 1111.11111111, -5, 0
2678, 1111.11111111, -5, 14
2679, 1111.11111111, -5, 28
2680, 1111.11111111, 0, 14
2681, 1055.55555556, 5, 0
2682, 1055.55555556, 5, 14
2683, 1055.55555556, 5, 28
2684, 1055.55555556, 10, 0
2685, 1055.55555556, 10, 14
2686, 1055.55555556, 10, 28
2687, 1111.11111111, 5, 0
2688, 1111.11111111, 5, 14
2689, 1111.11111111, 5, 28
2690, 1111.11111111, 10, 14
2691, 1888.88888889, -10, 155
2692, 1888.88888889, -5, 150
2693, 1888.88888889, -5, 155
2694, 1888.88888889, -5, 160
2695, 1888.88888889, 0, 155
2696, 1944.44444444, -10, 155
2697, 1944.44444444, -10, 160
2698, 1944.44444444, -5, 150
2699, 1944.44444444, -5, 155
2700, 1944.44444444, -5, 160
2701, 1944.44444444, 0, 150
2702, 1944.44444444, 0, 155
2703, 1944.44444444, 0, 160
2704, 2000, -10, 155
2705, 2000, -5, 150
2706, 2000, -5, 155
2707, 2000, -5, 160
2708, 2000, 0, 155
2709, 1888.88888889, 5, 150
2710, 1888.88888889, 5, 155
2711, 1888.88888889, 5, 160
2712, 1888.88888889, 10, 155
2713, 1944.44444444, 5, 150
2714, 1944.44444444, 5, 155
2715, 1944.44444444, 5, 160
2716, 1944.44444444, 10, 155
2717, 1944.44444444, 10, 160
2718, 2000, 5, 150
2719, 2000, 5, 155
2720, 2000, 5, 160
2721, 2000, 10, 155
2722, 55.5555555556, -5, 119
2723, 55.5555555556, -2.5, 112
2724, 55.5555555556, -2.5, 119
2725, 55.5555555556, -2.5, 126
2726, 55.5555555556, 0, 119
2727, 83.3333333333, -5, 112
2728, 83.3333333333, -5, 119
2729, 83.3333333333, -5, 126
2730, 83.3333333333, -2.5, 112
2731, 83.3333333333, -2.5, 119
2732, 83.3333333333, -2.5, 126
2733, 83.3333333333, 0, 112
2734, 83.3333333333, 0, 119
2735, 83.3333333333, 0, 126
2736, 55.5555555556, 2.5, 112
2737, 55.5555555556, 2.5, 119
2738, 55.5555555556, 2.5, 126
2739, 55.5555555556, 5, 119
2740, 83.3333333333, 2.5, 112
2741, 83.3333333333, 2.5, 119
2742, 83.3333333333, 2.5, 126
2743, 83.3333333333, 5, 112
2744, 83.3333333333, 5, 119
2745, 83.3333333333, 5, 126
2746, 111.111111111, 2.5, 112
2747, 111.111111111, 2.5, 119
2748, 111.111111111, 2.5, 126
2749, 111.111111111, 5, 119
2750, 55.5555555556, 7.5, 112
2751, 55.5555555556, 7.5, 119
2752, 55.5555555556, 7.5, 126
2753, 55.5555555556, 10, 119
2754, 83.3333333333, 7.5, 112
2755, 83.3333333333, 7.5, 119
2756, 83.3333333333, 7.5, 126
2757, 83.3333333333, 10, 112
2758, 83.3333333333, 10, 119
2759, 83.3333333333, 10, 126
2760, 111.111111111, 7.5, 112
2761, 111.111111111, 7.5, 119
2762, 111.111111111, 7.5, 126
2763, 111.111111111, 10, 119
2764, 0, -10, 145
2765, 0, -5, 145
2766, 0, -5, 150
2767, 0, 0, 145
2768, 55.5555555556, -10, 145
2769, 55.5555555556, -10, 150
2770, 55.5555555556, -5, 145
2771, 55.5555555556, -5, 150
2772, 55.5555555556, 0, 145
2773, 55.5555555556, 0, 150
2774, 0, 5, 145
2775, 0, 5, 150
2776, 0, 10, 145
2777, 55.5555555556, 5, 145
2778, 55.5555555556, 5, 150
2779, 55.5555555556, 10, 145
2780, 55.5555555556, 10, 150
2781, 138.888888889, 2.5, 112
2782, 138.888888889, 2.5, 119
2783, 138.888888889, 2.5, 126
2784, 138.888888889, 5, 112
2785, 138.888888889, 5, 119
2786, 138.888888889, 5, 126
2787, 166.666666667, 2.5, 112
2788, 166.666666667, 2.5, 119
2789, 166.666666667, 2.5, 126
2790, 166.666666667, 5, 119
2791, 111.111111111, 2.5, 133
2792, 111.111111111, 2.5, 140
2793, 111.111111111, 5, 133
2794, 138.888888889, 2.5, 133
2795, 138.888888889, 2.5, 140
2796, 138.888888889, 5, 133
2797, 138.888888889, 5, 140
2798, 166.666666667, 2.5, 133
2799, 166.666666667, 2.5, 140
2800, 166.666666667, 5, 133
2801, 111.111111111, 7.5, 133
2802, 111.111111111, 7.5, 140
2803, 111.111111111, 10, 133
2804, 138.888888889, 7.5, 126
2805, 138.888888889, 7.5, 133
2806, 138.888888889, 7.5, 140
2807, 138.888888889, 10, 126
2808, 138.888888889, 10, 133
2809, 138.888888889, 10, 140
2810, 166.666666667, 7.5, 126
2811, 166.666666667, 7.5, 133
2812, 166.666666667, 7.5, 140
2813, 166.666666667, 10, 133
2814, 222.222222222, -10, 63
2815, 222.222222222, -7.5, 56
2816, 222.222222222, -7.5, 63
2817, 222.222222222, -5, 63
2818, 250, -10, 56
2819, 250, -10, 63
2820, 250, -10, 70
2821, 250, -7.5, 56
2822, 250, -7.5, 63
2823, 250, -7.5, 70
2824, 250, -5, 56
2825, 250, -5, 63
2826, 250, -5, 70
2827, 277.777777778, -10, 63
2828, 277.777777778, -7.5, 56
2829, 277.777777778, -7.5, 63
2830, 277.777777778, -7.5, 70
2831, 277.777777778, -5, 63
2832, 222.222222222, -2.5, 56
2833, 222.222222222, -2.5, 63
2834, 222.222222222, 0, 63
2835, 250, -2.5, 56
2836, 250, -2.5, 63
2837, 250, -2.5, 70
2838, 250, 0, 56
2839, 250, 0, 63
2840, 250, 0, 70
2841, 277.777777778, -2.5, 56
2842, 277.777777778, -2.5, 63
2843, 277.777777778, -2.5, 70
2844, 277.777777778, 0, 63
2845, 305.555555556, -10, 56
2846, 305.555555556, -10, 63
2847, 305.555555556, -10, 70
2848, 305.555555556, -7.5, 56
2849, 305.555555556, -7.5, 63
2850, 305.555555556, -7.5, 70
2851, 305.555555556, -5, 56
2852, 305.555555556, -5, 63
2853, 305.555555556, -5, 70
2854, 333.333333333, -10, 63
2855, 333.333333333, -7.5, 56
2856, 333.333333333, -7.5, 63
2857, 333.333333333, -7.5, 70
2858, 333.333333333, -5, 63
2859, 305.555555556, -2.5, 56
2860, 305.555555556, -2.5, 63
2861, 305.555555556, -2.5, 70
2862, 305.555555556, 0, 56
2863, 305.555555556, 0, 63
2864, 305.555555556, 0, 70
2865, 333.333333333, -2.5, 56
2866, 333.333333333, -2.5, 63
2867, 333.333333333, -2.5, 70
2868, 333.333333333, 0, 63
2869, 277.777777778, -10, 98
2870, 277.777777778, -5, 98
2871, 277.777777778, 0, 98
2872, 333.333333333, -10, 98
2873, 333.333333333, -5, 98
2874, 333.333333333, 0, 98
2875, 222.222222222, 2.5, 56
2876, 222.222222222, 2.5, 63
2877, 222.222222222, 2.5, 70
2878, 222.222222222, 5, 63
2879, 250, 2.5, 56
2880, 250, 2.5, 63
2881, 250, 2.5, 70
2882, 250, 5, 56
2883, 250, 5, 63
2884, 250, 5, 70
2885, 277.777777778, 2.5, 56
2886, 277.777777778, 2.5, 63
2887, 277.777777778, 2.5, 70
2888, 277.777777778, 5, 63
2889, 222.222222222, 7.5, 56
2890, 222.222222222, 7.5, 63
2891, 222.222222222, 7.5, 70
2892, 222.222222222, 10, 63
2893, 250, 7.5, 56
2894, 250, 7.5, 63
2895, 250, 7.5, 70
2896, 250, 10, 56
2897, 250, 10, 63
2898, 250, 10, 70
2899, 277.777777778, 7.5, 56
2900, 277.777777778, 7.5, 63
2901, 277.777777778, 7.5, 70
2902, 277.777777778, 10, 63
2903, 305.555555556, 2.5, 56
2904, 305.555555556, 2.5, 63
2905, 305.555555556, 2.5, 70
2906, 305.555555556, 5, 56
2907, 305.555555556, 5, 63
2908, 305.555555556, 5, 70
2909, 333.333333333, 2.5, 56
2910, 333.333333333, 2.5, 63
2911, 333.333333333, 2.5, 70
2912, 333.333333333, 5, 63
2913, 305.555555556, 7.5, 56
2914, 305.555555556, 7.5, 63
2915, 305.555555556, 7.5, 70
2916, 305.555555556, 10, 56
2917, 305.555555556, 10, 63
2918, 305.555555556, 10, 70
2919, 333.333333333, 7.5, 56
2920, 333.333333333, 7.5, 63
2921, 333.333333333, 7.5, 70
2922, 333.333333333, 10, 63
2923, 277.777777778, 5, 98
2924, 277.777777778, 10, 98
2925, 333.333333333, 5, 98
2926, 333.333333333, 10, 98
2927, 277.777777778, -65, 150
2928, 277.777777778, -65, 155
2929, 277.777777778, -65, 160
2930, 277.777777778, -51.25, 150
2931, 277.777777778, -51.25, 155
2932, 277.777777778, -51.25, 160
2933, 277.777777778, -37.5, 150
2934, 277.777777778, -37.5, 155
2935, 277.777777778, -37.5, 160
2936, 333.333333333, -65, 155
2937, 333.333333333, -51.25, 150
2938, 333.333333333, -51.25, 155
2939, 333.333333333, -51.25, 160
2940, 333.333333333, -37.5, 155
2941, 277.777777778, -37.5, 140
2942, 277.777777778, -37.5, 145
2943, 277.777777778, -23.75, 140
2944, 277.777777778, -23.75, 145
2945, 277.777777778, -23.75, 150
2946, 277.777777778, -10, 145
2947, 277.777777778, -10, 150
2948, 333.333333333, -37.5, 145
2949, 333.333333333, -23.75, 140
2950, 333.333333333, -23.75, 145
2951, 333.333333333, -23.75, 150
2952, 333.333333333, -10, 145
2953, 277.777777778, -23.75, 155
2954, 277.777777778, -23.75, 160
2955, 277.777777778, -10, 155
2956, 277.777777778, -10, 160
2957, 333.333333333, -23.75, 155
2958, 333.333333333, -23.75, 160
2959, 333.333333333, -10, 155
2960, 277.777777778, -5, 145
2961, 277.777777778, -5, 150
2962, 277.777777778, 0, 145
2963, 277.777777778, 0, 150
2964, 333.333333333, -5, 145
2965, 333.333333333, -5, 150
2966, 333.333333333, 0, 145
2967, 277.777777778, 5, 145
2968, 277.777777778, 5, 150
2969, 277.777777778, 10, 145
2970, 277.777777778, 10, 150
2971, 333.333333333, 5, 145
2972, 333.333333333, 5, 150
2973, 333.333333333, 10, 145
2974, 277.777777778, 10, 155
2975, 277.777777778, 10, 160
2976, 277.777777778, 23.75, 150
2977, 277.777777778, 23.75, 155
2978, 277.777777778, 23.75, 160
2979, 277.777777778, 37.5, 150
2980, 277.777777778, 37.5, 155
2981, 277.777777778, 37.5, 160
2982, 333.333333333, 10, 155
2983, 333.333333333, 23.75, 150
2984, 333.333333333, 23.75, 155
2985, 333.333333333, 23.75, 160
2986, 333.333333333, 37.5, 155
2987, 277.777777778, 51.25, 150
2988, 277.777777778, 51.25, 155
2989, 277.777777778, 51.25, 160
2990, 277.777777778, 65, 150
2991, 277.777777778, 65, 155
2992, 277.777777778, 65, 160
2993, 333.333333333, 51.25, 150
2994, 333.333333333, 51.25, 155
2995, 333.333333333, 51.25, 160
2996, 333.333333333, 65, 155
2997, 361.111111111, -10, 56
2998, 361.111111111, -10, 63
2999, 361.111111111, -10, 70
3000, 361.111111111, -7.5, 56
3001, 361.111111111, -7.5, 63
3002, 361.111111111, -7.5, 70
3003, 361.111111111, -5, 56
3004, 361.111111111, -5, 63
3005, 361.111111111, -5, 70
3006, 388.888888889, -10, 63
3007, 388.888888889, -7.5, 56
3008, 388.888888889, -7.5, 63
3009, 388.888888889, -7.5, 70
3010, 388.888888889, -5, 63
3011, 361.111111111, -2.5, 56
3012, 361.111111111, -2.5, 63
3013, 361.111111111, -2.5, 70
3014, 361.111111111, 0, 56
3015, 361.111111111, 0, 63
3016, 361.111111111, 0, 70
3017, 388.888888889, -2.5, 56
3018, 388.888888889, -2.5, 63
3019, 388.888888889, -2.5, 70
3020, 388.888888889, 0, 63
3021, 416.666666667, -10, 56
3022, 416.666666667, -10, 63
3023, 416.666666667, -10, 70
3024, 416.666666667, -7.5, 56
3025, 416.666666667, -7.5, 63
3026, 416.666666667, -7.5, 70
3027, 416.666666667, -5, 56
3028, 416.666666667, -5, 63
3029, 416.666666667, -5, 70
3030, 444.444444444, -10, 63
3031, 444.444444444, -7.5, 56
3032, 444.444444444, -7.5, 63
3033, 444.444444444, -7.5, 70
3034, 444.444444444, -5, 63
3035, 416.666666667, -2.5, 56
3036, 416.666666667, -2.5, 63
3037, 416.666666667, -2.5, 70
3038, 416.666666667, 0, 56
3039, 416.666666667, 0, 63
3040, 416.666666667, 0, 70
3041, 444.444444444, -2.5, 56
3042, 444.444444444, -2.5, 63
3043, 444.444444444, -2.5, 70
3044, 444.444444444, 0, 63
3045, 388.888888889, -10, 98
3046, 388.888888889, -10, 112
3047, 388.888888889, -5, 98
3048, 388.888888889, -5, 112
3049, 388.888888889, 0, 98
3050, 388.888888889, 0, 112
3051, 444.444444444, -10, 98
3052, 444.444444444, -5, 98
3053, 444.444444444, -5, 112
3054, 444.444444444, 0, 98
3055, 388.888888889, -10, 126
3056, 388.888888889, -10, 140
3057, 388.888888889, -5, 126
3058, 388.888888889, -5, 140
3059, 388.888888889, 0, 126
3060, 388.888888889, 0, 140
3061, 444.444444444, -10, 126
3062, 444.444444444, -5, 126
3063, 444.444444444, -5, 140
3064, 444.444444444, 0, 126
3065, 361.111111111, 2.5, 56
3066, 361.111111111, 2.5, 63
3067, 361.111111111, 2.5, 70
3068, 361.111111111, 5, 56
3069, 361.111111111, 5, 63
3070, 361.111111111, 5, 70
3071, 388.888888889, 2.5, 56
3072, 388.888888889, 2.5, 63
3073, 388.888888889, 2.5, 70
3074, 388.888888889, 5, 63
3075, 361.111111111, 7.5, 56
3076, 361.111111111, 7.5, 63
3077, 361.111111111, 7.5, 70
3078, 361.111111111, 10, 56
3079, 361.111111111, 10, 63
3080, 361.111111111, 10, 70
3081, 388.888888889, 7.5, 56
3082, 388.888888889, 7.5, 63
3083, 388.888888889, 7.5, 70
3084, 388.888888889, 10, 63
3085, 416.666666667, 2.5, 56
3086, 416.666666667, 2.5, 63
3087, 416.666666667, 2.5, 70
3088, 416.666666667, 5, 56
3089, 416.666666667, 5, 63
3090, 416.666666667, 5, 70
3091, 444.444444444, 2.5, 56
3092, 444.444444444, 2.5, 63
3093, 444.444444444, 2.5, 70
3094, 444.444444444, 5, 63
3095, 416.666666667, 7.5, 56
3096, 416.666666667, 7.5, 63
3097, 416.666666667, 7.5, 70
3098, 416.666666667, 10, 56
3099, 416.666666667, 10, 63
3100, 416.666666667, 10, 70
3101, 444.444444444, 7.5, 56
3102, 444.444444444, 7.5, 63
3103, 444.444444444, 7.5, 70
3104, 444.444444444, 10, 63
3105, 388.888888889, 5, 98
3106, 388.888888889, 5, 112
3107, 388.888888889, 10, 98
3108, 388.888888889, 10, 112
3109, 444.444444444, 5, 98
3110, 444.444444444, 5, 112
3111, 444.444444444, 10, 98
3112, 388.888888889, 5, 126
3113, 388.888888889, 5, 140
3114, 388.888888889, 10, 126
3115, 388.888888889, 10, 140
3116, 444.444444444, 5, 126
3117, 444.444444444, 5, 140
3118, 444.444444444, 10, 126
3119, 333.333333333, -65, 145
3120, 333.333333333, -51.25, 140
3121, 333.333333333, -51.25, 145
3122, 388.888888889, -65, 140
3123, 388.888888889, -65, 145
3124, 388.888888889, -65, 150
3125, 388.888888889, -51.25, 140
3126, 388.888888889, -51.25, 145
3127, 388.888888889, -51.25, 150
3128, 388.888888889, -37.5, 140
3129, 388.888888889, -37.5, 145
3130, 388.888888889, -37.5, 150
3131, 444.444444444, -65, 145
3132, 444.444444444, -51.25, 140
3133, 444.444444444, -51.25, 145
3134, 444.444444444, -51.25, 150
3135, 444.444444444, -37.5, 145
3136, 388.888888889, -37.5, 155
3137, 388.888888889, -37.5, 160
3138, 388.888888889, -23.75, 150
3139, 388.888888889, -23.75, 155
3140, 388.888888889, -23.75, 160
3141, 388.888888889, -10, 150
3142, 388.888888889, -10, 155
3143, 388.888888889, -10, 160
3144, 444.444444444, -37.5, 155
3145, 444.444444444, -23.75, 150
3146, 444.444444444, -23.75, 155
3147, 444.444444444, -23.75, 160
3148, 444.444444444, -10, 155
3149, 388.888888889, 10, 150
3150, 388.888888889, 10, 155
3151, 388.888888889, 10, 160
3152, 388.888888889, 23.75, 150
3153, 388.888888889, 23.75, 155
3154, 388.888888889, 23.75, 160
3155, 388.888888889, 37.5, 150
3156, 388.888888889, 37.5, 155
3157, 388.888888889, 37.5, 160
3158, 444.444444444, 10, 155
3159, 444.444444444, 23.75, 150
3160, 444.444444444, 23.75, 155
3161, 444.444444444, 23.75, 160
3162, 444.444444444, 37.5, 155
3163, 333.333333333, 37.5, 145
3164, 333.333333333, 51.25, 140
3165, 333.333333333, 51.25, 145
3166, 333.333333333, 65, 145
3167, 388.888888889, 37.5, 140
3168, 388.888888889, 37.5, 145
3169, 388.888888889, 51.25, 140
3170, 388.888888889, 51.25, 145
3171, 388.888888889, 51.25, 150
3172, 388.888888889, 65, 140
3173, 388.888888889, 65, 145
3174, 388.888888889, 65, 150
3175, 444.444444444, 37.5, 145
3176, 444.444444444, 51.25, 140
3177, 444.444444444, 51.25, 145
3178, 444.444444444, 51.25, 150
3179, 444.444444444, 65, 145
3180, 472.222222222, -10, 56
3181, 472.222222222, -10, 63
3182, 472.222222222, -10, 70
3183, 472.222222222, -7.5, 56
3184, 472.222222222, -7.5, 63
3185, 472.222222222, -7.5, 70
3186, 472.222222222, -5, 56
3187, 472.222222222, -5, 63
3188, 472.222222222, -5, 70
3189, 500, -10, 63
3190, 500, -7.5, 56
3191, 500, -7.5, 63
3192, 500, -7.5, 70
3193, 500, -5, 63
3194, 472.222222222, -2.5, 56
3195, 472.222222222, -2.5, 63
3196, 472.222222222, -2.5, 70
3197, 472.222222222, 0, 56
3198, 472.222222222, 0, 63
3199, 472.222222222, 0, 70
3200, 500, -2.5, 56
3201, 500, -2.5, 63
3202, 500, -2.5, 70
3203, 500, 0, 63
3204, 527.777777778, -10, 56
3205, 527.777777778, -10, 63
3206, 527.777777778, -10, 70
3207, 527.777777778, -7.5, 56
3208, 527.777777778, -7.5, 63
3209, 527.777777778, -7.5, 70
3210, 527.777777778, -5, 56
3211, 527.777777778, -5, 63
3212, 527.777777778, -5, 70
3213, 555.555555556, -10, 63
3214, 555.555555556, -7.5, 56
3215, 555.555555556, -7.5, 63
3216, 555.555555556, -7.5, 70
3217, 555.555555556, -5, 63
3218, 527.777777778, -2.5, 56
3219, 527.777777778, -2.5, 63
3220, 527.777777778, -2.5, 70
3221, 527.777777778, 0, 56
3222, 527.777777778, 0, 63
3223, 527.777777778, 0, 70
3224, 555.555555556, -2.5, 56
3225, 555.555555556, -2.5, 63
3226, 555.555555556, -2.5, 70
3227, 555.555555556, 0, 63
3228, 500, -10, 98
3229, 500, -10, 112
3230, 500, -5, 98
3231, 500, -5, 112
3232, 500, 0, 98
3233, 500, 0, 112
3234, 555.555555556, -10, 98
3235, 555.555555556, -5, 98
3236, 555.555555556, -5, 112
3237, 555.555555556, 0, 98
3238, 500, -10, 126
3239, 500, -10, 140
3240, 500, -5, 126
3241, 500, -5, 140
3242, 500, 0, 126
3243, 500, 0, 140
3244, 555.555555556, -10, 126
3245, 555.555555556, -5, 126
3246, 555.555555556, -5, 140
3247, 555.555555556, 0, 126
3248, 472.222222222, 2.5, 56
3249, 472.222222222, 2.5, 63
3250, 472.222222222, 2.5, 70
3251, 472.222222222, 5, 56
3252, 472.222222222, 5, 63
3253, 472.222222222, 5, 70
3254, 500, 2.5, 56
3255, 500, 2.5, 63
3256, 500, 2.5, 70
3257, 500, 5, 63
3258, 472.222222222, 7.5, 56
3259, 472.222222222, 7.5, 63
3260, 472.222222222, 7.5, 70
3261, 472.222222222, 10, 56
3262, 472.222222222, 10, 63
3263, 472.222222222, 10, 70
3264, 500, 7.5, 56
3265, 500, 7.5, 63
3266, 500, 7.5, 70
3267, 500, 10, 63
3268, 527.777777778, 2.5, 56
3269, 527.777777778, 2.5, 63
3270, 527.777777778, 2.5, 70
3271, 527.777777778, 5, 56
3272, 527.777777778, 5, 63
3273, 527.777777778, 5, 70
3274, 555.555555556, 2.5, 56
3275, 555.555555556, 2.5, 63
3276, 555.555555556, 2.5, 70
3277, 555.555555556, 5, 63
3278, 527.777777778, 7.5, 56
3279, 527.777777778, 7.5, 63
3280, 527.777777778, 7.5, 70
3281, 527.777777778, 10, 56
3282, 527.777777778, 10, 63
3283, 527.777777778, 10, 70
3284, 555.555555556, 7.5, 56
3285, 555.555555556, 7.5, 63
3286, 555.555555556, 7.5, 70
3287, 555.555555556, 10, 63
3288, 500, 5, 98
3289, 500, 5, 112
3290, 500, 10, 98
3291, 500, 10, 112
3292, 555.555555556, 5, 98
3293, 555.555555556, 5, 112
3294, 555.555555556, 10, 98
3295, 500, 5, 126
3296, 500, 5, 140
3297, 500, 10, 126
3298, 500, 10, 140
3299, 555.555555556, 5, 126
3300, 555.555555556, 5, 140
3301, 555.555555556, 10, 126
3302, 583.333333333, -10, 56
3303, 583.333333333, -10, 63
3304, 583.333333333, -10, 70
3305, 583.333333333, -7.5, 56
3306, 583.333333333, -7.5, 63
3307, 583.333333333, -7.5, 70
3308, 583.333333333, -5, 56
3309, 583.333333333, -5, 63
3310, 583.333333333, -5, 70
3311, 611.111111111, -10, 63
3312, 611.111111111, -7.5, 56
3313, 611.111111111, -7.5, 63
3314, 611.111111111, -7.5, 70
3315, 611.111111111, -5, 63
3316, 583.333333333, -2.5, 56
3317, 583.333333333, -2.5, 63
3318, 583.333333333, -2.5, 70
3319, 583.333333333, 0, 56
3320, 583.333333333, 0, 63
3321, 583.333333333, 0, 70
3322, 611.111111111, -2.5, 56
3323, 611.111111111, -2.5, 63
3324, 611.111111111, -2.5, 70
3325, 611.111111111, 0, 63
3326, 638.888888889, -10, 56
3327, 638.888888889, -10, 63
3328, 638.888888889, -10, 70
3329, 638.888888889, -7.5, 56
3330, 638.888888889, -7.5, 63
3331, 638.888888889, -7.5, 70
3332, 638.888888889, -5, 56
3333, 638.888888889, -5, 63
3334, 638.888888889, -5, 70
3335, 666.666666667, -10, 63
3336, 666.666666667, -7.5, 56
3337, 666.666666667, -7.5, 63
3338, 666.666666667, -7.5, 70
3339, 666.666666667, -5, 63
3340, 638.888888889, -2.5, 56
3341, 638.888888889, -2.5, 63
3342, 638.888888889, -2.5, 70
3343, 638.888888889, 0, 56
3344, 638.888888889, 0, 63
3345, 638.888888889, 0, 70
3346, 666.666666667, -2.5, 56
3347, 666.666666667, -2.5, 63
3348, 666.666666667, -2.5, 70
3349, 666.666666667, 0, 63
3350, 611.111111111, -10, 98
3351, 611.111111111, -10, 112
3352, 611.111111111, -5, 98
3353, 611.111111111, -5, 112
3354, 611.111111111, 0, 98
3355, 611.111111111, 0, 112
3356, 666.666666667, -10, 98
3357, 666.666666667, -5, 98
3358, 666.666666667, -5, 112
3359, 666.666666667, 0, 98
3360, 611.111111111, -10, 126
3361, 611.111111111, -10, 140
3362, 611.111111111, -5, 126
3363, 611.111111111, -5, 140
3364, 611.111111111, 0, 126
3365, 611.111111111, 0, 140
3366, 666.666666667, -10, 126
3367, 666.666666667, -5, 126
3368, 666.666666667, -5, 140
3369, 666.666666667, 0, 126
3370, 583.333333333, 2.5, 56
3371, 583.333333333, 2.5, 63
3372, 583.333333333, 2.5, 70
3373, 583.333333333, 5, 56
3374, 583.333333333, 5, 63
3375, 583.333333333, 5, 70
3376, 611.111111111, 2.5, 56
3377, 611.111111111, 2.5, 63
3378, 611.111111111, 2.5, 70
3379, 611.111111111, 5, 63
3380, 583.333333333, 7.5, 56
3381, 583.333333333, 7.5, 63
3382, 583.333333333, 7.5, 70
3383, 583.333333333, 10, 56
3384, 583.333333333, 10, 63
3385, 583.333333333, 10, 70
3386, 611.111111111, 7.5, 56
3387, 611.111111111, 7.5, 63
3388, 611.111111111, 7.5, 70
3389, 611.111111111, 10, 63
3390, 638.888888889, 2.5, 56
3391, 638.888888889, 2.5, 63
3392, 638.888888889, 2.5, 70
3393, 638.888888889, 5, 56
3394, 638.888888889, 5, 63
3395, 638.888888889, 5, 70
3396, 666.666666667, 2.5, 56
3397, 666.666666667, 2.5, 63
3398, 666.666666667, 2.5, 70
3399, 666.666666667, 5, 63
3400, 638.888888889, 7.5, 56
3401, 638.888888889, 7.5, 63
3402, 638.888888889, 7.5, 70
3403, 638.888888889, 10, 56
3404, 638.888888889, 10, 63
3405, 638.888888889, 10, 70
3406, 666.666666667, 7.5, 56
3407, 666.666666667, 7.5, 63
3408, 666.666666667, 7.5, 70
3409, 666.666666667, 10, 63
3410, 611.111111111, 5, 98
3411, 611.111111111, 5, 112
3412, 611.111111111, 10, 98
3413, 611.111111111, 10, 112
3414, 666.666666667, 5, 98
3415, 666.666666667, 5, 112
3416, 666.666666667, 10, 98
3417, 611.111111111, 5, 126
3418, 611.111111111, 5, 140
3419, 611.111111111, 10, 126
3420, 611.111111111, 10, 140
3421, 666.666666667, 5, 126
3422, 666.666666667, 5, 140
3423, 666.666666667, 10, 126
3424, 694.444444444, -10, 56
3425, 694.444444444, -10, 63
3426, 694.444444444, -10, 70
3427, 694.444444444, -7.5, 56
3428, 694.444444444, -7.5, 63
3429, 694.444444444, -7.5, 70
3430, 694.444444444, -5, 56
3431, 694.444444444, -5, 63
3432, 694.444444444, -5, 70
3433, 722.222222222, -10, 63
3434, 722.222222222, -7.5, 56
3435, 722.222222222, -7.5, 63
3436, 722.222222222, -7.5, 70
3437, 722.222222222, -5, 63
3438, 694.444444444, -2.5, 56
3439, 694.444444444, -2.5, 63
3440, 694.444444444, -2.5, 70
3441, 694.444444444, 0, 56
3442, 694.444444444, 0, 63
3443, 694.444444444, 0, 70
3444, 722.222222222, -2.5, 56
3445, 722.222222222, -2.5, 63
3446, 722.222222222, -2.5, 70
3447, 722.222222222, 0, 63
3448, 722.222222222, -10, 98
3449, 722.222222222, -10, 112
3450, 722.222222222, -5, 98
3451, 722.222222222, -5, 112
3452, 722.222222222, 0, 98
3453, 722.222222222, 0, 112
3454, 777.777777778, -10, 98
3455, 777.777777778, -5, 98
3456, 777.777777778, -5, 112
3457, 777.777777778, 0, 98
3458, 722.222222222, -10, 126
3459, 722.222222222, -10, 140
3460, 722.222222222, -5, 126
3461, 722.222222222, -5, 140
3462, 722.222222222, 0, 126
3463, 722.222222222, 0, 140
3464, 777.777777778, -10, 126
3465, 777.777777778, -5, 126
3466, 777.777777778, -5, 140
3467, 777.777777778, 0, 126
3468, 694.444444444, 2.5, 56
3469, 694.444444444, 2.5, 63
3470, 694.444444444, 2.5, 70
3471, 694.444444444, 5, 56
3472, 694.444444444, 5, 63
3473, 694.444444444, 5, 70
3474, 722.222222222, 2.5, 56
3475, 722.222222222, 2.5, 63
3476, 722.222222222, 2.5, 70
3477, 722.222222222, 5, 63
3478, 694.444444444, 7.5, 56
3479, 694.444444444, 7.5, 63
3480, 694.444444444, 7.5, 70
3481, 694.444444444, 10, 56
3482, 694.444444444, 10, 63
3483, 694.444444444, 10, 70
3484, 722.222222222, 7.5, 56
3485, 722.222222222, 7.5, 63
3486, 722.222222222, 7.5, 70
3487, 722.222222222, 10, 63
3488, 722.222222222, 5, 98
3489, 722.222222222, 5, 112
3490, 722.222222222, 10, 98
3491, 722.222222222, 10, 112
3492, 777.777777778, 5, 98
3493, 777.777777778, 5, 112
3494, 777.777777778, 10, 98
3495, 722.222222222, 5, 126
3496, 722.222222222, 5, 140
3497, 722.222222222, 10, 126
3498, 722.222222222, 10, 140
3499, 777.777777778, 5, 126
3500, 777.777777778, 5, 140
3501, 777.777777778, 10, 126
3502, 833.333333333, -10, 70
3503, 833.333333333, -10, 84
3504, 833.333333333, -5, 70
3505, 833.333333333, -5, 84
3506, 833.333333333, 0, 70
3507, 833.333333333, 0, 84
3508, 888.888888889, -10, 70
3509, 888.888888889, -5, 70
3510, 888.888888889, -5, 84
3511, 888.888888889, 0, 70
3512, 833.333333333, 5, 70
3513, 833.333333333, 5, 84
3514, 833.333333333, 10, 70
3515, 833.333333333, 10, 84
3516, 888.888888889, 5, 70
3517, 888.888888889, 5, 84
3518, 888.888888889, 10, 70
3519, 944.444444444, -10, 70
3520, 944.444444444, -10, 84
3521, 944.444444444, -5, 70
3522, 944.444444444, -5, 84
3523, 944.444444444, 0, 70
3524, 944.444444444, 0, 84
3525, 1000, -10, 70
3526, 1000, -5, 70
3527, 1000, -5, 84
3528, 1000, 0, 70
3529, 944.444444444, 5, 70
3530, 944.444444444, 5, 84
3531, 944.444444444, 10, 70
3532, 944.444444444, 10, 84
3533, 1000, 5, 70
3534, 1000, 5, 84
3535, 1000, 10, 70
3536, 1055.55555556, -10, 42
3537, 1055.55555556, -10, 56
3538, 1055.55555556, -5, 42
3539, 1055.55555556, -5, 56
3540, 1055.55555556, 0, 42
3541, 1055.55555556, 0, 56
3542, 1111.11111111, -10, 42
3543, 1111.11111111, -5, 42
3544, 1111.11111111, -5, 56
3545, 1111.11111111, 0, 42
3546, 1055.55555556, 5, 42
3547, 1055.55555556, 5, 56
3548, 1055.55555556, 10, 42
3549, 1055.55555556, 10, 56
3550, 1111.11111111, 5, 42
3551, 1111.11111111, 5, 56
3552, 1111.11111111, 10, 42
3553, 1166.66666667, -10, 0
3554, 1166.66666667, -10, 14
3555, 1166.66666667, -10, 28
3556, 1166.66666667, -5, 0
3557, 1166.66666667, -5, 14
3558, 1166.66666667, -5, 28
3559, 1166.66666667, 0, 0
3560, 1166.66666667, 0, 14
3561, 1166.66666667, 0, 28
3562, 1222.22222222, -10, 14
3563, 1222.22222222, -5, 0
3564, 1222.22222222, -5, 14
3565, 1222.22222222, -5, 28
3566, 1222.22222222, 0, 14
3567, 1166.66666667, 5, 0
3568, 1166.66666667, 5, 14
3569, 1166.66666667, 5, 28
3570, 1166.66666667, 10, 0
3571, 1166.66666667, 10, 14
3572, 1166.66666667, 10, 28
3573, 1222.22222222, 5, 0
3574, 1222.22222222, 5, 14
3575, 1222.22222222, 5, 28
3576, 1222.22222222, 10, 14
3577, 1277.77777778, -10, 0
3578, 1277.77777778, -10, 14
3579, 1277.77777778, -10, 28
3580, 1277.77777778, -5, 0
3581, 1277.77777778, -5, 14
3582, 1277.77777778, -5, 28
3583, 1277.77777778, 0, 0
3584, 1277.77777778, 0, 14
3585, 1277.77777778, 0, 28
3586, 1333.33333333, -10, 14
3587, 1333.33333333, -5, 0
3588, 1333.33333333, -5, 14
3589, 1333.33333333, -5, 28
3590, 1333.33333333, 0, 14
3591, 1277.77777778, 5, 0
3592, 1277.77777778, 5, 14
3593, 1277.77777778, 5, 28
3594, 1277.77777778, 10, 0
3595, 1277.77777778, 10, 14
3596, 1277.77777778, 10, 28
3597, 1333.33333333, 5, 0
3598, 1333.33333333, 5, 14
3599, 1333.33333333, 5, 28
3600, 1333.33333333, 10, 14
3601, 1388.88888889, -10, 0
3602, 1388.88888889, -10, 14
3603, 1388.88888889, -10, 28
3604, 1388.88888889, -5, 0
3605, 1388.88888889, -5, 14
3606, 1388.88888889, -5, 28
3607, 1388.88888889, 0, 0
3608, 1388.88888889, 0, 14
3609, 1388.88888889, 0, 28
3610, 1444.44444444, -10, 14
3611, 1444.44444444, -5, 0
3612, 1444.44444444, -5, 14
3613, 1444.44444444, -5, 28
3614, 1444.44444444, 0, 14
3615, 1388.88888889, 5, 0
3616, 1388.88888889, 5, 14
3617, 1388.88888889, 5, 28
3618, 1388.88888889, 10, 0
3619, 1388.88888889, 10, 14
3620, 1388.88888889, 10, 28
3621, 1444.44444444, 5, 0
3622, 1444.44444444, 5, 14
3623, 1444.44444444, 5, 28
3624, 1444.44444444, 10, 14
3625, 1888.88888889, -37.5, 155
3626, 1888.88888889, -23.75, 155
3627, 1888.88888889, -23.75, 160
3628, 1944.44444444, -37.5, 155
3629, 1944.44444444, -37.5, 160
3630, 1944.44444444, -23.75, 155
3631, 1944.44444444, -23.75, 160
3632, 2000, -37.5, 155
3633, 2000, -23.75, 155
3634, 2000, -23.75, 160
3635, 1888.88888889, 23.75, 155
3636, 1888.88888889, 23.75, 160
3637, 1888.88888889, 37.5, 155
3638, 1944.44444444, 23.75, 155
3639, 1944.44444444, 23.75, 160
3640, 1944.44444444, 37.5, 155
3641, 1944.44444444, 37.5, 160
3642, 2000, 23.75, 155
3643, 2000, 23.75, 160
3644, 2000, 37.5, 155
3645, 0, -10, 133
3646, 0, -7.5, 126
3647, 0, -7.5, 133
3648, 0, -7.5, 140
3649, 0, -5, 133
3650, 27.7777777778, -10, 126
3651, 27.7777777778, -10, 133
3652, 27.7777777778, -10, 140
3653, 27.7777777778, -7.5, 126
3654, 27.7777777778, -7.5, 133
3655, 27.7777777778, -7.5, 140
3656, 27.7777777778, -5, 126
3657, 27.7777777778, -5, 133
3658, 27.7777777778, -5, 140
3659, 55.5555555556, -10, 133
3660, 55.5555555556, -7.5, 126
3661, 55.5555555556, -7.5, 133
3662, 55.5555555556, -7.5, 140
3663, 55.5555555556, -5, 133
3664, 83.3333333333, -10, 126
3665, 83.3333333333, -10, 133
3666, 83.3333333333, -10, 140
3667, 83.3333333333, -7.5, 126
3668, 83.3333333333, -7.5, 133
3669, 83.3333333333, -7.5, 140
3670, 83.3333333333, -5, 133
3671, 83.3333333333, -5, 140
3672, 55.5555555556, -2.5, 133
3673, 55.5555555556, -2.5, 140
3674, 55.5555555556, 0, 133
3675, 83.3333333333, -2.5, 133
3676, 83.3333333333, -2.5, 140
3677, 83.3333333333, 0, 133
3678, 83.3333333333, 0, 140
3679, 0, 5, 133
3680, 0, 7.5, 126
3681, 0, 7.5, 133
3682, 0, 7.5, 140
3683, 0, 10, 133
3684, 27.7777777778, 5, 126
3685, 27.7777777778, 5, 133
3686, 27.7777777778, 5, 140
3687, 27.7777777778, 7.5, 126
3688, 27.7777777778, 7.5, 133
3689, 27.7777777778, 7.5, 140
3690, 27.7777777778, 10, 126
3691, 27.7777777778, 10, 133
3692, 27.7777777778, 10, 140
3693, 55.5555555556, 5, 133
3694, 55.5555555556, 7.5, 133
3695, 55.5555555556, 7.5, 140
3696, 55.5555555556, 10, 133
3697, 55.5555555556, 2.5, 133
3698, 55.5555555556, 2.5, 140
3699, 83.3333333333, 2.5, 133
3700, 83.3333333333, 2.5, 140
3701, 83.3333333333, 5, 133
3702, 83.3333333333, 5, 140
3703, 83.3333333333, 7.5, 133
3704, 83.3333333333, 7.5, 140
3705, 83.3333333333, 10, 133
3706, 83.3333333333, 10, 140
3707, 0, -37.5, 145
3708, 0, -23.75, 140
3709, 0, -23.75, 145
3710, 0, -23.75, 150
3711, 55.5555555556, -37.5, 140
3712, 55.5555555556, -37.5, 145
3713, 55.5555555556, -37.5, 150
3714, 55.5555555556, -23.75, 140
3715, 55.5555555556, -23.75, 145
3716, 55.5555555556, -23.75, 150
3717, 55.5555555556, -5, 142.5
3718, 55.5555555556, -2.5, 142.5
3719, 55.5555555556, -2.5, 145
3720, 55.5555555556, 0, 142.5
3721, 83.3333333333, -5, 142.5
3722, 83.3333333333, -5, 145
3723, 83.3333333333, -2.5, 142.5
3724, 83.3333333333, -2.5, 145
3725, 83.3333333333, 0, 142.5
3726, 83.3333333333, 0, 145
3727, 111.111111111, -5, 142.5
3728, 111.111111111, -2.5, 142.5
3729, 111.111111111, -2.5, 145
3730, 111.111111111, 0, 142.5
3731, 0, -10, 155
3732, 0, -5, 155
3733, 0, -5, 160
3734, 0, 0, 155
3735, 55.5555555556, -10, 155
3736, 55.5555555556, -10, 160
3737, 55.5555555556, -5, 155
3738, 55.5555555556, -5, 160
3739, 55.5555555556, 0, 155
3740, 55.5555555556, 0, 160
3741, 55.5555555556, 2.5, 142.5
3742, 55.5555555556, 2.5, 145
3743, 55.5555555556, 5, 142.5
3744, 83.3333333333, 2.5, 142.5
3745, 83.3333333333, 2.5, 145
3746, 83.3333333333, 5, 142.5
3747, 83.3333333333, 5, 145
3748, 111.111111111, 2.5, 142.5
3749, 111.111111111, 2.5, 145
3750, 111.111111111, 5, 142.5
3751, 0, 5, 155
3752, 0, 5, 160
3753, 0, 10, 155
3754, 55.5555555556, 5, 155
3755, 55.5555555556, 5, 160
3756, 55.5555555556, 10, 155
3757, 55.5555555556, 10, 160
3758, 0, 23.75, 140
3759, 0, 23.75, 145
3760, 0, 23.75, 150
3761, 0, 37.5, 145
3762, 55.5555555556, 23.75, 140
3763, 55.5555555556, 23.75, 145
3764, 55.5555555556, 23.75, 150
3765, 55.5555555556, 37.5, 140
3766, 55.5555555556, 37.5, 145
3767, 55.5555555556, 37.5, 150
3768, 166.666666667, -23.75, 157.5
3769, 166.666666667, -16.875, 155
3770, 166.666666667, -16.875, 157.5
3771, 166.666666667, -16.875, 160
3772, 166.666666667, -10, 157.5
3773, 194.444444444, -23.75, 155
3774, 194.444444444, -23.75, 157.5
3775, 194.444444444, -23.75, 160
3776, 194.444444444, -16.875, 155
3777, 194.444444444, -16.875, 157.5
3778, 194.444444444, -16.875, 160
3779, 194.444444444, -10, 155
3780, 194.444444444, -10, 157.5
3781, 194.444444444, -10, 160
3782, 222.222222222, -23.75, 157.5
3783, 222.222222222, -16.875, 155
3784, 222.222222222, -16.875, 157.5
3785, 222.222222222, -16.875, 160
3786, 222.222222222, -10, 157.5
3787, 166.666666667, 30.625, 155
3788, 166.666666667, 30.625, 157.5
3789, 166.666666667, 30.625, 160
3790, 166.666666667, 37.5, 157.5
3791, 194.444444444, 30.625, 155
3792, 194.444444444, 30.625, 157.5
3793, 194.444444444, 30.625, 160
3794, 194.444444444, 37.5, 155
3795, 194.444444444, 37.5, 157.5
3796, 194.444444444, 37.5, 160
3797, 222.222222222, 30.625, 155
3798, 222.222222222, 30.625, 157.5
3799, 222.222222222, 30.625, 160
3800, 222.222222222, 37.5, 157.5
3801, 222.222222222, -10, 133
3802, 222.222222222, -7.5, 133
3803, 222.222222222, -7.5, 140
3804, 250, -10, 126
3805, 250, -10, 133
3806, 250, -10, 140
3807, 250, -7.5, 126
3808, 250, -7.5, 133
3809, 250, -7.5, 140
3810, 250, -5, 126
3811, 250, -5, 133
3812, 250, -5, 140
3813, 277.777777778, -10, 133
3814, 277.777777778, -7.5, 126
3815, 277.777777778, -7.5, 133
3816, 277.777777778, -7.5, 140
3817, 277.777777778, -5, 133
3818, 250, -2.5, 126
3819, 250, -2.5, 133
3820, 250, -2.5, 140
3821, 250, 0, 126
3822, 250, 0, 133
3823, 250, 0, 140
3824, 277.777777778, -2.5, 126
3825, 277.777777778, -2.5, 133
3826, 277.777777778, -2.5, 140
3827, 277.777777778, 0, 133
3828, 277.777777778, -10, 119
3829, 277.777777778, -7.5, 112
3830, 277.777777778, -7.5, 119
3831, 277.777777778, -5, 119
3832, 305.555555556, -10, 112
3833, 305.555555556, -10, 119
3834, 305.555555556, -10, 126
3835, 305.555555556, -7.5, 112
3836, 305.555555556, -7.5, 119
3837, 305.555555556, -7.5, 126
3838, 305.555555556, -5, 112
3839, 305.555555556, -5, 119
3840, 305.555555556, -5, 126
3841, 333.333333333, -10, 119
3842, 333.333333333, -7.5, 112
3843, 333.333333333, -7.5, 119
3844, 333.333333333, -7.5, 126
3845, 333.333333333, -5, 119
3846, 305.555555556, -10, 133
3847, 305.555555556, -10, 140
3848, 305.555555556, -7.5, 133
3849, 305.555555556, -7.5, 140
3850, 305.555555556, -5, 133
3851, 305.555555556, -5, 140
3852, 333.333333333, -10, 133
3853, 333.333333333, -7.5, 133
3854, 333.333333333, -7.5, 140
3855, 333.333333333, -5, 133
3856, 277.777777778, -2.5, 112
3857, 277.777777778, -2.5, 119
3858, 277.777777778, 0, 119
3859, 305.555555556, -2.5, 112
3860, 305.555555556, -2.5, 119
3861, 305.555555556, -2.5, 126
3862, 305.555555556, 0, 112
3863, 305.555555556, 0, 119
3864, 305.555555556, 0, 126
3865, 333.333333333, -2.5, 112
3866, 333.333333333, -2.5, 119
3867, 333.333333333, -2.5, 126
3868, 333.333333333, 0, 119
3869, 305.555555556, -2.5, 133
3870, 305.555555556, -2.5, 140
3871, 305.555555556, 0, 133
3872, 305.555555556, 0, 140
3873, 333.333333333, -2.5, 133
3874, 333.333333333, -2.5, 140
3875, 333.333333333, 0, 133
3876, 222.222222222, 2.5, 112
3877, 222.222222222, 2.5, 119
3878, 222.222222222, 2.5, 126
3879, 222.222222222, 5, 119
3880, 250, 0, 112
3881, 250, 0, 119
3882, 250, 2.5, 112
3883, 250, 2.5, 119
3884, 250, 2.5, 126
3885, 250, 5, 112
3886, 250, 5, 119
3887, 250, 5, 126
3888, 277.777777778, 2.5, 112
3889, 277.777777778, 2.5, 119
3890, 277.777777778, 2.5, 126
3891, 277.777777778, 5, 119
3892, 222.222222222, 2.5, 133
3893, 222.222222222, 2.5, 140
3894, 222.222222222, 5, 133
3895, 250, 2.5, 133
3896, 250, 2.5, 140
3897, 250, 5, 133
3898, 250, 5, 140
3899, 277.777777778, 2.5, 133
3900, 277.777777778, 2.5, 140
3901, 277.777777778, 5, 133
3902, 222.222222222, 7.5, 112
3903, 222.222222222, 7.5, 119
3904, 222.222222222, 7.5, 126
3905, 222.222222222, 10, 119
3906, 250, 7.5, 112
3907, 250, 7.5, 119
3908, 250, 7.5, 126
3909, 250, 10, 112
3910, 250, 10, 119
3911, 250, 10, 126
3912, 277.777777778, 7.5, 112
3913, 277.777777778, 7.5, 119
3914, 277.777777778, 7.5, 126
3915, 277.777777778, 10, 119
3916, 222.222222222, 7.5, 133
3917, 222.222222222, 7.5, 140
3918, 222.222222222, 10, 133
3919, 250, 7.5, 133
3920, 250, 7.5, 140
3921, 250, 10, 133
3922, 250, 10, 140
3923, 277.777777778, 7.5, 133
3924, 277.777777778, 7.5, 140
3925, 277.777777778, 10, 133
3926, 305.555555556, 2.5, 112
3927, 305.555555556, 2.5, 119
3928, 305.555555556, 2.5, 126
3929, 305.555555556, 5, 112
3930, 305.555555556, 5, 119
3931, 305.555555556, 5, 126
3932, 333.333333333, 2.5, 112
3933, 333.333333333, 2.5, 119
3934, 333.333333333, 2.5, 126
3935, 333.333333333, 5, 119
3936, 305.555555556, 2.5, 133
3937, 305.555555556, 2.5, 140
3938, 305.555555556, 5, 133
3939, 305.555555556, 5, 140
3940, 333.333333333, 2.5, 133
3941, 333.333333333, 2.5, 140
3942, 333.333333333, 5, 133
3943, 305.555555556, 7.5, 112
3944, 305.555555556, 7.5, 119
3945, 305.555555556, 7.5, 126
3946, 305.555555556, 10, 112
3947, 305.555555556, 10, 119
3948, 305.555555556, 10, 126
3949, 333.333333333, 7.5, 112
3950, 333.333333333, 7.5, 119
3951, 333.333333333, 7.5, 126
3952, 333.333333333, 10, 119
3953, 305.555555556, 7.5, 133
3954, 305.555555556, 7.5, 140
3955, 305.555555556, 10, 133
3956, 305.555555556, 10, 140
3957, 333.333333333, 7.5, 133
3958, 333.333333333, 7.5, 140
3959, 333.333333333, 10, 133
3960, 277.777777778, -92.5, 150
3961, 277.777777778, -92.5, 155
3962, 277.777777778, -92.5, 160
3963, 277.777777778, -78.75, 150
3964, 277.777777778, -78.75, 155
3965, 277.777777778, -78.75, 160
3966, 333.333333333, -92.5, 155
3967, 333.333333333, -78.75, 150
3968, 333.333333333, -78.75, 155
3969, 333.333333333, -78.75, 160
3970, 277.777777778, -65, 140
3971, 277.777777778, -65, 145
3972, 277.777777778, -51.25, 140
3973, 277.777777778, -51.25, 145
3974, 222.222222222, -51.25, 157.5
3975, 222.222222222, -44.375, 155
3976, 222.222222222, -44.375, 157.5
3977, 222.222222222, -44.375, 160
3978, 222.222222222, -37.5, 157.5
3979, 250, -51.25, 155
3980, 250, -51.25, 157.5
3981, 250, -51.25, 160
3982, 250, -44.375, 155
3983, 250, -44.375, 157.5
3984, 250, -44.375, 160
3985, 250, -37.5, 155
3986, 250, -37.5, 157.5
3987, 250, -37.5, 160
3988, 277.777777778, -51.25, 157.5
3989, 277.777777778, -44.375, 155
3990, 277.777777778, -44.375, 157.5
3991, 277.777777778, -44.375, 160
3992, 277.777777778, -37.5, 157.5
3993, 305.555555556, -51.25, 155
3994, 305.555555556, -51.25, 157.5
3995, 305.555555556, -51.25, 160
3996, 305.555555556, -44.375, 155
3997, 305.555555556, -44.375, 157.5
3998, 305.555555556, -44.375, 160
3999, 305.555555556, -37.5, 155
4000, 305.555555556, -37.5, 157.5
4001, 305.555555556, -37.5, 160
4002, 333.333333333, -51.25, 157.5
4003, 333.333333333, -44.375, 155
4004, 333.333333333, -44.375, 157.5
4005, 333.333333333, -44.375, 160
4006, 333.333333333, -37.5, 157.5
4007, 250, -23.75, 140
4008, 250, -23.75, 142.5
4009, 250, -23.75, 145
4010, 250, -16.875, 140
4011, 250, -16.875, 142.5
4012, 250, -16.875, 145
4013, 250, -10, 142.5
4014, 250, -10, 145
4015, 277.777777778, -23.75, 142.5
4016, 277.777777778, -16.875, 140
4017, 277.777777778, -16.875, 142.5
4018, 277.777777778, -16.875, 145
4019, 277.777777778, -10, 142.5
4020, 222.222222222, -23.75, 147.5
4021, 222.222222222, -16.875, 147.5
4022, 222.222222222, -16.875, 150
4023, 222.222222222, -10, 147.5
4024, 250, -23.75, 147.5
4025, 250, -23.75, 150
4026, 250, -16.875, 147.5
4027, 250, -16.875, 150
4028, 250, -10, 147.5
4029, 250, -10, 150
4030, 277.777777778, -23.75, 147.5
4031, 277.777777778, -16.875, 147.5
4032, 277.777777778, -16.875, 150
4033, 277.777777778, -10, 147.5
4034, 305.555555556, -23.75, 140
4035, 305.555555556, -23.75, 142.5
4036, 305.555555556, -23.75, 145
4037, 305.555555556, -16.875, 140
4038, 305.555555556, -16.875, 142.5
4039, 305.555555556, -16.875, 145
4040, 305.555555556, -10, 142.5
4041, 305.555555556, -10, 145
4042, 333.333333333, -23.75, 142.5
4043, 333.333333333, -16.875, 140
4044, 333.333333333, -16.875, 142.5
4045, 333.333333333, -16.875, 145
4046, 333.333333333, -10, 142.5
4047, 305.555555556, -23.75, 147.5
4048, 305.555555556, -23.75, 150
4049, 305.555555556, -16.875, 147.5
4050, 305.555555556, -16.875, 150
4051, 305.555555556, -10, 147.5
4052, 305.555555556, -10, 150
4053, 333.333333333, -23.75, 147.5
4054, 333.333333333, -16.875, 147.5
4055, 333.333333333, -16.875, 150
4056, 333.333333333, -10, 147.5
4057, 222.222222222, -37.5, 152.5
4058, 222.222222222, -30.625, 150
4059, 222.222222222, -30.625, 152.5
4060, 222.222222222, -30.625, 155
4061, 222.222222222, -23.75, 152.5
4062, 250, -37.5, 150
4063, 250, -37.5, 152.5
4064, 250, -30.625, 150
4065, 250, -30.625, 152.5
4066, 250, -30.625, 155
4067, 250, -23.75, 152.5
4068, 250, -23.75, 155
4069, 277.777777778, -37.5, 152.5
4070, 277.777777778, -30.625, 150
4071, 277.777777778, -30.625, 152.5
4072, 277.777777778, -30.625, 155
4073, 277.777777778, -23.75, 152.5
4074, 222.222222222, -30.625, 157.5
4075, 222.222222222, -30.625, 160
4076, 250, -30.625, 157.5
4077, 250, -30.625, 160
4078, 250, -23.75, 157.5
4079, 250, -23.75, 160
4080, 277.777777778, -30.625, 157.5
4081, 277.777777778, -30.625, 160
4082, 277.777777778, -23.75, 157.5
4083, 305.555555556, -37.5, 150
4084, 305.555555556, -37.5, 152.5
4085, 305.555555556, -30.625, 150
4086, 305.555555556, -30.625, 152.5
4087, 305.555555556, -30.625, 155
4088, 305.555555556, -23.75, 152.5
4089, 305.555555556, -23.75, 155
4090, 333.333333333, -37.5, 152.5
4091, 333.333333333, -30.625, 150
4092, 333.333333333, -30.625, 152.5
4093, 333.333333333, -30.625, 155
4094, 333.333333333, -23.75, 152.5
4095, 305.555555556, -30.625, 157.5
4096, 305.555555556, -30.625, 160
4097, 305.555555556, -23.75, 157.5
4098, 305.555555556, -23.75, 160
4099, 333.333333333, -30.625, 157.5
4100, 333.333333333, -30.625, 160
4101, 333.333333333, -23.75, 157.5
4102, 277.777777778, -5, 142.5
4103, 277.777777778, -2.5, 142.5
4104, 277.777777778, -2.5, 145
4105, 277.777777778, 0, 142.5
4106, 305.555555556, -5, 142.5
4107, 305.555555556, -5, 145
4108, 305.555555556, -2.5, 142.5
4109, 305.555555556, -2.5, 145
4110, 305.555555556, 0, 142.5
4111, 305.555555556, 0, 145
4112, 333.333333333, -5, 142.5
4113, 333.333333333, -2.5, 142.5
4114, 333.333333333, -2.5, 145
4115, 333.333333333, 0, 142.5
4116, 277.777777778, -5, 155
4117, 277.777777778, -5, 160
4118, 277.777777778, 0, 155
4119, 277.777777778, 0, 160
4120, 333.333333333, -5, 155
4121, 333.333333333, -5, 160
4122, 333.333333333, 0, 155
4123, 277.777777778, 2.5, 142.5
4124, 277.777777778, 2.5, 145
4125, 277.777777778, 5, 142.5
4126, 305.555555556, 2.5, 142.5
4127, 305.555555556, 2.5, 145
4128, 305.555555556, 5, 142.5
4129, 305.555555556, 5, 145
4130, 333.333333333, 2.5, 142.5
4131, 333.333333333, 2.5, 145
4132, 333.333333333, 5, 142.5
4133, 277.777777778, 5, 155
4134, 277.777777778, 5, 160
4135, 333.333333333, 5, 155
4136, 333.333333333, 5, 160
4137, 277.777777778, 23.75, 140
4138, 277.777777778, 23.75, 145
4139, 277.777777778, 37.5, 140
4140, 277.777777778, 37.5, 145
4141, 333.333333333, 23.75, 140
4142, 333.333333333, 23.75, 145
4143, 250, 23.75, 155
4144, 250, 23.75, 157.5
4145, 250, 23.75, 160
4146, 250, 30.625, 155
4147, 250, 30.625, 157.5
4148, 250, 30.625, 160
4149, 250, 37.5, 155
4150, 250, 37.5, 157.5
4151, 250, 37.5, 160
4152, 277.777777778, 23.75, 157.5
4153, 277.777777778, 30.625, 155
4154, 277.777777778, 30.625, 157.5
4155, 277.777777778, 30.625, 160
4156, 277.777777778, 37.5, 157.5
4157, 305.555555556, 23.75, 155
4158, 305.555555556, 23.75, 157.5
4159, 305.555555556, 23.75, 160
4160, 305.555555556, 30.625, 155
4161, 305.555555556, 30.625, 157.5
4162, 305.555555556, 30.625, 160
4163, 305.555555556, 37.5, 155
4164, 305.555555556, 37.5, 157.5
4165, 305.555555556, 37.5, 160
4166, 333.333333333, 23.75, 157.5
4167, 333.333333333, 30.625, 155
4168, 333.333333333, 30.625, 157.5
4169, 333.333333333, 30.625, 160
4170, 333.333333333, 37.5, 157.5
4171, 277.777777778, 51.25, 140
4172, 277.777777778, 51.25, 145
4173, 277.777777778, 65, 140
4174, 277.777777778, 65, 145
4175, 222.222222222, 44.375, 155
4176, 222.222222222, 44.375, 157.5
4177, 222.222222222, 44.375, 160
4178, 222.222222222, 51.25, 157.5
4179, 250, 44.375, 155
4180, 250, 44.375, 157.5
4181, 250, 44.375, 160
4182, 250, 51.25, 155
4183, 250, 51.25, 157.5
4184, 250, 51.25, 160
4185, 277.777777778, 44.375, 155
4186, 277.777777778, 44.375, 157.5
4187, 277.777777778, 44.375, 160
4188, 277.777777778, 51.25, 157.5
4189, 305.555555556, 44.375, 155
4190, 305.555555556, 44.375, 157.5
4191, 305.555555556, 44.375, 160
4192, 305.555555556, 51.25, 155
4193, 305.555555556, 51.25, 157.5
4194, 305.555555556, 51.25, 160
4195, 333.333333333, 44.375, 155
4196, 333.333333333, 44.375, 157.5
4197, 333.333333333, 44.375, 160
4198, 333.333333333, 51.25, 157.5
4199, 277.777777778, 78.75, 150
4200, 277.777777778, 78.75, 155
4201, 277.777777778, 78.75, 160
4202, 277.777777778, 92.5, 150
4203, 277.777777778, 92.5, 155
4204, 277.777777778, 92.5, 160
4205, 333.333333333, 78.75, 150
4206, 333.333333333, 78.75, 155
4207, 333.333333333, 78.75, 160
4208, 333.333333333, 92.5, 155
4209, 361.111111111, -10, 112
4210, 361.111111111, -10, 119
4211, 361.111111111, -10, 126
4212, 361.111111111, -7.5, 112
4213, 361.111111111, -7.5, 119
4214, 361.111111111, -7.5, 126
4215, 361.111111111, -5, 112
4216, 361.111111111, -5, 119
4217, 361.111111111, -5, 126
4218, 388.888888889, -10, 119
4219, 388.888888889, -7.5, 112
4220, 388.888888889, -7.5, 119
4221, 388.888888889, -7.5, 126
4222, 388.888888889, -5, 119
4223, 361.111111111, -2.5, 112
4224, 361.111111111, -2.5, 119
4225, 361.111111111, -2.5, 126
4226, 361.111111111, 0, 112
4227, 361.111111111, 0, 119
4228, 361.111111111, 0, 126
4229, 388.888888889, -2.5, 112
4230, 388.888888889, -2.5, 119
4231, 388.888888889, -2.5, 126
4232, 388.888888889, 0, 119
4233, 416.666666667, -10, 112
4234, 416.666666667, -10, 119
4235, 416.666666667, -10, 126
4236, 416.666666667, -7.5, 112
4237, 416.666666667, -7.5, 119
4238, 416.666666667, -7.5, 126
4239, 416.666666667, -5, 112
4240, 416.666666667, -5, 119
4241, 416.666666667, -5, 126
4242, 444.444444444, -10, 119
4243, 444.444444444, -7.5, 112
4244, 444.444444444, -7.5, 119
4245, 444.444444444, -7.5, 126
4246, 444.444444444, -5, 119
4247, 416.666666667, -2.5, 112
4248, 416.666666667, -2.5, 119
4249, 416.666666667, -2.5, 126
4250, 416.666666667, 0, 112
4251, 416.666666667, 0, 119
4252, 416.666666667, 0, 126
4253, 444.444444444, -2.5, 112
4254, 444.444444444, -2.5, 119
4255, 444.444444444, -2.5, 126
4256, 444.444444444, 0, 119
4257, 361.111111111, 2.5, 112
4258, 361.111111111, 2.5, 119
4259, 361.111111111, 2.5, 126
4260, 361.111111111, 5, 112
4261, 361.111111111, 5, 119
4262, 361.111111111, 5, 126
4263, 388.888888889, 2.5, 112
4264, 388.888888889, 2.5, 119
4265, 388.888888889, 2.5, 126
4266, 388.888888889, 5, 119
4267, 361.111111111, 7.5, 112
4268, 361.111111111, 7.5, 119
4269, 361.111111111, 7.5, 126
4270, 361.111111111, 10, 112
4271, 361.111111111, 10, 119
4272, 361.111111111, 10, 126
4273, 388.888888889, 7.5, 112
4274, 388.888888889, 7.5, 119
4275, 388.888888889, 7.5, 126
4276, 388.888888889, 10, 119
4277, 416.666666667, 2.5, 112
4278, 416.666666667, 2.5, 119
4279, 416.666666667, 2.5, 126
4280, 416.666666667, 5, 112
4281, 416.666666667, 5, 119
4282, 416.666666667, 5, 126
4283, 444.444444444, 2.5, 112
4284, 444.444444444, 2.5, 119
4285, 444.444444444, 2.5, 126
4286, 444.444444444, 5, 119
4287, 416.666666667, 7.5, 112
4288, 416.666666667, 7.5, 119
4289, 416.666666667, 7.5, 126
4290, 416.666666667, 10, 112
4291, 416.666666667, 10, 119
4292, 416.666666667, 10, 126
4293, 444.444444444, 7.5, 112
4294, 444.444444444, 7.5, 119
4295, 444.444444444, 7.5, 126
4296, 444.444444444, 10, 119
4297, 333.333333333, -92.5, 145
4298, 333.333333333, -78.75, 140
4299, 333.333333333, -78.75, 145
4300, 388.888888889, -92.5, 140
4301, 388.888888889, -92.5, 145
4302, 388.888888889, -92.5, 150
4303, 388.888888889, -78.75, 140
4304, 388.888888889, -78.75, 145
4305, 388.888888889, -78.75, 150
4306, 444.444444444, -92.5, 145
4307, 444.444444444, -78.75, 140
4308, 444.444444444, -78.75, 145
4309, 444.444444444, -78.75, 150
4310, 388.888888889, -65, 155
4311, 388.888888889, -65, 160
4312, 388.888888889, -51.25, 155
4313, 388.888888889, -51.25, 160
4314, 444.444444444, -65, 155
4315, 444.444444444, -51.25, 155
4316, 444.444444444, -51.25, 160
4317, 388.888888889, -23.75, 140
4318, 388.888888889, -23.75, 145
4319, 388.888888889, -10, 145
4320, 444.444444444, -23.75, 140
4321, 444.444444444, -23.75, 145
4322, 444.444444444, -10, 145
4323, 388.888888889, -5, 145
4324, 388.888888889, -5, 150
4325, 388.888888889, 0, 145
4326, 388.888888889, 0, 150
4327, 444.444444444, -5, 145
4328, 444.444444444, -5, 150
4329, 444.444444444, 0, 145
4330, 388.888888889, -5, 155
4331, 388.888888889, -5, 160
4332, 388.888888889, 0, 155
4333, 388.888888889, 0, 160
4334, 444.444444444, -5, 155
4335, 444.444444444, -5, 160
4336, 444.444444444, 0, 155
4337, 388.888888889, 5, 145
4338, 388.888888889, 5, 150
4339, 388.888888889, 10, 145
4340, 444.444444444, 5, 145
4341, 444.444444444, 5, 150
4342, 444.444444444, 10, 145
4343, 388.888888889, 5, 155
4344, 388.888888889, 5, 160
4345, 444.444444444, 5, 155
4346, 444.444444444, 5, 160
4347, 388.888888889, 23.75, 140
4348, 388.888888889, 23.75, 145
4349, 444.444444444, 23.75, 140
4350, 444.444444444, 23.75, 145
4351, 388.888888889, 51.25, 155
4352, 388.888888889, 51.25, 160
4353, 388.888888889, 65, 155
4354, 388.888888889, 65, 160
4355, 444.444444444, 51.25, 155
4356, 444.444444444, 51.25, 160
4357, 444.444444444, 65, 155
4358, 333.333333333, 78.75, 140
4359, 333.333333333, 78.75, 145
4360, 333.333333333, 92.5, 145
4361, 388.888888889, 78.75, 140
4362, 388.888888889, 78.75, 145
4363, 388.888888889, 78.75, 150
4364, 388.888888889, 92.5, 140
4365, 388.888888889, 92.5, 145
4366, 388.888888889, 92.5, 150
4367, 444.444444444, 78.75, 140
4368, 444.444444444, 78.75, 145
4369, 444.444444444, 78.75, 150
4370, 444.444444444, 92.5, 145
4371, 472.222222222, -10, 112
4372, 472.222222222, -10, 119
4373, 472.222222222, -10, 126
4374, 472.222222222, -7.5, 112
4375, 472.222222222, -7.5, 119
4376, 472.222222222, -7.5, 126
4377, 472.222222222, -5, 112
4378, 472.222222222, -5, 119
4379, 472.222222222, -5, 126
4380, 500, -10, 119
4381, 500, -7.5, 112
4382, 500, -7.5, 119
4383, 500, -7.5, 126
4384, 500, -5, 119
4385, 472.222222222, -2.5, 112
4386, 472.222222222, -2.5, 119
4387, 472.222222222, -2.5, 126
4388, 472.222222222, 0, 112
4389, 472.222222222, 0, 119
4390, 472.222222222, 0, 126
4391, 500, -2.5, 112
4392, 500, -2.5, 119
4393, 500, -2.5, 126
4394, 500, 0, 119
4395, 527.777777778, -10, 112
4396, 527.777777778, -10, 119
4397, 527.777777778, -10, 126
4398, 527.777777778, -7.5, 112
4399, 527.777777778, -7.5, 119
4400, 527.777777778, -7.5, 126
4401, 527.777777778, -5, 112
4402, 527.777777778, -5, 119
4403, 527.777777778, -5, 126
4404, 555.555555556, -10, 119
4405, 555.555555556, -7.5, 112
4406, 555.555555556, -7.5, 119
4407, 555.555555556, -7.5, 126
4408, 555.555555556, -5, 119
4409, 527.777777778, -2.5, 112
4410, 527.777777778, -2.5, 119
4411, 527.777777778, -2.5, 126
4412, 527.777777778, 0, 112
4413, 527.777777778, 0, 119
4414, 527.777777778, 0, 126
4415, 555.555555556, -2.5, 112
4416, 555.555555556, -2.5, 119
4417, 555.555555556, -2.5, 126
4418, 555.555555556, 0, 119
4419, 472.222222222, 2.5, 112
4420, 472.222222222, 2.5, 119
4421, 472.222222222, 2.5, 126
4422, 472.222222222, 5, 112
4423, 472.222222222, 5, 119
4424, 472.222222222, 5, 126
4425, 500, 2.5, 112
4426, 500, 2.5, 119
4427, 500, 2.5, 126
4428, 500, 5, 119
4429, 472.222222222, 7.5, 112
4430, 472.222222222, 7.5, 119
4431, 472.222222222, 7.5, 126
4432, 472.222222222, 10, 112
4433, 472.222222222, 10, 119
4434, 472.222222222, 10, 126
4435, 500, 7.5, 112
4436, 500, 7.5, 119
4437, 500, 7.5, 126
4438, 500, 10, 119
4439, 527.777777778, 2.5, 112
4440, 527.777777778, 2.5, 119
4441, 527.777777778, 2.5, 126
4442, 527.777777778, 5, 112
4443, 527.777777778, 5, 119
4444, 527.777777778, 5, 126
4445, 555.555555556, 2.5, 112
4446, 555.555555556, 2.5, 119
4447, 555.555555556, 2.5, 126
4448, 555.555555556, 5, 119
4449, 527.777777778, 7.5, 112
4450, 527.777777778, 7.5, 119
4451, 527.777777778, 7.5, 126
4452, 527.777777778, 10, 112
4453, 527.777777778, 10, 119
4454, 527.777777778, 10, 126
4455, 555.555555556, 7.5, 112
4456, 555.555555556, 7.5, 119
4457, 555.555555556, 7.5, 126
4458, 555.555555556, 10, 119
4459, 500, -37.5, 150
4460, 500, -37.5, 155
4461, 500, -37.5, 160
4462, 500, -23.75, 150
4463, 500, -23.75, 155
4464, 500, -23.75, 160
4465, 500, -10, 150
4466, 500, -10, 155
4467, 500, -10, 160
4468, 555.555555556, -37.5, 155
4469, 555.555555556, -23.75, 150
4470, 555.555555556, -23.75, 155
4471, 555.555555556, -23.75, 160
4472, 555.555555556, -10, 155
4473, 500, -10, 145
4474, 500, -5, 145
4475, 500, -5, 150
4476, 500, 0, 145
4477, 500, 0, 150
4478, 555.555555556, -10, 145
4479, 555.555555556, -5, 145
4480, 555.555555556, -5, 150
4481, 555.555555556, 0, 145
4482, 500, 5, 145
4483, 500, 5, 150
4484, 500, 10, 145
4485, 500, 10, 150
4486, 555.555555556, 5, 145
4487, 555.555555556, 5, 150
4488, 555.555555556, 10, 145
4489, 500, 10, 155
4490, 500, 10, 160
4491, 500, 23.75, 150
4492, 500, 23.75, 155
4493, 500, 23.75, 160
4494, 500, 37.5, 150
4495, 500, 37.5, 155
4496, 500, 37.5, 160
4497, 555.555555556, 10, 155
4498, 555.555555556, 23.75, 150
4499, 555.555555556, 23.75, 155
4500, 555.555555556, 23.75, 160
4501, 555.555555556, 37.5, 155
4502, 583.333333333, -10, 112
4503, 583.333333333, -10, 119
4504, 583.333333333, -10, 126
4505, 583.333333333, -7.5, 112
4506, 583.333333333, -7.5, 119
4507, 583.333333333, -7.5, 126
4508, 583.333333333, -5, 112
4509, 583.333333333, -5, 119
4510, 583.333333333, -5, 126
4511, 611.111111111, -10, 119
4512, 611.111111111, -7.5, 112
4513, 611.111111111, -7.5, 119
4514, 611.111111111, -7.5, 126
4515, 611.111111111, -5, 119
4516, 583.333333333, -2.5, 112
4517, 583.333333333, -2.5, 119
4518, 583.333333333, -2.5, 126
4519, 583.333333333, 0, 112
4520, 583.333333333, 0, 119
4521, 583.333333333, 0, 126
4522, 611.111111111, -2.5, 112
4523, 611.111111111, -2.5, 119
4524, 611.111111111, -2.5, 126
4525, 611.111111111, 0, 119
4526, 638.888888889, -10, 112
4527, 638.888888889, -10, 119
4528, 638.888888889, -10, 126
4529, 638.888888889, -7.5, 112
4530, 638.888888889, -7.5, 119
4531, 638.888888889, -7.5, 126
4532, 638.888888889, -5, 112
4533, 638.888888889, -5, 119
4534, 638.888888889, -5, 126
4535, 666.666666667, -10, 119
4536, 666.666666667, -7.5, 112
4537, 666.666666667, -7.5, 119
4538, 666.666666667, -7.5, 126
4539, 666.666666667, -5, 119
4540, 638.888888889, -2.5, 112
4541, 638.888888889, -2.5, 119
4542, 638.888888889, -2.5, 126
4543, 638.888888889, 0, 112
4544, 638.888888889, 0, 119
4545, 638.888888889, 0, 126
4546, 666.666666667, -2.5, 112
4547, 666.666666667, -2.5, 119
4548, 666.666666667, -2.5, 126
4549, 666.666666667, 0, 119
4550, 583.333333333, 2.5, 112
4551, 583.333333333, 2.5, 119
4552, 583.333333333, 2.5, 126
4553, 583.333333333, 5, 112
4554, 583.333333333, 5, 119
4555, 583.333333333, 5, 126
4556, 611.111111111, 2.5, 112
4557, 611.111111111, 2.5, 119
4558, 611.111111111, 2.5, 126
4559, 611.111111111, 5, 119
4560, 583.333333333, 7.5, 112
4561, 583.333333333, 7.5, 119
4562, 583.333333333, 7.5, 126
4563, 583.333333333, 10, 112
4564, 583.333333333, 10, 119
4565, 583.333333333, 10, 126
4566, 611.111111111, 7.5, 112
4567, 611.111111111, 7.5, 119
4568, 611.111111111, 7.5, 126
4569, 611.111111111, 10, 119
4570, 638.888888889, 2.5, 112
4571, 638.888888889, 2.5, 119
4572, 638.888888889, 2.5, 126
4573, 638.888888889, 5, 112
4574, 638.888888889, 5, 119
4575, 638.888888889, 5, 126
4576, 666.666666667, 2.5, 112
4577, 666.666666667, 2.5, 119
4578, 666.666666667, 2.5, 126
4579, 666.666666667, 5, 119
4580, 638.888888889, 7.5, 112
4581, 638.888888889, 7.5, 119
4582, 638.888888889, 7.5, 126
4583, 638.888888889, 10, 112
4584, 638.888888889, 10, 119
4585, 638.888888889, 10, 126
4586, 666.666666667, 7.5, 112
4587, 666.666666667, 7.5, 119
4588, 666.666666667, 7.5, 126
4589, 666.666666667, 10, 119
4590, 611.111111111, -10, 145
4591, 611.111111111, -10, 150
4592, 611.111111111, -5, 145
4593, 611.111111111, -5, 150
4594, 611.111111111, 0, 145
4595, 611.111111111, 0, 150
4596, 666.666666667, -10, 145
4597, 666.666666667, -5, 145
4598, 666.666666667, -5, 150
4599, 666.666666667, 0, 145
4600, 611.111111111, 5, 145
4601, 611.111111111, 5, 150
4602, 611.111111111, 10, 145
4603, 611.111111111, 10, 150
4604, 666.666666667, 5, 145
4605, 666.666666667, 5, 150
4606, 666.666666667, 10, 145
4607, 694.444444444, -10, 112
4608, 694.444444444, -10, 119
4609, 694.444444444, -10, 126
4610, 694.444444444, -7.5, 112
4611, 694.444444444, -7.5, 119
4612, 694.444444444, -7.5, 126
4613, 694.444444444, -5, 112
4614, 694.444444444, -5, 119
4615, 694.444444444, -5, 126
4616, 722.222222222, -10, 119
4617, 722.222222222, -7.5, 112
4618, 722.222222222, -7.5, 119
4619, 722.222222222, -7.5, 126
4620, 722.222222222, -5, 119
4621, 694.444444444, -2.5, 112
4622, 694.444444444, -2.5, 119
4623, 694.444444444, -2.5, 126
4624, 694.444444444, 0, 112
4625, 694.444444444, 0, 119
4626, 694.444444444, 0, 126
4627, 722.222222222, -2.5, 112
4628, 722.222222222, -2.5, 119
4629, 722.222222222, -2.5, 126
4630, 722.222222222, 0, 119
4631, 694.444444444, 2.5, 112
4632, 694.444444444, 2.5, 119
4633, 694.444444444, 2.5, 126
4634, 694.444444444, 5, 112
4635, 694.444444444, 5, 119
4636, 694.444444444, 5, 126
4637, 722.222222222, 2.5, 112
4638, 722.222222222, 2.5, 119
4639, 722.222222222, 2.5, 126
4640, 722.222222222, 5, 119
4641, 694.444444444, 7.5, 112
4642, 694.444444444, 7.5, 119
4643, 694.444444444, 7.5, 126
4644, 694.444444444, 10, 112
4645, 694.444444444, 10, 119
4646, 694.444444444, 10, 126
4647, 722.222222222, 7.5, 112
4648, 722.222222222, 7.5, 119
4649, 722.222222222, 7.5, 126
4650, 722.222222222, 10, 119
4651, 722.222222222, -10, 145
4652, 722.222222222, -10, 150
4653, 722.222222222, -5, 145
4654, 722.222222222, -5, 150
4655, 722.222222222, 0, 145
4656, 722.222222222, 0, 150
4657, 777.777777778, -10, 145
4658, 777.777777778, -5, 145
4659, 777.777777778, -5, 150
4660, 777.777777778, 0, 145
4661, 722.222222222, 5, 145
4662, 722.222222222, 5, 150
4663, 722.222222222, 10, 145
4664, 722.222222222, 10, 150
4665, 777.777777778, 5, 145
4666, 777.777777778, 5, 150
4667, 777.777777778, 10, 145
4668, 833.333333333, -10, 98
4669, 833.333333333, -10, 112
4670, 833.333333333, -5, 98
4671, 833.333333333, -5, 112
4672, 833.333333333, 0, 98
4673, 833.333333333, 0, 112
4674, 888.888888889, -10, 98
4675, 888.888888889, -5, 98
4676, 888.888888889, -5, 112
4677, 888.888888889, 0, 98
4678, 833.333333333, -10, 126
4679, 833.333333333, -10, 140
4680, 833.333333333, -5, 126
4681, 833.333333333, -5, 140
4682, 833.333333333, 0, 126
4683, 833.333333333, 0, 140
4684, 888.888888889, -10, 126
4685, 888.888888889, -5, 126
4686, 888.888888889, -5, 140
4687, 888.888888889, 0, 126
4688, 833.333333333, 5, 98
4689, 833.333333333, 5, 112
4690, 833.333333333, 10, 98
4691, 833.333333333, 10, 112
4692, 888.888888889, 5, 98
4693, 888.888888889, 5, 112
4694, 888.888888889, 10, 98
4695, 833.333333333, 5, 126
4696, 833.333333333, 5, 140
4697, 833.333333333, 10, 126
4698, 833.333333333, 10, 140
4699, 888.888888889, 5, 126
4700, 888.888888889, 5, 140
4701, 888.888888889, 10, 126
4702, 944.444444444, -10, 98
4703, 944.444444444, -10, 112
4704, 944.444444444, -5, 98
4705, 944.444444444, -5, 112
4706, 944.444444444, 0, 98
4707, 944.444444444, 0, 112
4708, 1000, -10, 98
4709, 1000, -5, 98
4710, 1000, -5, 112
4711, 1000, 0, 98
4712, 944.444444444, -10, 126
4713, 944.444444444, -10, 140
4714, 944.444444444, -5, 126
4715, 944.444444444, -5, 140
4716, 944.444444444, 0, 126
4717, 944.444444444, 0, 140
4718, 1000, -10, 126
4719, 1000, -5, 126
4720, 1000, -5, 140
4721, 1000, 0, 126
4722, 944.444444444, 5, 98
4723, 944.444444444, 5, 112
4724, 944.444444444, 10, 98
4725, 944.444444444, 10, 112
4726, 1000, 5, 98
4727, 1000, 5, 112
4728, 1000, 10, 98
4729, 944.444444444, 5, 126
4730, 944.444444444, 5, 140
4731, 944.444444444, 10, 126
4732, 944.444444444, 10, 140
4733, 1000, 5, 126
4734, 1000, 5, 140
4735, 1000, 10, 126
4736, 1055.55555556, -10, 70
4737, 1055.55555556, -10, 84
4738, 1055.55555556, -5, 70
4739, 1055.55555556, -5, 84
4740, 1055.55555556, 0, 70
4741, 1055.55555556, 0, 84
4742, 1111.11111111, -10, 70
4743, 1111.11111111, -5, 70
4744, 1111.11111111, -5, 84
4745, 1111.11111111, 0, 70
4746, 1055.55555556, 5, 70
4747, 1055.55555556, 5, 84
4748, 1055.55555556, 10, 70
4749, 1055.55555556, 10, 84
4750, 1111.11111111, 5, 70
4751, 1111.11111111, 5, 84
4752, 1111.11111111, 10, 70
4753, 1166.66666667, -10, 42
4754, 1166.66666667, -10, 56
4755, 1166.66666667, -5, 42
4756, 1166.66666667, -5, 56
4757, 1166.66666667, 0, 42
4758, 1166.66666667, 0, 56
4759, 1222.22222222, -10, 42
4760, 1222.22222222, -5, 42
4761, 1222.22222222, -5, 56
4762, 1222.22222222, 0, 42
4763, 1166.66666667, 5, 42
4764, 1166.66666667, 5, 56
4765, 1166.66666667, 10, 42
4766, 1166.66666667, 10, 56
4767, 1222.22222222, 5, 42
4768, 1222.22222222, 5, 56
4769, 1222.22222222, 10, 42
4770, 1277.77777778, -10, 42
4771, 1277.77777778, -10, 56
4772, 1277.77777778, -5, 42
4773, 1277.77777778, -5, 56
4774, 1277.77777778, 0, 42
4775, 1277.77777778, 0, 56
4776, 1333.33333333, -10, 42
4777, 1333.33333333, -5, 42
4778, 1333.33333333, -5, 56
4779, 1333.33333333, 0, 42
4780, 1277.77777778, 5, 42
4781, 1277.77777778, 5, 56
4782, 1277.77777778, 10, 42
4783, 1277.77777778, 10, 56
4784, 1333.33333333, 5, 42
4785, 1333.33333333, 5, 56
4786, 1333.33333333, 10, 42
4787, 1500, -10, 0
4788, 1500, -10, 14
4789, 1500, -10, 28
4790, 1500, -5, 0
4791, 1500, -5, 14
4792, 1500, -5, 28
4793, 1500, 0, 0
4794, 1500, 0, 14
4795, 1500, 0, 28
4796, 1555.55555556, -10, 14
4797, 1555.55555556, -5, 0
4798, 1555.55555556, -5, 14
4799, 1555.55555556, -5, 28
4800, 1555.55555556, 0, 14
4801, 1500, 5, 0
4802, 1500, 5, 14
4803, 1500, 5, 28
4804, 1500, 10, 0
4805, 1500, 10, 14
4806, 1500, 10, 28
4807, 1555.55555556, 5, 0
4808, 1555.55555556, 5, 14
4809, 1555.55555556, 5, 28
4810, 1555.55555556, 10, 14
4811, 27.7777777778, -10, 3.5
4812, 27.7777777778, -8.75, 0
4813, 27.7777777778, -8.75, 3.5
4814, 27.7777777778, -8.75, 7
4815, 27.7777777778, -7.5, 3.5
4816, 41.6666666667, -10, 0
4817, 41.6666666667, -10, 3.5
4818, 41.6666666667, -10, 7
4819, 41.6666666667, -8.75, 0
4820, 41.6666666667, -8.75, 3.5
4821, 41.6666666667, -8.75, 7
4822, 41.6666666667, -7.5, 0
4823, 41.6666666667, -7.5, 3.5
4824, 41.6666666667, -7.5, 7
4825, 55.5555555556, -10, 3.5
4826, 55.5555555556, -8.75, 0
4827, 55.5555555556, -8.75, 3.5
4828, 55.5555555556, -8.75, 7
4829, 55.5555555556, -7.5, 3.5
4830, 27.7777777778, -6.25, 0
4831, 27.7777777778, -6.25, 3.5
4832, 27.7777777778, -6.25, 7
4833, 27.7777777778, -5, 3.5
4834, 41.6666666667, -6.25, 0
4835, 41.6666666667, -6.25, 3.5
4836, 41.6666666667, -6.25, 7
4837, 41.6666666667, -5, 0
4838, 41.6666666667, -5, 3.5
4839, 41.6666666667, -5, 7
4840, 55.5555555556, -6.25, 0
4841, 55.5555555556, -6.25, 3.5
4842, 55.5555555556, -6.25, 7
4843, 55.5555555556, -5, 3.5
4844, 27.7777777778, -3.75, 0
4845, 27.7777777778, -3.75, 3.5
4846, 27.7777777778, -3.75, 7
4847, 27.7777777778, -2.5, 3.5
4848, 41.6666666667, -3.75, 0
4849, 41.6666666667, -3.75, 3.5
4850, 41.6666666667, -3.75, 7
4851, 41.6666666667, -2.5, 0
4852, 41.6666666667, -2.5, 3.5
4853, 41.6666666667, -2.5, 7
4854, 55.5555555556, -3.75, 0
4855, 55.5555555556, -3.75, 3.5
4856, 55.5555555556, -3.75, 7
4857, 55.5555555556, -2.5, 3.5
4858, 27.7777777778, -1.25, 0
4859, 27.7777777778, -1.25, 3.5
4860, 27.7777777778, -1.25, 7
4861, 27.7777777778, 0, 3.5
4862, 41.6666666667, -1.25, 0
4863, 41.6666666667, -1.25, 3.5
4864, 41.6666666667, -1.25, 7
4865, 41.6666666667, 0, 0
4866, 41.6666666667, 0, 3.5
4867, 41.6666666667, 0, 7
4868, 55.5555555556, -1.25, 0
4869, 55.5555555556, -1.25, 3.5
4870, 55.5555555556, -1.25, 7
4871, 55.5555555556, 0, 3.5
4872, 55.5555555556, -10, 119
4873, 55.5555555556, -7.5, 112
4874, 55.5555555556, -7.5, 119
4875, 83.3333333333, -10, 112
4876, 83.3333333333, -10, 119
4877, 83.3333333333, -7.5, 112
4878, 83.3333333333, -7.5, 119
4879, 27.7777777778, 1.25, 0
4880, 27.7777777778, 1.25, 3.5
4881, 27.7777777778, 1.25, 7
4882, 27.7777777778, 2.5, 3.5
4883, 41.6666666667, 1.25, 0
4884, 41.6666666667, 1.25, 3.5
4885, 41.6666666667, 1.25, 7
4886, 41.6666666667, 2.5, 0
4887, 41.6666666667, 2.5, 3.5
4888, 41.6666666667, 2.5, 7
4889, 55.5555555556, 1.25, 0
4890, 55.5555555556, 1.25, 3.5
4891, 55.5555555556, 1.25, 7
4892, 55.5555555556, 2.5, 3.5
4893, 27.7777777778, 3.75, 0
4894, 27.7777777778, 3.75, 3.5
4895, 27.7777777778, 3.75, 7
4896, 27.7777777778, 5, 3.5
4897, 41.6666666667, 3.75, 0
4898, 41.6666666667, 3.75, 3.5
4899, 41.6666666667, 3.75, 7
4900, 41.6666666667, 5, 0
4901, 41.6666666667, 5, 3.5
4902, 41.6666666667, 5, 7
4903, 55.5555555556, 3.75, 0
4904, 55.5555555556, 3.75, 3.5
4905, 55.5555555556, 3.75, 7
4906, 55.5555555556, 5, 3.5
4907, 27.7777777778, 6.25, 0
4908, 27.7777777778, 6.25, 3.5
4909, 27.7777777778, 6.25, 7
4910, 27.7777777778, 7.5, 3.5
4911, 41.6666666667, 6.25, 0
4912, 41.6666666667, 6.25, 3.5
4913, 41.6666666667, 6.25, 7
4914, 41.6666666667, 7.5, 0
4915, 41.6666666667, 7.5, 3.5
4916, 41.6666666667, 7.5, 7
4917, 55.5555555556, 6.25, 0
4918, 55.5555555556, 6.25, 3.5
4919, 55.5555555556, 6.25, 7
4920, 55.5555555556, 7.5, 3.5
4921, 27.7777777778, 8.75, 0
4922, 27.7777777778, 8.75, 3.5
4923, 27.7777777778, 8.75, 7
4924, 27.7777777778, 10, 3.5
4925, 41.6666666667, 8.75, 0
4926, 41.6666666667, 8.75, 3.5
4927, 41.6666666667, 8.75, 7
4928, 41.6666666667, 10, 0
4929, 41.6666666667, 10, 3.5
4930, 41.6666666667, 10, 7
4931, 55.5555555556, 8.75, 0
4932, 55.5555555556, 8.75, 3.5
4933, 55.5555555556, 8.75, 7
4934, 55.5555555556, 10, 3.5
4935, 0, -92.5, 145
4936, 0, -78.75, 140
4937, 0, -78.75, 145
4938, 0, -78.75, 150
4939, 0, -65, 145
4940, 55.5555555556, -92.5, 140
4941, 55.5555555556, -92.5, 145
4942, 55.5555555556, -92.5, 150
4943, 55.5555555556, -78.75, 140
4944, 55.5555555556, -78.75, 145
4945, 55.5555555556, -78.75, 150
4946, 55.5555555556, -65, 140
4947, 55.5555555556, -65, 145
4948, 55.5555555556, -65, 150
4949, 0, -51.25, 140
4950, 0, -51.25, 145
4951, 0, -51.25, 150
4952, 55.5555555556, -51.25, 140
4953, 55.5555555556, -51.25, 145
4954, 55.5555555556, -51.25, 150
4955, 0, -23.75, 142.5
4956, 0, -16.875, 140
4957, 0, -16.875, 142.5
4958, 0, -16.875, 145
4959, 0, -10, 142.5
4960, 27.7777777778, -23.75, 140
4961, 27.7777777778, -23.75, 142.5
4962, 27.7777777778, -23.75, 145
4963, 27.7777777778, -16.875, 140
4964, 27.7777777778, -16.875, 142.5
4965, 27.7777777778, -16.875, 145
4966, 27.7777777778, -10, 142.5
4967, 27.7777777778, -10, 145
4968, 55.5555555556, -23.75, 142.5
4969, 55.5555555556, -16.875, 140
4970, 55.5555555556, -16.875, 142.5
4971, 55.5555555556, -16.875, 145
4972, 55.5555555556, -10, 142.5
4973, 83.3333333333, -23.75, 140
4974, 83.3333333333, -23.75, 142.5
4975, 83.3333333333, -23.75, 145
4976, 83.3333333333, -16.875, 140
4977, 83.3333333333, -16.875, 142.5
4978, 83.3333333333, -16.875, 145
4979, 83.3333333333, -10, 142.5
4980, 83.3333333333, -10, 145
4981, 0, -37.5, 155
4982, 0, -23.75, 155
4983, 0, -23.75, 160
4984, 55.5555555556, -37.5, 155
4985, 55.5555555556, -37.5, 160
4986, 55.5555555556, -23.75, 155
4987, 55.5555555556, -23.75, 160
4988, 0, -10, 147.5
4989, 0, -7.5, 145
4990, 0, -7.5, 147.5
4991, 0, -7.5, 150
4992, 0, -5, 147.5
4993, 27.7777777778, -10, 147.5
4994, 27.7777777778, -10, 150
4995, 27.7777777778, -7.5, 145
4996, 27.7777777778, -7.5, 147.5
4997, 27.7777777778, -7.5, 150
4998, 27.7777777778, -5, 145
4999, 27.7777777778, -5, 147.5
5000, 27.7777777778, -5, 150
5001, 55.5555555556, -10, 147.5
5002, 55.5555555556, -7.5, 145
5003, 55.5555555556, -7.5, 147.5
5004, 55.5555555556, -7.5, 150
5005, 55.5555555556, -5, 147.5
5006, 55.5555555556, -7.5, 142.5
5007, 83.3333333333, -7.5, 142.5
5008, 83.3333333333, -7.5, 145
5009, 111.111111111, -7.5, 142.5
5010, 111.111111111, -7.5, 145
5011, 83.3333333333, -10, 147.5
5012, 83.3333333333, -10, 150
5013, 83.3333333333, -7.5, 147.5
5014, 83.3333333333, -7.5, 150
5015, 83.3333333333, -5, 147.5
5016, 83.3333333333, -5, 150
5017, 111.111111111, -10, 147.5
5018, 111.111111111, -7.5, 147.5
5019, 111.111111111, -7.5, 150
5020, 111.111111111, -5, 147.5
5021, 55.5555555556, -2.5, 147.5
5022, 55.5555555556, -2.5, 150
5023, 55.5555555556, 0, 147.5
5024, 83.3333333333, -2.5, 147.5
5025, 83.3333333333, -2.5, 150
5026, 83.3333333333, 0, 147.5
5027, 83.3333333333, 0, 150
5028, 111.111111111, -2.5, 147.5
5029, 111.111111111, -2.5, 150
5030, 111.111111111, 0, 147.5
5031, 55.5555555556, -5, 152.5
5032, 55.5555555556, -2.5, 152.5
5033, 55.5555555556, -2.5, 155
5034, 55.5555555556, 0, 152.5
5035, 83.3333333333, -5, 152.5
5036, 83.3333333333, -5, 155
5037, 83.3333333333, -2.5, 152.5
5038, 83.3333333333, -2.5, 155
5039, 83.3333333333, 0, 152.5
5040, 83.3333333333, 0, 155
5041, 111.111111111, -5, 152.5
5042, 111.111111111, -2.5, 152.5
5043, 111.111111111, -2.5, 155
5044, 111.111111111, 0, 152.5
5045, 55.5555555556, -5, 157.5
5046, 55.5555555556, -2.5, 157.5
5047, 55.5555555556, -2.5, 160
5048, 55.5555555556, 0, 157.5
5049, 83.3333333333, -5, 157.5
5050, 83.3333333333, -5, 160
5051, 83.3333333333, -2.5, 157.5
5052, 83.3333333333, -2.5, 160
5053, 83.3333333333, 0, 157.5
5054, 83.3333333333, 0, 160
5055, 111.111111111, -5, 157.5
5056, 111.111111111, -2.5, 157.5
5057, 111.111111111, -2.5, 160
5058, 111.111111111, 0, 157.5
5059, 0, 5, 147.5
5060, 0, 7.5, 145
5061, 0, 7.5, 147.5
5062, 0, 7.5, 150
5063, 0, 10, 147.5
5064, 27.7777777778, 5, 145
5065, 27.7777777778, 5, 147.5
5066, 27.7777777778, 5, 150
5067, 27.7777777778, 7.5, 145
5068, 27.7777777778, 7.5, 147.5
5069, 27.7777777778, 7.5, 150
5070, 27.7777777778, 10, 145
5071, 27.7777777778, 10, 147.5
5072, 27.7777777778, 10, 150
5073, 55.5555555556, 5, 147.5
5074, 55.5555555556, 7.5, 145
5075, 55.5555555556, 7.5, 147.5
5076, 55.5555555556, 7.5, 150
5077, 55.5555555556, 10, 147.5
5078, 55.5555555556, 2.5, 147.5
5079, 55.5555555556, 2.5, 150
5080, 83.3333333333, 2.5, 147.5
5081, 83.3333333333, 2.5, 150
5082, 83.3333333333, 5, 147.5
5083, 83.3333333333, 5, 150
5084, 111.111111111, 2.5, 147.5
5085, 111.111111111, 2.5, 150
5086, 111.111111111, 5, 147.5
5087, 55.5555555556, 7.5, 142.5
5088, 55.5555555556, 10, 142.5
5089, 83.3333333333, 7.5, 142.5
5090, 83.3333333333, 7.5, 145
5091, 83.3333333333, 10, 142.5
5092, 83.3333333333, 10, 145
5093, 111.111111111, 7.5, 142.5
5094, 111.111111111, 7.5, 145
5095, 111.111111111, 10, 142.5
5096, 83.3333333333, 7.5, 147.5
5097, 83.3333333333, 7.5, 150
5098, 83.3333333333, 10, 147.5
5099, 83.3333333333, 10, 150
5100, 111.111111111, 7.5, 147.5
5101, 111.111111111, 7.5, 150
5102, 111.111111111, 10, 147.5
5103, 55.5555555556, 2.5, 152.5
5104, 55.5555555556, 2.5, 155
5105, 55.5555555556, 5, 152.5
5106, 83.3333333333, 2.5, 152.5
5107, 83.3333333333, 2.5, 155
5108, 83.3333333333, 5, 152.5
5109, 83.3333333333, 5, 155
5110, 111.111111111, 2.5, 152.5
5111, 111.111111111, 2.5, 155
5112, 111.111111111, 5, 152.5
5113, 55.5555555556, 2.5, 157.5
5114, 55.5555555556, 2.5, 160
5115, 55.5555555556, 5, 157.5
5116, 83.3333333333, 2.5, 157.5
5117, 83.3333333333, 2.5, 160
5118, 83.3333333333, 5, 157.5
5119, 83.3333333333, 5, 160
5120, 111.111111111, 2.5, 157.5
5121, 111.111111111, 2.5, 160
5122, 111.111111111, 5, 157.5
5123, 0, 10, 142.5
5124, 0, 16.875, 140
5125, 0, 16.875, 142.5
5126, 0, 16.875, 145
5127, 0, 23.75, 142.5
5128, 27.7777777778, 10, 142.5
5129, 27.7777777778, 16.875, 140
5130, 27.7777777778, 16.875, 142.5
5131, 27.7777777778, 16.875, 145
5132, 27.7777777778, 23.75, 140
5133, 27.7777777778, 23.75, 142.5
5134, 27.7777777778, 23.75, 145
5135, 55.5555555556, 16.875, 140
5136, 55.5555555556, 16.875, 142.5
5137, 55.5555555556, 16.875, 145
5138, 55.5555555556, 23.75, 142.5
5139, 83.3333333333, 16.875, 140
5140, 83.3333333333, 16.875, 142.5
5141, 83.3333333333, 16.875, 145
5142, 83.3333333333, 23.75, 140
5143, 83.3333333333, 23.75, 142.5
5144, 83.3333333333, 23.75, 145
5145, 111.111111111, 16.875, 140
5146, 111.111111111, 16.875, 142.5
5147, 111.111111111, 16.875, 145
5148, 111.111111111, 23.75, 142.5
5149, 0, 23.75, 155
5150, 0, 23.75, 160
5151, 0, 37.5, 155
5152, 55.5555555556, 23.75, 155
5153, 55.5555555556, 23.75, 160
5154, 55.5555555556, 37.5, 155
5155, 55.5555555556, 37.5, 160
5156, 0, 51.25, 140
5157, 0, 51.25, 145
5158, 0, 51.25, 150
5159, 0, 65, 145
5160, 55.5555555556, 51.25, 140
5161, 55.5555555556, 51.25, 145
5162, 55.5555555556, 51.25, 150
5163, 55.5555555556, 65, 140
5164, 55.5555555556, 65, 145
5165, 55.5555555556, 65, 150
5166, 0, 78.75, 140
5167, 0, 78.75, 145
5168, 0, 78.75, 150
5169, 0, 92.5, 145
5170, 55.5555555556, 78.75, 140
5171, 55.5555555556, 78.75, 145
5172, 55.5555555556, 78.75, 150
5173, 55.5555555556, 92.5, 140
5174, 55.5555555556, 92.5, 145
5175, 55.5555555556, 92.5, 150
5176, 111.111111111, -120, 142.5
5177, 111.111111111, -113.125, 140
5178, 111.111111111, -113.125, 142.5
5179, 111.111111111, -113.125, 145
5180, 111.111111111, -106.25, 142.5
5181, 138.888888889, -120, 140
5182, 138.888888889, -120, 142.5
5183, 138.888888889, -120, 145
5184, 138.888888889, -113.125, 140
5185, 138.888888889, -113.125, 142.5
5186, 138.888888889, -113.125, 145
5187, 138.888888889, -106.25, 140
5188, 138.888888889, -106.25, 142.5
5189, 138.888888889, -106.25, 145
5190, 166.666666667, -120, 142.5
5191, 166.666666667, -113.125, 140
5192, 166.666666667, -113.125, 142.5
5193, 166.666666667, -113.125, 145
5194, 166.666666667, -106.25, 142.5
5195, 166.666666667, -85.625, 155
5196, 166.666666667, -85.625, 157.5
5197, 166.666666667, -85.625, 160
5198, 166.666666667, -78.75, 157.5
5199, 194.444444444, -92.5, 155
5200, 194.444444444, -92.5, 157.5
5201, 194.444444444, -92.5, 160
5202, 194.444444444, -85.625, 155
5203, 194.444444444, -85.625, 157.5
5204, 194.444444444, -85.625, 160
5205, 194.444444444, -78.75, 155
5206, 194.444444444, -78.75, 157.5
5207, 194.444444444, -78.75, 160
5208, 222.222222222, -92.5, 157.5
5209, 222.222222222, -85.625, 155
5210, 222.222222222, -85.625, 157.5
5211, 222.222222222, -85.625, 160
5212, 222.222222222, -78.75, 157.5
5213, 166.666666667, -71.875, 155
5214, 166.666666667, -71.875, 157.5
5215, 166.666666667, -71.875, 160
5216, 166.666666667, -65, 157.5
5217, 194.444444444, -71.875, 155
5218, 194.444444444, -71.875, 157.5
5219, 194.444444444, -71.875, 160
5220, 194.444444444, -65, 155
5221, 194.444444444, -65, 157.5
5222, 194.444444444, -65, 160
5223, 222.222222222, -71.875, 155
5224, 222.222222222, -71.875, 157.5
5225, 222.222222222, -71.875, 160
5226, 222.222222222, -65, 157.5
5227, 111.111111111, -37.5, 142.5
5228, 111.111111111, -30.625, 140
5229, 111.111111111, -30.625, 142.5
5230, 111.111111111, -30.625, 145
5231, 138.888888889, -37.5, 140
5232, 138.888888889, -37.5, 142.5
5233, 138.888888889, -37.5, 145
5234, 138.888888889, -30.625, 140
5235, 138.888888889, -30.625, 142.5
5236, 138.888888889, -30.625, 145
5237, 166.666666667, -37.5, 142.5
5238, 166.666666667, -30.625, 140
5239, 166.666666667, -30.625, 142.5
5240, 166.666666667, -30.625, 145
5241, 111.111111111, -23.75, 147.5
5242, 111.111111111, -16.875, 147.5
5243, 111.111111111, -16.875, 150
5244, 138.888888889, -23.75, 147.5
5245, 138.888888889, -23.75, 150
5246, 138.888888889, -16.875, 147.5
5247, 138.888888889, -16.875, 150
5248, 138.888888889, -10, 147.5
5249, 138.888888889, -10, 150
5250, 166.666666667, -23.75, 147.5
5251, 166.666666667, -16.875, 147.5
5252, 166.666666667, -16.875, 150
5253, 166.666666667, -10, 147.5
5254, 111.111111111, 7.5, 155
5255, 111.111111111, 7.5, 157.5
5256, 111.111111111, 7.5, 160
5257, 138.888888889, 5, 155
5258, 138.888888889, 5, 157.5
5259, 138.888888889, 5, 160
5260, 138.888888889, 7.5, 155
5261, 138.888888889, 7.5, 157.5
5262, 138.888888889, 7.5, 160
5263, 166.666666667, 5, 157.5
5264, 166.666666667, 7.5, 155
5265, 166.666666667, 7.5, 157.5
5266, 166.666666667, 7.5, 160
5267, 138.888888889, 10, 142.5
5268, 138.888888889, 10, 145
5269, 138.888888889, 16.875, 140
5270, 138.888888889, 16.875, 142.5
5271, 138.888888889, 16.875, 145
5272, 138.888888889, 23.75, 140
5273, 138.888888889, 23.75, 142.5
5274, 138.888888889, 23.75, 145
5275, 166.666666667, 10, 142.5
5276, 166.666666667, 16.875, 140
5277, 166.666666667, 16.875, 142.5
5278, 166.666666667, 16.875, 145
5279, 166.666666667, 23.75, 142.5
5280, 111.111111111, 16.875, 147.5
5281, 111.111111111, 23.75, 147.5
5282, 138.888888889, 10, 147.5
5283, 138.888888889, 16.875, 147.5
5284, 138.888888889, 23.75, 147.5
5285, 166.666666667, 10, 147.5
5286, 166.666666667, 16.875, 147.5
5287, 166.666666667, 23.75, 147.5
5288, 111.111111111, 30.625, 140
5289, 111.111111111, 30.625, 142.5
5290, 111.111111111, 30.625, 145
5291, 111.111111111, 37.5, 142.5
5292, 138.888888889, 30.625, 140
5293, 138.888888889, 30.625, 142.5
5294, 138.888888889, 30.625, 145
5295, 138.888888889, 37.5, 140
5296, 138.888888889, 37.5, 142.5
5297, 138.888888889, 37.5, 145
5298, 166.666666667, 30.625, 140
5299, 166.666666667, 30.625, 142.5
5300, 166.666666667, 30.625, 145
5301, 166.666666667, 37.5, 142.5
5302, 111.111111111, 30.625, 155
5303, 111.111111111, 30.625, 157.5
5304, 111.111111111, 30.625, 160
5305, 111.111111111, 37.5, 157.5
5306, 138.888888889, 30.625, 155
5307, 138.888888889, 30.625, 157.5
5308, 138.888888889, 30.625, 160
5309, 138.888888889, 37.5, 155
5310, 138.888888889, 37.5, 157.5
5311, 138.888888889, 37.5, 160
5312, 166.666666667, 65, 157.5
5313, 166.666666667, 71.875, 155
5314, 166.666666667, 71.875, 157.5
5315, 166.666666667, 71.875, 160
5316, 166.666666667, 78.75, 157.5
5317, 194.444444444, 65, 155
5318, 194.444444444, 65, 157.5
5319, 194.444444444, 65, 160
5320, 194.444444444, 71.875, 155
5321, 194.444444444, 71.875, 157.5
5322, 194.444444444, 71.875, 160
5323, 194.444444444, 78.75, 155
5324, 194.444444444, 78.75, 157.5
5325, 194.444444444, 78.75, 160
5326, 222.222222222, 65, 157.5
5327, 222.222222222, 71.875, 155
5328, 222.222222222, 71.875, 157.5
5329, 222.222222222, 71.875, 160
5330, 222.222222222, 78.75, 157.5
5331, 166.666666667, 85.625, 155
5332, 166.666666667, 85.625, 157.5
5333, 166.666666667, 85.625, 160
5334, 194.444444444, 85.625, 155
5335, 194.444444444, 85.625, 157.5
5336, 194.444444444, 85.625, 160
5337, 194.444444444, 92.5, 155
5338, 194.444444444, 92.5, 157.5
5339, 194.444444444, 92.5, 160
5340, 222.222222222, 85.625, 155
5341, 222.222222222, 85.625, 157.5
5342, 222.222222222, 85.625, 160
5343, 222.222222222, 92.5, 157.5
5344, 111.111111111, 106.25, 142.5
5345, 111.111111111, 113.125, 140
5346, 111.111111111, 113.125, 142.5
5347, 111.111111111, 113.125, 145
5348, 111.111111111, 120, 142.5
5349, 138.888888889, 106.25, 140
5350, 138.888888889, 106.25, 142.5
5351, 138.888888889, 106.25, 145
5352, 138.888888889, 113.125, 140
5353, 138.888888889, 113.125, 142.5
5354, 138.888888889, 113.125, 145
5355, 138.888888889, 120, 140
5356, 138.888888889, 120, 142.5
5357, 138.888888889, 120, 145
5358, 166.666666667, 106.25, 142.5
5359, 166.666666667, 113.125, 140
5360, 166.666666667, 113.125, 142.5
5361, 166.666666667, 113.125, 145
5362, 166.666666667, 120, 142.5
5363, 277.777777778, -120, 150
5364, 277.777777778, -120, 155
5365, 277.777777778, -120, 160
5366, 277.777777778, -106.25, 150
5367, 277.777777778, -106.25, 155
5368, 277.777777778, -106.25, 160
5369, 333.333333333, -120, 155
5370, 333.333333333, -106.25, 150
5371, 333.333333333, -106.25, 155
5372, 333.333333333, -106.25, 160
5373, 277.777777778, -92.5, 140
5374, 277.777777778, -92.5, 145
5375, 277.777777778, -78.75, 140
5376, 277.777777778, -78.75, 145
5377, 250, -78.75, 155
5378, 250, -78.75, 157.5
5379, 250, -78.75, 160
5380, 250, -71.875, 155
5381, 250, -71.875, 157.5
5382, 250, -71.875, 160
5383, 250, -65, 155
5384, 250, -65, 157.5
5385, 250, -65, 160
5386, 277.777777778, -78.75, 157.5
5387, 277.777777778, -71.875, 155
5388, 277.777777778, -71.875, 157.5
5389, 277.777777778, -71.875, 160
5390, 277.777777778, -65, 157.5
5391, 305.555555556, -78.75, 155
5392, 305.555555556, -78.75, 157.5
5393, 305.555555556, -78.75, 160
5394, 305.555555556, -71.875, 155
5395, 305.555555556, -71.875, 157.5
5396, 305.555555556, -71.875, 160
5397, 305.555555556, -65, 155
5398, 305.555555556, -65, 157.5
5399, 305.555555556, -65, 160
5400, 333.333333333, -78.75, 157.5
5401, 333.333333333, -71.875, 155
5402, 333.333333333, -71.875, 157.5
5403, 333.333333333, -71.875, 160
5404, 333.333333333, -65, 157.5
5405, 222.222222222, -65, 152.5
5406, 222.222222222, -58.125, 150
5407, 222.222222222, -58.125, 152.5
5408, 222.222222222, -58.125, 155
5409, 222.222222222, -51.25, 152.5
5410, 250, -65, 150
5411, 250, -65, 152.5
5412, 250, -58.125, 150
5413, 250, -58.125, 152.5
5414, 250, -58.125, 155
5415, 250, -51.25, 150
5416, 250, -51.25, 152.5
5417, 277.777777778, -65, 152.5
5418, 277.777777778, -58.125, 150
5419, 277.777777778, -58.125, 152.5
5420, 277.777777778, -58.125, 155
5421, 277.777777778, -51.25, 152.5
5422, 222.222222222, -58.125, 157.5
5423, 222.222222222, -58.125, 160
5424, 250, -58.125, 157.5
5425, 250, -58.125, 160
5426, 277.777777778, -58.125, 157.5
5427, 277.777777778, -58.125, 160
5428, 305.555555556, -65, 150
5429, 305.555555556, -65, 152.5
5430, 305.555555556, -58.125, 150
5431, 305.555555556, -58.125, 152.5
5432, 305.555555556, -58.125, 155
5433, 305.555555556, -51.25, 150
5434, 305.555555556, -51.25, 152.5
5435, 333.333333333, -65, 152.5
5436, 333.333333333, -58.125, 150
5437, 333.333333333, -58.125, 152.5
5438, 333.333333333, -58.125, 155
5439, 333.333333333, -51.25, 152.5
5440, 305.555555556, -58.125, 157.5
5441, 305.555555556, -58.125, 160
5442, 333.333333333, -58.125, 157.5
5443, 333.333333333, -58.125, 160
5444, 222.222222222, 51.25, 152.5
5445, 222.222222222, 58.125, 150
5446, 222.222222222, 58.125, 152.5
5447, 222.222222222, 58.125, 155
5448, 222.222222222, 65, 152.5
5449, 250, 51.25, 150
5450, 250, 51.25, 152.5
5451, 250, 58.125, 150
5452, 250, 58.125, 152.5
5453, 250, 58.125, 155
5454, 250, 65, 150
5455, 250, 65, 152.5
5456, 250, 65, 155
5457, 277.777777778, 51.25, 152.5
5458, 277.777777778, 58.125, 150
5459, 277.777777778, 58.125, 152.5
5460, 277.777777778, 58.125, 155
5461, 277.777777778, 65, 152.5
5462, 222.222222222, 58.125, 157.5
5463, 222.222222222, 58.125, 160
5464, 250, 58.125, 157.5
5465, 250, 58.125, 160
5466, 250, 65, 157.5
5467, 250, 65, 160
5468, 277.777777778, 58.125, 157.5
5469, 277.777777778, 58.125, 160
5470, 277.777777778, 65, 157.5
5471, 305.555555556, 51.25, 150
5472, 305.555555556, 51.25, 152.5
5473, 305.555555556, 58.125, 150
5474, 305.555555556, 58.125, 152.5
5475, 305.555555556, 58.125, 155
5476, 305.555555556, 65, 150
5477, 305.555555556, 65, 152.5
5478, 305.555555556, 65, 155
5479, 333.333333333, 51.25, 152.5
5480, 333.333333333, 58.125, 150
5481, 333.333333333, 58.125, 152.5
5482, 333.333333333, 58.125, 155
5483, 333.333333333, 65, 152.5
5484, 305.555555556, 58.125, 157.5
5485, 305.555555556, 58.125, 160
5486, 305.555555556, 65, 157.5
5487, 305.555555556, 65, 160
5488, 333.333333333, 58.125, 157.5
5489, 333.333333333, 58.125, 160
5490, 333.333333333, 65, 157.5
5491, 277.777777778, 78.75, 140
5492, 277.777777778, 78.75, 145
5493, 277.777777778, 92.5, 140
5494, 277.777777778, 92.5, 145
5495, 250, 71.875, 155
5496, 250, 71.875, 157.5
5497, 250, 71.875, 160
5498, 250, 78.75, 155
5499, 250, 78.75, 157.5
5500, 250, 78.75, 160
5501, 277.777777778, 71.875, 155
5502, 277.777777778, 71.875, 157.5
5503, 277.777777778, 71.875, 160
5504, 277.777777778, 78.75, 157.5
5505, 305.555555556, 71.875, 155
5506, 305.555555556, 71.875, 157.5
5507, 305.555555556, 71.875, 160
5508, 305.555555556, 78.75, 155
5509, 305.555555556, 78.75, 157.5
5510, 305.555555556, 78.75, 160
5511, 333.333333333, 71.875, 155
5512, 333.333333333, 71.875, 157.5
5513, 333.333333333, 71.875, 160
5514, 333.333333333, 78.75, 157.5
5515, 277.777777778, 106.25, 150
5516, 277.777777778, 106.25, 155
5517, 277.777777778, 106.25, 160
5518, 277.777777778, 120, 150
5519, 277.777777778, 120, 155
5520, 277.777777778, 120, 160
5521, 333.333333333, 106.25, 150
5522, 333.333333333, 106.25, 155
5523, 333.333333333, 106.25, 160
5524, 333.333333333, 120, 155
5525, 333.333333333, -120, 145
5526, 333.333333333, -106.25, 140
5527, 333.333333333, -106.25, 145
5528, 388.888888889, -120, 140
5529, 388.888888889, -120, 145
5530, 388.888888889, -120, 150
5531, 388.888888889, -106.25, 140
5532, 388.888888889, -106.25, 145
5533, 388.888888889, -106.25, 150
5534, 444.444444444, -120, 145
5535, 444.444444444, -106.25, 140
5536, 444.444444444, -106.25, 145
5537, 444.444444444, -106.25, 150
5538, 388.888888889, -120, 155
5539, 388.888888889, -120, 160
5540, 388.888888889, -106.25, 155
5541, 388.888888889, -106.25, 160
5542, 388.888888889, -92.5, 155
5543, 388.888888889, -92.5, 160
5544, 444.444444444, -120, 155
5545, 444.444444444, -106.25, 155
5546, 444.444444444, -106.25, 160
5547, 444.444444444, -92.5, 155
5548, 333.333333333, -78.75, 142.5
5549, 333.333333333, -71.875, 140
5550, 333.333333333, -71.875, 142.5
5551, 333.333333333, -71.875, 145
5552, 333.333333333, -65, 142.5
5553, 361.111111111, -78.75, 140
5554, 361.111111111, -78.75, 142.5
5555, 361.111111111, -78.75, 145
5556, 361.111111111, -71.875, 140
5557, 361.111111111, -71.875, 142.5
5558, 361.111111111, -71.875, 145
5559, 361.111111111, -65, 140
5560, 361.111111111, -65, 142.5
5561, 361.111111111, -65, 145
5562, 388.888888889, -78.75, 142.5
5563, 388.888888889, -71.875, 140
5564, 388.888888889, -71.875, 142.5
5565, 388.888888889, -71.875, 145
5566, 388.888888889, -65, 142.5
5567, 416.666666667, -78.75, 140
5568, 416.666666667, -78.75, 142.5
5569, 416.666666667, -78.75, 145
5570, 416.666666667, -71.875, 140
5571, 416.666666667, -71.875, 142.5
5572, 416.666666667, -71.875, 145
5573, 416.666666667, -65, 140
5574, 416.666666667, -65, 142.5
5575, 416.666666667, -65, 145
5576, 444.444444444, -78.75, 142.5
5577, 444.444444444, -71.875, 140
5578, 444.444444444, -71.875, 142.5
5579, 444.444444444, -71.875, 145
5580, 444.444444444, -65, 142.5
5581, 388.888888889, -78.75, 155
5582, 388.888888889, -78.75, 160
5583, 444.444444444, -78.75, 155
5584, 444.444444444, -78.75, 160
5585, 333.333333333, -58.125, 140
5586, 333.333333333, -58.125, 142.5
5587, 333.333333333, -58.125, 145
5588, 333.333333333, -51.25, 142.5
5589, 361.111111111, -58.125, 140
5590, 361.111111111, -58.125, 142.5
5591, 361.111111111, -58.125, 145
5592, 361.111111111, -51.25, 140
5593, 361.111111111, -51.25, 142.5
5594, 361.111111111, -51.25, 145
5595, 388.888888889, -58.125, 140
5596, 388.888888889, -58.125, 142.5
5597, 388.888888889, -58.125, 145
5598, 388.888888889, -51.25, 142.5
5599, 333.333333333, -65, 147.5
5600, 333.333333333, -58.125, 147.5
5601, 333.333333333, -51.25, 147.5
5602, 361.111111111, -65, 147.5
5603, 361.111111111, -65, 150
5604, 361.111111111, -58.125, 147.5
5605, 361.111111111, -58.125, 150
5606, 361.111111111, -51.25, 147.5
5607, 361.111111111, -51.25, 150
5608, 388.888888889, -65, 147.5
5609, 388.888888889, -58.125, 147.5
5610, 388.888888889, -58.125, 150
5611, 388.888888889, -51.25, 147.5
5612, 333.333333333, -44.375, 140
5613, 333.333333333, -44.375, 142.5
5614, 333.333333333, -44.375, 145
5615, 333.333333333, -37.5, 142.5
5616, 361.111111111, -44.375, 140
5617, 361.111111111, -44.375, 142.5
5618, 361.111111111, -44.375, 145
5619, 361.111111111, -37.5, 140
5620, 361.111111111, -37.5, 142.5
5621, 361.111111111, -37.5, 145
5622, 388.888888889, -44.375, 140
5623, 388.888888889, -44.375, 142.5
5624, 388.888888889, -44.375, 145
5625, 388.888888889, -37.5, 142.5
5626, 416.666666667, -58.125, 140
5627, 416.666666667, -58.125, 142.5
5628, 416.666666667, -58.125, 145
5629, 416.666666667, -51.25, 140
5630, 416.666666667, -51.25, 142.5
5631, 416.666666667, -51.25, 145
5632, 444.444444444, -58.125, 140
5633, 444.444444444, -58.125, 142.5
5634, 444.444444444, -58.125, 145
5635, 444.444444444, -51.25, 142.5
5636, 416.666666667, -65, 147.5
5637, 416.666666667, -65, 150
5638, 416.666666667, -58.125, 147.5
5639, 416.666666667, -58.125, 150
5640, 416.666666667, -51.25, 147.5
5641, 416.666666667, -51.25, 150
5642, 444.444444444, -65, 147.5
5643, 444.444444444, -58.125, 147.5
5644, 444.444444444, -58.125, 150
5645, 444.444444444, -51.25, 147.5
5646, 388.888888889, -51.25, 157.5
5647, 388.888888889, -44.375, 155
5648, 388.888888889, -44.375, 157.5
5649, 388.888888889, -44.375, 160
5650, 388.888888889, -37.5, 157.5
5651, 416.666666667, -51.25, 155
5652, 416.666666667, -51.25, 157.5
5653, 416.666666667, -51.25, 160
5654, 416.666666667, -44.375, 155
5655, 416.666666667, -44.375, 157.5
5656, 416.666666667, -44.375, 160
5657, 416.666666667, -37.5, 155
5658, 416.666666667, -37.5, 157.5
5659, 416.666666667, -37.5, 160
5660, 444.444444444, -51.25, 157.5
5661, 444.444444444, -44.375, 155
5662, 444.444444444, -44.375, 157.5
5663, 444.444444444, -44.375, 160
5664, 444.444444444, -37.5, 157.5
5665, 388.888888889, -30.625, 155
5666, 388.888888889, -30.625, 157.5
5667, 388.888888889, -30.625, 160
5668, 388.888888889, -23.75, 157.5
5669, 416.666666667, -30.625, 155
5670, 416.666666667, -30.625, 157.5
5671, 416.666666667, -30.625, 160
5672, 416.666666667, -23.75, 155
5673, 416.666666667, -23.75, 157.5
5674, 416.666666667, -23.75, 160
5675, 444.444444444, -30.625, 155
5676, 444.444444444, -30.625, 157.5
5677, 444.444444444, -30.625, 160
5678, 444.444444444, -23.75, 157.5
5679, 388.888888889, -16.875, 155
5680, 388.888888889, -16.875, 157.5
5681, 388.888888889, -16.875, 160
5682, 388.888888889, -10, 157.5
5683, 416.666666667, -16.875, 155
5684, 416.666666667, -16.875, 157.5
5685, 416.666666667, -16.875, 160
5686, 416.666666667, -10, 155
5687, 416.666666667, -10, 157.5
5688, 416.666666667, -10, 160
5689, 444.444444444, -16.875, 155
5690, 444.444444444, -16.875, 157.5
5691, 444.444444444, -16.875, 160
5692, 444.444444444, -10, 157.5
5693, 388.888888889, 10, 157.5
5694, 388.888888889, 16.875, 155
5695, 388.888888889, 16.875, 157.5
5696, 388.888888889, 16.875, 160
5697, 388.888888889, 23.75, 157.5
5698, 416.666666667, 10, 155
5699, 416.666666667, 10, 157.5
5700, 416.666666667, 10, 160
5701, 416.666666667, 16.875, 155
5702, 416.666666667, 16.875, 157.5
5703, 416.666666667, 16.875, 160
5704, 416.666666667, 23.75, 155
5705, 416.666666667, 23.75, 157.5
5706, 416.666666667, 23.75, 160
5707, 444.444444444, 10, 157.5
5708, 444.444444444, 16.875, 155
5709, 444.444444444, 16.875, 157.5
5710, 444.444444444, 16.875, 160
5711, 444.444444444, 23.75, 157.5
5712, 388.888888889, 30.625, 155
5713, 388.888888889, 30.625, 157.5
5714, 388.888888889, 30.625, 160
5715, 388.888888889, 37.5, 157.5
5716, 416.666666667, 30.625, 155
5717, 416.666666667, 30.625, 157.5
5718, 416.666666667, 30.625, 160
5719, 416.666666667, 37.5, 155
5720, 416.666666667, 37.5, 157.5
5721, 416.666666667, 37.5, 160
5722, 444.444444444, 30.625, 155
5723, 444.444444444, 30.625, 157.5
5724, 444.444444444, 30.625, 160
5725, 444.444444444, 37.5, 157.5
5726, 333.333333333, 37.5, 142.5
5727, 333.333333333, 44.375, 140
5728, 333.333333333, 44.375, 142.5
5729, 333.333333333, 44.375, 145
5730, 333.333333333, 51.25, 142.5
5731, 361.111111111, 37.5, 140
5732, 361.111111111, 37.5, 142.5
5733, 361.111111111, 37.5, 145
5734, 361.111111111, 44.375, 140
5735, 361.111111111, 44.375, 142.5
5736, 361.111111111, 44.375, 145
5737, 361.111111111, 51.25, 140
5738, 361.111111111, 51.25, 142.5
5739, 361.111111111, 51.25, 145
5740, 388.888888889, 37.5, 142.5
5741, 388.888888889, 44.375, 140
5742, 388.888888889, 44.375, 142.5
5743, 388.888888889, 44.375, 145
5744, 388.888888889, 51.25, 142.5
5745, 333.333333333, 58.125, 140
5746, 333.333333333, 58.125, 142.5
5747, 333.333333333, 58.125, 145
5748, 333.333333333, 65, 142.5
5749, 361.111111111, 58.125, 140
5750, 361.111111111, 58.125, 142.5
5751, 361.111111111, 58.125, 145
5752, 361.111111111, 65, 140
5753, 361.111111111, 65, 142.5
5754, 361.111111111, 65, 145
5755, 388.888888889, 58.125, 140
5756, 388.888888889, 58.125, 142.5
5757, 388.888888889, 58.125, 145
5758, 388.888888889, 65, 142.5
5759, 333.333333333, 51.25, 147.5
5760, 333.333333333, 58.125, 147.5
5761, 333.333333333, 65, 147.5
5762, 361.111111111, 51.25, 147.5
5763, 361.111111111, 51.25, 150
5764, 361.111111111, 58.125, 147.5
5765, 361.111111111, 58.125, 150
5766, 361.111111111, 65, 147.5
5767, 361.111111111, 65, 150
5768, 388.888888889, 51.25, 147.5
5769, 388.888888889, 58.125, 147.5
5770, 388.888888889, 58.125, 150
5771, 388.888888889, 65, 147.5
5772, 416.666666667, 51.25, 140
5773, 416.666666667, 51.25, 142.5
5774, 416.666666667, 51.25, 145
5775, 416.666666667, 58.125, 140
5776, 416.666666667, 58.125, 142.5
5777, 416.666666667, 58.125, 145
5778, 416.666666667, 65, 140
5779, 416.666666667, 65, 142.5
5780, 416.666666667, 65, 145
5781, 444.444444444, 51.25, 142.5
5782, 444.444444444, 58.125, 140
5783, 444.444444444, 58.125, 142.5
5784, 444.444444444, 58.125, 145
5785, 444.444444444, 65, 142.5
5786, 416.666666667, 51.25, 147.5
5787, 416.666666667, 51.25, 150
5788, 416.666666667, 58.125, 147.5
5789, 416.666666667, 58.125, 150
5790, 416.666666667, 65, 147.5
5791, 416.666666667, 65, 150
5792, 444.444444444, 51.25, 147.5
5793, 444.444444444, 58.125, 147.5
5794, 444.444444444, 58.125, 150
5795, 444.444444444, 65, 147.5
5796, 388.888888889, 44.375, 155
5797, 388.888888889, 44.375, 157.5
5798, 388.888888889, 44.375, 160
5799, 388.888888889, 51.25, 157.5
5800, 416.666666667, 44.375, 155
5801, 416.666666667, 44.375, 157.5
5802, 416.666666667, 44.375, 160
5803, 416.666666667, 51.25, 155
5804, 416.666666667, 51.25, 157.5
5805, 416.666666667, 51.25, 160
5806, 444.444444444, 44.375, 155
5807, 444.444444444, 44.375, 157.5
5808, 444.444444444, 44.375, 160
5809, 444.444444444, 51.25, 157.5
5810, 333.333333333, 71.875, 140
5811, 333.333333333, 71.875, 142.5
5812, 333.333333333, 71.875, 145
5813, 333.333333333, 78.75, 142.5
5814, 361.111111111, 71.875, 140
5815, 361.111111111, 71.875, 142.5
5816, 361.111111111, 71.875, 145
5817, 361.111111111, 78.75, 140
5818, 361.111111111, 78.75, 142.5
5819, 361.111111111, 78.75, 145
5820, 388.888888889, 71.875, 140
5821, 388.888888889, 71.875, 142.5
5822, 388.888888889, 71.875, 145
5823, 388.888888889, 78.75, 142.5
5824, 416.666666667, 71.875, 140
5825, 416.666666667, 71.875, 142.5
5826, 416.666666667, 71.875, 145
5827, 416.666666667, 78.75, 140
5828, 416.666666667, 78.75, 142.5
5829, 416.666666667, 78.75, 145
5830, 444.444444444, 71.875, 140
5831, 444.444444444, 71.875, 142.5
5832, 444.444444444, 71.875, 145
5833, 444.444444444, 78.75, 142.5
5834, 388.888888889, 78.75, 155
5835, 388.888888889, 78.75, 160
5836, 388.888888889, 92.5, 155
5837, 388.888888889, 92.5, 160
5838, 444.444444444, 78.75, 155
5839, 444.444444444, 78.75, 160
5840, 444.444444444, 92.5, 155
5841, 333.333333333, 106.25, 140
5842, 333.333333333, 106.25, 145
5843, 333.333333333, 120, 145
5844, 388.888888889, 106.25, 140
5845, 388.888888889, 106.25, 145
5846, 388.888888889, 106.25, 150
5847, 388.888888889, 120, 140
5848, 388.888888889, 120, 145
5849, 388.888888889, 120, 150
5850, 444.444444444, 106.25, 140
5851, 444.444444444, 106.25, 145
5852, 444.444444444, 106.25, 150
5853, 444.444444444, 120, 145
5854, 388.888888889, 106.25, 155
5855, 388.888888889, 106.25, 160
5856, 388.888888889, 120, 155
5857, 388.888888889, 120, 160
5858, 444.444444444, 106.25, 155
5859, 444.444444444, 106.25, 160
5860, 444.444444444, 120, 155
5861, 444.444444444, -10, 133
5862, 444.444444444, -7.5, 133
5863, 444.444444444, -7.5, 140
5864, 444.444444444, -5, 133
5865, 472.222222222, -10, 133
5866, 472.222222222, -10, 140
5867, 472.222222222, -7.5, 133
5868, 472.222222222, -7.5, 140
5869, 472.222222222, -5, 133
5870, 472.222222222, -5, 140
5871, 500, -10, 133
5872, 500, -7.5, 133
5873, 500, -7.5, 140
5874, 500, -5, 133
5875, 444.444444444, -2.5, 133
5876, 444.444444444, -2.5, 140
5877, 444.444444444, 0, 133
5878, 472.222222222, -2.5, 133
5879, 472.222222222, -2.5, 140
5880, 472.222222222, 0, 133
5881, 472.222222222, 0, 140
5882, 500, -2.5, 133
5883, 500, -2.5, 140
5884, 500, 0, 133
5885, 527.777777778, -10, 133
5886, 527.777777778, -10, 140
5887, 527.777777778, -7.5, 133
5888, 527.777777778, -7.5, 140
5889, 527.777777778, -5, 133
5890, 527.777777778, -5, 140
5891, 555.555555556, -10, 133
5892, 555.555555556, -7.5, 133
5893, 555.555555556, -7.5, 140
5894, 555.555555556, -5, 133
5895, 527.777777778, -2.5, 133
5896, 527.777777778, -2.5, 140
5897, 527.777777778, 0, 133
5898, 527.777777778, 0, 140
5899, 555.555555556, -2.5, 133
5900, 555.555555556, -2.5, 140
5901, 555.555555556, 0, 133
5902, 444.444444444, 2.5, 133
5903, 444.444444444, 2.5, 140
5904, 444.444444444, 5, 133
5905, 472.222222222, 2.5, 133
5906, 472.222222222, 2.5, 140
5907, 472.222222222, 5, 133
5908, 472.222222222, 5, 140
5909, 500, 2.5, 133
5910, 500, 2.5, 140
5911, 500, 5, 133
5912, 444.444444444, 7.5, 133
5913, 444.444444444, 7.5, 140
5914, 444.444444444, 10, 133
5915, 472.222222222, 7.5, 133
5916, 472.222222222, 7.5, 140
5917, 472.222222222, 10, 133
5918, 472.222222222, 10, 140
5919, 500, 7.5, 133
5920, 500, 7.5, 140
5921, 500, 10, 133
5922, 527.777777778, 2.5, 133
5923, 527.777777778, 2.5, 140
5924, 527.777777778, 5, 133
5925, 527.777777778, 5, 140
5926, 555.555555556, 2.5, 133
5927, 555.555555556, 2.5, 140
5928, 555.555555556, 5, 133
5929, 527.777777778, 7.5, 133
5930, 527.777777778, 7.5, 140
5931, 527.777777778, 10, 133
5932, 527.777777778, 10, 140
5933, 555.555555556, 7.5, 133
5934, 555.555555556, 7.5, 140
5935, 555.555555556, 10, 133
5936, 500, -120, 140
5937, 500, -120, 145
5938, 500, -120, 150
5939, 500, -106.25, 140
5940, 500, -106.25, 145
5941, 500, -106.25, 150
5942, 500, -92.5, 140
5943, 500, -92.5, 145
5944, 500, -92.5, 150
5945, 555.555555556, -120, 145
5946, 555.555555556, -106.25, 140
5947, 555.555555556, -106.25, 145
5948, 555.555555556, -106.25, 150
5949, 555.555555556, -92.5, 145
5950, 500, -120, 155
5951, 500, -120, 160
5952, 500, -106.25, 155
5953, 500, -106.25, 160
5954, 500, -92.5, 155
5955, 500, -92.5, 160
5956, 555.555555556, -120, 155
5957, 555.555555556, -106.25, 155
5958, 555.555555556, -106.25, 160
5959, 555.555555556, -92.5, 155
5960, 500, -78.75, 140
5961, 500, -78.75, 145
5962, 500, -78.75, 150
5963, 500, -65, 140
5964, 500, -65, 145
5965, 500, -65, 150
5966, 555.555555556, -78.75, 140
5967, 555.555555556, -78.75, 145
5968, 555.555555556, -78.75, 150
5969, 555.555555556, -65, 145
5970, 500, -78.75, 155
5971, 500, -78.75, 160
5972, 500, -65, 155
5973, 500, -65, 160
5974, 555.555555556, -78.75, 155
5975, 555.555555556, -78.75, 160
5976, 555.555555556, -65, 155
5977, 500, -51.25, 150
5978, 500, -51.25, 155
5979, 500, -51.25, 160
5980, 555.555555556, -51.25, 150
5981, 555.555555556, -51.25, 155
5982, 555.555555556, -51.25, 160
5983, 500, -37.5, 140
5984, 500, -37.5, 145
5985, 500, -23.75, 140
5986, 500, -23.75, 145
5987, 555.555555556, -37.5, 145
5988, 555.555555556, -23.75, 140
5989, 555.555555556, -23.75, 145
5990, 500, -5, 142.5
5991, 500, -2.5, 142.5
5992, 500, -2.5, 145
5993, 500, 0, 142.5
5994, 527.777777778, -5, 142.5
5995, 527.777777778, -5, 145
5996, 527.777777778, -2.5, 142.5
5997, 527.777777778, -2.5, 145
5998, 527.777777778, 0, 142.5
5999, 527.777777778, 0, 145
6000, 555.555555556, -5, 142.5
6001, 555.555555556, -2.5, 142.5
6002, 555.555555556, -2.5, 145
6003, 555.555555556, 0, 142.5
6004, 500, -5, 155
6005, 500, -5, 160
6006, 500, 0, 155
6007, 500, 0, 160
6008, 555.555555556, -5, 155
6009, 555.555555556, -5, 160
6010, 555.555555556, 0, 155
6011, 500, 2.5, 142.5
6012, 500, 2.5, 145
6013, 500, 5, 142.5
6014, 527.777777778, 2.5, 142.5
6015, 527.777777778, 2.5, 145
6016, 527.777777778, 5, 142.5
6017, 527.777777778, 5, 145
6018, 555.555555556, 2.5, 142.5
6019, 555.555555556, 2.5, 145
6020, 555.555555556, 5, 142.5
6021, 500, 5, 155
6022, 500, 5, 160
6023, 555.555555556, 5, 155
6024, 555.555555556, 5, 160
6025, 500, 23.75, 140
6026, 500, 23.75, 145
6027, 500, 37.5, 140
6028, 500, 37.5, 145
6029, 555.555555556, 23.75, 140
6030, 555.555555556, 23.75, 145
6031, 555.555555556, 37.5, 145
6032, 500, 51.25, 150
6033, 500, 51.25, 155
6034, 500, 51.25, 160
6035, 500, 65, 150
6036, 500, 65, 155
6037, 500, 65, 160
6038, 555.555555556, 51.25, 150
6039, 555.555555556, 51.25, 155
6040, 555.555555556, 51.25, 160
6041, 555.555555556, 65, 155
6042, 500, 65, 140
6043, 500, 65, 145
6044, 500, 78.75, 140
6045, 500, 78.75, 145
6046, 500, 78.75, 150
6047, 500, 92.5, 140
6048, 500, 92.5, 145
6049, 500, 92.5, 150
6050, 555.555555556, 65, 145
6051, 555.555555556, 78.75, 140
6052, 555.555555556, 78.75, 145
6053, 555.555555556, 78.75, 150
6054, 555.555555556, 92.5, 145
6055, 500, 78.75, 155
6056, 500, 78.75, 160
6057, 500, 92.5, 155
6058, 500, 92.5, 160
6059, 555.555555556, 78.75, 155
6060, 555.555555556, 78.75, 160
6061, 555.555555556, 92.5, 155
6062, 500, 106.25, 140
6063, 500, 106.25, 145
6064, 500, 106.25, 150
6065, 500, 120, 140
6066, 500, 120, 145
6067, 500, 120, 150
6068, 555.555555556, 106.25, 140
6069, 555.555555556, 106.25, 145
6070, 555.555555556, 106.25, 150
6071, 555.555555556, 120, 145
6072, 500, 106.25, 155
6073, 500, 106.25, 160
6074, 500, 120, 155
6075, 500, 120, 160
6076, 555.555555556, 106.25, 155
6077, 555.555555556, 106.25, 160
6078, 555.555555556, 120, 155
6079, 583.333333333, -10, 133
6080, 583.333333333, -10, 140
6081, 583.333333333, -7.5, 133
6082, 583.333333333, -7.5, 140
6083, 583.333333333, -5, 133
6084, 583.333333333, -5, 140
6085, 611.111111111, -10, 133
6086, 611.111111111, -7.5, 133
6087, 611.111111111, -7.5, 140
6088, 611.111111111, -5, 133
6089, 583.333333333, -2.5, 133
6090, 583.333333333, -2.5, 140
6091, 583.333333333, 0, 133
6092, 583.333333333, 0, 140
6093, 611.111111111, -2.5, 133
6094, 611.111111111, -2.5, 140
6095, 611.111111111, 0, 133
6096, 638.888888889, -10, 133
6097, 638.888888889, -10, 140
6098, 638.888888889, -7.5, 133
6099, 638.888888889, -7.5, 140
6100, 638.888888889, -5, 133
6101, 638.888888889, -5, 140
6102, 666.666666667, -10, 133
6103, 666.666666667, -7.5, 133
6104, 666.666666667, -7.5, 140
6105, 666.666666667, -5, 133
6106, 638.888888889, -2.5, 133
6107, 638.888888889, -2.5, 140
6108, 638.888888889, 0, 133
6109, 638.888888889, 0, 140
6110, 666.666666667, -2.5, 133
6111, 666.666666667, -2.5, 140
6112, 666.666666667, 0, 133
6113, 583.333333333, 2.5, 133
6114, 583.333333333, 2.5, 140
6115, 583.333333333, 5, 133
6116, 583.333333333, 5, 140
6117, 611.111111111, 2.5, 133
6118, 611.111111111, 2.5, 140
6119, 611.111111111, 5, 133
6120, 583.333333333, 7.5, 133
6121, 583.333333333, 7.5, 140
6122, 583.333333333, 10, 133
6123, 583.333333333, 10, 140
6124, 611.111111111, 7.5, 133
6125, 611.111111111, 7.5, 140
6126, 611.111111111, 10, 133
6127, 638.888888889, 2.5, 133
6128, 638.888888889, 2.5, 140
6129, 638.888888889, 5, 133
6130, 638.888888889, 5, 140
6131, 666.666666667, 2.5, 133
6132, 666.666666667, 2.5, 140
6133, 666.666666667, 5, 133
6134, 638.888888889, 7.5, 133
6135, 638.888888889, 7.5, 140
6136, 638.888888889, 10, 133
6137, 638.888888889, 10, 140
6138, 666.666666667, 7.5, 133
6139, 666.666666667, 7.5, 140
6140, 666.666666667, 10, 133
6141, 611.111111111, -120, 140
6142, 611.111111111, -120, 145
6143, 611.111111111, -120, 150
6144, 611.111111111, -106.25, 140
6145, 611.111111111, -106.25, 145
6146, 611.111111111, -106.25, 150
6147, 611.111111111, -92.5, 140
6148, 611.111111111, -92.5, 145
6149, 611.111111111, -92.5, 150
6150, 666.666666667, -120, 145
6151, 666.666666667, -106.25, 140
6152, 666.666666667, -106.25, 145
6153, 666.666666667, -106.25, 150
6154, 666.666666667, -92.5, 145
6155, 611.111111111, -78.75, 140
6156, 611.111111111, -78.75, 145
6157, 611.111111111, -78.75, 150
6158, 611.111111111, -65, 140
6159, 611.111111111, -65, 145
6160, 611.111111111, -65, 150
6161, 666.666666667, -78.75, 140
6162, 666.666666667, -78.75, 145
6163, 666.666666667, -78.75, 150
6164, 666.666666667, -65, 145
6165, 555.555555556, -51.25, 140
6166, 555.555555556, -51.25, 145
6167, 611.111111111, -51.25, 140
6168, 611.111111111, -51.25, 145
6169, 611.111111111, -51.25, 150
6170, 611.111111111, -37.5, 140
6171, 611.111111111, -37.5, 145
6172, 611.111111111, -37.5, 150
6173, 666.666666667, -51.25, 140
6174, 666.666666667, -51.25, 145
6175, 666.666666667, -51.25, 150
6176, 666.666666667, -37.5, 145
6177, 611.111111111, -65, 155
6178, 611.111111111, -65, 160
6179, 611.111111111, -51.25, 155
6180, 611.111111111, -51.25, 160
6181, 611.111111111, -37.5, 155
6182, 611.111111111, -37.5, 160
6183, 666.666666667, -65, 155
6184, 666.666666667, -51.25, 155
6185, 666.666666667, -51.25, 160
6186, 666.666666667, -37.5, 155
6187, 611.111111111, -23.75, 140
6188, 611.111111111, -23.75, 145
6189, 611.111111111, -23.75, 150
6190, 666.666666667, -23.75, 140
6191, 666.666666667, -23.75, 145
6192, 666.666666667, -23.75, 150
6193, 611.111111111, -23.75, 155
6194, 611.111111111, -23.75, 160
6195, 611.111111111, -10, 155
6196, 611.111111111, -10, 160
6197, 666.666666667, -23.75, 155
6198, 666.666666667, -23.75, 160
6199, 666.666666667, -10, 155
6200, 583.333333333, -5, 142.5
6201, 583.333333333, -5, 145
6202, 583.333333333, -2.5, 142.5
6203, 583.333333333, -2.5, 145
6204, 583.333333333, 0, 142.5
6205, 583.333333333, 0, 145
6206, 611.111111111, -5, 142.5
6207, 611.111111111, -2.5, 142.5
6208, 611.111111111, -2.5, 145
6209, 611.111111111, 0, 142.5
6210, 638.888888889, -5, 142.5
6211, 638.888888889, -5, 145
6212, 638.888888889, -2.5, 142.5
6213, 638.888888889, -2.5, 145
6214, 638.888888889, 0, 142.5
6215, 638.888888889, 0, 145
6216, 666.666666667, -5, 142.5
6217, 666.666666667, -2.5, 142.5
6218, 666.666666667, -2.5, 145
6219, 666.666666667, 0, 142.5
6220, 611.111111111, -5, 155
6221, 611.111111111, -5, 160
6222, 611.111111111, 0, 155
6223, 611.111111111, 0, 160
6224, 666.666666667, -5, 155
6225, 666.666666667, -5, 160
6226, 666.666666667, 0, 155
6227, 583.333333333, 2.5, 142.5
6228, 583.333333333, 2.5, 145
6229, 583.333333333, 5, 142.5
6230, 583.333333333, 5, 145
6231, 611.111111111, 2.5, 142.5
6232, 611.111111111, 2.5, 145
6233, 611.111111111, 5, 142.5
6234, 638.888888889, 2.5, 142.5
6235, 638.888888889, 2.5, 145
6236, 638.888888889, 5, 142.5
6237, 638.888888889, 5, 145
6238, 666.666666667, 2.5, 142.5
6239, 666.666666667, 2.5, 145
6240, 666.666666667, 5, 142.5
6241, 611.111111111, 5, 155
6242, 611.111111111, 5, 160
6243, 611.111111111, 10, 155
6244, 611.111111111, 10, 160
6245, 666.666666667, 5, 155
6246, 666.666666667, 5, 160
6247, 666.666666667, 10, 155
6248, 611.111111111, 23.75, 140
6249, 611.111111111, 23.75, 145
6250, 611.111111111, 23.75, 150
6251, 611.111111111, 37.5, 140
6252, 611.111111111, 37.5, 145
6253, 611.111111111, 37.5, 150
6254, 666.666666667, 23.75, 140
6255, 666.666666667, 23.75, 145
6256, 666.666666667, 23.75, 150
6257, 666.666666667, 37.5, 145
6258, 611.111111111, 23.75, 155
6259, 611.111111111, 23.75, 160
6260, 611.111111111, 37.5, 155
6261, 611.111111111, 37.5, 160
6262, 666.666666667, 23.75, 155
6263, 666.666666667, 23.75, 160
6264, 666.666666667, 37.5, 155
6265, 555.555555556, 51.25, 140
6266, 555.555555556, 51.25, 145
6267, 611.111111111, 51.25, 140
6268, 611.111111111, 51.25, 145
6269, 611.111111111, 51.25, 150
6270, 611.111111111, 65, 140
6271, 611.111111111, 65, 145
6272, 611.111111111, 65, 150
6273, 666.666666667, 51.25, 140
6274, 666.666666667, 51.25, 145
6275, 666.666666667, 51.25, 150
6276, 666.666666667, 65, 145
6277, 611.111111111, 51.25, 155
6278, 611.111111111, 51.25, 160
6279, 611.111111111, 65, 155
6280, 611.111111111, 65, 160
6281, 666.666666667, 51.25, 155
6282, 666.666666667, 51.25, 160
6283, 666.666666667, 65, 155
6284, 611.111111111, 78.75, 140
6285, 611.111111111, 78.75, 145
6286, 611.111111111, 78.75, 150
6287, 611.111111111, 92.5, 140
6288, 611.111111111, 92.5, 145
6289, 611.111111111, 92.5, 150
6290, 666.666666667, 78.75, 140
6291, 666.666666667, 78.75, 145
6292, 666.666666667, 78.75, 150
6293, 666.666666667, 92.5, 145
6294, 611.111111111, 106.25, 140
6295, 611.111111111, 106.25, 145
6296, 611.111111111, 106.25, 150
6297, 611.111111111, 120, 140
6298, 611.111111111, 120, 145
6299, 611.111111111, 120, 150
6300, 666.666666667, 106.25, 140
6301, 666.666666667, 106.25, 145
6302, 666.666666667, 106.25, 150
6303, 666.666666667, 120, 145
6304, 694.444444444, -10, 133
6305, 694.444444444, -10, 140
6306, 694.444444444, -7.5, 133
6307, 694.444444444, -7.5, 140
6308, 694.444444444, -5, 133
6309, 694.444444444, -5, 140
6310, 722.222222222, -10, 133
6311, 722.222222222, -7.5, 133
6312, 722.222222222, -7.5, 140
6313, 722.222222222, -5, 133
6314, 694.444444444, -2.5, 133
6315, 694.444444444, -2.5, 140
6316, 694.444444444, 0, 133
6317, 694.444444444, 0, 140
6318, 722.222222222, -2.5, 133
6319, 722.222222222, -2.5, 140
6320, 722.222222222, 0, 133
6321, 750, -10, 126
6322, 750, -10, 133
6323, 750, -10, 140
6324, 750, -7.5, 126
6325, 750, -7.5, 133
6326, 750, -7.5, 140
6327, 750, -5, 126
6328, 750, -5, 133
6329, 750, -5, 140
6330, 777.777777778, -10, 133
6331, 777.777777778, -7.5, 126
6332, 777.777777778, -7.5, 133
6333, 777.777777778, -7.5, 140
6334, 777.777777778, -5, 133
6335, 750, -2.5, 126
6336, 750, -2.5, 133
6337, 750, -2.5, 140
6338, 750, 0, 126
6339, 750, 0, 133
6340, 750, 0, 140
6341, 777.777777778, -2.5, 126
6342, 777.777777778, -2.5, 133
6343, 777.777777778, -2.5, 140
6344, 777.777777778, 0, 133
6345, 694.444444444, 2.5, 133
6346, 694.444444444, 2.5, 140
6347, 694.444444444, 5, 133
6348, 694.444444444, 5, 140
6349, 722.222222222, 2.5, 133
6350, 722.222222222, 2.5, 140
6351, 722.222222222, 5, 133
6352, 694.444444444, 7.5, 133
6353, 694.444444444, 7.5, 140
6354, 694.444444444, 10, 133
6355, 694.444444444, 10, 140
6356, 722.222222222, 7.5, 133
6357, 722.222222222, 7.5, 140
6358, 722.222222222, 10, 133
6359, 750, 2.5, 126
6360, 750, 2.5, 133
6361, 750, 2.5, 140
6362, 750, 5, 126
6363, 750, 5, 133
6364, 750, 5, 140
6365, 777.777777778, 2.5, 126
6366, 777.777777778, 2.5, 133
6367, 777.777777778, 2.5, 140
6368, 777.777777778, 5, 133
6369, 750, 7.5, 126
6370, 750, 7.5, 133
6371, 750, 7.5, 140
6372, 750, 10, 126
6373, 750, 10, 133
6374, 750, 10, 140
6375, 777.777777778, 7.5, 126
6376, 777.777777778, 7.5, 133
6377, 777.777777778, 7.5, 140
6378, 777.777777778, 10, 133
6379, 722.222222222, -37.5, 140
6380, 722.222222222, -37.5, 145
6381, 722.222222222, -37.5, 150
6382, 722.222222222, -23.75, 140
6383, 722.222222222, -23.75, 145
6384, 722.222222222, -23.75, 150
6385, 777.777777778, -37.5, 145
6386, 777.777777778, -23.75, 140
6387, 777.777777778, -23.75, 145
6388, 777.777777778, -23.75, 150
6389, 694.444444444, -5, 142.5
6390, 694.444444444, -5, 145
6391, 694.444444444, -2.5, 142.5
6392, 694.444444444, -2.5, 145
6393, 694.444444444, 0, 142.5
6394, 694.444444444, 0, 145
6395, 722.222222222, -5, 142.5
6396, 722.222222222, -2.5, 142.5
6397, 722.222222222, -2.5, 145
6398, 722.222222222, 0, 142.5
6399, 722.222222222, -10, 155
6400, 722.222222222, -10, 160
6401, 722.222222222, -5, 155
6402, 722.222222222, -5, 160
6403, 722.222222222, 0, 155
6404, 722.222222222, 0, 160
6405, 777.777777778, -10, 155
6406, 777.777777778, -5, 155
6407, 777.777777778, -5, 160
6408, 777.777777778, 0, 155
6409, 694.444444444, 2.5, 142.5
6410, 694.444444444, 2.5, 145
6411, 694.444444444, 5, 142.5
6412, 694.444444444, 5, 145
6413, 722.222222222, 2.5, 142.5
6414, 722.222222222, 2.5, 145
6415, 722.222222222, 5, 142.5
6416, 722.222222222, 5, 155
6417, 722.222222222, 5, 160
6418, 722.222222222, 10, 155
6419, 722.222222222, 10, 160
6420, 777.777777778, 5, 155
6421, 777.777777778, 5, 160
6422, 777.777777778, 10, 155
6423, 722.222222222, 23.75, 140
6424, 722.222222222, 23.75, 145
6425, 722.222222222, 23.75, 150
6426, 722.222222222, 37.5, 140
6427, 722.222222222, 37.5, 145
6428, 722.222222222, 37.5, 150
6429, 777.777777778, 23.75, 140
6430, 777.777777778, 23.75, 145
6431, 777.777777778, 23.75, 150
6432, 777.777777778, 37.5, 145
6433, 777.777777778, -10, 119
6434, 777.777777778, -7.5, 112
6435, 777.777777778, -7.5, 119
6436, 777.777777778, -5, 119
6437, 805.555555556, -10, 112
6438, 805.555555556, -10, 119
6439, 805.555555556, -10, 126
6440, 805.555555556, -7.5, 112
6441, 805.555555556, -7.5, 119
6442, 805.555555556, -7.5, 126
6443, 805.555555556, -5, 112
6444, 805.555555556, -5, 119
6445, 805.555555556, -5, 126
6446, 833.333333333, -10, 119
6447, 833.333333333, -7.5, 112
6448, 833.333333333, -7.5, 119
6449, 833.333333333, -7.5, 126
6450, 833.333333333, -5, 119
6451, 777.777777778, -2.5, 112
6452, 777.777777778, -2.5, 119
6453, 777.777777778, 0, 119
6454, 805.555555556, -2.5, 112
6455, 805.555555556, -2.5, 119
6456, 805.555555556, -2.5, 126
6457, 805.555555556, 0, 112
6458, 805.555555556, 0, 119
6459, 805.555555556, 0, 126
6460, 833.333333333, -2.5, 112
6461, 833.333333333, -2.5, 119
6462, 833.333333333, -2.5, 126
6463, 833.333333333, 0, 119
6464, 861.111111111, -10, 112
6465, 861.111111111, -10, 119
6466, 861.111111111, -10, 126
6467, 861.111111111, -7.5, 112
6468, 861.111111111, -7.5, 119
6469, 861.111111111, -7.5, 126
6470, 861.111111111, -5, 112
6471, 861.111111111, -5, 119
6472, 861.111111111, -5, 126
6473, 888.888888889, -10, 119
6474, 888.888888889, -7.5, 112
6475, 888.888888889, -7.5, 119
6476, 888.888888889, -7.5, 126
6477, 888.888888889, -5, 119
6478, 777.777777778, 2.5, 112
6479, 777.777777778, 2.5, 119
6480, 777.777777778, 5, 119
6481, 805.555555556, 2.5, 112
6482, 805.555555556, 2.5, 119
6483, 805.555555556, 2.5, 126
6484, 805.555555556, 5, 112
6485, 805.555555556, 5, 119
6486, 805.555555556, 5, 126
6487, 833.333333333, 2.5, 112
6488, 833.333333333, 2.5, 119
6489, 833.333333333, 2.5, 126
6490, 833.333333333, 5, 119
6491, 777.777777778, 7.5, 112
6492, 777.777777778, 7.5, 119
6493, 777.777777778, 10, 119
6494, 805.555555556, 7.5, 112
6495, 805.555555556, 7.5, 119
6496, 805.555555556, 7.5, 126
6497, 805.555555556, 10, 112
6498, 805.555555556, 10, 119
6499, 805.555555556, 10, 126
6500, 833.333333333, 7.5, 112
6501, 833.333333333, 7.5, 119
6502, 833.333333333, 7.5, 126
6503, 833.333333333, 10, 119
6504, 861.111111111, 5, 112
6505, 861.111111111, 5, 119
6506, 861.111111111, 5, 126
6507, 861.111111111, 7.5, 112
6508, 861.111111111, 7.5, 119
6509, 861.111111111, 7.5, 126
6510, 861.111111111, 10, 112
6511, 861.111111111, 10, 119
6512, 861.111111111, 10, 126
6513, 888.888888889, 5, 119
6514, 888.888888889, 7.5, 112
6515, 888.888888889, 7.5, 119
6516, 888.888888889, 7.5, 126
6517, 888.888888889, 10, 119
6518, 833.333333333, -10, 145
6519, 833.333333333, -10, 150
6520, 833.333333333, -5, 145
6521, 833.333333333, -5, 150
6522, 833.333333333, 0, 145
6523, 833.333333333, 0, 150
6524, 888.888888889, -10, 145
6525, 888.888888889, -5, 145
6526, 888.888888889, -5, 150
6527, 888.888888889, 0, 145
6528, 833.333333333, 5, 145
6529, 833.333333333, 5, 150
6530, 833.333333333, 10, 145
6531, 833.333333333, 10, 150
6532, 888.888888889, 5, 145
6533, 888.888888889, 5, 150
6534, 888.888888889, 10, 145
6535, 916.666666667, -10, 112
6536, 916.666666667, -10, 119
6537, 916.666666667, -10, 126
6538, 916.666666667, -7.5, 112
6539, 916.666666667, -7.5, 119
6540, 916.666666667, -7.5, 126
6541, 916.666666667, -5, 112
6542, 916.666666667, -5, 119
6543, 916.666666667, -5, 126
6544, 944.444444444, -10, 119
6545, 944.444444444, -7.5, 112
6546, 944.444444444, -7.5, 119
6547, 944.444444444, -7.5, 126
6548, 944.444444444, -5, 119
6549, 888.888888889, -2.5, 112
6550, 888.888888889, -2.5, 119
6551, 888.888888889, -2.5, 126
6552, 888.888888889, 0, 119
6553, 916.666666667, -2.5, 112
6554, 916.666666667, -2.5, 119
6555, 916.666666667, -2.5, 126
6556, 916.666666667, 0, 112
6557, 916.666666667, 0, 119
6558, 916.666666667, 0, 126
6559, 944.444444444, -2.5, 112
6560, 944.444444444, -2.5, 119
6561, 944.444444444, -2.5, 126
6562, 944.444444444, 0, 119
6563, 888.888888889, 2.5, 112
6564, 888.888888889, 2.5, 119
6565, 888.888888889, 2.5, 126
6566, 916.666666667, 2.5, 112
6567, 916.666666667, 2.5, 119
6568, 916.666666667, 2.5, 126
6569, 916.666666667, 5, 112
6570, 916.666666667, 5, 119
6571, 916.666666667, 5, 126
6572, 944.444444444, 2.5, 112
6573, 944.444444444, 2.5, 119
6574, 944.444444444, 2.5, 126
6575, 944.444444444, 5, 119
6576, 916.666666667, 7.5, 112
6577, 916.666666667, 7.5, 119
6578, 916.666666667, 7.5, 126
6579, 916.666666667, 10, 112
6580, 916.666666667, 10, 119
6581, 916.666666667, 10, 126
6582, 944.444444444, 7.5, 112
6583, 944.444444444, 7.5, 119
6584, 944.444444444, 7.5, 126
6585, 944.444444444, 10, 119
6586, 944.444444444, -10, 145
6587, 944.444444444, -10, 150
6588, 944.444444444, -5, 145
6589, 944.444444444, -5, 150
6590, 944.444444444, 0, 145
6591, 944.444444444, 0, 150
6592, 1000, -10, 145
6593, 1000, -5, 145
6594, 1000, -5, 150
6595, 1000, 0, 145
6596, 944.444444444, 5, 145
6597, 944.444444444, 5, 150
6598, 944.444444444, 10, 145
6599, 944.444444444, 10, 150
6600, 1000, 5, 145
6601, 1000, 5, 150
6602, 1000, 10, 145
6603, 1055.55555556, -10, 98
6604, 1055.55555556, -10, 112
6605, 1055.55555556, -5, 98
6606, 1055.55555556, -5, 112
6607, 1055.55555556, 0, 98
6608, 1055.55555556, 0, 112
6609, 1111.11111111, -10, 98
6610, 1111.11111111, -5, 98
6611, 1111.11111111, -5, 112
6612, 1111.11111111, 0, 98
6613, 1055.55555556, -10, 126
6614, 1055.55555556, -10, 140
6615, 1055.55555556, -5, 126
6616, 1055.55555556, -5, 140
6617, 1055.55555556, 0, 126
6618, 1055.55555556, 0, 140
6619, 1111.11111111, -10, 126
6620, 1111.11111111, -5, 126
6621, 1111.11111111, -5, 140
6622, 1111.11111111, 0, 126
6623, 1055.55555556, 5, 98
6624, 1055.55555556, 5, 112
6625, 1055.55555556, 10, 98
6626, 1055.55555556, 10, 112
6627, 1111.11111111, 5, 98
6628, 1111.11111111, 5, 112
6629, 1111.11111111, 10, 98
6630, 1055.55555556, 5, 126
6631, 1055.55555556, 5, 140
6632, 1055.55555556, 10, 126
6633, 1055.55555556, 10, 140
6634, 1111.11111111, 5, 126
6635, 1111.11111111, 5, 140
6636, 1111.11111111, 10, 126
6637, 1166.66666667, -10, 70
6638, 1166.66666667, -10, 84
6639, 1166.66666667, -5, 70
6640, 1166.66666667, -5, 84
6641, 1166.66666667, 0, 70
6642, 1166.66666667, 0, 84
6643, 1222.22222222, -10, 70
6644, 1222.22222222, -5, 70
6645, 1222.22222222, -5, 84
6646, 1222.22222222, 0, 70
6647, 1166.66666667, 5, 70
6648, 1166.66666667, 5, 84
6649, 1166.66666667, 10, 70
6650, 1166.66666667, 10, 84
6651, 1222.22222222, 5, 70
6652, 1222.22222222, 5, 84
6653, 1222.22222222, 10, 70
6654, 1277.77777778, -10, 70
6655, 1277.77777778, -10, 84
6656, 1277.77777778, -5, 70
6657, 1277.77777778, -5, 84
6658, 1277.77777778, 0, 70
6659, 1277.77777778, 0, 84
6660, 1333.33333333, -10, 70
6661, 1333.33333333, -5, 70
6662, 1333.33333333, -5, 84
6663, 1333.33333333, 0, 70
6664, 1277.77777778, 5, 70
6665, 1277.77777778, 5, 84
6666, 1277.77777778, 10, 70
6667, 1277.77777778, 10, 84
6668, 1333.33333333, 5, 70
6669, 1333.33333333, 5, 84
6670, 1333.33333333, 10, 70
6671, 1388.88888889, -10, 42
6672, 1388.88888889, -10, 56
6673, 1388.88888889, -5, 42
6674, 1388.88888889, -5, 56
6675, 1388.88888889, 0, 42
6676, 1388.88888889, 0, 56
6677, 1444.44444444, -10, 42
6678, 1444.44444444, -5, 42
6679, 1444.44444444, -5, 56
6680, 1444.44444444, 0, 42
6681, 1388.88888889, 5, 42
6682, 1388.88888889, 5, 56
6683, 1388.88888889, 10, 42
6684, 1388.88888889, 10, 56
6685, 1444.44444444, 5, 42
6686, 1444.44444444, 5, 56
6687, 1444.44444444, 10, 42
6688, 1611.11111111, -10, 0
6689, 1611.11111111, -10, 14
6690, 1611.11111111, -10, 28
6691, 1611.11111111, -5, 0
6692, 1611.11111111, -5, 14
6693, 1611.11111111, -5, 28
6694, 1611.11111111, 0, 0
6695, 1611.11111111, 0, 14
6696, 1611.11111111, 0, 28
6697, 1666.66666667, -10, 14
6698, 1666.66666667, -5, 0
6699, 1666.66666667, -5, 14
6700, 1666.66666667, -5, 28
6701, 1666.66666667, 0, 14
6702, 1611.11111111, 5, 0
6703, 1611.11111111, 5, 14
6704, 1611.11111111, 5, 28
6705, 1611.11111111, 10, 0
6706, 1611.11111111, 10, 14
6707, 1611.11111111, 10, 28
6708, 1666.66666667, 5, 0
6709, 1666.66666667, 5, 14
6710, 1666.66666667, 5, 28
6711, 1666.66666667, 10, 14
*ELEMENT, TYPE=C3D8, ELSET=EALL
1, 1, 1363, 1366, 1359, 1358, 1364, 1367, 1360
2, 1358, 1364, 1367, 1360, 913, 1365, 1368, 1361
3, 1359, 1366, 1369, 914, 1360, 1367, 1370, 1362
4, 1360, 1367, 1370, 1362, 1361, 1368, 1371, 915
5, 1363, 4816, 4819, 4812, 4811, 4817, 4820, 4813
6, 4811, 4817, 4820, 4813, 1364, 4818, 4821, 4814
7, 4812, 4819, 4822, 1366, 4813, 4820, 4823, 4815
8, 4813, 4820, 4823, 4815, 4814, 4821, 4824, 1367
9, 4816, 918, 4826, 4819, 4817, 4825, 4827, 4820
10, 4817, 4825, 4827, 4820, 4818, 1372, 4828, 4821
11, 4819, 4826, 1373, 4822, 4820, 4827, 4829, 4823
12, 4820, 4827, 4829, 4823, 4821, 4828, 1374, 4824
13, 1364, 1372, 1374, 1367, 1365, 919, 1375, 1368
14, 1366, 4822, 4834, 4830, 4815, 4823, 4835, 4831
15, 4815, 4823, 4835, 4831, 1367, 4824, 4836, 4832
16, 4830, 4834, 4837, 1369, 4831, 4835, 4838, 4833
17, 4831, 4835, 4838, 4833, 4832, 4836, 4839, 1370
18, 4822, 1373, 4840, 4834, 4823, 4829, 4841, 4835
19, 4823, 4829, 4841, 4835, 4824, 1374, 4842, 4836
20, 4834, 4840, 921, 4837, 4835, 4841, 4843, 4838
21, 4835, 4841, 4843, 4838, 4836, 4842, 1376, 4839
22, 1367, 1374, 1376, 1370, 1368, 1375, 922, 1371
23, 913, 919, 922, 915, 5, 920, 923, 916
24, 914, 1369, 1381, 1377, 1362, 1370, 1382, 1378
25, 1362, 1370, 1382, 1378, 915, 1371, 1383, 1379
26, 1377, 1381, 1384, 4, 1378, 1382, 1385, 1380
27, 1378, 1382, 1385, 1380, 1379, 1383, 1386, 917
28, 1369, 4837, 4848, 4844, 4833, 4838, 4849, 4845
29, 4833, 4838, 4849, 4845, 1370, 4839, 4850, 4846
30, 4844, 4848, 4851, 1381, 4845, 4849, 4852, 4847
31, 4845, 4849, 4852, 4847, 4846, 4850, 4853, 1382
32, 4837, 921, 4854, 4848, 4838, 4843, 4855, 4849
33, 4838, 4843, 4855, 4849, 4839, 1376, 4856, 4850
34, 4848, 4854, 1387, 4851, 4849, 4855, 4857, 4852
35, 4849, 4855, 4857, 4852, 4850, 4856, 1388, 4853
36, 1370, 1376, 1388, 1382, 1371, 922, 1389, 1383
37, 1381, 4851, 4862, 4858, 4847, 4852, 4863, 4859
38, 4847, 4852, 4863, 4859, 1382, 4853, 4864, 4860
39, 4858, 4862, 4865, 1384, 4859, 4863, 4866, 4861
40, 4859, 4863, 4866, 4861, 4860, 4864, 4867, 1385
41, 4851, 1387, 4868, 4862, 4852, 4857, 4869, 4863
42, 4852, 4857, 4869, 4863, 4853, 1388, 4870, 4864
43, 4862, 4868, 924, 4865, 4863, 4869, 4871, 4866
44, 4863, 4869, 4871, 4866, 4864, 4870, 1390, 4867
45, 1382, 1388, 1390, 1385, 1383, 1389, 925, 1386
46, 915, 922, 925, 917, 916, 923, 926, 8
47, 918, 1391, 1394, 1373, 1372, 1392, 1395, 1374
48, 1372, 1392, 1395, 1374, 919, 1393, 1396, 1375
49, 1373, 1394, 1397, 921, 1374, 1395, 1398, 1376
50, 1374, 1395, 1398, 1376, 1375, 1396, 1399, 922
51, 1391, 2, 1401, 1394, 1392, 1400, 1402, 1395
52, 1392, 1400, 1402, 1395, 1393, 927, 1403, 1396
53, 1394, 1401, 928, 1397, 1395, 1402, 1404, 1398
54, 1395, 1402, 1404, 1398, 1396, 1403, 929, 1399
55, 919, 1393, 1396, 1375, 1405, 1409, 1411, 1406
56, 1405, 1409, 1411, 1406, 920, 1410, 1412, 1407
57, 1375, 1396, 1399, 922, 1406, 1411, 1413, 1408
58, 1406, 1411, 1413, 1408, 1407, 1412, 1414, 923
59, 1393, 927, 1403, 1396, 1409, 1415, 1416, 1411
60, 1409, 1415, 1416, 1411, 1410, 6, 1417, 1412
61, 1396, 1403, 929, 1399, 1411, 1416, 1418, 1413
62, 1411, 1416, 1418, 1413, 1412, 1417, 930, 1414
63, 921, 1397, 1419, 1387, 1376, 1398, 1420, 1388
64, 1376, 1398, 1420, 1388, 922, 1399, 1421, 1389
65, 1387, 1419, 1422, 924, 1388, 1420, 1423, 1390
66, 1388, 1420, 1423, 1390, 1389, 1421, 1424, 925
67, 1397, 928, 1425, 1419, 1398, 1404, 1426, 1420
68, 1398, 1404, 1426, 1420, 1399, 929, 1427, 1421
69, 1419, 1425, 3, 1422, 1420, 1426, 1428, 1423
70, 1420, 1426, 1428, 1423, 1421, 1427, 931, 1424
71, 922, 1399, 1421, 1389, 1408, 1413, 1432, 1429
72, 1408, 1413, 1432, 1429, 923, 1414, 1433, 1430
73, 1389, 1421, 1424, 925, 1429, 1432, 1434, 1431
74, 1429, 1432, 1434, 1431, 1430, 1433, 1435, 926
75, 1399, 929, 1427, 1421, 1413, 1418, 1436, 1432
76, 1413, 1418, 1436, 1432, 1414, 930, 1437, 1433
77, 1421, 1427, 931, 1424, 1432, 1436, 1438, 1434
78, 1432, 1436, 1438, 1434, 1433, 1437, 7, 1435
79, 5, 920, 923, 916, 932, 936, 938, 933
80, 932, 936, 938, 933, 9, 937, 939, 934
81, 916, 923, 926, 8, 933, 938, 940, 935
82, 933, 938, 940, 935, 934, 939, 941, 12
83, 920, 1410, 1412, 1407, 1439, 1443, 1445, 1440
84, 1439, 1443, 1445, 1440, 936, 1444, 1446, 1441
85, 1407, 1412, 1414, 923, 1440, 1445, 1447, 1442
86, 1440, 1445, 1447, 1442, 1441, 1446, 1448, 938
87, 1410, 6, 1417, 1412, 1443, 1449, 1450, 1445
88, 1443, 1449, 1450, 1445, 1444, 942, 1451, 1446
89, 1412, 1417, 930, 1414, 1445, 1450, 1452, 1447
90, 1445, 1450, 1452, 1447, 1446, 1451, 943, 1448
91, 936, 1444, 1446, 1441, 2030, 2034, 2036, 2031
92, 2030, 2034, 2036, 2031, 937, 2035, 2037, 2032
93, 1441, 1446, 1448, 938, 2031, 2036, 2038, 2033
94, 2031, 2036, 2038, 2033, 2032, 2037, 2039, 939
95, 1444, 942, 1451, 1446, 2034, 2040, 2041, 2036
96, 2034, 2040, 2041, 2036, 2035, 10, 2042, 2037
97, 1446, 1451, 943, 1448, 2036, 2041, 2043, 2038
98, 2036, 2041, 2043, 2038, 2037, 2042, 944, 2039
99, 923, 1414, 1433, 1430, 1442, 1447, 1456, 1453
100, 1442, 1447, 1456, 1453, 938, 1448, 1457, 1454
101, 1430, 1433, 1435, 926, 1453, 1456, 1458, 1455
102, 1453, 1456, 1458, 1455, 1454, 1457, 1459, 940
103, 1414, 930, 1437, 1433, 1447, 1452, 1460, 1456
104, 1447, 1452, 1460, 1456, 1448, 943, 1461, 1457
105, 1433, 1437, 7, 1435, 1456, 1460, 1462, 1458
106, 1456, 1460, 1462, 1458, 1457, 1461, 945, 1459
107, 938, 1448, 1457, 1454, 2033, 2038, 2047, 2044
108, 2033, 2038, 2047, 2044, 939, 2039, 2048, 2045
109, 1454, 1457, 1459, 940, 2044, 2047, 2049, 2046
110, 2044, 2047, 2049, 2046, 2045, 2048, 2050, 941
111, 1448, 943, 1461, 1457, 2038, 2043, 2051, 2047
112, 2038, 2043, 2051, 2047, 2039, 944, 2052, 2048
113, 1457, 1461, 945, 1459, 2047, 2051, 2053, 2049
114, 2047, 2051, 2053, 2049, 2048, 2052, 11, 2050
115, 9, 937, 939, 934, 1463, 1467, 1469, 1464
116, 1463, 1467, 1469, 1464, 13, 1468, 1470, 1465
117, 934, 939, 941, 12, 1464, 1469, 1471, 1466
118, 1464, 1469, 1471, 1466, 1465, 1470, 1472, 16
119, 937, 2035, 2037, 2032, 2054, 2058, 2060, 2055
120, 2054, 2058, 2060, 2055, 1467, 2059, 2061, 2056
121, 2032, 2037, 2039, 939, 2055, 2060, 2062, 2057
122, 2055, 2060, 2062, 2057, 2056, 2061, 2063, 1469
123, 2035, 10, 2042, 2037, 2058, 2064, 2065, 2060
124, 2058, 2064, 2065, 2060, 2059, 994, 2066, 2061
125, 2037, 2042, 944, 2039, 2060, 2065, 2067, 2062
126, 2060, 2065, 2067, 2062, 2061, 2066, 995, 2063
127, 1467, 994, 995, 1469, 1468, 14, 996, 1470
128, 939, 2039, 2048, 2045, 2057, 2062, 2071, 2068
129, 2057, 2062, 2071, 2068, 1469, 2063, 2072, 2069
130, 2045, 2048, 2050, 941, 2068, 2071, 2073, 2070
131, 2068, 2071, 2073, 2070, 2069, 2072, 2074, 1471
132, 2039, 944, 2052, 2048, 2062, 2067, 2075, 2071
133, 2062, 2067, 2075, 2071, 2063, 995, 2076, 2072
134, 2048, 2052, 11, 2050, 2071, 2075, 2077, 2073
135, 2071, 2075, 2077, 2073, 2072, 2076, 997, 2074
136, 1469, 995, 997, 1471, 1470, 996, 15, 1472
137, 13, 1468, 1470, 1465, 2078, 2082, 2084, 2079
138, 2078, 2082, 2084, 2079, 17, 2083, 2085, 2080
139, 1465, 1470, 1472, 16, 2079, 2084, 2086, 2081
140, 2079, 2084, 2086, 2081, 2080, 2085, 2087, 20
141, 1468, 14, 996, 1470, 2082, 1568, 1569, 2084
142, 2082, 1568, 1569, 2084, 2083, 18, 1009, 2085
143, 1470, 996, 15, 1472, 2084, 1569, 1570, 2086
144, 2084, 1569, 1570, 2086, 2085, 1009, 19, 2087
145, 17, 2083, 2085, 2080, 2088, 2092, 2094, 2089
146, 2088, 3650, 3653, 3646, 3645, 3651, 3654, 3647
147, 3645, 3651, 3654, 3647, 21, 3652, 3655, 3648
148, 3646, 3653, 3656, 2089, 3647, 3654, 3657, 3649
149, 3647, 3654, 3657, 3649, 3648, 3655, 3658, 2090
150, 3650, 2092, 3660, 3653, 3651, 3659, 3661, 3654
151, 3651, 3659, 3661, 3654, 3652, 2093, 3662, 3655
152, 3653, 3660, 2094, 3656, 3654, 3661, 3663, 3657
153, 3654, 3661, 3663, 3657, 3655, 3662, 2095, 3658
154, 2080, 2085, 2087, 20, 2089, 2094, 2096, 2091
155, 2089, 2094, 2096, 2091, 2090, 2095, 2097, 24
156, 2083, 4875, 4877, 4873, 4872, 4876, 4878, 4874
157, 4872, 4876, 4878, 4874, 2092, 3664, 3667, 3660
158, 4873, 4877, 2727, 2085, 4874, 4878, 2728, 2722
159, 4874, 4878, 2728, 2722, 3660, 3667, 2729, 2094
160, 4875, 18, 2242, 4877, 4876, 2274, 2275, 4878
161, 4876, 2274, 2275, 4878, 3664, 1008, 2276, 3667
162, 4877, 2242, 1009, 2727, 4878, 2275, 2277, 2728
163, 4878, 2275, 2277, 2728, 3667, 2276, 1010, 2729
164, 2092, 3664, 3667, 3660, 3659, 3665, 3668, 3661
165, 3659, 3665, 3668, 3661, 2093, 3666, 3669, 3662
166, 3660, 3667, 2729, 2094, 3661, 3668, 3670, 3663
167, 3661, 3668, 3670, 3663, 3662, 3669, 3671, 2095
168, 3664, 1008, 2276, 3667, 3665, 2288, 2289, 3668
169, 3665, 2288, 2289, 3668, 3666, 22, 2290, 3669
170, 3667, 2276, 1010, 2729, 3668, 2289, 2291, 3670
171, 3668, 2289, 2291, 3670, 3669, 2290, 1011, 3671
172, 2085, 2727, 2730, 2723, 2722, 2728, 2731, 2724
173, 2722, 2728, 2731, 2724, 2094, 2729, 2732, 2725
174, 2723, 2730, 2733, 2087, 2724, 2731, 2734, 2726
175, 2724, 2731, 2734, 2726, 2725, 2732, 2735, 2096
176, 2727, 1009, 2302, 2730, 2728, 2277, 2303, 2731
177, 2728, 2277, 2303, 2731, 2729, 1010, 2304, 2732
178, 2730, 2302, 19, 2733, 2731, 2303, 2305, 2734
179, 2731, 2303, 2305, 2734, 2732, 2304, 1012, 2735
180, 2094, 2729, 2732, 2725, 3663, 3670, 3675, 3672
181, 3663, 3670, 3675, 3672, 2095, 3671, 3676, 3673
182, 2725, 2732, 2735, 2096, 3672, 3675, 3677, 3674
183, 3672, 3675, 3677, 3674, 3673, 3676, 3678, 2097
184, 2729, 1010, 2304, 2732, 3670, 2291, 2316, 3675
185, 3670, 2291, 2316, 3675, 3671, 1011, 2317, 3676
186, 2732, 2304, 1012, 2735, 3675, 2316, 2318, 3677
187, 3675, 2316, 2318, 3677, 3676, 2317, 23, 3678
188, 4, 1384, 1477, 1473, 1380, 1385, 1478, 1474
189, 1380, 1385, 1478, 1474, 917, 1386, 1479, 1475
190, 1473, 1477, 1480, 946, 1474, 1478, 1481, 1476
191, 1474, 1478, 1481, 1476, 1475, 1479, 1482, 947
192, 1384, 4865, 4883, 4879, 4861, 4866, 4884, 4880
193, 4861, 4866, 4884, 4880, 1385, 4867, 4885, 4881
194, 4879, 4883, 4886, 1477, 4880, 4884, 4887, 4882
195, 4880, 4884, 4887, 4882, 4881, 4885, 4888, 1478
196, 4865, 924, 4889, 4883, 4866, 4871, 4890, 4884
197, 4866, 4871, 4890, 4884, 4867, 1390, 4891, 4885
198, 4883, 4889, 1483, 4886, 4884, 4890, 4892, 4887
199, 4884, 4890, 4892, 4887, 4885, 4891, 1484, 4888
200, 1385, 1390, 1484, 1478, 1386, 925, 1485, 1479
201, 1477, 4886, 4897, 4893, 4882, 4887, 4898, 4894
202, 4882, 4887, 4898, 4894, 1478, 4888, 4899, 4895
203, 4893, 4897, 4900, 1480, 4894, 4898, 4901, 4896
204, 4894, 4898, 4901, 4896, 4895, 4899, 4902, 1481
205, 4886, 1483, 4903, 4897, 4887, 4892, 4904, 4898
206, 4887, 4892, 4904, 4898, 4888, 1484, 4905, 4899
207, 4897, 4903, 950, 4900, 4898, 4904, 4906, 4901
208, 4898, 4904, 4906, 4901, 4899, 4905, 1486, 4902
209, 1478, 1484, 1486, 1481, 1479, 1485, 951, 1482
210, 917, 925, 951, 947, 8, 926, 952, 948
211, 946, 1480, 1491, 1487, 1476, 1481, 1492, 1488
212, 1476, 1481, 1492, 1488, 947, 1482, 1493, 1489
213, 1487, 1491, 1494, 26, 1488, 1492, 1495, 1490
214, 1488, 1492, 1495, 1490, 1489, 1493, 1496, 949
215, 1480, 4900, 4911, 4907, 4896, 4901, 4912, 4908
216, 4896, 4901, 4912, 4908, 1481, 4902, 4913, 4909
217, 4907, 4911, 4914, 1491, 4908, 4912, 4915, 4910
218, 4908, 4912, 4915, 4910, 4909, 4913, 4916, 1492
219, 4900, 950, 4917, 4911, 4901, 4906, 4918, 4912
220, 4901, 4906, 4918, 4912, 4902, 1486, 4919, 4913
221, 4911, 4917, 1497, 4914, 4912, 4918, 4920, 4915
222, 4912, 4918, 4920, 4915, 4913, 4919, 1498, 4916
223, 1481, 1486, 1498, 1492, 1482, 951, 1499, 1493
224, 1491, 4914, 4925, 4921, 4910, 4915, 4926, 4922
225, 4910, 4915, 4926, 4922, 1492, 4916, 4927, 4923
226, 4921, 4925, 4928, 1494, 4922, 4926, 4929, 4924
227, 4922, 4926, 4929, 4924, 4923, 4927, 4930, 1495
228, 4914, 1497, 4931, 4925, 4915, 4920, 4932, 4926
229, 4915, 4920, 4932, 4926, 4916, 1498, 4933, 4927
230, 4925, 4931, 953, 4928, 4926, 4932, 4934, 4929
231, 4926, 4932, 4934, 4929, 4927, 4933, 1500, 4930
232, 1492, 1498, 1500, 1495, 1493, 1499, 954, 1496
233, 947, 951, 954, 949, 948, 952, 955, 28
234, 924, 1422, 1501, 1483, 1390, 1423, 1502, 1484
235, 1390, 1423, 1502, 1484, 925, 1424, 1503, 1485
236, 1483, 1501, 1504, 950, 1484, 1502, 1505, 1486
237, 1484, 1502, 1505, 1486, 1485, 1503, 1506, 951
238, 1422, 3, 1507, 1501, 1423, 1428, 1508, 1502
239, 1423, 1428, 1508, 1502, 1424, 931, 1509, 1503
240, 1501, 1507, 956, 1504, 1502, 1508, 1510, 1505
241, 1502, 1508, 1510, 1505, 1503, 1509, 957, 1506
242, 925, 1424, 1503, 1485, 1431, 1434, 1514, 1511
243, 1431, 1434, 1514, 1511, 926, 1435, 1515, 1512
244, 1485, 1503, 1506, 951, 1511, 1514, 1516, 1513
245, 1511, 1514, 1516, 1513, 1512, 1515, 1517, 952
246, 1424, 931, 1509, 1503, 1434, 1438, 1518, 1514
247, 1434, 1438, 1518, 1514, 1435, 7, 1519, 1515
248, 1503, 1509, 957, 1506, 1514, 1518, 1520, 1516
249, 1514, 1518, 1520, 1516, 1515, 1519, 958, 1517
250, 950, 1504, 1521, 1497, 1486, 1505, 1522, 1498
251, 1486, 1505, 1522, 1498, 951, 1506, 1523, 1499
252, 1497, 1521, 1524, 953, 1498, 1522, 1525, 1500
253, 1498, 1522, 1525, 1500, 1499, 1523, 1526, 954
254, 1504, 956, 1527, 1521, 1505, 1510, 1528, 1522
255, 1505, 1510, 1528, 1522, 1506, 957, 1529, 1523
256, 1521, 1527, 25, 1524, 1522, 1528, 1530, 1525
257, 1522, 1528, 1530, 1525, 1523, 1529, 959, 1526
258, 951, 1506, 1523, 1499, 1513, 1516, 1534, 1531
259, 1513, 1516, 1534, 1531, 952, 1517, 1535, 1532
260, 1499, 1523, 1526, 954, 1531, 1534, 1536, 1533
261, 1531, 1534, 1536, 1533, 1532, 1535, 1537, 955
262, 1506, 957, 1529, 1523, 1516, 1520, 1538, 1534
263, 1516, 1520, 1538, 1534, 1517, 958, 1539, 1535
264, 1523, 1529, 959, 1526, 1534, 1538, 1540, 1536
265, 1534, 1538, 1540, 1536, 1535, 1539, 27, 1537
266, 8, 926, 952, 948, 935, 940, 963, 960
267, 935, 940, 963, 960, 12, 941, 964, 961
268, 948, 952, 955, 28, 960, 963, 965, 962
269, 960, 963, 965, 962, 961, 964, 966, 30
270, 926, 1435, 1515, 1512, 1455, 1458, 1544, 1541
271, 1455, 1458, 1544, 1541, 940, 1459, 1545, 1542
272, 1512, 1515, 1517, 952, 1541, 1544, 1546, 1543
273, 1541, 1544, 1546, 1543, 1542, 1545, 1547, 963
274, 1435, 7, 1519, 1515, 1458, 1462, 1548, 1544
275, 1458, 1462, 1548, 1544, 1459, 945, 1549, 1545
276, 1515, 1519, 958, 1517, 1544, 1548, 1550, 1546
277, 1544, 1548, 1550, 1546, 1545, 1549, 967, 1547
278, 940, 1459, 1545, 1542, 2046, 2049, 2101, 2098
279, 2046, 2049, 2101, 2098, 941, 2050, 2102, 2099
280, 1542, 1545, 1547, 963, 2098, 2101, 2103, 2100
281, 2098, 2101, 2103, 2100, 2099, 2102, 2104, 964
282, 1459, 945, 1549, 1545, 2049, 2053, 2105, 2101
283, 2049, 2053, 2105, 2101, 2050, 11, 2106, 2102
284, 1545, 1549, 967, 1547, 2101, 2105, 2107, 2103
285, 2101, 2105, 2107, 2103, 2102, 2106, 968, 2104
286, 952, 1517, 1535, 1532, 1543, 1546, 1554, 1551
287, 1543, 1546, 1554, 1551, 963, 1547, 1555, 1552
288, 1532, 1535, 1537, 955, 1551, 1554, 1556, 1553
289, 1551, 1554, 1556, 1553, 1552, 1555, 1557, 965
290, 1517, 958, 1539, 1535, 1546, 1550, 1558, 1554
291, 1546, 1550, 1558, 1554, 1547, 967, 1559, 1555
292, 1535, 1539, 27, 1537, 1554, 1558, 1560, 1556
293, 1554, 1558, 1560, 1556, 1555, 1559, 969, 1557
294, 963, 1547, 1555, 1552, 2100, 2103, 2111, 2108
295, 2100, 2103, 2111, 2108, 964, 2104, 2112, 2109
296, 1552, 1555, 1557, 965, 2108, 2111, 2113, 2110
297, 2108, 2111, 2113, 2110, 2109, 2112, 2114, 966
298, 1547, 967, 1559, 1555, 2103, 2107, 2115, 2111
299, 2103, 2107, 2115, 2111, 2104, 968, 2116, 2112
300, 1555, 1559, 969, 1557, 2111, 2115, 2117, 2113
301, 2111, 2115, 2117, 2113, 2112, 2116, 29, 2114
302, 12, 941, 964, 961, 1466, 1471, 1564, 1561
303, 1466, 1471, 1564, 1561, 16, 1472, 1565, 1562
304, 961, 964, 966, 30, 1561, 1564, 1566, 1563
305, 1561, 1564, 1566, 1563, 1562, 1565, 1567, 32
306, 941, 2050, 2102, 2099, 2070, 2073, 2121, 2118
307, 2070, 2073, 2121, 2118, 1471, 2074, 2122, 2119
308, 2099, 2102, 2104, 964, 2118, 2121, 2123, 2120
309, 2118, 2121, 2123, 2120, 2119, 2122, 2124, 1564
310, 2050, 11, 2106, 2102, 2073, 2077, 2125, 2121
311, 2073, 2077, 2125, 2121, 2074, 997, 2126, 2122
312, 2102, 2106, 968, 2104, 2121, 2125, 2127, 2123
313, 2121, 2125, 2127, 2123, 2122, 2126, 1044, 2124
314, 1471, 997, 1044, 1564, 1472, 15, 1045, 1565
315, 964, 2104, 2112, 2109, 2120, 2123, 2131, 2128
316, 2120, 2123, 2131, 2128, 1564, 2124, 2132, 2129
317, 2109, 2112, 2114, 966, 2128, 2131, 2133, 2130
318, 2128, 2131, 2133, 2130, 2129, 2132, 2134, 1566
319, 2104, 968, 2116, 2112, 2123, 2127, 2135, 2131
320, 2123, 2127, 2135, 2131, 2124, 1044, 2136, 2132
321, 2112, 2116, 29, 2114, 2131, 2135, 2137, 2133
322, 2131, 2135, 2137, 2133, 2132, 2136, 1046, 2134
323, 1564, 1044, 1046, 1566, 1565, 1045, 31, 1567
324, 16, 1472, 1565, 1562, 2081, 2086, 2141, 2138
325, 2081, 2086, 2141, 2138, 20, 2087, 2142, 2139
326, 1562, 1565, 1567, 32, 2138, 2141, 2143, 2140
327, 2138, 2141, 2143, 2140, 2139, 2142, 2144, 34
328, 1472, 15, 1045, 1565, 2086, 1570, 2145, 2141
329, 2086, 1570, 2145, 2141, 2087, 19, 1577, 2142
330, 1565, 1045, 31, 1567, 2141, 2145, 2146, 2143
331, 2141, 2145, 2146, 2143, 2142, 1577, 33, 2144
332, 20, 2087, 2142, 2139, 2091, 2096, 2150, 2147
333, 2091, 2096, 2150, 2147, 24, 2097, 2151, 2148
334, 2139, 2142, 2144, 34, 2147, 2150, 2152, 2149
335, 2147, 3684, 3687, 3680, 3679, 3685, 3688, 3681
336, 3679, 3685, 3688, 3681, 2148, 3686, 3689, 3682
337, 3680, 3687, 3690, 2149, 3681, 3688, 3691, 3683
338, 3681, 3688, 3691, 3683, 3682, 3689, 3692, 36
339, 3684, 2150, 2752, 3687, 3685, 3693, 3694, 3688
340, 3685, 3693, 3694, 3688, 3686, 2151, 3695, 3689
341, 3687, 2752, 2152, 3690, 3688, 3694, 3696, 3691
342, 3688, 3694, 3696, 3691, 3689, 3695, 2153, 3692
343, 2087, 2733, 2740, 2736, 2726, 2734, 2741, 2737
344, 2726, 2734, 2741, 2737, 2096, 2735, 2742, 2738
345, 2736, 2740, 2743, 2142, 2737, 2741, 2744, 2739
346, 2737, 2741, 2744, 2739, 2738, 2742, 2745, 2150
347, 2733, 19, 2746, 2740, 2734, 2305, 2747, 2741
348, 2734, 2305, 2747, 2741, 2735, 1012, 2748, 2742
349, 2740, 2746, 1577, 2743, 2741, 2747, 2749, 2744
350, 2741, 2747, 2749, 2744, 2742, 2748, 1578, 2745
351, 2096, 2735, 2742, 2738, 3674, 3677, 3699, 3697
352, 3674, 3677, 3699, 3697, 2097, 3678, 3700, 3698
353, 2738, 2742, 2745, 2150, 3697, 3699, 3701, 3693
354, 3697, 3699, 3701, 3693, 3698, 3700, 3702, 2151
355, 2735, 1012, 2748, 2742, 3677, 2318, 2791, 3699
356, 3677, 2318, 2791, 3699, 3678, 23, 2792, 3700
357, 2742, 2748, 1578, 2745, 3699, 2791, 2793, 3701
358, 3699, 2791, 2793, 3701, 3700, 2792, 1579, 3702
359, 2142, 2743, 2754, 2750, 2739, 2744, 2755, 2751
360, 2739, 2744, 2755, 2751, 2150, 2745, 2756, 2752
361, 2750, 2754, 2757, 2144, 2751, 2755, 2758, 2753
362, 2751, 2755, 2758, 2753, 2752, 2756, 2759, 2152
363, 2743, 1577, 2760, 2754, 2744, 2749, 2761, 2755
364, 2744, 2749, 2761, 2755, 2745, 1578, 2762, 2756
365, 2754, 2760, 33, 2757, 2755, 2761, 2763, 2758
366, 2755, 2761, 2763, 2758, 2756, 2762, 1580, 2759
367, 2150, 2745, 2756, 2752, 3693, 3701, 3703, 3694
368, 3693, 3701, 3703, 3694, 2151, 3702, 3704, 3695
369, 2752, 2756, 2759, 2152, 3694, 3703, 3705, 3696
370, 3694, 3703, 3705, 3696, 3695, 3704, 3706, 2153
371, 2745, 1578, 2762, 2756, 3701, 2793, 2801, 3703
372, 3701, 2793, 2801, 3703, 3702, 1579, 2802, 3704
373, 2756, 2762, 1580, 2759, 3703, 2801, 2803, 3705
374, 3703, 2801, 2803, 3705, 3704, 2802, 35, 3706
375, 37, 38, 39, 40, 41, 42, 43, 44
376, 41, 42, 43, 44, 45, 46, 47, 48
377, 40, 4940, 4943, 4936, 4935, 4941, 4944, 4937
378, 4935, 4941, 4944, 4937, 44, 4942, 4945, 4938
379, 4936, 4943, 4946, 50, 4937, 4944, 4947, 4939
380, 4937, 4944, 4947, 4939, 4938, 4945, 4948, 52
381, 4940, 39, 1638, 4943, 4941, 1594, 1639, 4944
382, 4941, 1594, 1639, 4944, 4942, 43, 1073, 4945
383, 4943, 1638, 49, 4946, 4944, 1639, 1640, 4947
384, 4944, 1639, 1640, 4947, 4945, 1073, 51, 4948
385, 44, 43, 51, 52, 48, 47, 53, 54
386, 50, 4946, 4952, 4949, 4939, 4947, 4953, 4950
387, 4939, 4947, 4953, 4950, 52, 4948, 4954, 4951
388, 4949, 4952, 3711, 56, 4950, 4953, 3712, 3707
389, 4950, 4953, 3712, 3707, 4951, 4954, 3713, 58
390, 4946, 49, 1648, 4952, 4947, 1640, 1649, 4953
391, 4947, 1640, 1649, 4953, 4948, 51, 1087, 4954
392, 4952, 1648, 55, 3711, 4953, 1649, 1650, 3712
393, 4953, 1649, 1650, 3712, 4954, 1087, 57, 3713
394, 52, 51, 57, 58, 54, 53, 59, 60
395, 56, 3711, 3714, 3708, 3707, 3712, 3715, 3709
396, 3707, 3712, 3715, 3709, 58, 3713, 3716, 3710
397, 3708, 4960, 4963, 4956, 4955, 4961, 4964, 4957
398, 4955, 4961, 4964, 4957, 3709, 4962, 4965, 4958
399, 4956, 4963, 3652, 21, 4957, 4964, 4966, 4959
400, 4957, 4964, 4966, 4959, 4958, 4965, 4967, 2764
401, 4960, 3714, 4969, 4963, 4961, 4968, 4970, 4964
402, 4961, 4968, 4970, 4964, 4962, 3715, 4971, 4965
403, 4963, 4969, 2093, 3652, 4964, 4970, 4972, 4966
404, 4964, 4970, 4972, 4966, 4965, 4971, 2768, 4967
405, 3709, 3715, 2768, 2764, 3710, 3716, 2769, 62
406, 3711, 55, 1658, 3714, 3712, 1650, 1659, 3715
407, 3712, 1650, 1659, 3715, 3713, 57, 1101, 3716
408, 3714, 4973, 4976, 4969, 4968, 4974, 4977, 4970
409, 4968, 4974, 4977, 4970, 3715, 4975, 4978, 4971
410, 4969, 4976, 3666, 2093, 4970, 4977, 4979, 4972
411, 4970, 4977, 4979, 4972, 4971, 4978, 4980, 2768
412, 4973, 1658, 2381, 4976, 4974, 2380, 2382, 4977
413, 4974, 2380, 2382, 4977, 4975, 1659, 2383, 4978
414, 4976, 2381, 22, 3666, 4977, 2382, 2384, 4979
415, 4977, 2382, 2384, 4979, 4978, 2383, 1660, 4980
416, 3715, 1659, 1660, 2768, 3716, 1101, 61, 2769
417, 58, 3713, 3716, 3710, 4981, 4984, 4986, 4982
418, 4981, 4984, 4986, 4982, 60, 4985, 4987, 4983
419, 3710, 3716, 2769, 62, 4982, 4986, 3735, 3731
420, 4982, 4986, 3735, 3731, 4983, 4987, 3736, 64
421, 3713, 57, 1101, 3716, 4984, 1090, 1102, 4986
422, 4984, 1090, 1102, 4986, 4985, 59, 1103, 4987
423, 3716, 1101, 61, 2769, 4986, 1102, 1104, 3735
424, 4986, 1102, 1104, 3735, 4987, 1103, 63, 3736
425, 21, 2093, 2095, 2090, 2764, 2768, 2770, 2765
426, 2764, 4967, 4995, 4989, 4988, 4993, 4996, 4990
427, 4988, 4993, 4996, 4990, 62, 4994, 4997, 4991
428, 4989, 4995, 4998, 2765, 4990, 4996, 4999, 4992
429, 4990, 4996, 4999, 4992, 4991, 4997, 5000, 2766
430, 4967, 2768, 5002, 4995, 4993, 5001, 5003, 4996
431, 4993, 5001, 5003, 4996, 4994, 2769, 5004, 4997
432, 4995, 5002, 2770, 4998, 4996, 5003, 5005, 4999
433, 4996, 5003, 5005, 4999, 4997, 5004, 2771, 5000
434, 2090, 2095, 2097, 24, 2765, 2770, 2772, 2767
435, 2765, 2770, 2772, 2767, 2766, 2771, 2773, 66
436, 2093, 3666, 3669, 3662, 4972, 4979, 5007, 5006
437, 4972, 4979, 5007, 5006, 2768, 4980, 5008, 5002
438, 3662, 3669, 3671, 2095, 5006, 5007, 3721, 3717
439, 5006, 5007, 3721, 3717, 5002, 5008, 3722, 2770
440, 3666, 22, 2290, 3669, 4979, 2384, 5009, 5007
441, 4979, 2384, 5009, 5007, 4980, 1660, 5010, 5008
442, 3669, 2290, 1011, 3671, 5007, 5009, 3727, 3721
443, 5007, 5009, 3727, 3721, 5008, 5010, 1667, 3722
444, 2768, 4980, 5008, 5002, 5001, 5011, 5013, 5003
445, 5001, 5011, 5013, 5003, 2769, 5012, 5014, 5004
446, 5002, 5008, 3722, 2770, 5003, 5013, 5015, 5005
447, 5003, 5013, 5015, 5005, 5004, 5014, 5016, 2771
448, 4980, 1660, 5010, 5008, 5011, 5017, 5018, 5013
449, 5011, 5017, 5018, 5013, 5012, 61, 5019, 5014
450, 5008, 5010, 1667, 3722, 5013, 5018, 5020, 5015
451, 5013, 5018, 5020, 5015, 5014, 5019, 1668, 5016
452, 2095, 3671, 3676, 3673, 3717, 3721, 3723, 3718
453, 3717, 3721, 3723, 3718, 2770, 3722, 3724, 3719
454, 3673, 3676, 3678, 2097, 3718, 3723, 3725, 3720
455, 3718, 3723, 3725, 3720, 3719, 3724, 3726, 2772
456, 3671, 1011, 2317, 3676, 3721, 3727, 3728, 3723
457, 3721, 3727, 3728, 3723, 3722, 1667, 3729, 3724
458, 3676, 2317, 23, 3678, 3723, 3728, 3730, 3725
459, 3723, 3728, 3730, 3725, 3724, 3729, 1669, 3726
460, 2770, 3722, 3724, 3719, 5005, 5015, 5024, 5021
461, 5005, 5015, 5024, 5021, 2771, 5016, 5025, 5022
462, 3719, 3724, 3726, 2772, 5021, 5024, 5026, 5023
463, 5021, 5024, 5026, 5023, 5022, 5025, 5027, 2773
464, 3722, 1667, 3729, 3724, 5015, 5020, 5028, 5024
465, 5015, 5020, 5028, 5024, 5016, 1668, 5029, 5025
466, 3724, 3729, 1669, 3726, 5024, 5028, 5030, 5026
467, 5024, 5028, 5030, 5026, 5025, 5029, 65, 5027
468, 62, 2769, 2771, 2766, 3731, 3735, 3737, 3732
469, 3731, 3735, 3737, 3732, 64, 3736, 3738, 3733
470, 2766, 2771, 2773, 66, 3732, 3737, 3739, 3734
471, 3732, 3737, 3739, 3734, 3733, 3738, 3740, 68
472, 2769, 61, 1668, 2771, 3735, 1104, 1677, 3737
473, 3735, 1104, 1677, 3737, 3736, 63, 1678, 3738
474, 2771, 5016, 5025, 5022, 5031, 5035, 5037, 5032
475, 5031, 5035, 5037, 5032, 3737, 5036, 5038, 5033
476, 5022, 5025, 5027, 2773, 5032, 5037, 5039, 5034
477, 5032, 5037, 5039, 5034, 5033, 5038, 5040, 3739
478, 5016, 1668, 5029, 5025, 5035, 5041, 5042, 5037
479, 5035, 5041, 5042, 5037, 5036, 1677, 5043, 5038
480, 5025, 5029, 65, 5027, 5037, 5042, 5044, 5039
481, 5037, 5042, 5044, 5039, 5038, 5043, 1679, 5040
482, 3737, 5036, 5038, 5033, 5045, 5049, 5051, 5046
483, 5045, 5049, 5051, 5046, 3738, 5050, 5052, 5047
484, 5033, 5038, 5040, 3739, 5046, 5051, 5053, 5048
485, 5046, 5051, 5053, 5048, 5047, 5052, 5054, 3740
486, 5036, 1677, 5043, 5038, 5049, 5055, 5056, 5051
487, 5049, 5055, 5056, 5051, 5050, 1678, 5057, 5052
488, 5038, 5043, 1679, 5040, 5051, 5056, 5058, 5053
489, 5051, 5056, 5058, 5053, 5052, 5057, 67, 5054
490, 24, 2097, 2151, 2148, 2767, 2772, 2777, 2774
491, 2767, 2772, 2777, 2774, 66, 2773, 2778, 2775
492, 2148, 2151, 2153, 36, 2774, 2777, 2779, 2776
493, 2774, 5064, 5067, 5060, 5059, 5065, 5068, 5061
494, 5059, 5065, 5068, 5061, 2775, 5066, 5069, 5062
495, 5060, 5067, 5070, 2776, 5061, 5068, 5071, 5063
496, 5061, 5068, 5071, 5063, 5062, 5069, 5072, 70
497, 5064, 2777, 5074, 5067, 5065, 5073, 5075, 5068
498, 5065, 5073, 5075, 5068, 5066, 2778, 5076, 5069
499, 5067, 5074, 2779, 5070, 5068, 5075, 5077, 5071
500, 5068, 5075, 5077, 5071, 5069, 5076, 2780, 5072
501, 2097, 3678, 3700, 3698, 3720, 3725, 3744, 3741
502, 3720, 3725, 3744, 3741, 2772, 3726, 3745, 3742
503, 3698, 3700, 3702, 2151, 3741, 3744, 3746, 3743
504, 3741, 3744, 3746, 3743, 3742, 3745, 3747, 2777
505, 3678, 23, 2792, 3700, 3725, 3730, 3748, 3744
506, 3725, 3730, 3748, 3744, 3726, 1669, 3749, 3745
507, 3700, 2792, 1579, 3702, 3744, 3748, 3750, 3746
508, 3744, 3748, 3750, 3746, 3745, 3749, 2412, 3747
509, 2772, 3726, 3745, 3742, 5023, 5026, 5080, 5078
510, 5023, 5026, 5080, 5078, 2773, 5027, 5081, 5079
511, 3742, 3745, 3747, 2777, 5078, 5080, 5082, 5073
512, 5078, 5080, 5082, 5073, 5079, 5081, 5083, 2778
513, 3726, 1669, 3749, 3745, 5026, 5030, 5084, 5080
514, 5026, 5030, 5084, 5080, 5027, 65, 5085, 5081
515, 3745, 3749, 2412, 3747, 5080, 5084, 5086, 5082
516, 5080, 5084, 5086, 5082, 5081, 5085, 1687, 5083
517, 2151, 3702, 3704, 3695, 3743, 3746, 5089, 5087
518, 3743, 3746, 5089, 5087, 2777, 3747, 5090, 5074
519, 3695, 3704, 3706, 2153, 5087, 5089, 5091, 5088
520, 5087, 5089, 5091, 5088, 5074, 5090, 5092, 2779
521, 3702, 1579, 2802, 3704, 3746, 3750, 5093, 5089
522, 3746, 3750, 5093, 5089, 3747, 2412, 5094, 5090
523, 3704, 2802, 35, 3706, 5089, 5093, 5095, 5091
524, 5089, 5093, 5095, 5091, 5090, 5094, 1696, 5092
525, 2777, 3747, 5090, 5074, 5073, 5082, 5096, 5075
526, 5073, 5082, 5096, 5075, 2778, 5083, 5097, 5076
527, 5074, 5090, 5092, 2779, 5075, 5096, 5098, 5077
528, 5075, 5096, 5098, 5077, 5076, 5097, 5099, 2780
529, 3747, 2412, 5094, 5090, 5082, 5086, 5100, 5096
530, 5082, 5086, 5100, 5096, 5083, 1687, 5101, 5097
531, 5090, 5094, 1696, 5092, 5096, 5100, 5102, 5098
532, 5096, 5100, 5102, 5098, 5097, 5101, 69, 5099
533, 66, 2773, 2778, 2775, 3734, 3739, 3754, 3751
534, 3734, 3739, 3754, 3751, 68, 3740, 3755, 3752
535, 2775, 2778, 2780, 70, 3751, 3754, 3756, 3753
536, 3751, 3754, 3756, 3753, 3752, 3755, 3757, 72
537, 2773, 5027, 5081, 5079, 5034, 5039, 5106, 5103
538, 5034, 5039, 5106, 5103, 3739, 5040, 5107, 5104
539, 5079, 5081, 5083, 2778, 5103, 5106, 5108, 5105
540, 5103, 5106, 5108, 5105, 5104, 5107, 5109, 3754
541, 5027, 65, 5085, 5081, 5039, 5044, 5110, 5106
542, 5039, 5044, 5110, 5106, 5040, 1679, 5111, 5107
543, 5081, 5085, 1687, 5083, 5106, 5110, 5112, 5108
544, 5106, 5110, 5112, 5108, 5107, 5111, 1688, 5109
545, 3739, 5040, 5107, 5104, 5048, 5053, 5116, 5113
546, 5048, 5053, 5116, 5113, 3740, 5054, 5117, 5114
547, 5104, 5107, 5109, 3754, 5113, 5116, 5118, 5115
548, 5113, 5116, 5118, 5115, 5114, 5117, 5119, 3755
549, 5040, 1679, 5111, 5107, 5053, 5058, 5120, 5116
550, 5053, 5058, 5120, 5116, 5054, 67, 5121, 5117
551, 5107, 5111, 1688, 5109, 5116, 5120, 5122, 5118
552, 5116, 5120, 5122, 5118, 5117, 5121, 1689, 5119
553, 2778, 1687, 69, 2780, 3754, 1688, 1115, 3756
554, 3754, 1688, 1115, 3756, 3755, 1689, 71, 3757
555, 36, 3692, 5129, 5124, 5123, 5128, 5130, 5125
556, 5123, 5128, 5130, 5125, 2776, 5070, 5131, 5126
557, 5124, 5129, 5132, 3758, 5125, 5130, 5133, 5127
558, 5125, 5130, 5133, 5127, 5126, 5131, 5134, 3759
559, 3692, 2153, 5135, 5129, 5128, 5088, 5136, 5130
560, 5128, 5088, 5136, 5130, 5070, 2779, 5137, 5131
561, 5129, 5135, 3762, 5132, 5130, 5136, 5138, 5133
562, 5130, 5136, 5138, 5133, 5131, 5137, 3763, 5134
563, 2776, 2779, 3763, 3759, 70, 2780, 3764, 3760
564, 3758, 3762, 3765, 74, 3759, 3763, 3766, 3761
565, 3759, 3763, 3766, 3761, 3760, 3764, 3767, 76
566, 2153, 3706, 5139, 5135, 5088, 5091, 5140, 5136
567, 5088, 5091, 5140, 5136, 2779, 5092, 5141, 5137
568, 5135, 5139, 5142, 3762, 5136, 5140, 5143, 5138
569, 5136, 5140, 5143, 5138, 5137, 5141, 5144, 3763
570, 3706, 35, 5145, 5139, 5091, 5095, 5146, 5140
571, 5091, 5095, 5146, 5140, 5092, 1696, 5147, 5141
572, 5139, 5145, 1697, 5142, 5140, 5146, 5148, 5143
573, 5140, 5146, 5148, 5143, 5141, 5147, 1698, 5144
574, 2779, 1696, 1698, 3763, 2780, 69, 1116, 3764
575, 3762, 1697, 73, 3765, 3763, 1698, 1699, 3766
576, 3763, 1698, 1699, 3766, 3764, 1116, 75, 3767
577, 70, 2780, 3764, 3760, 3753, 3756, 5152, 5149
578, 3753, 3756, 5152, 5149, 72, 3757, 5153, 5150
579, 3760, 3764, 3767, 76, 5149, 5152, 5154, 5151
580, 5149, 5152, 5154, 5151, 5150, 5153, 5155, 78
581, 2780, 69, 1116, 3764, 3756, 1115, 1117, 5152
582, 3756, 1115, 1117, 5152, 3757, 71, 1118, 5153
583, 3764, 1116, 75, 3767, 5152, 1117, 1119, 5154
584, 5152, 1117, 1119, 5154, 5153, 1118, 77, 5155
585, 74, 3765, 5160, 5156, 3761, 3766, 5161, 5157
586, 3761, 3766, 5161, 5157, 76, 3767, 5162, 5158
587, 5156, 5160, 5163, 80, 5157, 5161, 5164, 5159
588, 5157, 5161, 5164, 5159, 5158, 5162, 5165, 82
589, 3765, 73, 1709, 5160, 3766, 1699, 1710, 5161
590, 3766, 1699, 1710, 5161, 3767, 75, 1134, 5162
591, 5160, 1709, 79, 5163, 5161, 1710, 1711, 5164
592, 5161, 1710, 1711, 5164, 5162, 1134, 81, 5165
593, 76, 75, 81, 82, 78, 77, 83, 84
594, 80, 5163, 5170, 5166, 5159, 5164, 5171, 5167
595, 5159, 5164, 5171, 5167, 82, 5165, 5172, 5168
596, 5166, 5170, 5173, 86, 5167, 5171, 5174, 5169
597, 5167, 5171, 5174, 5169, 5168, 5172, 5175, 88
598, 5163, 79, 1719, 5170, 5164, 1711, 1720, 5171
599, 5164, 1711, 1720, 5171, 5165, 81, 1148, 5172
600, 5170, 1719, 85, 5173, 5171, 1720, 1721, 5174
601, 5171, 1720, 1721, 5174, 5172, 1148, 87, 5175
602, 82, 81, 87, 88, 84, 83, 89, 90
603, 86, 85, 91, 92, 88, 87, 93, 94
604, 88, 87, 93, 94, 90, 89, 95, 96
605, 2, 970, 973, 928, 927, 971, 974, 929
606, 927, 971, 974, 929, 6, 972, 975, 930
607, 928, 973, 976, 3, 929, 974, 977, 931
608, 929, 974, 977, 931, 930, 975, 978, 7
609, 970, 97, 980, 973, 971, 979, 981, 974
610, 971, 979, 981, 974, 972, 99, 982, 975
611, 973, 980, 98, 976, 974, 981, 983, 977
612, 974, 981, 983, 977, 975, 982, 100, 978
613, 6, 972, 975, 930, 942, 984, 986, 943
614, 942, 984, 986, 943, 10, 985, 987, 944
615, 930, 975, 978, 7, 943, 986, 988, 945
616, 943, 986, 988, 945, 944, 987, 989, 11
617, 972, 99, 982, 975, 984, 990, 991, 986
618, 984, 990, 991, 986, 985, 101, 992, 987
619, 975, 982, 100, 978, 986, 991, 993, 988
620, 986, 991, 993, 988, 987, 992, 102, 989
621, 10, 2154, 2157, 2042, 2064, 2155, 2158, 2065
622, 2064, 2155, 2158, 2065, 994, 2156, 2159, 2066
623, 2042, 2157, 2160, 944, 2065, 2158, 2161, 2067
624, 2065, 2158, 2161, 2067, 2066, 2159, 2162, 995
625, 2154, 985, 2164, 2157, 2155, 2163, 2165, 2158
626, 2155, 2163, 2165, 2158, 2156, 998, 2166, 2159
627, 2157, 2164, 987, 2160, 2158, 2165, 2167, 2161
628, 2158, 2165, 2167, 2161, 2159, 2166, 1000, 2162
629, 994, 2156, 2159, 2066, 2168, 2172, 2174, 2169
630, 2168, 2172, 2174, 2169, 14, 2173, 2175, 2170
631, 2066, 2159, 2162, 995, 2169, 2174, 2176, 2171
632, 2169, 2174, 2176, 2171, 2170, 2175, 2177, 996
633, 2156, 998, 2166, 2159, 2172, 2178, 2179, 2174
634, 2172, 2178, 2179, 2174, 2173, 999, 2180, 2175
635, 2159, 2166, 1000, 2162, 2174, 2179, 2181, 2176
636, 2174, 2179, 2181, 2176, 2175, 2180, 1001, 2177
637, 944, 2160, 2182, 2052, 2067, 2161, 2183, 2075
638, 2067, 2161, 2183, 2075, 995, 2162, 2184, 2076
639, 2052, 2182, 2185, 11, 2075, 2183, 2186, 2077
640, 2075, 2183, 2186, 2077, 2076, 2184, 2187, 997
641, 2160, 987, 2188, 2182, 2161, 2167, 2189, 2183
642, 2161, 2167, 2189, 2183, 2162, 1000, 2190, 2184
643, 2182, 2188, 989, 2185, 2183, 2189, 2191, 2186
644, 2183, 2189, 2191, 2186, 2184, 2190, 1002, 2187
645, 995, 2162, 2184, 2076, 2171, 2176, 2195, 2192
646, 2171, 2176, 2195, 2192, 996, 2177, 2196, 2193
647, 2076, 2184, 2187, 997, 2192, 2195, 2197, 2194
648, 2192, 2195, 2197, 2194, 2193, 2196, 2198, 15
649, 2162, 1000, 2190, 2184, 2176, 2181, 2199, 2195
650, 2176, 2181, 2199, 2195, 2177, 1001, 2200, 2196
651, 2184, 2190, 1002, 2187, 2195, 2199, 2201, 2197
652, 2195, 2199, 2201, 2197, 2196, 2200, 1003, 2198
653, 985, 101, 992, 987, 998, 1004, 1005, 1000
654, 998, 2202, 2205, 2166, 2178, 2203, 2206, 2179
655, 2178, 2203, 2206, 2179, 999, 2204, 2207, 2180
656, 2166, 2205, 2208, 1000, 2179, 2206, 2209, 2181
657, 2179, 2206, 2209, 2181, 2180, 2207, 2210, 1001
658, 2202, 1004, 2212, 2205, 2203, 2211, 2213, 2206
659, 2203, 2211, 2213, 2206, 2204, 103, 2214, 2207
660, 2205, 2212, 1005, 2208, 2206, 2213, 2215, 2209
661, 2206, 2213, 2215, 2209, 2207, 2214, 1006, 2210
662, 987, 992, 102, 989, 1000, 1005, 1007, 1002
663, 1000, 2208, 2216, 2190, 2181, 2209, 2217, 2199
664, 2181, 2209, 2217, 2199, 1001, 2210, 2218, 2200
665, 2190, 2216, 2219, 1002, 2199, 2217, 2220, 2201
666, 2199, 2217, 2220, 2201, 2200, 2218, 2221, 1003
667, 2208, 1005, 2222, 2216, 2209, 2215, 2223, 2217
668, 2209, 2215, 2223, 2217, 2210, 1006, 2224, 2218
669, 2216, 2222, 1007, 2219, 2217, 2223, 2225, 2220
670, 2217, 2223, 2225, 2220, 2218, 2224, 104, 2221
671, 14, 2173, 2175, 2170, 2226, 2230, 2232, 2227
672, 2226, 2230, 2232, 2227, 1568, 2231, 2233, 2228
673, 2170, 2175, 2177, 996, 2227, 2232, 2234, 2229
674, 2227, 2232, 2234, 2229, 2228, 2233, 2235, 1569
675, 2173, 999, 2180, 2175, 2230, 2236, 2237, 2232
676, 2230, 2236, 2237, 2232, 2231, 1571, 2238, 2233
677, 2175, 2180, 1001, 2177, 2232, 2237, 2239, 2234
678, 2232, 2237, 2239, 2234, 2233, 2238, 1572, 2235
679, 1568, 2231, 2233, 2228, 2240, 2244, 2246, 2241
680, 2240, 2244, 2246, 2241, 18, 2245, 2247, 2242
681, 2228, 2233, 2235, 1569, 2241, 2246, 2248, 2243
682, 2241, 2246, 2248, 2243, 2242, 2247, 2249, 1009
683, 2231, 1571, 2238, 2233, 2244, 2250, 2251, 2246
684, 2244, 2250, 2251, 2246, 2245, 1013, 2252, 2247
685, 2233, 2238, 1572, 2235, 2246, 2251, 2253, 2248
686, 2246, 2251, 2253, 2248, 2247, 2252, 1016, 2249
687, 996, 1001, 1003, 15, 1569, 1572, 1573, 1570
688, 1569, 1572, 1573, 1570, 1009, 1016, 1019, 19
689, 999, 2204, 2207, 2180, 2236, 2254, 2256, 2237
690, 2236, 2254, 2256, 2237, 1571, 2255, 2257, 2238
691, 2180, 2207, 2210, 1001, 2237, 2256, 2258, 2239
692, 2237, 2256, 2258, 2239, 2238, 2257, 2259, 1572
693, 2204, 103, 2214, 2207, 2254, 2260, 2261, 2256
694, 2254, 2260, 2261, 2256, 2255, 1574, 2262, 2257
695, 2207, 2214, 1006, 2210, 2256, 2261, 2263, 2258
696, 2256, 2261, 2263, 2258, 2257, 2262, 1575, 2259
697, 1571, 2255, 2257, 2238, 2250, 2264, 2266, 2251
698, 2250, 2264, 2266, 2251, 1013, 2265, 2267, 2252
699, 2238, 2257, 2259, 1572, 2251, 2266, 2268, 2253
700, 2251, 2266, 2268, 2253, 2252, 2267, 2269, 1016
701, 2255, 1574, 2262, 2257, 2264, 2270, 2271, 2266
702, 2264, 2270, 2271, 2266, 2265, 105, 2272, 2267
703, 2257, 2262, 1575, 2259, 2266, 2271, 2273, 2268
704, 2266, 2271, 2273, 2268, 2267, 2272, 1023, 2269
705, 1001, 1006, 104, 1003, 1572, 1575, 1576, 1573
706, 1572, 1575, 1576, 1573, 1016, 1023, 106, 1019
707, 18, 2245, 2247, 2242, 2274, 2278, 2280, 2275
708, 2274, 2278, 2280, 2275, 1008, 2279, 2281, 2276
709, 2242, 2247, 2249, 1009, 2275, 2280, 2282, 2277
710, 2275, 2280, 2282, 2277, 2276, 2281, 2283, 1010
711, 2245, 1013, 2252, 2247, 2278, 2284, 2285, 2280
712, 2278, 2284, 2285, 2280, 2279, 1014, 2286, 2281
713, 2247, 2252, 1016, 2249, 2280, 2285, 2287, 2282
714, 2280, 2285, 2287, 2282, 2281, 2286, 1017, 2283
715, 1008, 2279, 2281, 2276, 2288, 2292, 2294, 2289
716, 2288, 2292, 2294, 2289, 22, 2293, 2295, 2290
717, 2276, 2281, 2283, 1010, 2289, 2294, 2296, 2291
718, 2289, 2294, 2296, 2291, 2290, 2295, 2297, 1011
719, 2279, 1014, 2286, 2281, 2292, 2298, 2299, 2294
720, 2292, 2298, 2299, 2294, 2293, 1015, 2300, 2295
721, 2281, 2286, 1017, 2283, 2294, 2299, 2301, 2296
722, 2294, 2299, 2301, 2296, 2295, 2300, 1018, 2297
723, 1009, 2249, 2306, 2302, 2277, 2282, 2307, 2303
724, 2277, 2282, 2307, 2303, 1010, 2283, 2308, 2304
725, 2302, 2306, 2309, 19, 2303, 2307, 2310, 2305
726, 2303, 2307, 2310, 2305, 2304, 2308, 2311, 1012
727, 2249, 1016, 2312, 2306, 2282, 2287, 2313, 2307
728, 2282, 2287, 2313, 2307, 2283, 1017, 2314, 2308
729, 2306, 2312, 1019, 2309, 2307, 2313, 2315, 2310
730, 2307, 2313, 2315, 2310, 2308, 2314, 1020, 2311
731, 1010, 2283, 2308, 2304, 2291, 2296, 2319, 2316
732, 2291, 2296, 2319, 2316, 1011, 2297, 2320, 2317
733, 2304, 2308, 2311, 1012, 2316, 2319, 2321, 2318
734, 2316, 2319, 2321, 2318, 2317, 2320, 2322, 23
735, 2283, 1017, 2314, 2308, 2296, 2301, 2323, 2319
736, 2296, 2301, 2323, 2319, 2297, 1018, 2324, 2320
737, 2308, 2314, 1020, 2311, 2319, 2323, 2325, 2321
738, 2319, 2323, 2325, 2321, 2320, 2324, 1021, 2322
739, 1013, 2265, 2267, 2252, 2284, 2326, 2328, 2285
740, 2284, 2326, 2328, 2285, 1014, 2327, 2329, 2286
741, 2252, 2267, 2269, 1016, 2285, 2328, 2330, 2287
742, 2285, 2328, 2330, 2287, 2286, 2329, 2331, 1017
743, 2265, 105, 2272, 2267, 2326, 2332, 2333, 2328
744, 2326, 2332, 2333, 2328, 2327, 1022, 2334, 2329
745, 2267, 2272, 1023, 2269, 2328, 2333, 2335, 2330
746, 2328, 2333, 2335, 2330, 2329, 2334, 1024, 2331
747, 1014, 1022, 1024, 1017, 1015, 107, 1025, 1018
748, 1016, 2269, 2336, 2312, 2287, 2330, 2337, 2313
749, 2287, 2330, 2337, 2313, 1017, 2331, 2338, 2314
750, 2312, 2336, 2339, 1019, 2313, 2337, 2340, 2315
751, 2313, 2337, 2340, 2315, 2314, 2338, 2341, 1020
752, 2269, 1023, 2342, 2336, 2330, 2335, 2343, 2337
753, 2330, 2335, 2343, 2337, 2331, 1024, 2344, 2338
754, 2336, 2342, 106, 2339, 2337, 2343, 2345, 2340
755, 2337, 2343, 2345, 2340, 2338, 2344, 1026, 2341
756, 1017, 2331, 2338, 2314, 2301, 2346, 2348, 2323
757, 2301, 2346, 2348, 2323, 1018, 2347, 2349, 2324
758, 2314, 2338, 2341, 1020, 2323, 2348, 2350, 2325
759, 2323, 2348, 2350, 2325, 2324, 2349, 2351, 1021
760, 2331, 1024, 2344, 2338, 2346, 2352, 2353, 2348
761, 2346, 2352, 2353, 2348, 2347, 1025, 2354, 2349
762, 2338, 2344, 1026, 2341, 2348, 2353, 2355, 2350
763, 2348, 2353, 2355, 2350, 2349, 2354, 108, 2351
764, 3, 976, 1027, 956, 931, 977, 1028, 957
765, 931, 977, 1028, 957, 7, 978, 1029, 958
766, 956, 1027, 1030, 25, 957, 1028, 1031, 959
767, 957, 1028, 1031, 959, 958, 1029, 1032, 27
768, 976, 98, 1033, 1027, 977, 983, 1034, 1028
769, 977, 983, 1034, 1028, 978, 100, 1035, 1029
770, 1027, 1033, 109, 1030, 1028, 1034, 1036, 1031
771, 1028, 1034, 1036, 1031, 1029, 1035, 110, 1032
772, 7, 978, 1029, 958, 945, 988, 1037, 967
773, 945, 988, 1037, 967, 11, 989, 1038, 968
774, 958, 1029, 1032, 27, 967, 1037, 1039, 969
775, 967, 1037, 1039, 969, 968, 1038, 1040, 29
776, 978, 100, 1035, 1029, 988, 993, 1041, 1037
777, 988, 993, 1041, 1037, 989, 102, 1042, 1038
778, 1029, 1035, 110, 1032, 1037, 1041, 1043, 1039
779, 1037, 1041, 1043, 1039, 1038, 1042, 111, 1040
780, 11, 2185, 2356, 2106, 2077, 2186, 2357, 2125
781, 2077, 2186, 2357, 2125, 997, 2187, 2358, 2126
782, 2106, 2356, 2359, 968, 2125, 2357, 2360, 2127
783, 2125, 2357, 2360, 2127, 2126, 2358, 2361, 1044
784, 2185, 989, 2362, 2356, 2186, 2191, 2363, 2357
785, 2186, 2191, 2363, 2357, 2187, 1002, 2364, 2358
786, 2356, 2362, 1038, 2359, 2357, 2363, 2365, 2360
787, 2357, 2363, 2365, 2360, 2358, 2364, 1047, 2361
788, 997, 1002, 1047, 1044, 15, 1003, 1048, 1045
789, 968, 2359, 2366, 2116, 2127, 2360, 2367, 2135
790, 2127, 2360, 2367, 2135, 1044, 2361, 2368, 2136
791, 2116, 2366, 2369, 29, 2135, 2367, 2370, 2137
792, 2135, 2367, 2370, 2137, 2136, 2368, 2371, 1046
793, 2359, 1038, 2372, 2366, 2360, 2365, 2373, 2367
794, 2360, 2365, 2373, 2367, 2361, 1047, 2374, 2368
795, 2366, 2372, 1040, 2369, 2367, 2373, 2375, 2370
796, 2367, 2373, 2375, 2370, 2368, 2374, 1049, 2371
797, 1044, 1047, 1049, 1046, 1045, 1048, 1050, 31
798, 989, 102, 1042, 1038, 1002, 1007, 1051, 1047
799, 1002, 1007, 1051, 1047, 1003, 104, 1052, 1048
800, 1038, 1042, 111, 1040, 1047, 1051, 1053, 1049
801, 1047, 1051, 1053, 1049, 1048, 1052, 112, 1050
802, 15, 1003, 1048, 1045, 1570, 1573, 2376, 2145
803, 1570, 1573, 2376, 2145, 19, 1019, 1581, 1577
804, 1045, 1048, 1050, 31, 2145, 2376, 2377, 2146
805, 2145, 2376, 2377, 2146, 1577, 1581, 1584, 33
806, 1003, 104, 1052, 1048, 1573, 1576, 2378, 2376
807, 1573, 1576, 2378, 2376, 1019, 106, 1587, 1581
808, 1048, 1052, 112, 1050, 2376, 2378, 2379, 2377
809, 2376, 2378, 2379, 2377, 1581, 1587, 113, 1584
810, 19, 2309, 2781, 2746, 2305, 2310, 2782, 2747
811, 2305, 2310, 2782, 2747, 1012, 2311, 2783, 2748
812, 2746, 2781, 2784, 1577, 2747, 2782, 2785, 2749
813, 2747, 2782, 2785, 2749, 2748, 2783, 2786, 1578
814, 2309, 1019, 2787, 2781, 2310, 2315, 2788, 2782
815, 2310, 2315, 2788, 2782, 2311, 1020, 2789, 2783
816, 2781, 2787, 1581, 2784, 2782, 2788, 2790, 2785
817, 2782, 2788, 2790, 2785, 2783, 2789, 1582, 2786
818, 1012, 2311, 2783, 2748, 2318, 2321, 2794, 2791
819, 2318, 2321, 2794, 2791, 23, 2322, 2795, 2792
820, 2748, 2783, 2786, 1578, 2791, 2794, 2796, 2793
821, 2791, 2794, 2796, 2793, 2792, 2795, 2797, 1579
822, 2311, 1020, 2789, 2783, 2321, 2325, 2798, 2794
823, 2321, 2325, 2798, 2794, 2322, 1021, 2799, 2795
824, 2783, 2789, 1582, 2786, 2794, 2798, 2800, 2796
825, 2794, 2798, 2800, 2796, 2795, 2799, 1583, 2797
826, 1577, 1581, 1584, 33, 1578, 1582, 1585, 1580
827, 1578, 2786, 2804, 2762, 2793, 2796, 2805, 2801
828, 2793, 2796, 2805, 2801, 1579, 2797, 2806, 2802
829, 2762, 2804, 2807, 1580, 2801, 2805, 2808, 2803
830, 2801, 2805, 2808, 2803, 2802, 2806, 2809, 35
831, 2786, 1582, 2810, 2804, 2796, 2800, 2811, 2805
832, 2796, 2800, 2811, 2805, 2797, 1583, 2812, 2806
833, 2804, 2810, 1585, 2807, 2805, 2811, 2813, 2808
834, 2805, 2811, 2813, 2808, 2806, 2812, 1586, 2809
835, 1019, 106, 1587, 1581, 1020, 1026, 1588, 1582
836, 1020, 1026, 1588, 1582, 1021, 108, 1589, 1583
837, 1581, 1587, 113, 1584, 1582, 1588, 1590, 1585
838, 1582, 1588, 1590, 1585, 1583, 1589, 114, 1586
839, 38, 5181, 5184, 5177, 5176, 5182, 5185, 5178
840, 5176, 5182, 5185, 5178, 1591, 5183, 5186, 5179
841, 5177, 5184, 5187, 1592, 5178, 5185, 5188, 5180
842, 5178, 5185, 5188, 5180, 5179, 5186, 5189, 1593
843, 5181, 1595, 5191, 5184, 5182, 5190, 5192, 5185
844, 5182, 5190, 5192, 5185, 5183, 1596, 5193, 5186
845, 5184, 5191, 1597, 5187, 5185, 5192, 5194, 5188
846, 5185, 5192, 5194, 5188, 5186, 5193, 1598, 5189
847, 1591, 1596, 1598, 1593, 42, 1059, 1062, 1055
848, 1592, 1597, 1599, 39, 1593, 1598, 1600, 1594
849, 1593, 1598, 1600, 1594, 1055, 1062, 1065, 43
850, 1595, 115, 1602, 1597, 1596, 1601, 1603, 1598
851, 1596, 1601, 1603, 1598, 1059, 117, 1069, 1062
852, 1597, 1602, 116, 1599, 1598, 1603, 1604, 1600
853, 1598, 1603, 1604, 1600, 1062, 1069, 118, 1065
854, 42, 1059, 1062, 1055, 1054, 1060, 1063, 1056
855, 1054, 1610, 1613, 1606, 1605, 1611, 1614, 1607
856, 1605, 1611, 1614, 1607, 46, 1612, 1615, 1608
857, 1606, 1613, 1616, 1056, 1607, 1614, 1617, 1609
858, 1607, 1614, 1617, 1609, 1608, 1615, 1618, 1057
859, 1610, 1060, 1620, 1613, 1611, 1619, 1621, 1614
860, 1611, 1619, 1621, 1614, 1612, 1061, 1622, 1615
861, 1613, 1620, 1063, 1616, 1614, 1621, 1623, 1617
862, 1614, 1621, 1623, 1617, 1615, 1622, 1064, 1618
863, 1055, 1062, 1065, 43, 1056, 1063, 1066, 1058
864, 1056, 1616, 1628, 1624, 1609, 1617, 1629, 1625
865, 1609, 1617, 1629, 1625, 1057, 1618, 1630, 1626
866, 1624, 1628, 1631, 1058, 1625, 1629, 1632, 1627
867, 1625, 1629, 1632, 1627, 1626, 1630, 1633, 47
868, 1616, 1063, 1634, 1628, 1617, 1623, 1635, 1629
869, 1617, 1623, 1635, 1629, 1618, 1064, 1636, 1630
870, 1628, 1634, 1066, 1631, 1629, 1635, 1637, 1632
871, 1629, 1635, 1637, 1632, 1630, 1636, 1067, 1633
872, 1059, 117, 1069, 1062, 1060, 1068, 1070, 1063
873, 1060, 1068, 1070, 1063, 1061, 119, 1071, 1064
874, 1062, 1069, 118, 1065, 1063, 1070, 1072, 1066
875, 1063, 1070, 1072, 1066, 1064, 1071, 120, 1067
876, 39, 1599, 1641, 1638, 1594, 1600, 1642, 1639
877, 1594, 1600, 1642, 1639, 43, 1065, 1077, 1073
878, 1638, 1641, 1643, 49, 1639, 1642, 1644, 1640
879, 1639, 1642, 1644, 1640, 1073, 1077, 1080, 51
880, 1599, 116, 1645, 1641, 1600, 1604, 1646, 1642
881, 1600, 1604, 1646, 1642, 1065, 118, 1083, 1077
882, 1641, 1645, 121, 1643, 1642, 1646, 1647, 1644
883, 1642, 1646, 1647, 1644, 1077, 1083, 122, 1080
884, 43, 1065, 1077, 1073, 1058, 1066, 1078, 1074
885, 1058, 1066, 1078, 1074, 47, 1067, 1079, 1075
886, 1073, 1077, 1080, 51, 1074, 1078, 1081, 1076
887, 1074, 1078, 1081, 1076, 1075, 1079, 1082, 53
888, 1065, 118, 1083, 1077, 1066, 1072, 1084, 1078
889, 1066, 5199, 5202, 5195, 1637, 5200, 5203, 5196
890, 1637, 5200, 5203, 5196, 1067, 5201, 5204, 5197
891, 5195, 5202, 5205, 1078, 5196, 5203, 5206, 5198
892, 5196, 5203, 5206, 5198, 5197, 5204, 5207, 1079
893, 5199, 1072, 5209, 5202, 5200, 5208, 5210, 5203
894, 5200, 5208, 5210, 5203, 5201, 120, 5211, 5204
895, 5202, 5209, 1084, 5205, 5203, 5210, 5212, 5206
896, 5203, 5210, 5212, 5206, 5204, 5211, 1085, 5207
897, 1077, 1083, 122, 1080, 1078, 1084, 1086, 1081
898, 1078, 5205, 5217, 5213, 5198, 5206, 5218, 5214
899, 5198, 5206, 5218, 5214, 1079, 5207, 5219, 5215
900, 5213, 5217, 5220, 1081, 5214, 5218, 5221, 5216
901, 5214, 5218, 5221, 5216, 5215, 5219, 5222, 1082
902, 5205, 1084, 5223, 5217, 5206, 5212, 5224, 5218
903, 5206, 5212, 5224, 5218, 5207, 1085, 5225, 5219
904, 5217, 5223, 1086, 5220, 5218, 5224, 5226, 5221
905, 5218, 5224, 5226, 5221, 5219, 5225, 123, 5222
906, 49, 1643, 1651, 1648, 1640, 1644, 1652, 1649
907, 1640, 1644, 1652, 1649, 51, 1080, 1091, 1087
908, 1648, 1651, 1653, 55, 1649, 1652, 1654, 1650
909, 1649, 1652, 1654, 1650, 1087, 1091, 1094, 57
910, 1643, 121, 1655, 1651, 1644, 1647, 1656, 1652
911, 1644, 1647, 1656, 1652, 1080, 122, 1097, 1091
912, 1651, 1655, 124, 1653, 1652, 1656, 1657, 1654
913, 1652, 1656, 1657, 1654, 1091, 1097, 125, 1094
914, 51, 1080, 1091, 1087, 1076, 1081, 1092, 1088
915, 1076, 1081, 1092, 1088, 53, 1082, 1093, 1089
916, 1087, 1091, 1094, 57, 1088, 1092, 1095, 1090
917, 1088, 1092, 1095, 1090, 1089, 1093, 1096, 59
918, 1080, 122, 1097, 1091, 1081, 1086, 1098, 1092
919, 1081, 1086, 1098, 1092, 1082, 123, 1099, 1093
920, 1091, 1097, 125, 1094, 1092, 1098, 1100, 1095
921, 1092, 1098, 1100, 1095, 1093, 1099, 126, 1096
922, 55, 5231, 5234, 5228, 5227, 5232, 5235, 5229
923, 5227, 5232, 5235, 5229, 1650, 5233, 5236, 5230
924, 5228, 5234, 2385, 1658, 5229, 5235, 2386, 2380
925, 5229, 5235, 2386, 2380, 5230, 5236, 2387, 1659
926, 5231, 1653, 5238, 5234, 5232, 5237, 5239, 5235
927, 5232, 5237, 5239, 5235, 5233, 1654, 5240, 5236
928, 5234, 5238, 1661, 2385, 5235, 5239, 2393, 2386
929, 5235, 5239, 2393, 2386, 5236, 5240, 1662, 2387
930, 1650, 1654, 1662, 1659, 57, 1094, 1105, 1101
931, 1658, 2385, 2388, 2381, 2380, 2386, 2389, 2382
932, 2380, 2386, 2389, 2382, 1659, 2387, 2390, 2383
933, 2381, 2388, 2293, 22, 2382, 2389, 2391, 2384
934, 2382, 2389, 2391, 2384, 2383, 2390, 2392, 1660
935, 2385, 1661, 2394, 2388, 2386, 2393, 2395, 2389
936, 2386, 2393, 2395, 2389, 2387, 1662, 2396, 2390
937, 2388, 2394, 1015, 2293, 2389, 2395, 2397, 2391
938, 2389, 2395, 2397, 2391, 2390, 2396, 1663, 2392
939, 1659, 2387, 2390, 2383, 5241, 5244, 5246, 5242
940, 5241, 5244, 5246, 5242, 1101, 5245, 5247, 5243
941, 2383, 2390, 2392, 1660, 5242, 5246, 5248, 5017
942, 5242, 5246, 5248, 5017, 5243, 5247, 5249, 61
943, 2387, 1662, 2396, 2390, 5244, 5250, 5251, 5246
944, 5244, 5250, 5251, 5246, 5245, 1105, 5252, 5247
945, 2390, 2396, 1663, 2392, 5246, 5251, 5253, 5248
946, 5246, 5251, 5253, 5248, 5247, 5252, 1108, 5249
947, 1653, 124, 1664, 1661, 1654, 1657, 1665, 1662
948, 1654, 1657, 1665, 1662, 1094, 125, 1111, 1105
949, 1661, 2398, 2401, 2394, 2393, 2399, 2402, 2395
950, 2393, 2399, 2402, 2395, 1662, 2400, 2403, 2396
951, 2394, 2401, 2404, 1015, 2395, 2402, 2405, 2397
952, 2395, 2402, 2405, 2397, 2396, 2403, 2406, 1663
953, 2398, 1664, 2408, 2401, 2399, 2407, 2409, 2402
954, 2399, 2407, 2409, 2402, 2400, 1665, 2410, 2403
955, 2401, 2408, 107, 2404, 2402, 2409, 2411, 2405
956, 2402, 2409, 2411, 2405, 2403, 2410, 1666, 2406
957, 1662, 1665, 1666, 1663, 1105, 1111, 127, 1108
958, 57, 1094, 1105, 1101, 1090, 1095, 1106, 1102
959, 1090, 1095, 1106, 1102, 59, 1096, 1107, 1103
960, 1101, 1105, 1108, 61, 1102, 1106, 1109, 1104
961, 1102, 1106, 1109, 1104, 1103, 1107, 1110, 63
962, 1094, 125, 1111, 1105, 1095, 1100, 1112, 1106
963, 1095, 1100, 1112, 1106, 1096, 126, 1113, 1107
964, 1105, 1111, 127, 1108, 1106, 1112, 1114, 1109
965, 1106, 3773, 3776, 3769, 3768, 3774, 3777, 3770
966, 3768, 3774, 3777, 3770, 1107, 3775, 3778, 3771
967, 3769, 3776, 3779, 1109, 3770, 3777, 3780, 3772
968, 3770, 3777, 3780, 3772, 3771, 3778, 3781, 1110
969, 3773, 1112, 3783, 3776, 3774, 3782, 3784, 3777
970, 3774, 3782, 3784, 3777, 3775, 1113, 3785, 3778
971, 3776, 3783, 1114, 3779, 3777, 3784, 3786, 3780
972, 3777, 3784, 3786, 3780, 3778, 3785, 128, 3781
973, 22, 1015, 1018, 1011, 1660, 1663, 1670, 1667
974, 1660, 1663, 1670, 1667, 61, 1108, 1671, 1668
975, 1011, 1018, 1021, 23, 1667, 1670, 1672, 1669
976, 1667, 1670, 1672, 1669, 1668, 1671, 1673, 65
977, 1015, 107, 1025, 1018, 1663, 1666, 1674, 1670
978, 1663, 1666, 1674, 1670, 1108, 127, 1675, 1671
979, 1018, 1025, 108, 1021, 1670, 1674, 1676, 1672
980, 1670, 1674, 1676, 1672, 1671, 1675, 129, 1673
981, 61, 1108, 1671, 1668, 1104, 1109, 1680, 1677
982, 1104, 1109, 1680, 1677, 63, 1110, 1681, 1678
983, 1668, 1671, 1673, 65, 1677, 1680, 1682, 1679
984, 1677, 1680, 1682, 1679, 1678, 1681, 1683, 67
985, 1108, 127, 1675, 1671, 1109, 1114, 1684, 1680
986, 1109, 1114, 1684, 1680, 1110, 128, 1685, 1681
987, 1671, 1675, 129, 1673, 1680, 1684, 1686, 1682
988, 1680, 1684, 1686, 1682, 1681, 1685, 130, 1683
989, 23, 1021, 1583, 1579, 1669, 1672, 2413, 2412
990, 1669, 1672, 2413, 2412, 65, 1673, 1690, 1687
991, 1579, 1583, 1586, 35, 2412, 2413, 1700, 1696
992, 2412, 2413, 1700, 1696, 1687, 1690, 1120, 69
993, 1021, 108, 1589, 1583, 1672, 1676, 2414, 2413
994, 1672, 1676, 2414, 2413, 1673, 129, 1693, 1690
995, 1583, 1589, 114, 1586, 2413, 2414, 1705, 1700
996, 2413, 2414, 1705, 1700, 1690, 1693, 131, 1120
997, 65, 1673, 1690, 1687, 1679, 1682, 1691, 1688
998, 1679, 1682, 1691, 1688, 67, 1683, 1692, 1689
999, 1687, 1690, 1120, 69, 1688, 1691, 1121, 1115
1000, 1688, 5257, 5260, 5254, 5122, 5258, 5261, 5255
1001, 5122, 5258, 5261, 5255, 1689, 5259, 5262, 5256
1002, 5254, 5260, 2422, 1115, 5255, 5261, 2438, 2434
1003, 5255, 5261, 2438, 2434, 5256, 5262, 2439, 71
1004, 5257, 1691, 5264, 5260, 5258, 5263, 5265, 5261
1005, 5258, 5263, 5265, 5261, 5259, 1692, 5266, 5262
1006, 5260, 5264, 1121, 2422, 5261, 5265, 2444, 2438
1007, 5261, 5265, 2444, 2438, 5262, 5266, 1122, 2439
1008, 1673, 129, 1693, 1690, 1682, 1686, 1694, 1691
1009, 1682, 1686, 1694, 1691, 1683, 130, 1695, 1692
1010, 1690, 1693, 131, 1120, 1691, 1694, 1129, 1121
1011, 1691, 1694, 1129, 1121, 1692, 1695, 132, 1122
1012, 35, 2809, 5269, 5145, 5095, 5267, 5270, 5146
1013, 5095, 5267, 5270, 5146, 1696, 5268, 5271, 5147
1014, 5145, 5269, 5272, 1697, 5146, 5270, 5273, 5148
1015, 5146, 5270, 5273, 5148, 5147, 5271, 5274, 1698
1016, 2809, 1586, 5276, 5269, 5267, 5275, 5277, 5270
1017, 5267, 5275, 5277, 5270, 5268, 1700, 5278, 5271
1018, 5269, 5276, 1701, 5272, 5270, 5277, 5279, 5273
1019, 5270, 5277, 5279, 5273, 5271, 5278, 1702, 5274
1020, 1696, 5268, 5271, 5147, 5102, 5282, 5283, 5280
1021, 5102, 5282, 5283, 5280, 69, 2420, 2423, 2416
1022, 5147, 5271, 5274, 1698, 5280, 5283, 5284, 5281
1023, 5280, 5283, 5284, 5281, 2416, 2423, 2426, 1116
1024, 5268, 1700, 5278, 5271, 5282, 5285, 5286, 5283
1025, 5282, 5285, 5286, 5283, 2420, 1120, 2430, 2423
1026, 5271, 5278, 1702, 5274, 5283, 5286, 5287, 5284
1027, 5283, 5286, 5287, 5284, 2423, 2430, 1123, 2426
1028, 1697, 5272, 5292, 5288, 5148, 5273, 5293, 5289
1029, 5148, 5273, 5293, 5289, 1698, 5274, 5294, 5290
1030, 5288, 5292, 5295, 73, 5289, 5293, 5296, 5291
1031, 5289, 5293, 5296, 5291, 5290, 5294, 5297, 1699
1032, 5272, 1701, 5298, 5292, 5273, 5279, 5299, 5293
1033, 5273, 5279, 5299, 5293, 5274, 1702, 5300, 5294
1034, 5292, 5298, 1703, 5295, 5293, 5299, 5301, 5296
1035, 5293, 5299, 5301, 5296, 5294, 5300, 1704, 5297
1036, 1698, 1702, 1704, 1699, 1116, 1123, 1126, 75
1037, 1586, 114, 1706, 1701, 1700, 1705, 1707, 1702
1038, 1700, 1705, 1707, 1702, 1120, 131, 1130, 1123
1039, 1701, 1706, 133, 1703, 1702, 1707, 1708, 1704
1040, 1702, 1707, 1708, 1704, 1123, 1130, 134, 1126
1041, 69, 2420, 2423, 2416, 2415, 2421, 2424, 2417
1042, 2415, 2421, 2424, 2417, 1115, 2422, 2425, 2418
1043, 2416, 2423, 2426, 1116, 2417, 2424, 2427, 2419
1044, 2417, 2424, 2427, 2419, 2418, 2425, 2428, 1117
1045, 2420, 1120, 2430, 2423, 2421, 2429, 2431, 2424
1046, 2421, 2429, 2431, 2424, 2422, 1121, 2432, 2425
1047, 2423, 2430, 1123, 2426, 2424, 2431, 2433, 2427
1048, 2424, 2431, 2433, 2427, 2425, 2432, 1124, 2428
1049, 1115, 2422, 2425, 2418, 2434, 2438, 2440, 2435
1050, 2434, 2438, 2440, 2435, 71, 2439, 2441, 2436
1051, 2418, 2425, 2428, 1117, 2435, 2440, 2442, 2437
1052, 2435, 2440, 2442, 2437, 2436, 2441, 2443, 1118
1053, 2422, 1121, 2432, 2425, 2438, 2444, 2445, 2440
1054, 2438, 2444, 2445, 2440, 2439, 1122, 2446, 2441
1055, 2425, 2432, 1124, 2428, 2440, 2445, 2447, 2442
1056, 2440, 2445, 2447, 2442, 2441, 2446, 1125, 2443
1057, 1116, 1123, 1126, 75, 1117, 1124, 1127, 1119
1058, 1117, 2428, 5306, 5302, 2437, 2442, 5307, 5303
1059, 2437, 2442, 5307, 5303, 1118, 2443, 5308, 5304
1060, 5302, 5306, 5309, 1119, 5303, 5307, 5310, 5305
1061, 5303, 5307, 5310, 5305, 5304, 5308, 5311, 77
1062, 2428, 1124, 3787, 5306, 2442, 2447, 3788, 5307
1063, 2442, 2447, 3788, 5307, 2443, 1125, 3789, 5308
1064, 5306, 3787, 1127, 5309, 5307, 3788, 3790, 5310
1065, 5307, 3788, 3790, 5310, 5308, 3789, 1128, 5311
1066, 1120, 2448, 2451, 2430, 2429, 2449, 2452, 2431
1067, 2429, 2449, 2452, 2431, 1121, 2450, 2453, 2432
1068, 2430, 2451, 2454, 1123, 2431, 2452, 2455, 2433
1069, 2431, 2452, 2455, 2433, 2432, 2453, 2456, 1124
1070, 2448, 131, 2458, 2451, 2449, 2457, 2459, 2452
1071, 2449, 2457, 2459, 2452, 2450, 1129, 2460, 2453
1072, 2451, 2458, 1130, 2454, 2452, 2459, 2461, 2455
1073, 2452, 2459, 2461, 2455, 2453, 2460, 1131, 2456
1074, 1121, 2450, 2453, 2432, 2444, 2462, 2464, 2445
1075, 2444, 2462, 2464, 2445, 1122, 2463, 2465, 2446
1076, 2432, 2453, 2456, 1124, 2445, 2464, 2466, 2447
1077, 2445, 2464, 2466, 2447, 2446, 2465, 2467, 1125
1078, 2450, 1129, 2460, 2453, 2462, 2468, 2469, 2464
1079, 2462, 2468, 2469, 2464, 2463, 132, 2470, 2465
1080, 2453, 2460, 1131, 2456, 2464, 2469, 2471, 2466
1081, 2464, 2469, 2471, 2466, 2465, 2470, 1132, 2467
1082, 1123, 1130, 134, 1126, 1124, 1131, 1133, 1127
1083, 1124, 2456, 3791, 3787, 2447, 2466, 3792, 3788
1084, 2447, 2466, 3792, 3788, 1125, 2467, 3793, 3789
1085, 3787, 3791, 3794, 1127, 3788, 3792, 3795, 3790
1086, 3788, 3792, 3795, 3790, 3789, 3793, 3796, 1128
1087, 2456, 1131, 3797, 3791, 2466, 2471, 3798, 3792
1088, 2466, 2471, 3798, 3792, 2467, 1132, 3799, 3793
1089, 3791, 3797, 1133, 3794, 3792, 3798, 3800, 3795
1090, 3792, 3798, 3800, 3795, 3793, 3799, 135, 3796
1091, 73, 1703, 1712, 1709, 1699, 1704, 1713, 1710
1092, 1699, 1704, 1713, 1710, 75, 1126, 1138, 1134
1093, 1709, 1712, 1714, 79, 1710, 1713, 1715, 1711
1094, 1710, 1713, 1715, 1711, 1134, 1138, 1141, 81
1095, 1703, 133, 1716, 1712, 1704, 1708, 1717, 1713
1096, 1704, 1708, 1717, 1713, 1126, 134, 1144, 1138
1097, 1712, 1716, 136, 1714, 1713, 1717, 1718, 1715
1098, 1713, 1717, 1718, 1715, 1138, 1144, 137, 1141
1099, 75, 1126, 1138, 1134, 1119, 1127, 1139, 1135
1100, 1119, 1127, 1139, 1135, 77, 1128, 1140, 1136
1101, 1134, 1138, 1141, 81, 1135, 1139, 1142, 1137
1102, 1135, 1139, 1142, 1137, 1136, 1140, 1143, 83
1103, 1126, 134, 1144, 1138, 1127, 1133, 1145, 1139
1104, 1127, 1133, 1145, 1139, 1128, 135, 1146, 1140
1105, 1138, 1144, 137, 1141, 1139, 1145, 1147, 1142
1106, 1139, 1145, 1147, 1142, 1140, 1146, 138, 1143
1107, 79, 1714, 1722, 1719, 1711, 1715, 1723, 1720
1108, 1711, 1715, 1723, 1720, 81, 1141, 1152, 1148
1109, 1719, 1722, 1724, 85, 1720, 1723, 1725, 1721
1110, 1720, 1723, 1725, 1721, 1148, 1152, 1155, 87
1111, 1714, 136, 1726, 1722, 1715, 1718, 1727, 1723
1112, 1715, 1718, 1727, 1723, 1141, 137, 1158, 1152
1113, 1722, 1726, 139, 1724, 1723, 1727, 1728, 1725
1114, 1723, 1727, 1728, 1725, 1152, 1158, 140, 1155
1115, 81, 1141, 1152, 1148, 1137, 1142, 1153, 1149
1116, 1137, 1142, 1153, 1149, 83, 1143, 1154, 1150
1117, 1148, 1152, 1155, 87, 1149, 1153, 1156, 1151
1118, 1149, 1153, 1156, 1151, 1150, 1154, 1157, 89
1119, 1141, 137, 1158, 1152, 1142, 1147, 1159, 1153
1120, 1142, 5317, 5320, 5313, 5312, 5318, 5321, 5314
1121, 5312, 5318, 5321, 5314, 1143, 5319, 5322, 5315
1122, 5313, 5320, 5323, 1153, 5314, 5321, 5324, 5316
1123, 5314, 5321, 5324, 5316, 5315, 5322, 5325, 1154
1124, 5317, 1147, 5327, 5320, 5318, 5326, 5328, 5321
1125, 5318, 5326, 5328, 5321, 5319, 138, 5329, 5322
1126, 5320, 5327, 1159, 5323, 5321, 5328, 5330, 5324
1127, 5321, 5328, 5330, 5324, 5322, 5329, 1160, 5325
1128, 1152, 1158, 140, 1155, 1153, 1159, 1161, 1156
1129, 1153, 5323, 5334, 5331, 5316, 5324, 5335, 5332
1130, 5316, 5324, 5335, 5332, 1154, 5325, 5336, 5333
1131, 5331, 5334, 5337, 1156, 5332, 5335, 5338, 1753
1132, 5332, 5335, 5338, 1753, 5333, 5336, 5339, 1157
1133, 5323, 1159, 5340, 5334, 5324, 5330, 5341, 5335
1134, 5324, 5330, 5341, 5335, 5325, 1160, 5342, 5336
1135, 5334, 5340, 1161, 5337, 5335, 5341, 5343, 5338
1136, 5335, 5341, 5343, 5338, 5336, 5342, 141, 5339
1137, 85, 1724, 1732, 1729, 1721, 1725, 1733, 1730
1138, 1721, 1725, 1733, 1730, 87, 1155, 1166, 1162
1139, 1729, 5349, 5352, 5345, 5344, 5350, 5353, 5346
1140, 5344, 5350, 5353, 5346, 1730, 5351, 5354, 5347
1141, 5345, 5352, 5355, 91, 5346, 5353, 5356, 5348
1142, 5346, 5353, 5356, 5348, 5347, 5354, 5357, 1731
1143, 5349, 1732, 5359, 5352, 5350, 5358, 5360, 5353
1144, 5350, 5358, 5360, 5353, 5351, 1733, 5361, 5354
1145, 5352, 5359, 1734, 5355, 5353, 5360, 5362, 5356
1146, 5353, 5360, 5362, 5356, 5354, 5361, 1735, 5357
1147, 1730, 1733, 1735, 1731, 1162, 1166, 1169, 93
1148, 1724, 139, 1736, 1732, 1725, 1728, 1737, 1733
1149, 1725, 1728, 1737, 1733, 1155, 140, 1172, 1166
1150, 1732, 1736, 142, 1734, 1733, 1737, 1738, 1735
1151, 1733, 1737, 1738, 1735, 1166, 1172, 143, 1169
1152, 87, 1155, 1166, 1162, 1151, 1156, 1167, 1163
1153, 1151, 1744, 1747, 1740, 1739, 1745, 1748, 1741
1154, 1739, 1745, 1748, 1741, 89, 1746, 1749, 1742
1155, 1740, 1747, 1750, 1163, 1741, 1748, 1751, 1743
1156, 1741, 1748, 1751, 1743, 1742, 1749, 1752, 1164
1157, 1744, 1156, 1754, 1747, 1745, 1753, 1755, 1748
1158, 1745, 1753, 1755, 1748, 1746, 1157, 1756, 1749
1159, 1747, 1754, 1167, 1750, 1748, 1755, 1757, 1751
1160, 1748, 1755, 1757, 1751, 1749, 1756, 1168, 1752
1161, 1162, 1166, 1169, 93, 1163, 1167, 1170, 1165
1162, 1163, 1750, 1762, 1758, 1743, 1751, 1763, 1759
1163, 1743, 1751, 1763, 1759, 1164, 1752, 1764, 1760
1164, 1758, 1762, 1765, 1165, 1759, 1763, 1766, 1761
1165, 1759, 1763, 1766, 1761, 1760, 1764, 1767, 95
1166, 1750, 1167, 1768, 1762, 1751, 1757, 1769, 1763
1167, 1751, 1757, 1769, 1763, 1752, 1168, 1770, 1764
1168, 1762, 1768, 1170, 1765, 1763, 1769, 1771, 1766
1169, 1763, 1769, 1771, 1766, 1764, 1770, 1171, 1767
1170, 1155, 140, 1172, 1166, 1156, 1161, 1173, 1167
1171, 1156, 1161, 1173, 1167, 1157, 141, 1174, 1168
1172, 1166, 1172, 143, 1169, 1167, 1173, 1175, 1170
1173, 1167, 1173, 1175, 1170, 1168, 1174, 144, 1171
1174, 97, 1176, 1179, 980, 979, 1177, 1180, 981
1175, 979, 1177, 1180, 981, 99, 1178, 1181, 982
1176, 980, 1179, 1182, 98, 981, 1180, 1183, 983
1177, 981, 1180, 1183, 983, 982, 1181, 1184, 100
1178, 1176, 1777, 1780, 1773, 1772, 1778, 1781, 1774
1179, 1772, 1778, 1781, 1774, 1177, 1779, 1782, 1775
1180, 1773, 1780, 1783, 1179, 1774, 1781, 1784, 1776
1181, 1774, 1781, 1784, 1776, 1775, 1782, 1785, 1180
1182, 1777, 145, 1787, 1780, 1778, 1786, 1788, 1781
1183, 1778, 1786, 1788, 1781, 1779, 1185, 1789, 1782
1184, 1780, 1787, 1186, 1783, 1781, 1788, 1790, 1784
1185, 1781, 1788, 1790, 1784, 1782, 1789, 1187, 1785
1186, 1177, 1185, 1187, 1180, 1178, 147, 1188, 1181
1187, 1179, 1783, 1795, 1791, 1776, 1784, 1796, 1792
1188, 1776, 1784, 1796, 1792, 1180, 1785, 1797, 1793
1189, 1791, 1795, 1798, 1182, 1792, 1796, 1799, 1794
1190, 1792, 1796, 1799, 1794, 1793, 1797, 1800, 1183
1191, 1783, 1186, 1801, 1795, 1784, 1790, 1802, 1796
1192, 1784, 1790, 1802, 1796, 1785, 1187, 1803, 1797
1193, 1795, 1801, 146, 1798, 1796, 1802, 1804, 1799
1194, 1796, 1802, 1804, 1799, 1797, 1803, 1189, 1800
1195, 1180, 1187, 1189, 1183, 1181, 1188, 148, 1184
1196, 99, 1178, 1181, 982, 990, 1805, 1807, 991
1197, 990, 1805, 1807, 991, 101, 1806, 1808, 992
1198, 982, 1181, 1184, 100, 991, 1807, 1809, 993
1199, 991, 1807, 1809, 993, 992, 1808, 1810, 102
1200, 1178, 2477, 2480, 2473, 2472, 2478, 2481, 2474
1201, 2472, 2478, 2481, 2474, 1805, 2479, 2482, 2475
1202, 2473, 2480, 2483, 1181, 2474, 2481, 2484, 2476
1203, 2474, 2481, 2484, 2476, 2475, 2482, 2485, 1807
1204, 2477, 147, 2487, 2480, 2478, 2486, 2488, 2481
1205, 2478, 2486, 2488, 2481, 2479, 1811, 2489, 2482
1206, 2480, 2487, 1188, 2483, 2481, 2488, 2490, 2484
1207, 2481, 2488, 2490, 2484, 2482, 2489, 1812, 2485
1208, 1805, 1811, 1812, 1807, 1806, 149, 1813, 1808
1209, 1181, 1188, 148, 1184, 1807, 1812, 1814, 1809
1210, 1807, 1812, 1814, 1809, 1808, 1813, 150, 1810
1211, 101, 2818, 2821, 2815, 2814, 2819, 2822, 2816
1212, 2814, 2819, 2822, 2816, 1004, 2820, 2823, 2212
1213, 2815, 2821, 2824, 992, 2816, 2822, 2825, 2817
1214, 2816, 2822, 2825, 2817, 2212, 2823, 2826, 1005
1215, 2818, 1806, 2828, 2821, 2819, 2827, 2829, 2822
1216, 2819, 2827, 2829, 2822, 2820, 2491, 2830, 2823
1217, 2821, 2828, 1808, 2824, 2822, 2829, 2831, 2825
1218, 2822, 2829, 2831, 2825, 2823, 2830, 2493, 2826
1219, 1004, 2491, 2493, 1005, 103, 2492, 2494, 1006
1220, 992, 2824, 2835, 2832, 2817, 2825, 2836, 2833
1221, 2817, 2825, 2836, 2833, 1005, 2826, 2837, 2222
1222, 2832, 2835, 2838, 102, 2833, 2836, 2839, 2834
1223, 2833, 2836, 2839, 2834, 2222, 2837, 2840, 1007
1224, 2824, 1808, 2841, 2835, 2825, 2831, 2842, 2836
1225, 2825, 2831, 2842, 2836, 2826, 2493, 2843, 2837
1226, 2835, 2841, 1810, 2838, 2836, 2842, 2844, 2839
1227, 2836, 2842, 2844, 2839, 2837, 2843, 2495, 2840
1228, 1005, 2493, 2495, 1007, 1006, 2494, 2496, 104
1229, 1806, 2845, 2848, 2828, 2827, 2846, 2849, 2829
1230, 2827, 2846, 2849, 2829, 2491, 2847, 2850, 2830
1231, 2828, 2848, 2851, 1808, 2829, 2849, 2852, 2831
1232, 2829, 2849, 2852, 2831, 2830, 2850, 2853, 2493
1233, 2845, 149, 2855, 2848, 2846, 2854, 2856, 2849
1234, 2846, 2854, 2856, 2849, 2847, 2497, 2857, 2850
1235, 2848, 2855, 1813, 2851, 2849, 2856, 2858, 2852
1236, 2849, 2856, 2858, 2852, 2850, 2857, 2498, 2853
1237, 2491, 2497, 2498, 2493, 2492, 151, 2499, 2494
1238, 1808, 2851, 2859, 2841, 2831, 2852, 2860, 2842
1239, 2831, 2852, 2860, 2842, 2493, 2853, 2861, 2843
1240, 2841, 2859, 2862, 1810, 2842, 2860, 2863, 2844
1241, 2842, 2860, 2863, 2844, 2843, 2861, 2864, 2495
1242, 2851, 1813, 2865, 2859, 2852, 2858, 2866, 2860
1243, 2852, 2858, 2866, 2860, 2853, 2498, 2867, 2861
1244, 2859, 2865, 150, 2862, 2860, 2866, 2868, 2863
1245, 2860, 2866, 2868, 2863, 2861, 2867, 2500, 2864
1246, 2493, 2498, 2500, 2495, 2494, 2499, 152, 2496
1247, 103, 2492, 2494, 1006, 1574, 2869, 2870, 1575
1248, 1574, 2869, 2870, 1575, 105, 2501, 2504, 1023
1249, 1006, 2494, 2496, 104, 1575, 2870, 2871, 1576
1250, 1575, 2870, 2871, 1576, 1023, 2504, 2507, 106
1251, 2492, 151, 2499, 2494, 2869, 2872, 2873, 2870
1252, 2869, 2872, 2873, 2870, 2501, 153, 2511, 2504
1253, 2494, 2499, 152, 2496, 2870, 2873, 2874, 2871
1254, 2870, 2873, 2874, 2871, 2504, 2511, 154, 2507
1255, 105, 2501, 2504, 1023, 1022, 2502, 2505, 1024
1256, 1022, 3804, 3807, 2334, 3801, 3805, 3808, 3802
1257, 3801, 3805, 3808, 3802, 107, 3806, 3809, 3803
1258, 2334, 3807, 3810, 1024, 3802, 3808, 3811, 2352
1259, 3802, 3808, 3811, 2352, 3803, 3809, 3812, 1025
1260, 3804, 2502, 3814, 3807, 3805, 3813, 3815, 3808
1261, 3805, 3813, 3815, 3808, 3806, 2503, 3816, 3809
1262, 3807, 3814, 2505, 3810, 3808, 3815, 3817, 3811
1263, 3808, 3815, 3817, 3811, 3809, 3816, 2506, 3812
1264, 1023, 2504, 2507, 106, 1024, 2505, 2508, 1026
1265, 1024, 3810, 3818, 2344, 2352, 3811, 3819, 2353
1266, 2352, 3811, 3819, 2353, 1025, 3812, 3820, 2354
1267, 2344, 3818, 3821, 1026, 2353, 3819, 3822, 2355
1268, 2353, 3819, 3822, 2355, 2354, 3820, 3823, 108
1269, 3810, 2505, 3824, 3818, 3811, 3817, 3825, 3819
1270, 3811, 3817, 3825, 3819, 3812, 2506, 3826, 3820
1271, 3818, 3824, 2508, 3821, 3819, 3825, 3827, 3822
1272, 3819, 3825, 3827, 3822, 3820, 3826, 2509, 3823
1273, 2501, 3832, 3835, 3829, 3828, 3833, 3836, 3830
1274, 3828, 3833, 3836, 3830, 2502, 3834, 3837, 3814
1275, 3829, 3835, 3838, 2504, 3830, 3836, 3839, 3831
1276, 3830, 3836, 3839, 3831, 3814, 3837, 3840, 2505
1277, 3832, 153, 3842, 3835, 3833, 3841, 3843, 3836
1278, 3833, 3841, 3843, 3836, 3834, 2510, 3844, 3837
1279, 3835, 3842, 2511, 3838, 3836, 3843, 3845, 3839
1280, 3836, 3843, 3845, 3839, 3837, 3844, 2512, 3840
1281, 2502, 3834, 3837, 3814, 3813, 3846, 3848, 3815
1282, 3813, 3846, 3848, 3815, 2503, 3847, 3849, 3816
1283, 3814, 3837, 3840, 2505, 3815, 3848, 3850, 3817
1284, 3815, 3848, 3850, 3817, 3816, 3849, 3851, 2506
1285, 3834, 2510, 3844, 3837, 3846, 3852, 3853, 3848
1286, 3846, 3852, 3853, 3848, 3847, 155, 3854, 3849
1287, 3837, 3844, 2512, 3840, 3848, 3853, 3855, 3850
1288, 3848, 3853, 3855, 3850, 3849, 3854, 2513, 3851
1289, 2504, 3838, 3859, 3856, 3831, 3839, 3860, 3857
1290, 3831, 3839, 3860, 3857, 2505, 3840, 3861, 3824
1291, 3856, 3859, 3862, 2507, 3857, 3860, 3863, 3858
1292, 3857, 3860, 3863, 3858, 3824, 3861, 3864, 2508
1293, 3838, 2511, 3865, 3859, 3839, 3845, 3866, 3860
1294, 3839, 3845, 3866, 3860, 3840, 2512, 3867, 3861
1295, 3859, 3865, 154, 3862, 3860, 3866, 3868, 3863
1296, 3860, 3866, 3868, 3863, 3861, 3867, 2514, 3864
1297, 2505, 3840, 3861, 3824, 3817, 3850, 3869, 3825
1298, 3817, 3850, 3869, 3825, 2506, 3851, 3870, 3826
1299, 3824, 3861, 3864, 2508, 3825, 3869, 3871, 3827
1300, 3825, 3869, 3871, 3827, 3826, 3870, 3872, 2509
1301, 3840, 2512, 3867, 3861, 3850, 3855, 3873, 3869
1302, 3850, 3855, 3873, 3869, 3851, 2513, 3874, 3870
1303, 3861, 3867, 2514, 3864, 3869, 3873, 3875, 3871
1304, 3869, 3873, 3875, 3871, 3870, 3874, 156, 3872
1305, 98, 1182, 1190, 1033, 983, 1183, 1191, 1034
1306, 983, 1183, 1191, 1034, 100, 1184, 1192, 1035
1307, 1033, 1190, 1193, 109, 1034, 1191, 1194, 1036
1308, 1034, 1191, 1194, 1036, 1035, 1192, 1195, 110
1309, 1182, 1798, 1819, 1815, 1794, 1799, 1820, 1816
1310, 1794, 1799, 1820, 1816, 1183, 1800, 1821, 1817
1311, 1815, 1819, 1822, 1190, 1816, 1820, 1823, 1818
1312, 1816, 1820, 1823, 1818, 1817, 1821, 1824, 1191
1313, 1798, 146, 1825, 1819, 1799, 1804, 1826, 1820
1314, 1799, 1804, 1826, 1820, 1800, 1189, 1827, 1821
1315, 1819, 1825, 1196, 1822, 1820, 1826, 1828, 1823
1316, 1820, 1826, 1828, 1823, 1821, 1827, 1197, 1824
1317, 1183, 1189, 1197, 1191, 1184, 148, 1198, 1192
1318, 1190, 1822, 1833, 1829, 1818, 1823, 1834, 1830
1319, 1818, 1823, 1834, 1830, 1191, 1824, 1835, 1831
1320, 1829, 1833, 1836, 1193, 1830, 1834, 1837, 1832
1321, 1830, 1834, 1837, 1832, 1831, 1835, 1838, 1194
1322, 1822, 1196, 1839, 1833, 1823, 1828, 1840, 1834
1323, 1823, 1828, 1840, 1834, 1824, 1197, 1841, 1835
1324, 1833, 1839, 157, 1836, 1834, 1840, 1842, 1837
1325, 1834, 1840, 1842, 1837, 1835, 1841, 1199, 1838
1326, 1191, 1197, 1199, 1194, 1192, 1198, 158, 1195
1327, 100, 1184, 1192, 1035, 993, 1809, 1843, 1041
1328, 993, 1809, 1843, 1041, 102, 1810, 1844, 1042
1329, 1035, 1192, 1195, 110, 1041, 1843, 1845, 1043
1330, 1041, 1843, 1845, 1043, 1042, 1844, 1846, 111
1331, 1184, 2520, 2523, 2516, 2515, 2521, 2524, 2517
1332, 2515, 2521, 2524, 2517, 1809, 2522, 2525, 2518
1333, 2516, 2523, 2526, 1192, 2517, 2524, 2527, 2519
1334, 2517, 2524, 2527, 2519, 2518, 2525, 2528, 1843
1335, 2520, 148, 2530, 2523, 2521, 2529, 2531, 2524
1336, 2521, 2529, 2531, 2524, 2522, 1814, 2532, 2525
1337, 2523, 2530, 1198, 2526, 2524, 2531, 2533, 2527
1338, 2524, 2531, 2533, 2527, 2525, 2532, 1847, 2528
1339, 1809, 1814, 1847, 1843, 1810, 150, 1848, 1844
1340, 1192, 2526, 2538, 2534, 2519, 2527, 2539, 2535
1341, 2519, 2527, 2539, 2535, 1843, 2528, 2540, 2536
1342, 2534, 2538, 2541, 1195, 2535, 2539, 2542, 2537
1343, 2535, 2539, 2542, 2537, 2536, 2540, 2543, 1845
1344, 2526, 1198, 2544, 2538, 2527, 2533, 2545, 2539
1345, 2527, 2533, 2545, 2539, 2528, 1847, 2546, 2540
1346, 2538, 2544, 158, 2541, 2539, 2545, 2547, 2542
1347, 2539, 2545, 2547, 2542, 2540, 2546, 1849, 2543
1348, 1843, 1847, 1849, 1845, 1844, 1848, 159, 1846
1349, 102, 2838, 2879, 2875, 2834, 2839, 2880, 2876
1350, 2834, 2839, 2880, 2876, 1007, 2840, 2881, 2877
1351, 2875, 2879, 2882, 1042, 2876, 2880, 2883, 2878
1352, 2876, 2880, 2883, 2878, 2877, 2881, 2884, 1051
1353, 2838, 1810, 2885, 2879, 2839, 2844, 2886, 2880
1354, 2839, 2844, 2886, 2880, 2840, 2495, 2887, 2881
1355, 2879, 2885, 1844, 2882, 2880, 2886, 2888, 2883
1356, 2880, 2886, 2888, 2883, 2881, 2887, 2548, 2884
1357, 1007, 2495, 2548, 1051, 104, 2496, 2549, 1052
1358, 1042, 2882, 2893, 2889, 2878, 2883, 2894, 2890
1359, 2878, 2883, 2894, 2890, 1051, 2884, 2895, 2891
1360, 2889, 2893, 2896, 111, 2890, 2894, 2897, 2892
1361, 2890, 2894, 2897, 2892, 2891, 2895, 2898, 1053
1362, 2882, 1844, 2899, 2893, 2883, 2888, 2900, 2894
1363, 2883, 2888, 2900, 2894, 2884, 2548, 2901, 2895
1364, 2893, 2899, 1846, 2896, 2894, 2900, 2902, 2897
1365, 2894, 2900, 2902, 2897, 2895, 2901, 2550, 2898
1366, 1051, 2548, 2550, 1053, 1052, 2549, 2551, 112
1367, 1810, 2862, 2903, 2885, 2844, 2863, 2904, 2886
1368, 2844, 2863, 2904, 2886, 2495, 2864, 2905, 2887
1369, 2885, 2903, 2906, 1844, 2886, 2904, 2907, 2888
1370, 2886, 2904, 2907, 2888, 2887, 2905, 2908, 2548
1371, 2862, 150, 2909, 2903, 2863, 2868, 2910, 2904
1372, 2863, 2868, 2910, 2904, 2864, 2500, 2911, 2905
1373, 2903, 2909, 1848, 2906, 2904, 2910, 2912, 2907
1374, 2904, 2910, 2912, 2907, 2905, 2911, 2552, 2908
1375, 2495, 2500, 2552, 2548, 2496, 152, 2553, 2549
1376, 1844, 2906, 2913, 2899, 2888, 2907, 2914, 2900
1377, 2888, 2907, 2914, 2900, 2548, 2908, 2915, 2901
1378, 2899, 2913, 2916, 1846, 2900, 2914, 2917, 2902
1379, 2900, 2914, 2917, 2902, 2901, 2915, 2918, 2550
1380, 2906, 1848, 2919, 2913, 2907, 2912, 2920, 2914
1381, 2907, 2912, 2920, 2914, 2908, 2552, 2921, 2915
1382, 2913, 2919, 159, 2916, 2914, 2920, 2922, 2917
1383, 2914, 2920, 2922, 2917, 2915, 2921, 2554, 2918
1384, 2548, 2552, 2554, 2550, 2549, 2553, 160, 2551
1385, 104, 2496, 2549, 1052, 1576, 2871, 2923, 2378
1386, 1576, 2871, 2923, 2378, 106, 2507, 2555, 1587
1387, 1052, 2549, 2551, 112, 2378, 2923, 2924, 2379
1388, 2378, 2923, 2924, 2379, 1587, 2555, 2558, 113
1389, 2496, 152, 2553, 2549, 2871, 2874, 2925, 2923
1390, 2871, 2874, 2925, 2923, 2507, 154, 2561, 2555
1391, 2549, 2553, 160, 2551, 2923, 2925, 2926, 2924
1392, 2923, 2925, 2926, 2924, 2555, 2561, 161, 2558
1393, 106, 3880, 3882, 3876, 2345, 3881, 3883, 3877
1394, 2345, 3881, 3883, 3877, 1026, 3821, 3884, 3878
1395, 3876, 3882, 3885, 1587, 3877, 3883, 3886, 3879
1396, 3877, 3883, 3886, 3879, 3878, 3884, 3887, 1588
1397, 3880, 2507, 3888, 3882, 3881, 3858, 3889, 3883
1398, 3881, 3858, 3889, 3883, 3821, 2508, 3890, 3884
1399, 3882, 3888, 2555, 3885, 3883, 3889, 3891, 3886
1400, 3883, 3889, 3891, 3886, 3884, 3890, 2556, 3887
1401, 1026, 3821, 3884, 3878, 2355, 3822, 3895, 3892
1402, 2355, 3822, 3895, 3892, 108, 3823, 3896, 3893
1403, 3878, 3884, 3887, 1588, 3892, 3895, 3897, 3894
1404, 3892, 3895, 3897, 3894, 3893, 3896, 3898, 1589
1405, 3821, 2508, 3890, 3884, 3822, 3827, 3899, 3895
1406, 3822, 3827, 3899, 3895, 3823, 2509, 3900, 3896
1407, 3884, 3890, 2556, 3887, 3895, 3899, 3901, 3897
1408, 3895, 3899, 3901, 3897, 3896, 3900, 2557, 3898
1409, 1587, 3885, 3906, 3902, 3879, 3886, 3907, 3903
1410, 3879, 3886, 3907, 3903, 1588, 3887, 3908, 3904
1411, 3902, 3906, 3909, 113, 3903, 3907, 3910, 3905
1412, 3903, 3907, 3910, 3905, 3904, 3908, 3911, 1590
1413, 3885, 2555, 3912, 3906, 3886, 3891, 3913, 3907
1414, 3886, 3891, 3913, 3907, 3887, 2556, 3914, 3908
1415, 3906, 3912, 2558, 3909, 3907, 3913, 3915, 3910
1416, 3907, 3913, 3915, 3910, 3908, 3914, 2559, 3911
1417, 1588, 3887, 3908, 3904, 3894, 3897, 3919, 3916
1418, 3894, 3897, 3919, 3916, 1589, 3898, 3920, 3917
1419, 3904, 3908, 3911, 1590, 3916, 3919, 3921, 3918
1420, 3916, 3919, 3921, 3918, 3917, 3920, 3922, 114
1421, 3887, 2556, 3914, 3908, 3897, 3901, 3923, 3919
1422, 3897, 3901, 3923, 3919, 3898, 2557, 3924, 3920
1423, 3908, 3914, 2559, 3911, 3919, 3923, 3925, 3921
1424, 3919, 3923, 3925, 3921, 3920, 3924, 2560, 3922
1425, 2507, 3862, 3926, 3888, 3858, 3863, 3927, 3889
1426, 3858, 3863, 3927, 3889, 2508, 3864, 3928, 3890
1427, 3888, 3926, 3929, 2555, 3889, 3927, 3930, 3891
1428, 3889, 3927, 3930, 3891, 3890, 3928, 3931, 2556
1429, 3862, 154, 3932, 3926, 3863, 3868, 3933, 3927
1430, 3863, 3868, 3933, 3927, 3864, 2514, 3934, 3928
1431, 3926, 3932, 2561, 3929, 3927, 3933, 3935, 3930
1432, 3927, 3933, 3935, 3930, 3928, 3934, 2562, 3931
1433, 2508, 3864, 3928, 3890, 3827, 3871, 3936, 3899
1434, 3827, 3871, 3936, 3899, 2509, 3872, 3937, 3900
1435, 3890, 3928, 3931, 2556, 3899, 3936, 3938, 3901
1436, 3899, 3936, 3938, 3901, 3900, 3937, 3939, 2557
1437, 3864, 2514, 3934, 3928, 3871, 3875, 3940, 3936
1438, 3871, 3875, 3940, 3936, 3872, 156, 3941, 3937
1439, 3928, 3934, 2562, 3931, 3936, 3940, 3942, 3938
1440, 3936, 3940, 3942, 3938, 3937, 3941, 2563, 3939
1441, 2555, 3929, 3943, 3912, 3891, 3930, 3944, 3913
1442, 3891, 3930, 3944, 3913, 2556, 3931, 3945, 3914
1443, 3912, 3943, 3946, 2558, 3913, 3944, 3947, 3915
1444, 3913, 3944, 3947, 3915, 3914, 3945, 3948, 2559
1445, 3929, 2561, 3949, 3943, 3930, 3935, 3950, 3944
1446, 3930, 3935, 3950, 3944, 3931, 2562, 3951, 3945
1447, 3943, 3949, 161, 3946, 3944, 3950, 3952, 3947
1448, 3944, 3950, 3952, 3947, 3945, 3951, 2564, 3948
1449, 2556, 3931, 3945, 3914, 3901, 3938, 3953, 3923
1450, 3901, 3938, 3953, 3923, 2557, 3939, 3954, 3924
1451, 3914, 3945, 3948, 2559, 3923, 3953, 3955, 3925
1452, 3923, 3953, 3955, 3925, 3924, 3954, 3956, 2560
1453, 3931, 2562, 3951, 3945, 3938, 3942, 3957, 3953
1454, 3938, 3942, 3957, 3953, 3939, 2563, 3958, 3954
1455, 3945, 3951, 2564, 3948, 3953, 3957, 3959, 3955
1456, 3953, 3957, 3959, 3955, 3954, 3958, 162, 3956
1457, 115, 163, 164, 116, 117, 165, 166, 118
1458, 117, 5363, 5366, 1069, 1068, 5364, 5367, 1070
1459, 1068, 5364, 5367, 1070, 119, 5365, 5368, 1071
1460, 1069, 5366, 3960, 118, 1070, 5367, 3961, 1072
1461, 1070, 5367, 3961, 1072, 1071, 5368, 3962, 120
1462, 5363, 165, 5370, 5366, 5364, 5369, 5371, 5367
1463, 5364, 5369, 5371, 5367, 5365, 167, 5372, 5368
1464, 5366, 5370, 166, 3960, 5367, 5371, 3966, 3961
1465, 5367, 5371, 3966, 3961, 5368, 5372, 168, 3962
1466, 116, 5373, 5375, 1645, 1604, 5374, 5376, 1646
1467, 1604, 5374, 5376, 1646, 118, 3960, 3963, 1083
1468, 1645, 5375, 3970, 121, 1646, 5376, 3971, 1647
1469, 1646, 5376, 3971, 1647, 1083, 3963, 2927, 122
1470, 5373, 164, 4298, 5375, 5374, 4297, 4299, 5376
1471, 5374, 4297, 4299, 5376, 3960, 166, 3967, 3963
1472, 5375, 4298, 169, 3970, 5376, 4299, 3119, 3971
1473, 5376, 4299, 3119, 3971, 3963, 3967, 170, 2927
1474, 118, 3960, 3963, 1083, 1072, 3961, 3964, 1084
1475, 1072, 3961, 3964, 1084, 120, 3962, 3965, 1085
1476, 1083, 3963, 2927, 122, 1084, 3964, 2928, 1086
1477, 1084, 5377, 5380, 5223, 5212, 5378, 5381, 5224
1478, 5212, 5378, 5381, 5224, 1085, 5379, 5382, 5225
1479, 5223, 5380, 5383, 1086, 5224, 5381, 5384, 5226
1480, 5224, 5381, 5384, 5226, 5225, 5382, 5385, 123
1481, 5377, 3964, 5387, 5380, 5378, 5386, 5388, 5381
1482, 5378, 5386, 5388, 5381, 5379, 3965, 5389, 5382
1483, 5380, 5387, 2928, 5383, 5381, 5388, 5390, 5384
1484, 5381, 5388, 5390, 5384, 5382, 5389, 2929, 5385
1485, 3960, 166, 3967, 3963, 3961, 3966, 3968, 3964
1486, 3961, 3966, 3968, 3964, 3962, 168, 3969, 3965
1487, 3963, 3967, 170, 2927, 3964, 3968, 2936, 2928
1488, 3964, 5391, 5394, 5387, 5386, 5392, 5395, 5388
1489, 5386, 5392, 5395, 5388, 3965, 5393, 5396, 5389
1490, 5387, 5394, 5397, 2928, 5388, 5395, 5398, 5390
1491, 5388, 5395, 5398, 5390, 5389, 5396, 5399, 2929
1492, 5391, 3968, 5401, 5394, 5392, 5400, 5402, 5395
1493, 5392, 5400, 5402, 5395, 5393, 3969, 5403, 5396
1494, 5394, 5401, 2936, 5397, 5395, 5402, 5404, 5398
1495, 5395, 5402, 5404, 5398, 5396, 5403, 171, 5399
1496, 121, 3970, 3972, 1655, 1647, 3971, 3973, 1656
1497, 1647, 3971, 3973, 1656, 122, 2927, 2930, 1097
1498, 1655, 3972, 2941, 124, 1656, 3973, 2942, 1657
1499, 1656, 3973, 2942, 1657, 1097, 2930, 2933, 125
1500, 3970, 169, 3120, 3972, 3971, 3119, 3121, 3973
1501, 3971, 3119, 3121, 3973, 2927, 170, 2937, 2930
1502, 3972, 3120, 172, 2941, 3973, 3121, 2948, 2942
1503, 3973, 3121, 2948, 2942, 2930, 2937, 173, 2933
1504, 122, 5410, 5412, 5406, 5405, 5411, 5413, 5407
1505, 5405, 5411, 5413, 5407, 1086, 5383, 5414, 5408
1506, 5406, 5412, 5415, 1097, 5407, 5413, 5416, 5409
1507, 5407, 5413, 5416, 5409, 5408, 5414, 3979, 1098
1508, 5410, 2927, 5418, 5412, 5411, 5417, 5419, 5413
1509, 5411, 5417, 5419, 5413, 5383, 2928, 5420, 5414
1510, 5412, 5418, 2930, 5415, 5413, 5419, 5421, 5416
1511, 5413, 5419, 5421, 5416, 5414, 5420, 2931, 3979
1512, 1086, 5383, 5414, 5408, 5226, 5384, 5424, 5422
1513, 5226, 5384, 5424, 5422, 123, 5385, 5425, 5423
1514, 5408, 5414, 3979, 1098, 5422, 5424, 3980, 3974
1515, 5422, 5424, 3980, 3974, 5423, 5425, 3981, 1099
1516, 5383, 2928, 5420, 5414, 5384, 5390, 5426, 5424
1517, 5384, 5390, 5426, 5424, 5385, 2929, 5427, 5425
1518, 5414, 5420, 2931, 3979, 5424, 5426, 3988, 3980
1519, 5424, 5426, 3988, 3980, 5425, 5427, 2932, 3981
1520, 1097, 2930, 2933, 125, 1098, 2931, 2934, 1100
1521, 1098, 3979, 3982, 3975, 3974, 3980, 3983, 3976
1522, 3974, 3980, 3983, 3976, 1099, 3981, 3984, 3977
1523, 3975, 3982, 3985, 1100, 3976, 3983, 3986, 3978
1524, 3976, 3983, 3986, 3978, 3977, 3984, 3987, 126
1525, 3979, 2931, 3989, 3982, 3980, 3988, 3990, 3983
1526, 3980, 3988, 3990, 3983, 3981, 2932, 3991, 3984
1527, 3982, 3989, 2934, 3985, 3983, 3990, 3992, 3986
1528, 3983, 3990, 3992, 3986, 3984, 3991, 2935, 3987
1529, 2927, 5428, 5430, 5418, 5417, 5429, 5431, 5419
1530, 5417, 5429, 5431, 5419, 2928, 5397, 5432, 5420
1531, 5418, 5430, 5433, 2930, 5419, 5431, 5434, 5421
1532, 5419, 5431, 5434, 5421, 5420, 5432, 3993, 2931
1533, 5428, 170, 5436, 5430, 5429, 5435, 5437, 5431
1534, 5429, 5435, 5437, 5431, 5397, 2936, 5438, 5432
1535, 5430, 5436, 2937, 5433, 5431, 5437, 5439, 5434
1536, 5431, 5437, 5439, 5434, 5432, 5438, 2938, 3993
1537, 2928, 5397, 5432, 5420, 5390, 5398, 5440, 5426
1538, 5390, 5398, 5440, 5426, 2929, 5399, 5441, 5427
1539, 5420, 5432, 3993, 2931, 5426, 5440, 3994, 3988
1540, 5426, 5440, 3994, 3988, 5427, 5441, 3995, 2932
1541, 5397, 2936, 5438, 5432, 5398, 5404, 5442, 5440
1542, 5398, 5404, 5442, 5440, 5399, 171, 5443, 5441
1543, 5432, 5438, 2938, 3993, 5440, 5442, 4002, 3994
1544, 5440, 5442, 4002, 3994, 5441, 5443, 2939, 3995
1545, 2930, 2937, 173, 2933, 2931, 2938, 2940, 2934
1546, 2931, 3993, 3996, 3989, 3988, 3994, 3997, 3990
1547, 3988, 3994, 3997, 3990, 2932, 3995, 3998, 3991
1548, 3989, 3996, 3999, 2934, 3990, 3997, 4000, 3992
1549, 3990, 3997, 4000, 3992, 3991, 3998, 4001, 2935
1550, 3993, 2938, 4003, 3996, 3994, 4002, 4004, 3997
1551, 3994, 4002, 4004, 3997, 3995, 2939, 4005, 3998
1552, 3996, 4003, 2940, 3999, 3997, 4004, 4006, 4000
1553, 3997, 4004, 4006, 4000, 3998, 4005, 174, 4001
1554, 124, 2941, 2943, 1664, 1657, 2942, 2944, 1665
1555, 1657, 2942, 2944, 1665, 125, 2933, 2945, 1111
1556, 1664, 4007, 4010, 2408, 2407, 4008, 4011, 2409
1557, 2407, 4008, 4011, 2409, 1665, 4009, 4012, 2410
1558, 2408, 4010, 3806, 107, 2409, 4011, 4013, 2411
1559, 2409, 4011, 4013, 2411, 2410, 4012, 4014, 1666
1560, 4007, 2943, 4016, 4010, 4008, 4015, 4017, 4011
1561, 4008, 4015, 4017, 4011, 4009, 2944, 4018, 4012
1562, 4010, 4016, 2503, 3806, 4011, 4017, 4019, 4013
1563, 4011, 4017, 4019, 4013, 4012, 4018, 2946, 4014
1564, 1665, 4009, 4012, 2410, 4020, 4024, 4026, 4021
1565, 4020, 4024, 4026, 4021, 1111, 4025, 4027, 4022
1566, 2410, 4012, 4014, 1666, 4021, 4026, 4028, 4023
1567, 4021, 4026, 4028, 4023, 4022, 4027, 4029, 127
1568, 4009, 2944, 4018, 4012, 4024, 4030, 4031, 4026
1569, 4024, 4030, 4031, 4026, 4025, 2945, 4032, 4027
1570, 4012, 4018, 2946, 4014, 4026, 4031, 4033, 4028
1571, 4026, 4031, 4033, 4028, 4027, 4032, 2947, 4029
1572, 2941, 172, 2949, 2943, 2942, 2948, 2950, 2944
1573, 2942, 2948, 2950, 2944, 2933, 173, 2951, 2945
1574, 2943, 4034, 4037, 4016, 4015, 4035, 4038, 4017
1575, 4015, 4035, 4038, 4017, 2944, 4036, 4039, 4018
1576, 4016, 4037, 3847, 2503, 4017, 4038, 4040, 4019
1577, 4017, 4038, 4040, 4019, 4018, 4039, 4041, 2946
1578, 4034, 2949, 4043, 4037, 4035, 4042, 4044, 4038
1579, 4035, 4042, 4044, 4038, 4036, 2950, 4045, 4039
1580, 4037, 4043, 155, 3847, 4038, 4044, 4046, 4040
1581, 4038, 4044, 4046, 4040, 4039, 4045, 2952, 4041
1582, 2944, 4036, 4039, 4018, 4030, 4047, 4049, 4031
1583, 4030, 4047, 4049, 4031, 2945, 4048, 4050, 4032
1584, 4018, 4039, 4041, 2946, 4031, 4049, 4051, 4033
1585, 4031, 4049, 4051, 4033, 4032, 4050, 4052, 2947
1586, 4036, 2950, 4045, 4039, 4047, 4053, 4054, 4049
1587, 4047, 4053, 4054, 4049, 4048, 2951, 4055, 4050
1588, 4039, 4045, 2952, 4041, 4049, 4054, 4056, 4051
1589, 4049, 4054, 4056, 4051, 4050, 4055, 175, 4052
1590, 125, 4062, 4064, 4058, 4057, 4063, 4065, 4059
1591, 4057, 4063, 4065, 4059, 1100, 3985, 4066, 4060
1592, 4058, 4064, 4025, 1111, 4059, 4065, 4067, 4061
1593, 4059, 4065, 4067, 4061, 4060, 4066, 4068, 1112
1594, 4062, 2933, 4070, 4064, 4063, 4069, 4071, 4065
1595, 4063, 4069, 4071, 4065, 3985, 2934, 4072, 4066
1596, 4064, 4070, 2945, 4025, 4065, 4071, 4073, 4067
1597, 4065, 4071, 4073, 4067, 4066, 4072, 2953, 4068
1598, 1100, 3985, 4066, 4060, 3978, 3986, 4076, 4074
1599, 3978, 3986, 4076, 4074, 126, 3987, 4077, 4075
1600, 4060, 4066, 4068, 1112, 4074, 4076, 4078, 3782
1601, 4074, 4076, 4078, 3782, 4075, 4077, 4079, 1113
1602, 3985, 2934, 4072, 4066, 3986, 3992, 4080, 4076
1603, 3986, 3992, 4080, 4076, 3987, 2935, 4081, 4077
1604, 4066, 4072, 2953, 4068, 4076, 4080, 4082, 4078
1605, 4076, 4080, 4082, 4078, 4077, 4081, 2954, 4079
1606, 1111, 2945, 2947, 127, 1112, 2953, 2955, 1114
1607, 1112, 2953, 2955, 1114, 1113, 2954, 2956, 128
1608, 2933, 4083, 4085, 4070, 4069, 4084, 4086, 4071
1609, 4069, 4084, 4086, 4071, 2934, 3999, 4087, 4072
1610, 4070, 4085, 4048, 2945, 4071, 4086, 4088, 4073
1611, 4071, 4086, 4088, 4073, 4072, 4087, 4089, 2953
1612, 4083, 173, 4091, 4085, 4084, 4090, 4092, 4086
1613, 4084, 4090, 4092, 4086, 3999, 2940, 4093, 4087
1614, 4085, 4091, 2951, 4048, 4086, 4092, 4094, 4088
1615, 4086, 4092, 4094, 4088, 4087, 4093, 2957, 4089
1616, 2934, 3999, 4087, 4072, 3992, 4000, 4095, 4080
1617, 3992, 4000, 4095, 4080, 2935, 4001, 4096, 4081
1618, 4072, 4087, 4089, 2953, 4080, 4095, 4097, 4082
1619, 4080, 4095, 4097, 4082, 4081, 4096, 4098, 2954
1620, 3999, 2940, 4093, 4087, 4000, 4006, 4099, 4095
1621, 4000, 4006, 4099, 4095, 4001, 174, 4100, 4096
1622, 4087, 4093, 2957, 4089, 4095, 4099, 4101, 4097
1623, 4095, 4099, 4101, 4097, 4096, 4100, 2958, 4098
1624, 2945, 2951, 175, 2947, 2953, 2957, 2959, 2955
1625, 2953, 2957, 2959, 2955, 2954, 2958, 176, 2956
1626, 107, 2503, 2506, 1025, 1666, 2946, 2960, 1674
1627, 1666, 2946, 2960, 1674, 127, 2947, 2961, 1675
1628, 1025, 2506, 2509, 108, 1674, 2960, 2962, 1676
1629, 1674, 2960, 2962, 1676, 1675, 2961, 2963, 129
1630, 2503, 155, 2513, 2506, 2946, 2952, 2964, 2960
1631, 2946, 2952, 2964, 2960, 2947, 175, 2965, 2961
1632, 2506, 3851, 3870, 3826, 4102, 4106, 4108, 4103
1633, 4102, 4106, 4108, 4103, 2960, 4107, 4109, 4104
1634, 3826, 3870, 3872, 2509, 4103, 4108, 4110, 4105
1635, 4103, 4108, 4110, 4105, 4104, 4109, 4111, 2962
1636, 3851, 2513, 3874, 3870, 4106, 4112, 4113, 4108
1637, 4106, 4112, 4113, 4108, 4107, 2964, 4114, 4109
1638, 3870, 3874, 156, 3872, 4108, 4113, 4115, 4110
1639, 4108, 4113, 4115, 4110, 4109, 4114, 2966, 4111
1640, 2960, 2964, 2966, 2962, 2961, 2965, 177, 2963
1641, 127, 2947, 2961, 1675, 1114, 2955, 4116, 1684
1642, 1114, 2955, 4116, 1684, 128, 2956, 4117, 1685
1643, 1675, 2961, 2963, 129, 1684, 4116, 4118, 1686
1644, 1684, 4116, 4118, 1686, 1685, 4117, 4119, 130
1645, 2947, 175, 2965, 2961, 2955, 2959, 4120, 4116
1646, 2955, 2959, 4120, 4116, 2956, 176, 4121, 4117
1647, 2961, 2965, 177, 2963, 4116, 4120, 4122, 4118
1648, 4116, 4120, 4122, 4118, 4117, 4121, 178, 4119
1649, 108, 2509, 2557, 1589, 1676, 2962, 2967, 2414
1650, 1676, 2962, 2967, 2414, 129, 2963, 2968, 1693
1651, 1589, 2557, 2560, 114, 2414, 2967, 2969, 1705
1652, 2414, 2967, 2969, 1705, 1693, 2968, 2970, 131
1653, 2509, 3872, 3937, 3900, 4105, 4110, 4126, 4123
1654, 4105, 4110, 4126, 4123, 2962, 4111, 4127, 4124
1655, 3900, 3937, 3939, 2557, 4123, 4126, 4128, 4125
1656, 4123, 4126, 4128, 4125, 4124, 4127, 4129, 2967
1657, 3872, 156, 3941, 3937, 4110, 4115, 4130, 4126
1658, 4110, 4115, 4130, 4126, 4111, 2966, 4131, 4127
1659, 3937, 3941, 2563, 3939, 4126, 4130, 4132, 4128
1660, 4126, 4130, 4132, 4128, 4127, 4131, 2971, 4129
1661, 2962, 2966, 2971, 2967, 2963, 177, 2972, 2968
1662, 2557, 2563, 162, 2560, 2967, 2971, 2973, 2969
1663, 2967, 2971, 2973, 2969, 2968, 2972, 179, 2970
1664, 129, 2963, 2968, 1693, 1686, 4118, 4133, 1694
1665, 1686, 4118, 4133, 1694, 130, 4119, 4134, 1695
1666, 1693, 2968, 2970, 131, 1694, 4133, 2974, 1129
1667, 1694, 4133, 2974, 1129, 1695, 4134, 2975, 132
1668, 2963, 177, 2972, 2968, 4118, 4122, 4135, 4133
1669, 4118, 4122, 4135, 4133, 4119, 178, 4136, 4134
1670, 2968, 2972, 179, 2970, 4133, 4135, 2982, 2974
1671, 4133, 4135, 2982, 2974, 4134, 4136, 180, 2975
1672, 114, 2560, 4137, 1706, 1705, 2969, 4138, 1707
1673, 1705, 2969, 4138, 1707, 131, 2970, 2976, 1130
1674, 1706, 4137, 4139, 133, 1707, 4138, 4140, 1708
1675, 1707, 4138, 4140, 1708, 1130, 2976, 2979, 134
1676, 2560, 162, 4141, 4137, 2969, 2973, 4142, 4138
1677, 2969, 2973, 4142, 4138, 2970, 179, 2983, 2976
1678, 4137, 4141, 181, 4139, 4138, 4142, 3163, 4140
1679, 4138, 4142, 3163, 4140, 2976, 2983, 182, 2979
1680, 131, 2970, 2976, 1130, 1129, 2974, 2977, 1131
1681, 1129, 2974, 2977, 1131, 132, 2975, 2978, 1132
1682, 1130, 2976, 2979, 134, 1131, 2977, 2980, 1133
1683, 1131, 4143, 4146, 3797, 2471, 4144, 4147, 3798
1684, 2471, 4144, 4147, 3798, 1132, 4145, 4148, 3799
1685, 3797, 4146, 4149, 1133, 3798, 4147, 4150, 3800
1686, 3798, 4147, 4150, 3800, 3799, 4148, 4151, 135
1687, 4143, 2977, 4153, 4146, 4144, 4152, 4154, 4147
1688, 4144, 4152, 4154, 4147, 4145, 2978, 4155, 4148
1689, 4146, 4153, 2980, 4149, 4147, 4154, 4156, 4150
1690, 4147, 4154, 4156, 4150, 4148, 4155, 2981, 4151
1691, 2970, 179, 2983, 2976, 2974, 2982, 2984, 2977
1692, 2974, 2982, 2984, 2977, 2975, 180, 2985, 2978
1693, 2976, 2983, 182, 2979, 2977, 2984, 2986, 2980
1694, 2977, 4157, 4160, 4153, 4152, 4158, 4161, 4154
1695, 4152, 4158, 4161, 4154, 2978, 4159, 4162, 4155
1696, 4153, 4160, 4163, 2980, 4154, 4161, 4164, 4156
1697, 4154, 4161, 4164, 4156, 4155, 4162, 4165, 2981
1698, 4157, 2984, 4167, 4160, 4158, 4166, 4168, 4161
1699, 4158, 4166, 4168, 4161, 4159, 2985, 4169, 4162
1700, 4160, 4167, 2986, 4163, 4161, 4168, 4170, 4164
1701, 4161, 4168, 4170, 4164, 4162, 4169, 183, 4165
1702, 133, 4139, 4171, 1716, 1708, 4140, 4172, 1717
1703, 1708, 4140, 4172, 1717, 134, 2979, 2987, 1144
1704, 1716, 4171, 4173, 136, 1717, 4172, 4174, 1718
1705, 1717, 4172, 4174, 1718, 1144, 2987, 2990, 137
1706, 4139, 181, 3164, 4171, 4140, 3163, 3165, 4172
1707, 4140, 3163, 3165, 4172, 2979, 182, 2993, 2987
1708, 4171, 3164, 184, 4173, 4172, 3165, 3166, 4174
1709, 4172, 3165, 3166, 4174, 2987, 2993, 185, 2990
1710, 134, 2979, 2987, 1144, 1133, 2980, 2988, 1145
1711, 1133, 4149, 4179, 4175, 3800, 4150, 4180, 4176
1712, 3800, 4150, 4180, 4176, 135, 4151, 4181, 4177
1713, 4175, 4179, 4182, 1145, 4176, 4180, 4183, 4178
1714, 4176, 4180, 4183, 4178, 4177, 4181, 4184, 1146
1715, 4149, 2980, 4185, 4179, 4150, 4156, 4186, 4180
1716, 4150, 4156, 4186, 4180, 4151, 2981, 4187, 4181
1717, 4179, 4185, 2988, 4182, 4180, 4186, 4188, 4183
1718, 4180, 4186, 4188, 4183, 4181, 4187, 2989, 4184
1719, 1144, 5449, 5451, 5445, 5444, 5450, 5452, 5446
1720, 5444, 5450, 5452, 5446, 1145, 4182, 5453, 5447
1721, 5445, 5451, 5454, 137, 5446, 5452, 5455, 5448
1722, 5446, 5452, 5455, 5448, 5447, 5453, 5456, 1147
1723, 5449, 2987, 5458, 5451, 5450, 5457, 5459, 5452
1724, 5450, 5457, 5459, 5452, 4182, 2988, 5460, 5453
1725, 5451, 5458, 2990, 5454, 5452, 5459, 5461, 5455
1726, 5452, 5459, 5461, 5455, 5453, 5460, 2991, 5456
1727, 1145, 4182, 5453, 5447, 4178, 4183, 5464, 5462
1728, 4178, 4183, 5464, 5462, 1146, 4184, 5465, 5463
1729, 5447, 5453, 5456, 1147, 5462, 5464, 5466, 5326
1730, 5462, 5464, 5466, 5326, 5463, 5465, 5467, 138
1731, 4182, 2988, 5460, 5453, 4183, 4188, 5468, 5464
1732, 4183, 4188, 5468, 5464, 4184, 2989, 5469, 5465
1733, 5453, 5460, 2991, 5456, 5464, 5468, 5470, 5466
1734, 5464, 5468, 5470, 5466, 5465, 5469, 2992, 5467
1735, 2979, 182, 2993, 2987, 2980, 2986, 2994, 2988
1736, 2980, 4163, 4189, 4185, 4156, 4164, 4190, 4186
1737, 4156, 4164, 4190, 4186, 2981, 4165, 4191, 4187
1738, 4185, 4189, 4192, 2988, 4186, 4190, 4193, 4188
1739, 4186, 4190, 4193, 4188, 4187, 4191, 4194, 2989
1740, 4163, 2986, 4195, 4189, 4164, 4170, 4196, 4190
1741, 4164, 4170, 4196, 4190, 4165, 183, 4197, 4191
1742, 4189, 4195, 2994, 4192, 4190, 4196, 4198, 4193
1743, 4190, 4196, 4198, 4193, 4191, 4197, 2995, 4194
1744, 2987, 5471, 5473, 5458, 5457, 5472, 5474, 5459
1745, 5457, 5472, 5474, 5459, 2988, 4192, 5475, 5460
1746, 5458, 5473, 5476, 2990, 5459, 5474, 5477, 5461
1747, 5459, 5474, 5477, 5461, 5460, 5475, 5478, 2991
1748, 5471, 2993, 5480, 5473, 5472, 5479, 5481, 5474
1749, 5472, 5479, 5481, 5474, 4192, 2994, 5482, 5475
1750, 5473, 5480, 185, 5476, 5474, 5481, 5483, 5477
1751, 5474, 5481, 5483, 5477, 5475, 5482, 2996, 5478
1752, 2988, 4192, 5475, 5460, 4188, 4193, 5484, 5468
1753, 4188, 4193, 5484, 5468, 2989, 4194, 5485, 5469
1754, 5460, 5475, 5478, 2991, 5468, 5484, 5486, 5470
1755, 5468, 5484, 5486, 5470, 5469, 5485, 5487, 2992
1756, 4192, 2994, 5482, 5475, 4193, 4198, 5488, 5484
1757, 4193, 4198, 5488, 5484, 4194, 2995, 5489, 5485
1758, 5475, 5482, 2996, 5478, 5484, 5488, 5490, 5486
1759, 5484, 5488, 5490, 5486, 5485, 5489, 186, 5487
1760, 136, 4173, 5491, 1726, 1718, 4174, 5492, 1727
1761, 1718, 4174, 5492, 1727, 137, 2990, 4199, 1158
1762, 1726, 5491, 5493, 139, 1727, 5492, 5494, 1728
1763, 1727, 5492, 5494, 1728, 1158, 4199, 4202, 140
1764, 4173, 184, 4358, 5491, 4174, 3166, 4359, 5492
1765, 4174, 3166, 4359, 5492, 2990, 185, 4205, 4199
1766, 5491, 4358, 187, 5493, 5492, 4359, 4360, 5494
1767, 5492, 4359, 4360, 5494, 4199, 4205, 188, 4202
1768, 137, 2990, 4199, 1158, 1147, 2991, 4200, 1159
1769, 1147, 5456, 5495, 5327, 5326, 5466, 5496, 5328
1770, 5326, 5466, 5496, 5328, 138, 5467, 5497, 5329
1771, 5327, 5495, 5498, 1159, 5328, 5496, 5499, 5330
1772, 5328, 5496, 5499, 5330, 5329, 5497, 5500, 1160
1773, 5456, 2991, 5501, 5495, 5466, 5470, 5502, 5496
1774, 5466, 5470, 5502, 5496, 5467, 2992, 5503, 5497
1775, 5495, 5501, 4200, 5498, 5496, 5502, 5504, 5499
1776, 5496, 5502, 5504, 5499, 5497, 5503, 4201, 5500
1777, 1158, 4199, 4202, 140, 1159, 4200, 4203, 1161
1778, 1159, 4200, 4203, 1161, 1160, 4201, 4204, 141
1779, 2990, 185, 4205, 4199, 2991, 2996, 4206, 4200
1780, 2991, 5478, 5505, 5501, 5470, 5486, 5506, 5502
1781, 5470, 5486, 5506, 5502, 2992, 5487, 5507, 5503
1782, 5501, 5505, 5508, 4200, 5502, 5506, 5509, 5504
1783, 5502, 5506, 5509, 5504, 5503, 5507, 5510, 4201
1784, 5478, 2996, 5511, 5505, 5486, 5490, 5512, 5506
1785, 5486, 5490, 5512, 5506, 5487, 186, 5513, 5507
1786, 5505, 5511, 4206, 5508, 5506, 5512, 5514, 5509
1787, 5506, 5512, 5514, 5509, 5507, 5513, 4207, 5510
1788, 4199, 4205, 188, 4202, 4200, 4206, 4208, 4203
1789, 4200, 4206, 4208, 4203, 4201, 4207, 189, 4204
1790, 139, 187, 190, 142, 140, 188, 191, 143
1791, 140, 4202, 5515, 1172, 1161, 4203, 5516, 1173
1792, 1161, 4203, 5516, 1173, 141, 4204, 5517, 1174
1793, 1172, 5515, 5518, 143, 1173, 5516, 5519, 1175
1794, 1173, 5516, 5519, 1175, 1174, 5517, 5520, 144
1795, 4202, 188, 5521, 5515, 4203, 4208, 5522, 5516
1796, 4203, 4208, 5522, 5516, 4204, 189, 5523, 5517
1797, 5515, 5521, 191, 5518, 5516, 5522, 5524, 5519
1798, 5516, 5522, 5524, 5519, 5517, 5523, 192, 5520
1799, 145, 1850, 1853, 1787, 1786, 1851, 1854, 1788
1800, 1786, 1851, 1854, 1788, 1185, 1852, 1855, 1789
1801, 1787, 1853, 1856, 1186, 1788, 1854, 1857, 1790
1802, 1788, 1854, 1857, 1790, 1789, 1855, 1858, 1187
1803, 1850, 1200, 1860, 1853, 1851, 1859, 1861, 1854
1804, 1851, 1859, 1861, 1854, 1852, 1201, 1862, 1855
1805, 1853, 1860, 1203, 1856, 1854, 1861, 1863, 1857
1806, 1854, 1861, 1863, 1857, 1855, 1862, 1204, 1858
1807, 1185, 1201, 1204, 1187, 147, 1202, 1205, 1188
1808, 1186, 1856, 1864, 1801, 1790, 1857, 1865, 1802
1809, 1790, 1857, 1865, 1802, 1187, 1858, 1866, 1803
1810, 1801, 1864, 1867, 146, 1802, 1865, 1868, 1804
1811, 1802, 1865, 1868, 1804, 1803, 1866, 1869, 1189
1812, 1856, 1203, 1870, 1864, 1857, 1863, 1871, 1865
1813, 1857, 1863, 1871, 1865, 1858, 1204, 1872, 1866
1814, 1864, 1870, 1206, 1867, 1865, 1871, 1873, 1868
1815, 1865, 1871, 1873, 1868, 1866, 1872, 1207, 1869
1816, 1187, 1204, 1207, 1189, 1188, 1205, 1208, 148
1817, 1200, 1874, 1877, 1860, 1859, 1875, 1878, 1861
1818, 1859, 1875, 1878, 1861, 1201, 1876, 1879, 1862
1819, 1860, 1877, 1880, 1203, 1861, 1878, 1881, 1863
1820, 1861, 1878, 1881, 1863, 1862, 1879, 1882, 1204
1821, 1874, 193, 1884, 1877, 1875, 1883, 1885, 1878
1822, 1875, 1883, 1885, 1878, 1876, 1209, 1886, 1879
1823, 1877, 1884, 1210, 1880, 1878, 1885, 1887, 1881
1824, 1878, 1885, 1887, 1881, 1879, 1886, 1211, 1882
1825, 1201, 1209, 1211, 1204, 1202, 195, 1212, 1205
1826, 1203, 1880, 1888, 1870, 1863, 1881, 1889, 1871
1827, 1863, 1881, 1889, 1871, 1204, 1882, 1890, 1872
1828, 1870, 1888, 1891, 1206, 1871, 1889, 1892, 1873
1829, 1871, 1889, 1892, 1873, 1872, 1890, 1893, 1207
1830, 1880, 1210, 1894, 1888, 1881, 1887, 1895, 1889
1831, 1881, 1887, 1895, 1889, 1882, 1211, 1896, 1890
1832, 1888, 1894, 194, 1891, 1889, 1895, 1897, 1892
1833, 1889, 1895, 1897, 1892, 1890, 1896, 1213, 1893
1834, 1204, 1211, 1213, 1207, 1205, 1212, 196, 1208
1835, 147, 1202, 1205, 1188, 1811, 1898, 1900, 1812
1836, 1811, 1898, 1900, 1812, 149, 1899, 1901, 1813
1837, 1188, 1205, 1208, 148, 1812, 1900, 1902, 1814
1838, 1812, 1900, 1902, 1814, 1813, 1901, 1903, 150
1839, 1202, 195, 1212, 1205, 1898, 1904, 1905, 1900
1840, 1898, 1904, 1905, 1900, 1899, 197, 1906, 1901
1841, 1205, 1212, 196, 1208, 1900, 1905, 1907, 1902
1842, 1900, 1905, 1907, 1902, 1901, 1906, 198, 1903
1843, 149, 2997, 3000, 2855, 2854, 2998, 3001, 2856
1844, 2854, 2998, 3001, 2856, 2497, 2999, 3002, 2857
1845, 2855, 3000, 3003, 1813, 2856, 3001, 3004, 2858
1846, 2856, 3001, 3004, 2858, 2857, 3002, 3005, 2498
1847, 2997, 1899, 3007, 3000, 2998, 3006, 3008, 3001
1848, 2998, 3006, 3008, 3001, 2999, 2565, 3009, 3002
1849, 3000, 3007, 1901, 3003, 3001, 3008, 3010, 3004
1850, 3001, 3008, 3010, 3004, 3002, 3009, 2567, 3005
1851, 2497, 2565, 2567, 2498, 151, 2566, 2568, 2499
1852, 1813, 3003, 3011, 2865, 2858, 3004, 3012, 2866
1853, 2858, 3004, 3012, 2866, 2498, 3005, 3013, 2867
1854, 2865, 3011, 3014, 150, 2866, 3012, 3015, 2868
1855, 2866, 3012, 3015, 2868, 2867, 3013, 3016, 2500
1856, 3003, 1901, 3017, 3011, 3004, 3010, 3018, 3012
1857, 3004, 3010, 3018, 3012, 3005, 2567, 3019, 3013
1858, 3011, 3017, 1903, 3014, 3012, 3018, 3020, 3015
1859, 3012, 3018, 3020, 3015, 3013, 3019, 2569, 3016
1860, 2498, 2567, 2569, 2500, 2499, 2568, 2570, 152
1861, 1899, 3021, 3024, 3007, 3006, 3022, 3025, 3008
1862, 3006, 3022, 3025, 3008, 2565, 3023, 3026, 3009
1863, 3007, 3024, 3027, 1901, 3008, 3025, 3028, 3010
1864, 3008, 3025, 3028, 3010, 3009, 3026, 3029, 2567
1865, 3021, 197, 3031, 3024, 3022, 3030, 3032, 3025
1866, 3022, 3030, 3032, 3025, 3023, 2571, 3033, 3026
1867, 3024, 3031, 1906, 3027, 3025, 3032, 3034, 3028
1868, 3025, 3032, 3034, 3028, 3026, 3033, 2572, 3029
1869, 2565, 2571, 2572, 2567, 2566, 199, 2573, 2568
1870, 1901, 3027, 3035, 3017, 3010, 3028, 3036, 3018
1871, 3010, 3028, 3036, 3018, 2567, 3029, 3037, 3019
1872, 3017, 3035, 3038, 1903, 3018, 3036, 3039, 3020
1873, 3018, 3036, 3039, 3020, 3019, 3037, 3040, 2569
1874, 3027, 1906, 3041, 3035, 3028, 3034, 3042, 3036
1875, 3028, 3034, 3042, 3036, 3029, 2572, 3043, 3037
1876, 3035, 3041, 198, 3038, 3036, 3042, 3044, 3039
1877, 3036, 3042, 3044, 3039, 3037, 3043, 2574, 3040
1878, 2567, 2572, 2574, 2569, 2568, 2573, 200, 2570
1879, 151, 2566, 2568, 2499, 2872, 3045, 3047, 2873
1880, 2872, 3045, 3047, 2873, 153, 3046, 3048, 2511
1881, 2499, 2568, 2570, 152, 2873, 3047, 3049, 2874
1882, 2873, 3047, 3049, 2874, 2511, 3048, 3050, 154
1883, 2566, 199, 2573, 2568, 3045, 3051, 3052, 3047
1884, 3045, 3051, 3052, 3047, 3046, 201, 3053, 3048
1885, 2568, 2573, 200, 2570, 3047, 3052, 3054, 3049
1886, 3047, 3052, 3054, 3049, 3048, 3053, 202, 3050
1887, 153, 4209, 4212, 3842, 3841, 4210, 4213, 3843
1888, 3841, 4210, 4213, 3843, 2510, 4211, 4214, 3844
1889, 3842, 4212, 4215, 2511, 3843, 4213, 4216, 3845
1890, 3843, 4213, 4216, 3845, 3844, 4214, 4217, 2512
1891, 4209, 3046, 4219, 4212, 4210, 4218, 4220, 4213
1892, 4210, 4218, 4220, 4213, 4211, 3055, 4221, 4214
1893, 4212, 4219, 3048, 4215, 4213, 4220, 4222, 4216
1894, 4213, 4220, 4222, 4216, 4214, 4221, 3057, 4217
1895, 2510, 3055, 3057, 2512, 155, 3056, 3058, 2513
1896, 2511, 4215, 4223, 3865, 3845, 4216, 4224, 3866
1897, 3845, 4216, 4224, 3866, 2512, 4217, 4225, 3867
1898, 3865, 4223, 4226, 154, 3866, 4224, 4227, 3868
1899, 3866, 4224, 4227, 3868, 3867, 4225, 4228, 2514
1900, 4215, 3048, 4229, 4223, 4216, 4222, 4230, 4224
1901, 4216, 4222, 4230, 4224, 4217, 3057, 4231, 4225
1902, 4223, 4229, 3050, 4226, 4224, 4230, 4232, 4227
1903, 4224, 4230, 4232, 4227, 4225, 4231, 3059, 4228
1904, 2512, 3057, 3059, 2514, 2513, 3058, 3060, 156
1905, 3046, 4233, 4236, 4219, 4218, 4234, 4237, 4220
1906, 4218, 4234, 4237, 4220, 3055, 4235, 4238, 4221
1907, 4219, 4236, 4239, 3048, 4220, 4237, 4240, 4222
1908, 4220, 4237, 4240, 4222, 4221, 4238, 4241, 3057
1909, 4233, 201, 4243, 4236, 4234, 4242, 4244, 4237
1910, 4234, 4242, 4244, 4237, 4235, 3061, 4245, 4238
1911, 4236, 4243, 3053, 4239, 4237, 4244, 4246, 4240
1912, 4237, 4244, 4246, 4240, 4238, 4245, 3062, 4241
1913, 3055, 3061, 3062, 3057, 3056, 203, 3063, 3058
1914, 3048, 4239, 4247, 4229, 4222, 4240, 4248, 4230
1915, 4222, 4240, 4248, 4230, 3057, 4241, 4249, 4231
1916, 4229, 4247, 4250, 3050, 4230, 4248, 4251, 4232
1917, 4230, 4248, 4251, 4232, 4231, 4249, 4252, 3059
1918, 4239, 3053, 4253, 4247, 4240, 4246, 4254, 4248
1919, 4240, 4246, 4254, 4248, 4241, 3062, 4255, 4249
1920, 4247, 4253, 202, 4250, 4248, 4254, 4256, 4251
1921, 4248, 4254, 4256, 4251, 4249, 4255, 3064, 4252
1922, 3057, 3062, 3064, 3059, 3058, 3063, 204, 3060
1923, 146, 1867, 1908, 1825, 1804, 1868, 1909, 1826
1924, 1804, 1868, 1909, 1826, 1189, 1869, 1910, 1827
1925, 1825, 1908, 1911, 1196, 1826, 1909, 1912, 1828
1926, 1826, 1909, 1912, 1828, 1827, 1910, 1913, 1197
1927, 1867, 1206, 1914, 1908, 1868, 1873, 1915, 1909
1928, 1868, 1873, 1915, 1909, 1869, 1207, 1916, 1910
1929, 1908, 1914, 1214, 1911, 1909, 1915, 1917, 1912
1930, 1909, 1915, 1917, 1912, 1910, 1916, 1215, 1913
1931, 1189, 1207, 1215, 1197, 148, 1208, 1216, 1198
1932, 1196, 1911, 1918, 1839, 1828, 1912, 1919, 1840
1933, 1828, 1912, 1919, 1840, 1197, 1913, 1920, 1841
1934, 1839, 1918, 1921, 157, 1840, 1919, 1922, 1842
1935, 1840, 1919, 1922, 1842, 1841, 1920, 1923, 1199
1936, 1911, 1214, 1924, 1918, 1912, 1917, 1925, 1919
1937, 1912, 1917, 1925, 1919, 1913, 1215, 1926, 1920
1938, 1918, 1924, 1217, 1921, 1919, 1925, 1927, 1922
1939, 1919, 1925, 1927, 1922, 1920, 1926, 1218, 1923
1940, 1197, 1215, 1218, 1199, 1198, 1216, 1219, 158
1941, 1206, 1891, 1928, 1914, 1873, 1892, 1929, 1915
1942, 1873, 1892, 1929, 1915, 1207, 1893, 1930, 1916
1943, 1914, 1928, 1931, 1214, 1915, 1929, 1932, 1917
1944, 1915, 1929, 1932, 1917, 1916, 1930, 1933, 1215
1945, 1891, 194, 1934, 1928, 1892, 1897, 1935, 1929
1946, 1892, 1897, 1935, 1929, 1893, 1213, 1936, 1930
1947, 1928, 1934, 1220, 1931, 1929, 1935, 1937, 1932
1948, 1929, 1935, 1937, 1932, 1930, 1936, 1221, 1933
1949, 1207, 1213, 1221, 1215, 1208, 196, 1222, 1216
1950, 1214, 1931, 1938, 1924, 1917, 1932, 1939, 1925
1951, 1917, 1932, 1939, 1925, 1215, 1933, 1940, 1926
1952, 1924, 1938, 1941, 1217, 1925, 1939, 1942, 1927
1953, 1925, 1939, 1942, 1927, 1926, 1940, 1943, 1218
1954, 1931, 1220, 1944, 1938, 1932, 1937, 1945, 1939
1955, 1932, 1937, 1945, 1939, 1933, 1221, 1946, 1940
1956, 1938, 1944, 205, 1941, 1939, 1945, 1947, 1942
1957, 1939, 1945, 1947, 1942, 1940, 1946, 1223, 1943
1958, 1215, 1221, 1223, 1218, 1216, 1222, 206, 1219
1959, 148, 1208, 1216, 1198, 1814, 1902, 1948, 1847
1960, 1814, 1902, 1948, 1847, 150, 1903, 1949, 1848
1961, 1198, 1216, 1219, 158, 1847, 1948, 1950, 1849
1962, 1847, 1948, 1950, 1849, 1848, 1949, 1951, 159
1963, 1208, 196, 1222, 1216, 1902, 1907, 1952, 1948
1964, 1902, 1907, 1952, 1948, 1903, 198, 1953, 1949
1965, 1216, 1222, 206, 1219, 1948, 1952, 1954, 1950
1966, 1948, 1952, 1954, 1950, 1949, 1953, 207, 1951
1967, 150, 3014, 3065, 2909, 2868, 3015, 3066, 2910
1968, 2868, 3015, 3066, 2910, 2500, 3016, 3067, 2911
1969, 2909, 3065, 3068, 1848, 2910, 3066, 3069, 2912
1970, 2910, 3066, 3069, 2912, 2911, 3067, 3070, 2552
1971, 3014, 1903, 3071, 3065, 3015, 3020, 3072, 3066
1972, 3015, 3020, 3072, 3066, 3016, 2569, 3073, 3067
1973, 3065, 3071, 1949, 3068, 3066, 3072, 3074, 3069
1974, 3066, 3072, 3074, 3069, 3067, 3073, 2575, 3070
1975, 2500, 2569, 2575, 2552, 152, 2570, 2576, 2553
1976, 1848, 3068, 3075, 2919, 2912, 3069, 3076, 2920
1977, 2912, 3069, 3076, 2920, 2552, 3070, 3077, 2921
1978, 2919, 3075, 3078, 159, 2920, 3076, 3079, 2922
1979, 2920, 3076, 3079, 2922, 2921, 3077, 3080, 2554
1980, 3068, 1949, 3081, 3075, 3069, 3074, 3082, 3076
1981, 3069, 3074, 3082, 3076, 3070, 2575, 3083, 3077
1982, 3075, 3081, 1951, 3078, 3076, 3082, 3084, 3079
1983, 3076, 3082, 3084, 3079, 3077, 3083, 2577, 3080
1984, 2552, 2575, 2577, 2554, 2553, 2576, 2578, 160
1985, 1903, 3038, 3085, 3071, 3020, 3039, 3086, 3072
1986, 3020, 3039, 3086, 3072, 2569, 3040, 3087, 3073
1987, 3071, 3085, 3088, 1949, 3072, 3086, 3089, 3074
1988, 3072, 3086, 3089, 3074, 3073, 3087, 3090, 2575
1989, 3038, 198, 3091, 3085, 3039, 3044, 3092, 3086
1990, 3039, 3044, 3092, 3086, 3040, 2574, 3093, 3087
1991, 3085, 3091, 1953, 3088, 3086, 3092, 3094, 3089
1992, 3086, 3092, 3094, 3089, 3087, 3093, 2579, 3090
1993, 2569, 2574, 2579, 2575, 2570, 200, 2580, 2576
1994, 1949, 3088, 3095, 3081, 3074, 3089, 3096, 3082
1995, 3074, 3089, 3096, 3082, 2575, 3090, 3097, 3083
1996, 3081, 3095, 3098, 1951, 3082, 3096, 3099, 3084
1997, 3082, 3096, 3099, 3084, 3083, 3097, 3100, 2577
1998, 3088, 1953, 3101, 3095, 3089, 3094, 3102, 3096
1999, 3089, 3094, 3102, 3096, 3090, 2579, 3103, 3097
2000, 3095, 3101, 207, 3098, 3096, 3102, 3104, 3099
2001, 3096, 3102, 3104, 3099, 3097, 3103, 2581, 3100
2002, 2575, 2579, 2581, 2577, 2576, 2580, 208, 2578
2003, 152, 2570, 2576, 2553, 2874, 3049, 3105, 2925
2004, 2874, 3049, 3105, 2925, 154, 3050, 3106, 2561
2005, 2553, 2576, 2578, 160, 2925, 3105, 3107, 2926
2006, 2925, 3105, 3107, 2926, 2561, 3106, 3108, 161
2007, 2570, 200, 2580, 2576, 3049, 3054, 3109, 3105
2008, 3049, 3054, 3109, 3105, 3050, 202, 3110, 3106
2009, 2576, 2580, 208, 2578, 3105, 3109, 3111, 3107
2010, 3105, 3109, 3111, 3107, 3106, 3110, 209, 3108
2011, 154, 4226, 4257, 3932, 3868, 4227, 4258, 3933
2012, 3868, 4227, 4258, 3933, 2514, 4228, 4259, 3934
2013, 3932, 4257, 4260, 2561, 3933, 4258, 4261, 3935
2014, 3933, 4258, 4261, 3935, 3934, 4259, 4262, 2562
2015, 4226, 3050, 4263, 4257, 4227, 4232, 4264, 4258
2016, 4227, 4232, 4264, 4258, 4228, 3059, 4265, 4259
2017, 4257, 4263, 3106, 4260, 4258, 4264, 4266, 4261
2018, 4258, 4264, 4266, 4261, 4259, 4265, 3112, 4262
2019, 2514, 3059, 3112, 2562, 156, 3060, 3113, 2563
2020, 2561, 4260, 4267, 3949, 3935, 4261, 4268, 3950
2021, 3935, 4261, 4268, 3950, 2562, 4262, 4269, 3951
2022, 3949, 4267, 4270, 161, 3950, 4268, 4271, 3952
2023, 3950, 4268, 4271, 3952, 3951, 4269, 4272, 2564
2024, 4260, 3106, 4273, 4267, 4261, 4266, 4274, 4268
2025, 4261, 4266, 4274, 4268, 4262, 3112, 4275, 4269
2026, 4267, 4273, 3108, 4270, 4268, 4274, 4276, 4271
2027, 4268, 4274, 4276, 4271, 4269, 4275, 3114, 4272
2028, 2562, 3112, 3114, 2564, 2563, 3113, 3115, 162
2029, 3050, 4250, 4277, 4263, 4232, 4251, 4278, 4264
2030, 4232, 4251, 4278, 4264, 3059, 4252, 4279, 4265
2031, 4263, 4277, 4280, 3106, 4264, 4278, 4281, 4266
2032, 4264, 4278, 4281, 4266, 4265, 4279, 4282, 3112
2033, 4250, 202, 4283, 4277, 4251, 4256, 4284, 4278
2034, 4251, 4256, 4284, 4278, 4252, 3064, 4285, 4279
2035, 4277, 4283, 3110, 4280, 4278, 4284, 4286, 4281
2036, 4278, 4284, 4286, 4281, 4279, 4285, 3116, 4282
2037, 3059, 3064, 3116, 3112, 3060, 204, 3117, 3113
2038, 3106, 4280, 4287, 4273, 4266, 4281, 4288, 4274
2039, 4266, 4281, 4288, 4274, 3112, 4282, 4289, 4275
2040, 4273, 4287, 4290, 3108, 4274, 4288, 4291, 4276
2041, 4274, 4288, 4291, 4276, 4275, 4289, 4292, 3114
2042, 4280, 3110, 4293, 4287, 4281, 4286, 4294, 4288
2043, 4281, 4286, 4294, 4288, 4282, 3116, 4295, 4289
2044, 4287, 4293, 209, 4290, 4288, 4294, 4296, 4291
2045, 4288, 4294, 4296, 4291, 4289, 4295, 3118, 4292
2046, 3112, 3116, 3118, 3114, 3113, 3117, 210, 3115
2047, 163, 5528, 5531, 5526, 5525, 5529, 5532, 5527
2048, 5525, 5529, 5532, 5527, 165, 5530, 5533, 5370
2049, 5526, 5531, 4300, 164, 5527, 5532, 4301, 4297
2050, 5527, 5532, 4301, 4297, 5370, 5533, 4302, 166
2051, 5528, 211, 5535, 5531, 5529, 5534, 5536, 5532
2052, 5529, 5534, 5536, 5532, 5530, 213, 5537, 5533
2053, 5531, 5535, 212, 4300, 5532, 5536, 4306, 4301
2054, 5532, 5536, 4306, 4301, 5533, 5537, 214, 4302
2055, 165, 5530, 5533, 5370, 5369, 5538, 5540, 5371
2056, 5369, 5538, 5540, 5371, 167, 5539, 5541, 5372
2057, 5370, 5533, 4302, 166, 5371, 5540, 5542, 3966
2058, 5371, 5540, 5542, 3966, 5372, 5541, 5543, 168
2059, 5530, 213, 5537, 5533, 5538, 5544, 5545, 5540
2060, 5538, 5544, 5545, 5540, 5539, 215, 5546, 5541
2061, 5533, 5537, 214, 4302, 5540, 5545, 5547, 5542
2062, 5540, 5545, 5547, 5542, 5541, 5546, 216, 5543
2063, 164, 4300, 4303, 4298, 4297, 4301, 4304, 4299
2064, 4297, 4301, 4304, 4299, 166, 4302, 4305, 3967
2065, 4298, 5553, 5556, 5549, 5548, 5554, 5557, 5550
2066, 5548, 5554, 5557, 5550, 4299, 5555, 5558, 5551
2067, 5549, 5556, 5559, 169, 5550, 5557, 5560, 5552
2068, 5550, 5557, 5560, 5552, 5551, 5558, 5561, 3119
2069, 5553, 4303, 5563, 5556, 5554, 5562, 5564, 5557
2070, 5554, 5562, 5564, 5557, 5555, 4304, 5565, 5558
2071, 5556, 5563, 3122, 5559, 5557, 5564, 5566, 5560
2072, 5557, 5564, 5566, 5560, 5558, 5565, 3123, 5561
2073, 4299, 4304, 3123, 3119, 3967, 4305, 3124, 170
2074, 4300, 212, 4307, 4303, 4301, 4306, 4308, 4304
2075, 4301, 4306, 4308, 4304, 4302, 214, 4309, 4305
2076, 4303, 5567, 5570, 5563, 5562, 5568, 5571, 5564
2077, 5562, 5568, 5571, 5564, 4304, 5569, 5572, 5565
2078, 5563, 5570, 5573, 3122, 5564, 5571, 5574, 5566
2079, 5564, 5571, 5574, 5566, 5565, 5572, 5575, 3123
2080, 5567, 4307, 5577, 5570, 5568, 5576, 5578, 5571
2081, 5568, 5576, 5578, 5571, 5569, 4308, 5579, 5572
2082, 5570, 5577, 217, 5573, 5571, 5578, 5580, 5574
2083, 5571, 5578, 5580, 5574, 5572, 5579, 3131, 5575
2084, 4304, 4308, 3131, 3123, 4305, 4309, 218, 3124
2085, 166, 4302, 4305, 3967, 3966, 5542, 5581, 3968
2086, 3966, 5542, 5581, 3968, 168, 5543, 5582, 3969
2087, 3967, 4305, 3124, 170, 3968, 5581, 4310, 2936
2088, 3968, 5581, 4310, 2936, 3969, 5582, 4311, 171
2089, 4302, 214, 4309, 4305, 5542, 5547, 5583, 5581
2090, 5542, 5547, 5583, 5581, 5543, 216, 5584, 5582
2091, 4305, 4309, 218, 3124, 5581, 5583, 4314, 4310
2092, 5581, 5583, 4314, 4310, 5582, 5584, 219, 4311
2093, 169, 5559, 5589, 5585, 5552, 5560, 5590, 5586
2094, 5552, 5560, 5590, 5586, 3119, 5561, 5591, 5587
2095, 5585, 5589, 5592, 3120, 5586, 5590, 5593, 5588
2096, 5586, 5590, 5593, 5588, 5587, 5591, 5594, 3121
2097, 5559, 3122, 5595, 5589, 5560, 5566, 5596, 5590
2098, 5560, 5566, 5596, 5590, 5561, 3123, 5597, 5591
2099, 5589, 5595, 3125, 5592, 5590, 5596, 5598, 5593
2100, 5590, 5596, 5598, 5593, 5591, 5597, 3126, 5594
2101, 3119, 5561, 5591, 5587, 5599, 5602, 5604, 5600
2102, 5599, 5602, 5604, 5600, 170, 5603, 5605, 5436
2103, 5587, 5591, 5594, 3121, 5600, 5604, 5606, 5601
2104, 5600, 5604, 5606, 5601, 5436, 5605, 5607, 2937
2105, 5561, 3123, 5597, 5591, 5602, 5608, 5609, 5604
2106, 5602, 5608, 5609, 5604, 5603, 3124, 5610, 5605
2107, 5591, 5597, 3126, 5594, 5604, 5609, 5611, 5606
2108, 5604, 5609, 5611, 5606, 5605, 5610, 3127, 5607
2109, 3120, 5592, 5616, 5612, 5588, 5593, 5617, 5613
2110, 5588, 5593, 5617, 5613, 3121, 5594, 5618, 5614
2111, 5612, 5616, 5619, 172, 5613, 5617, 5620, 5615
2112, 5613, 5617, 5620, 5615, 5614, 5618, 5621, 2948
2113, 5592, 3125, 5622, 5616, 5593, 5598, 5623, 5617
2114, 5593, 5598, 5623, 5617, 5594, 3126, 5624, 5618
2115, 5616, 5622, 3128, 5619, 5617, 5623, 5625, 5620
2116, 5617, 5623, 5625, 5620, 5618, 5624, 3129, 5621
2117, 3121, 3126, 3129, 2948, 2937, 3127, 3130, 173
2118, 3122, 5573, 5626, 5595, 5566, 5574, 5627, 5596
2119, 5566, 5574, 5627, 5596, 3123, 5575, 5628, 5597
2120, 5595, 5626, 5629, 3125, 5596, 5627, 5630, 5598
2121, 5596, 5627, 5630, 5598, 5597, 5628, 5631, 3126
2122, 5573, 217, 5632, 5626, 5574, 5580, 5633, 5627
2123, 5574, 5580, 5633, 5627, 5575, 3131, 5634, 5628
2124, 5626, 5632, 3132, 5629, 5627, 5633, 5635, 5630
2125, 5627, 5633, 5635, 5630, 5628, 5634, 3133, 5631
2126, 3123, 5575, 5628, 5597, 5608, 5636, 5638, 5609
2127, 5608, 5636, 5638, 5609, 3124, 5637, 5639, 5610
2128, 5597, 5628, 5631, 3126, 5609, 5638, 5640, 5611
2129, 5609, 5638, 5640, 5611, 5610, 5639, 5641, 3127
2130, 5575, 3131, 5634, 5628, 5636, 5642, 5643, 5638
2131, 5636, 5642, 5643, 5638, 5637, 218, 5644, 5639
2132, 5628, 5634, 3133, 5631, 5638, 5643, 5645, 5640
2133, 5638, 5643, 5645, 5640, 5639, 5644, 3134, 5641
2134, 3125, 3132, 220, 3128, 3126, 3133, 3135, 3129
2135, 3126, 3133, 3135, 3129, 3127, 3134, 221, 3130
2136, 170, 3124, 3127, 2937, 2936, 4310, 4312, 2938
2137, 2936, 4310, 4312, 2938, 171, 4311, 4313, 2939
2138, 2937, 3127, 3130, 173, 2938, 4312, 3136, 2940
2139, 2938, 4312, 3136, 2940, 2939, 4313, 3137, 174
2140, 3124, 218, 3134, 3127, 4310, 4314, 4315, 4312
2141, 4310, 4314, 4315, 4312, 4311, 219, 4316, 4313
2142, 3127, 3134, 221, 3130, 4312, 4315, 3144, 3136
2143, 4312, 5651, 5654, 5647, 5646, 5652, 5655, 5648
2144, 5646, 5652, 5655, 5648, 4313, 5653, 5656, 5649
2145, 5647, 5654, 5657, 3136, 5648, 5655, 5658, 5650
2146, 5648, 5655, 5658, 5650, 5649, 5656, 5659, 3137
2147, 5651, 4315, 5661, 5654, 5652, 5660, 5662, 5655
2148, 5652, 5660, 5662, 5655, 5653, 4316, 5663, 5656
2149, 5654, 5661, 3144, 5657, 5655, 5662, 5664, 5658
2150, 5655, 5662, 5664, 5658, 5656, 5663, 222, 5659
2151, 172, 3128, 4317, 2949, 2948, 3129, 4318, 2950
2152, 2948, 3129, 4318, 2950, 173, 3130, 3138, 2951
2153, 2949, 4317, 3056, 155, 2950, 4318, 4319, 2952
2154, 2950, 4318, 4319, 2952, 2951, 3138, 3141, 175
2155, 3128, 220, 4320, 4317, 3129, 3135, 4321, 4318
2156, 3129, 3135, 4321, 4318, 3130, 221, 3145, 3138
2157, 4317, 4320, 203, 3056, 4318, 4321, 4322, 4319
2158, 4318, 4321, 4322, 4319, 3138, 3145, 223, 3141
2159, 173, 3130, 3138, 2951, 2940, 3136, 3139, 2957
2160, 2940, 3136, 3139, 2957, 174, 3137, 3140, 2958
2161, 2951, 3138, 3141, 175, 2957, 3139, 3142, 2959
2162, 2957, 3139, 3142, 2959, 2958, 3140, 3143, 176
2163, 3130, 221, 3145, 3138, 3136, 3144, 3146, 3139
2164, 3136, 5657, 5669, 5665, 5650, 5658, 5670, 5666
2165, 5650, 5658, 5670, 5666, 3137, 5659, 5671, 5667
2166, 5665, 5669, 5672, 3139, 5666, 5670, 5673, 5668
2167, 5666, 5670, 5673, 5668, 5667, 5671, 5674, 3140
2168, 5657, 3144, 5675, 5669, 5658, 5664, 5676, 5670
2169, 5658, 5664, 5676, 5670, 5659, 222, 5677, 5671
2170, 5669, 5675, 3146, 5672, 5670, 5676, 5678, 5673
2171, 5670, 5676, 5678, 5673, 5671, 5677, 3147, 5674
2172, 3138, 3145, 223, 3141, 3139, 3146, 3148, 3142
2173, 3139, 5672, 5683, 5679, 5668, 5673, 5684, 5680
2174, 5668, 5673, 5684, 5680, 3140, 5674, 5685, 5681
2175, 5679, 5683, 5686, 3142, 5680, 5684, 5687, 5682
2176, 5680, 5684, 5687, 5682, 5681, 5685, 5688, 3143
2177, 5672, 3146, 5689, 5683, 5673, 5678, 5690, 5684
2178, 5673, 5678, 5690, 5684, 5674, 3147, 5691, 5685
2179, 5683, 5689, 3148, 5686, 5684, 5690, 5692, 5687
2180, 5684, 5690, 5692, 5687, 5685, 5691, 224, 5688
2181, 155, 3056, 3058, 2513, 2952, 4319, 4323, 2964
2182, 2952, 4319, 4323, 2964, 175, 3141, 4324, 2965
2183, 2513, 3058, 3060, 156, 2964, 4323, 4325, 2966
2184, 2964, 4323, 4325, 2966, 2965, 4324, 4326, 177
2185, 3056, 203, 3063, 3058, 4319, 4322, 4327, 4323
2186, 4319, 4322, 4327, 4323, 3141, 223, 4328, 4324
2187, 3058, 3063, 204, 3060, 4323, 4327, 4329, 4325
2188, 4323, 4327, 4329, 4325, 4324, 4328, 225, 4326
2189, 175, 3141, 4324, 2965, 2959, 3142, 4330, 4120
2190, 2959, 3142, 4330, 4120, 176, 3143, 4331, 4121
2191, 2965, 4324, 4326, 177, 4120, 4330, 4332, 4122
2192, 4120, 4330, 4332, 4122, 4121, 4331, 4333, 178
2193, 3141, 223, 4328, 4324, 3142, 3148, 4334, 4330
2194, 3142, 3148, 4334, 4330, 3143, 224, 4335, 4331
2195, 4324, 4328, 225, 4326, 4330, 4334, 4336, 4332
2196, 4330, 4334, 4336, 4332, 4331, 4335, 226, 4333
2197, 156, 3060, 3113, 2563, 2966, 4325, 4337, 2971
2198, 2966, 4325, 4337, 2971, 177, 4326, 4338, 2972
2199, 2563, 3113, 3115, 162, 2971, 4337, 4339, 2973
2200, 2971, 4337, 4339, 2973, 2972, 4338, 3149, 179
2201, 3060, 204, 3117, 3113, 4325, 4329, 4340, 4337
2202, 4325, 4329, 4340, 4337, 4326, 225, 4341, 4338
2203, 3113, 3117, 210, 3115, 4337, 4340, 4342, 4339
2204, 4337, 4340, 4342, 4339, 4338, 4341, 227, 3149
2205, 177, 4326, 4338, 2972, 4122, 4332, 4343, 4135
2206, 4122, 4332, 4343, 4135, 178, 4333, 4344, 4136
2207, 2972, 4338, 3149, 179, 4135, 4343, 3150, 2982
2208, 4135, 4343, 3150, 2982, 4136, 4344, 3151, 180
2209, 4326, 225, 4341, 4338, 4332, 4336, 4345, 4343
2210, 4332, 4336, 4345, 4343, 4333, 226, 4346, 4344
2211, 4338, 4341, 227, 3149, 4343, 4345, 3158, 3150
2212, 4343, 4345, 3158, 3150, 4344, 4346, 228, 3151
2213, 162, 3115, 4347, 4141, 2973, 4339, 4348, 4142
2214, 2973, 4339, 4348, 4142, 179, 3149, 3152, 2983
2215, 4141, 4347, 3167, 181, 4142, 4348, 3168, 3163
2216, 4142, 4348, 3168, 3163, 2983, 3152, 3155, 182
2217, 3115, 210, 4349, 4347, 4339, 4342, 4350, 4348
2218, 4339, 4342, 4350, 4348, 3149, 227, 3159, 3152
2219, 4347, 4349, 229, 3167, 4348, 4350, 3175, 3168
2220, 4348, 4350, 3175, 3168, 3152, 3159, 230, 3155
2221, 179, 3149, 3152, 2983, 2982, 3150, 3153, 2984
2222, 2982, 3150, 3153, 2984, 180, 3151, 3154, 2985
2223, 2983, 3152, 3155, 182, 2984, 3153, 3156, 2986
2224, 2984, 3153, 3156, 2986, 2985, 3154, 3157, 183
2225, 3149, 227, 3159, 3152, 3150, 3158, 3160, 3153
2226, 3150, 5698, 5701, 5694, 5693, 5699, 5702, 5695
2227, 5693, 5699, 5702, 5695, 3151, 5700, 5703, 5696
2228, 5694, 5701, 5704, 3153, 5695, 5702, 5705, 5697
2229, 5695, 5702, 5705, 5697, 5696, 5703, 5706, 3154
2230, 5698, 3158, 5708, 5701, 5699, 5707, 5709, 5702
2231, 5699, 5707, 5709, 5702, 5700, 228, 5710, 5703
2232, 5701, 5708, 3160, 5704, 5702, 5709, 5711, 5705
2233, 5702, 5709, 5711, 5705, 5703, 5710, 3161, 5706
2234, 3152, 3159, 230, 3155, 3153, 3160, 3162, 3156
2235, 3153, 5704, 5716, 5712, 5697, 5705, 5717, 5713
2236, 5697, 5705, 5717, 5713, 3154, 5706, 5718, 5714
2237, 5712, 5716, 5719, 3156, 5713, 5717, 5720, 5715
2238, 5713, 5717, 5720, 5715, 5714, 5718, 5721, 3157
2239, 5704, 3160, 5722, 5716, 5705, 5711, 5723, 5717
2240, 5705, 5711, 5723, 5717, 5706, 3161, 5724, 5718
2241, 5716, 5722, 3162, 5719, 5717, 5723, 5725, 5720
2242, 5717, 5723, 5725, 5720, 5718, 5724, 231, 5721
2243, 181, 5731, 5734, 5727, 5726, 5732, 5735, 5728
2244, 5726, 5732, 5735, 5728, 3163, 5733, 5736, 5729
2245, 5727, 5734, 5737, 3164, 5728, 5735, 5738, 5730
2246, 5728, 5735, 5738, 5730, 5729, 5736, 5739, 3165
2247, 5731, 3167, 5741, 5734, 5732, 5740, 5742, 5735
2248, 5732, 5740, 5742, 5735, 5733, 3168, 5743, 5736
2249, 5734, 5741, 3169, 5737, 5735, 5742, 5744, 5738
2250, 5735, 5742, 5744, 5738, 5736, 5743, 3170, 5739
2251, 3163, 3168, 3170, 3165, 182, 3155, 3171, 2993
2252, 3164, 5737, 5749, 5745, 5730, 5738, 5750, 5746
2253, 5730, 5738, 5750, 5746, 3165, 5739, 5751, 5747
2254, 5745, 5749, 5752, 184, 5746, 5750, 5753, 5748
2255, 5746, 5750, 5753, 5748, 5747, 5751, 5754, 3166
2256, 5737, 3169, 5755, 5749, 5738, 5744, 5756, 5750
2257, 5738, 5744, 5756, 5750, 5739, 3170, 5757, 5751
2258, 5749, 5755, 3172, 5752, 5750, 5756, 5758, 5753
2259, 5750, 5756, 5758, 5753, 5751, 5757, 3173, 5754
2260, 3165, 5739, 5751, 5747, 5759, 5762, 5764, 5760
2261, 5759, 5762, 5764, 5760, 2993, 5763, 5765, 5480
2262, 5747, 5751, 5754, 3166, 5760, 5764, 5766, 5761
2263, 5760, 5764, 5766, 5761, 5480, 5765, 5767, 185
2264, 5739, 3170, 5757, 5751, 5762, 5768, 5769, 5764
2265, 5762, 5768, 5769, 5764, 5763, 3171, 5770, 5765
2266, 5751, 5757, 3173, 5754, 5764, 5769, 5771, 5766
2267, 5764, 5769, 5771, 5766, 5765, 5770, 3174, 5767
2268, 3167, 229, 3176, 3169, 3168, 3175, 3177, 3170
2269, 3168, 3175, 3177, 3170, 3155, 230, 3178, 3171
2270, 3169, 5772, 5775, 5755, 5744, 5773, 5776, 5756
2271, 5744, 5773, 5776, 5756, 3170, 5774, 5777, 5757
2272, 5755, 5775, 5778, 3172, 5756, 5776, 5779, 5758
2273, 5756, 5776, 5779, 5758, 5757, 5777, 5780, 3173
2274, 5772, 3176, 5782, 5775, 5773, 5781, 5783, 5776
2275, 5773, 5781, 5783, 5776, 5774, 3177, 5784, 5777
2276, 5775, 5782, 232, 5778, 5776, 5783, 5785, 5779
2277, 5776, 5783, 5785, 5779, 5777, 5784, 3179, 5780
2278, 3170, 5774, 5777, 5757, 5768, 5786, 5788, 5769
2279, 5768, 5786, 5788, 5769, 3171, 5787, 5789, 5770
2280, 5757, 5777, 5780, 3173, 5769, 5788, 5790, 5771
2281, 5769, 5788, 5790, 5771, 5770, 5789, 5791, 3174
2282, 5774, 3177, 5784, 5777, 5786, 5792, 5793, 5788
2283, 5786, 5792, 5793, 5788, 5787, 3178, 5794, 5789
2284, 5777, 5784, 3179, 5780, 5788, 5793, 5795, 5790
2285, 5788, 5793, 5795, 5790, 5789, 5794, 233, 5791
2286, 182, 3155, 3171, 2993, 2986, 3156, 4351, 2994
2287, 2986, 3156, 4351, 2994, 183, 3157, 4352, 2995
2288, 2993, 3171, 3174, 185, 2994, 4351, 4353, 2996
2289, 2994, 4351, 4353, 2996, 2995, 4352, 4354, 186
2290, 3155, 230, 3178, 3171, 3156, 3162, 4355, 4351
2291, 3156, 5719, 5800, 5796, 5715, 5720, 5801, 5797
2292, 5715, 5720, 5801, 5797, 3157, 5721, 5802, 5798
2293, 5796, 5800, 5803, 4351, 5797, 5801, 5804, 5799
2294, 5797, 5801, 5804, 5799, 5798, 5802, 5805, 4352
2295, 5719, 3162, 5806, 5800, 5720, 5725, 5807, 5801
2296, 5720, 5725, 5807, 5801, 5721, 231, 5808, 5802
2297, 5800, 5806, 4355, 5803, 5801, 5807, 5809, 5804
2298, 5801, 5807, 5809, 5804, 5802, 5808, 4356, 5805
2299, 3171, 3178, 233, 3174, 4351, 4355, 4357, 4353
2300, 4351, 4355, 4357, 4353, 4352, 4356, 234, 4354
2301, 184, 5752, 5814, 5810, 5748, 5753, 5815, 5811
2302, 5748, 5753, 5815, 5811, 3166, 5754, 5816, 5812
2303, 5810, 5814, 5817, 4358, 5811, 5815, 5818, 5813
2304, 5811, 5815, 5818, 5813, 5812, 5816, 5819, 4359
2305, 5752, 3172, 5820, 5814, 5753, 5758, 5821, 5815
2306, 5753, 5758, 5821, 5815, 5754, 3173, 5822, 5816
2307, 5814, 5820, 4361, 5817, 5815, 5821, 5823, 5818
2308, 5815, 5821, 5823, 5818, 5816, 5822, 4362, 5819
2309, 3166, 3173, 4362, 4359, 185, 3174, 4363, 4205
2310, 4358, 4361, 4364, 187, 4359, 4362, 4365, 4360
2311, 4359, 4362, 4365, 4360, 4205, 4363, 4366, 188
2312, 3172, 5778, 5824, 5820, 5758, 5779, 5825, 5821
2313, 5758, 5779, 5825, 5821, 3173, 5780, 5826, 5822
2314, 5820, 5824, 5827, 4361, 5821, 5825, 5828, 5823
2315, 5821, 5825, 5828, 5823, 5822, 5826, 5829, 4362
2316, 5778, 232, 5830, 5824, 5779, 5785, 5831, 5825
2317, 5779, 5785, 5831, 5825, 5780, 3179, 5832, 5826
2318, 5824, 5830, 4367, 5827, 5825, 5831, 5833, 5828
2319, 5825, 5831, 5833, 5828, 5826, 5832, 4368, 5829
2320, 3173, 3179, 4368, 4362, 3174, 233, 4369, 4363
2321, 4361, 4367, 235, 4364, 4362, 4368, 4370, 4365
2322, 4362, 4368, 4370, 4365, 4363, 4369, 236, 4366
2323, 185, 3174, 4363, 4205, 2996, 4353, 5834, 4206
2324, 2996, 4353, 5834, 4206, 186, 4354, 5835, 4207
2325, 4205, 4363, 4366, 188, 4206, 5834, 5836, 4208
2326, 4206, 5834, 5836, 4208, 4207, 5835, 5837, 189
2327, 3174, 233, 4369, 4363, 4353, 4357, 5838, 5834
2328, 4353, 4357, 5838, 5834, 4354, 234, 5839, 5835
2329, 4363, 4369, 236, 4366, 5834, 5838, 5840, 5836
2330, 5834, 5838, 5840, 5836, 5835, 5839, 237, 5837
2331, 187, 4364, 5844, 5841, 4360, 4365, 5845, 5842
2332, 4360, 4365, 5845, 5842, 188, 4366, 5846, 5521
2333, 5841, 5844, 5847, 190, 5842, 5845, 5848, 5843
2334, 5842, 5845, 5848, 5843, 5521, 5846, 5849, 191
2335, 4364, 235, 5850, 5844, 4365, 4370, 5851, 5845
2336, 4365, 4370, 5851, 5845, 4366, 236, 5852, 5846
2337, 5844, 5850, 238, 5847, 5845, 5851, 5853, 5848
2338, 5845, 5851, 5853, 5848, 5846, 5852, 239, 5849
2339, 188, 4366, 5846, 5521, 4208, 5836, 5854, 5522
2340, 4208, 5836, 5854, 5522, 189, 5837, 5855, 5523
2341, 5521, 5846, 5849, 191, 5522, 5854, 5856, 5524
2342, 5522, 5854, 5856, 5524, 5523, 5855, 5857, 192
2343, 4366, 236, 5852, 5846, 5836, 5840, 5858, 5854
2344, 5836, 5840, 5858, 5854, 5837, 237, 5859, 5855
2345, 5846, 5852, 239, 5849, 5854, 5858, 5860, 5856
2346, 5854, 5858, 5860, 5856, 5855, 5859, 240, 5857
2347, 193, 1224, 1227, 1210, 1209, 1225, 1228, 1211
2348, 1209, 1225, 1228, 1211, 195, 1226, 1229, 1212
2349, 1210, 1227, 1230, 194, 1211, 1228, 1231, 1213
2350, 1211, 1228, 1231, 1213, 1212, 1229, 1232, 196
2351, 1224, 241, 1234, 1227, 1225, 1233, 1235, 1228
2352, 1225, 1233, 1235, 1228, 1226, 243, 1236, 1229
2353, 1227, 1234, 242, 1230, 1228, 1235, 1237, 1231
2354, 1228, 1235, 1237, 1231, 1229, 1236, 244, 1232
2355, 195, 1226, 1229, 1212, 1904, 1955, 1957, 1905
2356, 1904, 1955, 1957, 1905, 197, 1956, 1958, 1906
2357, 1212, 1229, 1232, 196, 1905, 1957, 1959, 1907
2358, 1905, 1957, 1959, 1907, 1906, 1958, 1960, 198
2359, 1226, 243, 1236, 1229, 1955, 1961, 1962, 1957
2360, 1955, 1961, 1962, 1957, 1956, 245, 1963, 1958
2361, 1229, 1236, 244, 1232, 1957, 1962, 1964, 1959
2362, 1957, 1962, 1964, 1959, 1958, 1963, 246, 1960
2363, 197, 3180, 3183, 3031, 3030, 3181, 3184, 3032
2364, 3030, 3181, 3184, 3032, 2571, 3182, 3185, 3033
2365, 3031, 3183, 3186, 1906, 3032, 3184, 3187, 3034
2366, 3032, 3184, 3187, 3034, 3033, 3185, 3188, 2572
2367, 3180, 1956, 3190, 3183, 3181, 3189, 3191, 3184
2368, 3181, 3189, 3191, 3184, 3182, 2582, 3192, 3185
2369, 3183, 3190, 1958, 3186, 3184, 3191, 3193, 3187
2370, 3184, 3191, 3193, 3187, 3185, 3192, 2584, 3188
2371, 2571, 2582, 2584, 2572, 199, 2583, 2585, 2573
2372, 1906, 3186, 3194, 3041, 3034, 3187, 3195, 3042
2373, 3034, 3187, 3195, 3042, 2572, 3188, 3196, 3043
2374, 3041, 3194, 3197, 198, 3042, 3195, 3198, 3044
2375, 3042, 3195, 3198, 3044, 3043, 3196, 3199, 2574
2376, 3186, 1958, 3200, 3194, 3187, 3193, 3201, 3195
2377, 3187, 3193, 3201, 3195, 3188, 2584, 3202, 3196
2378, 3194, 3200, 1960, 3197, 3195, 3201, 3203, 3198
2379, 3195, 3201, 3203, 3198, 3196, 3202, 2586, 3199
2380, 2572, 2584, 2586, 2574, 2573, 2585, 2587, 200
2381, 1956, 3204, 3207, 3190, 3189, 3205, 3208, 3191
2382, 3189, 3205, 3208, 3191, 2582, 3206, 3209, 3192
2383, 3190, 3207, 3210, 1958, 3191, 3208, 3211, 3193
2384, 3191, 3208, 3211, 3193, 3192, 3209, 3212, 2584
2385, 3204, 245, 3214, 3207, 3205, 3213, 3215, 3208
2386, 3205, 3213, 3215, 3208, 3206, 2588, 3216, 3209
2387, 3207, 3214, 1963, 3210, 3208, 3215, 3217, 3211
2388, 3208, 3215, 3217, 3211, 3209, 3216, 2589, 3212
2389, 2582, 2588, 2589, 2584, 2583, 247, 2590, 2585
2390, 1958, 3210, 3218, 3200, 3193, 3211, 3219, 3201
2391, 3193, 3211, 3219, 3201, 2584, 3212, 3220, 3202
2392, 3200, 3218, 3221, 1960, 3201, 3219, 3222, 3203
2393, 3201, 3219, 3222, 3203, 3202, 3220, 3223, 2586
2394, 3210, 1963, 3224, 3218, 3211, 3217, 3225, 3219
2395, 3211, 3217, 3225, 3219, 3212, 2589, 3226, 3220
2396, 3218, 3224, 246, 3221, 3219, 3225, 3227, 3222
2397, 3219, 3225, 3227, 3222, 3220, 3226, 2591, 3223
2398, 2584, 2589, 2591, 2586, 2585, 2590, 248, 2587
2399, 199, 2583, 2585, 2573, 3051, 3228, 3230, 3052
2400, 3051, 3228, 3230, 3052, 201, 3229, 3231, 3053
2401, 2573, 2585, 2587, 200, 3052, 3230, 3232, 3054
2402, 3052, 3230, 3232, 3054, 3053, 3231, 3233, 202
2403, 2583, 247, 2590, 2585, 3228, 3234, 3235, 3230
2404, 3228, 3234, 3235, 3230, 3229, 249, 3236, 3231
2405, 2585, 2590, 248, 2587, 3230, 3235, 3237, 3232
2406, 3230, 3235, 3237, 3232, 3231, 3236, 250, 3233
2407, 201, 4371, 4374, 4243, 4242, 4372, 4375, 4244
2408, 4242, 4372, 4375, 4244, 3061, 4373, 4376, 4245
2409, 4243, 4374, 4377, 3053, 4244, 4375, 4378, 4246
2410, 4244, 4375, 4378, 4246, 4245, 4376, 4379, 3062
2411, 4371, 3229, 4381, 4374, 4372, 4380, 4382, 4375
2412, 4372, 4380, 4382, 4375, 4373, 3238, 4383, 4376
2413, 4374, 4381, 3231, 4377, 4375, 4382, 4384, 4378
2414, 4375, 4382, 4384, 4378, 4376, 4383, 3240, 4379
2415, 3061, 4373, 4376, 4245, 5861, 5865, 5867, 5862
2416, 5861, 5865, 5867, 5862, 203, 5866, 5868, 5863
2417, 4245, 4376, 4379, 3062, 5862, 5867, 5869, 5864
2418, 5862, 5867, 5869, 5864, 5863, 5868, 5870, 3063
2419, 4373, 3238, 4383, 4376, 5865, 5871, 5872, 5867
2420, 5865, 5871, 5872, 5867, 5866, 3239, 5873, 5868
2421, 4376, 4383, 3240, 4379, 5867, 5872, 5874, 5869
2422, 5867, 5872, 5874, 5869, 5868, 5873, 3241, 5870
2423, 3053, 4377, 4385, 4253, 4246, 4378, 4386, 4254
2424, 4246, 4378, 4386, 4254, 3062, 4379, 4387, 4255
2425, 4253, 4385, 4388, 202, 4254, 4386, 4389, 4256
2426, 4254, 4386, 4389, 4256, 4255, 4387, 4390, 3064
2427, 4377, 3231, 4391, 4385, 4378, 4384, 4392, 4386
2428, 4378, 4384, 4392, 4386, 4379, 3240, 4393, 4387
2429, 4385, 4391, 3233, 4388, 4386, 4392, 4394, 4389
2430, 4386, 4392, 4394, 4389, 4387, 4393, 3242, 4390
2431, 3062, 4379, 4387, 4255, 5864, 5869, 5878, 5875
2432, 5864, 5869, 5878, 5875, 3063, 5870, 5879, 5876
2433, 4255, 4387, 4390, 3064, 5875, 5878, 5880, 5877
2434, 5875, 5878, 5880, 5877, 5876, 5879, 5881, 204
2435, 4379, 3240, 4393, 4387, 5869, 5874, 5882, 5878
2436, 5869, 5874, 5882, 5878, 5870, 3241, 5883, 5879
2437, 4387, 4393, 3242, 4390, 5878, 5882, 5884, 5880
2438, 5878, 5882, 5884, 5880, 5879, 5883, 3243, 5881
2439, 3229, 4395, 4398, 4381, 4380, 4396, 4399, 4382
2440, 4380, 4396, 4399, 4382, 3238, 4397, 4400, 4383
2441, 4381, 4398, 4401, 3231, 4382, 4399, 4402, 4384
2442, 4382, 4399, 4402, 4384, 4383, 4400, 4403, 3240
2443, 4395, 249, 4405, 4398, 4396, 4404, 4406, 4399
2444, 4396, 4404, 4406, 4399, 4397, 3244, 4407, 4400
2445, 4398, 4405, 3236, 4401, 4399, 4406, 4408, 4402
2446, 4399, 4406, 4408, 4402, 4400, 4407, 3245, 4403
2447, 3238, 4397, 4400, 4383, 5871, 5885, 5887, 5872
2448, 5871, 5885, 5887, 5872, 3239, 5886, 5888, 5873
2449, 4383, 4400, 4403, 3240, 5872, 5887, 5889, 5874
2450, 5872, 5887, 5889, 5874, 5873, 5888, 5890, 3241
2451, 4397, 3244, 4407, 4400, 5885, 5891, 5892, 5887
2452, 5885, 5891, 5892, 5887, 5886, 251, 5893, 5888
2453, 4400, 4407, 3245, 4403, 5887, 5892, 5894, 5889
2454, 5887, 5892, 5894, 5889, 5888, 5893, 3246, 5890
2455, 3231, 4401, 4409, 4391, 4384, 4402, 4410, 4392
2456, 4384, 4402, 4410, 4392, 3240, 4403, 4411, 4393
2457, 4391, 4409, 4412, 3233, 4392, 4410, 4413, 4394
2458, 4392, 4410, 4413, 4394, 4393, 4411, 4414, 3242
2459, 4401, 3236, 4415, 4409, 4402, 4408, 4416, 4410
2460, 4402, 4408, 4416, 4410, 4403, 3245, 4417, 4411
2461, 4409, 4415, 250, 4412, 4410, 4416, 4418, 4413
2462, 4410, 4416, 4418, 4413, 4411, 4417, 3247, 4414
2463, 3240, 4403, 4411, 4393, 5874, 5889, 5895, 5882
2464, 5874, 5889, 5895, 5882, 3241, 5890, 5896, 5883
2465, 4393, 4411, 4414, 3242, 5882, 5895, 5897, 5884
2466, 5882, 5895, 5897, 5884, 5883, 5896, 5898, 3243
2467, 4403, 3245, 4417, 4411, 5889, 5894, 5899, 5895
2468, 5889, 5894, 5899, 5895, 5890, 3246, 5900, 5896
2469, 4411, 4417, 3247, 4414, 5895, 5899, 5901, 5897
2470, 5895, 5899, 5901, 5897, 5896, 5900, 252, 5898
2471, 194, 1230, 1238, 1220, 1213, 1231, 1239, 1221
2472, 1213, 1231, 1239, 1221, 196, 1232, 1240, 1222
2473, 1220, 1238, 1241, 205, 1221, 1239, 1242, 1223
2474, 1221, 1239, 1242, 1223, 1222, 1240, 1243, 206
2475, 1230, 242, 1244, 1238, 1231, 1237, 1245, 1239
2476, 1231, 1237, 1245, 1239, 1232, 244, 1246, 1240
2477, 1238, 1244, 253, 1241, 1239, 1245, 1247, 1242
2478, 1239, 1245, 1247, 1242, 1240, 1246, 254, 1243
2479, 196, 1232, 1240, 1222, 1907, 1959, 1965, 1952
2480, 1907, 1959, 1965, 1952, 198, 1960, 1966, 1953
2481, 1222, 1240, 1243, 206, 1952, 1965, 1967, 1954
2482, 1952, 1965, 1967, 1954, 1953, 1966, 1968, 207
2483, 1232, 244, 1246, 1240, 1959, 1964, 1969, 1965
2484, 1959, 1964, 1969, 1965, 1960, 246, 1970, 1966
2485, 1240, 1246, 254, 1243, 1965, 1969, 1971, 1967
2486, 1965, 1969, 1971, 1967, 1966, 1970, 255, 1968
2487, 198, 3197, 3248, 3091, 3044, 3198, 3249, 3092
2488, 3044, 3198, 3249, 3092, 2574, 3199, 3250, 3093
2489, 3091, 3248, 3251, 1953, 3092, 3249, 3252, 3094
2490, 3092, 3249, 3252, 3094, 3093, 3250, 3253, 2579
2491, 3197, 1960, 3254, 3248, 3198, 3203, 3255, 3249
2492, 3198, 3203, 3255, 3249, 3199, 2586, 3256, 3250
2493, 3248, 3254, 1966, 3251, 3249, 3255, 3257, 3252
2494, 3249, 3255, 3257, 3252, 3250, 3256, 2592, 3253
2495, 2574, 2586, 2592, 2579, 200, 2587, 2593, 2580
2496, 1953, 3251, 3258, 3101, 3094, 3252, 3259, 3102
2497, 3094, 3252, 3259, 3102, 2579, 3253, 3260, 3103
2498, 3101, 3258, 3261, 207, 3102, 3259, 3262, 3104
2499, 3102, 3259, 3262, 3104, 3103, 3260, 3263, 2581
2500, 3251, 1966, 3264, 3258, 3252, 3257, 3265, 3259
2501, 3252, 3257, 3265, 3259, 3253, 2592, 3266, 3260
2502, 3258, 3264, 1968, 3261, 3259, 3265, 3267, 3262
2503, 3259, 3265, 3267, 3262, 3260, 3266, 2594, 3263
2504, 2579, 2592, 2594, 2581, 2580, 2593, 2595, 208
2505, 1960, 3221, 3268, 3254, 3203, 3222, 3269, 3255
2506, 3203, 3222, 3269, 3255, 2586, 3223, 3270, 3256
2507, 3254, 3268, 3271, 1966, 3255, 3269, 3272, 3257
2508, 3255, 3269, 3272, 3257, 3256, 3270, 3273, 2592
2509, 3221, 246, 3274, 3268, 3222, 3227, 3275, 3269
2510, 3222, 3227, 3275, 3269, 3223, 2591, 3276, 3270
2511, 3268, 3274, 1970, 3271, 3269, 3275, 3277, 3272
2512, 3269, 3275, 3277, 3272, 3270, 3276, 2596, 3273
2513, 2586, 2591, 2596, 2592, 2587, 248, 2597, 2593
2514, 1966, 3271, 3278, 3264, 3257, 3272, 3279, 3265
2515, 3257, 3272, 3279, 3265, 2592, 3273, 3280, 3266
2516, 3264, 3278, 3281, 1968, 3265, 3279, 3282, 3267
2517, 3265, 3279, 3282, 3267, 3266, 3280, 3283, 2594
2518, 3271, 1970, 3284, 3278, 3272, 3277, 3285, 3279
2519, 3272, 3277, 3285, 3279, 3273, 2596, 3286, 3280
2520, 3278, 3284, 255, 3281, 3279, 3285, 3287, 3282
2521, 3279, 3285, 3287, 3282, 3280, 3286, 2598, 3283
2522, 2592, 2596, 2598, 2594, 2593, 2597, 256, 2595
2523, 200, 2587, 2593, 2580, 3054, 3232, 3288, 3109
2524, 3054, 3232, 3288, 3109, 202, 3233, 3289, 3110
2525, 2580, 2593, 2595, 208, 3109, 3288, 3290, 3111
2526, 3109, 3288, 3290, 3111, 3110, 3289, 3291, 209
2527, 2587, 248, 2597, 2593, 3232, 3237, 3292, 3288
2528, 3232, 3237, 3292, 3288, 3233, 250, 3293, 3289
2529, 2593, 2597, 256, 2595, 3288, 3292, 3294, 3290
2530, 3288, 3292, 3294, 3290, 3289, 3293, 257, 3291
2531, 202, 4388, 4419, 4283, 4256, 4389, 4420, 4284
2532, 4256, 4389, 4420, 4284, 3064, 4390, 4421, 4285
2533, 4283, 4419, 4422, 3110, 4284, 4420, 4423, 4286
2534, 4284, 4420, 4423, 4286, 4285, 4421, 4424, 3116
2535, 4388, 3233, 4425, 4419, 4389, 4394, 4426, 4420
2536, 4389, 4394, 4426, 4420, 4390, 3242, 4427, 4421
2537, 4419, 4425, 3289, 4422, 4420, 4426, 4428, 4423
2538, 4420, 4426, 4428, 4423, 4421, 4427, 3295, 4424
2539, 3064, 4390, 4421, 4285, 5877, 5880, 5905, 5902
2540, 5877, 5880, 5905, 5902, 204, 5881, 5906, 5903
2541, 4285, 4421, 4424, 3116, 5902, 5905, 5907, 5904
2542, 5902, 5905, 5907, 5904, 5903, 5906, 5908, 3117
2543, 4390, 3242, 4427, 4421, 5880, 5884, 5909, 5905
2544, 5880, 5884, 5909, 5905, 5881, 3243, 5910, 5906
2545, 4421, 4427, 3295, 4424, 5905, 5909, 5911, 5907
2546, 5905, 5909, 5911, 5907, 5906, 5910, 3296, 5908
2547, 3110, 4422, 4429, 4293, 4286, 4423, 4430, 4294
2548, 4286, 4423, 4430, 4294, 3116, 4424, 4431, 4295
2549, 4293, 4429, 4432, 209, 4294, 4430, 4433, 4296
2550, 4294, 4430, 4433, 4296, 4295, 4431, 4434, 3118
2551, 4422, 3289, 4435, 4429, 4423, 4428, 4436, 4430
2552, 4423, 4428, 4436, 4430, 4424, 3295, 4437, 4431
2553, 4429, 4435, 3291, 4432, 4430, 4436, 4438, 4433
2554, 4430, 4436, 4438, 4433, 4431, 4437, 3297, 4434
2555, 3116, 4424, 4431, 4295, 5904, 5907, 5915, 5912
2556, 5904, 5907, 5915, 5912, 3117, 5908, 5916, 5913
2557, 4295, 4431, 4434, 3118, 5912, 5915, 5917, 5914
2558, 5912, 5915, 5917, 5914, 5913, 5916, 5918, 210
2559, 4424, 3295, 4437, 4431, 5907, 5911, 5919, 5915
2560, 5907, 5911, 5919, 5915, 5908, 3296, 5920, 5916
2561, 4431, 4437, 3297, 4434, 5915, 5919, 5921, 5917
2562, 5915, 5919, 5921, 5917, 5916, 5920, 3298, 5918
2563, 3233, 4412, 4439, 4425, 4394, 4413, 4440, 4426
2564, 4394, 4413, 4440, 4426, 3242, 4414, 4441, 4427
2565, 4425, 4439, 4442, 3289, 4426, 4440, 4443, 4428
2566, 4426, 4440, 4443, 4428, 4427, 4441, 4444, 3295
2567, 4412, 250, 4445, 4439, 4413, 4418, 4446, 4440
2568, 4413, 4418, 4446, 4440, 4414, 3247, 4447, 4441
2569, 4439, 4445, 3293, 4442, 4440, 4446, 4448, 4443
2570, 4440, 4446, 4448, 4443, 4441, 4447, 3299, 4444
2571, 3242, 4414, 4441, 4427, 5884, 5897, 5922, 5909
2572, 5884, 5897, 5922, 5909, 3243, 5898, 5923, 5910
2573, 4427, 4441, 4444, 3295, 5909, 5922, 5924, 5911
2574, 5909, 5922, 5924, 5911, 5910, 5923, 5925, 3296
2575, 4414, 3247, 4447, 4441, 5897, 5901, 5926, 5922
2576, 5897, 5901, 5926, 5922, 5898, 252, 5927, 5923
2577, 4441, 4447, 3299, 4444, 5922, 5926, 5928, 5924
2578, 5922, 5926, 5928, 5924, 5923, 5927, 3300, 5925
2579, 3289, 4442, 4449, 4435, 4428, 4443, 4450, 4436
2580, 4428, 4443, 4450, 4436, 3295, 4444, 4451, 4437
2581, 4435, 4449, 4452, 3291, 4436, 4450, 4453, 4438
2582, 4436, 4450, 4453, 4438, 4437, 4451, 4454, 3297
2583, 4442, 3293, 4455, 4449, 4443, 4448, 4456, 4450
2584, 4443, 4448, 4456, 4450, 4444, 3299, 4457, 4451
2585, 4449, 4455, 257, 4452, 4450, 4456, 4458, 4453
2586, 4450, 4456, 4458, 4453, 4451, 4457, 3301, 4454
2587, 3295, 4444, 4451, 4437, 5911, 5924, 5929, 5919
2588, 5911, 5924, 5929, 5919, 3296, 5925, 5930, 5920
2589, 4437, 4451, 4454, 3297, 5919, 5929, 5931, 5921
2590, 5919, 5929, 5931, 5921, 5920, 5930, 5932, 3298
2591, 4444, 3299, 4457, 4451, 5924, 5928, 5933, 5929
2592, 5924, 5928, 5933, 5929, 5925, 3300, 5934, 5930
2593, 4451, 4457, 3301, 4454, 5929, 5933, 5935, 5931
2594, 5929, 5933, 5935, 5931, 5930, 5934, 258, 5932
2595, 211, 5936, 5939, 5535, 5534, 5937, 5940, 5536
2596, 5534, 5937, 5940, 5536, 213, 5938, 5941, 5537
2597, 5535, 5939, 5942, 212, 5536, 5940, 5943, 4306
2598, 5536, 5940, 5943, 4306, 5537, 5941, 5944, 214
2599, 5936, 259, 5946, 5939, 5937, 5945, 5947, 5940
2600, 5937, 5945, 5947, 5940, 5938, 261, 5948, 5941
2601, 5939, 5946, 260, 5942, 5940, 5947, 5949, 5943
2602, 5940, 5947, 5949, 5943, 5941, 5948, 262, 5944
2603, 213, 5938, 5941, 5537, 5544, 5950, 5952, 5545
2604, 5544, 5950, 5952, 5545, 215, 5951, 5953, 5546
2605, 5537, 5941, 5944, 214, 5545, 5952, 5954, 5547
2606, 5545, 5952, 5954, 5547, 5546, 5953, 5955, 216
2607, 5938, 261, 5948, 5941, 5950, 5956, 5957, 5952
2608, 5950, 5956, 5957, 5952, 5951, 263, 5958, 5953
2609, 5941, 5948, 262, 5944, 5952, 5957, 5959, 5954
2610, 5952, 5957, 5959, 5954, 5953, 5958, 264, 5955
2611, 212, 5942, 5960, 4307, 4306, 5943, 5961, 4308
2612, 4306, 5943, 5961, 4308, 214, 5944, 5962, 4309
2613, 4307, 5960, 5963, 217, 4308, 5961, 5964, 3131
2614, 4308, 5961, 5964, 3131, 4309, 5962, 5965, 218
2615, 5942, 260, 5966, 5960, 5943, 5949, 5967, 5961
2616, 5943, 5949, 5967, 5961, 5944, 262, 5968, 5962
2617, 5960, 5966, 265, 5963, 5961, 5967, 5969, 5964
2618, 5961, 5967, 5969, 5964, 5962, 5968, 266, 5965
2619, 214, 5944, 5962, 4309, 5547, 5954, 5970, 5583
2620, 5547, 5954, 5970, 5583, 216, 5955, 5971, 5584
2621, 4309, 5962, 5965, 218, 5583, 5970, 5972, 4314
2622, 5583, 5970, 5972, 4314, 5584, 5971, 5973, 219
2623, 5944, 262, 5968, 5962, 5954, 5959, 5974, 5970
2624, 5954, 5959, 5974, 5970, 5955, 264, 5975, 5971
2625, 5962, 5968, 266, 5965, 5970, 5974, 5976, 5972
2626, 5970, 5974, 5976, 5972, 5971, 5975, 267, 5973
2627, 217, 265, 268, 220, 218, 266, 269, 221
2628, 218, 5965, 5977, 3134, 4314, 5972, 5978, 4315
2629, 4314, 5972, 5978, 4315, 219, 5973, 5979, 4316
2630, 3134, 5977, 4459, 221, 4315, 5978, 4460, 3144
2631, 4315, 5978, 4460, 3144, 4316, 5979, 4461, 222
2632, 5965, 266, 5980, 5977, 5972, 5976, 5981, 5978
2633, 5972, 5976, 5981, 5978, 5973, 267, 5982, 5979
2634, 5977, 5980, 269, 4459, 5978, 5981, 4468, 4460
2635, 5978, 5981, 4468, 4460, 5979, 5982, 270, 4461
2636, 220, 5983, 5985, 4320, 3135, 5984, 5986, 4321
2637, 3135, 5984, 5986, 4321, 221, 4459, 4462, 3145
2638, 4320, 5985, 3239, 203, 4321, 5986, 4473, 4322
2639, 4321, 5986, 4473, 4322, 3145, 4462, 4465, 223
2640, 5983, 268, 5988, 5985, 5984, 5987, 5989, 5986
2641, 5984, 5987, 5989, 5986, 4459, 269, 4469, 4462
2642, 5985, 5988, 251, 3239, 5986, 5989, 4478, 4473
2643, 5986, 5989, 4478, 4473, 4462, 4469, 271, 4465
2644, 221, 4459, 4462, 3145, 3144, 4460, 4463, 3146
2645, 3144, 4460, 4463, 3146, 222, 4461, 4464, 3147
2646, 3145, 4462, 4465, 223, 3146, 4463, 4466, 3148
2647, 3146, 4463, 4466, 3148, 3147, 4464, 4467, 224
2648, 4459, 269, 4469, 4462, 4460, 4468, 4470, 4463
2649, 4460, 4468, 4470, 4463, 4461, 270, 4471, 4464
2650, 4462, 4469, 271, 4465, 4463, 4470, 4472, 4466
2651, 4463, 4470, 4472, 4466, 4464, 4471, 272, 4467
2652, 203, 3239, 3241, 3063, 4322, 4473, 4474, 4327
2653, 4322, 4473, 4474, 4327, 223, 4465, 4475, 4328
2654, 3063, 3241, 3243, 204, 4327, 4474, 4476, 4329
2655, 4327, 4474, 4476, 4329, 4328, 4475, 4477, 225
2656, 3239, 251, 3246, 3241, 4473, 4478, 4479, 4474
2657, 4473, 4478, 4479, 4474, 4465, 271, 4480, 4475
2658, 3241, 5890, 5896, 5883, 5990, 5994, 5996, 5991
2659, 5990, 5994, 5996, 5991, 4474, 5995, 5997, 5992
2660, 5883, 5896, 5898, 3243, 5991, 5996, 5998, 5993
2661, 5991, 5996, 5998, 5993, 5992, 5997, 5999, 4476
2662, 5890, 3246, 5900, 5896, 5994, 6000, 6001, 5996
2663, 5994, 6000, 6001, 5996, 5995, 4479, 6002, 5997
2664, 5896, 5900, 252, 5898, 5996, 6001, 6003, 5998
2665, 5996, 6001, 6003, 5998, 5997, 6002, 4481, 5999
2666, 4474, 4479, 4481, 4476, 4475, 4480, 273, 4477
2667, 223, 4465, 4475, 4328, 3148, 4466, 6004, 4334
2668, 3148, 4466, 6004, 4334, 224, 4467, 6005, 4335
2669, 4328, 4475, 4477, 225, 4334, 6004, 6006, 4336
2670, 4334, 6004, 6006, 4336, 4335, 6005, 6007, 226
2671, 4465, 271, 4480, 4475, 4466, 4472, 6008, 6004
2672, 4466, 4472, 6008, 6004, 4467, 272, 6009, 6005
2673, 4475, 4480, 273, 4477, 6004, 6008, 6010, 6006
2674, 6004, 6008, 6010, 6006, 6005, 6009, 274, 6007
2675, 204, 3243, 3296, 3117, 4329, 4476, 4482, 4340
2676, 4329, 4476, 4482, 4340, 225, 4477, 4483, 4341
2677, 3117, 3296, 3298, 210, 4340, 4482, 4484, 4342
2678, 4340, 4482, 4484, 4342, 4341, 4483, 4485, 227
2679, 3243, 5898, 5923, 5910, 5993, 5998, 6014, 6011
2680, 5993, 5998, 6014, 6011, 4476, 5999, 6015, 6012
2681, 5910, 5923, 5925, 3296, 6011, 6014, 6016, 6013
2682, 6011, 6014, 6016, 6013, 6012, 6015, 6017, 4482
2683, 5898, 252, 5927, 5923, 5998, 6003, 6018, 6014
2684, 5998, 6003, 6018, 6014, 5999, 4481, 6019, 6015
2685, 5923, 5927, 3300, 5925, 6014, 6018, 6020, 6016
2686, 6014, 6018, 6020, 6016, 6015, 6019, 4486, 6017
2687, 4476, 4481, 4486, 4482, 4477, 273, 4487, 4483
2688, 3296, 3300, 258, 3298, 4482, 4486, 4488, 4484
2689, 4482, 4486, 4488, 4484, 4483, 4487, 275, 4485
2690, 225, 4477, 4483, 4341, 4336, 6006, 6021, 4345
2691, 4336, 6006, 6021, 4345, 226, 6007, 6022, 4346
2692, 4341, 4483, 4485, 227, 4345, 6021, 4489, 3158
2693, 4345, 6021, 4489, 3158, 4346, 6022, 4490, 228
2694, 4477, 273, 4487, 4483, 6006, 6010, 6023, 6021
2695, 6006, 6010, 6023, 6021, 6007, 274, 6024, 6022
2696, 4483, 4487, 275, 4485, 6021, 6023, 4497, 4489
2697, 6021, 6023, 4497, 4489, 6022, 6024, 276, 4490
2698, 210, 3298, 6025, 4349, 4342, 4484, 6026, 4350
2699, 4342, 4484, 6026, 4350, 227, 4485, 4491, 3159
2700, 4349, 6025, 6027, 229, 4350, 6026, 6028, 3175
2701, 4350, 6026, 6028, 3175, 3159, 4491, 4494, 230
2702, 3298, 258, 6029, 6025, 4484, 4488, 6030, 6026
2703, 4484, 4488, 6030, 6026, 4485, 275, 4498, 4491
2704, 6025, 6029, 277, 6027, 6026, 6030, 6031, 6028
2705, 6026, 6030, 6031, 6028, 4491, 4498, 278, 4494
2706, 227, 4485, 4491, 3159, 3158, 4489, 4492, 3160
2707, 3158, 4489, 4492, 3160, 228, 4490, 4493, 3161
2708, 3159, 4491, 4494, 230, 3160, 4492, 4495, 3162
2709, 3160, 4492, 4495, 3162, 3161, 4493, 4496, 231
2710, 4485, 275, 4498, 4491, 4489, 4497, 4499, 4492
2711, 4489, 4497, 4499, 4492, 4490, 276, 4500, 4493
2712, 4491, 4498, 278, 4494, 4492, 4499, 4501, 4495
2713, 4492, 4499, 4501, 4495, 4493, 4500, 279, 4496
2714, 229, 277, 280, 232, 230, 278, 281, 233
2715, 230, 4494, 6032, 3178, 3162, 4495, 6033, 4355
2716, 3162, 4495, 6033, 4355, 231, 4496, 6034, 4356
2717, 3178, 6032, 6035, 233, 4355, 6033, 6036, 4357
2718, 4355, 6033, 6036, 4357, 4356, 6034, 6037, 234
2719, 4494, 278, 6038, 6032, 4495, 4501, 6039, 6033
2720, 4495, 4501, 6039, 6033, 4496, 279, 6040, 6034
2721, 6032, 6038, 281, 6035, 6033, 6039, 6041, 6036
2722, 6033, 6039, 6041, 6036, 6034, 6040, 282, 6037
2723, 232, 6042, 6044, 4367, 3179, 6043, 6045, 4368
2724, 3179, 6043, 6045, 4368, 233, 6035, 6046, 4369
2725, 4367, 6044, 6047, 235, 4368, 6045, 6048, 4370
2726, 4368, 6045, 6048, 4370, 4369, 6046, 6049, 236
2727, 6042, 280, 6051, 6044, 6043, 6050, 6052, 6045
2728, 6043, 6050, 6052, 6045, 6035, 281, 6053, 6046
2729, 6044, 6051, 283, 6047, 6045, 6052, 6054, 6048
2730, 6045, 6052, 6054, 6048, 6046, 6053, 284, 6049
2731, 233, 6035, 6046, 4369, 4357, 6036, 6055, 5838
2732, 4357, 6036, 6055, 5838, 234, 6037, 6056, 5839
2733, 4369, 6046, 6049, 236, 5838, 6055, 6057, 5840
2734, 5838, 6055, 6057, 5840, 5839, 6056, 6058, 237
2735, 6035, 281, 6053, 6046, 6036, 6041, 6059, 6055
2736, 6036, 6041, 6059, 6055, 6037, 282, 6060, 6056
2737, 6046, 6053, 284, 6049, 6055, 6059, 6061, 6057
2738, 6055, 6059, 6061, 6057, 6056, 6060, 285, 6058
2739, 235, 6047, 6062, 5850, 4370, 6048, 6063, 5851
2740, 4370, 6048, 6063, 5851, 236, 6049, 6064, 5852
2741, 5850, 6062, 6065, 238, 5851, 6063, 6066, 5853
2742, 5851, 6063, 6066, 5853, 5852, 6064, 6067, 239
2743, 6047, 283, 6068, 6062, 6048, 6054, 6069, 6063
2744, 6048, 6054, 6069, 6063, 6049, 284, 6070, 6064
2745, 6062, 6068, 286, 6065, 6063, 6069, 6071, 6066
2746, 6063, 6069, 6071, 6066, 6064, 6070, 287, 6067
2747, 236, 6049, 6064, 5852, 5840, 6057, 6072, 5858
2748, 5840, 6057, 6072, 5858, 237, 6058, 6073, 5859
2749, 5852, 6064, 6067, 239, 5858, 6072, 6074, 5860
2750, 5858, 6072, 6074, 5860, 5859, 6073, 6075, 240
2751, 6049, 284, 6070, 6064, 6057, 6061, 6076, 6072
2752, 6057, 6061, 6076, 6072, 6058, 285, 6077, 6073
2753, 6064, 6070, 287, 6067, 6072, 6076, 6078, 6074
2754, 6072, 6076, 6078, 6074, 6073, 6077, 288, 6075
2755, 241, 1248, 1251, 1234, 1233, 1249, 1252, 1235
2756, 1233, 1249, 1252, 1235, 243, 1250, 1253, 1236
2757, 1234, 1251, 1254, 242, 1235, 1252, 1255, 1237
2758, 1235, 1252, 1255, 1237, 1236, 1253, 1256, 244
2759, 1248, 289, 1258, 1251, 1249, 1257, 1259, 1252
2760, 1249, 1257, 1259, 1252, 1250, 291, 1260, 1253
2761, 1251, 1258, 290, 1254, 1252, 1259, 1261, 1255
2762, 1252, 1259, 1261, 1255, 1253, 1260, 292, 1256
2763, 243, 1250, 1253, 1236, 1961, 1972, 1974, 1962
2764, 1961, 1972, 1974, 1962, 245, 1973, 1975, 1963
2765, 1236, 1253, 1256, 244, 1962, 1974, 1976, 1964
2766, 1962, 1974, 1976, 1964, 1963, 1975, 1977, 246
2767, 1250, 291, 1260, 1253, 1972, 1978, 1979, 1974
2768, 1972, 1978, 1979, 1974, 1973, 293, 1980, 1975
2769, 1253, 1260, 292, 1256, 1974, 1979, 1981, 1976
2770, 1974, 1979, 1981, 1976, 1975, 1980, 294, 1977
2771, 245, 3302, 3305, 3214, 3213, 3303, 3306, 3215
2772, 3213, 3303, 3306, 3215, 2588, 3304, 3307, 3216
2773, 3214, 3305, 3308, 1963, 3215, 3306, 3309, 3217
2774, 3215, 3306, 3309, 3217, 3216, 3307, 3310, 2589
2775, 3302, 1973, 3312, 3305, 3303, 3311, 3313, 3306
2776, 3303, 3311, 3313, 3306, 3304, 2599, 3314, 3307
2777, 3305, 3312, 1975, 3308, 3306, 3313, 3315, 3309
2778, 3306, 3313, 3315, 3309, 3307, 3314, 2601, 3310
2779, 2588, 2599, 2601, 2589, 247, 2600, 2602, 2590
2780, 1963, 3308, 3316, 3224, 3217, 3309, 3317, 3225
2781, 3217, 3309, 3317, 3225, 2589, 3310, 3318, 3226
2782, 3224, 3316, 3319, 246, 3225, 3317, 3320, 3227
2783, 3225, 3317, 3320, 3227, 3226, 3318, 3321, 2591
2784, 3308, 1975, 3322, 3316, 3309, 3315, 3323, 3317
2785, 3309, 3315, 3323, 3317, 3310, 2601, 3324, 3318
2786, 3316, 3322, 1977, 3319, 3317, 3323, 3325, 3320
2787, 3317, 3323, 3325, 3320, 3318, 3324, 2603, 3321
2788, 2589, 2601, 2603, 2591, 2590, 2602, 2604, 248
2789, 1973, 3326, 3329, 3312, 3311, 3327, 3330, 3313
2790, 3311, 3327, 3330, 3313, 2599, 3328, 3331, 3314
2791, 3312, 3329, 3332, 1975, 3313, 3330, 3333, 3315
2792, 3313, 3330, 3333, 3315, 3314, 3331, 3334, 2601
2793, 3326, 293, 3336, 3329, 3327, 3335, 3337, 3330
2794, 3327, 3335, 3337, 3330, 3328, 2605, 3338, 3331
2795, 3329, 3336, 1980, 3332, 3330, 3337, 3339, 3333
2796, 3330, 3337, 3339, 3333, 3331, 3338, 2606, 3334
2797, 2599, 2605, 2606, 2601, 2600, 295, 2607, 2602
2798, 1975, 3332, 3340, 3322, 3315, 3333, 3341, 3323
2799, 3315, 3333, 3341, 3323, 2601, 3334, 3342, 3324
2800, 3322, 3340, 3343, 1977, 3323, 3341, 3344, 3325
2801, 3323, 3341, 3344, 3325, 3324, 3342, 3345, 2603
2802, 3332, 1980, 3346, 3340, 3333, 3339, 3347, 3341
2803, 3333, 3339, 3347, 3341, 3334, 2606, 3348, 3342
2804, 3340, 3346, 294, 3343, 3341, 3347, 3349, 3344
2805, 3341, 3347, 3349, 3344, 3342, 3348, 2608, 3345
2806, 2601, 2606, 2608, 2603, 2602, 2607, 296, 2604
2807, 247, 2600, 2602, 2590, 3234, 3350, 3352, 3235
2808, 3234, 3350, 3352, 3235, 249, 3351, 3353, 3236
2809, 2590, 2602, 2604, 248, 3235, 3352, 3354, 3237
2810, 3235, 3352, 3354, 3237, 3236, 3353, 3355, 250
2811, 2600, 295, 2607, 2602, 3350, 3356, 3357, 3352
2812, 3350, 3356, 3357, 3352, 3351, 297, 3358, 3353
2813, 2602, 2607, 296, 2604, 3352, 3357, 3359, 3354
2814, 3352, 3357, 3359, 3354, 3353, 3358, 298, 3355
2815, 249, 4502, 4505, 4405, 4404, 4503, 4506, 4406
2816, 4404, 4503, 4506, 4406, 3244, 4504, 4507, 4407
2817, 4405, 4505, 4508, 3236, 4406, 4506, 4509, 4408
2818, 4406, 4506, 4509, 4408, 4407, 4507, 4510, 3245
2819, 4502, 3351, 4512, 4505, 4503, 4511, 4513, 4506
2820, 4503, 4511, 4513, 4506, 4504, 3360, 4514, 4507
2821, 4505, 4512, 3353, 4508, 4506, 4513, 4515, 4509
2822, 4506, 4513, 4515, 4509, 4507, 4514, 3362, 4510
2823, 3244, 4504, 4507, 4407, 5891, 6079, 6081, 5892
2824, 5891, 6079, 6081, 5892, 251, 6080, 6082, 5893
2825, 4407, 4507, 4510, 3245, 5892, 6081, 6083, 5894
2826, 5892, 6081, 6083, 5894, 5893, 6082, 6084, 3246
2827, 4504, 3360, 4514, 4507, 6079, 6085, 6086, 6081
2828, 6079, 6085, 6086, 6081, 6080, 3361, 6087, 6082
2829, 4507, 4514, 3362, 4510, 6081, 6086, 6088, 6083
2830, 6081, 6086, 6088, 6083, 6082, 6087, 3363, 6084
2831, 3236, 4508, 4516, 4415, 4408, 4509, 4517, 4416
2832, 4408, 4509, 4517, 4416, 3245, 4510, 4518, 4417
2833, 4415, 4516, 4519, 250, 4416, 4517, 4520, 4418
2834, 4416, 4517, 4520, 4418, 4417, 4518, 4521, 3247
2835, 4508, 3353, 4522, 4516, 4509, 4515, 4523, 4517
2836, 4509, 4515, 4523, 4517, 4510, 3362, 4524, 4518
2837, 4516, 4522, 3355, 4519, 4517, 4523, 4525, 4520
2838, 4517, 4523, 4525, 4520, 4518, 4524, 3364, 4521
2839, 3245, 4510, 4518, 4417, 5894, 6083, 6089, 5899
2840, 5894, 6083, 6089, 5899, 3246, 6084, 6090, 5900
2841, 4417, 4518, 4521, 3247, 5899, 6089, 6091, 5901
2842, 5899, 6089, 6091, 5901, 5900, 6090, 6092, 252
2843, 4510, 3362, 4524, 4518, 6083, 6088, 6093, 6089
2844, 6083, 6088, 6093, 6089, 6084, 3363, 6094, 6090
2845, 4518, 4524, 3364, 4521, 6089, 6093, 6095, 6091
2846, 6089, 6093, 6095, 6091, 6090, 6094, 3365, 6092
2847, 3351, 4526, 4529, 4512, 4511, 4527, 4530, 4513
2848, 4511, 4527, 4530, 4513, 3360, 4528, 4531, 4514
2849, 4512, 4529, 4532, 3353, 4513, 4530, 4533, 4515
2850, 4513, 4530, 4533, 4515, 4514, 4531, 4534, 3362
2851, 4526, 297, 4536, 4529, 4527, 4535, 4537, 4530
2852, 4527, 4535, 4537, 4530, 4528, 3366, 4538, 4531
2853, 4529, 4536, 3358, 4532, 4530, 4537, 4539, 4533
2854, 4530, 4537, 4539, 4533, 4531, 4538, 3367, 4534
2855, 3360, 4528, 4531, 4514, 6085, 6096, 6098, 6086
2856, 6085, 6096, 6098, 6086, 3361, 6097, 6099, 6087
2857, 4514, 4531, 4534, 3362, 6086, 6098, 6100, 6088
2858, 6086, 6098, 6100, 6088, 6087, 6099, 6101, 3363
2859, 4528, 3366, 4538, 4531, 6096, 6102, 6103, 6098
2860, 6096, 6102, 6103, 6098, 6097, 299, 6104, 6099
2861, 4531, 4538, 3367, 4534, 6098, 6103, 6105, 6100
2862, 6098, 6103, 6105, 6100, 6099, 6104, 3368, 6101
2863, 3353, 4532, 4540, 4522, 4515, 4533, 4541, 4523
2864, 4515, 4533, 4541, 4523, 3362, 4534, 4542, 4524
2865, 4522, 4540, 4543, 3355, 4523, 4541, 4544, 4525
2866, 4523, 4541, 4544, 4525, 4524, 4542, 4545, 3364
2867, 4532, 3358, 4546, 4540, 4533, 4539, 4547, 4541
2868, 4533, 4539, 4547, 4541, 4534, 3367, 4548, 4542
2869, 4540, 4546, 298, 4543, 4541, 4547, 4549, 4544
2870, 4541, 4547, 4549, 4544, 4542, 4548, 3369, 4545
2871, 3362, 4534, 4542, 4524, 6088, 6100, 6106, 6093
2872, 6088, 6100, 6106, 6093, 3363, 6101, 6107, 6094
2873, 4524, 4542, 4545, 3364, 6093, 6106, 6108, 6095
2874, 6093, 6106, 6108, 6095, 6094, 6107, 6109, 3365
2875, 4534, 3367, 4548, 4542, 6100, 6105, 6110, 6106
2876, 6100, 6105, 6110, 6106, 6101, 3368, 6111, 6107
2877, 4542, 4548, 3369, 4545, 6106, 6110, 6112, 6108
2878, 6106, 6110, 6112, 6108, 6107, 6111, 300, 6109
2879, 242, 1254, 1262, 1244, 1237, 1255, 1263, 1245
2880, 1237, 1255, 1263, 1245, 244, 1256, 1264, 1246
2881, 1244, 1262, 1265, 253, 1245, 1263, 1266, 1247
2882, 1245, 1263, 1266, 1247, 1246, 1264, 1267, 254
2883, 1254, 290, 1268, 1262, 1255, 1261, 1269, 1263
2884, 1255, 1261, 1269, 1263, 1256, 292, 1270, 1264
2885, 1262, 1268, 301, 1265, 1263, 1269, 1271, 1266
2886, 1263, 1269, 1271, 1266, 1264, 1270, 302, 1267
2887, 244, 1256, 1264, 1246, 1964, 1976, 1982, 1969
2888, 1964, 1976, 1982, 1969, 246, 1977, 1983, 1970
2889, 1246, 1264, 1267, 254, 1969, 1982, 1984, 1971
2890, 1969, 1982, 1984, 1971, 1970, 1983, 1985, 255
2891, 1256, 292, 1270, 1264, 1976, 1981, 1986, 1982
2892, 1976, 1981, 1986, 1982, 1977, 294, 1987, 1983
2893, 1264, 1270, 302, 1267, 1982, 1986, 1988, 1984
2894, 1982, 1986, 1988, 1984, 1983, 1987, 303, 1985
2895, 246, 3319, 3370, 3274, 3227, 3320, 3371, 3275
2896, 3227, 3320, 3371, 3275, 2591, 3321, 3372, 3276
2897, 3274, 3370, 3373, 1970, 3275, 3371, 3374, 3277
2898, 3275, 3371, 3374, 3277, 3276, 3372, 3375, 2596
2899, 3319, 1977, 3376, 3370, 3320, 3325, 3377, 3371
2900, 3320, 3325, 3377, 3371, 3321, 2603, 3378, 3372
2901, 3370, 3376, 1983, 3373, 3371, 3377, 3379, 3374
2902, 3371, 3377, 3379, 3374, 3372, 3378, 2609, 3375
2903, 2591, 2603, 2609, 2596, 248, 2604, 2610, 2597
2904, 1970, 3373, 3380, 3284, 3277, 3374, 3381, 3285
2905, 3277, 3374, 3381, 3285, 2596, 3375, 3382, 3286
2906, 3284, 3380, 3383, 255, 3285, 3381, 3384, 3287
2907, 3285, 3381, 3384, 3287, 3286, 3382, 3385, 2598
2908, 3373, 1983, 3386, 3380, 3374, 3379, 3387, 3381
2909, 3374, 3379, 3387, 3381, 3375, 2609, 3388, 3382
2910, 3380, 3386, 1985, 3383, 3381, 3387, 3389, 3384
2911, 3381, 3387, 3389, 3384, 3382, 3388, 2611, 3385
2912, 2596, 2609, 2611, 2598, 2597, 2610, 2612, 256
2913, 1977, 3343, 3390, 3376, 3325, 3344, 3391, 3377
2914, 3325, 3344, 3391, 3377, 2603, 3345, 3392, 3378
2915, 3376, 3390, 3393, 1983, 3377, 3391, 3394, 3379
2916, 3377, 3391, 3394, 3379, 3378, 3392, 3395, 2609
2917, 3343, 294, 3396, 3390, 3344, 3349, 3397, 3391
2918, 3344, 3349, 3397, 3391, 3345, 2608, 3398, 3392
2919, 3390, 3396, 1987, 3393, 3391, 3397, 3399, 3394
2920, 3391, 3397, 3399, 3394, 3392, 3398, 2613, 3395
2921, 2603, 2608, 2613, 2609, 2604, 296, 2614, 2610
2922, 1983, 3393, 3400, 3386, 3379, 3394, 3401, 3387
2923, 3379, 3394, 3401, 3387, 2609, 3395, 3402, 3388
2924, 3386, 3400, 3403, 1985, 3387, 3401, 3404, 3389
2925, 3387, 3401, 3404, 3389, 3388, 3402, 3405, 2611
2926, 3393, 1987, 3406, 3400, 3394, 3399, 3407, 3401
2927, 3394, 3399, 3407, 3401, 3395, 2613, 3408, 3402
2928, 3400, 3406, 303, 3403, 3401, 3407, 3409, 3404
2929, 3401, 3407, 3409, 3404, 3402, 3408, 2615, 3405
2930, 2609, 2613, 2615, 2611, 2610, 2614, 304, 2612
2931, 248, 2604, 2610, 2597, 3237, 3354, 3410, 3292
2932, 3237, 3354, 3410, 3292, 250, 3355, 3411, 3293
2933, 2597, 2610, 2612, 256, 3292, 3410, 3412, 3294
2934, 3292, 3410, 3412, 3294, 3293, 3411, 3413, 257
2935, 2604, 296, 2614, 2610, 3354, 3359, 3414, 3410
2936, 3354, 3359, 3414, 3410, 3355, 298, 3415, 3411
2937, 2610, 2614, 304, 2612, 3410, 3414, 3416, 3412
2938, 3410, 3414, 3416, 3412, 3411, 3415, 305, 3413
2939, 250, 4519, 4550, 4445, 4418, 4520, 4551, 4446
2940, 4418, 4520, 4551, 4446, 3247, 4521, 4552, 4447
2941, 4445, 4550, 4553, 3293, 4446, 4551, 4554, 4448
2942, 4446, 4551, 4554, 4448, 4447, 4552, 4555, 3299
2943, 4519, 3355, 4556, 4550, 4520, 4525, 4557, 4551
2944, 4520, 4525, 4557, 4551, 4521, 3364, 4558, 4552
2945, 4550, 4556, 3411, 4553, 4551, 4557, 4559, 4554
2946, 4551, 4557, 4559, 4554, 4552, 4558, 3417, 4555
2947, 3247, 4521, 4552, 4447, 5901, 6091, 6113, 5926
2948, 5901, 6091, 6113, 5926, 252, 6092, 6114, 5927
2949, 4447, 4552, 4555, 3299, 5926, 6113, 6115, 5928
2950, 5926, 6113, 6115, 5928, 5927, 6114, 6116, 3300
2951, 4521, 3364, 4558, 4552, 6091, 6095, 6117, 6113
2952, 6091, 6095, 6117, 6113, 6092, 3365, 6118, 6114
2953, 4552, 4558, 3417, 4555, 6113, 6117, 6119, 6115
2954, 6113, 6117, 6119, 6115, 6114, 6118, 3418, 6116
2955, 3293, 4553, 4560, 4455, 4448, 4554, 4561, 4456
2956, 4448, 4554, 4561, 4456, 3299, 4555, 4562, 4457
2957, 4455, 4560, 4563, 257, 4456, 4561, 4564, 4458
2958, 4456, 4561, 4564, 4458, 4457, 4562, 4565, 3301
2959, 4553, 3411, 4566, 4560, 4554, 4559, 4567, 4561
2960, 4554, 4559, 4567, 4561, 4555, 3417, 4568, 4562
2961, 4560, 4566, 3413, 4563, 4561, 4567, 4569, 4564
2962, 4561, 4567, 4569, 4564, 4562, 4568, 3419, 4565
2963, 3299, 4555, 4562, 4457, 5928, 6115, 6120, 5933
2964, 5928, 6115, 6120, 5933, 3300, 6116, 6121, 5934
2965, 4457, 4562, 4565, 3301, 5933, 6120, 6122, 5935
2966, 5933, 6120, 6122, 5935, 5934, 6121, 6123, 258
2967, 4555, 3417, 4568, 4562, 6115, 6119, 6124, 6120
2968, 6115, 6119, 6124, 6120, 6116, 3418, 6125, 6121
2969, 4562, 4568, 3419, 4565, 6120, 6124, 6126, 6122
2970, 6120, 6124, 6126, 6122, 6121, 6125, 3420, 6123
2971, 3355, 4543, 4570, 4556, 4525, 4544, 4571, 4557
2972, 4525, 4544, 4571, 4557, 3364, 4545, 4572, 4558
2973, 4556, 4570, 4573, 3411, 4557, 4571, 4574, 4559
2974, 4557, 4571, 4574, 4559, 4558, 4572, 4575, 3417
2975, 4543, 298, 4576, 4570, 4544, 4549, 4577, 4571
2976, 4544, 4549, 4577, 4571, 4545, 3369, 4578, 4572
2977, 4570, 4576, 3415, 4573, 4571, 4577, 4579, 4574
2978, 4571, 4577, 4579, 4574, 4572, 4578, 3421, 4575
2979, 3364, 4545, 4572, 4558, 6095, 6108, 6127, 6117
2980, 6095, 6108, 6127, 6117, 3365, 6109, 6128, 6118
2981, 4558, 4572, 4575, 3417, 6117, 6127, 6129, 6119
2982, 6117, 6127, 6129, 6119, 6118, 6128, 6130, 3418
2983, 4545, 3369, 4578, 4572, 6108, 6112, 6131, 6127
2984, 6108, 6112, 6131, 6127, 6109, 300, 6132, 6128
2985, 4572, 4578, 3421, 4575, 6127, 6131, 6133, 6129
2986, 6127, 6131, 6133, 6129, 6128, 6132, 3422, 6130
2987, 3411, 4573, 4580, 4566, 4559, 4574, 4581, 4567
2988, 4559, 4574, 4581, 4567, 3417, 4575, 4582, 4568
2989, 4566, 4580, 4583, 3413, 4567, 4581, 4584, 4569
2990, 4567, 4581, 4584, 4569, 4568, 4582, 4585, 3419
2991, 4573, 3415, 4586, 4580, 4574, 4579, 4587, 4581
2992, 4574, 4579, 4587, 4581, 4575, 3421, 4588, 4582
2993, 4580, 4586, 305, 4583, 4581, 4587, 4589, 4584
2994, 4581, 4587, 4589, 4584, 4582, 4588, 3423, 4585
2995, 3417, 4575, 4582, 4568, 6119, 6129, 6134, 6124
2996, 6119, 6129, 6134, 6124, 3418, 6130, 6135, 6125
2997, 4568, 4582, 4585, 3419, 6124, 6134, 6136, 6126
2998, 6124, 6134, 6136, 6126, 6125, 6135, 6137, 3420
2999, 4575, 3421, 4588, 4582, 6129, 6133, 6138, 6134
3000, 6129, 6133, 6138, 6134, 6130, 3422, 6139, 6135
3001, 4582, 4588, 3423, 4585, 6134, 6138, 6140, 6136
3002, 6134, 6138, 6140, 6136, 6135, 6139, 306, 6137
3003, 259, 6141, 6144, 5946, 5945, 6142, 6145, 5947
3004, 5945, 6142, 6145, 5947, 261, 6143, 6146, 5948
3005, 5946, 6144, 6147, 260, 5947, 6145, 6148, 5949
3006, 5947, 6145, 6148, 5949, 5948, 6146, 6149, 262
3007, 6141, 307, 6151, 6144, 6142, 6150, 6152, 6145
3008, 6142, 6150, 6152, 6145, 6143, 309, 6153, 6146
3009, 6144, 6151, 308, 6147, 6145, 6152, 6154, 6148
3010, 6145, 6152, 6154, 6148, 6146, 6153, 310, 6149
3011, 261, 309, 310, 262, 263, 311, 312, 264
3012, 260, 6147, 6155, 5966, 5949, 6148, 6156, 5967
3013, 5949, 6148, 6156, 5967, 262, 6149, 6157, 5968
3014, 5966, 6155, 6158, 265, 5967, 6156, 6159, 5969
3015, 5967, 6156, 6159, 5969, 5968, 6157, 6160, 266
3016, 6147, 308, 6161, 6155, 6148, 6154, 6162, 6156
3017, 6148, 6154, 6162, 6156, 6149, 310, 6163, 6157
3018, 6155, 6161, 313, 6158, 6156, 6162, 6164, 6159
3019, 6156, 6162, 6164, 6159, 6157, 6163, 314, 6160
3020, 262, 310, 314, 266, 264, 312, 315, 267
3021, 265, 6158, 6167, 6165, 5969, 6159, 6168, 6166
3022, 5969, 6159, 6168, 6166, 266, 6160, 6169, 5980
3023, 6165, 6167, 6170, 268, 6166, 6168, 6171, 5987
3024, 6166, 6168, 6171, 5987, 5980, 6169, 6172, 269
3025, 6158, 313, 6173, 6167, 6159, 6164, 6174, 6168
3026, 6159, 6164, 6174, 6168, 6160, 314, 6175, 6169
3027, 6167, 6173, 316, 6170, 6168, 6174, 6176, 6171
3028, 6168, 6174, 6176, 6171, 6169, 6175, 317, 6172
3029, 266, 6160, 6169, 5980, 5976, 6177, 6179, 5981
3030, 5976, 6177, 6179, 5981, 267, 6178, 6180, 5982
3031, 5980, 6169, 6172, 269, 5981, 6179, 6181, 4468
3032, 5981, 6179, 6181, 4468, 5982, 6180, 6182, 270
3033, 6160, 314, 6175, 6169, 6177, 6183, 6184, 6179
3034, 6177, 6183, 6184, 6179, 6178, 315, 6185, 6180
3035, 6169, 6175, 317, 6172, 6179, 6184, 6186, 6181
3036, 6179, 6184, 6186, 6181, 6180, 6185, 318, 6182
3037, 268, 6170, 6187, 5988, 5987, 6171, 6188, 5989
3038, 5987, 6171, 6188, 5989, 269, 6172, 6189, 4469
3039, 5988, 6187, 3361, 251, 5989, 6188, 4590, 4478
3040, 5989, 6188, 4590, 4478, 4469, 6189, 4591, 271
3041, 6170, 316, 6190, 6187, 6171, 6176, 6191, 6188
3042, 6171, 6176, 6191, 6188, 6172, 317, 6192, 6189
3043, 6187, 6190, 299, 3361, 6188, 6191, 4596, 4590
3044, 6188, 6191, 4596, 4590, 6189, 6192, 319, 4591
3045, 269, 6172, 6189, 4469, 4468, 6181, 6193, 4470
3046, 4468, 6181, 6193, 4470, 270, 6182, 6194, 4471
3047, 4469, 6189, 4591, 271, 4470, 6193, 6195, 4472
3048, 4470, 6193, 6195, 4472, 4471, 6194, 6196, 272
3049, 6172, 317, 6192, 6189, 6181, 6186, 6197, 6193
3050, 6181, 6186, 6197, 6193, 6182, 318, 6198, 6194
3051, 6189, 6192, 319, 4591, 6193, 6197, 6199, 6195
3052, 6193, 6197, 6199, 6195, 6194, 6198, 320, 6196
3053, 251, 3361, 3363, 3246, 4478, 4590, 4592, 4479
3054, 4478, 4590, 4592, 4479, 271, 4591, 4593, 4480
3055, 3246, 6084, 6090, 5900, 6000, 6200, 6202, 6001
3056, 6000, 6200, 6202, 6001, 4479, 6201, 6203, 6002
3057, 5900, 6090, 6092, 252, 6001, 6202, 6204, 6003
3058, 6001, 6202, 6204, 6003, 6002, 6203, 6205, 4481
3059, 6084, 3363, 6094, 6090, 6200, 6206, 6207, 6202
3060, 6200, 6206, 6207, 6202, 6201, 4592, 6208, 6203
3061, 6090, 6094, 3365, 6092, 6202, 6207, 6209, 6204
3062, 6202, 6207, 6209, 6204, 6203, 6208, 4594, 6205
3063, 4479, 4592, 4594, 4481, 4480, 4593, 4595, 273
3064, 3361, 299, 3368, 3363, 4590, 4596, 4597, 4592
3065, 4590, 4596, 4597, 4592, 4591, 319, 4598, 4593
3066, 3363, 6101, 6107, 6094, 6206, 6210, 6212, 6207
3067, 6206, 6210, 6212, 6207, 4592, 6211, 6213, 6208
3068, 6094, 6107, 6109, 3365, 6207, 6212, 6214, 6209
3069, 6207, 6212, 6214, 6209, 6208, 6213, 6215, 4594
3070, 6101, 3368, 6111, 6107, 6210, 6216, 6217, 6212
3071, 6210, 6216, 6217, 6212, 6211, 4597, 6218, 6213
3072, 6107, 6111, 300, 6109, 6212, 6217, 6219, 6214
3073, 6212, 6217, 6219, 6214, 6213, 6218, 4599, 6215
3074, 4592, 4597, 4599, 4594, 4593, 4598, 321, 4595
3075, 271, 4591, 4593, 4480, 4472, 6195, 6220, 6008
3076, 4472, 6195, 6220, 6008, 272, 6196, 6221, 6009
3077, 4480, 4593, 4595, 273, 6008, 6220, 6222, 6010
3078, 6008, 6220, 6222, 6010, 6009, 6221, 6223, 274
3079, 4591, 319, 4598, 4593, 6195, 6199, 6224, 6220
3080, 6195, 6199, 6224, 6220, 6196, 320, 6225, 6221
3081, 4593, 4598, 321, 4595, 6220, 6224, 6226, 6222
3082, 6220, 6224, 6226, 6222, 6221, 6225, 322, 6223
3083, 252, 6092, 6114, 5927, 6003, 6204, 6227, 6018
3084, 6003, 6204, 6227, 6018, 4481, 6205, 6228, 6019
3085, 5927, 6114, 6116, 3300, 6018, 6227, 6229, 6020
3086, 6018, 6227, 6229, 6020, 6019, 6228, 6230, 4486
3087, 6092, 3365, 6118, 6114, 6204, 6209, 6231, 6227
3088, 6204, 6209, 6231, 6227, 6205, 4594, 6232, 6228
3089, 6114, 6118, 3418, 6116, 6227, 6231, 6233, 6229
3090, 6227, 6231, 6233, 6229, 6228, 6232, 4600, 6230
3091, 4481, 4594, 4600, 4486, 273, 4595, 4601, 4487
3092, 3300, 3418, 3420, 258, 4486, 4600, 4602, 4488
3093, 4486, 4600, 4602, 4488, 4487, 4601, 4603, 275
3094, 3365, 6109, 6128, 6118, 6209, 6214, 6234, 6231
3095, 6209, 6214, 6234, 6231, 4594, 6215, 6235, 6232
3096, 6118, 6128, 6130, 3418, 6231, 6234, 6236, 6233
3097, 6231, 6234, 6236, 6233, 6232, 6235, 6237, 4600
3098, 6109, 300, 6132, 6128, 6214, 6219, 6238, 6234
3099, 6214, 6219, 6238, 6234, 6215, 4599, 6239, 6235
3100, 6128, 6132, 3422, 6130, 6234, 6238, 6240, 6236
3101, 6234, 6238, 6240, 6236, 6235, 6239, 4604, 6237
3102, 4594, 4599, 4604, 4600, 4595, 321, 4605, 4601
3103, 3418, 3422, 306, 3420, 4600, 4604, 4606, 4602
3104, 4600, 4604, 4606, 4602, 4601, 4605, 323, 4603
3105, 273, 4595, 4601, 4487, 6010, 6222, 6241, 6023
3106, 6010, 6222, 6241, 6023, 274, 6223, 6242, 6024
3107, 4487, 4601, 4603, 275, 6023, 6241, 6243, 4497
3108, 6023, 6241, 6243, 4497, 6024, 6242, 6244, 276
3109, 4595, 321, 4605, 4601, 6222, 6226, 6245, 6241
3110, 6222, 6226, 6245, 6241, 6223, 322, 6246, 6242
3111, 4601, 4605, 323, 4603, 6241, 6245, 6247, 6243
3112, 6241, 6245, 6247, 6243, 6242, 6246, 324, 6244
3113, 258, 3420, 6248, 6029, 4488, 4602, 6249, 6030
3114, 4488, 4602, 6249, 6030, 275, 4603, 6250, 4498
3115, 6029, 6248, 6251, 277, 6030, 6249, 6252, 6031
3116, 6030, 6249, 6252, 6031, 4498, 6250, 6253, 278
3117, 3420, 306, 6254, 6248, 4602, 4606, 6255, 6249
3118, 4602, 4606, 6255, 6249, 4603, 323, 6256, 6250
3119, 6248, 6254, 325, 6251, 6249, 6255, 6257, 6252
3120, 6249, 6255, 6257, 6252, 6250, 6256, 326, 6253
3121, 275, 4603, 6250, 4498, 4497, 6243, 6258, 4499
3122, 4497, 6243, 6258, 4499, 276, 6244, 6259, 4500
3123, 4498, 6250, 6253, 278, 4499, 6258, 6260, 4501
3124, 4499, 6258, 6260, 4501, 4500, 6259, 6261, 279
3125, 4603, 323, 6256, 6250, 6243, 6247, 6262, 6258
3126, 6243, 6247, 6262, 6258, 6244, 324, 6263, 6259
3127, 6250, 6256, 326, 6253, 6258, 6262, 6264, 6260
3128, 6258, 6262, 6264, 6260, 6259, 6263, 327, 6261
3129, 277, 6251, 6267, 6265, 6031, 6252, 6268, 6266
3130, 6031, 6252, 6268, 6266, 278, 6253, 6269, 6038
3131, 6265, 6267, 6270, 280, 6266, 6268, 6271, 6050
3132, 6266, 6268, 6271, 6050, 6038, 6269, 6272, 281
3133, 6251, 325, 6273, 6267, 6252, 6257, 6274, 6268
3134, 6252, 6257, 6274, 6268, 6253, 326, 6275, 6269
3135, 6267, 6273, 328, 6270, 6268, 6274, 6276, 6271
3136, 6268, 6274, 6276, 6271, 6269, 6275, 329, 6272
3137, 278, 6253, 6269, 6038, 4501, 6260, 6277, 6039
3138, 4501, 6260, 6277, 6039, 279, 6261, 6278, 6040
3139, 6038, 6269, 6272, 281, 6039, 6277, 6279, 6041
3140, 6039, 6277, 6279, 6041, 6040, 6278, 6280, 282
3141, 6253, 326, 6275, 6269, 6260, 6264, 6281, 6277
3142, 6260, 6264, 6281, 6277, 6261, 327, 6282, 6278
3143, 6269, 6275, 329, 6272, 6277, 6281, 6283, 6279
3144, 6277, 6281, 6283, 6279, 6278, 6282, 330, 6280
3145, 280, 6270, 6284, 6051, 6050, 6271, 6285, 6052
3146, 6050, 6271, 6285, 6052, 281, 6272, 6286, 6053
3147, 6051, 6284, 6287, 283, 6052, 6285, 6288, 6054
3148, 6052, 6285, 6288, 6054, 6053, 6286, 6289, 284
3149, 6270, 328, 6290, 6284, 6271, 6276, 6291, 6285
3150, 6271, 6276, 6291, 6285, 6272, 329, 6292, 6286
3151, 6284, 6290, 331, 6287, 6285, 6291, 6293, 6288
3152, 6285, 6291, 6293, 6288, 6286, 6292, 332, 6289
3153, 281, 329, 332, 284, 282, 330, 333, 285
3154, 283, 6287, 6294, 6068, 6054, 6288, 6295, 6069
3155, 6054, 6288, 6295, 6069, 284, 6289, 6296, 6070
3156, 6068, 6294, 6297, 286, 6069, 6295, 6298, 6071
3157, 6069, 6295, 6298, 6071, 6070, 6296, 6299, 287
3158, 6287, 331, 6300, 6294, 6288, 6293, 6301, 6295
3159, 6288, 6293, 6301, 6295, 6289, 332, 6302, 6296
3160, 6294, 6300, 334, 6297, 6295, 6301, 6303, 6298
3161, 6295, 6301, 6303, 6298, 6296, 6302, 335, 6299
3162, 284, 332, 335, 287, 285, 333, 336, 288
3163, 289, 1272, 1275, 1258, 1257, 1273, 1276, 1259
3164, 1257, 1273, 1276, 1259, 291, 1274, 1277, 1260
3165, 1258, 1275, 1278, 290, 1259, 1276, 1279, 1261
3166, 1259, 1276, 1279, 1261, 1260, 1277, 1280, 292
3167, 1272, 337, 1282, 1275, 1273, 1281, 1283, 1276
3168, 1273, 1281, 1283, 1276, 1274, 339, 1284, 1277
3169, 1275, 1282, 338, 1278, 1276, 1283, 1285, 1279
3170, 1276, 1283, 1285, 1279, 1277, 1284, 340, 1280
3171, 291, 1274, 1277, 1260, 1978, 1989, 1991, 1979
3172, 1978, 1989, 1991, 1979, 293, 1990, 1992, 1980
3173, 1260, 1277, 1280, 292, 1979, 1991, 1993, 1981
3174, 1979, 1991, 1993, 1981, 1980, 1992, 1994, 294
3175, 1274, 339, 1284, 1277, 1989, 1995, 1996, 1991
3176, 1989, 1995, 1996, 1991, 1990, 341, 1997, 1992
3177, 1277, 1284, 340, 1280, 1991, 1996, 1998, 1993
3178, 1991, 1996, 1998, 1993, 1992, 1997, 342, 1994
3179, 293, 3424, 3427, 3336, 3335, 3425, 3428, 3337
3180, 3335, 3425, 3428, 3337, 2605, 3426, 3429, 3338
3181, 3336, 3427, 3430, 1980, 3337, 3428, 3431, 3339
3182, 3337, 3428, 3431, 3339, 3338, 3429, 3432, 2606
3183, 3424, 1990, 3434, 3427, 3425, 3433, 3435, 3428
3184, 3425, 3433, 3435, 3428, 3426, 2616, 3436, 3429
3185, 3427, 3434, 1992, 3430, 3428, 3435, 3437, 3431
3186, 3428, 3435, 3437, 3431, 3429, 3436, 2618, 3432
3187, 2605, 2616, 2618, 2606, 295, 2617, 2619, 2607
3188, 1980, 3430, 3438, 3346, 3339, 3431, 3439, 3347
3189, 3339, 3431, 3439, 3347, 2606, 3432, 3440, 3348
3190, 3346, 3438, 3441, 294, 3347, 3439, 3442, 3349
3191, 3347, 3439, 3442, 3349, 3348, 3440, 3443, 2608
3192, 3430, 1992, 3444, 3438, 3431, 3437, 3445, 3439
3193, 3431, 3437, 3445, 3439, 3432, 2618, 3446, 3440
3194, 3438, 3444, 1994, 3441, 3439, 3445, 3447, 3442
3195, 3439, 3445, 3447, 3442, 3440, 3446, 2620, 3443
3196, 2606, 2618, 2620, 2608, 2607, 2619, 2621, 296
3197, 1990, 341, 1997, 1992, 2616, 2622, 2623, 2618
3198, 2616, 2622, 2623, 2618, 2617, 343, 2624, 2619
3199, 1992, 1997, 342, 1994, 2618, 2623, 2625, 2620
3200, 2618, 2623, 2625, 2620, 2619, 2624, 344, 2621
3201, 295, 2617, 2619, 2607, 3356, 3448, 3450, 3357
3202, 3356, 3448, 3450, 3357, 297, 3449, 3451, 3358
3203, 2607, 2619, 2621, 296, 3357, 3450, 3452, 3359
3204, 3357, 3450, 3452, 3359, 3358, 3451, 3453, 298
3205, 2617, 343, 2624, 2619, 3448, 3454, 3455, 3450
3206, 3448, 3454, 3455, 3450, 3449, 345, 3456, 3451
3207, 2619, 2624, 344, 2621, 3450, 3455, 3457, 3452
3208, 3450, 3455, 3457, 3452, 3451, 3456, 346, 3453
3209, 297, 4607, 4610, 4536, 4535, 4608, 4611, 4537
3210, 4535, 4608, 4611, 4537, 3366, 4609, 4612, 4538
3211, 4536, 4610, 4613, 3358, 4537, 4611, 4614, 4539
3212, 4537, 4611, 4614, 4539, 4538, 4612, 4615, 3367
3213, 4607, 3449, 4617, 4610, 4608, 4616, 4618, 4611
3214, 4608, 4616, 4618, 4611, 4609, 3458, 4619, 4612
3215, 4610, 4617, 3451, 4613, 4611, 4618, 4620, 4614
3216, 4611, 4618, 4620, 4614, 4612, 4619, 3460, 4615
3217, 3366, 4609, 4612, 4538, 6102, 6304, 6306, 6103
3218, 6102, 6304, 6306, 6103, 299, 6305, 6307, 6104
3219, 4538, 4612, 4615, 3367, 6103, 6306, 6308, 6105
3220, 6103, 6306, 6308, 6105, 6104, 6307, 6309, 3368
3221, 4609, 3458, 4619, 4612, 6304, 6310, 6311, 6306
3222, 6304, 6310, 6311, 6306, 6305, 3459, 6312, 6307
3223, 4612, 4619, 3460, 4615, 6306, 6311, 6313, 6308
3224, 6306, 6311, 6313, 6308, 6307, 6312, 3461, 6309
3225, 3358, 4613, 4621, 4546, 4539, 4614, 4622, 4547
3226, 4539, 4614, 4622, 4547, 3367, 4615, 4623, 4548
3227, 4546, 4621, 4624, 298, 4547, 4622, 4625, 4549
3228, 4547, 4622, 4625, 4549, 4548, 4623, 4626, 3369
3229, 4613, 3451, 4627, 4621, 4614, 4620, 4628, 4622
3230, 4614, 4620, 4628, 4622, 4615, 3460, 4629, 4623
3231, 4621, 4627, 3453, 4624, 4622, 4628, 4630, 4625
3232, 4622, 4628, 4630, 4625, 4623, 4629, 3462, 4626
3233, 3367, 4615, 4623, 4548, 6105, 6308, 6314, 6110
3234, 6105, 6308, 6314, 6110, 3368, 6309, 6315, 6111
3235, 4548, 4623, 4626, 3369, 6110, 6314, 6316, 6112
3236, 6110, 6314, 6316, 6112, 6111, 6315, 6317, 300
3237, 4615, 3460, 4629, 4623, 6308, 6313, 6318, 6314
3238, 6308, 6313, 6318, 6314, 6309, 3461, 6319, 6315
3239, 4623, 4629, 3462, 4626, 6314, 6318, 6320, 6316
3240, 6314, 6318, 6320, 6316, 6315, 6319, 3463, 6317
3241, 3449, 345, 3456, 3451, 3458, 3464, 3465, 3460
3242, 3458, 6321, 6324, 4619, 6310, 6322, 6325, 6311
3243, 6310, 6322, 6325, 6311, 3459, 6323, 6326, 6312
3244, 4619, 6324, 6327, 3460, 6311, 6325, 6328, 6313
3245, 6311, 6325, 6328, 6313, 6312, 6326, 6329, 3461
3246, 6321, 3464, 6331, 6324, 6322, 6330, 6332, 6325
3247, 6322, 6330, 6332, 6325, 6323, 347, 6333, 6326
3248, 6324, 6331, 3465, 6327, 6325, 6332, 6334, 6328
3249, 6325, 6332, 6334, 6328, 6326, 6333, 3466, 6329
3250, 3451, 3456, 346, 3453, 3460, 3465, 3467, 3462
3251, 3460, 6327, 6335, 4629, 6313, 6328, 6336, 6318
3252, 6313, 6328, 6336, 6318, 3461, 6329, 6337, 6319
3253, 4629, 6335, 6338, 3462, 6318, 6336, 6339, 6320
3254, 6318, 6336, 6339, 6320, 6319, 6337, 6340, 3463
3255, 6327, 3465, 6341, 6335, 6328, 6334, 6342, 6336
3256, 6328, 6334, 6342, 6336, 6329, 3466, 6343, 6337
3257, 6335, 6341, 3467, 6338, 6336, 6342, 6344, 6339
3258, 6336, 6342, 6344, 6339, 6337, 6343, 348, 6340
3259, 290, 1278, 1286, 1268, 1261, 1279, 1287, 1269
3260, 1261, 1279, 1287, 1269, 292, 1280, 1288, 1270
3261, 1268, 1286, 1289, 301, 1269, 1287, 1290, 1271
3262, 1269, 1287, 1290, 1271, 1270, 1288, 1291, 302
3263, 1278, 338, 1292, 1286, 1279, 1285, 1293, 1287
3264, 1279, 1285, 1293, 1287, 1280, 340, 1294, 1288
3265, 1286, 1292, 349, 1289, 1287, 1293, 1295, 1290
3266, 1287, 1293, 1295, 1290, 1288, 1294, 350, 1291
3267, 292, 1280, 1288, 1270, 1981, 1993, 1999, 1986
3268, 1981, 1993, 1999, 1986, 294, 1994, 2000, 1987
3269, 1270, 1288, 1291, 302, 1986, 1999, 2001, 1988
3270, 1986, 1999, 2001, 1988, 1987, 2000, 2002, 303
3271, 1280, 340, 1294, 1288, 1993, 1998, 2003, 1999
3272, 1993, 1998, 2003, 1999, 1994, 342, 2004, 2000
3273, 1288, 1294, 350, 1291, 1999, 2003, 2005, 2001
3274, 1999, 2003, 2005, 2001, 2000, 2004, 351, 2002
3275, 294, 3441, 3468, 3396, 3349, 3442, 3469, 3397
3276, 3349, 3442, 3469, 3397, 2608, 3443, 3470, 3398
3277, 3396, 3468, 3471, 1987, 3397, 3469, 3472, 3399
3278, 3397, 3469, 3472, 3399, 3398, 3470, 3473, 2613
3279, 3441, 1994, 3474, 3468, 3442, 3447, 3475, 3469
3280, 3442, 3447, 3475, 3469, 3443, 2620, 3476, 3470
3281, 3468, 3474, 2000, 3471, 3469, 3475, 3477, 3472
3282, 3469, 3475, 3477, 3472, 3470, 3476, 2626, 3473
3283, 2608, 2620, 2626, 2613, 296, 2621, 2627, 2614
3284, 1987, 3471, 3478, 3406, 3399, 3472, 3479, 3407
3285, 3399, 3472, 3479, 3407, 2613, 3473, 3480, 3408
3286, 3406, 3478, 3481, 303, 3407, 3479, 3482, 3409
3287, 3407, 3479, 3482, 3409, 3408, 3480, 3483, 2615
3288, 3471, 2000, 3484, 3478, 3472, 3477, 3485, 3479
3289, 3472, 3477, 3485, 3479, 3473, 2626, 3486, 3480
3290, 3478, 3484, 2002, 3481, 3479, 3485, 3487, 3482
3291, 3479, 3485, 3487, 3482, 3480, 3486, 2628, 3483
3292, 2613, 2626, 2628, 2615, 2614, 2627, 2629, 304
3293, 1994, 342, 2004, 2000, 2620, 2625, 2630, 2626
3294, 2620, 2625, 2630, 2626, 2621, 344, 2631, 2627
3295, 2000, 2004, 351, 2002, 2626, 2630, 2632, 2628
3296, 2626, 2630, 2632, 2628, 2627, 2631, 352, 2629
3297, 296, 2621, 2627, 2614, 3359, 3452, 3488, 3414
3298, 3359, 3452, 3488, 3414, 298, 3453, 3489, 3415
3299, 2614, 2627, 2629, 304, 3414, 3488, 3490, 3416
3300, 3414, 3488, 3490, 3416, 3415, 3489, 3491, 305
3301, 2621, 344, 2631, 2627, 3452, 3457, 3492, 3488
3302, 3452, 3457, 3492, 3488, 3453, 346, 3493, 3489
3303, 2627, 2631, 352, 2629, 3488, 3492, 3494, 3490
3304, 3488, 3492, 3494, 3490, 3489, 3493, 353, 3491
3305, 298, 4624, 4631, 4576, 4549, 4625, 4632, 4577
3306, 4549, 4625, 4632, 4577, 3369, 4626, 4633, 4578
3307, 4576, 4631, 4634, 3415, 4577, 4632, 4635, 4579
3308, 4577, 4632, 4635, 4579, 4578, 4633, 4636, 3421
3309, 4624, 3453, 4637, 4631, 4625, 4630, 4638, 4632
3310, 4625, 4630, 4638, 4632, 4626, 3462, 4639, 4633
3311, 4631, 4637, 3489, 4634, 4632, 4638, 4640, 4635
3312, 4632, 4638, 4640, 4635, 4633, 4639, 3495, 4636
3313, 3369, 4626, 4633, 4578, 6112, 6316, 6345, 6131
3314, 6112, 6316, 6345, 6131, 300, 6317, 6346, 6132
3315, 4578, 4633, 4636, 3421, 6131, 6345, 6347, 6133
3316, 6131, 6345, 6347, 6133, 6132, 6346, 6348, 3422
3317, 4626, 3462, 4639, 4633, 6316, 6320, 6349, 6345
3318, 6316, 6320, 6349, 6345, 6317, 3463, 6350, 6346
3319, 4633, 4639, 3495, 4636, 6345, 6349, 6351, 6347
3320, 6345, 6349, 6351, 6347, 6346, 6350, 3496, 6348
3321, 3415, 4634, 4641, 4586, 4579, 4635, 4642, 4587
3322, 4579, 4635, 4642, 4587, 3421, 4636, 4643, 4588
3323, 4586, 4641, 4644, 305, 4587, 4642, 4645, 4589
3324, 4587, 4642, 4645, 4589, 4588, 4643, 4646, 3423
3325, 4634, 3489, 4647, 4641, 4635, 4640, 4648, 4642
3326, 4635, 4640, 4648, 4642, 4636, 3495, 4649, 4643
3327, 4641, 4647, 3491, 4644, 4642, 4648, 4650, 4645
3328, 4642, 4648, 4650, 4645, 4643, 4649, 3497, 4646
3329, 3421, 4636, 4643, 4588, 6133, 6347, 6352, 6138
3330, 6133, 6347, 6352, 6138, 3422, 6348, 6353, 6139
3331, 4588, 4643, 4646, 3423, 6138, 6352, 6354, 6140
3332, 6138, 6352, 6354, 6140, 6139, 6353, 6355, 306
3333, 4636, 3495, 4649, 4643, 6347, 6351, 6356, 6352
3334, 6347, 6351, 6356, 6352, 6348, 3496, 6357, 6353
3335, 4643, 4649, 3497, 4646, 6352, 6356, 6358, 6354
3336, 6352, 6356, 6358, 6354, 6353, 6357, 3498, 6355
3337, 3453, 346, 3493, 3489, 3462, 3467, 3499, 3495
3338, 3462, 6338, 6359, 4639, 6320, 6339, 6360, 6349
3339, 6320, 6339, 6360, 6349, 3463, 6340, 6361, 6350
3340, 4639, 6359, 6362, 3495, 6349, 6360, 6363, 6351
3341, 6349, 6360, 6363, 6351, 6350, 6361, 6364, 3496
3342, 6338, 3467, 6365, 6359, 6339, 6344, 6366, 6360
3343, 6339, 6344, 6366, 6360, 6340, 348, 6367, 6361
3344, 6359, 6365, 3499, 6362, 6360, 6366, 6368, 6363
3345, 6360, 6366, 6368, 6363, 6361, 6367, 3500, 6364
3346, 3489, 3493, 353, 3491, 3495, 3499, 3501, 3497
3347, 3495, 6362, 6369, 4649, 6351, 6363, 6370, 6356
3348, 6351, 6363, 6370, 6356, 3496, 6364, 6371, 6357
3349, 4649, 6369, 6372, 3497, 6356, 6370, 6373, 6358
3350, 6356, 6370, 6373, 6358, 6357, 6371, 6374, 3498
3351, 6362, 3499, 6375, 6369, 6363, 6368, 6376, 6370
3352, 6363, 6368, 6376, 6370, 6364, 3500, 6377, 6371
3353, 6369, 6375, 3501, 6372, 6370, 6376, 6378, 6373
3354, 6370, 6376, 6378, 6373, 6371, 6377, 354, 6374
3355, 307, 355, 356, 308, 309, 357, 358, 310
3356, 309, 357, 358, 310, 311, 359, 360, 312
3357, 308, 356, 361, 313, 310, 358, 362, 314
3358, 310, 358, 362, 314, 312, 360, 363, 315
3359, 313, 361, 364, 316, 314, 362, 365, 317
3360, 314, 362, 365, 317, 315, 363, 366, 318
3361, 316, 6379, 6382, 6190, 6176, 6380, 6383, 6191
3362, 6176, 6380, 6383, 6191, 317, 6381, 6384, 6192
3363, 6190, 6382, 3459, 299, 6191, 6383, 4651, 4596
3364, 6191, 6383, 4651, 4596, 6192, 6384, 4652, 319
3365, 6379, 364, 6386, 6382, 6380, 6385, 6387, 6383
3366, 6380, 6385, 6387, 6383, 6381, 365, 6388, 6384
3367, 6382, 6386, 347, 3459, 6383, 6387, 4657, 4651
3368, 6383, 6387, 4657, 4651, 6384, 6388, 367, 4652
3369, 317, 365, 367, 319, 318, 366, 368, 320
3370, 299, 3459, 3461, 3368, 4596, 4651, 4653, 4597
3371, 4596, 4651, 4653, 4597, 319, 4652, 4654, 4598
3372, 3368, 6309, 6315, 6111, 6216, 6389, 6391, 6217
3373, 6216, 6389, 6391, 6217, 4597, 6390, 6392, 6218
3374, 6111, 6315, 6317, 300, 6217, 6391, 6393, 6219
3375, 6217, 6391, 6393, 6219, 6218, 6392, 6394, 4599
3376, 6309, 3461, 6319, 6315, 6389, 6395, 6396, 6391
3377, 6389, 6395, 6396, 6391, 6390, 4653, 6397, 6392
3378, 6315, 6319, 3463, 6317, 6391, 6396, 6398, 6393
3379, 6391, 6396, 6398, 6393, 6392, 6397, 4655, 6394
3380, 4597, 4653, 4655, 4599, 4598, 4654, 4656, 321
3381, 3459, 347, 3466, 3461, 4651, 4657, 4658, 4653
3382, 4651, 4657, 4658, 4653, 4652, 367, 4659, 4654
3383, 3461, 3466, 348, 3463, 4653, 4658, 4660, 4655
3384, 4653, 4658, 4660, 4655, 4654, 4659, 369, 4656
3385, 319, 4652, 4654, 4598, 6199, 6399, 6401, 6224
3386, 6199, 6399, 6401, 6224, 320, 6400, 6402, 6225
3387, 4598, 4654, 4656, 321, 6224, 6401, 6403, 6226
3388, 6224, 6401, 6403, 6226, 6225, 6402, 6404, 322
3389, 4652, 367, 4659, 4654, 6399, 6405, 6406, 6401
3390, 6399, 6405, 6406, 6401, 6400, 368, 6407, 6402
3391, 4654, 4659, 369, 4656, 6401, 6406, 6408, 6403
3392, 6401, 6406, 6408, 6403, 6402, 6407, 370, 6404
3393, 300, 6317, 6346, 6132, 6219, 6393, 6409, 6238
3394, 6219, 6393, 6409, 6238, 4599, 6394, 6410, 6239
3395, 6132, 6346, 6348, 3422, 6238, 6409, 6411, 6240
3396, 6238, 6409, 6411, 6240, 6239, 6410, 6412, 4604
3397, 6317, 3463, 6350, 6346, 6393, 6398, 6413, 6409
3398, 6393, 6398, 6413, 6409, 6394, 4655, 6414, 6410
3399, 6346, 6350, 3496, 6348, 6409, 6413, 6415, 6411
3400, 6409, 6413, 6415, 6411, 6410, 6414, 4661, 6412
3401, 4599, 4655, 4661, 4604, 321, 4656, 4662, 4605
3402, 3422, 3496, 3498, 306, 4604, 4661, 4663, 4606
3403, 4604, 4661, 4663, 4606, 4605, 4662, 4664, 323
3404, 3463, 348, 3500, 3496, 4655, 4660, 4665, 4661
3405, 4655, 4660, 4665, 4661, 4656, 369, 4666, 4662
3406, 3496, 3500, 354, 3498, 4661, 4665, 4667, 4663
3407, 4661, 4665, 4667, 4663, 4662, 4666, 371, 4664
3408, 321, 4656, 4662, 4605, 6226, 6403, 6416, 6245
3409, 6226, 6403, 6416, 6245, 322, 6404, 6417, 6246
3410, 4605, 4662, 4664, 323, 6245, 6416, 6418, 6247
3411, 6245, 6416, 6418, 6247, 6246, 6417, 6419, 324
3412, 4656, 369, 4666, 4662, 6403, 6408, 6420, 6416
3413, 6403, 6408, 6420, 6416, 6404, 370, 6421, 6417
3414, 4662, 4666, 371, 4664, 6416, 6420, 6422, 6418
3415, 6416, 6420, 6422, 6418, 6417, 6421, 372, 6419
3416, 306, 3498, 6423, 6254, 4606, 4663, 6424, 6255
3417, 4606, 4663, 6424, 6255, 323, 4664, 6425, 6256
3418, 6254, 6423, 6426, 325, 6255, 6424, 6427, 6257
3419, 6255, 6424, 6427, 6257, 6256, 6425, 6428, 326
3420, 3498, 354, 6429, 6423, 4663, 4667, 6430, 6424
3421, 4663, 4667, 6430, 6424, 4664, 371, 6431, 6425
3422, 6423, 6429, 373, 6426, 6424, 6430, 6432, 6427
3423, 6424, 6430, 6432, 6427, 6425, 6431, 374, 6428
3424, 323, 371, 374, 326, 324, 372, 375, 327
3425, 325, 373, 376, 328, 326, 374, 377, 329
3426, 326, 374, 377, 329, 327, 375, 378, 330
3427, 328, 376, 379, 331, 329, 377, 380, 332
3428, 329, 377, 380, 332, 330, 378, 381, 333
3429, 331, 379, 382, 334, 332, 380, 383, 335
3430, 332, 380, 383, 335, 333, 381, 384, 336
3431, 337, 1296, 1299, 1282, 1281, 1297, 1300, 1283
3432, 1281, 1297, 1300, 1283, 339, 1298, 1301, 1284
3433, 1282, 1299, 1302, 338, 1283, 1300, 1303, 1285
3434, 1283, 1300, 1303, 1285, 1284, 1301, 1304, 340
3435, 1296, 385, 1306, 1299, 1297, 1305, 1307, 1300
3436, 1297, 1305, 1307, 1300, 1298, 387, 1308, 1301
3437, 1299, 1306, 386, 1302, 1300, 1307, 1309, 1303
3438, 1300, 1307, 1309, 1303, 1301, 1308, 388, 1304
3439, 339, 1298, 1301, 1284, 1995, 2633, 2635, 1996
3440, 1995, 2633, 2635, 1996, 341, 2634, 2636, 1997
3441, 1284, 1301, 1304, 340, 1996, 2635, 2637, 1998
3442, 1996, 2635, 2637, 1998, 1997, 2636, 2638, 342
3443, 1298, 387, 1308, 1301, 2633, 2639, 2640, 2635
3444, 2633, 2639, 2640, 2635, 2634, 389, 2641, 2636
3445, 1301, 1308, 388, 1304, 2635, 2640, 2642, 2637
3446, 2635, 2640, 2642, 2637, 2636, 2641, 390, 2638
3447, 341, 2634, 2636, 1997, 2622, 3502, 3504, 2623
3448, 2622, 3502, 3504, 2623, 343, 3503, 3505, 2624
3449, 1997, 2636, 2638, 342, 2623, 3504, 3506, 2625
3450, 2623, 3504, 3506, 2625, 2624, 3505, 3507, 344
3451, 2634, 389, 2641, 2636, 3502, 3508, 3509, 3504
3452, 3502, 3508, 3509, 3504, 3503, 391, 3510, 3505
3453, 2636, 2641, 390, 2638, 3504, 3509, 3511, 3506
3454, 3504, 3509, 3511, 3506, 3505, 3510, 392, 3507
3455, 343, 3503, 3505, 2624, 3454, 4668, 4670, 3455
3456, 3454, 4668, 4670, 3455, 345, 4669, 4671, 3456
3457, 2624, 3505, 3507, 344, 3455, 4670, 4672, 3457
3458, 3455, 4670, 4672, 3457, 3456, 4671, 4673, 346
3459, 3503, 391, 3510, 3505, 4668, 4674, 4675, 4670
3460, 4668, 4674, 4675, 4670, 4669, 393, 4676, 4671
3461, 3505, 3510, 392, 3507, 4670, 4675, 4677, 4672
3462, 4670, 4675, 4677, 4672, 4671, 4676, 394, 4673
3463, 345, 6437, 6440, 6434, 6433, 6438, 6441, 6435
3464, 6433, 6438, 6441, 6435, 3464, 6439, 6442, 6331
3465, 6434, 6440, 6443, 3456, 6435, 6441, 6444, 6436
3466, 6435, 6441, 6444, 6436, 6331, 6442, 6445, 3465
3467, 6437, 4669, 6447, 6440, 6438, 6446, 6448, 6441
3468, 6438, 6446, 6448, 6441, 6439, 4678, 6449, 6442
3469, 6440, 6447, 4671, 6443, 6441, 6448, 6450, 6444
3470, 6441, 6448, 6450, 6444, 6442, 6449, 4680, 6445
3471, 3464, 4678, 4680, 3465, 347, 4679, 4681, 3466
3472, 3456, 6443, 6454, 6451, 6436, 6444, 6455, 6452
3473, 6436, 6444, 6455, 6452, 3465, 6445, 6456, 6341
3474, 6451, 6454, 6457, 346, 6452, 6455, 6458, 6453
3475, 6452, 6455, 6458, 6453, 6341, 6456, 6459, 3467
3476, 6443, 4671, 6460, 6454, 6444, 6450, 6461, 6455
3477, 6444, 6450, 6461, 6455, 6445, 4680, 6462, 6456
3478, 6454, 6460, 4673, 6457, 6455, 6461, 6463, 6458
3479, 6455, 6461, 6463, 6458, 6456, 6462, 4682, 6459
3480, 3465, 4680, 4682, 3467, 3466, 4681, 4683, 348
3481, 4669, 6464, 6467, 6447, 6446, 6465, 6468, 6448
3482, 6446, 6465, 6468, 6448, 4678, 6466, 6469, 6449
3483, 6447, 6467, 6470, 4671, 6448, 6468, 6471, 6450
3484, 6448, 6468, 6471, 6450, 6449, 6469, 6472, 4680
3485, 6464, 393, 6474, 6467, 6465, 6473, 6475, 6468
3486, 6465, 6473, 6475, 6468, 6466, 4684, 6476, 6469
3487, 6467, 6474, 4676, 6470, 6468, 6475, 6477, 6471
3488, 6468, 6475, 6477, 6471, 6469, 6476, 4685, 6472
3489, 4678, 4684, 4685, 4680, 4679, 395, 4686, 4681
3490, 4671, 4676, 394, 4673, 4680, 4685, 4687, 4682
3491, 4680, 4685, 4687, 4682, 4681, 4686, 396, 4683
3492, 338, 1302, 1310, 1292, 1285, 1303, 1311, 1293
3493, 1285, 1303, 1311, 1293, 340, 1304, 1312, 1294
3494, 1292, 1310, 1313, 349, 1293, 1311, 1314, 1295
3495, 1293, 1311, 1314, 1295, 1294, 1312, 1315, 350
3496, 1302, 386, 1316, 1310, 1303, 1309, 1317, 1311
3497, 1303, 1309, 1317, 1311, 1304, 388, 1318, 1312
3498, 1310, 1316, 397, 1313, 1311, 1317, 1319, 1314
3499, 1311, 1317, 1319, 1314, 1312, 1318, 398, 1315
3500, 340, 1304, 1312, 1294, 1998, 2637, 2643, 2003
3501, 1998, 2637, 2643, 2003, 342, 2638, 2644, 2004
3502, 1294, 1312, 1315, 350, 2003, 2643, 2645, 2005
3503, 2003, 2643, 2645, 2005, 2004, 2644, 2646, 351
3504, 1304, 388, 1318, 1312, 2637, 2642, 2647, 2643
3505, 2637, 2642, 2647, 2643, 2638, 390, 2648, 2644
3506, 1312, 1318, 398, 1315, 2643, 2647, 2649, 2645
3507, 2643, 2647, 2649, 2645, 2644, 2648, 399, 2646
3508, 342, 2638, 2644, 2004, 2625, 3506, 3512, 2630
3509, 2625, 3506, 3512, 2630, 344, 3507, 3513, 2631
3510, 2004, 2644, 2646, 351, 2630, 3512, 3514, 2632
3511, 2630, 3512, 3514, 2632, 2631, 3513, 3515, 352
3512, 2638, 390, 2648, 2644, 3506, 3511, 3516, 3512
3513, 3506, 3511, 3516, 3512, 3507, 392, 3517, 3513
3514, 2644, 2648, 399, 2646, 3512, 3516, 3518, 3514
3515, 3512, 3516, 3518, 3514, 3513, 3517, 400, 3515
3516, 344, 3507, 3513, 2631, 3457, 4672, 4688, 3492
3517, 3457, 4672, 4688, 3492, 346, 4673, 4689, 3493
3518, 2631, 3513, 3515, 352, 3492, 4688, 4690, 3494
3519, 3492, 4688, 4690, 3494, 3493, 4689, 4691, 353
3520, 3507, 392, 3517, 3513, 4672, 4677, 4692, 4688
3521, 4672, 4677, 4692, 4688, 4673, 394, 4693, 4689
3522, 3513, 3517, 400, 3515, 4688, 4692, 4694, 4690
3523, 4688, 4692, 4694, 4690, 4689, 4693, 401, 4691
3524, 346, 6457, 6481, 6478, 6453, 6458, 6482, 6479
3525, 6453, 6458, 6482, 6479, 3467, 6459, 6483, 6365
3526, 6478, 6481, 6484, 3493, 6479, 6482, 6485, 6480
3527, 6479, 6482, 6485, 6480, 6365, 6483, 6486, 3499
3528, 6457, 4673, 6487, 6481, 6458, 6463, 6488, 6482
3529, 6458, 6463, 6488, 6482, 6459, 4682, 6489, 6483
3530, 6481, 6487, 4689, 6484, 6482, 6488, 6490, 6485
3531, 6482, 6488, 6490, 6485, 6483, 6489, 4695, 6486
3532, 3467, 4682, 4695, 3499, 348, 4683, 4696, 3500
3533, 3493, 6484, 6494, 6491, 6480, 6485, 6495, 6492
3534, 6480, 6485, 6495, 6492, 3499, 6486, 6496, 6375
3535, 6491, 6494, 6497, 353, 6492, 6495, 6498, 6493
3536, 6492, 6495, 6498, 6493, 6375, 6496, 6499, 3501
3537, 6484, 4689, 6500, 6494, 6485, 6490, 6501, 6495
3538, 6485, 6490, 6501, 6495, 6486, 4695, 6502, 6496
3539, 6494, 6500, 4691, 6497, 6495, 6501, 6503, 6498
3540, 6495, 6501, 6503, 6498, 6496, 6502, 4697, 6499
3541, 3499, 4695, 4697, 3501, 3500, 4696, 4698, 354
3542, 4673, 394, 4693, 4689, 4682, 4687, 4699, 4695
3543, 4682, 4687, 4699, 4695, 4683, 396, 4700, 4696
3544, 4689, 6504, 6507, 6500, 6490, 6505, 6508, 6501
3545, 6490, 6505, 6508, 6501, 4695, 6506, 6509, 6502
3546, 6500, 6507, 6510, 4691, 6501, 6508, 6511, 6503
3547, 6501, 6508, 6511, 6503, 6502, 6509, 6512, 4697
3548, 6504, 4693, 6514, 6507, 6505, 6513, 6515, 6508
3549, 6505, 6513, 6515, 6508, 6506, 4699, 6516, 6509
3550, 6507, 6514, 401, 6510, 6508, 6515, 6517, 6511
3551, 6508, 6515, 6517, 6511, 6509, 6516, 4701, 6512
3552, 4695, 4699, 4701, 4697, 4696, 4700, 402, 4698
3553, 355, 403, 404, 356, 357, 405, 406, 358
3554, 357, 405, 406, 358, 359, 407, 408, 360
3555, 356, 404, 409, 361, 358, 406, 410, 362
3556, 358, 406, 410, 362, 360, 408, 411, 363
3557, 361, 409, 412, 364, 362, 410, 413, 365
3558, 362, 410, 413, 365, 363, 411, 414, 366
3559, 364, 412, 395, 347, 365, 413, 415, 367
3560, 365, 413, 415, 367, 366, 414, 416, 368
3561, 347, 4679, 4681, 3466, 4657, 6518, 6520, 4658
3562, 4657, 6518, 6520, 4658, 367, 6519, 6521, 4659
3563, 3466, 4681, 4683, 348, 4658, 6520, 6522, 4660
3564, 4658, 6520, 6522, 4660, 4659, 6521, 6523, 369
3565, 4679, 395, 4686, 4681, 6518, 6524, 6525, 6520
3566, 6518, 6524, 6525, 6520, 6519, 415, 6526, 6521
3567, 4681, 4686, 396, 4683, 6520, 6525, 6527, 6522
3568, 6520, 6525, 6527, 6522, 6521, 6526, 417, 6523
3569, 367, 415, 417, 369, 368, 416, 418, 370
3570, 348, 4683, 4696, 3500, 4660, 6522, 6528, 4665
3571, 4660, 6522, 6528, 4665, 369, 6523, 6529, 4666
3572, 3500, 4696, 4698, 354, 4665, 6528, 6530, 4667
3573, 4665, 6528, 6530, 4667, 4666, 6529, 6531, 371
3574, 4683, 396, 4700, 4696, 6522, 6527, 6532, 6528
3575, 6522, 6527, 6532, 6528, 6523, 417, 6533, 6529
3576, 4696, 4700, 402, 4698, 6528, 6532, 6534, 6530
3577, 6528, 6532, 6534, 6530, 6529, 6533, 419, 6531
3578, 369, 417, 419, 371, 370, 418, 420, 372
3579, 354, 402, 421, 373, 371, 419, 422, 374
3580, 371, 419, 422, 374, 372, 420, 423, 375
3581, 373, 421, 424, 376, 374, 422, 425, 377
3582, 374, 422, 425, 377, 375, 423, 426, 378
3583, 376, 424, 427, 379, 377, 425, 428, 380
3584, 377, 425, 428, 380, 378, 426, 429, 381
3585, 379, 427, 430, 382, 380, 428, 431, 383
3586, 380, 428, 431, 383, 381, 429, 432, 384
3587, 385, 2006, 2009, 1306, 1305, 2007, 2010, 1307
3588, 1305, 2007, 2010, 1307, 387, 2008, 2011, 1308
3589, 1306, 2009, 2012, 386, 1307, 2010, 2013, 1309
3590, 1307, 2010, 2013, 1309, 1308, 2011, 2014, 388
3591, 2006, 433, 2016, 2009, 2007, 2015, 2017, 2010
3592, 2007, 2015, 2017, 2010, 2008, 435, 2018, 2011
3593, 2009, 2016, 434, 2012, 2010, 2017, 2019, 2013
3594, 2010, 2017, 2019, 2013, 2011, 2018, 436, 2014
3595, 387, 2008, 2011, 1308, 2639, 2650, 2652, 2640
3596, 2639, 2650, 2652, 2640, 389, 2651, 2653, 2641
3597, 1308, 2011, 2014, 388, 2640, 2652, 2654, 2642
3598, 2640, 2652, 2654, 2642, 2641, 2653, 2655, 390
3599, 2008, 435, 2018, 2011, 2650, 2656, 2657, 2652
3600, 2650, 2656, 2657, 2652, 2651, 437, 2658, 2653
3601, 2011, 2018, 436, 2014, 2652, 2657, 2659, 2654
3602, 2652, 2657, 2659, 2654, 2653, 2658, 438, 2655
3603, 389, 2651, 2653, 2641, 3508, 3519, 3521, 3509
3604, 3508, 3519, 3521, 3509, 391, 3520, 3522, 3510
3605, 2641, 2653, 2655, 390, 3509, 3521, 3523, 3511
3606, 3509, 3521, 3523, 3511, 3510, 3522, 3524, 392
3607, 2651, 437, 2658, 2653, 3519, 3525, 3526, 3521
3608, 3519, 3525, 3526, 3521, 3520, 439, 3527, 3522
3609, 2653, 2658, 438, 2655, 3521, 3526, 3528, 3523
3610, 3521, 3526, 3528, 3523, 3522, 3527, 440, 3524
3611, 391, 3520, 3522, 3510, 4674, 4702, 4704, 4675
3612, 4674, 4702, 4704, 4675, 393, 4703, 4705, 4676
3613, 3510, 3522, 3524, 392, 4675, 4704, 4706, 4677
3614, 4675, 4704, 4706, 4677, 4676, 4705, 4707, 394
3615, 3520, 439, 3527, 3522, 4702, 4708, 4709, 4704
3616, 4702, 4708, 4709, 4704, 4703, 441, 4710, 4705
3617, 3522, 3527, 440, 3524, 4704, 4709, 4711, 4706
3618, 4704, 4709, 4711, 4706, 4705, 4710, 442, 4707
3619, 393, 6535, 6538, 6474, 6473, 6536, 6539, 6475
3620, 6473, 6536, 6539, 6475, 4684, 6537, 6540, 6476
3621, 6474, 6538, 6541, 4676, 6475, 6539, 6542, 6477
3622, 6475, 6539, 6542, 6477, 6476, 6540, 6543, 4685
3623, 6535, 4703, 6545, 6538, 6536, 6544, 6546, 6539
3624, 6536, 6544, 6546, 6539, 6537, 4712, 6547, 6540
3625, 6538, 6545, 4705, 6541, 6539, 6546, 6548, 6542
3626, 6539, 6546, 6548, 6542, 6540, 6547, 4714, 6543
3627, 4684, 4712, 4714, 4685, 395, 4713, 4715, 4686
3628, 4676, 6541, 6553, 6549, 6477, 6542, 6554, 6550
3629, 6477, 6542, 6554, 6550, 4685, 6543, 6555, 6551
3630, 6549, 6553, 6556, 394, 6550, 6554, 6557, 6552
3631, 6550, 6554, 6557, 6552, 6551, 6555, 6558, 4687
3632, 6541, 4705, 6559, 6553, 6542, 6548, 6560, 6554
3633, 6542, 6548, 6560, 6554, 6543, 4714, 6561, 6555
3634, 6553, 6559, 4707, 6556, 6554, 6560, 6562, 6557
3635, 6554, 6560, 6562, 6557, 6555, 6561, 4716, 6558
3636, 4685, 4714, 4716, 4687, 4686, 4715, 4717, 396
3637, 4703, 441, 4710, 4705, 4712, 4718, 4719, 4714
3638, 4712, 4718, 4719, 4714, 4713, 443, 4720, 4715
3639, 4705, 4710, 442, 4707, 4714, 4719, 4721, 4716
3640, 4714, 4719, 4721, 4716, 4715, 4720, 444, 4717
3641, 386, 2012, 2020, 1316, 1309, 2013, 2021, 1317
3642, 1309, 2013, 2021, 1317, 388, 2014, 2022, 1318
3643, 1316, 2020, 2023, 397, 1317, 2021, 2024, 1319
3644, 1317, 2021, 2024, 1319, 1318, 2022, 2025, 398
3645, 2012, 434, 2026, 2020, 2013, 2019, 2027, 2021
3646, 2013, 2019, 2027, 2021, 2014, 436, 2028, 2022
3647, 2020, 2026, 445, 2023, 2021, 2027, 2029, 2024
3648, 2021, 2027, 2029, 2024, 2022, 2028, 446, 2025
3649, 388, 2014, 2022, 1318, 2642, 2654, 2660, 2647
3650, 2642, 2654, 2660, 2647, 390, 2655, 2661, 2648
3651, 1318, 2022, 2025, 398, 2647, 2660, 2662, 2649
3652, 2647, 2660, 2662, 2649, 2648, 2661, 2663, 399
3653, 2014, 436, 2028, 2022, 2654, 2659, 2664, 2660
3654, 2654, 2659, 2664, 2660, 2655, 438, 2665, 2661
3655, 2022, 2028, 446, 2025, 2660, 2664, 2666, 2662
3656, 2660, 2664, 2666, 2662, 2661, 2665, 447, 2663
3657, 390, 2655, 2661, 2648, 3511, 3523, 3529, 3516
3658, 3511, 3523, 3529, 3516, 392, 3524, 3530, 3517
3659, 2648, 2661, 2663, 399, 3516, 3529, 3531, 3518
3660, 3516, 3529, 3531, 3518, 3517, 3530, 3532, 400
3661, 2655, 438, 2665, 2661, 3523, 3528, 3533, 3529
3662, 3523, 3528, 3533, 3529, 3524, 440, 3534, 3530
3663, 2661, 2665, 447, 2663, 3529, 3533, 3535, 3531
3664, 3529, 3533, 3535, 3531, 3530, 3534, 448, 3532
3665, 392, 3524, 3530, 3517, 4677, 4706, 4722, 4692
3666, 4677, 4706, 4722, 4692, 394, 4707, 4723, 4693
3667, 3517, 3530, 3532, 400, 4692, 4722, 4724, 4694
3668, 4692, 4722, 4724, 4694, 4693, 4723, 4725, 401
3669, 3524, 440, 3534, 3530, 4706, 4711, 4726, 4722
3670, 4706, 4711, 4726, 4722, 4707, 442, 4727, 4723
3671, 3530, 3534, 448, 3532, 4722, 4726, 4728, 4724
3672, 4722, 4726, 4728, 4724, 4723, 4727, 449, 4725
3673, 394, 6556, 6566, 6563, 6552, 6557, 6567, 6564
3674, 6552, 6557, 6567, 6564, 4687, 6558, 6568, 6565
3675, 6563, 6566, 6569, 4693, 6564, 6567, 6570, 6513
3676, 6564, 6567, 6570, 6513, 6565, 6568, 6571, 4699
3677, 6556, 4707, 6572, 6566, 6557, 6562, 6573, 6567
3678, 6557, 6562, 6573, 6567, 6558, 4716, 6574, 6568
3679, 6566, 6572, 4723, 6569, 6567, 6573, 6575, 6570
3680, 6567, 6573, 6575, 6570, 6568, 6574, 4729, 6571
3681, 4687, 4716, 4729, 4699, 396, 4717, 4730, 4700
3682, 4693, 6569, 6576, 6514, 6513, 6570, 6577, 6515
3683, 6513, 6570, 6577, 6515, 4699, 6571, 6578, 6516
3684, 6514, 6576, 6579, 401, 6515, 6577, 6580, 6517
3685, 6515, 6577, 6580, 6517, 6516, 6578, 6581, 4701
3686, 6569, 4723, 6582, 6576, 6570, 6575, 6583, 6577
3687, 6570, 6575, 6583, 6577, 6571, 4729, 6584, 6578
3688, 6576, 6582, 4725, 6579, 6577, 6583, 6585, 6580
3689, 6577, 6583, 6585, 6580, 6578, 6584, 4731, 6581
3690, 4699, 4729, 4731, 4701, 4700, 4730, 4732, 402
3691, 4707, 442, 4727, 4723, 4716, 4721, 4733, 4729
3692, 4716, 4721, 4733, 4729, 4717, 444, 4734, 4730
3693, 4723, 4727, 449, 4725, 4729, 4733, 4735, 4731
3694, 4729, 4733, 4735, 4731, 4730, 4734, 450, 4732
3695, 403, 451, 452, 404, 405, 453, 454, 406
3696, 405, 453, 454, 406, 407, 455, 456, 408
3697, 404, 452, 457, 409, 406, 454, 458, 410
3698, 406, 454, 458, 410, 408, 456, 459, 411
3699, 409, 457, 460, 412, 410, 458, 461, 413
3700, 410, 458, 461, 413, 411, 459, 462, 414
3701, 412, 460, 443, 395, 413, 461, 463, 415
3702, 413, 461, 463, 415, 414, 462, 464, 416
3703, 395, 4713, 4715, 4686, 6524, 6586, 6588, 6525
3704, 6524, 6586, 6588, 6525, 415, 6587, 6589, 6526
3705, 4686, 4715, 4717, 396, 6525, 6588, 6590, 6527
3706, 6525, 6588, 6590, 6527, 6526, 6589, 6591, 417
3707, 4713, 443, 4720, 4715, 6586, 6592, 6593, 6588
3708, 6586, 6592, 6593, 6588, 6587, 463, 6594, 6589
3709, 4715, 4720, 444, 4717, 6588, 6593, 6595, 6590
3710, 6588, 6593, 6595, 6590, 6589, 6594, 465, 6591
3711, 415, 463, 465, 417, 416, 464, 466, 418
3712, 396, 4717, 4730, 4700, 6527, 6590, 6596, 6532
3713, 6527, 6590, 6596, 6532, 417, 6591, 6597, 6533
3714, 4700, 4730, 4732, 402, 6532, 6596, 6598, 6534
3715, 6532, 6596, 6598, 6534, 6533, 6597, 6599, 419
3716, 4717, 444, 4734, 4730, 6590, 6595, 6600, 6596
3717, 6590, 6595, 6600, 6596, 6591, 465, 6601, 6597
3718, 4730, 4734, 450, 4732, 6596, 6600, 6602, 6598
3719, 6596, 6600, 6602, 6598, 6597, 6601, 467, 6599
3720, 417, 465, 467, 419, 418, 466, 468, 420
3721, 402, 450, 469, 421, 419, 467, 470, 422
3722, 419, 467, 470, 422, 420, 468, 471, 423
3723, 421, 469, 472, 424, 422, 470, 473, 425
3724, 422, 470, 473, 425, 423, 471, 474, 426
3725, 424, 472, 475, 427, 425, 473, 476, 428
3726, 425, 473, 476, 428, 426, 474, 477, 429
3727, 427, 475, 478, 430, 428, 476, 479, 431
3728, 428, 476, 479, 431, 429, 477, 480, 432
3729, 433, 2667, 2670, 2016, 2015, 2668, 2671, 2017
3730, 2015, 2668, 2671, 2017, 435, 2669, 2672, 2018
3731, 2016, 2670, 2673, 434, 2017, 2671, 2674, 2019
3732, 2017, 2671, 2674, 2019, 2018, 2672, 2675, 436
3733, 2667, 481, 2677, 2670, 2668, 2676, 2678, 2671
3734, 2668, 2676, 2678, 2671, 2669, 483, 2679, 2672
3735, 2670, 2677, 482, 2673, 2671, 2678, 2680, 2674
3736, 2671, 2678, 2680, 2674, 2672, 2679, 484, 2675
3737, 435, 2669, 2672, 2018, 2656, 3536, 3538, 2657
3738, 2656, 3536, 3538, 2657, 437, 3537, 3539, 2658
3739, 2018, 2672, 2675, 436, 2657, 3538, 3540, 2659
3740, 2657, 3538, 3540, 2659, 2658, 3539, 3541, 438
3741, 2669, 483, 2679, 2672, 3536, 3542, 3543, 3538
3742, 3536, 3542, 3543, 3538, 3537, 485, 3544, 3539
3743, 2672, 2679, 484, 2675, 3538, 3543, 3545, 3540
3744, 3538, 3543, 3545, 3540, 3539, 3544, 486, 3541
3745, 437, 3537, 3539, 2658, 3525, 4736, 4738, 3526
3746, 3525, 4736, 4738, 3526, 439, 4737, 4739, 3527
3747, 2658, 3539, 3541, 438, 3526, 4738, 4740, 3528
3748, 3526, 4738, 4740, 3528, 3527, 4739, 4741, 440
3749, 3537, 485, 3544, 3539, 4736, 4742, 4743, 4738
3750, 4736, 4742, 4743, 4738, 4737, 487, 4744, 4739
3751, 3539, 3544, 486, 3541, 4738, 4743, 4745, 4740
3752, 4738, 4743, 4745, 4740, 4739, 4744, 488, 4741
3753, 439, 4737, 4739, 3527, 4708, 6603, 6605, 4709
3754, 4708, 6603, 6605, 4709, 441, 6604, 6606, 4710
3755, 3527, 4739, 4741, 440, 4709, 6605, 6607, 4711
3756, 4709, 6605, 6607, 4711, 4710, 6606, 6608, 442
3757, 4737, 487, 4744, 4739, 6603, 6609, 6610, 6605
3758, 6603, 6609, 6610, 6605, 6604, 489, 6611, 6606
3759, 4739, 4744, 488, 4741, 6605, 6610, 6612, 6607
3760, 6605, 6610, 6612, 6607, 6606, 6611, 490, 6608
3761, 441, 6604, 6606, 4710, 4718, 6613, 6615, 4719
3762, 4718, 6613, 6615, 4719, 443, 6614, 6616, 4720
3763, 4710, 6606, 6608, 442, 4719, 6615, 6617, 4721
3764, 4719, 6615, 6617, 4721, 4720, 6616, 6618, 444
3765, 6604, 489, 6611, 6606, 6613, 6619, 6620, 6615
3766, 6613, 6619, 6620, 6615, 6614, 491, 6621, 6616
3767, 6606, 6611, 490, 6608, 6615, 6620, 6622, 6617
3768, 6615, 6620, 6622, 6617, 6616, 6621, 492, 6618
3769, 434, 2673, 2681, 2026, 2019, 2674, 2682, 2027
3770, 2019, 2674, 2682, 2027, 436, 2675, 2683, 2028
3771, 2026, 2681, 2684, 445, 2027, 2682, 2685, 2029
3772, 2027, 2682, 2685, 2029, 2028, 2683, 2686, 446
3773, 2673, 482, 2687, 2681, 2674, 2680, 2688, 2682
3774, 2674, 2680, 2688, 2682, 2675, 484, 2689, 2683
3775, 2681, 2687, 493, 2684, 2682, 2688, 2690, 2685
3776, 2682, 2688, 2690, 2685, 2683, 2689, 494, 2686
3777, 436, 2675, 2683, 2028, 2659, 3540, 3546, 2664
3778, 2659, 3540, 3546, 2664, 438, 3541, 3547, 2665
3779, 2028, 2683, 2686, 446, 2664, 3546, 3548, 2666
3780, 2664, 3546, 3548, 2666, 2665, 3547, 3549, 447
3781, 2675, 484, 2689, 2683, 3540, 3545, 3550, 3546
3782, 3540, 3545, 3550, 3546, 3541, 486, 3551, 3547
3783, 2683, 2689, 494, 2686, 3546, 3550, 3552, 3548
3784, 3546, 3550, 3552, 3548, 3547, 3551, 495, 3549
3785, 438, 3541, 3547, 2665, 3528, 4740, 4746, 3533
3786, 3528, 4740, 4746, 3533, 440, 4741, 4747, 3534
3787, 2665, 3547, 3549, 447, 3533, 4746, 4748, 3535
3788, 3533, 4746, 4748, 3535, 3534, 4747, 4749, 448
3789, 3541, 486, 3551, 3547, 4740, 4745, 4750, 4746
3790, 4740, 4745, 4750, 4746, 4741, 488, 4751, 4747
3791, 3547, 3551, 495, 3549, 4746, 4750, 4752, 4748
3792, 4746, 4750, 4752, 4748, 4747, 4751, 496, 4749
3793, 440, 4741, 4747, 3534, 4711, 6607, 6623, 4726
3794, 4711, 6607, 6623, 4726, 442, 6608, 6624, 4727
3795, 3534, 4747, 4749, 448, 4726, 6623, 6625, 4728
3796, 4726, 6623, 6625, 4728, 4727, 6624, 6626, 449
3797, 4741, 488, 4751, 4747, 6607, 6612, 6627, 6623
3798, 6607, 6612, 6627, 6623, 6608, 490, 6628, 6624
3799, 4747, 4751, 496, 4749, 6623, 6627, 6629, 6625
3800, 6623, 6627, 6629, 6625, 6624, 6628, 497, 6626
3801, 442, 6608, 6624, 4727, 4721, 6617, 6630, 4733
3802, 4721, 6617, 6630, 4733, 444, 6618, 6631, 4734
3803, 4727, 6624, 6626, 449, 4733, 6630, 6632, 4735
3804, 4733, 6630, 6632, 4735, 4734, 6631, 6633, 450
3805, 6608, 490, 6628, 6624, 6617, 6622, 6634, 6630
3806, 6617, 6622, 6634, 6630, 6618, 492, 6635, 6631
3807, 6624, 6628, 497, 6626, 6630, 6634, 6636, 6632
3808, 6630, 6634, 6636, 6632, 6631, 6635, 498, 6633
3809, 451, 499, 500, 452, 453, 501, 502, 454
3810, 453, 501, 502, 454, 455, 503, 504, 456
3811, 452, 500, 505, 457, 454, 502, 506, 458
3812, 454, 502, 506, 458, 456, 504, 507, 459
3813, 457, 505, 508, 460, 458, 506, 509, 461
3814, 458, 506, 509, 461, 459, 507, 510, 462
3815, 460, 508, 491, 443, 461, 509, 511, 463
3816, 461, 509, 511, 463, 462, 510, 512, 464
3817, 443, 491, 492, 444, 463, 511, 513, 465
3818, 463, 511, 513, 465, 464, 512, 514, 466
3819, 444, 492, 498, 450, 465, 513, 515, 467
3820, 465, 513, 515, 467, 466, 514, 516, 468
3821, 450, 498, 517, 469, 467, 515, 518, 470
3822, 467, 515, 518, 470, 468, 516, 519, 471
3823, 469, 517, 520, 472, 470, 518, 521, 473
3824, 470, 518, 521, 473, 471, 519, 522, 474
3825, 472, 520, 523, 475, 473, 521, 524, 476
3826, 473, 521, 524, 476, 474, 522, 525, 477
3827, 475, 523, 526, 478, 476, 524, 527, 479
3828, 476, 524, 527, 479, 477, 525, 528, 480
3829, 481, 3553, 3556, 2677, 2676, 3554, 3557, 2678
3830, 2676, 3554, 3557, 2678, 483, 3555, 3558, 2679
3831, 2677, 3556, 3559, 482, 2678, 3557, 3560, 2680
3832, 2678, 3557, 3560, 2680, 2679, 3558, 3561, 484
3833, 3553, 529, 3563, 3556, 3554, 3562, 3564, 3557
3834, 3554, 3562, 3564, 3557, 3555, 531, 3565, 3558
3835, 3556, 3563, 530, 3559, 3557, 3564, 3566, 3560
3836, 3557, 3564, 3566, 3560, 3558, 3565, 532, 3561
3837, 483, 3555, 3558, 2679, 3542, 4753, 4755, 3543
3838, 3542, 4753, 4755, 3543, 485, 4754, 4756, 3544
3839, 2679, 3558, 3561, 484, 3543, 4755, 4757, 3545
3840, 3543, 4755, 4757, 3545, 3544, 4756, 4758, 486
3841, 3555, 531, 3565, 3558, 4753, 4759, 4760, 4755
3842, 4753, 4759, 4760, 4755, 4754, 533, 4761, 4756
3843, 3558, 3565, 532, 3561, 4755, 4760, 4762, 4757
3844, 4755, 4760, 4762, 4757, 4756, 4761, 534, 4758
3845, 485, 4754, 4756, 3544, 4742, 6637, 6639, 4743
3846, 4742, 6637, 6639, 4743, 487, 6638, 6640, 4744
3847, 3544, 4756, 4758, 486, 4743, 6639, 6641, 4745
3848, 4743, 6639, 6641, 4745, 4744, 6640, 6642, 488
3849, 4754, 533, 4761, 4756, 6637, 6643, 6644, 6639
3850, 6637, 6643, 6644, 6639, 6638, 535, 6645, 6640
3851, 4756, 4761, 534, 4758, 6639, 6644, 6646, 6641
3852, 6639, 6644, 6646, 6641, 6640, 6645, 536, 6642
3853, 487, 535, 536, 488, 489, 537, 538, 490
3854, 489, 537, 538, 490, 491, 539, 540, 492
3855, 482, 3559, 3567, 2687, 2680, 3560, 3568, 2688
3856, 2680, 3560, 3568, 2688, 484, 3561, 3569, 2689
3857, 2687, 3567, 3570, 493, 2688, 3568, 3571, 2690
3858, 2688, 3568, 3571, 2690, 2689, 3569, 3572, 494
3859, 3559, 530, 3573, 3567, 3560, 3566, 3574, 3568
3860, 3560, 3566, 3574, 3568, 3561, 532, 3575, 3569
3861, 3567, 3573, 541, 3570, 3568, 3574, 3576, 3571
3862, 3568, 3574, 3576, 3571, 3569, 3575, 542, 3572
3863, 484, 3561, 3569, 2689, 3545, 4757, 4763, 3550
3864, 3545, 4757, 4763, 3550, 486, 4758, 4764, 3551
3865, 2689, 3569, 3572, 494, 3550, 4763, 4765, 3552
3866, 3550, 4763, 4765, 3552, 3551, 4764, 4766, 495
3867, 3561, 532, 3575, 3569, 4757, 4762, 4767, 4763
3868, 4757, 4762, 4767, 4763, 4758, 534, 4768, 4764
3869, 3569, 3575, 542, 3572, 4763, 4767, 4769, 4765
3870, 4763, 4767, 4769, 4765, 4764, 4768, 543, 4766
3871, 486, 4758, 4764, 3551, 4745, 6641, 6647, 4750
3872, 4745, 6641, 6647, 4750, 488, 6642, 6648, 4751
3873, 3551, 4764, 4766, 495, 4750, 6647, 6649, 4752
3874, 4750, 6647, 6649, 4752, 4751, 6648, 6650, 496
3875, 4758, 534, 4768, 4764, 6641, 6646, 6651, 6647
3876, 6641, 6646, 6651, 6647, 6642, 536, 6652, 6648
3877, 4764, 4768, 543, 4766, 6647, 6651, 6653, 6649
3878, 6647, 6651, 6653, 6649, 6648, 6652, 544, 6650
3879, 488, 536, 544, 496, 490, 538, 545, 497
3880, 490, 538, 545, 497, 492, 540, 546, 498
3881, 499, 547, 548, 500, 501, 549, 550, 502
3882, 501, 549, 550, 502, 503, 551, 552, 504
3883, 500, 548, 553, 505, 502, 550, 554, 506
3884, 502, 550, 554, 506, 504, 552, 555, 507
3885, 505, 553, 556, 508, 506, 554, 557, 509
3886, 506, 554, 557, 509, 507, 555, 558, 510
3887, 508, 556, 539, 491, 509, 557, 559, 511
3888, 509, 557, 559, 511, 510, 558, 560, 512
3889, 491, 539, 540, 492, 511, 559, 561, 513
3890, 511, 559, 561, 513, 512, 560, 562, 514
3891, 492, 540, 546, 498, 513, 561, 563, 515
3892, 513, 561, 563, 515, 514, 562, 564, 516
3893, 498, 546, 565, 517, 515, 563, 566, 518
3894, 515, 563, 566, 518, 516, 564, 567, 519
3895, 517, 565, 568, 520, 518, 566, 569, 521
3896, 518, 566, 569, 521, 519, 567, 570, 522
3897, 520, 568, 571, 523, 521, 569, 572, 524
3898, 521, 569, 572, 524, 522, 570, 573, 525
3899, 523, 571, 574, 526, 524, 572, 575, 527
3900, 524, 572, 575, 527, 525, 573, 576, 528
3901, 529, 3577, 3580, 3563, 3562, 3578, 3581, 3564
3902, 3562, 3578, 3581, 3564, 531, 3579, 3582, 3565
3903, 3563, 3580, 3583, 530, 3564, 3581, 3584, 3566
3904, 3564, 3581, 3584, 3566, 3565, 3582, 3585, 532
3905, 3577, 577, 3587, 3580, 3578, 3586, 3588, 3581
3906, 3578, 3586, 3588, 3581, 3579, 579, 3589, 3582
3907, 3580, 3587, 578, 3583, 3581, 3588, 3590, 3584
3908, 3581, 3588, 3590, 3584, 3582, 3589, 580, 3585
3909, 531, 3579, 3582, 3565, 4759, 4770, 4772, 4760
3910, 4759, 4770, 4772, 4760, 533, 4771, 4773, 4761
3911, 3565, 3582, 3585, 532, 4760, 4772, 4774, 4762
3912, 4760, 4772, 4774, 4762, 4761, 4773, 4775, 534
3913, 3579, 579, 3589, 3582, 4770, 4776, 4777, 4772
3914, 4770, 4776, 4777, 4772, 4771, 581, 4778, 4773
3915, 3582, 3589, 580, 3585, 4772, 4777, 4779, 4774
3916, 4772, 4777, 4779, 4774, 4773, 4778, 582, 4775
3917, 533, 4771, 4773, 4761, 6643, 6654, 6656, 6644
3918, 6643, 6654, 6656, 6644, 535, 6655, 6657, 6645
3919, 4761, 4773, 4775, 534, 6644, 6656, 6658, 6646
3920, 6644, 6656, 6658, 6646, 6645, 6657, 6659, 536
3921, 4771, 581, 4778, 4773, 6654, 6660, 6661, 6656
3922, 6654, 6660, 6661, 6656, 6655, 583, 6662, 6657
3923, 4773, 4778, 582, 4775, 6656, 6661, 6663, 6658
3924, 6656, 6661, 6663, 6658, 6657, 6662, 584, 6659
3925, 535, 583, 584, 536, 537, 585, 586, 538
3926, 537, 585, 586, 538, 539, 587, 588, 540
3927, 530, 3583, 3591, 3573, 3566, 3584, 3592, 3574
3928, 3566, 3584, 3592, 3574, 532, 3585, 3593, 3575
3929, 3573, 3591, 3594, 541, 3574, 3592, 3595, 3576
3930, 3574, 3592, 3595, 3576, 3575, 3593, 3596, 542
3931, 3583, 578, 3597, 3591, 3584, 3590, 3598, 3592
3932, 3584, 3590, 3598, 3592, 3585, 580, 3599, 3593
3933, 3591, 3597, 589, 3594, 3592, 3598, 3600, 3595
3934, 3592, 3598, 3600, 3595, 3593, 3599, 590, 3596
3935, 532, 3585, 3593, 3575, 4762, 4774, 4780, 4767
3936, 4762, 4774, 4780, 4767, 534, 4775, 4781, 4768
3937, 3575, 3593, 3596, 542, 4767, 4780, 4782, 4769
3938, 4767, 4780, 4782, 4769, 4768, 4781, 4783, 543
3939, 3585, 580, 3599, 3593, 4774, 4779, 4784, 4780
3940, 4774, 4779, 4784, 4780, 4775, 582, 4785, 4781
3941, 3593, 3599, 590, 3596, 4780, 4784, 4786, 4782
3942, 4780, 4784, 4786, 4782, 4781, 4785, 591, 4783
3943, 534, 4775, 4781, 4768, 6646, 6658, 6664, 6651
3944, 6646, 6658, 6664, 6651, 536, 6659, 6665, 6652
3945, 4768, 4781, 4783, 543, 6651, 6664, 6666, 6653
3946, 6651, 6664, 6666, 6653, 6652, 6665, 6667, 544
3947, 4775, 582, 4785, 4781, 6658, 6663, 6668, 6664
3948, 6658, 6663, 6668, 6664, 6659, 584, 6669, 6665
3949, 4781, 4785, 591, 4783, 6664, 6668, 6670, 6666
3950, 6664, 6668, 6670, 6666, 6665, 6669, 592, 6667
3951, 536, 584, 592, 544, 538, 586, 593, 545
3952, 538, 586, 593, 545, 540, 588, 594, 546
3953, 547, 595, 596, 548, 549, 597, 598, 550
3954, 549, 597, 598, 550, 551, 599, 600, 552
3955, 548, 596, 601, 553, 550, 598, 602, 554
3956, 550, 598, 602, 554, 552, 600, 603, 555
3957, 553, 601, 604, 556, 554, 602, 605, 557
3958, 554, 602, 605, 557, 555, 603, 606, 558
3959, 556, 604, 587, 539, 557, 605, 607, 559
3960, 557, 605, 607, 559, 558, 606, 608, 560
3961, 539, 587, 588, 540, 559, 607, 609, 561
3962, 559, 607, 609, 561, 560, 608, 610, 562
3963, 540, 588, 594, 546, 561, 609, 611, 563
3964, 561, 609, 611, 563, 562, 610, 612, 564
3965, 546, 594, 613, 565, 563, 611, 614, 566
3966, 563, 611, 614, 566, 564, 612, 615, 567
3967, 565, 613, 616, 568, 566, 614, 617, 569
3968, 566, 614, 617, 569, 567, 615, 618, 570
3969, 568, 616, 619, 571, 569, 617, 620, 572
3970, 569, 617, 620, 572, 570, 618, 621, 573
3971, 571, 619, 622, 574, 572, 620, 623, 575
3972, 572, 620, 623, 575, 573, 621, 624, 576
3973, 577, 3601, 3604, 3587, 3586, 3602, 3605, 3588
3974, 3586, 3602, 3605, 3588, 579, 3603, 3606, 3589
3975, 3587, 3604, 3607, 578, 3588, 3605, 3608, 3590
3976, 3588, 3605, 3608, 3590, 3589, 3606, 3609, 580
3977, 3601, 625, 3611, 3604, 3602, 3610, 3612, 3605
3978, 3602, 3610, 3612, 3605, 3603, 627, 3613, 3606
3979, 3604, 3611, 626, 3607, 3605, 3612, 3614, 3608
3980, 3605, 3612, 3614, 3608, 3606, 3613, 628, 3609
3981, 579, 3603, 3606, 3589, 4776, 6671, 6673, 4777
3982, 4776, 6671, 6673, 4777, 581, 6672, 6674, 4778
3983, 3589, 3606, 3609, 580, 4777, 6673, 6675, 4779
3984, 4777, 6673, 6675, 4779, 4778, 6674, 6676, 582
3985, 3603, 627, 3613, 3606, 6671, 6677, 6678, 6673
3986, 6671, 6677, 6678, 6673, 6672, 629, 6679, 6674
3987, 3606, 3613, 628, 3609, 6673, 6678, 6680, 6675
3988, 6673, 6678, 6680, 6675, 6674, 6679, 630, 6676
3989, 581, 629, 630, 582, 583, 631, 632, 584
3990, 583, 631, 632, 584, 585, 633, 634, 586
3991, 585, 633, 634, 586, 587, 635, 636, 588
3992, 578, 3607, 3615, 3597, 3590, 3608, 3616, 3598
3993, 3590, 3608, 3616, 3598, 580, 3609, 3617, 3599
3994, 3597, 3615, 3618, 589, 3598, 3616, 3619, 3600
3995, 3598, 3616, 3619, 3600, 3599, 3617, 3620, 590
3996, 3607, 626, 3621, 3615, 3608, 3614, 3622, 3616
3997, 3608, 3614, 3622, 3616, 3609, 628, 3623, 3617
3998, 3615, 3621, 637, 3618, 3616, 3622, 3624, 3619
3999, 3616, 3622, 3624, 3619, 3617, 3623, 638, 3620
4000, 580, 3609, 3617, 3599, 4779, 6675, 6681, 4784
4001, 4779, 6675, 6681, 4784, 582, 6676, 6682, 4785
4002, 3599, 3617, 3620, 590, 4784, 6681, 6683, 4786
4003, 4784, 6681, 6683, 4786, 4785, 6682, 6684, 591
4004, 3609, 628, 3623, 3617, 6675, 6680, 6685, 6681
4005, 6675, 6680, 6685, 6681, 6676, 630, 6686, 6682
4006, 3617, 3623, 638, 3620, 6681, 6685, 6687, 6683
4007, 6681, 6685, 6687, 6683, 6682, 6686, 639, 6684
4008, 582, 630, 639, 591, 584, 632, 640, 592
4009, 584, 632, 640, 592, 586, 634, 641, 593
4010, 586, 634, 641, 593, 588, 636, 642, 594
4011, 595, 643, 644, 596, 597, 645, 646, 598
4012, 597, 645, 646, 598, 599, 647, 648, 600
4013, 596, 644, 649, 601, 598, 646, 650, 602
4014, 598, 646, 650, 602, 600, 648, 651, 603
4015, 601, 649, 652, 604, 602, 650, 653, 605
4016, 602, 650, 653, 605, 603, 651, 654, 606
4017, 604, 652, 635, 587, 605, 653, 655, 607
4018, 605, 653, 655, 607, 606, 654, 656, 608
4019, 587, 635, 636, 588, 607, 655, 657, 609
4020, 607, 655, 657, 609, 608, 656, 658, 610
4021, 588, 636, 642, 594, 609, 657, 659, 611
4022, 609, 657, 659, 611, 610, 658, 660, 612
4023, 594, 642, 661, 613, 611, 659, 662, 614
4024, 611, 659, 662, 614, 612, 660, 663, 615
4025, 613, 661, 664, 616, 614, 662, 665, 617
4026, 614, 662, 665, 617, 615, 663, 666, 618
4027, 616, 664, 667, 619, 617, 665, 668, 620
4028, 617, 665, 668, 620, 618, 666, 669, 621
4029, 619, 667, 670, 622, 620, 668, 671, 623
4030, 620, 668, 671, 623, 621, 669, 672, 624
4031, 625, 4787, 4790, 3611, 3610, 4788, 4791, 3612
4032, 3610, 4788, 4791, 3612, 627, 4789, 4792, 3613
4033, 3611, 4790, 4793, 626, 3612, 4791, 4794, 3614
4034, 3612, 4791, 4794, 3614, 3613, 4792, 4795, 628
4035, 4787, 673, 4797, 4790, 4788, 4796, 4798, 4791
4036, 4788, 4796, 4798, 4791, 4789, 675, 4799, 4792
4037, 4790, 4797, 674, 4793, 4791, 4798, 4800, 4794
4038, 4791, 4798, 4800, 4794, 4792, 4799, 676, 4795
4039, 627, 675, 676, 628, 629, 677, 678, 630
4040, 629, 677, 678, 630, 631, 679, 680, 632
4041, 631, 679, 680, 632, 633, 681, 682, 634
4042, 633, 681, 682, 634, 635, 683, 684, 636
4043, 626, 4793, 4801, 3621, 3614, 4794, 4802, 3622
4044, 3614, 4794, 4802, 3622, 628, 4795, 4803, 3623
4045, 3621, 4801, 4804, 637, 3622, 4802, 4805, 3624
4046, 3622, 4802, 4805, 3624, 3623, 4803, 4806, 638
4047, 4793, 674, 4807, 4801, 4794, 4800, 4808, 4802
4048, 4794, 4800, 4808, 4802, 4795, 676, 4809, 4803
4049, 4801, 4807, 685, 4804, 4802, 4808, 4810, 4805
4050, 4802, 4808, 4810, 4805, 4803, 4809, 686, 4806
4051, 628, 676, 686, 638, 630, 678, 687, 639
4052, 630, 678, 687, 639, 632, 680, 688, 640
4053, 632, 680, 688, 640, 634, 682, 689, 641
4054, 634, 682, 689, 641, 636, 684, 690, 642
4055, 643, 691, 692, 644, 645, 693, 694, 646
4056, 645, 693, 694, 646, 647, 695, 696, 648
4057, 644, 692, 697, 649, 646, 694, 698, 650
4058, 646, 694, 698, 650, 648, 696, 699, 651
4059, 649, 697, 700, 652, 650, 698, 701, 653
4060, 650, 698, 701, 653, 651, 699, 702, 654
4061, 652, 700, 683, 635, 653, 701, 703, 655
4062, 653, 701, 703, 655, 654, 702, 704, 656
4063, 635, 683, 684, 636, 655, 703, 705, 657
4064, 655, 703, 705, 657, 656, 704, 706, 658
4065, 636, 684, 690, 642, 657, 705, 707, 659
4066, 657, 705, 707, 659, 658, 706, 708, 660
4067, 642, 690, 709, 661, 659, 707, 710, 662
4068, 659, 707, 710, 662, 660, 708, 711, 663
4069, 661, 709, 712, 664, 662, 710, 713, 665
4070, 662, 710, 713, 665, 663, 711, 714, 666
4071, 664, 712, 715, 667, 665, 713, 716, 668
4072, 665, 713, 716, 668, 666, 714, 717, 669
4073, 667, 715, 718, 670, 668, 716, 719, 671
4074, 668, 716, 719, 671, 669, 717, 720, 672
4075, 673, 6688, 6691, 4797, 4796, 6689, 6692, 4798
4076, 4796, 6689, 6692, 4798, 675, 6690, 6693, 4799
4077, 4797, 6691, 6694, 674, 4798, 6692, 6695, 4800
4078, 4798, 6692, 6695, 4800, 4799, 6693, 6696, 676
4079, 6688, 721, 6698, 6691, 6689, 6697, 6699, 6692
4080, 6689, 6697, 6699, 6692, 6690, 723, 6700, 6693
4081, 6691, 6698, 722, 6694, 6692, 6699, 6701, 6695
4082, 6692, 6699, 6701, 6695, 6693, 6700, 724, 6696
4083, 675, 723, 724, 676, 677, 725, 726, 678
4084, 677, 725, 726, 678, 679, 727, 728, 680
4085, 679, 727, 728, 680, 681, 729, 730, 682
4086, 681, 729, 730, 682, 683, 731, 732, 684
4087, 674, 6694, 6702, 4807, 4800, 6695, 6703, 4808
4088, 4800, 6695, 6703, 4808, 676, 6696, 6704, 4809
4089, 4807, 6702, 6705, 685, 4808, 6703, 6706, 4810
4090, 4808, 6703, 6706, 4810, 4809, 6704, 6707, 686
4091, 6694, 722, 6708, 6702, 6695, 6701, 6709, 6703
4092, 6695, 6701, 6709, 6703, 6696, 724, 6710, 6704
4093, 6702, 6708, 733, 6705, 6703, 6709, 6711, 6706
4094, 6703, 6709, 6711, 6706, 6704, 6710, 734, 6707
4095, 676, 724, 734, 686, 678, 726, 735, 687
4096, 678, 726, 735, 687, 680, 728, 736, 688
4097, 680, 728, 736, 688, 682, 730, 737, 689
4098, 682, 730, 737, 689, 684, 732, 738, 690
4099, 691, 739, 740, 692, 693, 741, 742, 694
4100, 693, 741, 742, 694, 695, 743, 744, 696
4101, 692, 740, 745, 697, 694, 742, 746, 698
4102, 694, 742, 746, 698, 696, 744, 747, 699
4103, 697, 745, 748, 700, 698, 746, 749, 701
4104, 698, 746, 749, 701, 699, 747, 750, 702
4105, 700, 748, 731, 683, 701, 749, 751, 703
4106, 701, 749, 751, 703, 702, 750, 752, 704
4107, 683, 731, 732, 684, 703, 751, 753, 705
4108, 703, 751, 753, 705, 704, 752, 754, 706
4109, 684, 732, 738, 690, 705, 753, 755, 707
4110, 705, 753, 755, 707, 706, 754, 756, 708
4111, 690, 738, 757, 709, 707, 755, 758, 710
4112, 707, 755, 758, 710, 708, 756, 759, 711
4113, 709, 757, 760, 712, 710, 758, 761, 713
4114, 710, 758, 761, 713, 711, 759, 762, 714
4115, 712, 760, 763, 715, 713, 761, 764, 716
4116, 713, 761, 764, 716, 714, 762, 765, 717
4117, 715, 763, 766, 718, 716, 764, 767, 719
4118, 716, 764, 767, 719, 717, 765, 768, 720
4119, 721, 769, 770, 722, 723, 771, 772, 724
4120, 723, 771, 772, 724, 725, 773, 774, 726
4121, 725, 773, 774, 726, 727, 775, 776, 728
4122, 727, 775, 776, 728, 729, 777, 778, 730
4123, 729, 777, 778, 730, 731, 779, 780, 732
4124, 722, 770, 781, 733, 724, 772, 782, 734
4125, 724, 772, 782, 734, 726, 774, 783, 735
4126, 726, 774, 783, 735, 728, 776, 784, 736
4127, 728, 776, 784, 736, 730, 778, 785, 737
4128, 730, 778, 785, 737, 732, 780, 786, 738
4129, 739, 787, 788, 740, 741, 789, 790, 742
4130, 741, 789, 790, 742, 743, 791, 792, 744
4131, 740, 788, 793, 745, 742, 790, 794, 746
4132, 742, 790, 794, 746, 744, 792, 795, 747
4133, 745, 793, 796, 748, 746, 794, 797, 749
4134, 746, 794, 797, 749, 747, 795, 798, 750
4135, 748, 796, 779, 731, 749, 797, 799, 751
4136, 749, 797, 799, 751, 750, 798, 800, 752
4137, 731, 779, 780, 732, 751, 799, 801, 753
4138, 751, 799, 801, 753, 752, 800, 802, 754
4139, 732, 780, 786, 738, 753, 801, 803, 755
4140, 753, 801, 803, 755, 754, 802, 804, 756
4141, 738, 786, 805, 757, 755, 803, 806, 758
4142, 755, 803, 806, 758, 756, 804, 807, 759
4143, 757, 805, 808, 760, 758, 806, 809, 761
4144, 758, 806, 809, 761, 759, 807, 810, 762
4145, 760, 808, 811, 763, 761, 809, 812, 764
4146, 761, 809, 812, 764, 762, 810, 813, 765
4147, 763, 811, 814, 766, 764, 812, 815, 767
4148, 764, 812, 815, 767, 765, 813, 816, 768
4149, 769, 817, 818, 770, 771, 819, 820, 772
4150, 771, 819, 820, 772, 773, 821, 822, 774
4151, 773, 821, 822, 774, 775, 823, 824, 776
4152, 775, 823, 824, 776, 777, 825, 826, 778
4153, 777, 825, 826, 778, 779, 827, 828, 780
4154, 770, 818, 829, 781, 772, 820, 830, 782
4155, 772, 820, 830, 782, 774, 822, 831, 783
4156, 774, 822, 831, 783, 776, 824, 832, 784
4157, 776, 824, 832, 784, 778, 826, 833, 785
4158, 778, 826, 833, 785, 780, 828, 834, 786
4159, 787, 835, 836, 788, 789, 837, 838, 790
4160, 789, 837, 838, 790, 791, 839, 840, 792
4161, 788, 836, 841, 793, 790, 838, 842, 794
4162, 790, 838, 842, 794, 792, 840, 843, 795
4163, 793, 841, 844, 796, 794, 842, 845, 797
4164, 794, 842, 845, 797, 795, 843, 846, 798
4165, 796, 844, 827, 779, 797, 845, 847, 799
4166, 797, 845, 847, 799, 798, 846, 848, 800
4167, 779, 827, 828, 780, 799, 847, 849, 801
4168, 799, 847, 849, 801, 800, 848, 850, 802
4169, 780, 828, 834, 786, 801, 849, 851, 803
4170, 801, 849, 851, 803, 802, 850, 852, 804
4171, 786, 834, 853, 805, 803, 851, 854, 806
4172, 803, 851, 854, 806, 804, 852, 855, 807
4173, 805, 853, 856, 808, 806, 854, 857, 809
4174, 806, 854, 857, 809, 807, 855, 858, 810
4175, 808, 856, 859, 811, 809, 857, 860, 812
4176, 809, 857, 860, 812, 810, 858, 861, 813
4177, 811, 859, 862, 814, 812, 860, 863, 815
4178, 812, 860, 863, 815, 813, 861, 864, 816
4179, 817, 865, 866, 818, 819, 867, 868, 820
4180, 819, 867, 868, 820, 821, 869, 870, 822
4181, 821, 869, 870, 822, 823, 871, 872, 824
4182, 823, 871, 872, 824, 825, 873, 874, 826
4183, 825, 873, 874, 826, 827, 875, 876, 828
4184, 818, 866, 877, 829, 820, 868, 878, 830
4185, 820, 868, 878, 830, 822, 870, 879, 831
4186, 822, 870, 879, 831, 824, 872, 880, 832
4187, 824, 872, 880, 832, 826, 874, 881, 833
4188, 826, 874, 881, 833, 828, 876, 882, 834
4189, 835, 883, 884, 836, 837, 885, 886, 838
4190, 837, 885, 886, 838, 839, 887, 888, 840
4191, 836, 884, 889, 841, 838, 886, 890, 842
4192, 838, 886, 890, 842, 840, 888, 891, 843
4193, 841, 889, 892, 844, 842, 890, 893, 845
4194, 842, 890, 893, 845, 843, 891, 894, 846
4195, 844, 1325, 1328, 1321, 1320, 1326, 1329, 1322
4196, 1320, 1326, 1329, 1322, 845, 1327, 1330, 1323
4197, 1321, 1328, 1331, 827, 1322, 1329, 1332, 1324
4198, 1322, 1329, 1332, 1324, 1323, 1330, 1333, 847
4199, 1325, 892, 1335, 1328, 1326, 1334, 1336, 1329
4200, 1326, 1334, 1336, 1329, 1327, 893, 1337, 1330
4201, 1328, 1335, 875, 1331, 1329, 1336, 1338, 1332
4202, 1329, 1336, 1338, 1332, 1330, 1337, 895, 1333
4203, 845, 1327, 1330, 1323, 3625, 3628, 3630, 3626
4204, 3625, 3628, 3630, 3626, 846, 3629, 3631, 3627
4205, 1323, 1330, 1333, 847, 3626, 3630, 2696, 2691
4206, 3626, 3630, 2696, 2691, 3627, 3631, 2697, 848
4207, 1327, 893, 1337, 1330, 3628, 3632, 3633, 3630
4208, 3628, 3632, 3633, 3630, 3629, 894, 3634, 3631
4209, 1330, 1337, 895, 1333, 3630, 3633, 2704, 2696
4210, 3630, 3633, 2704, 2696, 3631, 3634, 896, 2697
4211, 827, 875, 876, 828, 847, 895, 897, 849
4212, 847, 1333, 2698, 2692, 2691, 2696, 2699, 2693
4213, 2691, 2696, 2699, 2693, 848, 2697, 2700, 2694
4214, 2692, 2698, 2701, 849, 2693, 2699, 2702, 2695
4215, 2693, 2699, 2702, 2695, 2694, 2700, 2703, 850
4216, 1333, 895, 2705, 2698, 2696, 2704, 2706, 2699
4217, 2696, 2704, 2706, 2699, 2697, 896, 2707, 2700
4218, 2698, 2705, 897, 2701, 2699, 2706, 2708, 2702
4219, 2699, 2706, 2708, 2702, 2700, 2707, 898, 2703
4220, 828, 876, 882, 834, 849, 897, 899, 851
4221, 849, 2701, 2713, 2709, 2695, 2702, 2714, 2710
4222, 2695, 2702, 2714, 2710, 850, 2703, 2715, 2711
4223, 2709, 2713, 1346, 851, 2710, 2714, 2716, 2712
4224, 2710, 2714, 2716, 2712, 2711, 2715, 2717, 852
4225, 2701, 897, 2718, 2713, 2702, 2708, 2719, 2714
4226, 2702, 2708, 2719, 2714, 2703, 898, 2720, 2715
4227, 2713, 2718, 899, 1346, 2714, 2719, 2721, 2716
4228, 2714, 2719, 2721, 2716, 2715, 2720, 900, 2717
4229, 834, 1344, 1347, 1340, 1339, 1345, 1348, 1341
4230, 1339, 1345, 1348, 1341, 851, 1346, 1349, 1342
4231, 1340, 1347, 1350, 853, 1341, 1348, 1351, 1343
4232, 1341, 1348, 1351, 1343, 1342, 1349, 1352, 854
4233, 1344, 882, 1354, 1347, 1345, 1353, 1355, 1348
4234, 1345, 1353, 1355, 1348, 1346, 899, 1356, 1349
4235, 1347, 1354, 901, 1350, 1348, 1355, 1357, 1351
4236, 1348, 1355, 1357, 1351, 1349, 1356, 902, 1352
4237, 851, 1346, 1349, 1342, 2712, 2716, 3638, 3635
4238, 2712, 2716, 3638, 3635, 852, 2717, 3639, 3636
4239, 1342, 1349, 1352, 854, 3635, 3638, 3640, 3637
4240, 3635, 3638, 3640, 3637, 3636, 3639, 3641, 855
4241, 1346, 899, 1356, 1349, 2716, 2721, 3642, 3638
4242, 2716, 2721, 3642, 3638, 2717, 900, 3643, 3639
4243, 1349, 1356, 902, 1352, 3638, 3642, 3644, 3640
4244, 3638, 3642, 3644, 3640, 3639, 3643, 903, 3641
4245, 853, 901, 904, 856, 854, 902, 905, 857
4246, 854, 902, 905, 857, 855, 903, 906, 858
4247, 856, 904, 907, 859, 857, 905, 908, 860
4248, 857, 905, 908, 860, 858, 906, 909, 861
4249, 859, 907, 910, 862, 860, 908, 911, 863
4250, 860, 908, 911, 863, 861, 909, 912, 864
*NSET, NSET=CLAMP
1, 4, 5, 8, 9, 12, 13, 16, 17, 20, 21, 24, 26, 28, 30, 32
34, 36, 37, 40, 41, 44, 45, 48, 50, 52, 54, 56, 58, 60, 62, 64
66, 68, 70, 72, 74, 76, 78, 80, 82, 84, 86, 88, 90, 92, 94, 96
913, 914, 915, 916, 917, 932, 933, 934, 935, 946, 947, 948, 949, 960, 961, 962
1358, 1359, 1360, 1361, 1362, 1377, 1378, 1379, 1380, 1463, 1464, 1465, 1466, 1473, 1474, 1475
1476, 1487, 1488, 1489, 1490, 1561, 1562, 1563, 2078, 2079, 2080, 2081, 2088, 2089, 2090, 2091
2138, 2139, 2140, 2147, 2148, 2149, 2764, 2765, 2766, 2767, 2774, 2775, 2776, 3645, 3646, 3647
3648, 3649, 3679, 3680, 3681, 3682, 3683, 3707, 3708, 3709, 3710, 3731, 3732, 3733, 3734, 3751
3752, 3753, 3758, 3759, 3760, 3761, 4935, 4936, 4937, 4938, 4939, 4949, 4950, 4951, 4955, 4956
4957, 4958, 4959, 4981, 4982, 4983, 4988, 4989, 4990, 4991, 4992, 5059, 5060, 5061, 5062, 5063
5123, 5124, 5125, 5126, 5127, 5149, 5150, 5151, 5156, 5157, 5158, 5159, 5166, 5167, 5168, 5169
*NSET, NSET=TIP_TOP
887, 888, 891, 894, 896, 898, 900, 903, 906, 909, 912, 2707, 2720, 3634, 3643
*MATERIAL, NAME=STEEL
*ELASTIC
210000, 0.3
*SOLID SECTION, ELSET=EALL, MATERIAL=STEEL
*EQUATION
3
1054, 1, 1.0, 42, 1, -0.5, 46, 1, -0.5
*EQUATION
3
1054, 2, 1.0, 42, 2, -0.5, 46, 2, -0.5
*EQUATION
3
1054, 3, 1.0, 42, 3, -0.5, 46, 3, -0.5
*EQUATION
3
1055, 1, 1.0, 42, 1, -0.5, 43, 1, -0.5
*EQUATION
3
1055, 2, 1.0, 42, 2, -0.5, 43, 2, -0.5
*EQUATION
3
1055, 3, 1.0, 42, 3, -0.5, 43, 3, -0.5
*EQUATION
5
1056, 1, 1.0, 42, 1, -0.25, 43, 1, -0.25, 47, 1, -0.25, 46, 1, -0.25
*EQUATION
5
1056, 2, 1.0, 42, 2, -0.25, 43, 2, -0.25, 47, 2, -0.25, 46, 2, -0.25
*EQUATION
5
1056, 3, 1.0, 42, 3, -0.25, 43, 3, -0.25, 47, 3, -0.25, 46, 3, -0.25
*EQUATION
3
1057, 1, 1.0, 46, 1, -0.5, 47, 1, -0.5
*EQUATION
3
1057, 2, 1.0, 46, 2, -0.5, 47, 2, -0.5
*EQUATION
3
1057, 3, 1.0, 46, 3, -0.5, 47, 3, -0.5
*EQUATION
3
1058, 1, 1.0, 43, 1, -0.5, 47, 1, -0.5
*EQUATION
3
1058, 2, 1.0, 43, 2, -0.5, 47, 2, -0.5
*EQUATION
3
1058, 3, 1.0, 43, 3, -0.5, 47, 3, -0.5
*EQUATION
3
1069, 1, 1.0, 117, 1, -0.5, 118, 1, -0.5
*EQUATION
3
1069, 2, 1.0, 117, 2, -0.5, 118, 2, -0.5
*EQUATION
3
1069, 3, 1.0, 117, 3, -0.5, 118, 3, -0.5
*EQUATION
3
1073, 1, 1.0, 43, 1, -0.5, 51, 1, -0.5
*EQUATION
3
1073, 2, 1.0, 43, 2, -0.5, 51, 2, -0.5
*EQUATION
3
1073, 3, 1.0, 43, 3, -0.5, 51, 3, -0.5
*EQUATION
5
1074, 1, 1.0, 43, 1, -0.25, 51, 1, -0.25, 53, 1, -0.25, 47, 1, -0.25
*EQUATION
5
1074, 2, 1.0, 43, 2, -0.25, 51, 2, -0.25, 53, 2, -0.25, 47, 2, -0.25
*EQUATION
5
1074, 3, 1.0, 43, 3, -0.25, 51, 3, -0.25, 53, 3, -0.25, 47, 3, -0.25
*EQUATION
3
1075, 1, 1.0, 47, 1, -0.5, 53, 1, -0.5
*EQUATION
3
1075, 2, 1.0, 47, 2, -0.5, 53, 2, -0.5
*EQUATION
3
1075, 3, 1.0, 47, 3, -0.5, 53, 3, -0.5
*EQUATION
3
1076, 1, 1.0, 51, 1, -0.5, 53, 1, -0.5
*EQUATION
3
1076, 2, 1.0, 51, 2, -0.5, 53, 2, -0.5
*EQUATION
3
1076, 3, 1.0, 51, 3, -0.5, 53, 3, -0.5
*EQUATION
3
1087, 1, 1.0, 51, 1, -0.5, 57, 1, -0.5
*EQUATION
3
1087, 2, 1.0, 51, 2, -0.5, 57, 2, -0.5
*EQUATION
3
1087, 3, 1.0, 51, 3, -0.5, 57, 3, -0.5
*EQUATION
5
1088, 1, 1.0, 51, 1, -0.25, 57, 1, -0.25, 59, 1, -0.25, 53, 1, -0.25
*EQUATION
5
1088, 2, 1.0, 51, 2, -0.25, 57, 2, -0.25, 59, 2, -0.25, 53, 2, -0.25
*EQUATION
5
1088, 3, 1.0, 51, 3, -0.25, 57, 3, -0.25, 59, 3, -0.25, 53, 3, -0.25
*EQUATION
3
1089, 1, 1.0, 53, 1, -0.5, 59, 1, -0.5
*EQUATION
3
1089, 2, 1.0, 53, 2, -0.5, 59, 2, -0.5
*EQUATION
3
1089, 3, 1.0, 53, 3, -0.5, 59, 3, -0.5
*EQUATION
3
1090, 1, 1.0, 57, 1, -0.5, 59, 1, -0.5
*EQUATION
3
1090, 2, 1.0, 57, 2, -0.5, 59, 2, -0.5
*EQUATION
3
1090, 3, 1.0, 57, 3, -0.5, 59, 3, -0.5
*EQUATION
3
1119, 1, 1.0, 75, 1, -0.5, 77, 1, -0.5
*EQUATION
3
1119, 2, 1.0, 75, 2, -0.5, 77, 2, -0.5
*EQUATION
3
1119, 3, 1.0, 75, 3, -0.5, 77, 3, -0.5
*EQUATION
3
1134, 1, 1.0, 75, 1, -0.5, 81, 1, -0.5
*EQUATION
3
1134, 2, 1.0, 75, 2, -0.5, 81, 2, -0.5
*EQUATION
3
1134, 3, 1.0, 75, 3, -0.5, 81, 3, -0.5
*EQUATION
5
1135, 1, 1.0, 75, 1, -0.25, 81, 1, -0.25, 83, 1, -0.25, 77, 1, -0.25
*EQUATION
5
1135, 2, 1.0, 75, 2, -0.25, 81, 2, -0.25, 83, 2, -0.25, 77, 2, -0.25
*EQUATION
5
1135, 3, 1.0, 75, 3, -0.25, 81, 3, -0.25, 83, 3, -0.25, 77, 3, -0.25
*EQUATION
3
1136, 1, 1.0, 77, 1, -0.5, 83, 1, -0.5
*EQUATION
3
1136, 2, 1.0, 77, 2, -0.5, 83, 2, -0.5
*EQUATION
3
1136, 3, 1.0, 77, 3, -0.5, 83, 3, -0.5
*EQUATION
3
1137, 1, 1.0, 81, 1, -0.5, 83, 1, -0.5
*EQUATION
3
1137, 2, 1.0, 81, 2, -0.5, 83, 2, -0.5
*EQUATION
3
1137, 3, 1.0, 81, 3, -0.5, 83, 3, -0.5
*EQUATION
3
1148, 1, 1.0, 81, 1, -0.5, 87, 1, -0.5
*EQUATION
3
1148, 2, 1.0, 81, 2, -0.5, 87, 2, -0.5
*EQUATION
3
1148, 3, 1.0, 81, 3, -0.5, 87, 3, -0.5
*EQUATION
5
1149, 1, 1.0, 81, 1, -0.25, 87, 1, -0.25, 89, 1, -0.25, 83, 1, -0.25
*EQUATION
5
1149, 2, 1.0, 81, 2, -0.25, 87, 2, -0.25, 89, 2, -0.25, 83, 2, -0.25
*EQUATION
5
1149, 3, 1.0, 81, 3, -0.25, 87, 3, -0.25, 89, 3, -0.25, 83, 3, -0.25
*EQUATION
3
1150, 1, 1.0, 83, 1, -0.5, 89, 1, -0.5
*EQUATION
3
1150, 2, 1.0, 83, 2, -0.5, 89, 2, -0.5
*EQUATION
3
1150, 3, 1.0, 83, 3, -0.5, 89, 3, -0.5
*EQUATION
3
1151, 1, 1.0, 87, 1, -0.5, 89, 1, -0.5
*EQUATION
3
1151, 2, 1.0, 87, 2, -0.5, 89, 2, -0.5
*EQUATION
3
1151, 3, 1.0, 87, 3, -0.5, 89, 3, -0.5
*EQUATION
3
1162, 1, 1.0, 87, 1, -0.5, 93, 1, -0.5
*EQUATION
3
1162, 2, 1.0, 87, 2, -0.5, 93, 2, -0.5
*EQUATION
3
1162, 3, 1.0, 87, 3, -0.5, 93, 3, -0.5
*EQUATION
5
1163, 1, 1.0, 87, 1, -0.25, 93, 1, -0.25, 95, 1, -0.25, 89, 1, -0.25
*EQUATION
5
1163, 2, 1.0, 87, 2, -0.25, 93, 2, -0.25, 95, 2, -0.25, 89, 2, -0.25
*EQUATION
5
1163, 3, 1.0, 87, 3, -0.25, 93, 3, -0.25, 95, 3, -0.25, 89, 3, -0.25
*EQUATION
3
1164, 1, 1.0, 89, 1, -0.5, 95, 1, -0.5
*EQUATION
3
1164, 2, 1.0, 89, 2, -0.5, 95, 2, -0.5
*EQUATION
3
1164, 3, 1.0, 89, 3, -0.5, 95, 3, -0.5
*EQUATION
3
1165, 1, 1.0, 93, 1, -0.5, 95, 1, -0.5
*EQUATION
3
1165, 2, 1.0, 93, 2, -0.5, 95, 2, -0.5
*EQUATION
3
1165, 3, 1.0, 93, 3, -0.5, 95, 3, -0.5
*EQUATION
3
1172, 1, 1.0, 140, 1, -0.5, 143, 1, -0.5
*EQUATION
3
1172, 2, 1.0, 140, 2, -0.5, 143, 2, -0.5
*EQUATION
3
1172, 3, 1.0, 140, 3, -0.5, 143, 3, -0.5
*EQUATION
3
1320, 1, 1.0, 844, 1, -0.5, 845, 1, -0.5
*EQUATION
3
1320, 2, 1.0, 844, 2, -0.5, 845, 2, -0.5
*EQUATION
3
1320, 3, 1.0, 844, 3, -0.5, 845, 3, -0.5
*EQUATION
3
1321, 1, 1.0, 827, 1, -0.5, 844, 1, -0.5
*EQUATION
3
1321, 2, 1.0, 827, 2, -0.5, 844, 2, -0.5
*EQUATION
3
1321, 3, 1.0, 827, 3, -0.5, 844, 3, -0.5
*EQUATION
5
1322, 1, 1.0, 844, 1, -0.25, 827, 1, -0.25, 847, 1, -0.25, 845, 1, -0.25
*EQUATION
5
1322, 2, 1.0, 844, 2, -0.25, 827, 2, -0.25, 847, 2, -0.25, 845, 2, -0.25
*EQUATION
5
1322, 3, 1.0, 844, 3, -0.25, 827, 3, -0.25, 847, 3, -0.25, 845, 3, -0.25
*EQUATION
3
1323, 1, 1.0, 845, 1, -0.5, 847, 1, -0.5
*EQUATION
3
1323, 2, 1.0, 845, 2, -0.5, 847, 2, -0.5
*EQUATION
3
1323, 3, 1.0, 845, 3, -0.5, 847, 3, -0.5
*EQUATION
3
1324, 1, 1.0, 827, 1, -0.5, 847, 1, -0.5
*EQUATION
3
1324, 2, 1.0, 827, 2, -0.5, 847, 2, -0.5
*EQUATION
3
1324, 3, 1.0, 827, 3, -0.5, 847, 3, -0.5
*EQUATION
3
1325, 1, 1.0, 844, 1, -0.5, 892, 1, -0.5
*EQUATION
3
1325, 2, 1.0, 844, 2, -0.5, 892, 2, -0.5
*EQUATION
3
1325, 3, 1.0, 844, 3, -0.5, 892, 3, -0.5
*EQUATION
5
1326, 1, 1.0, 844, 1, -0.25, 892, 1, -0.25, 893, 1, -0.25, 845, 1, -0.25
*EQUATION
5
1326, 2, 1.0, 844, 2, -0.25, 892, 2, -0.25, 893, 2, -0.25, 845, 2, -0.25
*EQUATION
5
1326, 3, 1.0, 844, 3, -0.25, 892, 3, -0.25, 893, 3, -0.25, 845, 3, -0.25
*EQUATION
3
1327, 1, 1.0, 845, 1, -0.5, 893, 1, -0.5
*EQUATION
3
1327, 2, 1.0, 845, 2, -0.5, 893, 2, -0.5
*EQUATION
3
1327, 3, 1.0, 845, 3, -0.5, 893, 3, -0.5
*EQUATION
3
1331, 1, 1.0, 827, 1, -0.5, 875, 1, -0.5
*EQUATION
3
1331, 2, 1.0, 827, 2, -0.5, 875, 2, -0.5
*EQUATION
3
1331, 3, 1.0, 827, 3, -0.5, 875, 3, -0.5
*EQUATION
5
1332, 1, 1.0, 827, 1, -0.25, 875, 1, -0.25, 895, 1, -0.25, 847, 1, -0.25
*EQUATION
5
1332, 2, 1.0, 827, 2, -0.25, 875, 2, -0.25, 895, 2, -0.25, 847, 2, -0.25
*EQUATION
5
1332, 3, 1.0, 827, 3, -0.25, 875, 3, -0.25, 895, 3, -0.25, 847, 3, -0.25
*EQUATION
3
1333, 1, 1.0, 847, 1, -0.5, 895, 1, -0.5
*EQUATION
3
1333, 2, 1.0, 847, 2, -0.5, 895, 2, -0.5
*EQUATION
3
1333, 3, 1.0, 847, 3, -0.5, 895, 3, -0.5
*EQUATION
3
1334, 1, 1.0, 892, 1, -0.5, 893, 1, -0.5
*EQUATION
3
1334, 2, 1.0, 892, 2, -0.5, 893, 2, -0.5
*EQUATION
3
1334, 3, 1.0, 892, 3, -0.5, 893, 3, -0.5
*EQUATION
3
1338, 1, 1.0, 875, 1, -0.5, 895, 1, -0.5
*EQUATION
3
1338, 2, 1.0, 875, 2, -0.5, 895, 2, -0.5
*EQUATION
3
1338, 3, 1.0, 875, 3, -0.5, 895, 3, -0.5
*EQUATION
3
1339, 1, 1.0, 834, 1, -0.5, 851, 1, -0.5
*EQUATION
3
1339, 2, 1.0, 834, 2, -0.5, 851, 2, -0.5
*EQUATION
3
1339, 3, 1.0, 834, 3, -0.5, 851, 3, -0.5
*EQUATION
3
1340, 1, 1.0, 834, 1, -0.5, 853, 1, -0.5
*EQUATION
3
1340, 2, 1.0, 834, 2, -0.5, 853, 2, -0.5
*EQUATION
3
1340, 3, 1.0, 834, 3, -0.5, 853, 3, -0.5
*EQUATION
5
1341, 1, 1.0, 834, 1, -0.25, 853, 1, -0.25, 854, 1, -0.25, 851, 1, -0.25
*EQUATION
5
1341, 2, 1.0, 834, 2, -0.25, 853, 2, -0.25, 854, 2, -0.25, 851, 2, -0.25
*EQUATION
5
1341, 3, 1.0, 834, 3, -0.25, 853, 3, -0.25, 854, 3, -0.25, 851, 3, -0.25
*EQUATION
3
1342, 1, 1.0, 851, 1, -0.5, 854, 1, -0.5
*EQUATION
3
1342, 2, 1.0, 851, 2, -0.5, 854, 2, -0.5
*EQUATION
3
1342, 3, 1.0, 851, 3, -0.5, 854, 3, -0.5
*EQUATION
3
1343, 1, 1.0, 853, 1, -0.5, 854, 1, -0.5
*EQUATION
3
1343, 2, 1.0, 853, 2, -0.5, 854, 2, -0.5
*EQUATION
3
1343, 3, 1.0, 853, 3, -0.5, 854, 3, -0.5
*EQUATION
3
1344, 1, 1.0, 834, 1, -0.5, 882, 1, -0.5
*EQUATION
3
1344, 2, 1.0, 834, 2, -0.5, 882, 2, -0.5
*EQUATION
3
1344, 3, 1.0, 834, 3, -0.5, 882, 3, -0.5
*EQUATION
5
1345, 1, 1.0, 834, 1, -0.25, 882, 1, -0.25, 899, 1, -0.25, 851, 1, -0.25
*EQUATION
5
1345, 2, 1.0, 834, 2, -0.25, 882, 2, -0.25, 899, 2, -0.25, 851, 2, -0.25
*EQUATION
5
1345, 3, 1.0, 834, 3, -0.25, 882, 3, -0.25, 899, 3, -0.25, 851, 3, -0.25
*EQUATION
3
1346, 1, 1.0, 851, 1, -0.5, 899, 1, -0.5
*EQUATION
3
1346, 2, 1.0, 851, 2, -0.5, 899, 2, -0.5
*EQUATION
3
1346, 3, 1.0, 851, 3, -0.5, 899, 3, -0.5
*EQUATION
3
1350, 1, 1.0, 853, 1, -0.5, 901, 1, -0.5
*EQUATION
3
1350, 2, 1.0, 853, 2, -0.5, 901, 2, -0.5
*EQUATION
3
1350, 3, 1.0, 853, 3, -0.5, 901, 3, -0.5
*EQUATION
5
1351, 1, 1.0, 853, 1, -0.25, 901, 1, -0.25, 902, 1, -0.25, 854, 1, -0.25
*EQUATION
5
1351, 2, 1.0, 853, 2, -0.25, 901, 2, -0.25, 902, 2, -0.25, 854, 2, -0.25
*EQUATION
5
1351, 3, 1.0, 853, 3, -0.25, 901, 3, -0.25, 902, 3, -0.25, 854, 3, -0.25
*EQUATION
3
1352, 1, 1.0, 854, 1, -0.5, 902, 1, -0.5
*EQUATION
3
1352, 2, 1.0, 854, 2, -0.5, 902, 2, -0.5
*EQUATION
3
1352, 3, 1.0, 854, 3, -0.5, 902, 3, -0.5
*EQUATION
3
1353, 1, 1.0, 882, 1, -0.5, 899, 1, -0.5
*EQUATION
3
1353, 2, 1.0, 882, 2, -0.5, 899, 2, -0.5
*EQUATION
3
1353, 3, 1.0, 882, 3, -0.5, 899, 3, -0.5
*EQUATION
3
1357, 1, 1.0, 901, 1, -0.5, 902, 1, -0.5
*EQUATION
3
1357, 2, 1.0, 901, 2, -0.5, 902, 2, -0.5
*EQUATION
3
1357, 3, 1.0, 901, 3, -0.5, 902, 3, -0.5
*EQUATION
3
1365, 1, 1.0, 913, 1, -0.5, 919, 1, -0.5
*EQUATION
3
1365, 2, 1.0, 913, 2, -0.5, 919, 2, -0.5
*EQUATION
3
1365, 3, 1.0, 913, 3, -0.5, 919, 3, -0.5
*EQUATION
5
1368, 1, 1.0, 913, 1, -0.25, 919, 1, -0.25, 922, 1, -0.25, 915, 1, -0.25
*EQUATION
5
1368, 2, 1.0, 913, 2, -0.25, 919, 2, -0.25, 922, 2, -0.25, 915, 2, -0.25
*EQUATION
5
1368, 3, 1.0, 913, 3, -0.25, 919, 3, -0.25, 922, 3, -0.25, 915, 3, -0.25
*EQUATION
3
1371, 1, 1.0, 915, 1, -0.5, 922, 1, -0.5
*EQUATION
3
1371, 2, 1.0, 915, 2, -0.5, 922, 2, -0.5
*EQUATION
3
1371, 3, 1.0, 915, 3, -0.5, 922, 3, -0.5
*EQUATION
3
1375, 1, 1.0, 919, 1, -0.5, 922, 1, -0.5
*EQUATION
3
1375, 2, 1.0, 919, 2, -0.5, 922, 2, -0.5
*EQUATION
3
1375, 3, 1.0, 919, 3, -0.5, 922, 3, -0.5
*EQUATION
5
1383, 1, 1.0, 915, 1, -0.25, 922, 1, -0.25, 925, 1, -0.25, 917, 1, -0.25
*EQUATION
5
1383, 2, 1.0, 915, 2, -0.25, 922, 2, -0.25, 925, 2, -0.25, 917, 2, -0.25
*EQUATION
5
1383, 3, 1.0, 915, 3, -0.25, 922, 3, -0.25, 925, 3, -0.25, 917, 3, -0.25
*EQUATION
3
1386, 1, 1.0, 917, 1, -0.5, 925, 1, -0.5
*EQUATION
3
1386, 2, 1.0, 917, 2, -0.5, 925, 2, -0.5
*EQUATION
3
1386, 3, 1.0, 917, 3, -0.5, 925, 3, -0.5
*EQUATION
3
1389, 1, 1.0, 922, 1, -0.5, 925, 1, -0.5
*EQUATION
3
1389, 2, 1.0, 922, 2, -0.5, 925, 2, -0.5
*EQUATION
3
1389, 3, 1.0, 922, 3, -0.5, 925, 3, -0.5
*EQUATION
3
1400, 1, 1.0, 2, 1, -0.5, 927, 1, -0.5
*EQUATION
3
1400, 2, 1.0, 2, 2, -0.5, 927, 2, -0.5
*EQUATION
3
1400, 3, 1.0, 2, 3, -0.5, 927, 3, -0.5
*EQUATION
3
1401, 1, 1.0, 2, 1, -0.5, 928, 1, -0.5
*EQUATION
3
1401, 2, 1.0, 2, 2, -0.5, 928, 2, -0.5
*EQUATION
3
1401, 3, 1.0, 2, 3, -0.5, 928, 3, -0.5
*EQUATION
5
1402, 1, 1.0, 2, 1, -0.25, 928, 1, -0.25, 929, 1, -0.25, 927, 1, -0.25
*EQUATION
5
1402, 2, 1.0, 2, 2, -0.25, 928, 2, -0.25, 929, 2, -0.25, 927, 2, -0.25
*EQUATION
5
1402, 3, 1.0, 2, 3, -0.25, 928, 3, -0.25, 929, 3, -0.25, 927, 3, -0.25
*EQUATION
3
1403, 1, 1.0, 927, 1, -0.5, 929, 1, -0.5
*EQUATION
3
1403, 2, 1.0, 927, 2, -0.5, 929, 2, -0.5
*EQUATION
3
1403, 3, 1.0, 927, 3, -0.5, 929, 3, -0.5
*EQUATION
3
1404, 1, 1.0, 928, 1, -0.5, 929, 1, -0.5
*EQUATION
3
1404, 2, 1.0, 928, 2, -0.5, 929, 2, -0.5
*EQUATION
3
1404, 3, 1.0, 928, 3, -0.5, 929, 3, -0.5
*EQUATION
3
1405, 1, 1.0, 919, 1, -0.5, 920, 1, -0.5
*EQUATION
3
1405, 2, 1.0, 919, 2, -0.5, 920, 2, -0.5
*EQUATION
3
1405, 3, 1.0, 919, 3, -0.5, 920, 3, -0.5
*EQUATION
5
1406, 1, 1.0, 919, 1, -0.25, 922, 1, -0.25, 923, 1, -0.25, 920, 1, -0.25
*EQUATION
5
1406, 2, 1.0, 919, 2, -0.25, 922, 2, -0.25, 923, 2, -0.25, 920, 2, -0.25
*EQUATION
5
1406, 3, 1.0, 919, 3, -0.25, 922, 3, -0.25, 923, 3, -0.25, 920, 3, -0.25
*EQUATION
3
1407, 1, 1.0, 920, 1, -0.5, 923, 1, -0.5
*EQUATION
3
1407, 2, 1.0, 920, 2, -0.5, 923, 2, -0.5
*EQUATION
3
1407, 3, 1.0, 920, 3, -0.5, 923, 3, -0.5
*EQUATION
3
1408, 1, 1.0, 922, 1, -0.5, 923, 1, -0.5
*EQUATION
3
1408, 2, 1.0, 922, 2, -0.5, 923, 2, -0.5
*EQUATION
3
1408, 3, 1.0, 922, 3, -0.5, 923, 3, -0.5
*EQUATION
3
1415, 1, 1.0, 6, 1, -0.5, 927, 1, -0.5
*EQUATION
3
1415, 2, 1.0, 6, 2, -0.5, 927, 2, -0.5
*EQUATION
3
1415, 3, 1.0, 6, 3, -0.5, 927, 3, -0.5
*EQUATION
5
1416, 1, 1.0, 927, 1, -0.25, 929, 1, -0.25, 930, 1, -0.25, 6, 1, -0.25
*EQUATION
5
1416, 2, 1.0, 927, 2, -0.25, 929, 2, -0.25, 930, 2, -0.25, 6, 2, -0.25
*EQUATION
5
1416, 3, 1.0, 927, 3, -0.25, 929, 3, -0.25, 930, 3, -0.25, 6, 3, -0.25
*EQUATION
3
1417, 1, 1.0, 6, 1, -0.5, 930, 1, -0.5
*EQUATION
3
1417, 2, 1.0, 6, 2, -0.5, 930, 2, -0.5
*EQUATION
3
1417, 3, 1.0, 6, 3, -0.5, 930, 3, -0.5
*EQUATION
3
1418, 1, 1.0, 929, 1, -0.5, 930, 1, -0.5
*EQUATION
3
1418, 2, 1.0, 929, 2, -0.5, 930, 2, -0.5
*EQUATION
3
1418, 3, 1.0, 929, 3, -0.5, 930, 3, -0.5
*EQUATION
3
1425, 1, 1.0, 3, 1, -0.5, 928, 1, -0.5
*EQUATION
3
1425, 2, 1.0, 3, 2, -0.5, 928, 2, -0.5
*EQUATION
3
1425, 3, 1.0, 3, 3, -0.5, 928, 3, -0.5
*EQUATION
5
1426, 1, 1.0, 928, 1, -0.25, 3, 1, -0.25, 931, 1, -0.25, 929, 1, -0.25
*EQUATION
5
1426, 2, 1.0, 928, 2, -0.25, 3, 2, -0.25, 931, 2, -0.25, 929, 2, -0.25
*EQUATION
5
1426, 3, 1.0, 928, 3, -0.25, 3, 3, -0.25, 931, 3, -0.25, 929, 3, -0.25
*EQUATION
3
1427, 1, 1.0, 929, 1, -0.5, 931, 1, -0.5
*EQUATION
3
1427, 2, 1.0, 929, 2, -0.5, 931, 2, -0.5
*EQUATION
3
1427, 3, 1.0, 929, 3, -0.5, 931, 3, -0.5
*EQUATION
3
1428, 1, 1.0, 3, 1, -0.5, 931, 1, -0.5
*EQUATION
3
1428, 2, 1.0, 3, 2, -0.5, 931, 2, -0.5
*EQUATION
3
1428, 3, 1.0, 3, 3, -0.5, 931, 3, -0.5
*EQUATION
5
1429, 1, 1.0, 922, 1, -0.25, 925, 1, -0.25, 926, 1, -0.25, 923, 1, -0.25
*EQUATION
5
1429, 2, 1.0, 922, 2, -0.25, 925, 2, -0.25, 926, 2, -0.25, 923, 2, -0.25
*EQUATION
5
1429, 3, 1.0, 922, 3, -0.25, 925, 3, -0.25, 926, 3, -0.25, 923, 3, -0.25
*EQUATION
3
1430, 1, 1.0, 923, 1, -0.5, 926, 1, -0.5
*EQUATION
3
1430, 2, 1.0, 923, 2, -0.5, 926, 2, -0.5
*EQUATION
3
1430, 3, 1.0, 923, 3, -0.5, 926, 3, -0.5
*EQUATION
3
1431, 1, 1.0, 925, 1, -0.5, 926, 1, -0.5
*EQUATION
3
1431, 2, 1.0, 925, 2, -0.5, 926, 2, -0.5
*EQUATION
3
1431, 3, 1.0, 925, 3, -0.5, 926, 3, -0.5
*EQUATION
5
1436, 1, 1.0, 929, 1, -0.25, 931, 1, -0.25, 7, 1, -0.25, 930, 1, -0.25
*EQUATION
5
1436, 2, 1.0, 929, 2, -0.25, 931, 2, -0.25, 7, 2, -0.25, 930, 2, -0.25
*EQUATION
5
1436, 3, 1.0, 929, 3, -0.25, 931, 3, -0.25, 7, 3, -0.25, 930, 3, -0.25
*EQUATION
3
1437, 1, 1.0, 7, 1, -0.5, 930, 1, -0.5
*EQUATION
3
1437, 2, 1.0, 7, 2, -0.5, 930, 2, -0.5
*EQUATION
3
1437, 3, 1.0, 7, 3, -0.5, 930, 3, -0.5
*EQUATION
3
1438, 1, 1.0, 7, 1, -0.5, 931, 1, -0.5
*EQUATION
3
1438, 2, 1.0, 7, 2, -0.5, 931, 2, -0.5
*EQUATION
3
1438, 3, 1.0, 7, 3, -0.5, 931, 3, -0.5
*EQUATION
3
1439, 1, 1.0, 920, 1, -0.5, 936, 1, -0.5
*EQUATION
3
1439, 2, 1.0, 920, 2, -0.5, 936, 2, -0.5
*EQUATION
3
1439, 3, 1.0, 920, 3, -0.5, 936, 3, -0.5
*EQUATION
5
1440, 1, 1.0, 920, 1, -0.25, 923, 1, -0.25, 938, 1, -0.25, 936, 1, -0.25
*EQUATION
5
1440, 2, 1.0, 920, 2, -0.25, 923, 2, -0.25, 938, 2, -0.25, 936, 2, -0.25
*EQUATION
5
1440, 3, 1.0, 920, 3, -0.25, 923, 3, -0.25, 938, 3, -0.25, 936, 3, -0.25
*EQUATION
3
1441, 1, 1.0, 936, 1, -0.5, 938, 1, -0.5
*EQUATION
3
1441, 2, 1.0, 936, 2, -0.5, 938, 2, -0.5
*EQUATION
3
1441, 3, 1.0, 936, 3, -0.5, 938, 3, -0.5
*EQUATION
3
1442, 1, 1.0, 923, 1, -0.5, 938, 1, -0.5
*EQUATION
3
1442, 2, 1.0, 923, 2, -0.5, 938, 2, -0.5
*EQUATION
3
1442, 3, 1.0, 923, 3, -0.5, 938, 3, -0.5
*EQUATION
3
1449, 1, 1.0, 6, 1, -0.5, 942, 1, -0.5
*EQUATION
3
1449, 2, 1.0, 6, 2, -0.5, 942, 2, -0.5
*EQUATION
3
1449, 3, 1.0, 6, 3, -0.5, 942, 3, -0.5
*EQUATION
5
1450, 1, 1.0, 6, 1, -0.25, 930, 1, -0.25, 943, 1, -0.25, 942, 1, -0.25
*EQUATION
5
1450, 2, 1.0, 6, 2, -0.25, 930, 2, -0.25, 943, 2, -0.25, 942, 2, -0.25
*EQUATION
5
1450, 3, 1.0, 6, 3, -0.25, 930, 3, -0.25, 943, 3, -0.25, 942, 3, -0.25
*EQUATION
3
1451, 1, 1.0, 942, 1, -0.5, 943, 1, -0.5
*EQUATION
3
1451, 2, 1.0, 942, 2, -0.5, 943, 2, -0.5
*EQUATION
3
1451, 3, 1.0, 942, 3, -0.5, 943, 3, -0.5
*EQUATION
3
1452, 1, 1.0, 930, 1, -0.5, 943, 1, -0.5
*EQUATION
3
1452, 2, 1.0, 930, 2, -0.5, 943, 2, -0.5
*EQUATION
3
1452, 3, 1.0, 930, 3, -0.5, 943, 3, -0.5
*EQUATION
5
1453, 1, 1.0, 923, 1, -0.25, 926, 1, -0.25, 940, 1, -0.25, 938, 1, -0.25
*EQUATION
5
1453, 2, 1.0, 923, 2, -0.25, 926, 2, -0.25, 940, 2, -0.25, 938, 2, -0.25
*EQUATION
5
1453, 3, 1.0, 923, 3, -0.25, 926, 3, -0.25, 940, 3, -0.25, 938, 3, -0.25
*EQUATION
3
1454, 1, 1.0, 938, 1, -0.5, 940, 1, -0.5
*EQUATION
3
1454, 2, 1.0, 938, 2, -0.5, 940, 2, -0.5
*EQUATION
3
1454, 3, 1.0, 938, 3, -0.5, 940, 3, -0.5
*EQUATION
3
1455, 1, 1.0, 926, 1, -0.5, 940, 1, -0.5
*EQUATION
3
1455, 2, 1.0, 926, 2, -0.5, 940, 2, -0.5
*EQUATION
3
1455, 3, 1.0, 926, 3, -0.5, 940, 3, -0.5
*EQUATION
5
1460, 1, 1.0, 930, 1, -0.25, 7, 1, -0.25, 945, 1, -0.25, 943, 1, -0.25
*EQUATION
5
1460, 2, 1.0, 930, 2, -0.25, 7, 2, -0.25, 945, 2, -0.25, 943, 2, -0.25
*EQUATION
5
1460, 3, 1.0, 930, 3, -0.25, 7, 3, -0.25, 945, 3, -0.25, 943, 3, -0.25
*EQUATION
3
1461, 1, 1.0, 943, 1, -0.5, 945, 1, -0.5
*EQUATION
3
1461, 2, 1.0, 943, 2, -0.5, 945, 2, -0.5
*EQUATION
3
1461, 3, 1.0, 943, 3, -0.5, 945, 3, -0.5
*EQUATION
3
1462, 1, 1.0, 7, 1, -0.5, 945, 1, -0.5
*EQUATION
3
1462, 2, 1.0, 7, 2, -0.5, 945, 2, -0.5
*EQUATION
3
1462, 3, 1.0, 7, 3, -0.5, 945, 3, -0.5
*EQUATION
5
1479, 1, 1.0, 917, 1, -0.25, 925, 1, -0.25, 951, 1, -0.25, 947, 1, -0.25
*EQUATION
5
1479, 2, 1.0, 917, 2, -0.25, 925, 2, -0.25, 951, 2, -0.25, 947, 2, -0.25
*EQUATION
5
1479, 3, 1.0, 917, 3, -0.25, 925, 3, -0.25, 951, 3, -0.25, 947, 3, -0.25
*EQUATION
3
1482, 1, 1.0, 947, 1, -0.5, 951, 1, -0.5
*EQUATION
3
1482, 2, 1.0, 947, 2, -0.5, 951, 2, -0.5
*EQUATION
3
1482, 3, 1.0, 947, 3, -0.5, 951, 3, -0.5
*EQUATION
3
1485, 1, 1.0, 925, 1, -0.5, 951, 1, -0.5
*EQUATION
3
1485, 2, 1.0, 925, 2, -0.5, 951, 2, -0.5
*EQUATION
3
1485, 3, 1.0, 925, 3, -0.5, 951, 3, -0.5
*EQUATION
5
1493, 1, 1.0, 947, 1, -0.25, 951, 1, -0.25, 954, 1, -0.25, 949, 1, -0.25
*EQUATION
5
1493, 2, 1.0, 947, 2, -0.25, 951, 2, -0.25, 954, 2, -0.25, 949, 2, -0.25
*EQUATION
5
1493, 3, 1.0, 947, 3, -0.25, 951, 3, -0.25, 954, 3, -0.25, 949, 3, -0.25
*EQUATION
3
1496, 1, 1.0, 949, 1, -0.5, 954, 1, -0.5
*EQUATION
3
1496, 2, 1.0, 949, 2, -0.5, 954, 2, -0.5
*EQUATION
3
1496, 3, 1.0, 949, 3, -0.5, 954, 3, -0.5
*EQUATION
3
1499, 1, 1.0, 951, 1, -0.5, 954, 1, -0.5
*EQUATION
3
1499, 2, 1.0, 951, 2, -0.5, 954, 2, -0.5
*EQUATION
3
1499, 3, 1.0, 951, 3, -0.5, 954, 3, -0.5
*EQUATION
3
1507, 1, 1.0, 3, 1, -0.5, 956, 1, -0.5
*EQUATION
3
1507, 2, 1.0, 3, 2, -0.5, 956, 2, -0.5
*EQUATION
3
1507, 3, 1.0, 3, 3, -0.5, 956, 3, -0.5
*EQUATION
5
1508, 1, 1.0, 3, 1, -0.25, 956, 1, -0.25, 957, 1, -0.25, 931, 1, -0.25
*EQUATION
5
1508, 2, 1.0, 3, 2, -0.25, 956, 2, -0.25, 957, 2, -0.25, 931, 2, -0.25
*EQUATION
5
1508, 3, 1.0, 3, 3, -0.25, 956, 3, -0.25, 957, 3, -0.25, 931, 3, -0.25
*EQUATION
3
1509, 1, 1.0, 931, 1, -0.5, 957, 1, -0.5
*EQUATION
3
1509, 2, 1.0, 931, 2, -0.5, 957, 2, -0.5
*EQUATION
3
1509, 3, 1.0, 931, 3, -0.5, 957, 3, -0.5
*EQUATION
3
1510, 1, 1.0, 956, 1, -0.5, 957, 1, -0.5
*EQUATION
3
1510, 2, 1.0, 956, 2, -0.5, 957, 2, -0.5
*EQUATION
3
1510, 3, 1.0, 956, 3, -0.5, 957, 3, -0.5
*EQUATION
5
1511, 1, 1.0, 925, 1, -0.25, 951, 1, -0.25, 952, 1, -0.25, 926, 1, -0.25
*EQUATION
5
1511, 2, 1.0, 925, 2, -0.25, 951, 2, -0.25, 952, 2, -0.25, 926, 2, -0.25
*EQUATION
5
1511, 3, 1.0, 925, 3, -0.25, 951, 3, -0.25, 952, 3, -0.25, 926, 3, -0.25
*EQUATION
3
1512, 1, 1.0, 926, 1, -0.5, 952, 1, -0.5
*EQUATION
3
1512, 2, 1.0, 926, 2, -0.5, 952, 2, -0.5
*EQUATION
3
1512, 3, 1.0, 926, 3, -0.5, 952, 3, -0.5
*EQUATION
3
1513, 1, 1.0, 951, 1, -0.5, 952, 1, -0.5
*EQUATION
3
1513, 2, 1.0, 951, 2, -0.5, 952, 2, -0.5
*EQUATION
3
1513, 3, 1.0, 951, 3, -0.5, 952, 3, -0.5
*EQUATION
5
1518, 1, 1.0, 931, 1, -0.25, 957, 1, -0.25, 958, 1, -0.25, 7, 1, -0.25
*EQUATION
5
1518, 2, 1.0, 931, 2, -0.25, 957, 2, -0.25, 958, 2, -0.25, 7, 2, -0.25
*EQUATION
5
1518, 3, 1.0, 931, 3, -0.25, 957, 3, -0.25, 958, 3, -0.25, 7, 3, -0.25
*EQUATION
3
1519, 1, 1.0, 7, 1, -0.5, 958, 1, -0.5
*EQUATION
3
1519, 2, 1.0, 7, 2, -0.5, 958, 2, -0.5
*EQUATION
3
1519, 3, 1.0, 7, 3, -0.5, 958, 3, -0.5
*EQUATION
3
1520, 1, 1.0, 957, 1, -0.5, 958, 1, -0.5
*EQUATION
3
1520, 2, 1.0, 957, 2, -0.5, 958, 2, -0.5
*EQUATION
3
1520, 3, 1.0, 957, 3, -0.5, 958, 3, -0.5
*EQUATION
3
1527, 1, 1.0, 25, 1, -0.5, 956, 1, -0.5
*EQUATION
3
1527, 2, 1.0, 25, 2, -0.5, 956, 2, -0.5
*EQUATION
3
1527, 3, 1.0, 25, 3, -0.5, 956, 3, -0.5
*EQUATION
5
1528, 1, 1.0, 956, 1, -0.25, 25, 1, -0.25, 959, 1, -0.25, 957, 1, -0.25
*EQUATION
5
1528, 2, 1.0, 956, 2, -0.25, 25, 2, -0.25, 959, 2, -0.25, 957, 2, -0.25
*EQUATION
5
1528, 3, 1.0, 956, 3, -0.25, 25, 3, -0.25, 959, 3, -0.25, 957, 3, -0.25
*EQUATION
3
1529, 1, 1.0, 957, 1, -0.5, 959, 1, -0.5
*EQUATION
3
1529, 2, 1.0, 957, 2, -0.5, 959, 2, -0.5
*EQUATION
3
1529, 3, 1.0, 957, 3, -0.5, 959, 3, -0.5
*EQUATION
3
1530, 1, 1.0, 25, 1, -0.5, 959, 1, -0.5
*EQUATION
3
1530, 2, 1.0, 25, 2, -0.5, 959, 2, -0.5
*EQUATION
3
1530, 3, 1.0, 25, 3, -0.5, 959, 3, -0.5
*EQUATION
5
1531, 1, 1.0, 951, 1, -0.25, 954, 1, -0.25, 955, 1, -0.25, 952, 1, -0.25
*EQUATION
5
1531, 2, 1.0, 951, 2, -0.25, 954, 2, -0.25, 955, 2, -0.25, 952, 2, -0.25
*EQUATION
5
1531, 3, 1.0, 951, 3, -0.25, 954, 3, -0.25, 955, 3, -0.25, 952, 3, -0.25
*EQUATION
3
1532, 1, 1.0, 952, 1, -0.5, 955, 1, -0.5
*EQUATION
3
1532, 2, 1.0, 952, 2, -0.5, 955, 2, -0.5
*EQUATION
3
1532, 3, 1.0, 952, 3, -0.5, 955, 3, -0.5
*EQUATION
3
1533, 1, 1.0, 954, 1, -0.5, 955, 1, -0.5
*EQUATION
3
1533, 2, 1.0, 954, 2, -0.5, 955, 2, -0.5
*EQUATION
3
1533, 3, 1.0, 954, 3, -0.5, 955, 3, -0.5
*EQUATION
5
1538, 1, 1.0, 957, 1, -0.25, 959, 1, -0.25, 27, 1, -0.25, 958, 1, -0.25
*EQUATION
5
1538, 2, 1.0, 957, 2, -0.25, 959, 2, -0.25, 27, 2, -0.25, 958, 2, -0.25
*EQUATION
5
1538, 3, 1.0, 957, 3, -0.25, 959, 3, -0.25, 27, 3, -0.25, 958, 3, -0.25
*EQUATION
3
1539, 1, 1.0, 27, 1, -0.5, 958, 1, -0.5
*EQUATION
3
1539, 2, 1.0, 27, 2, -0.5, 958, 2, -0.5
*EQUATION
3
1539, 3, 1.0, 27, 3, -0.5, 958, 3, -0.5
*EQUATION
3
1540, 1, 1.0, 27, 1, -0.5, 959, 1, -0.5
*EQUATION
3
1540, 2, 1.0, 27, 2, -0.5, 959, 2, -0.5
*EQUATION
3
1540, 3, 1.0, 27, 3, -0.5, 959, 3, -0.5
*EQUATION
5
1541, 1, 1.0, 926, 1, -0.25, 952, 1, -0.25, 963, 1, -0.25, 940, 1, -0.25
*EQUATION
5
1541, 2, 1.0, 926, 2, -0.25, 952, 2, -0.25, 963, 2, -0.25, 940, 2, -0.25
*EQUATION
5
1541, 3, 1.0, 926, 3, -0.25, 952, 3, -0.25, 963, 3, -0.25, 940, 3, -0.25
*EQUATION
3
1542, 1, 1.0, 940, 1, -0.5, 963, 1, -0.5
*EQUATION
3
1542, 2, 1.0, 940, 2, -0.5, 963, 2, -0.5
*EQUATION
3
1542, 3, 1.0, 940, 3, -0.5, 963, 3, -0.5
*EQUATION
3
1543, 1, 1.0, 952, 1, -0.5, 963, 1, -0.5
*EQUATION
3
1543, 2, 1.0, 952, 2, -0.5, 963, 2, -0.5
*EQUATION
3
1543, 3, 1.0, 952, 3, -0.5, 963, 3, -0.5
*EQUATION
5
1548, 1, 1.0, 7, 1, -0.25, 958, 1, -0.25, 967, 1, -0.25, 945, 1, -0.25
*EQUATION
5
1548, 2, 1.0, 7, 2, -0.25, 958, 2, -0.25, 967, 2, -0.25, 945, 2, -0.25
*EQUATION
5
1548, 3, 1.0, 7, 3, -0.25, 958, 3, -0.25, 967, 3, -0.25, 945, 3, -0.25
*EQUATION
3
1549, 1, 1.0, 945, 1, -0.5, 967, 1, -0.5
*EQUATION
3
1549, 2, 1.0, 945, 2, -0.5, 967, 2, -0.5
*EQUATION
3
1549, 3, 1.0, 945, 3, -0.5, 967, 3, -0.5
*EQUATION
3
1550, 1, 1.0, 958, 1, -0.5, 967, 1, -0.5
*EQUATION
3
1550, 2, 1.0, 958, 2, -0.5, 967, 2, -0.5
*EQUATION
3
1550, 3, 1.0, 958, 3, -0.5, 967, 3, -0.5
*EQUATION
5
1551, 1, 1.0, 952, 1, -0.25, 955, 1, -0.25, 965, 1, -0.25, 963, 1, -0.25
*EQUATION
5
1551, 2, 1.0, 952, 2, -0.25, 955, 2, -0.25, 965, 2, -0.25, 963, 2, -0.25
*EQUATION
5
1551, 3, 1.0, 952, 3, -0.25, 955, 3, -0.25, 965, 3, -0.25, 963, 3, -0.25
*EQUATION
3
1552, 1, 1.0, 963, 1, -0.5, 965, 1, -0.5
*EQUATION
3
1552, 2, 1.0, 963, 2, -0.5, 965, 2, -0.5
*EQUATION
3
1552, 3, 1.0, 963, 3, -0.5, 965, 3, -0.5
*EQUATION
3
1553, 1, 1.0, 955, 1, -0.5, 965, 1, -0.5
*EQUATION
3
1553, 2, 1.0, 955, 2, -0.5, 965, 2, -0.5
*EQUATION
3
1553, 3, 1.0, 955, 3, -0.5, 965, 3, -0.5
*EQUATION
5
1558, 1, 1.0, 958, 1, -0.25, 27, 1, -0.25, 969, 1, -0.25, 967, 1, -0.25
*EQUATION
5
1558, 2, 1.0, 958, 2, -0.25, 27, 2, -0.25, 969, 2, -0.25, 967, 2, -0.25
*EQUATION
5
1558, 3, 1.0, 958, 3, -0.25, 27, 3, -0.25, 969, 3, -0.25, 967, 3, -0.25
*EQUATION
3
1559, 1, 1.0, 967, 1, -0.5, 969, 1, -0.5
*EQUATION
3
1559, 2, 1.0, 967, 2, -0.5, 969, 2, -0.5
*EQUATION
3
1559, 3, 1.0, 967, 3, -0.5, 969, 3, -0.5
*EQUATION
3
1560, 1, 1.0, 27, 1, -0.5, 969, 1, -0.5
*EQUATION
3
1560, 2, 1.0, 27, 2, -0.5, 969, 2, -0.5
*EQUATION
3
1560, 3, 1.0, 27, 3, -0.5, 969, 3, -0.5
*EQUATION
3
1591, 1, 1.0, 38, 1, -0.5, 42, 1, -0.5
*EQUATION
3
1591, 2, 1.0, 38, 2, -0.5, 42, 2, -0.5
*EQUATION
3
1591, 3, 1.0, 38, 3, -0.5, 42, 3, -0.5
*EQUATION
3
1592, 1, 1.0, 38, 1, -0.5, 39, 1, -0.5
*EQUATION
3
1592, 2, 1.0, 38, 2, -0.5, 39, 2, -0.5
*EQUATION
3
1592, 3, 1.0, 38, 3, -0.5, 39, 3, -0.5
*EQUATION
5
1593, 1, 1.0, 38, 1, -0.25, 39, 1, -0.25, 43, 1, -0.25, 42, 1, -0.25
*EQUATION
5
1593, 2, 1.0, 38, 2, -0.25, 39, 2, -0.25, 43, 2, -0.25, 42, 2, -0.25
*EQUATION
5
1593, 3, 1.0, 38, 3, -0.25, 39, 3, -0.25, 43, 3, -0.25, 42, 3, -0.25
*EQUATION
3
1594, 1, 1.0, 39, 1, -0.5, 43, 1, -0.5
*EQUATION
3
1594, 2, 1.0, 39, 2, -0.5, 43, 2, -0.5
*EQUATION
3
1594, 3, 1.0, 39, 3, -0.5, 43, 3, -0.5
*EQUATION
3
1601, 1, 1.0, 115, 1, -0.5, 117, 1, -0.5
*EQUATION
3
1601, 2, 1.0, 115, 2, -0.5, 117, 2, -0.5
*EQUATION
3
1601, 3, 1.0, 115, 3, -0.5, 117, 3, -0.5
*EQUATION
3
1602, 1, 1.0, 115, 1, -0.5, 116, 1, -0.5
*EQUATION
3
1602, 2, 1.0, 115, 2, -0.5, 116, 2, -0.5
*EQUATION
3
1602, 3, 1.0, 115, 3, -0.5, 116, 3, -0.5
*EQUATION
5
1603, 1, 1.0, 115, 1, -0.25, 116, 1, -0.25, 118, 1, -0.25, 117, 1, -0.25
*EQUATION
5
1603, 2, 1.0, 115, 2, -0.25, 116, 2, -0.25, 118, 2, -0.25, 117, 2, -0.25
*EQUATION
5
1603, 3, 1.0, 115, 3, -0.25, 116, 3, -0.25, 118, 3, -0.25, 117, 3, -0.25
*EQUATION
3
1604, 1, 1.0, 116, 1, -0.5, 118, 1, -0.5
*EQUATION
3
1604, 2, 1.0, 116, 2, -0.5, 118, 2, -0.5
*EQUATION
3
1604, 3, 1.0, 116, 3, -0.5, 118, 3, -0.5
*EQUATION
3
1606, 1, 1.0, 1054, 1, -0.5, 1056, 1, -0.5
*EQUATION
3
1606, 2, 1.0, 1054, 2, -0.5, 1056, 2, -0.5
*EQUATION
3
1606, 3, 1.0, 1054, 3, -0.5, 1056, 3, -0.5
*EQUATION
3
1610, 1, 1.0, 1054, 1, -0.5, 1060, 1, -0.5
*EQUATION
3
1610, 2, 1.0, 1054, 2, -0.5, 1060, 2, -0.5
*EQUATION
3
1610, 3, 1.0, 1054, 3, -0.5, 1060, 3, -0.5
*EQUATION
5
1613, 1, 1.0, 1054, 1, -0.25, 1060, 1, -0.25, 1063, 1, -0.25, 1056, 1, -0.25
*EQUATION
5
1613, 2, 1.0, 1054, 2, -0.25, 1060, 2, -0.25, 1063, 2, -0.25, 1056, 2, -0.25
*EQUATION
5
1613, 3, 1.0, 1054, 3, -0.25, 1060, 3, -0.25, 1063, 3, -0.25, 1056, 3, -0.25
*EQUATION
3
1616, 1, 1.0, 1056, 1, -0.5, 1063, 1, -0.5
*EQUATION
3
1616, 2, 1.0, 1056, 2, -0.5, 1063, 2, -0.5
*EQUATION
3
1616, 3, 1.0, 1056, 3, -0.5, 1063, 3, -0.5
*EQUATION
3
1619, 1, 1.0, 1060, 1, -0.5, 1061, 1, -0.5
*EQUATION
3
1619, 2, 1.0, 1060, 2, -0.5, 1061, 2, -0.5
*EQUATION
3
1619, 3, 1.0, 1060, 3, -0.5, 1061, 3, -0.5
*EQUATION
3
1620, 1, 1.0, 1060, 1, -0.5, 1063, 1, -0.5
*EQUATION
3
1620, 2, 1.0, 1060, 2, -0.5, 1063, 2, -0.5
*EQUATION
3
1620, 3, 1.0, 1060, 3, -0.5, 1063, 3, -0.5
*EQUATION
5
1621, 1, 1.0, 1060, 1, -0.25, 1063, 1, -0.25, 1064, 1, -0.25, 1061, 1, -0.25
*EQUATION
5
1621, 2, 1.0, 1060, 2, -0.25, 1063, 2, -0.25, 1064, 2, -0.25, 1061, 2, -0.25
*EQUATION
5
1621, 3, 1.0, 1060, 3, -0.25, 1063, 3, -0.25, 1064, 3, -0.25, 1061, 3, -0.25
*EQUATION
3
1622, 1, 1.0, 1061, 1, -0.5, 1064, 1, -0.5
*EQUATION
3
1622, 2, 1.0, 1061, 2, -0.5, 1064, 2, -0.5
*EQUATION
3
1622, 3, 1.0, 1061, 3, -0.5, 1064, 3, -0.5
*EQUATION
3
1623, 1, 1.0, 1063, 1, -0.5, 1064, 1, -0.5
*EQUATION
3
1623, 2, 1.0, 1063, 2, -0.5, 1064, 2, -0.5
*EQUATION
3
1623, 3, 1.0, 1063, 3, -0.5, 1064, 3, -0.5
*EQUATION
3
1624, 1, 1.0, 1056, 1, -0.5, 1058, 1, -0.5
*EQUATION
3
1624, 2, 1.0, 1056, 2, -0.5, 1058, 2, -0.5
*EQUATION
3
1624, 3, 1.0, 1056, 3, -0.5, 1058, 3, -0.5
*EQUATION
3
1627, 1, 1.0, 47, 1, -0.5, 1058, 1, -0.5
*EQUATION
3
1627, 2, 1.0, 47, 2, -0.5, 1058, 2, -0.5
*EQUATION
3
1627, 3, 1.0, 47, 3, -0.5, 1058, 3, -0.5
*EQUATION
5
1628, 1, 1.0, 1056, 1, -0.25, 1063, 1, -0.25, 1066, 1, -0.25, 1058, 1, -0.25
*EQUATION
5
1628, 2, 1.0, 1056, 2, -0.25, 1063, 2, -0.25, 1066, 2, -0.25, 1058, 2, -0.25
*EQUATION
5
1628, 3, 1.0, 1056, 3, -0.25, 1063, 3, -0.25, 1066, 3, -0.25, 1058, 3, -0.25
*EQUATION
3
1631, 1, 1.0, 1058, 1, -0.5, 1066, 1, -0.5
*EQUATION
3
1631, 2, 1.0, 1058, 2, -0.5, 1066, 2, -0.5
*EQUATION
3
1631, 3, 1.0, 1058, 3, -0.5, 1066, 3, -0.5
*EQUATION
5
1632, 1, 1.0, 1058, 1, -0.25, 1066, 1, -0.25, 1067, 1, -0.25, 47, 1, -0.25
*EQUATION
5
1632, 2, 1.0, 1058, 2, -0.25, 1066, 2, -0.25, 1067, 2, -0.25, 47, 2, -0.25
*EQUATION
5
1632, 3, 1.0, 1058, 3, -0.25, 1066, 3, -0.25, 1067, 3, -0.25, 47, 3, -0.25
*EQUATION
3
1633, 1, 1.0, 47, 1, -0.5, 1067, 1, -0.5
*EQUATION
3
1633, 2, 1.0, 47, 2, -0.5, 1067, 2, -0.5
*EQUATION
3
1633, 3, 1.0, 47, 3, -0.5, 1067, 3, -0.5
*EQUATION
3
1634, 1, 1.0, 1063, 1, -0.5, 1066, 1, -0.5
*EQUATION
3
1634, 2, 1.0, 1063, 2, -0.5, 1066, 2, -0.5
*EQUATION
3
1634, 3, 1.0, 1063, 3, -0.5, 1066, 3, -0.5
*EQUATION
5
1635, 1, 1.0, 1063, 1, -0.25, 1066, 1, -0.25, 1067, 1, -0.25, 1064, 1, -0.25
*EQUATION
5
1635, 2, 1.0, 1063, 2, -0.25, 1066, 2, -0.25, 1067, 2, -0.25, 1064, 2, -0.25
*EQUATION
5
1635, 3, 1.0, 1063, 3, -0.25, 1066, 3, -0.25, 1067, 3, -0.25, 1064, 3, -0.25
*EQUATION
3
1636, 1, 1.0, 1064, 1, -0.5, 1067, 1, -0.5
*EQUATION
3
1636, 2, 1.0, 1064, 2, -0.5, 1067, 2, -0.5
*EQUATION
3
1636, 3, 1.0, 1064, 3, -0.5, 1067, 3, -0.5
*EQUATION
3
1637, 1, 1.0, 1066, 1, -0.5, 1067, 1, -0.5
*EQUATION
3
1637, 2, 1.0, 1066, 2, -0.5, 1067, 2, -0.5
*EQUATION
3
1637, 3, 1.0, 1066, 3, -0.5, 1067, 3, -0.5
*EQUATION
3
1721, 1, 1.0, 85, 1, -0.5, 87, 1, -0.5
*EQUATION
3
1721, 2, 1.0, 85, 2, -0.5, 87, 2, -0.5
*EQUATION
3
1721, 3, 1.0, 85, 3, -0.5, 87, 3, -0.5
*EQUATION
3
1728, 1, 1.0, 139, 1, -0.5, 140, 1, -0.5
*EQUATION
3
1728, 2, 1.0, 139, 2, -0.5, 140, 2, -0.5
*EQUATION
3
1728, 3, 1.0, 139, 3, -0.5, 140, 3, -0.5
*EQUATION
3
1729, 1, 1.0, 85, 1, -0.5, 91, 1, -0.5
*EQUATION
3
1729, 2, 1.0, 85, 2, -0.5, 91, 2, -0.5
*EQUATION
3
1729, 3, 1.0, 85, 3, -0.5, 91, 3, -0.5
*EQUATION
5
1730, 1, 1.0, 85, 1, -0.25, 91, 1, -0.25, 93, 1, -0.25, 87, 1, -0.25
*EQUATION
5
1730, 2, 1.0, 85, 2, -0.25, 91, 2, -0.25, 93, 2, -0.25, 87, 2, -0.25
*EQUATION
5
1730, 3, 1.0, 85, 3, -0.25, 91, 3, -0.25, 93, 3, -0.25, 87, 3, -0.25
*EQUATION
3
1731, 1, 1.0, 91, 1, -0.5, 93, 1, -0.5
*EQUATION
3
1731, 2, 1.0, 91, 2, -0.5, 93, 2, -0.5
*EQUATION
3
1731, 3, 1.0, 91, 3, -0.5, 93, 3, -0.5
*EQUATION
3
1736, 1, 1.0, 139, 1, -0.5, 142, 1, -0.5
*EQUATION
3
1736, 2, 1.0, 139, 2, -0.5, 142, 2, -0.5
*EQUATION
3
1736, 3, 1.0, 139, 3, -0.5, 142, 3, -0.5
*EQUATION
5
1737, 1, 1.0, 139, 1, -0.25, 142, 1, -0.25, 143, 1, -0.25, 140, 1, -0.25
*EQUATION
5
1737, 2, 1.0, 139, 2, -0.25, 142, 2, -0.25, 143, 2, -0.25, 140, 2, -0.25
*EQUATION
5
1737, 3, 1.0, 139, 3, -0.25, 142, 3, -0.25, 143, 3, -0.25, 140, 3, -0.25
*EQUATION
3
1738, 1, 1.0, 142, 1, -0.5, 143, 1, -0.5
*EQUATION
3
1738, 2, 1.0, 142, 2, -0.5, 143, 2, -0.5
*EQUATION
3
1738, 3, 1.0, 142, 3, -0.5, 143, 3, -0.5
*EQUATION
3
1739, 1, 1.0, 89, 1, -0.5, 1151, 1, -0.5
*EQUATION
3
1739, 2, 1.0, 89, 2, -0.5, 1151, 2, -0.5
*EQUATION
3
1739, 3, 1.0, 89, 3, -0.5, 1151, 3, -0.5
*EQUATION
3
1740, 1, 1.0, 1151, 1, -0.5, 1163, 1, -0.5
*EQUATION
3
1740, 2, 1.0, 1151, 2, -0.5, 1163, 2, -0.5
*EQUATION
3
1740, 3, 1.0, 1151, 3, -0.5, 1163, 3, -0.5
*EQUATION
3
1744, 1, 1.0, 1151, 1, -0.5, 1156, 1, -0.5
*EQUATION
3
1744, 2, 1.0, 1151, 2, -0.5, 1156, 2, -0.5
*EQUATION
3
1744, 3, 1.0, 1151, 3, -0.5, 1156, 3, -0.5
*EQUATION
5
1745, 1, 1.0, 1151, 1, -0.25, 1156, 1, -0.25, 1157, 1, -0.25, 89, 1, -0.25
*EQUATION
5
1745, 2, 1.0, 1151, 2, -0.25, 1156, 2, -0.25, 1157, 2, -0.25, 89, 2, -0.25
*EQUATION
5
1745, 3, 1.0, 1151, 3, -0.25, 1156, 3, -0.25, 1157, 3, -0.25, 89, 3, -0.25
*EQUATION
3
1746, 1, 1.0, 89, 1, -0.5, 1157, 1, -0.5
*EQUATION
3
1746, 2, 1.0, 89, 2, -0.5, 1157, 2, -0.5
*EQUATION
3
1746, 3, 1.0, 89, 3, -0.5, 1157, 3, -0.5
*EQUATION
5
1747, 1, 1.0, 1151, 1, -0.25, 1156, 1, -0.25, 1167, 1, -0.25, 1163, 1, -0.25
*EQUATION
5
1747, 2, 1.0, 1151, 2, -0.25, 1156, 2, -0.25, 1167, 2, -0.25, 1163, 2, -0.25
*EQUATION
5
1747, 3, 1.0, 1151, 3, -0.25, 1156, 3, -0.25, 1167, 3, -0.25, 1163, 3, -0.25
*EQUATION
3
1750, 1, 1.0, 1163, 1, -0.5, 1167, 1, -0.5
*EQUATION
3
1750, 2, 1.0, 1163, 2, -0.5, 1167, 2, -0.5
*EQUATION
3
1750, 3, 1.0, 1163, 3, -0.5, 1167, 3, -0.5
*EQUATION
3
1753, 1, 1.0, 1156, 1, -0.5, 1157, 1, -0.5
*EQUATION
3
1753, 2, 1.0, 1156, 2, -0.5, 1157, 2, -0.5
*EQUATION
3
1753, 3, 1.0, 1156, 3, -0.5, 1157, 3, -0.5
*EQUATION
3
1754, 1, 1.0, 1156, 1, -0.5, 1167, 1, -0.5
*EQUATION
3
1754, 2, 1.0, 1156, 2, -0.5, 1167, 2, -0.5
*EQUATION
3
1754, 3, 1.0, 1156, 3, -0.5, 1167, 3, -0.5
*EQUATION
5
1755, 1, 1.0, 1156, 1, -0.25, 1167, 1, -0.25, 1168, 1, -0.25, 1157, 1, -0.25
*EQUATION
5
1755, 2, 1.0, 1156, 2, -0.25, 1167, 2, -0.25, 1168, 2, -0.25, 1157, 2, -0.25
*EQUATION
5
1755, 3, 1.0, 1156, 3, -0.25, 1167, 3, -0.25, 1168, 3, -0.25, 1157, 3, -0.25
*EQUATION
3
1756, 1, 1.0, 1157, 1, -0.5, 1168, 1, -0.5
*EQUATION
3
1756, 2, 1.0, 1157, 2, -0.5, 1168, 2, -0.5
*EQUATION
3
1756, 3, 1.0, 1157, 3, -0.5, 1168, 3, -0.5
*EQUATION
3
1757, 1, 1.0, 1167, 1, -0.5, 1168, 1, -0.5
*EQUATION
3
1757, 2, 1.0, 1167, 2, -0.5, 1168, 2, -0.5
*EQUATION
3
1757, 3, 1.0, 1167, 3, -0.5, 1168, 3, -0.5
*EQUATION
3
1758, 1, 1.0, 1163, 1, -0.5, 1165, 1, -0.5
*EQUATION
3
1758, 2, 1.0, 1163, 2, -0.5, 1165, 2, -0.5
*EQUATION
3
1758, 3, 1.0, 1163, 3, -0.5, 1165, 3, -0.5
*EQUATION
5
1762, 1, 1.0, 1163, 1, -0.25, 1167, 1, -0.25, 1170, 1, -0.25, 1165, 1, -0.25
*EQUATION
5
1762, 2, 1.0, 1163, 2, -0.25, 1167, 2, -0.25, 1170, 2, -0.25, 1165, 2, -0.25
*EQUATION
5
1762, 3, 1.0, 1163, 3, -0.25, 1167, 3, -0.25, 1170, 3, -0.25, 1165, 3, -0.25
*EQUATION
3
1765, 1, 1.0, 1165, 1, -0.5, 1170, 1, -0.5
*EQUATION
3
1765, 2, 1.0, 1165, 2, -0.5, 1170, 2, -0.5
*EQUATION
3
1765, 3, 1.0, 1165, 3, -0.5, 1170, 3, -0.5
*EQUATION
3
1768, 1, 1.0, 1167, 1, -0.5, 1170, 1, -0.5
*EQUATION
3
1768, 2, 1.0, 1167, 2, -0.5, 1170, 2, -0.5
*EQUATION
3
1768, 3, 1.0, 1167, 3, -0.5, 1170, 3, -0.5
*EQUATION
5
1769, 1, 1.0, 1167, 1, -0.25, 1170, 1, -0.25, 1171, 1, -0.25, 1168, 1, -0.25
*EQUATION
5
1769, 2, 1.0, 1167, 2, -0.25, 1170, 2, -0.25, 1171, 2, -0.25, 1168, 2, -0.25
*EQUATION
5
1769, 3, 1.0, 1167, 3, -0.25, 1170, 3, -0.25, 1171, 3, -0.25, 1168, 3, -0.25
*EQUATION
3
1770, 1, 1.0, 1168, 1, -0.5, 1171, 1, -0.5
*EQUATION
3
1770, 2, 1.0, 1168, 2, -0.5, 1171, 2, -0.5
*EQUATION
3
1770, 3, 1.0, 1168, 3, -0.5, 1171, 3, -0.5
*EQUATION
3
1771, 1, 1.0, 1170, 1, -0.5, 1171, 1, -0.5
*EQUATION
3
1771, 2, 1.0, 1170, 2, -0.5, 1171, 2, -0.5
*EQUATION
3
1771, 3, 1.0, 1170, 3, -0.5, 1171, 3, -0.5
*EQUATION
3
1772, 1, 1.0, 1176, 1, -0.5, 1177, 1, -0.5
*EQUATION
3
1772, 2, 1.0, 1176, 2, -0.5, 1177, 2, -0.5
*EQUATION
3
1772, 3, 1.0, 1176, 3, -0.5, 1177, 3, -0.5
*EQUATION
3
1773, 1, 1.0, 1176, 1, -0.5, 1179, 1, -0.5
*EQUATION
3
1773, 2, 1.0, 1176, 2, -0.5, 1179, 2, -0.5
*EQUATION
3
1773, 3, 1.0, 1176, 3, -0.5, 1179, 3, -0.5
*EQUATION
5
1774, 1, 1.0, 1176, 1, -0.25, 1179, 1, -0.25, 1180, 1, -0.25, 1177, 1, -0.25
*EQUATION
5
1774, 2, 1.0, 1176, 2, -0.25, 1179, 2, -0.25, 1180, 2, -0.25, 1177, 2, -0.25
*EQUATION
5
1774, 3, 1.0, 1176, 3, -0.25, 1179, 3, -0.25, 1180, 3, -0.25, 1177, 3, -0.25
*EQUATION
3
1775, 1, 1.0, 1177, 1, -0.5, 1180, 1, -0.5
*EQUATION
3
1775, 2, 1.0, 1177, 2, -0.5, 1180, 2, -0.5
*EQUATION
3
1775, 3, 1.0, 1177, 3, -0.5, 1180, 3, -0.5
*EQUATION
3
1776, 1, 1.0, 1179, 1, -0.5, 1180, 1, -0.5
*EQUATION
3
1776, 2, 1.0, 1179, 2, -0.5, 1180, 2, -0.5
*EQUATION
3
1776, 3, 1.0, 1179, 3, -0.5, 1180, 3, -0.5
*EQUATION
3
1779, 1, 1.0, 1177, 1, -0.5, 1185, 1, -0.5
*EQUATION
3
1779, 2, 1.0, 1177, 2, -0.5, 1185, 2, -0.5
*EQUATION
3
1779, 3, 1.0, 1177, 3, -0.5, 1185, 3, -0.5
*EQUATION
5
1782, 1, 1.0, 1177, 1, -0.25, 1185, 1, -0.25, 1187, 1, -0.25, 1180, 1, -0.25
*EQUATION
5
1782, 2, 1.0, 1177, 2, -0.25, 1185, 2, -0.25, 1187, 2, -0.25, 1180, 2, -0.25
*EQUATION
5
1782, 3, 1.0, 1177, 3, -0.25, 1185, 3, -0.25, 1187, 3, -0.25, 1180, 3, -0.25
*EQUATION
3
1785, 1, 1.0, 1180, 1, -0.5, 1187, 1, -0.5
*EQUATION
3
1785, 2, 1.0, 1180, 2, -0.5, 1187, 2, -0.5
*EQUATION
3
1785, 3, 1.0, 1180, 3, -0.5, 1187, 3, -0.5
*EQUATION
3
1789, 1, 1.0, 1185, 1, -0.5, 1187, 1, -0.5
*EQUATION
3
1789, 2, 1.0, 1185, 2, -0.5, 1187, 2, -0.5
*EQUATION
3
1789, 3, 1.0, 1185, 3, -0.5, 1187, 3, -0.5
*EQUATION
3
1791, 1, 1.0, 1179, 1, -0.5, 1182, 1, -0.5
*EQUATION
3
1791, 2, 1.0, 1179, 2, -0.5, 1182, 2, -0.5
*EQUATION
3
1791, 3, 1.0, 1179, 3, -0.5, 1182, 3, -0.5
*EQUATION
5
1792, 1, 1.0, 1179, 1, -0.25, 1182, 1, -0.25, 1183, 1, -0.25, 1180, 1, -0.25
*EQUATION
5
1792, 2, 1.0, 1179, 2, -0.25, 1182, 2, -0.25, 1183, 2, -0.25, 1180, 2, -0.25
*EQUATION
5
1792, 3, 1.0, 1179, 3, -0.25, 1182, 3, -0.25, 1183, 3, -0.25, 1180, 3, -0.25
*EQUATION
3
1793, 1, 1.0, 1180, 1, -0.5, 1183, 1, -0.5
*EQUATION
3
1793, 2, 1.0, 1180, 2, -0.5, 1183, 2, -0.5
*EQUATION
3
1793, 3, 1.0, 1180, 3, -0.5, 1183, 3, -0.5
*EQUATION
3
1794, 1, 1.0, 1182, 1, -0.5, 1183, 1, -0.5
*EQUATION
3
1794, 2, 1.0, 1182, 2, -0.5, 1183, 2, -0.5
*EQUATION
3
1794, 3, 1.0, 1182, 3, -0.5, 1183, 3, -0.5
*EQUATION
5
1797, 1, 1.0, 1180, 1, -0.25, 1187, 1, -0.25, 1189, 1, -0.25, 1183, 1, -0.25
*EQUATION
5
1797, 2, 1.0, 1180, 2, -0.25, 1187, 2, -0.25, 1189, 2, -0.25, 1183, 2, -0.25
*EQUATION
5
1797, 3, 1.0, 1180, 3, -0.25, 1187, 3, -0.25, 1189, 3, -0.25, 1183, 3, -0.25
*EQUATION
3
1800, 1, 1.0, 1183, 1, -0.5, 1189, 1, -0.5
*EQUATION
3
1800, 2, 1.0, 1183, 2, -0.5, 1189, 2, -0.5
*EQUATION
3
1800, 3, 1.0, 1183, 3, -0.5, 1189, 3, -0.5
*EQUATION
3
1803, 1, 1.0, 1187, 1, -0.5, 1189, 1, -0.5
*EQUATION
3
1803, 2, 1.0, 1187, 2, -0.5, 1189, 2, -0.5
*EQUATION
3
1803, 3, 1.0, 1187, 3, -0.5, 1189, 3, -0.5
*EQUATION
3
1815, 1, 1.0, 1182, 1, -0.5, 1190, 1, -0.5
*EQUATION
3
1815, 2, 1.0, 1182, 2, -0.5, 1190, 2, -0.5
*EQUATION
3
1815, 3, 1.0, 1182, 3, -0.5, 1190, 3, -0.5
*EQUATION
5
1816, 1, 1.0, 1182, 1, -0.25, 1190, 1, -0.25, 1191, 1, -0.25, 1183, 1, -0.25
*EQUATION
5
1816, 2, 1.0, 1182, 2, -0.25, 1190, 2, -0.25, 1191, 2, -0.25, 1183, 2, -0.25
*EQUATION
5
1816, 3, 1.0, 1182, 3, -0.25, 1190, 3, -0.25, 1191, 3, -0.25, 1183, 3, -0.25
*EQUATION
3
1817, 1, 1.0, 1183, 1, -0.5, 1191, 1, -0.5
*EQUATION
3
1817, 2, 1.0, 1183, 2, -0.5, 1191, 2, -0.5
*EQUATION
3
1817, 3, 1.0, 1183, 3, -0.5, 1191, 3, -0.5
*EQUATION
3
1818, 1, 1.0, 1190, 1, -0.5, 1191, 1, -0.5
*EQUATION
3
1818, 2, 1.0, 1190, 2, -0.5, 1191, 2, -0.5
*EQUATION
3
1818, 3, 1.0, 1190, 3, -0.5, 1191, 3, -0.5
*EQUATION
5
1821, 1, 1.0, 1183, 1, -0.25, 1189, 1, -0.25, 1197, 1, -0.25, 1191, 1, -0.25
*EQUATION
5
1821, 2, 1.0, 1183, 2, -0.25, 1189, 2, -0.25, 1197, 2, -0.25, 1191, 2, -0.25
*EQUATION
5
1821, 3, 1.0, 1183, 3, -0.25, 1189, 3, -0.25, 1197, 3, -0.25, 1191, 3, -0.25
*EQUATION
3
1824, 1, 1.0, 1191, 1, -0.5, 1197, 1, -0.5
*EQUATION
3
1824, 2, 1.0, 1191, 2, -0.5, 1197, 2, -0.5
*EQUATION
3
1824, 3, 1.0, 1191, 3, -0.5, 1197, 3, -0.5
*EQUATION
3
1827, 1, 1.0, 1189, 1, -0.5, 1197, 1, -0.5
*EQUATION
3
1827, 2, 1.0, 1189, 2, -0.5, 1197, 2, -0.5
*EQUATION
3
1827, 3, 1.0, 1189, 3, -0.5, 1197, 3, -0.5
*EQUATION
3
1829, 1, 1.0, 1190, 1, -0.5, 1193, 1, -0.5
*EQUATION
3
1829, 2, 1.0, 1190, 2, -0.5, 1193, 2, -0.5
*EQUATION
3
1829, 3, 1.0, 1190, 3, -0.5, 1193, 3, -0.5
*EQUATION
5
1830, 1, 1.0, 1190, 1, -0.25, 1193, 1, -0.25, 1194, 1, -0.25, 1191, 1, -0.25
*EQUATION
5
1830, 2, 1.0, 1190, 2, -0.25, 1193, 2, -0.25, 1194, 2, -0.25, 1191, 2, -0.25
*EQUATION
5
1830, 3, 1.0, 1190, 3, -0.25, 1193, 3, -0.25, 1194, 3, -0.25, 1191, 3, -0.25
*EQUATION
3
1831, 1, 1.0, 1191, 1, -0.5, 1194, 1, -0.5
*EQUATION
3
1831, 2, 1.0, 1191, 2, -0.5, 1194, 2, -0.5
*EQUATION
3
1831, 3, 1.0, 1191, 3, -0.5, 1194, 3, -0.5
*EQUATION
3
1832, 1, 1.0, 1193, 1, -0.5, 1194, 1, -0.5
*EQUATION
3
1832, 2, 1.0, 1193, 2, -0.5, 1194, 2, -0.5
*EQUATION
3
1832, 3, 1.0, 1193, 3, -0.5, 1194, 3, -0.5
*EQUATION
5
1835, 1, 1.0, 1191, 1, -0.25, 1197, 1, -0.25, 1199, 1, -0.25, 1194, 1, -0.25
*EQUATION
5
1835, 2, 1.0, 1191, 2, -0.25, 1197, 2, -0.25, 1199, 2, -0.25, 1194, 2, -0.25
*EQUATION
5
1835, 3, 1.0, 1191, 3, -0.25, 1197, 3, -0.25, 1199, 3, -0.25, 1194, 3, -0.25
*EQUATION
3
1838, 1, 1.0, 1194, 1, -0.5, 1199, 1, -0.5
*EQUATION
3
1838, 2, 1.0, 1194, 2, -0.5, 1199, 2, -0.5
*EQUATION
3
1838, 3, 1.0, 1194, 3, -0.5, 1199, 3, -0.5
*EQUATION
3
1841, 1, 1.0, 1197, 1, -0.5, 1199, 1, -0.5
*EQUATION
3
1841, 2, 1.0, 1197, 2, -0.5, 1199, 2, -0.5
*EQUATION
3
1841, 3, 1.0, 1197, 3, -0.5, 1199, 3, -0.5
*EQUATION
3
1852, 1, 1.0, 1185, 1, -0.5, 1201, 1, -0.5
*EQUATION
3
1852, 2, 1.0, 1185, 2, -0.5, 1201, 2, -0.5
*EQUATION
3
1852, 3, 1.0, 1185, 3, -0.5, 1201, 3, -0.5
*EQUATION
5
1855, 1, 1.0, 1185, 1, -0.25, 1201, 1, -0.25, 1204, 1, -0.25, 1187, 1, -0.25
*EQUATION
5
1855, 2, 1.0, 1185, 2, -0.25, 1201, 2, -0.25, 1204, 2, -0.25, 1187, 2, -0.25
*EQUATION
5
1855, 3, 1.0, 1185, 3, -0.25, 1201, 3, -0.25, 1204, 3, -0.25, 1187, 3, -0.25
*EQUATION
3
1858, 1, 1.0, 1187, 1, -0.5, 1204, 1, -0.5
*EQUATION
3
1858, 2, 1.0, 1187, 2, -0.5, 1204, 2, -0.5
*EQUATION
3
1858, 3, 1.0, 1187, 3, -0.5, 1204, 3, -0.5
*EQUATION
3
1862, 1, 1.0, 1201, 1, -0.5, 1204, 1, -0.5
*EQUATION
3
1862, 2, 1.0, 1201, 2, -0.5, 1204, 2, -0.5
*EQUATION
3
1862, 3, 1.0, 1201, 3, -0.5, 1204, 3, -0.5
*EQUATION
5
1866, 1, 1.0, 1187, 1, -0.25, 1204, 1, -0.25, 1207, 1, -0.25, 1189, 1, -0.25
*EQUATION
5
1866, 2, 1.0, 1187, 2, -0.25, 1204, 2, -0.25, 1207, 2, -0.25, 1189, 2, -0.25
*EQUATION
5
1866, 3, 1.0, 1187, 3, -0.25, 1204, 3, -0.25, 1207, 3, -0.25, 1189, 3, -0.25
*EQUATION
3
1869, 1, 1.0, 1189, 1, -0.5, 1207, 1, -0.5
*EQUATION
3
1869, 2, 1.0, 1189, 2, -0.5, 1207, 2, -0.5
*EQUATION
3
1869, 3, 1.0, 1189, 3, -0.5, 1207, 3, -0.5
*EQUATION
3
1872, 1, 1.0, 1204, 1, -0.5, 1207, 1, -0.5
*EQUATION
3
1872, 2, 1.0, 1204, 2, -0.5, 1207, 2, -0.5
*EQUATION
3
1872, 3, 1.0, 1204, 3, -0.5, 1207, 3, -0.5
*EQUATION
3
1876, 1, 1.0, 1201, 1, -0.5, 1209, 1, -0.5
*EQUATION
3
1876, 2, 1.0, 1201, 2, -0.5, 1209, 2, -0.5
*EQUATION
3
1876, 3, 1.0, 1201, 3, -0.5, 1209, 3, -0.5
*EQUATION
5
1879, 1, 1.0, 1201, 1, -0.25, 1209, 1, -0.25, 1211, 1, -0.25, 1204, 1, -0.25
*EQUATION
5
1879, 2, 1.0, 1201, 2, -0.25, 1209, 2, -0.25, 1211, 2, -0.25, 1204, 2, -0.25
*EQUATION
5
1879, 3, 1.0, 1201, 3, -0.25, 1209, 3, -0.25, 1211, 3, -0.25, 1204, 3, -0.25
*EQUATION
3
1882, 1, 1.0, 1204, 1, -0.5, 1211, 1, -0.5
*EQUATION
3
1882, 2, 1.0, 1204, 2, -0.5, 1211, 2, -0.5
*EQUATION
3
1882, 3, 1.0, 1204, 3, -0.5, 1211, 3, -0.5
*EQUATION
3
1883, 1, 1.0, 193, 1, -0.5, 1209, 1, -0.5
*EQUATION
3
1883, 2, 1.0, 193, 2, -0.5, 1209, 2, -0.5
*EQUATION
3
1883, 3, 1.0, 193, 3, -0.5, 1209, 3, -0.5
*EQUATION
3
1884, 1, 1.0, 193, 1, -0.5, 1210, 1, -0.5
*EQUATION
3
1884, 2, 1.0, 193, 2, -0.5, 1210, 2, -0.5
*EQUATION
3
1884, 3, 1.0, 193, 3, -0.5, 1210, 3, -0.5
*EQUATION
5
1885, 1, 1.0, 193, 1, -0.25, 1210, 1, -0.25, 1211, 1, -0.25, 1209, 1, -0.25
*EQUATION
5
1885, 2, 1.0, 193, 2, -0.25, 1210, 2, -0.25, 1211, 2, -0.25, 1209, 2, -0.25
*EQUATION
5
1885, 3, 1.0, 193, 3, -0.25, 1210, 3, -0.25, 1211, 3, -0.25, 1209, 3, -0.25
*EQUATION
3
1886, 1, 1.0, 1209, 1, -0.5, 1211, 1, -0.5
*EQUATION
3
1886, 2, 1.0, 1209, 2, -0.5, 1211, 2, -0.5
*EQUATION
3
1886, 3, 1.0, 1209, 3, -0.5, 1211, 3, -0.5
*EQUATION
3
1887, 1, 1.0, 1210, 1, -0.5, 1211, 1, -0.5
*EQUATION
3
1887, 2, 1.0, 1210, 2, -0.5, 1211, 2, -0.5
*EQUATION
3
1887, 3, 1.0, 1210, 3, -0.5, 1211, 3, -0.5
*EQUATION
5
1890, 1, 1.0, 1204, 1, -0.25, 1211, 1, -0.25, 1213, 1, -0.25, 1207, 1, -0.25
*EQUATION
5
1890, 2, 1.0, 1204, 2, -0.25, 1211, 2, -0.25, 1213, 2, -0.25, 1207, 2, -0.25
*EQUATION
5
1890, 3, 1.0, 1204, 3, -0.25, 1211, 3, -0.25, 1213, 3, -0.25, 1207, 3, -0.25
*EQUATION
3
1893, 1, 1.0, 1207, 1, -0.5, 1213, 1, -0.5
*EQUATION
3
1893, 2, 1.0, 1207, 2, -0.5, 1213, 2, -0.5
*EQUATION
3
1893, 3, 1.0, 1207, 3, -0.5, 1213, 3, -0.5
*EQUATION
3
1894, 1, 1.0, 194, 1, -0.5, 1210, 1, -0.5
*EQUATION
3
1894, 2, 1.0, 194, 2, -0.5, 1210, 2, -0.5
*EQUATION
3
1894, 3, 1.0, 194, 3, -0.5, 1210, 3, -0.5
*EQUATION
5
1895, 1, 1.0, 1210, 1, -0.25, 194, 1, -0.25, 1213, 1, -0.25, 1211, 1, -0.25
*EQUATION
5
1895, 2, 1.0, 1210, 2, -0.25, 194, 2, -0.25, 1213, 2, -0.25, 1211, 2, -0.25
*EQUATION
5
1895, 3, 1.0, 1210, 3, -0.25, 194, 3, -0.25, 1213, 3, -0.25, 1211, 3, -0.25
*EQUATION
3
1896, 1, 1.0, 1211, 1, -0.5, 1213, 1, -0.5
*EQUATION
3
1896, 2, 1.0, 1211, 2, -0.5, 1213, 2, -0.5
*EQUATION
3
1896, 3, 1.0, 1211, 3, -0.5, 1213, 3, -0.5
*EQUATION
3
1897, 1, 1.0, 194, 1, -0.5, 1213, 1, -0.5
*EQUATION
3
1897, 2, 1.0, 194, 2, -0.5, 1213, 2, -0.5
*EQUATION
3
1897, 3, 1.0, 194, 3, -0.5, 1213, 3, -0.5
*EQUATION
5
1910, 1, 1.0, 1189, 1, -0.25, 1207, 1, -0.25, 1215, 1, -0.25, 1197, 1, -0.25
*EQUATION
5
1910, 2, 1.0, 1189, 2, -0.25, 1207, 2, -0.25, 1215, 2, -0.25, 1197, 2, -0.25
*EQUATION
5
1910, 3, 1.0, 1189, 3, -0.25, 1207, 3, -0.25, 1215, 3, -0.25, 1197, 3, -0.25
*EQUATION
3
1913, 1, 1.0, 1197, 1, -0.5, 1215, 1, -0.5
*EQUATION
3
1913, 2, 1.0, 1197, 2, -0.5, 1215, 2, -0.5
*EQUATION
3
1913, 3, 1.0, 1197, 3, -0.5, 1215, 3, -0.5
*EQUATION
3
1916, 1, 1.0, 1207, 1, -0.5, 1215, 1, -0.5
*EQUATION
3
1916, 2, 1.0, 1207, 2, -0.5, 1215, 2, -0.5
*EQUATION
3
1916, 3, 1.0, 1207, 3, -0.5, 1215, 3, -0.5
*EQUATION
5
1920, 1, 1.0, 1197, 1, -0.25, 1215, 1, -0.25, 1218, 1, -0.25, 1199, 1, -0.25
*EQUATION
5
1920, 2, 1.0, 1197, 2, -0.25, 1215, 2, -0.25, 1218, 2, -0.25, 1199, 2, -0.25
*EQUATION
5
1920, 3, 1.0, 1197, 3, -0.25, 1215, 3, -0.25, 1218, 3, -0.25, 1199, 3, -0.25
*EQUATION
3
1923, 1, 1.0, 1199, 1, -0.5, 1218, 1, -0.5
*EQUATION
3
1923, 2, 1.0, 1199, 2, -0.5, 1218, 2, -0.5
*EQUATION
3
1923, 3, 1.0, 1199, 3, -0.5, 1218, 3, -0.5
*EQUATION
3
1926, 1, 1.0, 1215, 1, -0.5, 1218, 1, -0.5
*EQUATION
3
1926, 2, 1.0, 1215, 2, -0.5, 1218, 2, -0.5
*EQUATION
3
1926, 3, 1.0, 1215, 3, -0.5, 1218, 3, -0.5
*EQUATION
5
1930, 1, 1.0, 1207, 1, -0.25, 1213, 1, -0.25, 1221, 1, -0.25, 1215, 1, -0.25
*EQUATION
5
1930, 2, 1.0, 1207, 2, -0.25, 1213, 2, -0.25, 1221, 2, -0.25, 1215, 2, -0.25
*EQUATION
5
1930, 3, 1.0, 1207, 3, -0.25, 1213, 3, -0.25, 1221, 3, -0.25, 1215, 3, -0.25
*EQUATION
3
1933, 1, 1.0, 1215, 1, -0.5, 1221, 1, -0.5
*EQUATION
3
1933, 2, 1.0, 1215, 2, -0.5, 1221, 2, -0.5
*EQUATION
3
1933, 3, 1.0, 1215, 3, -0.5, 1221, 3, -0.5
*EQUATION
3
1934, 1, 1.0, 194, 1, -0.5, 1220, 1, -0.5
*EQUATION
3
1934, 2, 1.0, 194, 2, -0.5, 1220, 2, -0.5
*EQUATION
3
1934, 3, 1.0, 194, 3, -0.5, 1220, 3, -0.5
*EQUATION
5
1935, 1, 1.0, 194, 1, -0.25, 1220, 1, -0.25, 1221, 1, -0.25, 1213, 1, -0.25
*EQUATION
5
1935, 2, 1.0, 194, 2, -0.25, 1220, 2, -0.25, 1221, 2, -0.25, 1213, 2, -0.25
*EQUATION
5
1935, 3, 1.0, 194, 3, -0.25, 1220, 3, -0.25, 1221, 3, -0.25, 1213, 3, -0.25
*EQUATION
3
1936, 1, 1.0, 1213, 1, -0.5, 1221, 1, -0.5
*EQUATION
3
1936, 2, 1.0, 1213, 2, -0.5, 1221, 2, -0.5
*EQUATION
3
1936, 3, 1.0, 1213, 3, -0.5, 1221, 3, -0.5
*EQUATION
3
1937, 1, 1.0, 1220, 1, -0.5, 1221, 1, -0.5
*EQUATION
3
1937, 2, 1.0, 1220, 2, -0.5, 1221, 2, -0.5
*EQUATION
3
1937, 3, 1.0, 1220, 3, -0.5, 1221, 3, -0.5
*EQUATION
5
1940, 1, 1.0, 1215, 1, -0.25, 1221, 1, -0.25, 1223, 1, -0.25, 1218, 1, -0.25
*EQUATION
5
1940, 2, 1.0, 1215, 2, -0.25, 1221, 2, -0.25, 1223, 2, -0.25, 1218, 2, -0.25
*EQUATION
5
1940, 3, 1.0, 1215, 3, -0.25, 1221, 3, -0.25, 1223, 3, -0.25, 1218, 3, -0.25
*EQUATION
3
1943, 1, 1.0, 1218, 1, -0.5, 1223, 1, -0.5
*EQUATION
3
1943, 2, 1.0, 1218, 2, -0.5, 1223, 2, -0.5
*EQUATION
3
1943, 3, 1.0, 1218, 3, -0.5, 1223, 3, -0.5
*EQUATION
3
1944, 1, 1.0, 205, 1, -0.5, 1220, 1, -0.5
*EQUATION
3
1944, 2, 1.0, 205, 2, -0.5, 1220, 2, -0.5
*EQUATION
3
1944, 3, 1.0, 205, 3, -0.5, 1220, 3, -0.5
*EQUATION
5
1945, 1, 1.0, 1220, 1, -0.25, 205, 1, -0.25, 1223, 1, -0.25, 1221, 1, -0.25
*EQUATION
5
1945, 2, 1.0, 1220, 2, -0.25, 205, 2, -0.25, 1223, 2, -0.25, 1221, 2, -0.25
*EQUATION
5
1945, 3, 1.0, 1220, 3, -0.25, 205, 3, -0.25, 1223, 3, -0.25, 1221, 3, -0.25
*EQUATION
3
1946, 1, 1.0, 1221, 1, -0.5, 1223, 1, -0.5
*EQUATION
3
1946, 2, 1.0, 1221, 2, -0.5, 1223, 2, -0.5
*EQUATION
3
1946, 3, 1.0, 1221, 3, -0.5, 1223, 3, -0.5
*EQUATION
3
1947, 1, 1.0, 205, 1, -0.5, 1223, 1, -0.5
*EQUATION
3
1947, 2, 1.0, 205, 2, -0.5, 1223, 2, -0.5
*EQUATION
3
1947, 3, 1.0, 205, 3, -0.5, 1223, 3, -0.5
*EQUATION
3
2030, 1, 1.0, 936, 1, -0.5, 937, 1, -0.5
*EQUATION
3
2030, 2, 1.0, 936, 2, -0.5, 937, 2, -0.5
*EQUATION
3
2030, 3, 1.0, 936, 3, -0.5, 937, 3, -0.5
*EQUATION
5
2031, 1, 1.0, 936, 1, -0.25, 938, 1, -0.25, 939, 1, -0.25, 937, 1, -0.25
*EQUATION
5
2031, 2, 1.0, 936, 2, -0.25, 938, 2, -0.25, 939, 2, -0.25, 937, 2, -0.25
*EQUATION
5
2031, 3, 1.0, 936, 3, -0.25, 938, 3, -0.25, 939, 3, -0.25, 937, 3, -0.25
*EQUATION
3
2032, 1, 1.0, 937, 1, -0.5, 939, 1, -0.5
*EQUATION
3
2032, 2, 1.0, 937, 2, -0.5, 939, 2, -0.5
*EQUATION
3
2032, 3, 1.0, 937, 3, -0.5, 939, 3, -0.5
*EQUATION
3
2033, 1, 1.0, 938, 1, -0.5, 939, 1, -0.5
*EQUATION
3
2033, 2, 1.0, 938, 2, -0.5, 939, 2, -0.5
*EQUATION
3
2033, 3, 1.0, 938, 3, -0.5, 939, 3, -0.5
*EQUATION
3
2040, 1, 1.0, 10, 1, -0.5, 942, 1, -0.5
*EQUATION
3
2040, 2, 1.0, 10, 2, -0.5, 942, 2, -0.5
*EQUATION
3
2040, 3, 1.0, 10, 3, -0.5, 942, 3, -0.5
*EQUATION
5
2041, 1, 1.0, 942, 1, -0.25, 943, 1, -0.25, 944, 1, -0.25, 10, 1, -0.25
*EQUATION
5
2041, 2, 1.0, 942, 2, -0.25, 943, 2, -0.25, 944, 2, -0.25, 10, 2, -0.25
*EQUATION
5
2041, 3, 1.0, 942, 3, -0.25, 943, 3, -0.25, 944, 3, -0.25, 10, 3, -0.25
*EQUATION
3
2042, 1, 1.0, 10, 1, -0.5, 944, 1, -0.5
*EQUATION
3
2042, 2, 1.0, 10, 2, -0.5, 944, 2, -0.5
*EQUATION
3
2042, 3, 1.0, 10, 3, -0.5, 944, 3, -0.5
*EQUATION
3
2043, 1, 1.0, 943, 1, -0.5, 944, 1, -0.5
*EQUATION
3
2043, 2, 1.0, 943, 2, -0.5, 944, 2, -0.5
*EQUATION
3
2043, 3, 1.0, 943, 3, -0.5, 944, 3, -0.5
*EQUATION
5
2044, 1, 1.0, 938, 1, -0.25, 940, 1, -0.25, 941, 1, -0.25, 939, 1, -0.25
*EQUATION
5
2044, 2, 1.0, 938, 2, -0.25, 940, 2, -0.25, 941, 2, -0.25, 939, 2, -0.25
*EQUATION
5
2044, 3, 1.0, 938, 3, -0.25, 940, 3, -0.25, 941, 3, -0.25, 939, 3, -0.25
*EQUATION
3
2045, 1, 1.0, 939, 1, -0.5, 941, 1, -0.5
*EQUATION
3
2045, 2, 1.0, 939, 2, -0.5, 941, 2, -0.5
*EQUATION
3
2045, 3, 1.0, 939, 3, -0.5, 941, 3, -0.5
*EQUATION
3
2046, 1, 1.0, 940, 1, -0.5, 941, 1, -0.5
*EQUATION
3
2046, 2, 1.0, 940, 2, -0.5, 941, 2, -0.5
*EQUATION
3
2046, 3, 1.0, 940, 3, -0.5, 941, 3, -0.5
*EQUATION
5
2051, 1, 1.0, 943, 1, -0.25, 945, 1, -0.25, 11, 1, -0.25, 944, 1, -0.25
*EQUATION
5
2051, 2, 1.0, 943, 2, -0.25, 945, 2, -0.25, 11, 2, -0.25, 944, 2, -0.25
*EQUATION
5
2051, 3, 1.0, 943, 3, -0.25, 945, 3, -0.25, 11, 3, -0.25, 944, 3, -0.25
*EQUATION
3
2052, 1, 1.0, 11, 1, -0.5, 944, 1, -0.5
*EQUATION
3
2052, 2, 1.0, 11, 2, -0.5, 944, 2, -0.5
*EQUATION
3
2052, 3, 1.0, 11, 3, -0.5, 944, 3, -0.5
*EQUATION
3
2053, 1, 1.0, 11, 1, -0.5, 945, 1, -0.5
*EQUATION
3
2053, 2, 1.0, 11, 2, -0.5, 945, 2, -0.5
*EQUATION
3
2053, 3, 1.0, 11, 3, -0.5, 945, 3, -0.5
*EQUATION
3
2054, 1, 1.0, 937, 1, -0.5, 1467, 1, -0.5
*EQUATION
3
2054, 2, 1.0, 937, 2, -0.5, 1467, 2, -0.5
*EQUATION
3
2054, 3, 1.0, 937, 3, -0.5, 1467, 3, -0.5
*EQUATION
5
2055, 1, 1.0, 937, 1, -0.25, 939, 1, -0.25, 1469, 1, -0.25, 1467, 1, -0.25
*EQUATION
5
2055, 2, 1.0, 937, 2, -0.25, 939, 2, -0.25, 1469, 2, -0.25, 1467, 2, -0.25
*EQUATION
5
2055, 3, 1.0, 937, 3, -0.25, 939, 3, -0.25, 1469, 3, -0.25, 1467, 3, -0.25
*EQUATION
3
2056, 1, 1.0, 1467, 1, -0.5, 1469, 1, -0.5
*EQUATION
3
2056, 2, 1.0, 1467, 2, -0.5, 1469, 2, -0.5
*EQUATION
3
2056, 3, 1.0, 1467, 3, -0.5, 1469, 3, -0.5
*EQUATION
3
2057, 1, 1.0, 939, 1, -0.5, 1469, 1, -0.5
*EQUATION
3
2057, 2, 1.0, 939, 2, -0.5, 1469, 2, -0.5
*EQUATION
3
2057, 3, 1.0, 939, 3, -0.5, 1469, 3, -0.5
*EQUATION
3
2059, 1, 1.0, 994, 1, -0.5, 1467, 1, -0.5
*EQUATION
3
2059, 2, 1.0, 994, 2, -0.5, 1467, 2, -0.5
*EQUATION
3
2059, 3, 1.0, 994, 3, -0.5, 1467, 3, -0.5
*EQUATION
5
2061, 1, 1.0, 1467, 1, -0.25, 994, 1, -0.25, 995, 1, -0.25, 1469, 1, -0.25
*EQUATION
5
2061, 2, 1.0, 1467, 2, -0.25, 994, 2, -0.25, 995, 2, -0.25, 1469, 2, -0.25
*EQUATION
5
2061, 3, 1.0, 1467, 3, -0.25, 994, 3, -0.25, 995, 3, -0.25, 1469, 3, -0.25
*EQUATION
3
2063, 1, 1.0, 995, 1, -0.5, 1469, 1, -0.5
*EQUATION
3
2063, 2, 1.0, 995, 2, -0.5, 1469, 2, -0.5
*EQUATION
3
2063, 3, 1.0, 995, 3, -0.5, 1469, 3, -0.5
*EQUATION
3
2066, 1, 1.0, 994, 1, -0.5, 995, 1, -0.5
*EQUATION
3
2066, 2, 1.0, 994, 2, -0.5, 995, 2, -0.5
*EQUATION
3
2066, 3, 1.0, 994, 3, -0.5, 995, 3, -0.5
*EQUATION
5
2068, 1, 1.0, 939, 1, -0.25, 941, 1, -0.25, 1471, 1, -0.25, 1469, 1, -0.25
*EQUATION
5
2068, 2, 1.0, 939, 2, -0.25, 941, 2, -0.25, 1471, 2, -0.25, 1469, 2, -0.25
*EQUATION
5
2068, 3, 1.0, 939, 3, -0.25, 941, 3, -0.25, 1471, 3, -0.25, 1469, 3, -0.25
*EQUATION
3
2069, 1, 1.0, 1469, 1, -0.5, 1471, 1, -0.5
*EQUATION
3
2069, 2, 1.0, 1469, 2, -0.5, 1471, 2, -0.5
*EQUATION
3
2069, 3, 1.0, 1469, 3, -0.5, 1471, 3, -0.5
*EQUATION
3
2070, 1, 1.0, 941, 1, -0.5, 1471, 1, -0.5
*EQUATION
3
2070, 2, 1.0, 941, 2, -0.5, 1471, 2, -0.5
*EQUATION
3
2070, 3, 1.0, 941, 3, -0.5, 1471, 3, -0.5
*EQUATION
5
2072, 1, 1.0, 1469, 1, -0.25, 995, 1, -0.25, 997, 1, -0.25, 1471, 1, -0.25
*EQUATION
5
2072, 2, 1.0, 1469, 2, -0.25, 995, 2, -0.25, 997, 2, -0.25, 1471, 2, -0.25
*EQUATION
5
2072, 3, 1.0, 1469, 3, -0.25, 995, 3, -0.25, 997, 3, -0.25, 1471, 3, -0.25
*EQUATION
3
2074, 1, 1.0, 997, 1, -0.5, 1471, 1, -0.5
*EQUATION
3
2074, 2, 1.0, 997, 2, -0.5, 1471, 2, -0.5
*EQUATION
3
2074, 3, 1.0, 997, 3, -0.5, 1471, 3, -0.5
*EQUATION
3
2076, 1, 1.0, 995, 1, -0.5, 997, 1, -0.5
*EQUATION
3
2076, 2, 1.0, 995, 2, -0.5, 997, 2, -0.5
*EQUATION
3
2076, 3, 1.0, 995, 3, -0.5, 997, 3, -0.5
*EQUATION
5
2098, 1, 1.0, 940, 1, -0.25, 963, 1, -0.25, 964, 1, -0.25, 941, 1, -0.25
*EQUATION
5
2098, 2, 1.0, 940, 2, -0.25, 963, 2, -0.25, 964, 2, -0.25, 941, 2, -0.25
*EQUATION
5
2098, 3, 1.0, 940, 3, -0.25, 963, 3, -0.25, 964, 3, -0.25, 941, 3, -0.25
*EQUATION
3
2099, 1, 1.0, 941, 1, -0.5, 964, 1, -0.5
*EQUATION
3
2099, 2, 1.0, 941, 2, -0.5, 964, 2, -0.5
*EQUATION
3
2099, 3, 1.0, 941, 3, -0.5, 964, 3, -0.5
*EQUATION
3
2100, 1, 1.0, 963, 1, -0.5, 964, 1, -0.5
*EQUATION
3
2100, 2, 1.0, 963, 2, -0.5, 964, 2, -0.5
*EQUATION
3
2100, 3, 1.0, 963, 3, -0.5, 964, 3, -0.5
*EQUATION
5
2105, 1, 1.0, 945, 1, -0.25, 967, 1, -0.25, 968, 1, -0.25, 11, 1, -0.25
*EQUATION
5
2105, 2, 1.0, 945, 2, -0.25, 967, 2, -0.25, 968, 2, -0.25, 11, 2, -0.25
*EQUATION
5
2105, 3, 1.0, 945, 3, -0.25, 967, 3, -0.25, 968, 3, -0.25, 11, 3, -0.25
*EQUATION
3
2106, 1, 1.0, 11, 1, -0.5, 968, 1, -0.5
*EQUATION
3
2106, 2, 1.0, 11, 2, -0.5, 968, 2, -0.5
*EQUATION
3
2106, 3, 1.0, 11, 3, -0.5, 968, 3, -0.5
*EQUATION
3
2107, 1, 1.0, 967, 1, -0.5, 968, 1, -0.5
*EQUATION
3
2107, 2, 1.0, 967, 2, -0.5, 968, 2, -0.5
*EQUATION
3
2107, 3, 1.0, 967, 3, -0.5, 968, 3, -0.5
*EQUATION
5
2108, 1, 1.0, 963, 1, -0.25, 965, 1, -0.25, 966, 1, -0.25, 964, 1, -0.25
*EQUATION
5
2108, 2, 1.0, 963, 2, -0.25, 965, 2, -0.25, 966, 2, -0.25, 964, 2, -0.25
*EQUATION
5
2108, 3, 1.0, 963, 3, -0.25, 965, 3, -0.25, 966, 3, -0.25, 964, 3, -0.25
*EQUATION
3
2109, 1, 1.0, 964, 1, -0.5, 966, 1, -0.5
*EQUATION
3
2109, 2, 1.0, 964, 2, -0.5, 966, 2, -0.5
*EQUATION
3
2109, 3, 1.0, 964, 3, -0.5, 966, 3, -0.5
*EQUATION
3
2110, 1, 1.0, 965, 1, -0.5, 966, 1, -0.5
*EQUATION
3
2110, 2, 1.0, 965, 2, -0.5, 966, 2, -0.5
*EQUATION
3
2110, 3, 1.0, 965, 3, -0.5, 966, 3, -0.5
*EQUATION
5
2115, 1, 1.0, 967, 1, -0.25, 969, 1, -0.25, 29, 1, -0.25, 968, 1, -0.25
*EQUATION
5
2115, 2, 1.0, 967, 2, -0.25, 969, 2, -0.25, 29, 2, -0.25, 968, 2, -0.25
*EQUATION
5
2115, 3, 1.0, 967, 3, -0.25, 969, 3, -0.25, 29, 3, -0.25, 968, 3, -0.25
*EQUATION
3
2116, 1, 1.0, 29, 1, -0.5, 968, 1, -0.5
*EQUATION
3
2116, 2, 1.0, 29, 2, -0.5, 968, 2, -0.5
*EQUATION
3
2116, 3, 1.0, 29, 3, -0.5, 968, 3, -0.5
*EQUATION
3
2117, 1, 1.0, 29, 1, -0.5, 969, 1, -0.5
*EQUATION
3
2117, 2, 1.0, 29, 2, -0.5, 969, 2, -0.5
*EQUATION
3
2117, 3, 1.0, 29, 3, -0.5, 969, 3, -0.5
*EQUATION
5
2118, 1, 1.0, 941, 1, -0.25, 964, 1, -0.25, 1564, 1, -0.25, 1471, 1, -0.25
*EQUATION
5
2118, 2, 1.0, 941, 2, -0.25, 964, 2, -0.25, 1564, 2, -0.25, 1471, 2, -0.25
*EQUATION
5
2118, 3, 1.0, 941, 3, -0.25, 964, 3, -0.25, 1564, 3, -0.25, 1471, 3, -0.25
*EQUATION
3
2119, 1, 1.0, 1471, 1, -0.5, 1564, 1, -0.5
*EQUATION
3
2119, 2, 1.0, 1471, 2, -0.5, 1564, 2, -0.5
*EQUATION
3
2119, 3, 1.0, 1471, 3, -0.5, 1564, 3, -0.5
*EQUATION
3
2120, 1, 1.0, 964, 1, -0.5, 1564, 1, -0.5
*EQUATION
3
2120, 2, 1.0, 964, 2, -0.5, 1564, 2, -0.5
*EQUATION
3
2120, 3, 1.0, 964, 3, -0.5, 1564, 3, -0.5
*EQUATION
5
2122, 1, 1.0, 1471, 1, -0.25, 997, 1, -0.25, 1044, 1, -0.25, 1564, 1, -0.25
*EQUATION
5
2122, 2, 1.0, 1471, 2, -0.25, 997, 2, -0.25, 1044, 2, -0.25, 1564, 2, -0.25
*EQUATION
5
2122, 3, 1.0, 1471, 3, -0.25, 997, 3, -0.25, 1044, 3, -0.25, 1564, 3, -0.25
*EQUATION
3
2124, 1, 1.0, 1044, 1, -0.5, 1564, 1, -0.5
*EQUATION
3
2124, 2, 1.0, 1044, 2, -0.5, 1564, 2, -0.5
*EQUATION
3
2124, 3, 1.0, 1044, 3, -0.5, 1564, 3, -0.5
*EQUATION
3
2126, 1, 1.0, 997, 1, -0.5, 1044, 1, -0.5
*EQUATION
3
2126, 2, 1.0, 997, 2, -0.5, 1044, 2, -0.5
*EQUATION
3
2126, 3, 1.0, 997, 3, -0.5, 1044, 3, -0.5
*EQUATION
5
2128, 1, 1.0, 964, 1, -0.25, 966, 1, -0.25, 1566, 1, -0.25, 1564, 1, -0.25
*EQUATION
5
2128, 2, 1.0, 964, 2, -0.25, 966, 2, -0.25, 1566, 2, -0.25, 1564, 2, -0.25
*EQUATION
5
2128, 3, 1.0, 964, 3, -0.25, 966, 3, -0.25, 1566, 3, -0.25, 1564, 3, -0.25
*EQUATION
3
2129, 1, 1.0, 1564, 1, -0.5, 1566, 1, -0.5
*EQUATION
3
2129, 2, 1.0, 1564, 2, -0.5, 1566, 2, -0.5
*EQUATION
3
2129, 3, 1.0, 1564, 3, -0.5, 1566, 3, -0.5
*EQUATION
3
2130, 1, 1.0, 966, 1, -0.5, 1566, 1, -0.5
*EQUATION
3
2130, 2, 1.0, 966, 2, -0.5, 1566, 2, -0.5
*EQUATION
3
2130, 3, 1.0, 966, 3, -0.5, 1566, 3, -0.5
*EQUATION
5
2132, 1, 1.0, 1564, 1, -0.25, 1044, 1, -0.25, 1046, 1, -0.25, 1566, 1, -0.25
*EQUATION
5
2132, 2, 1.0, 1564, 2, -0.25, 1044, 2, -0.25, 1046, 2, -0.25, 1566, 2, -0.25
*EQUATION
5
2132, 3, 1.0, 1564, 3, -0.25, 1044, 3, -0.25, 1046, 3, -0.25, 1566, 3, -0.25
*EQUATION
3
2134, 1, 1.0, 1046, 1, -0.5, 1566, 1, -0.5
*EQUATION
3
2134, 2, 1.0, 1046, 2, -0.5, 1566, 2, -0.5
*EQUATION
3
2134, 3, 1.0, 1046, 3, -0.5, 1566, 3, -0.5
*EQUATION
3
2136, 1, 1.0, 1044, 1, -0.5, 1046, 1, -0.5
*EQUATION
3
2136, 2, 1.0, 1044, 2, -0.5, 1046, 2, -0.5
*EQUATION
3
2136, 3, 1.0, 1044, 3, -0.5, 1046, 3, -0.5
*EQUATION
3
2154, 1, 1.0, 10, 1, -0.5, 985, 1, -0.5
*EQUATION
3
2154, 2, 1.0, 10, 2, -0.5, 985, 2, -0.5
*EQUATION
3
2154, 3, 1.0, 10, 3, -0.5, 985, 3, -0.5
*EQUATION
5
2157, 1, 1.0, 10, 1, -0.25, 985, 1, -0.25, 987, 1, -0.25, 944, 1, -0.25
*EQUATION
5
2157, 2, 1.0, 10, 2, -0.25, 985, 2, -0.25, 987, 2, -0.25, 944, 2, -0.25
*EQUATION
5
2157, 3, 1.0, 10, 3, -0.25, 985, 3, -0.25, 987, 3, -0.25, 944, 3, -0.25
*EQUATION
3
2160, 1, 1.0, 944, 1, -0.5, 987, 1, -0.5
*EQUATION
3
2160, 2, 1.0, 944, 2, -0.5, 987, 2, -0.5
*EQUATION
3
2160, 3, 1.0, 944, 3, -0.5, 987, 3, -0.5
*EQUATION
3
2163, 1, 1.0, 985, 1, -0.5, 998, 1, -0.5
*EQUATION
3
2163, 2, 1.0, 985, 2, -0.5, 998, 2, -0.5
*EQUATION
3
2163, 3, 1.0, 985, 3, -0.5, 998, 3, -0.5
*EQUATION
3
2164, 1, 1.0, 985, 1, -0.5, 987, 1, -0.5
*EQUATION
3
2164, 2, 1.0, 985, 2, -0.5, 987, 2, -0.5
*EQUATION
3
2164, 3, 1.0, 985, 3, -0.5, 987, 3, -0.5
*EQUATION
5
2165, 1, 1.0, 985, 1, -0.25, 987, 1, -0.25, 1000, 1, -0.25, 998, 1, -0.25
*EQUATION
5
2165, 2, 1.0, 985, 2, -0.25, 987, 2, -0.25, 1000, 2, -0.25, 998, 2, -0.25
*EQUATION
5
2165, 3, 1.0, 985, 3, -0.25, 987, 3, -0.25, 1000, 3, -0.25, 998, 3, -0.25
*EQUATION
3
2166, 1, 1.0, 998, 1, -0.5, 1000, 1, -0.5
*EQUATION
3
2166, 2, 1.0, 998, 2, -0.5, 1000, 2, -0.5
*EQUATION
3
2166, 3, 1.0, 998, 3, -0.5, 1000, 3, -0.5
*EQUATION
3
2167, 1, 1.0, 987, 1, -0.5, 1000, 1, -0.5
*EQUATION
3
2167, 2, 1.0, 987, 2, -0.5, 1000, 2, -0.5
*EQUATION
3
2167, 3, 1.0, 987, 3, -0.5, 1000, 3, -0.5
*EQUATION
3
2168, 1, 1.0, 14, 1, -0.5, 994, 1, -0.5
*EQUATION
3
2168, 2, 1.0, 14, 2, -0.5, 994, 2, -0.5
*EQUATION
3
2168, 3, 1.0, 14, 3, -0.5, 994, 3, -0.5
*EQUATION
5
2169, 1, 1.0, 994, 1, -0.25, 995, 1, -0.25, 996, 1, -0.25, 14, 1, -0.25
*EQUATION
5
2169, 2, 1.0, 994, 2, -0.25, 995, 2, -0.25, 996, 2, -0.25, 14, 2, -0.25
*EQUATION
5
2169, 3, 1.0, 994, 3, -0.25, 995, 3, -0.25, 996, 3, -0.25, 14, 3, -0.25
*EQUATION
3
2170, 1, 1.0, 14, 1, -0.5, 996, 1, -0.5
*EQUATION
3
2170, 2, 1.0, 14, 2, -0.5, 996, 2, -0.5
*EQUATION
3
2170, 3, 1.0, 14, 3, -0.5, 996, 3, -0.5
*EQUATION
3
2171, 1, 1.0, 995, 1, -0.5, 996, 1, -0.5
*EQUATION
3
2171, 2, 1.0, 995, 2, -0.5, 996, 2, -0.5
*EQUATION
3
2171, 3, 1.0, 995, 3, -0.5, 996, 3, -0.5
*EQUATION
3
2177, 1, 1.0, 996, 1, -0.5, 1001, 1, -0.5
*EQUATION
3
2177, 2, 1.0, 996, 2, -0.5, 1001, 2, -0.5
*EQUATION
3
2177, 3, 1.0, 996, 3, -0.5, 1001, 3, -0.5
*EQUATION
5
2182, 1, 1.0, 944, 1, -0.25, 987, 1, -0.25, 989, 1, -0.25, 11, 1, -0.25
*EQUATION
5
2182, 2, 1.0, 944, 2, -0.25, 987, 2, -0.25, 989, 2, -0.25, 11, 2, -0.25
*EQUATION
5
2182, 3, 1.0, 944, 3, -0.25, 987, 3, -0.25, 989, 3, -0.25, 11, 3, -0.25
*EQUATION
3
2185, 1, 1.0, 11, 1, -0.5, 989, 1, -0.5
*EQUATION
3
2185, 2, 1.0, 11, 2, -0.5, 989, 2, -0.5
*EQUATION
3
2185, 3, 1.0, 11, 3, -0.5, 989, 3, -0.5
*EQUATION
3
2187, 1, 1.0, 997, 1, -0.5, 1002, 1, -0.5
*EQUATION
3
2187, 2, 1.0, 997, 2, -0.5, 1002, 2, -0.5
*EQUATION
3
2187, 3, 1.0, 997, 3, -0.5, 1002, 3, -0.5
*EQUATION
3
2188, 1, 1.0, 987, 1, -0.5, 989, 1, -0.5
*EQUATION
3
2188, 2, 1.0, 987, 2, -0.5, 989, 2, -0.5
*EQUATION
3
2188, 3, 1.0, 987, 3, -0.5, 989, 3, -0.5
*EQUATION
5
2189, 1, 1.0, 987, 1, -0.25, 989, 1, -0.25, 1002, 1, -0.25, 1000, 1, -0.25
*EQUATION
5
2189, 2, 1.0, 987, 2, -0.25, 989, 2, -0.25, 1002, 2, -0.25, 1000, 2, -0.25
*EQUATION
5
2189, 3, 1.0, 987, 3, -0.25, 989, 3, -0.25, 1002, 3, -0.25, 1000, 3, -0.25
*EQUATION
3
2190, 1, 1.0, 1000, 1, -0.5, 1002, 1, -0.5
*EQUATION
3
2190, 2, 1.0, 1000, 2, -0.5, 1002, 2, -0.5
*EQUATION
3
2190, 3, 1.0, 1000, 3, -0.5, 1002, 3, -0.5
*EQUATION
3
2191, 1, 1.0, 989, 1, -0.5, 1002, 1, -0.5
*EQUATION
3
2191, 2, 1.0, 989, 2, -0.5, 1002, 2, -0.5
*EQUATION
3
2191, 3, 1.0, 989, 3, -0.5, 1002, 3, -0.5
*EQUATION
5
2192, 1, 1.0, 995, 1, -0.25, 997, 1, -0.25, 15, 1, -0.25, 996, 1, -0.25
*EQUATION
5
2192, 2, 1.0, 995, 2, -0.25, 997, 2, -0.25, 15, 2, -0.25, 996, 2, -0.25
*EQUATION
5
2192, 3, 1.0, 995, 3, -0.25, 997, 3, -0.25, 15, 3, -0.25, 996, 3, -0.25
*EQUATION
3
2193, 1, 1.0, 15, 1, -0.5, 996, 1, -0.5
*EQUATION
3
2193, 2, 1.0, 15, 2, -0.5, 996, 2, -0.5
*EQUATION
3
2193, 3, 1.0, 15, 3, -0.5, 996, 3, -0.5
*EQUATION
3
2194, 1, 1.0, 15, 1, -0.5, 997, 1, -0.5
*EQUATION
3
2194, 2, 1.0, 15, 2, -0.5, 997, 2, -0.5
*EQUATION
3
2194, 3, 1.0, 15, 3, -0.5, 997, 3, -0.5
*EQUATION
5
2196, 1, 1.0, 996, 1, -0.25, 1001, 1, -0.25, 1003, 1, -0.25, 15, 1, -0.25
*EQUATION
5
2196, 2, 1.0, 996, 2, -0.25, 1001, 2, -0.25, 1003, 2, -0.25, 15, 2, -0.25
*EQUATION
5
2196, 3, 1.0, 996, 3, -0.25, 1001, 3, -0.25, 1003, 3, -0.25, 15, 3, -0.25
*EQUATION
5
2197, 1, 1.0, 997, 1, -0.25, 1002, 1, -0.25, 1003, 1, -0.25, 15, 1, -0.25
*EQUATION
5
2197, 2, 1.0, 997, 2, -0.25, 1002, 2, -0.25, 1003, 2, -0.25, 15, 2, -0.25
*EQUATION
5
2197, 3, 1.0, 997, 3, -0.25, 1002, 3, -0.25, 1003, 3, -0.25, 15, 3, -0.25
*EQUATION
3
2198, 1, 1.0, 15, 1, -0.5, 1003, 1, -0.5
*EQUATION
3
2198, 2, 1.0, 15, 2, -0.5, 1003, 2, -0.5
*EQUATION
3
2198, 3, 1.0, 15, 3, -0.5, 1003, 3, -0.5
*EQUATION
3
2200, 1, 1.0, 1001, 1, -0.5, 1003, 1, -0.5
*EQUATION
3
2200, 2, 1.0, 1001, 2, -0.5, 1003, 2, -0.5
*EQUATION
3
2200, 3, 1.0, 1001, 3, -0.5, 1003, 3, -0.5
*EQUATION
3
2201, 1, 1.0, 1002, 1, -0.5, 1003, 1, -0.5
*EQUATION
3
2201, 2, 1.0, 1002, 2, -0.5, 1003, 2, -0.5
*EQUATION
3
2201, 3, 1.0, 1002, 3, -0.5, 1003, 3, -0.5
*EQUATION
3
2202, 1, 1.0, 998, 1, -0.5, 1004, 1, -0.5
*EQUATION
3
2202, 2, 1.0, 998, 2, -0.5, 1004, 2, -0.5
*EQUATION
3
2202, 3, 1.0, 998, 3, -0.5, 1004, 3, -0.5
*EQUATION
5
2205, 1, 1.0, 998, 1, -0.25, 1004, 1, -0.25, 1005, 1, -0.25, 1000, 1, -0.25
*EQUATION
5
2205, 2, 1.0, 998, 2, -0.25, 1004, 2, -0.25, 1005, 2, -0.25, 1000, 2, -0.25
*EQUATION
5
2205, 3, 1.0, 998, 3, -0.25, 1004, 3, -0.25, 1005, 3, -0.25, 1000, 3, -0.25
*EQUATION
3
2208, 1, 1.0, 1000, 1, -0.5, 1005, 1, -0.5
*EQUATION
3
2208, 2, 1.0, 1000, 2, -0.5, 1005, 2, -0.5
*EQUATION
3
2208, 3, 1.0, 1000, 3, -0.5, 1005, 3, -0.5
*EQUATION
3
2210, 1, 1.0, 1001, 1, -0.5, 1006, 1, -0.5
*EQUATION
3
2210, 2, 1.0, 1001, 2, -0.5, 1006, 2, -0.5
*EQUATION
3
2210, 3, 1.0, 1001, 3, -0.5, 1006, 3, -0.5
*EQUATION
3
2211, 1, 1.0, 103, 1, -0.5, 1004, 1, -0.5
*EQUATION
3
2211, 2, 1.0, 103, 2, -0.5, 1004, 2, -0.5
*EQUATION
3
2211, 3, 1.0, 103, 3, -0.5, 1004, 3, -0.5
*EQUATION
3
2212, 1, 1.0, 1004, 1, -0.5, 1005, 1, -0.5
*EQUATION
3
2212, 2, 1.0, 1004, 2, -0.5, 1005, 2, -0.5
*EQUATION
3
2212, 3, 1.0, 1004, 3, -0.5, 1005, 3, -0.5
*EQUATION
5
2213, 1, 1.0, 1004, 1, -0.25, 1005, 1, -0.25, 1006, 1, -0.25, 103, 1, -0.25
*EQUATION
5
2213, 2, 1.0, 1004, 2, -0.25, 1005, 2, -0.25, 1006, 2, -0.25, 103, 2, -0.25
*EQUATION
5
2213, 3, 1.0, 1004, 3, -0.25, 1005, 3, -0.25, 1006, 3, -0.25, 103, 3, -0.25
*EQUATION
3
2214, 1, 1.0, 103, 1, -0.5, 1006, 1, -0.5
*EQUATION
3
2214, 2, 1.0, 103, 2, -0.5, 1006, 2, -0.5
*EQUATION
3
2214, 3, 1.0, 103, 3, -0.5, 1006, 3, -0.5
*EQUATION
3
2215, 1, 1.0, 1005, 1, -0.5, 1006, 1, -0.5
*EQUATION
3
2215, 2, 1.0, 1005, 2, -0.5, 1006, 2, -0.5
*EQUATION
3
2215, 3, 1.0, 1005, 3, -0.5, 1006, 3, -0.5
*EQUATION
5
2216, 1, 1.0, 1000, 1, -0.25, 1005, 1, -0.25, 1007, 1, -0.25, 1002, 1, -0.25
*EQUATION
5
2216, 2, 1.0, 1000, 2, -0.25, 1005, 2, -0.25, 1007, 2, -0.25, 1002, 2, -0.25
*EQUATION
5
2216, 3, 1.0, 1000, 3, -0.25, 1005, 3, -0.25, 1007, 3, -0.25, 1002, 3, -0.25
*EQUATION
5
2218, 1, 1.0, 1001, 1, -0.25, 1006, 1, -0.25, 104, 1, -0.25, 1003, 1, -0.25
*EQUATION
5
2218, 2, 1.0, 1001, 2, -0.25, 1006, 2, -0.25, 104, 2, -0.25, 1003, 2, -0.25
*EQUATION
5
2218, 3, 1.0, 1001, 3, -0.25, 1006, 3, -0.25, 104, 3, -0.25, 1003, 3, -0.25
*EQUATION
3
2219, 1, 1.0, 1002, 1, -0.5, 1007, 1, -0.5
*EQUATION
3
2219, 2, 1.0, 1002, 2, -0.5, 1007, 2, -0.5
*EQUATION
3
2219, 3, 1.0, 1002, 3, -0.5, 1007, 3, -0.5
*EQUATION
5
2220, 1, 1.0, 1002, 1, -0.25, 1007, 1, -0.25, 104, 1, -0.25, 1003, 1, -0.25
*EQUATION
5
2220, 2, 1.0, 1002, 2, -0.25, 1007, 2, -0.25, 104, 2, -0.25, 1003, 2, -0.25
*EQUATION
5
2220, 3, 1.0, 1002, 3, -0.25, 1007, 3, -0.25, 104, 3, -0.25, 1003, 3, -0.25
*EQUATION
3
2221, 1, 1.0, 104, 1, -0.5, 1003, 1, -0.5
*EQUATION
3
2221, 2, 1.0, 104, 2, -0.5, 1003, 2, -0.5
*EQUATION
3
2221, 3, 1.0, 104, 3, -0.5, 1003, 3, -0.5
*EQUATION
3
2222, 1, 1.0, 1005, 1, -0.5, 1007, 1, -0.5
*EQUATION
3
2222, 2, 1.0, 1005, 2, -0.5, 1007, 2, -0.5
*EQUATION
3
2222, 3, 1.0, 1005, 3, -0.5, 1007, 3, -0.5
*EQUATION
5
2223, 1, 1.0, 1005, 1, -0.25, 1007, 1, -0.25, 104, 1, -0.25, 1006, 1, -0.25
*EQUATION
5
2223, 2, 1.0, 1005, 2, -0.25, 1007, 2, -0.25, 104, 2, -0.25, 1006, 2, -0.25
*EQUATION
5
2223, 3, 1.0, 1005, 3, -0.25, 1007, 3, -0.25, 104, 3, -0.25, 1006, 3, -0.25
*EQUATION
3
2224, 1, 1.0, 104, 1, -0.5, 1006, 1, -0.5
*EQUATION
3
2224, 2, 1.0, 104, 2, -0.5, 1006, 2, -0.5
*EQUATION
3
2224, 3, 1.0, 104, 3, -0.5, 1006, 3, -0.5
*EQUATION
3
2225, 1, 1.0, 104, 1, -0.5, 1007, 1, -0.5
*EQUATION
3
2225, 2, 1.0, 104, 2, -0.5, 1007, 2, -0.5
*EQUATION
3
2225, 3, 1.0, 104, 3, -0.5, 1007, 3, -0.5
*EQUATION
3
2226, 1, 1.0, 14, 1, -0.5, 1568, 1, -0.5
*EQUATION
3
2226, 2, 1.0, 14, 2, -0.5, 1568, 2, -0.5
*EQUATION
3
2226, 3, 1.0, 14, 3, -0.5, 1568, 3, -0.5
*EQUATION
5
2227, 1, 1.0, 14, 1, -0.25, 996, 1, -0.25, 1569, 1, -0.25, 1568, 1, -0.25
*EQUATION
5
2227, 2, 1.0, 14, 2, -0.25, 996, 2, -0.25, 1569, 2, -0.25, 1568, 2, -0.25
*EQUATION
5
2227, 3, 1.0, 14, 3, -0.25, 996, 3, -0.25, 1569, 3, -0.25, 1568, 3, -0.25
*EQUATION
3
2228, 1, 1.0, 1568, 1, -0.5, 1569, 1, -0.5
*EQUATION
3
2228, 2, 1.0, 1568, 2, -0.5, 1569, 2, -0.5
*EQUATION
3
2228, 3, 1.0, 1568, 3, -0.5, 1569, 3, -0.5
*EQUATION
3
2229, 1, 1.0, 996, 1, -0.5, 1569, 1, -0.5
*EQUATION
3
2229, 2, 1.0, 996, 2, -0.5, 1569, 2, -0.5
*EQUATION
3
2229, 3, 1.0, 996, 3, -0.5, 1569, 3, -0.5
*EQUATION
5
2234, 1, 1.0, 996, 1, -0.25, 1001, 1, -0.25, 1572, 1, -0.25, 1569, 1, -0.25
*EQUATION
5
2234, 2, 1.0, 996, 2, -0.25, 1001, 2, -0.25, 1572, 2, -0.25, 1569, 2, -0.25
*EQUATION
5
2234, 3, 1.0, 996, 3, -0.25, 1001, 3, -0.25, 1572, 3, -0.25, 1569, 3, -0.25
*EQUATION
3
2235, 1, 1.0, 1569, 1, -0.5, 1572, 1, -0.5
*EQUATION
3
2235, 2, 1.0, 1569, 2, -0.5, 1572, 2, -0.5
*EQUATION
3
2235, 3, 1.0, 1569, 3, -0.5, 1572, 3, -0.5
*EQUATION
3
2239, 1, 1.0, 1001, 1, -0.5, 1572, 1, -0.5
*EQUATION
3
2239, 2, 1.0, 1001, 2, -0.5, 1572, 2, -0.5
*EQUATION
3
2239, 3, 1.0, 1001, 3, -0.5, 1572, 3, -0.5
*EQUATION
3
2240, 1, 1.0, 18, 1, -0.5, 1568, 1, -0.5
*EQUATION
3
2240, 2, 1.0, 18, 2, -0.5, 1568, 2, -0.5
*EQUATION
3
2240, 3, 1.0, 18, 3, -0.5, 1568, 3, -0.5
*EQUATION
5
2241, 1, 1.0, 1568, 1, -0.25, 1569, 1, -0.25, 1009, 1, -0.25, 18, 1, -0.25
*EQUATION
5
2241, 2, 1.0, 1568, 2, -0.25, 1569, 2, -0.25, 1009, 2, -0.25, 18, 2, -0.25
*EQUATION
5
2241, 3, 1.0, 1568, 3, -0.25, 1569, 3, -0.25, 1009, 3, -0.25, 18, 3, -0.25
*EQUATION
3
2242, 1, 1.0, 18, 1, -0.5, 1009, 1, -0.5
*EQUATION
3
2242, 2, 1.0, 18, 2, -0.5, 1009, 2, -0.5
*EQUATION
3
2242, 3, 1.0, 18, 3, -0.5, 1009, 3, -0.5
*EQUATION
3
2243, 1, 1.0, 1009, 1, -0.5, 1569, 1, -0.5
*EQUATION
3
2243, 2, 1.0, 1009, 2, -0.5, 1569, 2, -0.5
*EQUATION
3
2243, 3, 1.0, 1009, 3, -0.5, 1569, 3, -0.5
*EQUATION
5
2248, 1, 1.0, 1569, 1, -0.25, 1572, 1, -0.25, 1016, 1, -0.25, 1009, 1, -0.25
*EQUATION
5
2248, 2, 1.0, 1569, 2, -0.25, 1572, 2, -0.25, 1016, 2, -0.25, 1009, 2, -0.25
*EQUATION
5
2248, 3, 1.0, 1569, 3, -0.25, 1572, 3, -0.25, 1016, 3, -0.25, 1009, 3, -0.25
*EQUATION
3
2249, 1, 1.0, 1009, 1, -0.5, 1016, 1, -0.5
*EQUATION
3
2249, 2, 1.0, 1009, 2, -0.5, 1016, 2, -0.5
*EQUATION
3
2249, 3, 1.0, 1009, 3, -0.5, 1016, 3, -0.5
*EQUATION
3
2253, 1, 1.0, 1016, 1, -0.5, 1572, 1, -0.5
*EQUATION
3
2253, 2, 1.0, 1016, 2, -0.5, 1572, 2, -0.5
*EQUATION
3
2253, 3, 1.0, 1016, 3, -0.5, 1572, 3, -0.5
*EQUATION
5
2258, 1, 1.0, 1001, 1, -0.25, 1006, 1, -0.25, 1575, 1, -0.25, 1572, 1, -0.25
*EQUATION
5
2258, 2, 1.0, 1001, 2, -0.25, 1006, 2, -0.25, 1575, 2, -0.25, 1572, 2, -0.25
*EQUATION
5
2258, 3, 1.0, 1001, 3, -0.25, 1006, 3, -0.25, 1575, 3, -0.25, 1572, 3, -0.25
*EQUATION
3
2259, 1, 1.0, 1572, 1, -0.5, 1575, 1, -0.5
*EQUATION
3
2259, 2, 1.0, 1572, 2, -0.5, 1575, 2, -0.5
*EQUATION
3
2259, 3, 1.0, 1572, 3, -0.5, 1575, 3, -0.5
*EQUATION
3
2260, 1, 1.0, 103, 1, -0.5, 1574, 1, -0.5
*EQUATION
3
2260, 2, 1.0, 103, 2, -0.5, 1574, 2, -0.5
*EQUATION
3
2260, 3, 1.0, 103, 3, -0.5, 1574, 3, -0.5
*EQUATION
5
2261, 1, 1.0, 103, 1, -0.25, 1006, 1, -0.25, 1575, 1, -0.25, 1574, 1, -0.25
*EQUATION
5
2261, 2, 1.0, 103, 2, -0.25, 1006, 2, -0.25, 1575, 2, -0.25, 1574, 2, -0.25
*EQUATION
5
2261, 3, 1.0, 103, 3, -0.25, 1006, 3, -0.25, 1575, 3, -0.25, 1574, 3, -0.25
*EQUATION
3
2262, 1, 1.0, 1574, 1, -0.5, 1575, 1, -0.5
*EQUATION
3
2262, 2, 1.0, 1574, 2, -0.5, 1575, 2, -0.5
*EQUATION
3
2262, 3, 1.0, 1574, 3, -0.5, 1575, 3, -0.5
*EQUATION
3
2263, 1, 1.0, 1006, 1, -0.5, 1575, 1, -0.5
*EQUATION
3
2263, 2, 1.0, 1006, 2, -0.5, 1575, 2, -0.5
*EQUATION
3
2263, 3, 1.0, 1006, 3, -0.5, 1575, 3, -0.5
*EQUATION
5
2268, 1, 1.0, 1572, 1, -0.25, 1575, 1, -0.25, 1023, 1, -0.25, 1016, 1, -0.25
*EQUATION
5
2268, 2, 1.0, 1572, 2, -0.25, 1575, 2, -0.25, 1023, 2, -0.25, 1016, 2, -0.25
*EQUATION
5
2268, 3, 1.0, 1572, 3, -0.25, 1575, 3, -0.25, 1023, 3, -0.25, 1016, 3, -0.25
*EQUATION
3
2269, 1, 1.0, 1016, 1, -0.5, 1023, 1, -0.5
*EQUATION
3
2269, 2, 1.0, 1016, 2, -0.5, 1023, 2, -0.5
*EQUATION
3
2269, 3, 1.0, 1016, 3, -0.5, 1023, 3, -0.5
*EQUATION
3
2270, 1, 1.0, 105, 1, -0.5, 1574, 1, -0.5
*EQUATION
3
2270, 2, 1.0, 105, 2, -0.5, 1574, 2, -0.5
*EQUATION
3
2270, 3, 1.0, 105, 3, -0.5, 1574, 3, -0.5
*EQUATION
5
2271, 1, 1.0, 1574, 1, -0.25, 1575, 1, -0.25, 1023, 1, -0.25, 105, 1, -0.25
*EQUATION
5
2271, 2, 1.0, 1574, 2, -0.25, 1575, 2, -0.25, 1023, 2, -0.25, 105, 2, -0.25
*EQUATION
5
2271, 3, 1.0, 1574, 3, -0.25, 1575, 3, -0.25, 1023, 3, -0.25, 105, 3, -0.25
*EQUATION
3
2272, 1, 1.0, 105, 1, -0.5, 1023, 1, -0.5
*EQUATION
3
2272, 2, 1.0, 105, 2, -0.5, 1023, 2, -0.5
*EQUATION
3
2272, 3, 1.0, 105, 3, -0.5, 1023, 3, -0.5
*EQUATION
3
2273, 1, 1.0, 1023, 1, -0.5, 1575, 1, -0.5
*EQUATION
3
2273, 2, 1.0, 1023, 2, -0.5, 1575, 2, -0.5
*EQUATION
3
2273, 3, 1.0, 1023, 3, -0.5, 1575, 3, -0.5
*EQUATION
3
2286, 1, 1.0, 1014, 1, -0.5, 1017, 1, -0.5
*EQUATION
3
2286, 2, 1.0, 1014, 2, -0.5, 1017, 2, -0.5
*EQUATION
3
2286, 3, 1.0, 1014, 3, -0.5, 1017, 3, -0.5
*EQUATION
3
2290, 1, 1.0, 22, 1, -0.5, 1011, 1, -0.5
*EQUATION
3
2290, 2, 1.0, 22, 2, -0.5, 1011, 2, -0.5
*EQUATION
3
2290, 3, 1.0, 22, 3, -0.5, 1011, 3, -0.5
*EQUATION
3
2293, 1, 1.0, 22, 1, -0.5, 1015, 1, -0.5
*EQUATION
3
2293, 2, 1.0, 22, 2, -0.5, 1015, 2, -0.5
*EQUATION
3
2293, 3, 1.0, 22, 3, -0.5, 1015, 3, -0.5
*EQUATION
5
2295, 1, 1.0, 22, 1, -0.25, 1015, 1, -0.25, 1018, 1, -0.25, 1011, 1, -0.25
*EQUATION
5
2295, 2, 1.0, 22, 2, -0.25, 1015, 2, -0.25, 1018, 2, -0.25, 1011, 2, -0.25
*EQUATION
5
2295, 3, 1.0, 22, 3, -0.25, 1015, 3, -0.25, 1018, 3, -0.25, 1011, 3, -0.25
*EQUATION
3
2297, 1, 1.0, 1011, 1, -0.5, 1018, 1, -0.5
*EQUATION
3
2297, 2, 1.0, 1011, 2, -0.5, 1018, 2, -0.5
*EQUATION
3
2297, 3, 1.0, 1011, 3, -0.5, 1018, 3, -0.5
*EQUATION
3
2298, 1, 1.0, 1014, 1, -0.5, 1015, 1, -0.5
*EQUATION
3
2298, 2, 1.0, 1014, 2, -0.5, 1015, 2, -0.5
*EQUATION
3
2298, 3, 1.0, 1014, 3, -0.5, 1015, 3, -0.5
*EQUATION
5
2299, 1, 1.0, 1014, 1, -0.25, 1017, 1, -0.25, 1018, 1, -0.25, 1015, 1, -0.25
*EQUATION
5
2299, 2, 1.0, 1014, 2, -0.25, 1017, 2, -0.25, 1018, 2, -0.25, 1015, 2, -0.25
*EQUATION
5
2299, 3, 1.0, 1014, 3, -0.25, 1017, 3, -0.25, 1018, 3, -0.25, 1015, 3, -0.25
*EQUATION
3
2300, 1, 1.0, 1015, 1, -0.5, 1018, 1, -0.5
*EQUATION
3
2300, 2, 1.0, 1015, 2, -0.5, 1018, 2, -0.5
*EQUATION
3
2300, 3, 1.0, 1015, 3, -0.5, 1018, 3, -0.5
*EQUATION
3
2301, 1, 1.0, 1017, 1, -0.5, 1018, 1, -0.5
*EQUATION
3
2301, 2, 1.0, 1017, 2, -0.5, 1018, 2, -0.5
*EQUATION
3
2301, 3, 1.0, 1017, 3, -0.5, 1018, 3, -0.5
*EQUATION
3
2302, 1, 1.0, 19, 1, -0.5, 1009, 1, -0.5
*EQUATION
3
2302, 2, 1.0, 19, 2, -0.5, 1009, 2, -0.5
*EQUATION
3
2302, 3, 1.0, 19, 3, -0.5, 1009, 3, -0.5
*EQUATION
5
2306, 1, 1.0, 1009, 1, -0.25, 1016, 1, -0.25, 1019, 1, -0.25, 19, 1, -0.25
*EQUATION
5
2306, 2, 1.0, 1009, 2, -0.25, 1016, 2, -0.25, 1019, 2, -0.25, 19, 2, -0.25
*EQUATION
5
2306, 3, 1.0, 1009, 3, -0.25, 1016, 3, -0.25, 1019, 3, -0.25, 19, 3, -0.25
*EQUATION
3
2309, 1, 1.0, 19, 1, -0.5, 1019, 1, -0.5
*EQUATION
3
2309, 2, 1.0, 19, 2, -0.5, 1019, 2, -0.5
*EQUATION
3
2309, 3, 1.0, 19, 3, -0.5, 1019, 3, -0.5
*EQUATION
3
2312, 1, 1.0, 1016, 1, -0.5, 1019, 1, -0.5
*EQUATION
3
2312, 2, 1.0, 1016, 2, -0.5, 1019, 2, -0.5
*EQUATION
3
2312, 3, 1.0, 1016, 3, -0.5, 1019, 3, -0.5
*EQUATION
3
2315, 1, 1.0, 1019, 1, -0.5, 1020, 1, -0.5
*EQUATION
3
2315, 2, 1.0, 1019, 2, -0.5, 1020, 2, -0.5
*EQUATION
3
2315, 3, 1.0, 1019, 3, -0.5, 1020, 3, -0.5
*EQUATION
3
2317, 1, 1.0, 23, 1, -0.5, 1011, 1, -0.5
*EQUATION
3
2317, 2, 1.0, 23, 2, -0.5, 1011, 2, -0.5
*EQUATION
3
2317, 3, 1.0, 23, 3, -0.5, 1011, 3, -0.5
*EQUATION
5
2320, 1, 1.0, 1011, 1, -0.25, 1018, 1, -0.25, 1021, 1, -0.25, 23, 1, -0.25
*EQUATION
5
2320, 2, 1.0, 1011, 2, -0.25, 1018, 2, -0.25, 1021, 2, -0.25, 23, 2, -0.25
*EQUATION
5
2320, 3, 1.0, 1011, 3, -0.25, 1018, 3, -0.25, 1021, 3, -0.25, 23, 3, -0.25
*EQUATION
3
2322, 1, 1.0, 23, 1, -0.5, 1021, 1, -0.5
*EQUATION
3
2322, 2, 1.0, 23, 2, -0.5, 1021, 2, -0.5
*EQUATION
3
2322, 3, 1.0, 23, 3, -0.5, 1021, 3, -0.5
*EQUATION
3
2324, 1, 1.0, 1018, 1, -0.5, 1021, 1, -0.5
*EQUATION
3
2324, 2, 1.0, 1018, 2, -0.5, 1021, 2, -0.5
*EQUATION
3
2324, 3, 1.0, 1018, 3, -0.5, 1021, 3, -0.5
*EQUATION
3
2325, 1, 1.0, 1020, 1, -0.5, 1021, 1, -0.5
*EQUATION
3
2325, 2, 1.0, 1020, 2, -0.5, 1021, 2, -0.5
*EQUATION
3
2325, 3, 1.0, 1020, 3, -0.5, 1021, 3, -0.5
*EQUATION
3
2327, 1, 1.0, 1014, 1, -0.5, 1022, 1, -0.5
*EQUATION
3
2327, 2, 1.0, 1014, 2, -0.5, 1022, 2, -0.5
*EQUATION
3
2327, 3, 1.0, 1014, 3, -0.5, 1022, 3, -0.5
*EQUATION
5
2329, 1, 1.0, 1014, 1, -0.25, 1022, 1, -0.25, 1024, 1, -0.25, 1017, 1, -0.25
*EQUATION
5
2329, 2, 1.0, 1014, 2, -0.25, 1022, 2, -0.25, 1024, 2, -0.25, 1017, 2, -0.25
*EQUATION
5
2329, 3, 1.0, 1014, 3, -0.25, 1022, 3, -0.25, 1024, 3, -0.25, 1017, 3, -0.25
*EQUATION
3
2331, 1, 1.0, 1017, 1, -0.5, 1024, 1, -0.5
*EQUATION
3
2331, 2, 1.0, 1017, 2, -0.5, 1024, 2, -0.5
*EQUATION
3
2331, 3, 1.0, 1017, 3, -0.5, 1024, 3, -0.5
*EQUATION
3
2332, 1, 1.0, 105, 1, -0.5, 1022, 1, -0.5
*EQUATION
3
2332, 2, 1.0, 105, 2, -0.5, 1022, 2, -0.5
*EQUATION
3
2332, 3, 1.0, 105, 3, -0.5, 1022, 3, -0.5
*EQUATION
5
2333, 1, 1.0, 105, 1, -0.25, 1023, 1, -0.25, 1024, 1, -0.25, 1022, 1, -0.25
*EQUATION
5
2333, 2, 1.0, 105, 2, -0.25, 1023, 2, -0.25, 1024, 2, -0.25, 1022, 2, -0.25
*EQUATION
5
2333, 3, 1.0, 105, 3, -0.25, 1023, 3, -0.25, 1024, 3, -0.25, 1022, 3, -0.25
*EQUATION
3
2334, 1, 1.0, 1022, 1, -0.5, 1024, 1, -0.5
*EQUATION
3
2334, 2, 1.0, 1022, 2, -0.5, 1024, 2, -0.5
*EQUATION
3
2334, 3, 1.0, 1022, 3, -0.5, 1024, 3, -0.5
*EQUATION
3
2335, 1, 1.0, 1023, 1, -0.5, 1024, 1, -0.5
*EQUATION
3
2335, 2, 1.0, 1023, 2, -0.5, 1024, 2, -0.5
*EQUATION
3
2335, 3, 1.0, 1023, 3, -0.5, 1024, 3, -0.5
*EQUATION
5
2336, 1, 1.0, 1016, 1, -0.25, 1023, 1, -0.25, 106, 1, -0.25, 1019, 1, -0.25
*EQUATION
5
2336, 2, 1.0, 1016, 2, -0.25, 1023, 2, -0.25, 106, 2, -0.25, 1019, 2, -0.25
*EQUATION
5
2336, 3, 1.0, 1016, 3, -0.25, 1023, 3, -0.25, 106, 3, -0.25, 1019, 3, -0.25
*EQUATION
3
2339, 1, 1.0, 106, 1, -0.5, 1019, 1, -0.5
*EQUATION
3
2339, 2, 1.0, 106, 2, -0.5, 1019, 2, -0.5
*EQUATION
3
2339, 3, 1.0, 106, 3, -0.5, 1019, 3, -0.5
*EQUATION
5
2340, 1, 1.0, 1019, 1, -0.25, 106, 1, -0.25, 1026, 1, -0.25, 1020, 1, -0.25
*EQUATION
5
2340, 2, 1.0, 1019, 2, -0.25, 106, 2, -0.25, 1026, 2, -0.25, 1020, 2, -0.25
*EQUATION
5
2340, 3, 1.0, 1019, 3, -0.25, 106, 3, -0.25, 1026, 3, -0.25, 1020, 3, -0.25
*EQUATION
3
2341, 1, 1.0, 1020, 1, -0.5, 1026, 1, -0.5
*EQUATION
3
2341, 2, 1.0, 1020, 2, -0.5, 1026, 2, -0.5
*EQUATION
3
2341, 3, 1.0, 1020, 3, -0.5, 1026, 3, -0.5
*EQUATION
3
2342, 1, 1.0, 106, 1, -0.5, 1023, 1, -0.5
*EQUATION
3
2342, 2, 1.0, 106, 2, -0.5, 1023, 2, -0.5
*EQUATION
3
2342, 3, 1.0, 106, 3, -0.5, 1023, 3, -0.5
*EQUATION
5
2343, 1, 1.0, 1023, 1, -0.25, 106, 1, -0.25, 1026, 1, -0.25, 1024, 1, -0.25
*EQUATION
5
2343, 2, 1.0, 1023, 2, -0.25, 106, 2, -0.25, 1026, 2, -0.25, 1024, 2, -0.25
*EQUATION
5
2343, 3, 1.0, 1023, 3, -0.25, 106, 3, -0.25, 1026, 3, -0.25, 1024, 3, -0.25
*EQUATION
3
2344, 1, 1.0, 1024, 1, -0.5, 1026, 1, -0.5
*EQUATION
3
2344, 2, 1.0, 1024, 2, -0.5, 1026, 2, -0.5
*EQUATION
3
2344, 3, 1.0, 1024, 3, -0.5, 1026, 3, -0.5
*EQUATION
3
2345, 1, 1.0, 106, 1, -0.5, 1026, 1, -0.5
*EQUATION
3
2345, 2, 1.0, 106, 2, -0.5, 1026, 2, -0.5
*EQUATION
3
2345, 3, 1.0, 106, 3, -0.5, 1026, 3, -0.5
*EQUATION
5
2346, 1, 1.0, 1017, 1, -0.25, 1024, 1, -0.25, 1025, 1, -0.25, 1018, 1, -0.25
*EQUATION
5
2346, 2, 1.0, 1017, 2, -0.25, 1024, 2, -0.25, 1025, 2, -0.25, 1018, 2, -0.25
*EQUATION
5
2346, 3, 1.0, 1017, 3, -0.25, 1024, 3, -0.25, 1025, 3, -0.25, 1018, 3, -0.25
*EQUATION
3
2347, 1, 1.0, 1018, 1, -0.5, 1025, 1, -0.5
*EQUATION
3
2347, 2, 1.0, 1018, 2, -0.5, 1025, 2, -0.5
*EQUATION
3
2347, 3, 1.0, 1018, 3, -0.5, 1025, 3, -0.5
*EQUATION
5
2349, 1, 1.0, 1018, 1, -0.25, 1025, 1, -0.25, 108, 1, -0.25, 1021, 1, -0.25
*EQUATION
5
2349, 2, 1.0, 1018, 2, -0.25, 1025, 2, -0.25, 108, 2, -0.25, 1021, 2, -0.25
*EQUATION
5
2349, 3, 1.0, 1018, 3, -0.25, 1025, 3, -0.25, 108, 3, -0.25, 1021, 3, -0.25
*EQUATION
5
2350, 1, 1.0, 1020, 1, -0.25, 1026, 1, -0.25, 108, 1, -0.25, 1021, 1, -0.25
*EQUATION
5
2350, 2, 1.0, 1020, 2, -0.25, 1026, 2, -0.25, 108, 2, -0.25, 1021, 2, -0.25
*EQUATION
5
2350, 3, 1.0, 1020, 3, -0.25, 1026, 3, -0.25, 108, 3, -0.25, 1021, 3, -0.25
*EQUATION
3
2351, 1, 1.0, 108, 1, -0.5, 1021, 1, -0.5
*EQUATION
3
2351, 2, 1.0, 108, 2, -0.5, 1021, 2, -0.5
*EQUATION
3
2351, 3, 1.0, 108, 3, -0.5, 1021, 3, -0.5
*EQUATION
3
2352, 1, 1.0, 1024, 1, -0.5, 1025, 1, -0.5
*EQUATION
3
2352, 2, 1.0, 1024, 2, -0.5, 1025, 2, -0.5
*EQUATION
3
2352, 3, 1.0, 1024, 3, -0.5, 1025, 3, -0.5
*EQUATION
3
2354, 1, 1.0, 108, 1, -0.5, 1025, 1, -0.5
*EQUATION
3
2354, 2, 1.0, 108, 2, -0.5, 1025, 2, -0.5
*EQUATION
3
2354, 3, 1.0, 108, 3, -0.5, 1025, 3, -0.5
*EQUATION
3
2355, 1, 1.0, 108, 1, -0.5, 1026, 1, -0.5
*EQUATION
3
2355, 2, 1.0, 108, 2, -0.5, 1026, 2, -0.5
*EQUATION
3
2355, 3, 1.0, 108, 3, -0.5, 1026, 3, -0.5
*EQUATION
5
2356, 1, 1.0, 11, 1, -0.25, 989, 1, -0.25, 1038, 1, -0.25, 968, 1, -0.25
*EQUATION
5
2356, 2, 1.0, 11, 2, -0.25, 989, 2, -0.25, 1038, 2, -0.25, 968, 2, -0.25
*EQUATION
5
2356, 3, 1.0, 11, 3, -0.25, 989, 3, -0.25, 1038, 3, -0.25, 968, 3, -0.25
*EQUATION
5
2358, 1, 1.0, 997, 1, -0.25, 1002, 1, -0.25, 1047, 1, -0.25, 1044, 1, -0.25
*EQUATION
5
2358, 2, 1.0, 997, 2, -0.25, 1002, 2, -0.25, 1047, 2, -0.25, 1044, 2, -0.25
*EQUATION
5
2358, 3, 1.0, 997, 3, -0.25, 1002, 3, -0.25, 1047, 3, -0.25, 1044, 3, -0.25
*EQUATION
3
2359, 1, 1.0, 968, 1, -0.5, 1038, 1, -0.5
*EQUATION
3
2359, 2, 1.0, 968, 2, -0.5, 1038, 2, -0.5
*EQUATION
3
2359, 3, 1.0, 968, 3, -0.5, 1038, 3, -0.5
*EQUATION
3
2361, 1, 1.0, 1044, 1, -0.5, 1047, 1, -0.5
*EQUATION
3
2361, 2, 1.0, 1044, 2, -0.5, 1047, 2, -0.5
*EQUATION
3
2361, 3, 1.0, 1044, 3, -0.5, 1047, 3, -0.5
*EQUATION
3
2362, 1, 1.0, 989, 1, -0.5, 1038, 1, -0.5
*EQUATION
3
2362, 2, 1.0, 989, 2, -0.5, 1038, 2, -0.5
*EQUATION
3
2362, 3, 1.0, 989, 3, -0.5, 1038, 3, -0.5
*EQUATION
5
2363, 1, 1.0, 989, 1, -0.25, 1038, 1, -0.25, 1047, 1, -0.25, 1002, 1, -0.25
*EQUATION
5
2363, 2, 1.0, 989, 2, -0.25, 1038, 2, -0.25, 1047, 2, -0.25, 1002, 2, -0.25
*EQUATION
5
2363, 3, 1.0, 989, 3, -0.25, 1038, 3, -0.25, 1047, 3, -0.25, 1002, 3, -0.25
*EQUATION
3
2364, 1, 1.0, 1002, 1, -0.5, 1047, 1, -0.5
*EQUATION
3
2364, 2, 1.0, 1002, 2, -0.5, 1047, 2, -0.5
*EQUATION
3
2364, 3, 1.0, 1002, 3, -0.5, 1047, 3, -0.5
*EQUATION
3
2365, 1, 1.0, 1038, 1, -0.5, 1047, 1, -0.5
*EQUATION
3
2365, 2, 1.0, 1038, 2, -0.5, 1047, 2, -0.5
*EQUATION
3
2365, 3, 1.0, 1038, 3, -0.5, 1047, 3, -0.5
*EQUATION
5
2366, 1, 1.0, 968, 1, -0.25, 1038, 1, -0.25, 1040, 1, -0.25, 29, 1, -0.25
*EQUATION
5
2366, 2, 1.0, 968, 2, -0.25, 1038, 2, -0.25, 1040, 2, -0.25, 29, 2, -0.25
*EQUATION
5
2366, 3, 1.0, 968, 3, -0.25, 1038, 3, -0.25, 1040, 3, -0.25, 29, 3, -0.25
*EQUATION
5
2368, 1, 1.0, 1044, 1, -0.25, 1047, 1, -0.25, 1049, 1, -0.25, 1046, 1, -0.25
*EQUATION
5
2368, 2, 1.0, 1044, 2, -0.25, 1047, 2, -0.25, 1049, 2, -0.25, 1046, 2, -0.25
*EQUATION
5
2368, 3, 1.0, 1044, 3, -0.25, 1047, 3, -0.25, 1049, 3, -0.25, 1046, 3, -0.25
*EQUATION
3
2369, 1, 1.0, 29, 1, -0.5, 1040, 1, -0.5
*EQUATION
3
2369, 2, 1.0, 29, 2, -0.5, 1040, 2, -0.5
*EQUATION
3
2369, 3, 1.0, 29, 3, -0.5, 1040, 3, -0.5
*EQUATION
3
2371, 1, 1.0, 1046, 1, -0.5, 1049, 1, -0.5
*EQUATION
3
2371, 2, 1.0, 1046, 2, -0.5, 1049, 2, -0.5
*EQUATION
3
2371, 3, 1.0, 1046, 3, -0.5, 1049, 3, -0.5
*EQUATION
3
2372, 1, 1.0, 1038, 1, -0.5, 1040, 1, -0.5
*EQUATION
3
2372, 2, 1.0, 1038, 2, -0.5, 1040, 2, -0.5
*EQUATION
3
2372, 3, 1.0, 1038, 3, -0.5, 1040, 3, -0.5
*EQUATION
5
2373, 1, 1.0, 1038, 1, -0.25, 1040, 1, -0.25, 1049, 1, -0.25, 1047, 1, -0.25
*EQUATION
5
2373, 2, 1.0, 1038, 2, -0.25, 1040, 2, -0.25, 1049, 2, -0.25, 1047, 2, -0.25
*EQUATION
5
2373, 3, 1.0, 1038, 3, -0.25, 1040, 3, -0.25, 1049, 3, -0.25, 1047, 3, -0.25
*EQUATION
3
2374, 1, 1.0, 1047, 1, -0.5, 1049, 1, -0.5
*EQUATION
3
2374, 2, 1.0, 1047, 2, -0.5, 1049, 2, -0.5
*EQUATION
3
2374, 3, 1.0, 1047, 3, -0.5, 1049, 3, -0.5
*EQUATION
3
2375, 1, 1.0, 1040, 1, -0.5, 1049, 1, -0.5
*EQUATION
3
2375, 2, 1.0, 1040, 2, -0.5, 1049, 2, -0.5
*EQUATION
3
2375, 3, 1.0, 1040, 3, -0.5, 1049, 3, -0.5
*EQUATION
3
2380, 1, 1.0, 1658, 1, -0.5, 1659, 1, -0.5
*EQUATION
3
2380, 2, 1.0, 1658, 2, -0.5, 1659, 2, -0.5
*EQUATION
3
2380, 3, 1.0, 1658, 3, -0.5, 1659, 3, -0.5
*EQUATION
3
2383, 1, 1.0, 1659, 1, -0.5, 1660, 1, -0.5
*EQUATION
3
2383, 2, 1.0, 1659, 2, -0.5, 1660, 2, -0.5
*EQUATION
3
2383, 3, 1.0, 1659, 3, -0.5, 1660, 3, -0.5
*EQUATION
3
2384, 1, 1.0, 22, 1, -0.5, 1660, 1, -0.5
*EQUATION
3
2384, 2, 1.0, 22, 2, -0.5, 1660, 2, -0.5
*EQUATION
3
2384, 3, 1.0, 22, 3, -0.5, 1660, 3, -0.5
*EQUATION
3
2387, 1, 1.0, 1659, 1, -0.5, 1662, 1, -0.5
*EQUATION
3
2387, 2, 1.0, 1659, 2, -0.5, 1662, 2, -0.5
*EQUATION
3
2387, 3, 1.0, 1659, 3, -0.5, 1662, 3, -0.5
*EQUATION
5
2391, 1, 1.0, 22, 1, -0.25, 1015, 1, -0.25, 1663, 1, -0.25, 1660, 1, -0.25
*EQUATION
5
2391, 2, 1.0, 22, 2, -0.25, 1015, 2, -0.25, 1663, 2, -0.25, 1660, 2, -0.25
*EQUATION
5
2391, 3, 1.0, 22, 3, -0.25, 1015, 3, -0.25, 1663, 3, -0.25, 1660, 3, -0.25
*EQUATION
3
2392, 1, 1.0, 1660, 1, -0.5, 1663, 1, -0.5
*EQUATION
3
2392, 2, 1.0, 1660, 2, -0.5, 1663, 2, -0.5
*EQUATION
3
2392, 3, 1.0, 1660, 3, -0.5, 1663, 3, -0.5
*EQUATION
3
2393, 1, 1.0, 1661, 1, -0.5, 1662, 1, -0.5
*EQUATION
3
2393, 2, 1.0, 1661, 2, -0.5, 1662, 2, -0.5
*EQUATION
3
2393, 3, 1.0, 1661, 3, -0.5, 1662, 3, -0.5
*EQUATION
3
2396, 1, 1.0, 1662, 1, -0.5, 1663, 1, -0.5
*EQUATION
3
2396, 2, 1.0, 1662, 2, -0.5, 1663, 2, -0.5
*EQUATION
3
2396, 3, 1.0, 1662, 3, -0.5, 1663, 3, -0.5
*EQUATION
3
2397, 1, 1.0, 1015, 1, -0.5, 1663, 1, -0.5
*EQUATION
3
2397, 2, 1.0, 1015, 2, -0.5, 1663, 2, -0.5
*EQUATION
3
2397, 3, 1.0, 1015, 3, -0.5, 1663, 3, -0.5
*EQUATION
3
2398, 1, 1.0, 1661, 1, -0.5, 1664, 1, -0.5
*EQUATION
3
2398, 2, 1.0, 1661, 2, -0.5, 1664, 2, -0.5
*EQUATION
3
2398, 3, 1.0, 1661, 3, -0.5, 1664, 3, -0.5
*EQUATION
5
2399, 1, 1.0, 1661, 1, -0.25, 1664, 1, -0.25, 1665, 1, -0.25, 1662, 1, -0.25
*EQUATION
5
2399, 2, 1.0, 1661, 2, -0.25, 1664, 2, -0.25, 1665, 2, -0.25, 1662, 2, -0.25
*EQUATION
5
2399, 3, 1.0, 1661, 3, -0.25, 1664, 3, -0.25, 1665, 3, -0.25, 1662, 3, -0.25
*EQUATION
3
2400, 1, 1.0, 1662, 1, -0.5, 1665, 1, -0.5
*EQUATION
3
2400, 2, 1.0, 1662, 2, -0.5, 1665, 2, -0.5
*EQUATION
3
2400, 3, 1.0, 1662, 3, -0.5, 1665, 3, -0.5
*EQUATION
5
2403, 1, 1.0, 1662, 1, -0.25, 1665, 1, -0.25, 1666, 1, -0.25, 1663, 1, -0.25
*EQUATION
5
2403, 2, 1.0, 1662, 2, -0.25, 1665, 2, -0.25, 1666, 2, -0.25, 1663, 2, -0.25
*EQUATION
5
2403, 3, 1.0, 1662, 3, -0.25, 1665, 3, -0.25, 1666, 3, -0.25, 1663, 3, -0.25
*EQUATION
3
2404, 1, 1.0, 107, 1, -0.5, 1015, 1, -0.5
*EQUATION
3
2404, 2, 1.0, 107, 2, -0.5, 1015, 2, -0.5
*EQUATION
3
2404, 3, 1.0, 107, 3, -0.5, 1015, 3, -0.5
*EQUATION
5
2405, 1, 1.0, 1015, 1, -0.25, 107, 1, -0.25, 1666, 1, -0.25, 1663, 1, -0.25
*EQUATION
5
2405, 2, 1.0, 1015, 2, -0.25, 107, 2, -0.25, 1666, 2, -0.25, 1663, 2, -0.25
*EQUATION
5
2405, 3, 1.0, 1015, 3, -0.25, 107, 3, -0.25, 1666, 3, -0.25, 1663, 3, -0.25
*EQUATION
3
2406, 1, 1.0, 1663, 1, -0.5, 1666, 1, -0.5
*EQUATION
3
2406, 2, 1.0, 1663, 2, -0.5, 1666, 2, -0.5
*EQUATION
3
2406, 3, 1.0, 1663, 3, -0.5, 1666, 3, -0.5
*EQUATION
3
2407, 1, 1.0, 1664, 1, -0.5, 1665, 1, -0.5
*EQUATION
3
2407, 2, 1.0, 1664, 2, -0.5, 1665, 2, -0.5
*EQUATION
3
2407, 3, 1.0, 1664, 3, -0.5, 1665, 3, -0.5
*EQUATION
3
2410, 1, 1.0, 1665, 1, -0.5, 1666, 1, -0.5
*EQUATION
3
2410, 2, 1.0, 1665, 2, -0.5, 1666, 2, -0.5
*EQUATION
3
2410, 3, 1.0, 1665, 3, -0.5, 1666, 3, -0.5
*EQUATION
3
2411, 1, 1.0, 107, 1, -0.5, 1666, 1, -0.5
*EQUATION
3
2411, 2, 1.0, 107, 2, -0.5, 1666, 2, -0.5
*EQUATION
3
2411, 3, 1.0, 107, 3, -0.5, 1666, 3, -0.5
*EQUATION
3
2415, 1, 1.0, 69, 1, -0.5, 1115, 1, -0.5
*EQUATION
3
2415, 2, 1.0, 69, 2, -0.5, 1115, 2, -0.5
*EQUATION
3
2415, 3, 1.0, 69, 3, -0.5, 1115, 3, -0.5
*EQUATION
3
2416, 1, 1.0, 69, 1, -0.5, 1116, 1, -0.5
*EQUATION
3
2416, 2, 1.0, 69, 2, -0.5, 1116, 2, -0.5
*EQUATION
3
2416, 3, 1.0, 69, 3, -0.5, 1116, 3, -0.5
*EQUATION
5
2417, 1, 1.0, 69, 1, -0.25, 1116, 1, -0.25, 1117, 1, -0.25, 1115, 1, -0.25
*EQUATION
5
2417, 2, 1.0, 69, 2, -0.25, 1116, 2, -0.25, 1117, 2, -0.25, 1115, 2, -0.25
*EQUATION
5
2417, 3, 1.0, 69, 3, -0.25, 1116, 3, -0.25, 1117, 3, -0.25, 1115, 3, -0.25
*EQUATION
3
2418, 1, 1.0, 1115, 1, -0.5, 1117, 1, -0.5
*EQUATION
3
2418, 2, 1.0, 1115, 2, -0.5, 1117, 2, -0.5
*EQUATION
3
2418, 3, 1.0, 1115, 3, -0.5, 1117, 3, -0.5
*EQUATION
3
2419, 1, 1.0, 1116, 1, -0.5, 1117, 1, -0.5
*EQUATION
3
2419, 2, 1.0, 1116, 2, -0.5, 1117, 2, -0.5
*EQUATION
3
2419, 3, 1.0, 1116, 3, -0.5, 1117, 3, -0.5
*EQUATION
3
2420, 1, 1.0, 69, 1, -0.5, 1120, 1, -0.5
*EQUATION
3
2420, 2, 1.0, 69, 2, -0.5, 1120, 2, -0.5
*EQUATION
3
2420, 3, 1.0, 69, 3, -0.5, 1120, 3, -0.5
*EQUATION
5
2421, 1, 1.0, 69, 1, -0.25, 1120, 1, -0.25, 1121, 1, -0.25, 1115, 1, -0.25
*EQUATION
5
2421, 2, 1.0, 69, 2, -0.25, 1120, 2, -0.25, 1121, 2, -0.25, 1115, 2, -0.25
*EQUATION
5
2421, 3, 1.0, 69, 3, -0.25, 1120, 3, -0.25, 1121, 3, -0.25, 1115, 3, -0.25
*EQUATION
3
2422, 1, 1.0, 1115, 1, -0.5, 1121, 1, -0.5
*EQUATION
3
2422, 2, 1.0, 1115, 2, -0.5, 1121, 2, -0.5
*EQUATION
3
2422, 3, 1.0, 1115, 3, -0.5, 1121, 3, -0.5
*EQUATION
3
2426, 1, 1.0, 1116, 1, -0.5, 1123, 1, -0.5
*EQUATION
3
2426, 2, 1.0, 1116, 2, -0.5, 1123, 2, -0.5
*EQUATION
3
2426, 3, 1.0, 1116, 3, -0.5, 1123, 3, -0.5
*EQUATION
5
2427, 1, 1.0, 1116, 1, -0.25, 1123, 1, -0.25, 1124, 1, -0.25, 1117, 1, -0.25
*EQUATION
5
2427, 2, 1.0, 1116, 2, -0.25, 1123, 2, -0.25, 1124, 2, -0.25, 1117, 2, -0.25
*EQUATION
5
2427, 3, 1.0, 1116, 3, -0.25, 1123, 3, -0.25, 1124, 3, -0.25, 1117, 3, -0.25
*EQUATION
3
2428, 1, 1.0, 1117, 1, -0.5, 1124, 1, -0.5
*EQUATION
3
2428, 2, 1.0, 1117, 2, -0.5, 1124, 2, -0.5
*EQUATION
3
2428, 3, 1.0, 1117, 3, -0.5, 1124, 3, -0.5
*EQUATION
3
2429, 1, 1.0, 1120, 1, -0.5, 1121, 1, -0.5
*EQUATION
3
2429, 2, 1.0, 1120, 2, -0.5, 1121, 2, -0.5
*EQUATION
3
2429, 3, 1.0, 1120, 3, -0.5, 1121, 3, -0.5
*EQUATION
3
2430, 1, 1.0, 1120, 1, -0.5, 1123, 1, -0.5
*EQUATION
3
2430, 2, 1.0, 1120, 2, -0.5, 1123, 2, -0.5
*EQUATION
3
2430, 3, 1.0, 1120, 3, -0.5, 1123, 3, -0.5
*EQUATION
3
2433, 1, 1.0, 1123, 1, -0.5, 1124, 1, -0.5
*EQUATION
3
2433, 2, 1.0, 1123, 2, -0.5, 1124, 2, -0.5
*EQUATION
3
2433, 3, 1.0, 1123, 3, -0.5, 1124, 3, -0.5
*EQUATION
3
2434, 1, 1.0, 71, 1, -0.5, 1115, 1, -0.5
*EQUATION
3
2434, 2, 1.0, 71, 2, -0.5, 1115, 2, -0.5
*EQUATION
3
2434, 3, 1.0, 71, 3, -0.5, 1115, 3, -0.5
*EQUATION
5
2435, 1, 1.0, 1115, 1, -0.25, 1117, 1, -0.25, 1118, 1, -0.25, 71, 1, -0.25
*EQUATION
5
2435, 2, 1.0, 1115, 2, -0.25, 1117, 2, -0.25, 1118, 2, -0.25, 71, 2, -0.25
*EQUATION
5
2435, 3, 1.0, 1115, 3, -0.25, 1117, 3, -0.25, 1118, 3, -0.25, 71, 3, -0.25
*EQUATION
3
2436, 1, 1.0, 71, 1, -0.5, 1118, 1, -0.5
*EQUATION
3
2436, 2, 1.0, 71, 2, -0.5, 1118, 2, -0.5
*EQUATION
3
2436, 3, 1.0, 71, 3, -0.5, 1118, 3, -0.5
*EQUATION
3
2437, 1, 1.0, 1117, 1, -0.5, 1118, 1, -0.5
*EQUATION
3
2437, 2, 1.0, 1117, 2, -0.5, 1118, 2, -0.5
*EQUATION
3
2437, 3, 1.0, 1117, 3, -0.5, 1118, 3, -0.5
*EQUATION
3
2444, 1, 1.0, 1121, 1, -0.5, 1122, 1, -0.5
*EQUATION
3
2444, 2, 1.0, 1121, 2, -0.5, 1122, 2, -0.5
*EQUATION
3
2444, 3, 1.0, 1121, 3, -0.5, 1122, 3, -0.5
*EQUATION
3
2448, 1, 1.0, 131, 1, -0.5, 1120, 1, -0.5
*EQUATION
3
2448, 2, 1.0, 131, 2, -0.5, 1120, 2, -0.5
*EQUATION
3
2448, 3, 1.0, 131, 3, -0.5, 1120, 3, -0.5
*EQUATION
5
2449, 1, 1.0, 1120, 1, -0.25, 131, 1, -0.25, 1129, 1, -0.25, 1121, 1, -0.25
*EQUATION
5
2449, 2, 1.0, 1120, 2, -0.25, 131, 2, -0.25, 1129, 2, -0.25, 1121, 2, -0.25
*EQUATION
5
2449, 3, 1.0, 1120, 3, -0.25, 131, 3, -0.25, 1129, 3, -0.25, 1121, 3, -0.25
*EQUATION
3
2450, 1, 1.0, 1121, 1, -0.5, 1129, 1, -0.5
*EQUATION
3
2450, 2, 1.0, 1121, 2, -0.5, 1129, 2, -0.5
*EQUATION
3
2450, 3, 1.0, 1121, 3, -0.5, 1129, 3, -0.5
*EQUATION
5
2451, 1, 1.0, 1120, 1, -0.25, 131, 1, -0.25, 1130, 1, -0.25, 1123, 1, -0.25
*EQUATION
5
2451, 2, 1.0, 1120, 2, -0.25, 131, 2, -0.25, 1130, 2, -0.25, 1123, 2, -0.25
*EQUATION
5
2451, 3, 1.0, 1120, 3, -0.25, 131, 3, -0.25, 1130, 3, -0.25, 1123, 3, -0.25
*EQUATION
3
2454, 1, 1.0, 1123, 1, -0.5, 1130, 1, -0.5
*EQUATION
3
2454, 2, 1.0, 1123, 2, -0.5, 1130, 2, -0.5
*EQUATION
3
2454, 3, 1.0, 1123, 3, -0.5, 1130, 3, -0.5
*EQUATION
5
2455, 1, 1.0, 1123, 1, -0.25, 1130, 1, -0.25, 1131, 1, -0.25, 1124, 1, -0.25
*EQUATION
5
2455, 2, 1.0, 1123, 2, -0.25, 1130, 2, -0.25, 1131, 2, -0.25, 1124, 2, -0.25
*EQUATION
5
2455, 3, 1.0, 1123, 3, -0.25, 1130, 3, -0.25, 1131, 3, -0.25, 1124, 3, -0.25
*EQUATION
3
2456, 1, 1.0, 1124, 1, -0.5, 1131, 1, -0.5
*EQUATION
3
2456, 2, 1.0, 1124, 2, -0.5, 1131, 2, -0.5
*EQUATION
3
2456, 3, 1.0, 1124, 3, -0.5, 1131, 3, -0.5
*EQUATION
3
2457, 1, 1.0, 131, 1, -0.5, 1129, 1, -0.5
*EQUATION
3
2457, 2, 1.0, 131, 2, -0.5, 1129, 2, -0.5
*EQUATION
3
2457, 3, 1.0, 131, 3, -0.5, 1129, 3, -0.5
*EQUATION
3
2458, 1, 1.0, 131, 1, -0.5, 1130, 1, -0.5
*EQUATION
3
2458, 2, 1.0, 131, 2, -0.5, 1130, 2, -0.5
*EQUATION
3
2458, 3, 1.0, 131, 3, -0.5, 1130, 3, -0.5
*EQUATION
5
2459, 1, 1.0, 131, 1, -0.25, 1130, 1, -0.25, 1131, 1, -0.25, 1129, 1, -0.25
*EQUATION
5
2459, 2, 1.0, 131, 2, -0.25, 1130, 2, -0.25, 1131, 2, -0.25, 1129, 2, -0.25
*EQUATION
5
2459, 3, 1.0, 131, 3, -0.25, 1130, 3, -0.25, 1131, 3, -0.25, 1129, 3, -0.25
*EQUATION
3
2460, 1, 1.0, 1129, 1, -0.5, 1131, 1, -0.5
*EQUATION
3
2460, 2, 1.0, 1129, 2, -0.5, 1131, 2, -0.5
*EQUATION
3
2460, 3, 1.0, 1129, 3, -0.5, 1131, 3, -0.5
*EQUATION
3
2461, 1, 1.0, 1130, 1, -0.5, 1131, 1, -0.5
*EQUATION
3
2461, 2, 1.0, 1130, 2, -0.5, 1131, 2, -0.5
*EQUATION
3
2461, 3, 1.0, 1130, 3, -0.5, 1131, 3, -0.5
*EQUATION
5
2462, 1, 1.0, 1121, 1, -0.25, 1129, 1, -0.25, 132, 1, -0.25, 1122, 1, -0.25
*EQUATION
5
2462, 2, 1.0, 1121, 2, -0.25, 1129, 2, -0.25, 132, 2, -0.25, 1122, 2, -0.25
*EQUATION
5
2462, 3, 1.0, 1121, 3, -0.25, 1129, 3, -0.25, 132, 3, -0.25, 1122, 3, -0.25
*EQUATION
3
2463, 1, 1.0, 132, 1, -0.5, 1122, 1, -0.5
*EQUATION
3
2463, 2, 1.0, 132, 2, -0.5, 1122, 2, -0.5
*EQUATION
3
2463, 3, 1.0, 132, 3, -0.5, 1122, 3, -0.5
*EQUATION
3
2468, 1, 1.0, 132, 1, -0.5, 1129, 1, -0.5
*EQUATION
3
2468, 2, 1.0, 132, 2, -0.5, 1129, 2, -0.5
*EQUATION
3
2468, 3, 1.0, 132, 3, -0.5, 1129, 3, -0.5
*EQUATION
5
2469, 1, 1.0, 1129, 1, -0.25, 1131, 1, -0.25, 1132, 1, -0.25, 132, 1, -0.25
*EQUATION
5
2469, 2, 1.0, 1129, 2, -0.25, 1131, 2, -0.25, 1132, 2, -0.25, 132, 2, -0.25
*EQUATION
5
2469, 3, 1.0, 1129, 3, -0.25, 1131, 3, -0.25, 1132, 3, -0.25, 132, 3, -0.25
*EQUATION
3
2470, 1, 1.0, 132, 1, -0.5, 1132, 1, -0.5
*EQUATION
3
2470, 2, 1.0, 132, 2, -0.5, 1132, 2, -0.5
*EQUATION
3
2470, 3, 1.0, 132, 3, -0.5, 1132, 3, -0.5
*EQUATION
3
2471, 1, 1.0, 1131, 1, -0.5, 1132, 1, -0.5
*EQUATION
3
2471, 2, 1.0, 1131, 2, -0.5, 1132, 2, -0.5
*EQUATION
3
2471, 3, 1.0, 1131, 3, -0.5, 1132, 3, -0.5
*EQUATION
3
2472, 1, 1.0, 1178, 1, -0.5, 1805, 1, -0.5
*EQUATION
3
2472, 2, 1.0, 1178, 2, -0.5, 1805, 2, -0.5
*EQUATION
3
2472, 3, 1.0, 1178, 3, -0.5, 1805, 3, -0.5
*EQUATION
3
2473, 1, 1.0, 1178, 1, -0.5, 1181, 1, -0.5
*EQUATION
3
2473, 2, 1.0, 1178, 2, -0.5, 1181, 2, -0.5
*EQUATION
3
2473, 3, 1.0, 1178, 3, -0.5, 1181, 3, -0.5
*EQUATION
5
2474, 1, 1.0, 1178, 1, -0.25, 1181, 1, -0.25, 1807, 1, -0.25, 1805, 1, -0.25
*EQUATION
5
2474, 2, 1.0, 1178, 2, -0.25, 1181, 2, -0.25, 1807, 2, -0.25, 1805, 2, -0.25
*EQUATION
5
2474, 3, 1.0, 1178, 3, -0.25, 1181, 3, -0.25, 1807, 3, -0.25, 1805, 3, -0.25
*EQUATION
3
2475, 1, 1.0, 1805, 1, -0.5, 1807, 1, -0.5
*EQUATION
3
2475, 2, 1.0, 1805, 2, -0.5, 1807, 2, -0.5
*EQUATION
3
2475, 3, 1.0, 1805, 3, -0.5, 1807, 3, -0.5
*EQUATION
3
2476, 1, 1.0, 1181, 1, -0.5, 1807, 1, -0.5
*EQUATION
3
2476, 2, 1.0, 1181, 2, -0.5, 1807, 2, -0.5
*EQUATION
3
2476, 3, 1.0, 1181, 3, -0.5, 1807, 3, -0.5
*EQUATION
3
2477, 1, 1.0, 147, 1, -0.5, 1178, 1, -0.5
*EQUATION
3
2477, 2, 1.0, 147, 2, -0.5, 1178, 2, -0.5
*EQUATION
3
2477, 3, 1.0, 147, 3, -0.5, 1178, 3, -0.5
*EQUATION
3
2479, 1, 1.0, 1805, 1, -0.5, 1811, 1, -0.5
*EQUATION
3
2479, 2, 1.0, 1805, 2, -0.5, 1811, 2, -0.5
*EQUATION
3
2479, 3, 1.0, 1805, 3, -0.5, 1811, 3, -0.5
*EQUATION
5
2480, 1, 1.0, 1178, 1, -0.25, 147, 1, -0.25, 1188, 1, -0.25, 1181, 1, -0.25
*EQUATION
5
2480, 2, 1.0, 1178, 2, -0.25, 147, 2, -0.25, 1188, 2, -0.25, 1181, 2, -0.25
*EQUATION
5
2480, 3, 1.0, 1178, 3, -0.25, 147, 3, -0.25, 1188, 3, -0.25, 1181, 3, -0.25
*EQUATION
5
2482, 1, 1.0, 1805, 1, -0.25, 1811, 1, -0.25, 1812, 1, -0.25, 1807, 1, -0.25
*EQUATION
5
2482, 2, 1.0, 1805, 2, -0.25, 1811, 2, -0.25, 1812, 2, -0.25, 1807, 2, -0.25
*EQUATION
5
2482, 3, 1.0, 1805, 3, -0.25, 1811, 3, -0.25, 1812, 3, -0.25, 1807, 3, -0.25
*EQUATION
3
2483, 1, 1.0, 1181, 1, -0.5, 1188, 1, -0.5
*EQUATION
3
2483, 2, 1.0, 1181, 2, -0.5, 1188, 2, -0.5
*EQUATION
3
2483, 3, 1.0, 1181, 3, -0.5, 1188, 3, -0.5
*EQUATION
5
2484, 1, 1.0, 1181, 1, -0.25, 1188, 1, -0.25, 1812, 1, -0.25, 1807, 1, -0.25
*EQUATION
5
2484, 2, 1.0, 1181, 2, -0.25, 1188, 2, -0.25, 1812, 2, -0.25, 1807, 2, -0.25
*EQUATION
5
2484, 3, 1.0, 1181, 3, -0.25, 1188, 3, -0.25, 1812, 3, -0.25, 1807, 3, -0.25
*EQUATION
3
2485, 1, 1.0, 1807, 1, -0.5, 1812, 1, -0.5
*EQUATION
3
2485, 2, 1.0, 1807, 2, -0.5, 1812, 2, -0.5
*EQUATION
3
2485, 3, 1.0, 1807, 3, -0.5, 1812, 3, -0.5
*EQUATION
3
2486, 1, 1.0, 147, 1, -0.5, 1811, 1, -0.5
*EQUATION
3
2486, 2, 1.0, 147, 2, -0.5, 1811, 2, -0.5
*EQUATION
3
2486, 3, 1.0, 147, 3, -0.5, 1811, 3, -0.5
*EQUATION
3
2487, 1, 1.0, 147, 1, -0.5, 1188, 1, -0.5
*EQUATION
3
2487, 2, 1.0, 147, 2, -0.5, 1188, 2, -0.5
*EQUATION
3
2487, 3, 1.0, 147, 3, -0.5, 1188, 3, -0.5
*EQUATION
5
2488, 1, 1.0, 147, 1, -0.25, 1188, 1, -0.25, 1812, 1, -0.25, 1811, 1, -0.25
*EQUATION
5
2488, 2, 1.0, 147, 2, -0.25, 1188, 2, -0.25, 1812, 2, -0.25, 1811, 2, -0.25
*EQUATION
5
2488, 3, 1.0, 147, 3, -0.25, 1188, 3, -0.25, 1812, 3, -0.25, 1811, 3, -0.25
*EQUATION
3
2489, 1, 1.0, 1811, 1, -0.5, 1812, 1, -0.5
*EQUATION
3
2489, 2, 1.0, 1811, 2, -0.5, 1812, 2, -0.5
*EQUATION
3
2489, 3, 1.0, 1811, 3, -0.5, 1812, 3, -0.5
*EQUATION
3
2490, 1, 1.0, 1188, 1, -0.5, 1812, 1, -0.5
*EQUATION
3
2490, 2, 1.0, 1188, 2, -0.5, 1812, 2, -0.5
*EQUATION
3
2490, 3, 1.0, 1188, 3, -0.5, 1812, 3, -0.5
*EQUATION
3
2515, 1, 1.0, 1184, 1, -0.5, 1809, 1, -0.5
*EQUATION
3
2515, 2, 1.0, 1184, 2, -0.5, 1809, 2, -0.5
*EQUATION
3
2515, 3, 1.0, 1184, 3, -0.5, 1809, 3, -0.5
*EQUATION
3
2516, 1, 1.0, 1184, 1, -0.5, 1192, 1, -0.5
*EQUATION
3
2516, 2, 1.0, 1184, 2, -0.5, 1192, 2, -0.5
*EQUATION
3
2516, 3, 1.0, 1184, 3, -0.5, 1192, 3, -0.5
*EQUATION
5
2517, 1, 1.0, 1184, 1, -0.25, 1192, 1, -0.25, 1843, 1, -0.25, 1809, 1, -0.25
*EQUATION
5
2517, 2, 1.0, 1184, 2, -0.25, 1192, 2, -0.25, 1843, 2, -0.25, 1809, 2, -0.25
*EQUATION
5
2517, 3, 1.0, 1184, 3, -0.25, 1192, 3, -0.25, 1843, 3, -0.25, 1809, 3, -0.25
*EQUATION
3
2518, 1, 1.0, 1809, 1, -0.5, 1843, 1, -0.5
*EQUATION
3
2518, 2, 1.0, 1809, 2, -0.5, 1843, 2, -0.5
*EQUATION
3
2518, 3, 1.0, 1809, 3, -0.5, 1843, 3, -0.5
*EQUATION
3
2519, 1, 1.0, 1192, 1, -0.5, 1843, 1, -0.5
*EQUATION
3
2519, 2, 1.0, 1192, 2, -0.5, 1843, 2, -0.5
*EQUATION
3
2519, 3, 1.0, 1192, 3, -0.5, 1843, 3, -0.5
*EQUATION
3
2520, 1, 1.0, 148, 1, -0.5, 1184, 1, -0.5
*EQUATION
3
2520, 2, 1.0, 148, 2, -0.5, 1184, 2, -0.5
*EQUATION
3
2520, 3, 1.0, 148, 3, -0.5, 1184, 3, -0.5
*EQUATION
5
2521, 1, 1.0, 1184, 1, -0.25, 148, 1, -0.25, 1814, 1, -0.25, 1809, 1, -0.25
*EQUATION
5
2521, 2, 1.0, 1184, 2, -0.25, 148, 2, -0.25, 1814, 2, -0.25, 1809, 2, -0.25
*EQUATION
5
2521, 3, 1.0, 1184, 3, -0.25, 148, 3, -0.25, 1814, 3, -0.25, 1809, 3, -0.25
*EQUATION
3
2522, 1, 1.0, 1809, 1, -0.5, 1814, 1, -0.5
*EQUATION
3
2522, 2, 1.0, 1809, 2, -0.5, 1814, 2, -0.5
*EQUATION
3
2522, 3, 1.0, 1809, 3, -0.5, 1814, 3, -0.5
*EQUATION
5
2523, 1, 1.0, 1184, 1, -0.25, 148, 1, -0.25, 1198, 1, -0.25, 1192, 1, -0.25
*EQUATION
5
2523, 2, 1.0, 1184, 2, -0.25, 148, 2, -0.25, 1198, 2, -0.25, 1192, 2, -0.25
*EQUATION
5
2523, 3, 1.0, 1184, 3, -0.25, 148, 3, -0.25, 1198, 3, -0.25, 1192, 3, -0.25
*EQUATION
5
2525, 1, 1.0, 1809, 1, -0.25, 1814, 1, -0.25, 1847, 1, -0.25, 1843, 1, -0.25
*EQUATION
5
2525, 2, 1.0, 1809, 2, -0.25, 1814, 2, -0.25, 1847, 2, -0.25, 1843, 2, -0.25
*EQUATION
5
2525, 3, 1.0, 1809, 3, -0.25, 1814, 3, -0.25, 1847, 3, -0.25, 1843, 3, -0.25
*EQUATION
3
2526, 1, 1.0, 1192, 1, -0.5, 1198, 1, -0.5
*EQUATION
3
2526, 2, 1.0, 1192, 2, -0.5, 1198, 2, -0.5
*EQUATION
3
2526, 3, 1.0, 1192, 3, -0.5, 1198, 3, -0.5
*EQUATION
3
2528, 1, 1.0, 1843, 1, -0.5, 1847, 1, -0.5
*EQUATION
3
2528, 2, 1.0, 1843, 2, -0.5, 1847, 2, -0.5
*EQUATION
3
2528, 3, 1.0, 1843, 3, -0.5, 1847, 3, -0.5
*EQUATION
3
2529, 1, 1.0, 148, 1, -0.5, 1814, 1, -0.5
*EQUATION
3
2529, 2, 1.0, 148, 2, -0.5, 1814, 2, -0.5
*EQUATION
3
2529, 3, 1.0, 148, 3, -0.5, 1814, 3, -0.5
*EQUATION
3
2530, 1, 1.0, 148, 1, -0.5, 1198, 1, -0.5
*EQUATION
3
2530, 2, 1.0, 148, 2, -0.5, 1198, 2, -0.5
*EQUATION
3
2530, 3, 1.0, 148, 3, -0.5, 1198, 3, -0.5
*EQUATION
5
2531, 1, 1.0, 148, 1, -0.25, 1198, 1, -0.25, 1847, 1, -0.25, 1814, 1, -0.25
*EQUATION
5
2531, 2, 1.0, 148, 2, -0.25, 1198, 2, -0.25, 1847, 2, -0.25, 1814, 2, -0.25
*EQUATION
5
2531, 3, 1.0, 148, 3, -0.25, 1198, 3, -0.25, 1847, 3, -0.25, 1814, 3, -0.25
*EQUATION
3
2532, 1, 1.0, 1814, 1, -0.5, 1847, 1, -0.5
*EQUATION
3
2532, 2, 1.0, 1814, 2, -0.5, 1847, 2, -0.5
*EQUATION
3
2532, 3, 1.0, 1814, 3, -0.5, 1847, 3, -0.5
*EQUATION
3
2533, 1, 1.0, 1198, 1, -0.5, 1847, 1, -0.5
*EQUATION
3
2533, 2, 1.0, 1198, 2, -0.5, 1847, 2, -0.5
*EQUATION
3
2533, 3, 1.0, 1198, 3, -0.5, 1847, 3, -0.5
*EQUATION
3
2534, 1, 1.0, 1192, 1, -0.5, 1195, 1, -0.5
*EQUATION
3
2534, 2, 1.0, 1192, 2, -0.5, 1195, 2, -0.5
*EQUATION
3
2534, 3, 1.0, 1192, 3, -0.5, 1195, 3, -0.5
*EQUATION
5
2535, 1, 1.0, 1192, 1, -0.25, 1195, 1, -0.25, 1845, 1, -0.25, 1843, 1, -0.25
*EQUATION
5
2535, 2, 1.0, 1192, 2, -0.25, 1195, 2, -0.25, 1845, 2, -0.25, 1843, 2, -0.25
*EQUATION
5
2535, 3, 1.0, 1192, 3, -0.25, 1195, 3, -0.25, 1845, 3, -0.25, 1843, 3, -0.25
*EQUATION
3
2536, 1, 1.0, 1843, 1, -0.5, 1845, 1, -0.5
*EQUATION
3
2536, 2, 1.0, 1843, 2, -0.5, 1845, 2, -0.5
*EQUATION
3
2536, 3, 1.0, 1843, 3, -0.5, 1845, 3, -0.5
*EQUATION
3
2537, 1, 1.0, 1195, 1, -0.5, 1845, 1, -0.5
*EQUATION
3
2537, 2, 1.0, 1195, 2, -0.5, 1845, 2, -0.5
*EQUATION
3
2537, 3, 1.0, 1195, 3, -0.5, 1845, 3, -0.5
*EQUATION
5
2538, 1, 1.0, 1192, 1, -0.25, 1198, 1, -0.25, 158, 1, -0.25, 1195, 1, -0.25
*EQUATION
5
2538, 2, 1.0, 1192, 2, -0.25, 1198, 2, -0.25, 158, 2, -0.25, 1195, 2, -0.25
*EQUATION
5
2538, 3, 1.0, 1192, 3, -0.25, 1198, 3, -0.25, 158, 3, -0.25, 1195, 3, -0.25
*EQUATION
5
2540, 1, 1.0, 1843, 1, -0.25, 1847, 1, -0.25, 1849, 1, -0.25, 1845, 1, -0.25
*EQUATION
5
2540, 2, 1.0, 1843, 2, -0.25, 1847, 2, -0.25, 1849, 2, -0.25, 1845, 2, -0.25
*EQUATION
5
2540, 3, 1.0, 1843, 3, -0.25, 1847, 3, -0.25, 1849, 3, -0.25, 1845, 3, -0.25
*EQUATION
3
2541, 1, 1.0, 158, 1, -0.5, 1195, 1, -0.5
*EQUATION
3
2541, 2, 1.0, 158, 2, -0.5, 1195, 2, -0.5
*EQUATION
3
2541, 3, 1.0, 158, 3, -0.5, 1195, 3, -0.5
*EQUATION
3
2543, 1, 1.0, 1845, 1, -0.5, 1849, 1, -0.5
*EQUATION
3
2543, 2, 1.0, 1845, 2, -0.5, 1849, 2, -0.5
*EQUATION
3
2543, 3, 1.0, 1845, 3, -0.5, 1849, 3, -0.5
*EQUATION
3
2544, 1, 1.0, 158, 1, -0.5, 1198, 1, -0.5
*EQUATION
3
2544, 2, 1.0, 158, 2, -0.5, 1198, 2, -0.5
*EQUATION
3
2544, 3, 1.0, 158, 3, -0.5, 1198, 3, -0.5
*EQUATION
5
2545, 1, 1.0, 1198, 1, -0.25, 158, 1, -0.25, 1849, 1, -0.25, 1847, 1, -0.25
*EQUATION
5
2545, 2, 1.0, 1198, 2, -0.25, 158, 2, -0.25, 1849, 2, -0.25, 1847, 2, -0.25
*EQUATION
5
2545, 3, 1.0, 1198, 3, -0.25, 158, 3, -0.25, 1849, 3, -0.25, 1847, 3, -0.25
*EQUATION
3
2546, 1, 1.0, 1847, 1, -0.5, 1849, 1, -0.5
*EQUATION
3
2546, 2, 1.0, 1847, 2, -0.5, 1849, 2, -0.5
*EQUATION
3
2546, 3, 1.0, 1847, 3, -0.5, 1849, 3, -0.5
*EQUATION
3
2547, 1, 1.0, 158, 1, -0.5, 1849, 1, -0.5
*EQUATION
3
2547, 2, 1.0, 158, 2, -0.5, 1849, 2, -0.5
*EQUATION
3
2547, 3, 1.0, 158, 3, -0.5, 1849, 3, -0.5
*EQUATION
3
2691, 1, 1.0, 847, 1, -0.5, 848, 1, -0.5
*EQUATION
3
2691, 2, 1.0, 847, 2, -0.5, 848, 2, -0.5
*EQUATION
3
2691, 3, 1.0, 847, 3, -0.5, 848, 3, -0.5
*EQUATION
3
2692, 1, 1.0, 847, 1, -0.5, 849, 1, -0.5
*EQUATION
3
2692, 2, 1.0, 847, 2, -0.5, 849, 2, -0.5
*EQUATION
3
2692, 3, 1.0, 847, 3, -0.5, 849, 3, -0.5
*EQUATION
5
2693, 1, 1.0, 847, 1, -0.25, 849, 1, -0.25, 850, 1, -0.25, 848, 1, -0.25
*EQUATION
5
2693, 2, 1.0, 847, 2, -0.25, 849, 2, -0.25, 850, 2, -0.25, 848, 2, -0.25
*EQUATION
5
2693, 3, 1.0, 847, 3, -0.25, 849, 3, -0.25, 850, 3, -0.25, 848, 3, -0.25
*EQUATION
3
2694, 1, 1.0, 848, 1, -0.5, 850, 1, -0.5
*EQUATION
3
2694, 2, 1.0, 848, 2, -0.5, 850, 2, -0.5
*EQUATION
3
2694, 3, 1.0, 848, 3, -0.5, 850, 3, -0.5
*EQUATION
3
2695, 1, 1.0, 849, 1, -0.5, 850, 1, -0.5
*EQUATION
3
2695, 2, 1.0, 849, 2, -0.5, 850, 2, -0.5
*EQUATION
3
2695, 3, 1.0, 849, 3, -0.5, 850, 3, -0.5
*EQUATION
5
2698, 1, 1.0, 847, 1, -0.25, 895, 1, -0.25, 897, 1, -0.25, 849, 1, -0.25
*EQUATION
5
2698, 2, 1.0, 847, 2, -0.25, 895, 2, -0.25, 897, 2, -0.25, 849, 2, -0.25
*EQUATION
5
2698, 3, 1.0, 847, 3, -0.25, 895, 3, -0.25, 897, 3, -0.25, 849, 3, -0.25
*EQUATION
3
2701, 1, 1.0, 849, 1, -0.5, 897, 1, -0.5
*EQUATION
3
2701, 2, 1.0, 849, 2, -0.5, 897, 2, -0.5
*EQUATION
3
2701, 3, 1.0, 849, 3, -0.5, 897, 3, -0.5
*EQUATION
3
2705, 1, 1.0, 895, 1, -0.5, 897, 1, -0.5
*EQUATION
3
2705, 2, 1.0, 895, 2, -0.5, 897, 2, -0.5
*EQUATION
3
2705, 3, 1.0, 895, 3, -0.5, 897, 3, -0.5
*EQUATION
3
2709, 1, 1.0, 849, 1, -0.5, 851, 1, -0.5
*EQUATION
3
2709, 2, 1.0, 849, 2, -0.5, 851, 2, -0.5
*EQUATION
3
2709, 3, 1.0, 849, 3, -0.5, 851, 3, -0.5
*EQUATION
5
2710, 1, 1.0, 849, 1, -0.25, 851, 1, -0.25, 852, 1, -0.25, 850, 1, -0.25
*EQUATION
5
2710, 2, 1.0, 849, 2, -0.25, 851, 2, -0.25, 852, 2, -0.25, 850, 2, -0.25
*EQUATION
5
2710, 3, 1.0, 849, 3, -0.25, 851, 3, -0.25, 852, 3, -0.25, 850, 3, -0.25
*EQUATION
3
2711, 1, 1.0, 850, 1, -0.5, 852, 1, -0.5
*EQUATION
3
2711, 2, 1.0, 850, 2, -0.5, 852, 2, -0.5
*EQUATION
3
2711, 3, 1.0, 850, 3, -0.5, 852, 3, -0.5
*EQUATION
3
2712, 1, 1.0, 851, 1, -0.5, 852, 1, -0.5
*EQUATION
3
2712, 2, 1.0, 851, 2, -0.5, 852, 2, -0.5
*EQUATION
3
2712, 3, 1.0, 851, 3, -0.5, 852, 3, -0.5
*EQUATION
5
2713, 1, 1.0, 849, 1, -0.25, 897, 1, -0.25, 899, 1, -0.25, 851, 1, -0.25
*EQUATION
5
2713, 2, 1.0, 849, 2, -0.25, 897, 2, -0.25, 899, 2, -0.25, 851, 2, -0.25
*EQUATION
5
2713, 3, 1.0, 849, 3, -0.25, 897, 3, -0.25, 899, 3, -0.25, 851, 3, -0.25
*EQUATION
3
2718, 1, 1.0, 897, 1, -0.5, 899, 1, -0.5
*EQUATION
3
2718, 2, 1.0, 897, 2, -0.5, 899, 2, -0.5
*EQUATION
3
2718, 3, 1.0, 897, 3, -0.5, 899, 3, -0.5
*EQUATION
3
2722, 1, 1.0, 2085, 1, -0.5, 2094, 1, -0.5
*EQUATION
3
2722, 2, 1.0, 2085, 2, -0.5, 2094, 2, -0.5
*EQUATION
3
2722, 3, 1.0, 2085, 3, -0.5, 2094, 3, -0.5
*EQUATION
3
2723, 1, 1.0, 2085, 1, -0.5, 2087, 1, -0.5
*EQUATION
3
2723, 2, 1.0, 2085, 2, -0.5, 2087, 2, -0.5
*EQUATION
3
2723, 3, 1.0, 2085, 3, -0.5, 2087, 3, -0.5
*EQUATION
5
2724, 1, 1.0, 2085, 1, -0.25, 2087, 1, -0.25, 2096, 1, -0.25, 2094, 1, -0.25
*EQUATION
5
2724, 2, 1.0, 2085, 2, -0.25, 2087, 2, -0.25, 2096, 2, -0.25, 2094, 2, -0.25
*EQUATION
5
2724, 3, 1.0, 2085, 3, -0.25, 2087, 3, -0.25, 2096, 3, -0.25, 2094, 3, -0.25
*EQUATION
3
2725, 1, 1.0, 2094, 1, -0.5, 2096, 1, -0.5
*EQUATION
3
2725, 2, 1.0, 2094, 2, -0.5, 2096, 2, -0.5
*EQUATION
3
2725, 3, 1.0, 2094, 3, -0.5, 2096, 3, -0.5
*EQUATION
3
2726, 1, 1.0, 2087, 1, -0.5, 2096, 1, -0.5
*EQUATION
3
2726, 2, 1.0, 2087, 2, -0.5, 2096, 2, -0.5
*EQUATION
3
2726, 3, 1.0, 2087, 3, -0.5, 2096, 3, -0.5
*EQUATION
3
2727, 1, 1.0, 1009, 1, -0.5, 2085, 1, -0.5
*EQUATION
3
2727, 2, 1.0, 1009, 2, -0.5, 2085, 2, -0.5
*EQUATION
3
2727, 3, 1.0, 1009, 3, -0.5, 2085, 3, -0.5
*EQUATION
5
2730, 1, 1.0, 2085, 1, -0.25, 1009, 1, -0.25, 19, 1, -0.25, 2087, 1, -0.25
*EQUATION
5
2730, 2, 1.0, 2085, 2, -0.25, 1009, 2, -0.25, 19, 2, -0.25, 2087, 2, -0.25
*EQUATION
5
2730, 3, 1.0, 2085, 3, -0.25, 1009, 3, -0.25, 19, 3, -0.25, 2087, 3, -0.25
*EQUATION
3
2733, 1, 1.0, 19, 1, -0.5, 2087, 1, -0.5
*EQUATION
3
2733, 2, 1.0, 19, 2, -0.5, 2087, 2, -0.5
*EQUATION
3
2733, 3, 1.0, 19, 3, -0.5, 2087, 3, -0.5
*EQUATION
3
2736, 1, 1.0, 2087, 1, -0.5, 2142, 1, -0.5
*EQUATION
3
2736, 2, 1.0, 2087, 2, -0.5, 2142, 2, -0.5
*EQUATION
3
2736, 3, 1.0, 2087, 3, -0.5, 2142, 3, -0.5
*EQUATION
5
2737, 1, 1.0, 2087, 1, -0.25, 2142, 1, -0.25, 2150, 1, -0.25, 2096, 1, -0.25
*EQUATION
5
2737, 2, 1.0, 2087, 2, -0.25, 2142, 2, -0.25, 2150, 2, -0.25, 2096, 2, -0.25
*EQUATION
5
2737, 3, 1.0, 2087, 3, -0.25, 2142, 3, -0.25, 2150, 3, -0.25, 2096, 3, -0.25
*EQUATION
3
2738, 1, 1.0, 2096, 1, -0.5, 2150, 1, -0.5
*EQUATION
3
2738, 2, 1.0, 2096, 2, -0.5, 2150, 2, -0.5
*EQUATION
3
2738, 3, 1.0, 2096, 3, -0.5, 2150, 3, -0.5
*EQUATION
3
2739, 1, 1.0, 2142, 1, -0.5, 2150, 1, -0.5
*EQUATION
3
2739, 2, 1.0, 2142, 2, -0.5, 2150, 2, -0.5
*EQUATION
3
2739, 3, 1.0, 2142, 3, -0.5, 2150, 3, -0.5
*EQUATION
5
2740, 1, 1.0, 2087, 1, -0.25, 19, 1, -0.25, 1577, 1, -0.25, 2142, 1, -0.25
*EQUATION
5
2740, 2, 1.0, 2087, 2, -0.25, 19, 2, -0.25, 1577, 2, -0.25, 2142, 2, -0.25
*EQUATION
5
2740, 3, 1.0, 2087, 3, -0.25, 19, 3, -0.25, 1577, 3, -0.25, 2142, 3, -0.25
*EQUATION
3
2743, 1, 1.0, 1577, 1, -0.5, 2142, 1, -0.5
*EQUATION
3
2743, 2, 1.0, 1577, 2, -0.5, 2142, 2, -0.5
*EQUATION
3
2743, 3, 1.0, 1577, 3, -0.5, 2142, 3, -0.5
*EQUATION
3
2746, 1, 1.0, 19, 1, -0.5, 1577, 1, -0.5
*EQUATION
3
2746, 2, 1.0, 19, 2, -0.5, 1577, 2, -0.5
*EQUATION
3
2746, 3, 1.0, 19, 3, -0.5, 1577, 3, -0.5
*EQUATION
3
2749, 1, 1.0, 1577, 1, -0.5, 1578, 1, -0.5
*EQUATION
3
2749, 2, 1.0, 1577, 2, -0.5, 1578, 2, -0.5
*EQUATION
3
2749, 3, 1.0, 1577, 3, -0.5, 1578, 3, -0.5
*EQUATION
3
2750, 1, 1.0, 2142, 1, -0.5, 2144, 1, -0.5
*EQUATION
3
2750, 2, 1.0, 2142, 2, -0.5, 2144, 2, -0.5
*EQUATION
3
2750, 3, 1.0, 2142, 3, -0.5, 2144, 3, -0.5
*EQUATION
5
2751, 1, 1.0, 2142, 1, -0.25, 2144, 1, -0.25, 2152, 1, -0.25, 2150, 1, -0.25
*EQUATION
5
2751, 2, 1.0, 2142, 2, -0.25, 2144, 2, -0.25, 2152, 2, -0.25, 2150, 2, -0.25
*EQUATION
5
2751, 3, 1.0, 2142, 3, -0.25, 2144, 3, -0.25, 2152, 3, -0.25, 2150, 3, -0.25
*EQUATION
3
2752, 1, 1.0, 2150, 1, -0.5, 2152, 1, -0.5
*EQUATION
3
2752, 2, 1.0, 2150, 2, -0.5, 2152, 2, -0.5
*EQUATION
3
2752, 3, 1.0, 2150, 3, -0.5, 2152, 3, -0.5
*EQUATION
3
2753, 1, 1.0, 2144, 1, -0.5, 2152, 1, -0.5
*EQUATION
3
2753, 2, 1.0, 2144, 2, -0.5, 2152, 2, -0.5
*EQUATION
3
2753, 3, 1.0, 2144, 3, -0.5, 2152, 3, -0.5
*EQUATION
5
2754, 1, 1.0, 2142, 1, -0.25, 1577, 1, -0.25, 33, 1, -0.25, 2144, 1, -0.25
*EQUATION
5
2754, 2, 1.0, 2142, 2, -0.25, 1577, 2, -0.25, 33, 2, -0.25, 2144, 2, -0.25
*EQUATION
5
2754, 3, 1.0, 2142, 3, -0.25, 1577, 3, -0.25, 33, 3, -0.25, 2144, 3, -0.25
*EQUATION
3
2757, 1, 1.0, 33, 1, -0.5, 2144, 1, -0.5
*EQUATION
3
2757, 2, 1.0, 33, 2, -0.5, 2144, 2, -0.5
*EQUATION
3
2757, 3, 1.0, 33, 3, -0.5, 2144, 3, -0.5
*EQUATION
3
2760, 1, 1.0, 33, 1, -0.5, 1577, 1, -0.5
*EQUATION
3
2760, 2, 1.0, 33, 2, -0.5, 1577, 2, -0.5
*EQUATION
3
2760, 3, 1.0, 33, 3, -0.5, 1577, 3, -0.5
*EQUATION
5
2761, 1, 1.0, 1577, 1, -0.25, 33, 1, -0.25, 1580, 1, -0.25, 1578, 1, -0.25
*EQUATION
5
2761, 2, 1.0, 1577, 2, -0.25, 33, 2, -0.25, 1580, 2, -0.25, 1578, 2, -0.25
*EQUATION
5
2761, 3, 1.0, 1577, 3, -0.25, 33, 3, -0.25, 1580, 3, -0.25, 1578, 3, -0.25
*EQUATION
3
2762, 1, 1.0, 1578, 1, -0.5, 1580, 1, -0.5
*EQUATION
3
2762, 2, 1.0, 1578, 2, -0.5, 1580, 2, -0.5
*EQUATION
3
2762, 3, 1.0, 1578, 3, -0.5, 1580, 3, -0.5
*EQUATION
3
2763, 1, 1.0, 33, 1, -0.5, 1580, 1, -0.5
*EQUATION
3
2763, 2, 1.0, 33, 2, -0.5, 1580, 2, -0.5
*EQUATION
3
2763, 3, 1.0, 33, 3, -0.5, 1580, 3, -0.5
*EQUATION
5
2781, 1, 1.0, 19, 1, -0.25, 1019, 1, -0.25, 1581, 1, -0.25, 1577, 1, -0.25
*EQUATION
5
2781, 2, 1.0, 19, 2, -0.25, 1019, 2, -0.25, 1581, 2, -0.25, 1577, 2, -0.25
*EQUATION
5
2781, 3, 1.0, 19, 3, -0.25, 1019, 3, -0.25, 1581, 3, -0.25, 1577, 3, -0.25
*EQUATION
3
2784, 1, 1.0, 1577, 1, -0.5, 1581, 1, -0.5
*EQUATION
3
2784, 2, 1.0, 1577, 2, -0.5, 1581, 2, -0.5
*EQUATION
3
2784, 3, 1.0, 1577, 3, -0.5, 1581, 3, -0.5
*EQUATION
5
2785, 1, 1.0, 1577, 1, -0.25, 1581, 1, -0.25, 1582, 1, -0.25, 1578, 1, -0.25
*EQUATION
5
2785, 2, 1.0, 1577, 2, -0.25, 1581, 2, -0.25, 1582, 2, -0.25, 1578, 2, -0.25
*EQUATION
5
2785, 3, 1.0, 1577, 3, -0.25, 1581, 3, -0.25, 1582, 3, -0.25, 1578, 3, -0.25
*EQUATION
3
2786, 1, 1.0, 1578, 1, -0.5, 1582, 1, -0.5
*EQUATION
3
2786, 2, 1.0, 1578, 2, -0.5, 1582, 2, -0.5
*EQUATION
3
2786, 3, 1.0, 1578, 3, -0.5, 1582, 3, -0.5
*EQUATION
3
2787, 1, 1.0, 1019, 1, -0.5, 1581, 1, -0.5
*EQUATION
3
2787, 2, 1.0, 1019, 2, -0.5, 1581, 2, -0.5
*EQUATION
3
2787, 3, 1.0, 1019, 3, -0.5, 1581, 3, -0.5
*EQUATION
5
2788, 1, 1.0, 1019, 1, -0.25, 1581, 1, -0.25, 1582, 1, -0.25, 1020, 1, -0.25
*EQUATION
5
2788, 2, 1.0, 1019, 2, -0.25, 1581, 2, -0.25, 1582, 2, -0.25, 1020, 2, -0.25
*EQUATION
5
2788, 3, 1.0, 1019, 3, -0.25, 1581, 3, -0.25, 1582, 3, -0.25, 1020, 3, -0.25
*EQUATION
3
2789, 1, 1.0, 1020, 1, -0.5, 1582, 1, -0.5
*EQUATION
3
2789, 2, 1.0, 1020, 2, -0.5, 1582, 2, -0.5
*EQUATION
3
2789, 3, 1.0, 1020, 3, -0.5, 1582, 3, -0.5
*EQUATION
3
2790, 1, 1.0, 1581, 1, -0.5, 1582, 1, -0.5
*EQUATION
3
2790, 2, 1.0, 1581, 2, -0.5, 1582, 2, -0.5
*EQUATION
3
2790, 3, 1.0, 1581, 3, -0.5, 1582, 3, -0.5
*EQUATION
3
2792, 1, 1.0, 23, 1, -0.5, 1579, 1, -0.5
*EQUATION
3
2792, 2, 1.0, 23, 2, -0.5, 1579, 2, -0.5
*EQUATION
3
2792, 3, 1.0, 23, 3, -0.5, 1579, 3, -0.5
*EQUATION
5
2795, 1, 1.0, 23, 1, -0.25, 1021, 1, -0.25, 1583, 1, -0.25, 1579, 1, -0.25
*EQUATION
5
2795, 2, 1.0, 23, 2, -0.25, 1021, 2, -0.25, 1583, 2, -0.25, 1579, 2, -0.25
*EQUATION
5
2795, 3, 1.0, 23, 3, -0.25, 1021, 3, -0.25, 1583, 3, -0.25, 1579, 3, -0.25
*EQUATION
3
2797, 1, 1.0, 1579, 1, -0.5, 1583, 1, -0.5
*EQUATION
3
2797, 2, 1.0, 1579, 2, -0.5, 1583, 2, -0.5
*EQUATION
3
2797, 3, 1.0, 1579, 3, -0.5, 1583, 3, -0.5
*EQUATION
5
2798, 1, 1.0, 1020, 1, -0.25, 1582, 1, -0.25, 1583, 1, -0.25, 1021, 1, -0.25
*EQUATION
5
2798, 2, 1.0, 1020, 2, -0.25, 1582, 2, -0.25, 1583, 2, -0.25, 1021, 2, -0.25
*EQUATION
5
2798, 3, 1.0, 1020, 3, -0.25, 1582, 3, -0.25, 1583, 3, -0.25, 1021, 3, -0.25
*EQUATION
3
2799, 1, 1.0, 1021, 1, -0.5, 1583, 1, -0.5
*EQUATION
3
2799, 2, 1.0, 1021, 2, -0.5, 1583, 2, -0.5
*EQUATION
3
2799, 3, 1.0, 1021, 3, -0.5, 1583, 3, -0.5
*EQUATION
3
2800, 1, 1.0, 1582, 1, -0.5, 1583, 1, -0.5
*EQUATION
3
2800, 2, 1.0, 1582, 2, -0.5, 1583, 2, -0.5
*EQUATION
3
2800, 3, 1.0, 1582, 3, -0.5, 1583, 3, -0.5
*EQUATION
3
2802, 1, 1.0, 35, 1, -0.5, 1579, 1, -0.5
*EQUATION
3
2802, 2, 1.0, 35, 2, -0.5, 1579, 2, -0.5
*EQUATION
3
2802, 3, 1.0, 35, 3, -0.5, 1579, 3, -0.5
*EQUATION
5
2804, 1, 1.0, 1578, 1, -0.25, 1582, 1, -0.25, 1585, 1, -0.25, 1580, 1, -0.25
*EQUATION
5
2804, 2, 1.0, 1578, 2, -0.25, 1582, 2, -0.25, 1585, 2, -0.25, 1580, 2, -0.25
*EQUATION
5
2804, 3, 1.0, 1578, 3, -0.25, 1582, 3, -0.25, 1585, 3, -0.25, 1580, 3, -0.25
*EQUATION
5
2806, 1, 1.0, 1579, 1, -0.25, 1583, 1, -0.25, 1586, 1, -0.25, 35, 1, -0.25
*EQUATION
5
2806, 2, 1.0, 1579, 2, -0.25, 1583, 2, -0.25, 1586, 2, -0.25, 35, 2, -0.25
*EQUATION
5
2806, 3, 1.0, 1579, 3, -0.25, 1583, 3, -0.25, 1586, 3, -0.25, 35, 3, -0.25
*EQUATION
3
2807, 1, 1.0, 1580, 1, -0.5, 1585, 1, -0.5
*EQUATION
3
2807, 2, 1.0, 1580, 2, -0.5, 1585, 2, -0.5
*EQUATION
3
2807, 3, 1.0, 1580, 3, -0.5, 1585, 3, -0.5
*EQUATION
3
2809, 1, 1.0, 35, 1, -0.5, 1586, 1, -0.5
*EQUATION
3
2809, 2, 1.0, 35, 2, -0.5, 1586, 2, -0.5
*EQUATION
3
2809, 3, 1.0, 35, 3, -0.5, 1586, 3, -0.5
*EQUATION
3
2810, 1, 1.0, 1582, 1, -0.5, 1585, 1, -0.5
*EQUATION
3
2810, 2, 1.0, 1582, 2, -0.5, 1585, 2, -0.5
*EQUATION
3
2810, 3, 1.0, 1582, 3, -0.5, 1585, 3, -0.5
*EQUATION
5
2811, 1, 1.0, 1582, 1, -0.25, 1585, 1, -0.25, 1586, 1, -0.25, 1583, 1, -0.25
*EQUATION
5
2811, 2, 1.0, 1582, 2, -0.25, 1585, 2, -0.25, 1586, 2, -0.25, 1583, 2, -0.25
*EQUATION
5
2811, 3, 1.0, 1582, 3, -0.25, 1585, 3, -0.25, 1586, 3, -0.25, 1583, 3, -0.25
*EQUATION
3
2812, 1, 1.0, 1583, 1, -0.5, 1586, 1, -0.5
*EQUATION
3
2812, 2, 1.0, 1583, 2, -0.5, 1586, 2, -0.5
*EQUATION
3
2812, 3, 1.0, 1583, 3, -0.5, 1586, 3, -0.5
*EQUATION
3
2813, 1, 1.0, 1585, 1, -0.5, 1586, 1, -0.5
*EQUATION
3
2813, 2, 1.0, 1585, 2, -0.5, 1586, 2, -0.5
*EQUATION
3
2813, 3, 1.0, 1585, 3, -0.5, 1586, 3, -0.5
*EQUATION
3
2814, 1, 1.0, 101, 1, -0.5, 1004, 1, -0.5
*EQUATION
3
2814, 2, 1.0, 101, 2, -0.5, 1004, 2, -0.5
*EQUATION
3
2814, 3, 1.0, 101, 3, -0.5, 1004, 3, -0.5
*EQUATION
3
2815, 1, 1.0, 101, 1, -0.5, 992, 1, -0.5
*EQUATION
3
2815, 2, 1.0, 101, 2, -0.5, 992, 2, -0.5
*EQUATION
3
2815, 3, 1.0, 101, 3, -0.5, 992, 3, -0.5
*EQUATION
5
2816, 1, 1.0, 101, 1, -0.25, 992, 1, -0.25, 1005, 1, -0.25, 1004, 1, -0.25
*EQUATION
5
2816, 2, 1.0, 101, 2, -0.25, 992, 2, -0.25, 1005, 2, -0.25, 1004, 2, -0.25
*EQUATION
5
2816, 3, 1.0, 101, 3, -0.25, 992, 3, -0.25, 1005, 3, -0.25, 1004, 3, -0.25
*EQUATION
3
2817, 1, 1.0, 992, 1, -0.5, 1005, 1, -0.5
*EQUATION
3
2817, 2, 1.0, 992, 2, -0.5, 1005, 2, -0.5
*EQUATION
3
2817, 3, 1.0, 992, 3, -0.5, 1005, 3, -0.5
*EQUATION
3
2818, 1, 1.0, 101, 1, -0.5, 1806, 1, -0.5
*EQUATION
3
2818, 2, 1.0, 101, 2, -0.5, 1806, 2, -0.5
*EQUATION
3
2818, 3, 1.0, 101, 3, -0.5, 1806, 3, -0.5
*EQUATION
3
2820, 1, 1.0, 1004, 1, -0.5, 2491, 1, -0.5
*EQUATION
3
2820, 2, 1.0, 1004, 2, -0.5, 2491, 2, -0.5
*EQUATION
3
2820, 3, 1.0, 1004, 3, -0.5, 2491, 3, -0.5
*EQUATION
5
2821, 1, 1.0, 101, 1, -0.25, 1806, 1, -0.25, 1808, 1, -0.25, 992, 1, -0.25
*EQUATION
5
2821, 2, 1.0, 101, 2, -0.25, 1806, 2, -0.25, 1808, 2, -0.25, 992, 2, -0.25
*EQUATION
5
2821, 3, 1.0, 101, 3, -0.25, 1806, 3, -0.25, 1808, 3, -0.25, 992, 3, -0.25
*EQUATION
5
2823, 1, 1.0, 1004, 1, -0.25, 2491, 1, -0.25, 2493, 1, -0.25, 1005, 1, -0.25
*EQUATION
5
2823, 2, 1.0, 1004, 2, -0.25, 2491, 2, -0.25, 2493, 2, -0.25, 1005, 2, -0.25
*EQUATION
5
2823, 3, 1.0, 1004, 3, -0.25, 2491, 3, -0.25, 2493, 3, -0.25, 1005, 3, -0.25
*EQUATION
3
2824, 1, 1.0, 992, 1, -0.5, 1808, 1, -0.5
*EQUATION
3
2824, 2, 1.0, 992, 2, -0.5, 1808, 2, -0.5
*EQUATION
3
2824, 3, 1.0, 992, 3, -0.5, 1808, 3, -0.5
*EQUATION
3
2826, 1, 1.0, 1005, 1, -0.5, 2493, 1, -0.5
*EQUATION
3
2826, 2, 1.0, 1005, 2, -0.5, 2493, 2, -0.5
*EQUATION
3
2826, 3, 1.0, 1005, 3, -0.5, 2493, 3, -0.5
*EQUATION
3
2828, 1, 1.0, 1806, 1, -0.5, 1808, 1, -0.5
*EQUATION
3
2828, 2, 1.0, 1806, 2, -0.5, 1808, 2, -0.5
*EQUATION
3
2828, 3, 1.0, 1806, 3, -0.5, 1808, 3, -0.5
*EQUATION
3
2830, 1, 1.0, 2491, 1, -0.5, 2493, 1, -0.5
*EQUATION
3
2830, 2, 1.0, 2491, 2, -0.5, 2493, 2, -0.5
*EQUATION
3
2830, 3, 1.0, 2491, 3, -0.5, 2493, 3, -0.5
*EQUATION
3
2832, 1, 1.0, 102, 1, -0.5, 992, 1, -0.5
*EQUATION
3
2832, 2, 1.0, 102, 2, -0.5, 992, 2, -0.5
*EQUATION
3
2832, 3, 1.0, 102, 3, -0.5, 992, 3, -0.5
*EQUATION
5
2833, 1, 1.0, 992, 1, -0.25, 102, 1, -0.25, 1007, 1, -0.25, 1005, 1, -0.25
*EQUATION
5
2833, 2, 1.0, 992, 2, -0.25, 102, 2, -0.25, 1007, 2, -0.25, 1005, 2, -0.25
*EQUATION
5
2833, 3, 1.0, 992, 3, -0.25, 102, 3, -0.25, 1007, 3, -0.25, 1005, 3, -0.25
*EQUATION
3
2834, 1, 1.0, 102, 1, -0.5, 1007, 1, -0.5
*EQUATION
3
2834, 2, 1.0, 102, 2, -0.5, 1007, 2, -0.5
*EQUATION
3
2834, 3, 1.0, 102, 3, -0.5, 1007, 3, -0.5
*EQUATION
5
2835, 1, 1.0, 992, 1, -0.25, 1808, 1, -0.25, 1810, 1, -0.25, 102, 1, -0.25
*EQUATION
5
2835, 2, 1.0, 992, 2, -0.25, 1808, 2, -0.25, 1810, 2, -0.25, 102, 2, -0.25
*EQUATION
5
2835, 3, 1.0, 992, 3, -0.25, 1808, 3, -0.25, 1810, 3, -0.25, 102, 3, -0.25
*EQUATION
5
2837, 1, 1.0, 1005, 1, -0.25, 2493, 1, -0.25, 2495, 1, -0.25, 1007, 1, -0.25
*EQUATION
5
2837, 2, 1.0, 1005, 2, -0.25, 2493, 2, -0.25, 2495, 2, -0.25, 1007, 2, -0.25
*EQUATION
5
2837, 3, 1.0, 1005, 3, -0.25, 2493, 3, -0.25, 2495, 3, -0.25, 1007, 3, -0.25
*EQUATION
3
2838, 1, 1.0, 102, 1, -0.5, 1810, 1, -0.5
*EQUATION
3
2838, 2, 1.0, 102, 2, -0.5, 1810, 2, -0.5
*EQUATION
3
2838, 3, 1.0, 102, 3, -0.5, 1810, 3, -0.5
*EQUATION
3
2840, 1, 1.0, 1007, 1, -0.5, 2495, 1, -0.5
*EQUATION
3
2840, 2, 1.0, 1007, 2, -0.5, 2495, 2, -0.5
*EQUATION
3
2840, 3, 1.0, 1007, 3, -0.5, 2495, 3, -0.5
*EQUATION
3
2841, 1, 1.0, 1808, 1, -0.5, 1810, 1, -0.5
*EQUATION
3
2841, 2, 1.0, 1808, 2, -0.5, 1810, 2, -0.5
*EQUATION
3
2841, 3, 1.0, 1808, 3, -0.5, 1810, 3, -0.5
*EQUATION
3
2843, 1, 1.0, 2493, 1, -0.5, 2495, 1, -0.5
*EQUATION
3
2843, 2, 1.0, 2493, 2, -0.5, 2495, 2, -0.5
*EQUATION
3
2843, 3, 1.0, 2493, 3, -0.5, 2495, 3, -0.5
*EQUATION
3
2845, 1, 1.0, 149, 1, -0.5, 1806, 1, -0.5
*EQUATION
3
2845, 2, 1.0, 149, 2, -0.5, 1806, 2, -0.5
*EQUATION
3
2845, 3, 1.0, 149, 3, -0.5, 1806, 3, -0.5
*EQUATION
3
2847, 1, 1.0, 2491, 1, -0.5, 2497, 1, -0.5
*EQUATION
3
2847, 2, 1.0, 2491, 2, -0.5, 2497, 2, -0.5
*EQUATION
3
2847, 3, 1.0, 2491, 3, -0.5, 2497, 3, -0.5
*EQUATION
5
2848, 1, 1.0, 1806, 1, -0.25, 149, 1, -0.25, 1813, 1, -0.25, 1808, 1, -0.25
*EQUATION
5
2848, 2, 1.0, 1806, 2, -0.25, 149, 2, -0.25, 1813, 2, -0.25, 1808, 2, -0.25
*EQUATION
5
2848, 3, 1.0, 1806, 3, -0.25, 149, 3, -0.25, 1813, 3, -0.25, 1808, 3, -0.25
*EQUATION
5
2850, 1, 1.0, 2491, 1, -0.25, 2497, 1, -0.25, 2498, 1, -0.25, 2493, 1, -0.25
*EQUATION
5
2850, 2, 1.0, 2491, 2, -0.25, 2497, 2, -0.25, 2498, 2, -0.25, 2493, 2, -0.25
*EQUATION
5
2850, 3, 1.0, 2491, 3, -0.25, 2497, 3, -0.25, 2498, 3, -0.25, 2493, 3, -0.25
*EQUATION
3
2851, 1, 1.0, 1808, 1, -0.5, 1813, 1, -0.5
*EQUATION
3
2851, 2, 1.0, 1808, 2, -0.5, 1813, 2, -0.5
*EQUATION
3
2851, 3, 1.0, 1808, 3, -0.5, 1813, 3, -0.5
*EQUATION
3
2853, 1, 1.0, 2493, 1, -0.5, 2498, 1, -0.5
*EQUATION
3
2853, 2, 1.0, 2493, 2, -0.5, 2498, 2, -0.5
*EQUATION
3
2853, 3, 1.0, 2493, 3, -0.5, 2498, 3, -0.5
*EQUATION
3
2855, 1, 1.0, 149, 1, -0.5, 1813, 1, -0.5
*EQUATION
3
2855, 2, 1.0, 149, 2, -0.5, 1813, 2, -0.5
*EQUATION
3
2855, 3, 1.0, 149, 3, -0.5, 1813, 3, -0.5
*EQUATION
3
2857, 1, 1.0, 2497, 1, -0.5, 2498, 1, -0.5
*EQUATION
3
2857, 2, 1.0, 2497, 2, -0.5, 2498, 2, -0.5
*EQUATION
3
2857, 3, 1.0, 2497, 3, -0.5, 2498, 3, -0.5
*EQUATION
5
2859, 1, 1.0, 1808, 1, -0.25, 1813, 1, -0.25, 150, 1, -0.25, 1810, 1, -0.25
*EQUATION
5
2859, 2, 1.0, 1808, 2, -0.25, 1813, 2, -0.25, 150, 2, -0.25, 1810, 2, -0.25
*EQUATION
5
2859, 3, 1.0, 1808, 3, -0.25, 1813, 3, -0.25, 150, 3, -0.25, 1810, 3, -0.25
*EQUATION
5
2861, 1, 1.0, 2493, 1, -0.25, 2498, 1, -0.25, 2500, 1, -0.25, 2495, 1, -0.25
*EQUATION
5
2861, 2, 1.0, 2493, 2, -0.25, 2498, 2, -0.25, 2500, 2, -0.25, 2495, 2, -0.25
*EQUATION
5
2861, 3, 1.0, 2493, 3, -0.25, 2498, 3, -0.25, 2500, 3, -0.25, 2495, 3, -0.25
*EQUATION
3
2862, 1, 1.0, 150, 1, -0.5, 1810, 1, -0.5
*EQUATION
3
2862, 2, 1.0, 150, 2, -0.5, 1810, 2, -0.5
*EQUATION
3
2862, 3, 1.0, 150, 3, -0.5, 1810, 3, -0.5
*EQUATION
3
2864, 1, 1.0, 2495, 1, -0.5, 2500, 1, -0.5
*EQUATION
3
2864, 2, 1.0, 2495, 2, -0.5, 2500, 2, -0.5
*EQUATION
3
2864, 3, 1.0, 2495, 3, -0.5, 2500, 3, -0.5
*EQUATION
3
2865, 1, 1.0, 150, 1, -0.5, 1813, 1, -0.5
*EQUATION
3
2865, 2, 1.0, 150, 2, -0.5, 1813, 2, -0.5
*EQUATION
3
2865, 3, 1.0, 150, 3, -0.5, 1813, 3, -0.5
*EQUATION
3
2867, 1, 1.0, 2498, 1, -0.5, 2500, 1, -0.5
*EQUATION
3
2867, 2, 1.0, 2498, 2, -0.5, 2500, 2, -0.5
*EQUATION
3
2867, 3, 1.0, 2498, 3, -0.5, 2500, 3, -0.5
*EQUATION
3
2875, 1, 1.0, 102, 1, -0.5, 1042, 1, -0.5
*EQUATION
3
2875, 2, 1.0, 102, 2, -0.5, 1042, 2, -0.5
*EQUATION
3
2875, 3, 1.0, 102, 3, -0.5, 1042, 3, -0.5
*EQUATION
5
2876, 1, 1.0, 102, 1, -0.25, 1042, 1, -0.25, 1051, 1, -0.25, 1007, 1, -0.25
*EQUATION
5
2876, 2, 1.0, 102, 2, -0.25, 1042, 2, -0.25, 1051, 2, -0.25, 1007, 2, -0.25
*EQUATION
5
2876, 3, 1.0, 102, 3, -0.25, 1042, 3, -0.25, 1051, 3, -0.25, 1007, 3, -0.25
*EQUATION
3
2877, 1, 1.0, 1007, 1, -0.5, 1051, 1, -0.5
*EQUATION
3
2877, 2, 1.0, 1007, 2, -0.5, 1051, 2, -0.5
*EQUATION
3
2877, 3, 1.0, 1007, 3, -0.5, 1051, 3, -0.5
*EQUATION
3
2878, 1, 1.0, 1042, 1, -0.5, 1051, 1, -0.5
*EQUATION
3
2878, 2, 1.0, 1042, 2, -0.5, 1051, 2, -0.5
*EQUATION
3
2878, 3, 1.0, 1042, 3, -0.5, 1051, 3, -0.5
*EQUATION
5
2879, 1, 1.0, 102, 1, -0.25, 1810, 1, -0.25, 1844, 1, -0.25, 1042, 1, -0.25
*EQUATION
5
2879, 2, 1.0, 102, 2, -0.25, 1810, 2, -0.25, 1844, 2, -0.25, 1042, 2, -0.25
*EQUATION
5
2879, 3, 1.0, 102, 3, -0.25, 1810, 3, -0.25, 1844, 3, -0.25, 1042, 3, -0.25
*EQUATION
5
2881, 1, 1.0, 1007, 1, -0.25, 2495, 1, -0.25, 2548, 1, -0.25, 1051, 1, -0.25
*EQUATION
5
2881, 2, 1.0, 1007, 2, -0.25, 2495, 2, -0.25, 2548, 2, -0.25, 1051, 2, -0.25
*EQUATION
5
2881, 3, 1.0, 1007, 3, -0.25, 2495, 3, -0.25, 2548, 3, -0.25, 1051, 3, -0.25
*EQUATION
3
2882, 1, 1.0, 1042, 1, -0.5, 1844, 1, -0.5
*EQUATION
3
2882, 2, 1.0, 1042, 2, -0.5, 1844, 2, -0.5
*EQUATION
3
2882, 3, 1.0, 1042, 3, -0.5, 1844, 3, -0.5
*EQUATION
3
2884, 1, 1.0, 1051, 1, -0.5, 2548, 1, -0.5
*EQUATION
3
2884, 2, 1.0, 1051, 2, -0.5, 2548, 2, -0.5
*EQUATION
3
2884, 3, 1.0, 1051, 3, -0.5, 2548, 3, -0.5
*EQUATION
3
2885, 1, 1.0, 1810, 1, -0.5, 1844, 1, -0.5
*EQUATION
3
2885, 2, 1.0, 1810, 2, -0.5, 1844, 2, -0.5
*EQUATION
3
2885, 3, 1.0, 1810, 3, -0.5, 1844, 3, -0.5
*EQUATION
3
2887, 1, 1.0, 2495, 1, -0.5, 2548, 1, -0.5
*EQUATION
3
2887, 2, 1.0, 2495, 2, -0.5, 2548, 2, -0.5
*EQUATION
3
2887, 3, 1.0, 2495, 3, -0.5, 2548, 3, -0.5
*EQUATION
3
2889, 1, 1.0, 111, 1, -0.5, 1042, 1, -0.5
*EQUATION
3
2889, 2, 1.0, 111, 2, -0.5, 1042, 2, -0.5
*EQUATION
3
2889, 3, 1.0, 111, 3, -0.5, 1042, 3, -0.5
*EQUATION
5
2890, 1, 1.0, 1042, 1, -0.25, 111, 1, -0.25, 1053, 1, -0.25, 1051, 1, -0.25
*EQUATION
5
2890, 2, 1.0, 1042, 2, -0.25, 111, 2, -0.25, 1053, 2, -0.25, 1051, 2, -0.25
*EQUATION
5
2890, 3, 1.0, 1042, 3, -0.25, 111, 3, -0.25, 1053, 3, -0.25, 1051, 3, -0.25
*EQUATION
3
2891, 1, 1.0, 1051, 1, -0.5, 1053, 1, -0.5
*EQUATION
3
2891, 2, 1.0, 1051, 2, -0.5, 1053, 2, -0.5
*EQUATION
3
2891, 3, 1.0, 1051, 3, -0.5, 1053, 3, -0.5
*EQUATION
3
2892, 1, 1.0, 111, 1, -0.5, 1053, 1, -0.5
*EQUATION
3
2892, 2, 1.0, 111, 2, -0.5, 1053, 2, -0.5
*EQUATION
3
2892, 3, 1.0, 111, 3, -0.5, 1053, 3, -0.5
*EQUATION
5
2893, 1, 1.0, 1042, 1, -0.25, 1844, 1, -0.25, 1846, 1, -0.25, 111, 1, -0.25
*EQUATION
5
2893, 2, 1.0, 1042, 2, -0.25, 1844, 2, -0.25, 1846, 2, -0.25, 111, 2, -0.25
*EQUATION
5
2893, 3, 1.0, 1042, 3, -0.25, 1844, 3, -0.25, 1846, 3, -0.25, 111, 3, -0.25
*EQUATION
5
2895, 1, 1.0, 1051, 1, -0.25, 2548, 1, -0.25, 2550, 1, -0.25, 1053, 1, -0.25
*EQUATION
5
2895, 2, 1.0, 1051, 2, -0.25, 2548, 2, -0.25, 2550, 2, -0.25, 1053, 2, -0.25
*EQUATION
5
2895, 3, 1.0, 1051, 3, -0.25, 2548, 3, -0.25, 2550, 3, -0.25, 1053, 3, -0.25
*EQUATION
3
2896, 1, 1.0, 111, 1, -0.5, 1846, 1, -0.5
*EQUATION
3
2896, 2, 1.0, 111, 2, -0.5, 1846, 2, -0.5
*EQUATION
3
2896, 3, 1.0, 111, 3, -0.5, 1846, 3, -0.5
*EQUATION
3
2898, 1, 1.0, 1053, 1, -0.5, 2550, 1, -0.5
*EQUATION
3
2898, 2, 1.0, 1053, 2, -0.5, 2550, 2, -0.5
*EQUATION
3
2898, 3, 1.0, 1053, 3, -0.5, 2550, 3, -0.5
*EQUATION
3
2899, 1, 1.0, 1844, 1, -0.5, 1846, 1, -0.5
*EQUATION
3
2899, 2, 1.0, 1844, 2, -0.5, 1846, 2, -0.5
*EQUATION
3
2899, 3, 1.0, 1844, 3, -0.5, 1846, 3, -0.5
*EQUATION
3
2901, 1, 1.0, 2548, 1, -0.5, 2550, 1, -0.5
*EQUATION
3
2901, 2, 1.0, 2548, 2, -0.5, 2550, 2, -0.5
*EQUATION
3
2901, 3, 1.0, 2548, 3, -0.5, 2550, 3, -0.5
*EQUATION
5
2903, 1, 1.0, 1810, 1, -0.25, 150, 1, -0.25, 1848, 1, -0.25, 1844, 1, -0.25
*EQUATION
5
2903, 2, 1.0, 1810, 2, -0.25, 150, 2, -0.25, 1848, 2, -0.25, 1844, 2, -0.25
*EQUATION
5
2903, 3, 1.0, 1810, 3, -0.25, 150, 3, -0.25, 1848, 3, -0.25, 1844, 3, -0.25
*EQUATION
5
2905, 1, 1.0, 2495, 1, -0.25, 2500, 1, -0.25, 2552, 1, -0.25, 2548, 1, -0.25
*EQUATION
5
2905, 2, 1.0, 2495, 2, -0.25, 2500, 2, -0.25, 2552, 2, -0.25, 2548, 2, -0.25
*EQUATION
5
2905, 3, 1.0, 2495, 3, -0.25, 2500, 3, -0.25, 2552, 3, -0.25, 2548, 3, -0.25
*EQUATION
3
2906, 1, 1.0, 1844, 1, -0.5, 1848, 1, -0.5
*EQUATION
3
2906, 2, 1.0, 1844, 2, -0.5, 1848, 2, -0.5
*EQUATION
3
2906, 3, 1.0, 1844, 3, -0.5, 1848, 3, -0.5
*EQUATION
3
2908, 1, 1.0, 2548, 1, -0.5, 2552, 1, -0.5
*EQUATION
3
2908, 2, 1.0, 2548, 2, -0.5, 2552, 2, -0.5
*EQUATION
3
2908, 3, 1.0, 2548, 3, -0.5, 2552, 3, -0.5
*EQUATION
3
2909, 1, 1.0, 150, 1, -0.5, 1848, 1, -0.5
*EQUATION
3
2909, 2, 1.0, 150, 2, -0.5, 1848, 2, -0.5
*EQUATION
3
2909, 3, 1.0, 150, 3, -0.5, 1848, 3, -0.5
*EQUATION
3
2911, 1, 1.0, 2500, 1, -0.5, 2552, 1, -0.5
*EQUATION
3
2911, 2, 1.0, 2500, 2, -0.5, 2552, 2, -0.5
*EQUATION
3
2911, 3, 1.0, 2500, 3, -0.5, 2552, 3, -0.5
*EQUATION
5
2913, 1, 1.0, 1844, 1, -0.25, 1848, 1, -0.25, 159, 1, -0.25, 1846, 1, -0.25
*EQUATION
5
2913, 2, 1.0, 1844, 2, -0.25, 1848, 2, -0.25, 159, 2, -0.25, 1846, 2, -0.25
*EQUATION
5
2913, 3, 1.0, 1844, 3, -0.25, 1848, 3, -0.25, 159, 3, -0.25, 1846, 3, -0.25
*EQUATION
5
2915, 1, 1.0, 2548, 1, -0.25, 2552, 1, -0.25, 2554, 1, -0.25, 2550, 1, -0.25
*EQUATION
5
2915, 2, 1.0, 2548, 2, -0.25, 2552, 2, -0.25, 2554, 2, -0.25, 2550, 2, -0.25
*EQUATION
5
2915, 3, 1.0, 2548, 3, -0.25, 2552, 3, -0.25, 2554, 3, -0.25, 2550, 3, -0.25
*EQUATION
3
2916, 1, 1.0, 159, 1, -0.5, 1846, 1, -0.5
*EQUATION
3
2916, 2, 1.0, 159, 2, -0.5, 1846, 2, -0.5
*EQUATION
3
2916, 3, 1.0, 159, 3, -0.5, 1846, 3, -0.5
*EQUATION
3
2918, 1, 1.0, 2550, 1, -0.5, 2554, 1, -0.5
*EQUATION
3
2918, 2, 1.0, 2550, 2, -0.5, 2554, 2, -0.5
*EQUATION
3
2918, 3, 1.0, 2550, 3, -0.5, 2554, 3, -0.5
*EQUATION
3
2919, 1, 1.0, 159, 1, -0.5, 1848, 1, -0.5
*EQUATION
3
2919, 2, 1.0, 159, 2, -0.5, 1848, 2, -0.5
*EQUATION
3
2919, 3, 1.0, 159, 3, -0.5, 1848, 3, -0.5
*EQUATION
3
2921, 1, 1.0, 2552, 1, -0.5, 2554, 1, -0.5
*EQUATION
3
2921, 2, 1.0, 2552, 2, -0.5, 2554, 2, -0.5
*EQUATION
3
2921, 3, 1.0, 2552, 3, -0.5, 2554, 3, -0.5
*EQUATION
3
2997, 1, 1.0, 149, 1, -0.5, 1899, 1, -0.5
*EQUATION
3
2997, 2, 1.0, 149, 2, -0.5, 1899, 2, -0.5
*EQUATION
3
2997, 3, 1.0, 149, 3, -0.5, 1899, 3, -0.5
*EQUATION
3
2999, 1, 1.0, 2497, 1, -0.5, 2565, 1, -0.5
*EQUATION
3
2999, 2, 1.0, 2497, 2, -0.5, 2565, 2, -0.5
*EQUATION
3
2999, 3, 1.0, 2497, 3, -0.5, 2565, 3, -0.5
*EQUATION
5
3000, 1, 1.0, 149, 1, -0.25, 1899, 1, -0.25, 1901, 1, -0.25, 1813, 1, -0.25
*EQUATION
5
3000, 2, 1.0, 149, 2, -0.25, 1899, 2, -0.25, 1901, 2, -0.25, 1813, 2, -0.25
*EQUATION
5
3000, 3, 1.0, 149, 3, -0.25, 1899, 3, -0.25, 1901, 3, -0.25, 1813, 3, -0.25
*EQUATION
5
3002, 1, 1.0, 2497, 1, -0.25, 2565, 1, -0.25, 2567, 1, -0.25, 2498, 1, -0.25
*EQUATION
5
3002, 2, 1.0, 2497, 2, -0.25, 2565, 2, -0.25, 2567, 2, -0.25, 2498, 2, -0.25
*EQUATION
5
3002, 3, 1.0, 2497, 3, -0.25, 2565, 3, -0.25, 2567, 3, -0.25, 2498, 3, -0.25
*EQUATION
3
3003, 1, 1.0, 1813, 1, -0.5, 1901, 1, -0.5
*EQUATION
3
3003, 2, 1.0, 1813, 2, -0.5, 1901, 2, -0.5
*EQUATION
3
3003, 3, 1.0, 1813, 3, -0.5, 1901, 3, -0.5
*EQUATION
3
3005, 1, 1.0, 2498, 1, -0.5, 2567, 1, -0.5
*EQUATION
3
3005, 2, 1.0, 2498, 2, -0.5, 2567, 2, -0.5
*EQUATION
3
3005, 3, 1.0, 2498, 3, -0.5, 2567, 3, -0.5
*EQUATION
3
3007, 1, 1.0, 1899, 1, -0.5, 1901, 1, -0.5
*EQUATION
3
3007, 2, 1.0, 1899, 2, -0.5, 1901, 2, -0.5
*EQUATION
3
3007, 3, 1.0, 1899, 3, -0.5, 1901, 3, -0.5
*EQUATION
3
3009, 1, 1.0, 2565, 1, -0.5, 2567, 1, -0.5
*EQUATION
3
3009, 2, 1.0, 2565, 2, -0.5, 2567, 2, -0.5
*EQUATION
3
3009, 3, 1.0, 2565, 3, -0.5, 2567, 3, -0.5
*EQUATION
5
3011, 1, 1.0, 1813, 1, -0.25, 1901, 1, -0.25, 1903, 1, -0.25, 150, 1, -0.25
*EQUATION
5
3011, 2, 1.0, 1813, 2, -0.25, 1901, 2, -0.25, 1903, 2, -0.25, 150, 2, -0.25
*EQUATION
5
3011, 3, 1.0, 1813, 3, -0.25, 1901, 3, -0.25, 1903, 3, -0.25, 150, 3, -0.25
*EQUATION
5
3013, 1, 1.0, 2498, 1, -0.25, 2567, 1, -0.25, 2569, 1, -0.25, 2500, 1, -0.25
*EQUATION
5
3013, 2, 1.0, 2498, 2, -0.25, 2567, 2, -0.25, 2569, 2, -0.25, 2500, 2, -0.25
*EQUATION
5
3013, 3, 1.0, 2498, 3, -0.25, 2567, 3, -0.25, 2569, 3, -0.25, 2500, 3, -0.25
*EQUATION
3
3014, 1, 1.0, 150, 1, -0.5, 1903, 1, -0.5
*EQUATION
3
3014, 2, 1.0, 150, 2, -0.5, 1903, 2, -0.5
*EQUATION
3
3014, 3, 1.0, 150, 3, -0.5, 1903, 3, -0.5
*EQUATION
3
3016, 1, 1.0, 2500, 1, -0.5, 2569, 1, -0.5
*EQUATION
3
3016, 2, 1.0, 2500, 2, -0.5, 2569, 2, -0.5
*EQUATION
3
3016, 3, 1.0, 2500, 3, -0.5, 2569, 3, -0.5
*EQUATION
3
3017, 1, 1.0, 1901, 1, -0.5, 1903, 1, -0.5
*EQUATION
3
3017, 2, 1.0, 1901, 2, -0.5, 1903, 2, -0.5
*EQUATION
3
3017, 3, 1.0, 1901, 3, -0.5, 1903, 3, -0.5
*EQUATION
3
3019, 1, 1.0, 2567, 1, -0.5, 2569, 1, -0.5
*EQUATION
3
3019, 2, 1.0, 2567, 2, -0.5, 2569, 2, -0.5
*EQUATION
3
3019, 3, 1.0, 2567, 3, -0.5, 2569, 3, -0.5
*EQUATION
3
3021, 1, 1.0, 197, 1, -0.5, 1899, 1, -0.5
*EQUATION
3
3021, 2, 1.0, 197, 2, -0.5, 1899, 2, -0.5
*EQUATION
3
3021, 3, 1.0, 197, 3, -0.5, 1899, 3, -0.5
*EQUATION
3
3023, 1, 1.0, 2565, 1, -0.5, 2571, 1, -0.5
*EQUATION
3
3023, 2, 1.0, 2565, 2, -0.5, 2571, 2, -0.5
*EQUATION
3
3023, 3, 1.0, 2565, 3, -0.5, 2571, 3, -0.5
*EQUATION
5
3024, 1, 1.0, 1899, 1, -0.25, 197, 1, -0.25, 1906, 1, -0.25, 1901, 1, -0.25
*EQUATION
5
3024, 2, 1.0, 1899, 2, -0.25, 197, 2, -0.25, 1906, 2, -0.25, 1901, 2, -0.25
*EQUATION
5
3024, 3, 1.0, 1899, 3, -0.25, 197, 3, -0.25, 1906, 3, -0.25, 1901, 3, -0.25
*EQUATION
5
3026, 1, 1.0, 2565, 1, -0.25, 2571, 1, -0.25, 2572, 1, -0.25, 2567, 1, -0.25
*EQUATION
5
3026, 2, 1.0, 2565, 2, -0.25, 2571, 2, -0.25, 2572, 2, -0.25, 2567, 2, -0.25
*EQUATION
5
3026, 3, 1.0, 2565, 3, -0.25, 2571, 3, -0.25, 2572, 3, -0.25, 2567, 3, -0.25
*EQUATION
3
3027, 1, 1.0, 1901, 1, -0.5, 1906, 1, -0.5
*EQUATION
3
3027, 2, 1.0, 1901, 2, -0.5, 1906, 2, -0.5
*EQUATION
3
3027, 3, 1.0, 1901, 3, -0.5, 1906, 3, -0.5
*EQUATION
3
3029, 1, 1.0, 2567, 1, -0.5, 2572, 1, -0.5
*EQUATION
3
3029, 2, 1.0, 2567, 2, -0.5, 2572, 2, -0.5
*EQUATION
3
3029, 3, 1.0, 2567, 3, -0.5, 2572, 3, -0.5
*EQUATION
3
3031, 1, 1.0, 197, 1, -0.5, 1906, 1, -0.5
*EQUATION
3
3031, 2, 1.0, 197, 2, -0.5, 1906, 2, -0.5
*EQUATION
3
3031, 3, 1.0, 197, 3, -0.5, 1906, 3, -0.5
*EQUATION
3
3033, 1, 1.0, 2571, 1, -0.5, 2572, 1, -0.5
*EQUATION
3
3033, 2, 1.0, 2571, 2, -0.5, 2572, 2, -0.5
*EQUATION
3
3033, 3, 1.0, 2571, 3, -0.5, 2572, 3, -0.5
*EQUATION
5
3035, 1, 1.0, 1901, 1, -0.25, 1906, 1, -0.25, 198, 1, -0.25, 1903, 1, -0.25
*EQUATION
5
3035, 2, 1.0, 1901, 2, -0.25, 1906, 2, -0.25, 198, 2, -0.25, 1903, 2, -0.25
*EQUATION
5
3035, 3, 1.0, 1901, 3, -0.25, 1906, 3, -0.25, 198, 3, -0.25, 1903, 3, -0.25
*EQUATION
5
3037, 1, 1.0, 2567, 1, -0.25, 2572, 1, -0.25, 2574, 1, -0.25, 2569, 1, -0.25
*EQUATION
5
3037, 2, 1.0, 2567, 2, -0.25, 2572, 2, -0.25, 2574, 2, -0.25, 2569, 2, -0.25
*EQUATION
5
3037, 3, 1.0, 2567, 3, -0.25, 2572, 3, -0.25, 2574, 3, -0.25, 2569, 3, -0.25
*EQUATION
3
3038, 1, 1.0, 198, 1, -0.5, 1903, 1, -0.5
*EQUATION
3
3038, 2, 1.0, 198, 2, -0.5, 1903, 2, -0.5
*EQUATION
3
3038, 3, 1.0, 198, 3, -0.5, 1903, 3, -0.5
*EQUATION
3
3040, 1, 1.0, 2569, 1, -0.5, 2574, 1, -0.5
*EQUATION
3
3040, 2, 1.0, 2569, 2, -0.5, 2574, 2, -0.5
*EQUATION
3
3040, 3, 1.0, 2569, 3, -0.5, 2574, 3, -0.5
*EQUATION
3
3041, 1, 1.0, 198, 1, -0.5, 1906, 1, -0.5
*EQUATION
3
3041, 2, 1.0, 198, 2, -0.5, 1906, 2, -0.5
*EQUATION
3
3041, 3, 1.0, 198, 3, -0.5, 1906, 3, -0.5
*EQUATION
3
3043, 1, 1.0, 2572, 1, -0.5, 2574, 1, -0.5
*EQUATION
3
3043, 2, 1.0, 2572, 2, -0.5, 2574, 2, -0.5
*EQUATION
3
3043, 3, 1.0, 2572, 3, -0.5, 2574, 3, -0.5
*EQUATION
5
3065, 1, 1.0, 150, 1, -0.25, 1903, 1, -0.25, 1949, 1, -0.25, 1848, 1, -0.25
*EQUATION
5
3065, 2, 1.0, 150, 2, -0.25, 1903, 2, -0.25, 1949, 2, -0.25, 1848, 2, -0.25
*EQUATION
5
3065, 3, 1.0, 150, 3, -0.25, 1903, 3, -0.25, 1949, 3, -0.25, 1848, 3, -0.25
*EQUATION
5
3067, 1, 1.0, 2500, 1, -0.25, 2569, 1, -0.25, 2575, 1, -0.25, 2552, 1, -0.25
*EQUATION
5
3067, 2, 1.0, 2500, 2, -0.25, 2569, 2, -0.25, 2575, 2, -0.25, 2552, 2, -0.25
*EQUATION
5
3067, 3, 1.0, 2500, 3, -0.25, 2569, 3, -0.25, 2575, 3, -0.25, 2552, 3, -0.25
*EQUATION
3
3068, 1, 1.0, 1848, 1, -0.5, 1949, 1, -0.5
*EQUATION
3
3068, 2, 1.0, 1848, 2, -0.5, 1949, 2, -0.5
*EQUATION
3
3068, 3, 1.0, 1848, 3, -0.5, 1949, 3, -0.5
*EQUATION
3
3070, 1, 1.0, 2552, 1, -0.5, 2575, 1, -0.5
*EQUATION
3
3070, 2, 1.0, 2552, 2, -0.5, 2575, 2, -0.5
*EQUATION
3
3070, 3, 1.0, 2552, 3, -0.5, 2575, 3, -0.5
*EQUATION
3
3071, 1, 1.0, 1903, 1, -0.5, 1949, 1, -0.5
*EQUATION
3
3071, 2, 1.0, 1903, 2, -0.5, 1949, 2, -0.5
*EQUATION
3
3071, 3, 1.0, 1903, 3, -0.5, 1949, 3, -0.5
*EQUATION
3
3073, 1, 1.0, 2569, 1, -0.5, 2575, 1, -0.5
*EQUATION
3
3073, 2, 1.0, 2569, 2, -0.5, 2575, 2, -0.5
*EQUATION
3
3073, 3, 1.0, 2569, 3, -0.5, 2575, 3, -0.5
*EQUATION
5
3075, 1, 1.0, 1848, 1, -0.25, 1949, 1, -0.25, 1951, 1, -0.25, 159, 1, -0.25
*EQUATION
5
3075, 2, 1.0, 1848, 2, -0.25, 1949, 2, -0.25, 1951, 2, -0.25, 159, 2, -0.25
*EQUATION
5
3075, 3, 1.0, 1848, 3, -0.25, 1949, 3, -0.25, 1951, 3, -0.25, 159, 3, -0.25
*EQUATION
5
3077, 1, 1.0, 2552, 1, -0.25, 2575, 1, -0.25, 2577, 1, -0.25, 2554, 1, -0.25
*EQUATION
5
3077, 2, 1.0, 2552, 2, -0.25, 2575, 2, -0.25, 2577, 2, -0.25, 2554, 2, -0.25
*EQUATION
5
3077, 3, 1.0, 2552, 3, -0.25, 2575, 3, -0.25, 2577, 3, -0.25, 2554, 3, -0.25
*EQUATION
3
3078, 1, 1.0, 159, 1, -0.5, 1951, 1, -0.5
*EQUATION
3
3078, 2, 1.0, 159, 2, -0.5, 1951, 2, -0.5
*EQUATION
3
3078, 3, 1.0, 159, 3, -0.5, 1951, 3, -0.5
*EQUATION
3
3080, 1, 1.0, 2554, 1, -0.5, 2577, 1, -0.5
*EQUATION
3
3080, 2, 1.0, 2554, 2, -0.5, 2577, 2, -0.5
*EQUATION
3
3080, 3, 1.0, 2554, 3, -0.5, 2577, 3, -0.5
*EQUATION
3
3081, 1, 1.0, 1949, 1, -0.5, 1951, 1, -0.5
*EQUATION
3
3081, 2, 1.0, 1949, 2, -0.5, 1951, 2, -0.5
*EQUATION
3
3081, 3, 1.0, 1949, 3, -0.5, 1951, 3, -0.5
*EQUATION
3
3083, 1, 1.0, 2575, 1, -0.5, 2577, 1, -0.5
*EQUATION
3
3083, 2, 1.0, 2575, 2, -0.5, 2577, 2, -0.5
*EQUATION
3
3083, 3, 1.0, 2575, 3, -0.5, 2577, 3, -0.5
*EQUATION
5
3085, 1, 1.0, 1903, 1, -0.25, 198, 1, -0.25, 1953, 1, -0.25, 1949, 1, -0.25
*EQUATION
5
3085, 2, 1.0, 1903, 2, -0.25, 198, 2, -0.25, 1953, 2, -0.25, 1949, 2, -0.25
*EQUATION
5
3085, 3, 1.0, 1903, 3, -0.25, 198, 3, -0.25, 1953, 3, -0.25, 1949, 3, -0.25
*EQUATION
5
3087, 1, 1.0, 2569, 1, -0.25, 2574, 1, -0.25, 2579, 1, -0.25, 2575, 1, -0.25
*EQUATION
5
3087, 2, 1.0, 2569, 2, -0.25, 2574, 2, -0.25, 2579, 2, -0.25, 2575, 2, -0.25
*EQUATION
5
3087, 3, 1.0, 2569, 3, -0.25, 2574, 3, -0.25, 2579, 3, -0.25, 2575, 3, -0.25
*EQUATION
3
3088, 1, 1.0, 1949, 1, -0.5, 1953, 1, -0.5
*EQUATION
3
3088, 2, 1.0, 1949, 2, -0.5, 1953, 2, -0.5
*EQUATION
3
3088, 3, 1.0, 1949, 3, -0.5, 1953, 3, -0.5
*EQUATION
3
3090, 1, 1.0, 2575, 1, -0.5, 2579, 1, -0.5
*EQUATION
3
3090, 2, 1.0, 2575, 2, -0.5, 2579, 2, -0.5
*EQUATION
3
3090, 3, 1.0, 2575, 3, -0.5, 2579, 3, -0.5
*EQUATION
3
3091, 1, 1.0, 198, 1, -0.5, 1953, 1, -0.5
*EQUATION
3
3091, 2, 1.0, 198, 2, -0.5, 1953, 2, -0.5
*EQUATION
3
3091, 3, 1.0, 198, 3, -0.5, 1953, 3, -0.5
*EQUATION
3
3093, 1, 1.0, 2574, 1, -0.5, 2579, 1, -0.5
*EQUATION
3
3093, 2, 1.0, 2574, 2, -0.5, 2579, 2, -0.5
*EQUATION
3
3093, 3, 1.0, 2574, 3, -0.5, 2579, 3, -0.5
*EQUATION
5
3095, 1, 1.0, 1949, 1, -0.25, 1953, 1, -0.25, 207, 1, -0.25, 1951, 1, -0.25
*EQUATION
5
3095, 2, 1.0, 1949, 2, -0.25, 1953, 2, -0.25, 207, 2, -0.25, 1951, 2, -0.25
*EQUATION
5
3095, 3, 1.0, 1949, 3, -0.25, 1953, 3, -0.25, 207, 3, -0.25, 1951, 3, -0.25
*EQUATION
5
3097, 1, 1.0, 2575, 1, -0.25, 2579, 1, -0.25, 2581, 1, -0.25, 2577, 1, -0.25
*EQUATION
5
3097, 2, 1.0, 2575, 2, -0.25, 2579, 2, -0.25, 2581, 2, -0.25, 2577, 2, -0.25
*EQUATION
5
3097, 3, 1.0, 2575, 3, -0.25, 2579, 3, -0.25, 2581, 3, -0.25, 2577, 3, -0.25
*EQUATION
3
3098, 1, 1.0, 207, 1, -0.5, 1951, 1, -0.5
*EQUATION
3
3098, 2, 1.0, 207, 2, -0.5, 1951, 2, -0.5
*EQUATION
3
3098, 3, 1.0, 207, 3, -0.5, 1951, 3, -0.5
*EQUATION
3
3100, 1, 1.0, 2577, 1, -0.5, 2581, 1, -0.5
*EQUATION
3
3100, 2, 1.0, 2577, 2, -0.5, 2581, 2, -0.5
*EQUATION
3
3100, 3, 1.0, 2577, 3, -0.5, 2581, 3, -0.5
*EQUATION
3
3101, 1, 1.0, 207, 1, -0.5, 1953, 1, -0.5
*EQUATION
3
3101, 2, 1.0, 207, 2, -0.5, 1953, 2, -0.5
*EQUATION
3
3101, 3, 1.0, 207, 3, -0.5, 1953, 3, -0.5
*EQUATION
3
3103, 1, 1.0, 2579, 1, -0.5, 2581, 1, -0.5
*EQUATION
3
3103, 2, 1.0, 2579, 2, -0.5, 2581, 2, -0.5
*EQUATION
3
3103, 3, 1.0, 2579, 3, -0.5, 2581, 3, -0.5
*EQUATION
3
3131, 1, 1.0, 217, 1, -0.5, 218, 1, -0.5
*EQUATION
3
3131, 2, 1.0, 217, 2, -0.5, 218, 2, -0.5
*EQUATION
3
3131, 3, 1.0, 217, 3, -0.5, 218, 3, -0.5
*EQUATION
3
3132, 1, 1.0, 217, 1, -0.5, 220, 1, -0.5
*EQUATION
3
3132, 2, 1.0, 217, 2, -0.5, 220, 2, -0.5
*EQUATION
3
3132, 3, 1.0, 217, 3, -0.5, 220, 3, -0.5
*EQUATION
5
3133, 1, 1.0, 217, 1, -0.25, 220, 1, -0.25, 221, 1, -0.25, 218, 1, -0.25
*EQUATION
5
3133, 2, 1.0, 217, 2, -0.25, 220, 2, -0.25, 221, 2, -0.25, 218, 2, -0.25
*EQUATION
5
3133, 3, 1.0, 217, 3, -0.25, 220, 3, -0.25, 221, 3, -0.25, 218, 3, -0.25
*EQUATION
3
3134, 1, 1.0, 218, 1, -0.5, 221, 1, -0.5
*EQUATION
3
3134, 2, 1.0, 218, 2, -0.5, 221, 2, -0.5
*EQUATION
3
3134, 3, 1.0, 218, 3, -0.5, 221, 3, -0.5
*EQUATION
3
3135, 1, 1.0, 220, 1, -0.5, 221, 1, -0.5
*EQUATION
3
3135, 2, 1.0, 220, 2, -0.5, 221, 2, -0.5
*EQUATION
3
3135, 3, 1.0, 220, 3, -0.5, 221, 3, -0.5
*EQUATION
3
3175, 1, 1.0, 229, 1, -0.5, 230, 1, -0.5
*EQUATION
3
3175, 2, 1.0, 229, 2, -0.5, 230, 2, -0.5
*EQUATION
3
3175, 3, 1.0, 229, 3, -0.5, 230, 3, -0.5
*EQUATION
3
3176, 1, 1.0, 229, 1, -0.5, 232, 1, -0.5
*EQUATION
3
3176, 2, 1.0, 229, 2, -0.5, 232, 2, -0.5
*EQUATION
3
3176, 3, 1.0, 229, 3, -0.5, 232, 3, -0.5
*EQUATION
5
3177, 1, 1.0, 229, 1, -0.25, 232, 1, -0.25, 233, 1, -0.25, 230, 1, -0.25
*EQUATION
5
3177, 2, 1.0, 229, 2, -0.25, 232, 2, -0.25, 233, 2, -0.25, 230, 2, -0.25
*EQUATION
5
3177, 3, 1.0, 229, 3, -0.25, 232, 3, -0.25, 233, 3, -0.25, 230, 3, -0.25
*EQUATION
3
3178, 1, 1.0, 230, 1, -0.5, 233, 1, -0.5
*EQUATION
3
3178, 2, 1.0, 230, 2, -0.5, 233, 2, -0.5
*EQUATION
3
3178, 3, 1.0, 230, 3, -0.5, 233, 3, -0.5
*EQUATION
3
3179, 1, 1.0, 232, 1, -0.5, 233, 1, -0.5
*EQUATION
3
3179, 2, 1.0, 232, 2, -0.5, 233, 2, -0.5
*EQUATION
3
3179, 3, 1.0, 232, 3, -0.5, 233, 3, -0.5
*EQUATION
3
3180, 1, 1.0, 197, 1, -0.5, 1956, 1, -0.5
*EQUATION
3
3180, 2, 1.0, 197, 2, -0.5, 1956, 2, -0.5
*EQUATION
3
3180, 3, 1.0, 197, 3, -0.5, 1956, 3, -0.5
*EQUATION
3
3182, 1, 1.0, 2571, 1, -0.5, 2582, 1, -0.5
*EQUATION
3
3182, 2, 1.0, 2571, 2, -0.5, 2582, 2, -0.5
*EQUATION
3
3182, 3, 1.0, 2571, 3, -0.5, 2582, 3, -0.5
*EQUATION
5
3183, 1, 1.0, 197, 1, -0.25, 1956, 1, -0.25, 1958, 1, -0.25, 1906, 1, -0.25
*EQUATION
5
3183, 2, 1.0, 197, 2, -0.25, 1956, 2, -0.25, 1958, 2, -0.25, 1906, 2, -0.25
*EQUATION
5
3183, 3, 1.0, 197, 3, -0.25, 1956, 3, -0.25, 1958, 3, -0.25, 1906, 3, -0.25
*EQUATION
5
3185, 1, 1.0, 2571, 1, -0.25, 2582, 1, -0.25, 2584, 1, -0.25, 2572, 1, -0.25
*EQUATION
5
3185, 2, 1.0, 2571, 2, -0.25, 2582, 2, -0.25, 2584, 2, -0.25, 2572, 2, -0.25
*EQUATION
5
3185, 3, 1.0, 2571, 3, -0.25, 2582, 3, -0.25, 2584, 3, -0.25, 2572, 3, -0.25
*EQUATION
3
3186, 1, 1.0, 1906, 1, -0.5, 1958, 1, -0.5
*EQUATION
3
3186, 2, 1.0, 1906, 2, -0.5, 1958, 2, -0.5
*EQUATION
3
3186, 3, 1.0, 1906, 3, -0.5, 1958, 3, -0.5
*EQUATION
3
3188, 1, 1.0, 2572, 1, -0.5, 2584, 1, -0.5
*EQUATION
3
3188, 2, 1.0, 2572, 2, -0.5, 2584, 2, -0.5
*EQUATION
3
3188, 3, 1.0, 2572, 3, -0.5, 2584, 3, -0.5
*EQUATION
3
3190, 1, 1.0, 1956, 1, -0.5, 1958, 1, -0.5
*EQUATION
3
3190, 2, 1.0, 1956, 2, -0.5, 1958, 2, -0.5
*EQUATION
3
3190, 3, 1.0, 1956, 3, -0.5, 1958, 3, -0.5
*EQUATION
3
3192, 1, 1.0, 2582, 1, -0.5, 2584, 1, -0.5
*EQUATION
3
3192, 2, 1.0, 2582, 2, -0.5, 2584, 2, -0.5
*EQUATION
3
3192, 3, 1.0, 2582, 3, -0.5, 2584, 3, -0.5
*EQUATION
5
3194, 1, 1.0, 1906, 1, -0.25, 1958, 1, -0.25, 1960, 1, -0.25, 198, 1, -0.25
*EQUATION
5
3194, 2, 1.0, 1906, 2, -0.25, 1958, 2, -0.25, 1960, 2, -0.25, 198, 2, -0.25
*EQUATION
5
3194, 3, 1.0, 1906, 3, -0.25, 1958, 3, -0.25, 1960, 3, -0.25, 198, 3, -0.25
*EQUATION
5
3196, 1, 1.0, 2572, 1, -0.25, 2584, 1, -0.25, 2586, 1, -0.25, 2574, 1, -0.25
*EQUATION
5
3196, 2, 1.0, 2572, 2, -0.25, 2584, 2, -0.25, 2586, 2, -0.25, 2574, 2, -0.25
*EQUATION
5
3196, 3, 1.0, 2572, 3, -0.25, 2584, 3, -0.25, 2586, 3, -0.25, 2574, 3, -0.25
*EQUATION
3
3197, 1, 1.0, 198, 1, -0.5, 1960, 1, -0.5
*EQUATION
3
3197, 2, 1.0, 198, 2, -0.5, 1960, 2, -0.5
*EQUATION
3
3197, 3, 1.0, 198, 3, -0.5, 1960, 3, -0.5
*EQUATION
3
3199, 1, 1.0, 2574, 1, -0.5, 2586, 1, -0.5
*EQUATION
3
3199, 2, 1.0, 2574, 2, -0.5, 2586, 2, -0.5
*EQUATION
3
3199, 3, 1.0, 2574, 3, -0.5, 2586, 3, -0.5
*EQUATION
3
3200, 1, 1.0, 1958, 1, -0.5, 1960, 1, -0.5
*EQUATION
3
3200, 2, 1.0, 1958, 2, -0.5, 1960, 2, -0.5
*EQUATION
3
3200, 3, 1.0, 1958, 3, -0.5, 1960, 3, -0.5
*EQUATION
3
3202, 1, 1.0, 2584, 1, -0.5, 2586, 1, -0.5
*EQUATION
3
3202, 2, 1.0, 2584, 2, -0.5, 2586, 2, -0.5
*EQUATION
3
3202, 3, 1.0, 2584, 3, -0.5, 2586, 3, -0.5
*EQUATION
3
3204, 1, 1.0, 245, 1, -0.5, 1956, 1, -0.5
*EQUATION
3
3204, 2, 1.0, 245, 2, -0.5, 1956, 2, -0.5
*EQUATION
3
3204, 3, 1.0, 245, 3, -0.5, 1956, 3, -0.5
*EQUATION
3
3206, 1, 1.0, 2582, 1, -0.5, 2588, 1, -0.5
*EQUATION
3
3206, 2, 1.0, 2582, 2, -0.5, 2588, 2, -0.5
*EQUATION
3
3206, 3, 1.0, 2582, 3, -0.5, 2588, 3, -0.5
*EQUATION
5
3207, 1, 1.0, 1956, 1, -0.25, 245, 1, -0.25, 1963, 1, -0.25, 1958, 1, -0.25
*EQUATION
5
3207, 2, 1.0, 1956, 2, -0.25, 245, 2, -0.25, 1963, 2, -0.25, 1958, 2, -0.25
*EQUATION
5
3207, 3, 1.0, 1956, 3, -0.25, 245, 3, -0.25, 1963, 3, -0.25, 1958, 3, -0.25
*EQUATION
5
3209, 1, 1.0, 2582, 1, -0.25, 2588, 1, -0.25, 2589, 1, -0.25, 2584, 1, -0.25
*EQUATION
5
3209, 2, 1.0, 2582, 2, -0.25, 2588, 2, -0.25, 2589, 2, -0.25, 2584, 2, -0.25
*EQUATION
5
3209, 3, 1.0, 2582, 3, -0.25, 2588, 3, -0.25, 2589, 3, -0.25, 2584, 3, -0.25
*EQUATION
3
3210, 1, 1.0, 1958, 1, -0.5, 1963, 1, -0.5
*EQUATION
3
3210, 2, 1.0, 1958, 2, -0.5, 1963, 2, -0.5
*EQUATION
3
3210, 3, 1.0, 1958, 3, -0.5, 1963, 3, -0.5
*EQUATION
3
3212, 1, 1.0, 2584, 1, -0.5, 2589, 1, -0.5
*EQUATION
3
3212, 2, 1.0, 2584, 2, -0.5, 2589, 2, -0.5
*EQUATION
3
3212, 3, 1.0, 2584, 3, -0.5, 2589, 3, -0.5
*EQUATION
3
3214, 1, 1.0, 245, 1, -0.5, 1963, 1, -0.5
*EQUATION
3
3214, 2, 1.0, 245, 2, -0.5, 1963, 2, -0.5
*EQUATION
3
3214, 3, 1.0, 245, 3, -0.5, 1963, 3, -0.5
*EQUATION
3
3216, 1, 1.0, 2588, 1, -0.5, 2589, 1, -0.5
*EQUATION
3
3216, 2, 1.0, 2588, 2, -0.5, 2589, 2, -0.5
*EQUATION
3
3216, 3, 1.0, 2588, 3, -0.5, 2589, 3, -0.5
*EQUATION
5
3218, 1, 1.0, 1958, 1, -0.25, 1963, 1, -0.25, 246, 1, -0.25, 1960, 1, -0.25
*EQUATION
5
3218, 2, 1.0, 1958, 2, -0.25, 1963, 2, -0.25, 246, 2, -0.25, 1960, 2, -0.25
*EQUATION
5
3218, 3, 1.0, 1958, 3, -0.25, 1963, 3, -0.25, 246, 3, -0.25, 1960, 3, -0.25
*EQUATION
5
3220, 1, 1.0, 2584, 1, -0.25, 2589, 1, -0.25, 2591, 1, -0.25, 2586, 1, -0.25
*EQUATION
5
3220, 2, 1.0, 2584, 2, -0.25, 2589, 2, -0.25, 2591, 2, -0.25, 2586, 2, -0.25
*EQUATION
5
3220, 3, 1.0, 2584, 3, -0.25, 2589, 3, -0.25, 2591, 3, -0.25, 2586, 3, -0.25
*EQUATION
3
3221, 1, 1.0, 246, 1, -0.5, 1960, 1, -0.5
*EQUATION
3
3221, 2, 1.0, 246, 2, -0.5, 1960, 2, -0.5
*EQUATION
3
3221, 3, 1.0, 246, 3, -0.5, 1960, 3, -0.5
*EQUATION
3
3223, 1, 1.0, 2586, 1, -0.5, 2591, 1, -0.5
*EQUATION
3
3223, 2, 1.0, 2586, 2, -0.5, 2591, 2, -0.5
*EQUATION
3
3223, 3, 1.0, 2586, 3, -0.5, 2591, 3, -0.5
*EQUATION
3
3224, 1, 1.0, 246, 1, -0.5, 1963, 1, -0.5
*EQUATION
3
3224, 2, 1.0, 246, 2, -0.5, 1963, 2, -0.5
*EQUATION
3
3224, 3, 1.0, 246, 3, -0.5, 1963, 3, -0.5
*EQUATION
3
3226, 1, 1.0, 2589, 1, -0.5, 2591, 1, -0.5
*EQUATION
3
3226, 2, 1.0, 2589, 2, -0.5, 2591, 2, -0.5
*EQUATION
3
3226, 3, 1.0, 2589, 3, -0.5, 2591, 3, -0.5
*EQUATION
5
3248, 1, 1.0, 198, 1, -0.25, 1960, 1, -0.25, 1966, 1, -0.25, 1953, 1, -0.25
*EQUATION
5
3248, 2, 1.0, 198, 2, -0.25, 1960, 2, -0.25, 1966, 2, -0.25, 1953, 2, -0.25
*EQUATION
5
3248, 3, 1.0, 198, 3, -0.25, 1960, 3, -0.25, 1966, 3, -0.25, 1953, 3, -0.25
*EQUATION
5
3250, 1, 1.0, 2574, 1, -0.25, 2586, 1, -0.25, 2592, 1, -0.25, 2579, 1, -0.25
*EQUATION
5
3250, 2, 1.0, 2574, 2, -0.25, 2586, 2, -0.25, 2592, 2, -0.25, 2579, 2, -0.25
*EQUATION
5
3250, 3, 1.0, 2574, 3, -0.25, 2586, 3, -0.25, 2592, 3, -0.25, 2579, 3, -0.25
*EQUATION
3
3251, 1, 1.0, 1953, 1, -0.5, 1966, 1, -0.5
*EQUATION
3
3251, 2, 1.0, 1953, 2, -0.5, 1966, 2, -0.5
*EQUATION
3
3251, 3, 1.0, 1953, 3, -0.5, 1966, 3, -0.5
*EQUATION
3
3253, 1, 1.0, 2579, 1, -0.5, 2592, 1, -0.5
*EQUATION
3
3253, 2, 1.0, 2579, 2, -0.5, 2592, 2, -0.5
*EQUATION
3
3253, 3, 1.0, 2579, 3, -0.5, 2592, 3, -0.5
*EQUATION
3
3254, 1, 1.0, 1960, 1, -0.5, 1966, 1, -0.5
*EQUATION
3
3254, 2, 1.0, 1960, 2, -0.5, 1966, 2, -0.5
*EQUATION
3
3254, 3, 1.0, 1960, 3, -0.5, 1966, 3, -0.5
*EQUATION
3
3256, 1, 1.0, 2586, 1, -0.5, 2592, 1, -0.5
*EQUATION
3
3256, 2, 1.0, 2586, 2, -0.5, 2592, 2, -0.5
*EQUATION
3
3256, 3, 1.0, 2586, 3, -0.5, 2592, 3, -0.5
*EQUATION
5
3258, 1, 1.0, 1953, 1, -0.25, 1966, 1, -0.25, 1968, 1, -0.25, 207, 1, -0.25
*EQUATION
5
3258, 2, 1.0, 1953, 2, -0.25, 1966, 2, -0.25, 1968, 2, -0.25, 207, 2, -0.25
*EQUATION
5
3258, 3, 1.0, 1953, 3, -0.25, 1966, 3, -0.25, 1968, 3, -0.25, 207, 3, -0.25
*EQUATION
5
3260, 1, 1.0, 2579, 1, -0.25, 2592, 1, -0.25, 2594, 1, -0.25, 2581, 1, -0.25
*EQUATION
5
3260, 2, 1.0, 2579, 2, -0.25, 2592, 2, -0.25, 2594, 2, -0.25, 2581, 2, -0.25
*EQUATION
5
3260, 3, 1.0, 2579, 3, -0.25, 2592, 3, -0.25, 2594, 3, -0.25, 2581, 3, -0.25
*EQUATION
3
3261, 1, 1.0, 207, 1, -0.5, 1968, 1, -0.5
*EQUATION
3
3261, 2, 1.0, 207, 2, -0.5, 1968, 2, -0.5
*EQUATION
3
3261, 3, 1.0, 207, 3, -0.5, 1968, 3, -0.5
*EQUATION
3
3263, 1, 1.0, 2581, 1, -0.5, 2594, 1, -0.5
*EQUATION
3
3263, 2, 1.0, 2581, 2, -0.5, 2594, 2, -0.5
*EQUATION
3
3263, 3, 1.0, 2581, 3, -0.5, 2594, 3, -0.5
*EQUATION
3
3264, 1, 1.0, 1966, 1, -0.5, 1968, 1, -0.5
*EQUATION
3
3264, 2, 1.0, 1966, 2, -0.5, 1968, 2, -0.5
*EQUATION
3
3264, 3, 1.0, 1966, 3, -0.5, 1968, 3, -0.5
*EQUATION
3
3266, 1, 1.0, 2592, 1, -0.5, 2594, 1, -0.5
*EQUATION
3
3266, 2, 1.0, 2592, 2, -0.5, 2594, 2, -0.5
*EQUATION
3
3266, 3, 1.0, 2592, 3, -0.5, 2594, 3, -0.5
*EQUATION
5
3268, 1, 1.0, 1960, 1, -0.25, 246, 1, -0.25, 1970, 1, -0.25, 1966, 1, -0.25
*EQUATION
5
3268, 2, 1.0, 1960, 2, -0.25, 246, 2, -0.25, 1970, 2, -0.25, 1966, 2, -0.25
*EQUATION
5
3268, 3, 1.0, 1960, 3, -0.25, 246, 3, -0.25, 1970, 3, -0.25, 1966, 3, -0.25
*EQUATION
5
3270, 1, 1.0, 2586, 1, -0.25, 2591, 1, -0.25, 2596, 1, -0.25, 2592, 1, -0.25
*EQUATION
5
3270, 2, 1.0, 2586, 2, -0.25, 2591, 2, -0.25, 2596, 2, -0.25, 2592, 2, -0.25
*EQUATION
5
3270, 3, 1.0, 2586, 3, -0.25, 2591, 3, -0.25, 2596, 3, -0.25, 2592, 3, -0.25
*EQUATION
3
3271, 1, 1.0, 1966, 1, -0.5, 1970, 1, -0.5
*EQUATION
3
3271, 2, 1.0, 1966, 2, -0.5, 1970, 2, -0.5
*EQUATION
3
3271, 3, 1.0, 1966, 3, -0.5, 1970, 3, -0.5
*EQUATION
3
3273, 1, 1.0, 2592, 1, -0.5, 2596, 1, -0.5
*EQUATION
3
3273, 2, 1.0, 2592, 2, -0.5, 2596, 2, -0.5
*EQUATION
3
3273, 3, 1.0, 2592, 3, -0.5, 2596, 3, -0.5
*EQUATION
3
3274, 1, 1.0, 246, 1, -0.5, 1970, 1, -0.5
*EQUATION
3
3274, 2, 1.0, 246, 2, -0.5, 1970, 2, -0.5
*EQUATION
3
3274, 3, 1.0, 246, 3, -0.5, 1970, 3, -0.5
*EQUATION
3
3276, 1, 1.0, 2591, 1, -0.5, 2596, 1, -0.5
*EQUATION
3
3276, 2, 1.0, 2591, 2, -0.5, 2596, 2, -0.5
*EQUATION
3
3276, 3, 1.0, 2591, 3, -0.5, 2596, 3, -0.5
*EQUATION
5
3278, 1, 1.0, 1966, 1, -0.25, 1970, 1, -0.25, 255, 1, -0.25, 1968, 1, -0.25
*EQUATION
5
3278, 2, 1.0, 1966, 2, -0.25, 1970, 2, -0.25, 255, 2, -0.25, 1968, 2, -0.25
*EQUATION
5
3278, 3, 1.0, 1966, 3, -0.25, 1970, 3, -0.25, 255, 3, -0.25, 1968, 3, -0.25
*EQUATION
5
3280, 1, 1.0, 2592, 1, -0.25, 2596, 1, -0.25, 2598, 1, -0.25, 2594, 1, -0.25
*EQUATION
5
3280, 2, 1.0, 2592, 2, -0.25, 2596, 2, -0.25, 2598, 2, -0.25, 2594, 2, -0.25
*EQUATION
5
3280, 3, 1.0, 2592, 3, -0.25, 2596, 3, -0.25, 2598, 3, -0.25, 2594, 3, -0.25
*EQUATION
3
3281, 1, 1.0, 255, 1, -0.5, 1968, 1, -0.5
*EQUATION
3
3281, 2, 1.0, 255, 2, -0.5, 1968, 2, -0.5
*EQUATION
3
3281, 3, 1.0, 255, 3, -0.5, 1968, 3, -0.5
*EQUATION
3
3283, 1, 1.0, 2594, 1, -0.5, 2598, 1, -0.5
*EQUATION
3
3283, 2, 1.0, 2594, 2, -0.5, 2598, 2, -0.5
*EQUATION
3
3283, 3, 1.0, 2594, 3, -0.5, 2598, 3, -0.5
*EQUATION
3
3284, 1, 1.0, 255, 1, -0.5, 1970, 1, -0.5
*EQUATION
3
3284, 2, 1.0, 255, 2, -0.5, 1970, 2, -0.5
*EQUATION
3
3284, 3, 1.0, 255, 3, -0.5, 1970, 3, -0.5
*EQUATION
3
3286, 1, 1.0, 2596, 1, -0.5, 2598, 1, -0.5
*EQUATION
3
3286, 2, 1.0, 2596, 2, -0.5, 2598, 2, -0.5
*EQUATION
3
3286, 3, 1.0, 2596, 3, -0.5, 2598, 3, -0.5
*EQUATION
3
3302, 1, 1.0, 245, 1, -0.5, 1973, 1, -0.5
*EQUATION
3
3302, 2, 1.0, 245, 2, -0.5, 1973, 2, -0.5
*EQUATION
3
3302, 3, 1.0, 245, 3, -0.5, 1973, 3, -0.5
*EQUATION
3
3304, 1, 1.0, 2588, 1, -0.5, 2599, 1, -0.5
*EQUATION
3
3304, 2, 1.0, 2588, 2, -0.5, 2599, 2, -0.5
*EQUATION
3
3304, 3, 1.0, 2588, 3, -0.5, 2599, 3, -0.5
*EQUATION
5
3305, 1, 1.0, 245, 1, -0.25, 1973, 1, -0.25, 1975, 1, -0.25, 1963, 1, -0.25
*EQUATION
5
3305, 2, 1.0, 245, 2, -0.25, 1973, 2, -0.25, 1975, 2, -0.25, 1963, 2, -0.25
*EQUATION
5
3305, 3, 1.0, 245, 3, -0.25, 1973, 3, -0.25, 1975, 3, -0.25, 1963, 3, -0.25
*EQUATION
5
3307, 1, 1.0, 2588, 1, -0.25, 2599, 1, -0.25, 2601, 1, -0.25, 2589, 1, -0.25
*EQUATION
5
3307, 2, 1.0, 2588, 2, -0.25, 2599, 2, -0.25, 2601, 2, -0.25, 2589, 2, -0.25
*EQUATION
5
3307, 3, 1.0, 2588, 3, -0.25, 2599, 3, -0.25, 2601, 3, -0.25, 2589, 3, -0.25
*EQUATION
3
3308, 1, 1.0, 1963, 1, -0.5, 1975, 1, -0.5
*EQUATION
3
3308, 2, 1.0, 1963, 2, -0.5, 1975, 2, -0.5
*EQUATION
3
3308, 3, 1.0, 1963, 3, -0.5, 1975, 3, -0.5
*EQUATION
3
3310, 1, 1.0, 2589, 1, -0.5, 2601, 1, -0.5
*EQUATION
3
3310, 2, 1.0, 2589, 2, -0.5, 2601, 2, -0.5
*EQUATION
3
3310, 3, 1.0, 2589, 3, -0.5, 2601, 3, -0.5
*EQUATION
3
3312, 1, 1.0, 1973, 1, -0.5, 1975, 1, -0.5
*EQUATION
3
3312, 2, 1.0, 1973, 2, -0.5, 1975, 2, -0.5
*EQUATION
3
3312, 3, 1.0, 1973, 3, -0.5, 1975, 3, -0.5
*EQUATION
3
3314, 1, 1.0, 2599, 1, -0.5, 2601, 1, -0.5
*EQUATION
3
3314, 2, 1.0, 2599, 2, -0.5, 2601, 2, -0.5
*EQUATION
3
3314, 3, 1.0, 2599, 3, -0.5, 2601, 3, -0.5
*EQUATION
5
3316, 1, 1.0, 1963, 1, -0.25, 1975, 1, -0.25, 1977, 1, -0.25, 246, 1, -0.25
*EQUATION
5
3316, 2, 1.0, 1963, 2, -0.25, 1975, 2, -0.25, 1977, 2, -0.25, 246, 2, -0.25
*EQUATION
5
3316, 3, 1.0, 1963, 3, -0.25, 1975, 3, -0.25, 1977, 3, -0.25, 246, 3, -0.25
*EQUATION
5
3318, 1, 1.0, 2589, 1, -0.25, 2601, 1, -0.25, 2603, 1, -0.25, 2591, 1, -0.25
*EQUATION
5
3318, 2, 1.0, 2589, 2, -0.25, 2601, 2, -0.25, 2603, 2, -0.25, 2591, 2, -0.25
*EQUATION
5
3318, 3, 1.0, 2589, 3, -0.25, 2601, 3, -0.25, 2603, 3, -0.25, 2591, 3, -0.25
*EQUATION
3
3319, 1, 1.0, 246, 1, -0.5, 1977, 1, -0.5
*EQUATION
3
3319, 2, 1.0, 246, 2, -0.5, 1977, 2, -0.5
*EQUATION
3
3319, 3, 1.0, 246, 3, -0.5, 1977, 3, -0.5
*EQUATION
3
3321, 1, 1.0, 2591, 1, -0.5, 2603, 1, -0.5
*EQUATION
3
3321, 2, 1.0, 2591, 2, -0.5, 2603, 2, -0.5
*EQUATION
3
3321, 3, 1.0, 2591, 3, -0.5, 2603, 3, -0.5
*EQUATION
3
3322, 1, 1.0, 1975, 1, -0.5, 1977, 1, -0.5
*EQUATION
3
3322, 2, 1.0, 1975, 2, -0.5, 1977, 2, -0.5
*EQUATION
3
3322, 3, 1.0, 1975, 3, -0.5, 1977, 3, -0.5
*EQUATION
3
3324, 1, 1.0, 2601, 1, -0.5, 2603, 1, -0.5
*EQUATION
3
3324, 2, 1.0, 2601, 2, -0.5, 2603, 2, -0.5
*EQUATION
3
3324, 3, 1.0, 2601, 3, -0.5, 2603, 3, -0.5
*EQUATION
3
3326, 1, 1.0, 293, 1, -0.5, 1973, 1, -0.5
*EQUATION
3
3326, 2, 1.0, 293, 2, -0.5, 1973, 2, -0.5
*EQUATION
3
3326, 3, 1.0, 293, 3, -0.5, 1973, 3, -0.5
*EQUATION
3
3328, 1, 1.0, 2599, 1, -0.5, 2605, 1, -0.5
*EQUATION
3
3328, 2, 1.0, 2599, 2, -0.5, 2605, 2, -0.5
*EQUATION
3
3328, 3, 1.0, 2599, 3, -0.5, 2605, 3, -0.5
*EQUATION
5
3329, 1, 1.0, 1973, 1, -0.25, 293, 1, -0.25, 1980, 1, -0.25, 1975, 1, -0.25
*EQUATION
5
3329, 2, 1.0, 1973, 2, -0.25, 293, 2, -0.25, 1980, 2, -0.25, 1975, 2, -0.25
*EQUATION
5
3329, 3, 1.0, 1973, 3, -0.25, 293, 3, -0.25, 1980, 3, -0.25, 1975, 3, -0.25
*EQUATION
5
3331, 1, 1.0, 2599, 1, -0.25, 2605, 1, -0.25, 2606, 1, -0.25, 2601, 1, -0.25
*EQUATION
5
3331, 2, 1.0, 2599, 2, -0.25, 2605, 2, -0.25, 2606, 2, -0.25, 2601, 2, -0.25
*EQUATION
5
3331, 3, 1.0, 2599, 3, -0.25, 2605, 3, -0.25, 2606, 3, -0.25, 2601, 3, -0.25
*EQUATION
3
3332, 1, 1.0, 1975, 1, -0.5, 1980, 1, -0.5
*EQUATION
3
3332, 2, 1.0, 1975, 2, -0.5, 1980, 2, -0.5
*EQUATION
3
3332, 3, 1.0, 1975, 3, -0.5, 1980, 3, -0.5
*EQUATION
3
3334, 1, 1.0, 2601, 1, -0.5, 2606, 1, -0.5
*EQUATION
3
3334, 2, 1.0, 2601, 2, -0.5, 2606, 2, -0.5
*EQUATION
3
3334, 3, 1.0, 2601, 3, -0.5, 2606, 3, -0.5
*EQUATION
3
3336, 1, 1.0, 293, 1, -0.5, 1980, 1, -0.5
*EQUATION
3
3336, 2, 1.0, 293, 2, -0.5, 1980, 2, -0.5
*EQUATION
3
3336, 3, 1.0, 293, 3, -0.5, 1980, 3, -0.5
*EQUATION
3
3338, 1, 1.0, 2605, 1, -0.5, 2606, 1, -0.5
*EQUATION
3
3338, 2, 1.0, 2605, 2, -0.5, 2606, 2, -0.5
*EQUATION
3
3338, 3, 1.0, 2605, 3, -0.5, 2606, 3, -0.5
*EQUATION
5
3340, 1, 1.0, 1975, 1, -0.25, 1980, 1, -0.25, 294, 1, -0.25, 1977, 1, -0.25
*EQUATION
5
3340, 2, 1.0, 1975, 2, -0.25, 1980, 2, -0.25, 294, 2, -0.25, 1977, 2, -0.25
*EQUATION
5
3340, 3, 1.0, 1975, 3, -0.25, 1980, 3, -0.25, 294, 3, -0.25, 1977, 3, -0.25
*EQUATION
5
3342, 1, 1.0, 2601, 1, -0.25, 2606, 1, -0.25, 2608, 1, -0.25, 2603, 1, -0.25
*EQUATION
5
3342, 2, 1.0, 2601, 2, -0.25, 2606, 2, -0.25, 2608, 2, -0.25, 2603, 2, -0.25
*EQUATION
5
3342, 3, 1.0, 2601, 3, -0.25, 2606, 3, -0.25, 2608, 3, -0.25, 2603, 3, -0.25
*EQUATION
3
3343, 1, 1.0, 294, 1, -0.5, 1977, 1, -0.5
*EQUATION
3
3343, 2, 1.0, 294, 2, -0.5, 1977, 2, -0.5
*EQUATION
3
3343, 3, 1.0, 294, 3, -0.5, 1977, 3, -0.5
*EQUATION
3
3345, 1, 1.0, 2603, 1, -0.5, 2608, 1, -0.5
*EQUATION
3
3345, 2, 1.0, 2603, 2, -0.5, 2608, 2, -0.5
*EQUATION
3
3345, 3, 1.0, 2603, 3, -0.5, 2608, 3, -0.5
*EQUATION
3
3346, 1, 1.0, 294, 1, -0.5, 1980, 1, -0.5
*EQUATION
3
3346, 2, 1.0, 294, 2, -0.5, 1980, 2, -0.5
*EQUATION
3
3346, 3, 1.0, 294, 3, -0.5, 1980, 3, -0.5
*EQUATION
3
3348, 1, 1.0, 2606, 1, -0.5, 2608, 1, -0.5
*EQUATION
3
3348, 2, 1.0, 2606, 2, -0.5, 2608, 2, -0.5
*EQUATION
3
3348, 3, 1.0, 2606, 3, -0.5, 2608, 3, -0.5
*EQUATION
5
3370, 1, 1.0, 246, 1, -0.25, 1977, 1, -0.25, 1983, 1, -0.25, 1970, 1, -0.25
*EQUATION
5
3370, 2, 1.0, 246, 2, -0.25, 1977, 2, -0.25, 1983, 2, -0.25, 1970, 2, -0.25
*EQUATION
5
3370, 3, 1.0, 246, 3, -0.25, 1977, 3, -0.25, 1983, 3, -0.25, 1970, 3, -0.25
*EQUATION
5
3372, 1, 1.0, 2591, 1, -0.25, 2603, 1, -0.25, 2609, 1, -0.25, 2596, 1, -0.25
*EQUATION
5
3372, 2, 1.0, 2591, 2, -0.25, 2603, 2, -0.25, 2609, 2, -0.25, 2596, 2, -0.25
*EQUATION
5
3372, 3, 1.0, 2591, 3, -0.25, 2603, 3, -0.25, 2609, 3, -0.25, 2596, 3, -0.25
*EQUATION
3
3373, 1, 1.0, 1970, 1, -0.5, 1983, 1, -0.5
*EQUATION
3
3373, 2, 1.0, 1970, 2, -0.5, 1983, 2, -0.5
*EQUATION
3
3373, 3, 1.0, 1970, 3, -0.5, 1983, 3, -0.5
*EQUATION
3
3375, 1, 1.0, 2596, 1, -0.5, 2609, 1, -0.5
*EQUATION
3
3375, 2, 1.0, 2596, 2, -0.5, 2609, 2, -0.5
*EQUATION
3
3375, 3, 1.0, 2596, 3, -0.5, 2609, 3, -0.5
*EQUATION
3
3376, 1, 1.0, 1977, 1, -0.5, 1983, 1, -0.5
*EQUATION
3
3376, 2, 1.0, 1977, 2, -0.5, 1983, 2, -0.5
*EQUATION
3
3376, 3, 1.0, 1977, 3, -0.5, 1983, 3, -0.5
*EQUATION
3
3378, 1, 1.0, 2603, 1, -0.5, 2609, 1, -0.5
*EQUATION
3
3378, 2, 1.0, 2603, 2, -0.5, 2609, 2, -0.5
*EQUATION
3
3378, 3, 1.0, 2603, 3, -0.5, 2609, 3, -0.5
*EQUATION
5
3380, 1, 1.0, 1970, 1, -0.25, 1983, 1, -0.25, 1985, 1, -0.25, 255, 1, -0.25
*EQUATION
5
3380, 2, 1.0, 1970, 2, -0.25, 1983, 2, -0.25, 1985, 2, -0.25, 255, 2, -0.25
*EQUATION
5
3380, 3, 1.0, 1970, 3, -0.25, 1983, 3, -0.25, 1985, 3, -0.25, 255, 3, -0.25
*EQUATION
5
3382, 1, 1.0, 2596, 1, -0.25, 2609, 1, -0.25, 2611, 1, -0.25, 2598, 1, -0.25
*EQUATION
5
3382, 2, 1.0, 2596, 2, -0.25, 2609, 2, -0.25, 2611, 2, -0.25, 2598, 2, -0.25
*EQUATION
5
3382, 3, 1.0, 2596, 3, -0.25, 2609, 3, -0.25, 2611, 3, -0.25, 2598, 3, -0.25
*EQUATION
3
3383, 1, 1.0, 255, 1, -0.5, 1985, 1, -0.5
*EQUATION
3
3383, 2, 1.0, 255, 2, -0.5, 1985, 2, -0.5
*EQUATION
3
3383, 3, 1.0, 255, 3, -0.5, 1985, 3, -0.5
*EQUATION
3
3385, 1, 1.0, 2598, 1, -0.5, 2611, 1, -0.5
*EQUATION
3
3385, 2, 1.0, 2598, 2, -0.5, 2611, 2, -0.5
*EQUATION
3
3385, 3, 1.0, 2598, 3, -0.5, 2611, 3, -0.5
*EQUATION
3
3386, 1, 1.0, 1983, 1, -0.5, 1985, 1, -0.5
*EQUATION
3
3386, 2, 1.0, 1983, 2, -0.5, 1985, 2, -0.5
*EQUATION
3
3386, 3, 1.0, 1983, 3, -0.5, 1985, 3, -0.5
*EQUATION
3
3388, 1, 1.0, 2609, 1, -0.5, 2611, 1, -0.5
*EQUATION
3
3388, 2, 1.0, 2609, 2, -0.5, 2611, 2, -0.5
*EQUATION
3
3388, 3, 1.0, 2609, 3, -0.5, 2611, 3, -0.5
*EQUATION
5
3390, 1, 1.0, 1977, 1, -0.25, 294, 1, -0.25, 1987, 1, -0.25, 1983, 1, -0.25
*EQUATION
5
3390, 2, 1.0, 1977, 2, -0.25, 294, 2, -0.25, 1987, 2, -0.25, 1983, 2, -0.25
*EQUATION
5
3390, 3, 1.0, 1977, 3, -0.25, 294, 3, -0.25, 1987, 3, -0.25, 1983, 3, -0.25
*EQUATION
5
3392, 1, 1.0, 2603, 1, -0.25, 2608, 1, -0.25, 2613, 1, -0.25, 2609, 1, -0.25
*EQUATION
5
3392, 2, 1.0, 2603, 2, -0.25, 2608, 2, -0.25, 2613, 2, -0.25, 2609, 2, -0.25
*EQUATION
5
3392, 3, 1.0, 2603, 3, -0.25, 2608, 3, -0.25, 2613, 3, -0.25, 2609, 3, -0.25
*EQUATION
3
3393, 1, 1.0, 1983, 1, -0.5, 1987, 1, -0.5
*EQUATION
3
3393, 2, 1.0, 1983, 2, -0.5, 1987, 2, -0.5
*EQUATION
3
3393, 3, 1.0, 1983, 3, -0.5, 1987, 3, -0.5
*EQUATION
3
3395, 1, 1.0, 2609, 1, -0.5, 2613, 1, -0.5
*EQUATION
3
3395, 2, 1.0, 2609, 2, -0.5, 2613, 2, -0.5
*EQUATION
3
3395, 3, 1.0, 2609, 3, -0.5, 2613, 3, -0.5
*EQUATION
3
3396, 1, 1.0, 294, 1, -0.5, 1987, 1, -0.5
*EQUATION
3
3396, 2, 1.0, 294, 2, -0.5, 1987, 2, -0.5
*EQUATION
3
3396, 3, 1.0, 294, 3, -0.5, 1987, 3, -0.5
*EQUATION
3
3398, 1, 1.0, 2608, 1, -0.5, 2613, 1, -0.5
*EQUATION
3
3398, 2, 1.0, 2608, 2, -0.5, 2613, 2, -0.5
*EQUATION
3
3398, 3, 1.0, 2608, 3, -0.5, 2613, 3, -0.5
*EQUATION
5
3400, 1, 1.0, 1983, 1, -0.25, 1987, 1, -0.25, 303, 1, -0.25, 1985, 1, -0.25
*EQUATION
5
3400, 2, 1.0, 1983, 2, -0.25, 1987, 2, -0.25, 303, 2, -0.25, 1985, 2, -0.25
*EQUATION
5
3400, 3, 1.0, 1983, 3, -0.25, 1987, 3, -0.25, 303, 3, -0.25, 1985, 3, -0.25
*EQUATION
5
3402, 1, 1.0, 2609, 1, -0.25, 2613, 1, -0.25, 2615, 1, -0.25, 2611, 1, -0.25
*EQUATION
5
3402, 2, 1.0, 2609, 2, -0.25, 2613, 2, -0.25, 2615, 2, -0.25, 2611, 2, -0.25
*EQUATION
5
3402, 3, 1.0, 2609, 3, -0.25, 2613, 3, -0.25, 2615, 3, -0.25, 2611, 3, -0.25
*EQUATION
3
3403, 1, 1.0, 303, 1, -0.5, 1985, 1, -0.5
*EQUATION
3
3403, 2, 1.0, 303, 2, -0.5, 1985, 2, -0.5
*EQUATION
3
3403, 3, 1.0, 303, 3, -0.5, 1985, 3, -0.5
*EQUATION
3
3405, 1, 1.0, 2611, 1, -0.5, 2615, 1, -0.5
*EQUATION
3
3405, 2, 1.0, 2611, 2, -0.5, 2615, 2, -0.5
*EQUATION
3
3405, 3, 1.0, 2611, 3, -0.5, 2615, 3, -0.5
*EQUATION
3
3406, 1, 1.0, 303, 1, -0.5, 1987, 1, -0.5
*EQUATION
3
3406, 2, 1.0, 303, 2, -0.5, 1987, 2, -0.5
*EQUATION
3
3406, 3, 1.0, 303, 3, -0.5, 1987, 3, -0.5
*EQUATION
3
3408, 1, 1.0, 2613, 1, -0.5, 2615, 1, -0.5
*EQUATION
3
3408, 2, 1.0, 2613, 2, -0.5, 2615, 2, -0.5
*EQUATION
3
3408, 3, 1.0, 2613, 3, -0.5, 2615, 3, -0.5
*EQUATION
3
3424, 1, 1.0, 293, 1, -0.5, 1990, 1, -0.5
*EQUATION
3
3424, 2, 1.0, 293, 2, -0.5, 1990, 2, -0.5
*EQUATION
3
3424, 3, 1.0, 293, 3, -0.5, 1990, 3, -0.5
*EQUATION
3
3426, 1, 1.0, 2605, 1, -0.5, 2616, 1, -0.5
*EQUATION
3
3426, 2, 1.0, 2605, 2, -0.5, 2616, 2, -0.5
*EQUATION
3
3426, 3, 1.0, 2605, 3, -0.5, 2616, 3, -0.5
*EQUATION
5
3427, 1, 1.0, 293, 1, -0.25, 1990, 1, -0.25, 1992, 1, -0.25, 1980, 1, -0.25
*EQUATION
5
3427, 2, 1.0, 293, 2, -0.25, 1990, 2, -0.25, 1992, 2, -0.25, 1980, 2, -0.25
*EQUATION
5
3427, 3, 1.0, 293, 3, -0.25, 1990, 3, -0.25, 1992, 3, -0.25, 1980, 3, -0.25
*EQUATION
5
3429, 1, 1.0, 2605, 1, -0.25, 2616, 1, -0.25, 2618, 1, -0.25, 2606, 1, -0.25
*EQUATION
5
3429, 2, 1.0, 2605, 2, -0.25, 2616, 2, -0.25, 2618, 2, -0.25, 2606, 2, -0.25
*EQUATION
5
3429, 3, 1.0, 2605, 3, -0.25, 2616, 3, -0.25, 2618, 3, -0.25, 2606, 3, -0.25
*EQUATION
3
3430, 1, 1.0, 1980, 1, -0.5, 1992, 1, -0.5
*EQUATION
3
3430, 2, 1.0, 1980, 2, -0.5, 1992, 2, -0.5
*EQUATION
3
3430, 3, 1.0, 1980, 3, -0.5, 1992, 3, -0.5
*EQUATION
3
3432, 1, 1.0, 2606, 1, -0.5, 2618, 1, -0.5
*EQUATION
3
3432, 2, 1.0, 2606, 2, -0.5, 2618, 2, -0.5
*EQUATION
3
3432, 3, 1.0, 2606, 3, -0.5, 2618, 3, -0.5
*EQUATION
3
3433, 1, 1.0, 1990, 1, -0.5, 2616, 1, -0.5
*EQUATION
3
3433, 2, 1.0, 1990, 2, -0.5, 2616, 2, -0.5
*EQUATION
3
3433, 3, 1.0, 1990, 3, -0.5, 2616, 3, -0.5
*EQUATION
3
3434, 1, 1.0, 1990, 1, -0.5, 1992, 1, -0.5
*EQUATION
3
3434, 2, 1.0, 1990, 2, -0.5, 1992, 2, -0.5
*EQUATION
3
3434, 3, 1.0, 1990, 3, -0.5, 1992, 3, -0.5
*EQUATION
5
3435, 1, 1.0, 1990, 1, -0.25, 1992, 1, -0.25, 2618, 1, -0.25, 2616, 1, -0.25
*EQUATION
5
3435, 2, 1.0, 1990, 2, -0.25, 1992, 2, -0.25, 2618, 2, -0.25, 2616, 2, -0.25
*EQUATION
5
3435, 3, 1.0, 1990, 3, -0.25, 1992, 3, -0.25, 2618, 3, -0.25, 2616, 3, -0.25
*EQUATION
3
3436, 1, 1.0, 2616, 1, -0.5, 2618, 1, -0.5
*EQUATION
3
3436, 2, 1.0, 2616, 2, -0.5, 2618, 2, -0.5
*EQUATION
3
3436, 3, 1.0, 2616, 3, -0.5, 2618, 3, -0.5
*EQUATION
3
3437, 1, 1.0, 1992, 1, -0.5, 2618, 1, -0.5
*EQUATION
3
3437, 2, 1.0, 1992, 2, -0.5, 2618, 2, -0.5
*EQUATION
3
3437, 3, 1.0, 1992, 3, -0.5, 2618, 3, -0.5
*EQUATION
5
3438, 1, 1.0, 1980, 1, -0.25, 1992, 1, -0.25, 1994, 1, -0.25, 294, 1, -0.25
*EQUATION
5
3438, 2, 1.0, 1980, 2, -0.25, 1992, 2, -0.25, 1994, 2, -0.25, 294, 2, -0.25
*EQUATION
5
3438, 3, 1.0, 1980, 3, -0.25, 1992, 3, -0.25, 1994, 3, -0.25, 294, 3, -0.25
*EQUATION
5
3440, 1, 1.0, 2606, 1, -0.25, 2618, 1, -0.25, 2620, 1, -0.25, 2608, 1, -0.25
*EQUATION
5
3440, 2, 1.0, 2606, 2, -0.25, 2618, 2, -0.25, 2620, 2, -0.25, 2608, 2, -0.25
*EQUATION
5
3440, 3, 1.0, 2606, 3, -0.25, 2618, 3, -0.25, 2620, 3, -0.25, 2608, 3, -0.25
*EQUATION
3
3441, 1, 1.0, 294, 1, -0.5, 1994, 1, -0.5
*EQUATION
3
3441, 2, 1.0, 294, 2, -0.5, 1994, 2, -0.5
*EQUATION
3
3441, 3, 1.0, 294, 3, -0.5, 1994, 3, -0.5
*EQUATION
3
3443, 1, 1.0, 2608, 1, -0.5, 2620, 1, -0.5
*EQUATION
3
3443, 2, 1.0, 2608, 2, -0.5, 2620, 2, -0.5
*EQUATION
3
3443, 3, 1.0, 2608, 3, -0.5, 2620, 3, -0.5
*EQUATION
3
3444, 1, 1.0, 1992, 1, -0.5, 1994, 1, -0.5
*EQUATION
3
3444, 2, 1.0, 1992, 2, -0.5, 1994, 2, -0.5
*EQUATION
3
3444, 3, 1.0, 1992, 3, -0.5, 1994, 3, -0.5
*EQUATION
5
3445, 1, 1.0, 1992, 1, -0.25, 1994, 1, -0.25, 2620, 1, -0.25, 2618, 1, -0.25
*EQUATION
5
3445, 2, 1.0, 1992, 2, -0.25, 1994, 2, -0.25, 2620, 2, -0.25, 2618, 2, -0.25
*EQUATION
5
3445, 3, 1.0, 1992, 3, -0.25, 1994, 3, -0.25, 2620, 3, -0.25, 2618, 3, -0.25
*EQUATION
3
3446, 1, 1.0, 2618, 1, -0.5, 2620, 1, -0.5
*EQUATION
3
3446, 2, 1.0, 2618, 2, -0.5, 2620, 2, -0.5
*EQUATION
3
3446, 3, 1.0, 2618, 3, -0.5, 2620, 3, -0.5
*EQUATION
3
3447, 1, 1.0, 1994, 1, -0.5, 2620, 1, -0.5
*EQUATION
3
3447, 2, 1.0, 1994, 2, -0.5, 2620, 2, -0.5
*EQUATION
3
3447, 3, 1.0, 1994, 3, -0.5, 2620, 3, -0.5
*EQUATION
5
3468, 1, 1.0, 294, 1, -0.25, 1994, 1, -0.25, 2000, 1, -0.25, 1987, 1, -0.25
*EQUATION
5
3468, 2, 1.0, 294, 2, -0.25, 1994, 2, -0.25, 2000, 2, -0.25, 1987, 2, -0.25
*EQUATION
5
3468, 3, 1.0, 294, 3, -0.25, 1994, 3, -0.25, 2000, 3, -0.25, 1987, 3, -0.25
*EQUATION
5
3470, 1, 1.0, 2608, 1, -0.25, 2620, 1, -0.25, 2626, 1, -0.25, 2613, 1, -0.25
*EQUATION
5
3470, 2, 1.0, 2608, 2, -0.25, 2620, 2, -0.25, 2626, 2, -0.25, 2613, 2, -0.25
*EQUATION
5
3470, 3, 1.0, 2608, 3, -0.25, 2620, 3, -0.25, 2626, 3, -0.25, 2613, 3, -0.25
*EQUATION
3
3471, 1, 1.0, 1987, 1, -0.5, 2000, 1, -0.5
*EQUATION
3
3471, 2, 1.0, 1987, 2, -0.5, 2000, 2, -0.5
*EQUATION
3
3471, 3, 1.0, 1987, 3, -0.5, 2000, 3, -0.5
*EQUATION
3
3473, 1, 1.0, 2613, 1, -0.5, 2626, 1, -0.5
*EQUATION
3
3473, 2, 1.0, 2613, 2, -0.5, 2626, 2, -0.5
*EQUATION
3
3473, 3, 1.0, 2613, 3, -0.5, 2626, 3, -0.5
*EQUATION
3
3474, 1, 1.0, 1994, 1, -0.5, 2000, 1, -0.5
*EQUATION
3
3474, 2, 1.0, 1994, 2, -0.5, 2000, 2, -0.5
*EQUATION
3
3474, 3, 1.0, 1994, 3, -0.5, 2000, 3, -0.5
*EQUATION
5
3475, 1, 1.0, 1994, 1, -0.25, 2000, 1, -0.25, 2626, 1, -0.25, 2620, 1, -0.25
*EQUATION
5
3475, 2, 1.0, 1994, 2, -0.25, 2000, 2, -0.25, 2626, 2, -0.25, 2620, 2, -0.25
*EQUATION
5
3475, 3, 1.0, 1994, 3, -0.25, 2000, 3, -0.25, 2626, 3, -0.25, 2620, 3, -0.25
*EQUATION
3
3476, 1, 1.0, 2620, 1, -0.5, 2626, 1, -0.5
*EQUATION
3
3476, 2, 1.0, 2620, 2, -0.5, 2626, 2, -0.5
*EQUATION
3
3476, 3, 1.0, 2620, 3, -0.5, 2626, 3, -0.5
*EQUATION
3
3477, 1, 1.0, 2000, 1, -0.5, 2626, 1, -0.5
*EQUATION
3
3477, 2, 1.0, 2000, 2, -0.5, 2626, 2, -0.5
*EQUATION
3
3477, 3, 1.0, 2000, 3, -0.5, 2626, 3, -0.5
*EQUATION
5
3478, 1, 1.0, 1987, 1, -0.25, 2000, 1, -0.25, 2002, 1, -0.25, 303, 1, -0.25
*EQUATION
5
3478, 2, 1.0, 1987, 2, -0.25, 2000, 2, -0.25, 2002, 2, -0.25, 303, 2, -0.25
*EQUATION
5
3478, 3, 1.0, 1987, 3, -0.25, 2000, 3, -0.25, 2002, 3, -0.25, 303, 3, -0.25
*EQUATION
5
3480, 1, 1.0, 2613, 1, -0.25, 2626, 1, -0.25, 2628, 1, -0.25, 2615, 1, -0.25
*EQUATION
5
3480, 2, 1.0, 2613, 2, -0.25, 2626, 2, -0.25, 2628, 2, -0.25, 2615, 2, -0.25
*EQUATION
5
3480, 3, 1.0, 2613, 3, -0.25, 2626, 3, -0.25, 2628, 3, -0.25, 2615, 3, -0.25
*EQUATION
3
3481, 1, 1.0, 303, 1, -0.5, 2002, 1, -0.5
*EQUATION
3
3481, 2, 1.0, 303, 2, -0.5, 2002, 2, -0.5
*EQUATION
3
3481, 3, 1.0, 303, 3, -0.5, 2002, 3, -0.5
*EQUATION
3
3483, 1, 1.0, 2615, 1, -0.5, 2628, 1, -0.5
*EQUATION
3
3483, 2, 1.0, 2615, 2, -0.5, 2628, 2, -0.5
*EQUATION
3
3483, 3, 1.0, 2615, 3, -0.5, 2628, 3, -0.5
*EQUATION
3
3484, 1, 1.0, 2000, 1, -0.5, 2002, 1, -0.5
*EQUATION
3
3484, 2, 1.0, 2000, 2, -0.5, 2002, 2, -0.5
*EQUATION
3
3484, 3, 1.0, 2000, 3, -0.5, 2002, 3, -0.5
*EQUATION
5
3485, 1, 1.0, 2000, 1, -0.25, 2002, 1, -0.25, 2628, 1, -0.25, 2626, 1, -0.25
*EQUATION
5
3485, 2, 1.0, 2000, 2, -0.25, 2002, 2, -0.25, 2628, 2, -0.25, 2626, 2, -0.25
*EQUATION
5
3485, 3, 1.0, 2000, 3, -0.25, 2002, 3, -0.25, 2628, 3, -0.25, 2626, 3, -0.25
*EQUATION
3
3486, 1, 1.0, 2626, 1, -0.5, 2628, 1, -0.5
*EQUATION
3
3486, 2, 1.0, 2626, 2, -0.5, 2628, 2, -0.5
*EQUATION
3
3486, 3, 1.0, 2626, 3, -0.5, 2628, 3, -0.5
*EQUATION
3
3487, 1, 1.0, 2002, 1, -0.5, 2628, 1, -0.5
*EQUATION
3
3487, 2, 1.0, 2002, 2, -0.5, 2628, 2, -0.5
*EQUATION
3
3487, 3, 1.0, 2002, 3, -0.5, 2628, 3, -0.5
*EQUATION
3
3613, 1, 1.0, 627, 1, -0.5, 628, 1, -0.5
*EQUATION
3
3613, 2, 1.0, 627, 2, -0.5, 628, 2, -0.5
*EQUATION
3
3613, 3, 1.0, 627, 3, -0.5, 628, 3, -0.5
*EQUATION
3
3623, 1, 1.0, 628, 1, -0.5, 638, 1, -0.5
*EQUATION
3
3623, 2, 1.0, 628, 2, -0.5, 638, 2, -0.5
*EQUATION
3
3623, 3, 1.0, 628, 3, -0.5, 638, 3, -0.5
*EQUATION
3
3625, 1, 1.0, 845, 1, -0.5, 846, 1, -0.5
*EQUATION
3
3625, 2, 1.0, 845, 2, -0.5, 846, 2, -0.5
*EQUATION
3
3625, 3, 1.0, 845, 3, -0.5, 846, 3, -0.5
*EQUATION
5
3626, 1, 1.0, 845, 1, -0.25, 847, 1, -0.25, 848, 1, -0.25, 846, 1, -0.25
*EQUATION
5
3626, 2, 1.0, 845, 2, -0.25, 847, 2, -0.25, 848, 2, -0.25, 846, 2, -0.25
*EQUATION
5
3626, 3, 1.0, 845, 3, -0.25, 847, 3, -0.25, 848, 3, -0.25, 846, 3, -0.25
*EQUATION
3
3627, 1, 1.0, 846, 1, -0.5, 848, 1, -0.5
*EQUATION
3
3627, 2, 1.0, 846, 2, -0.5, 848, 2, -0.5
*EQUATION
3
3627, 3, 1.0, 846, 3, -0.5, 848, 3, -0.5
*EQUATION
5
3628, 1, 1.0, 845, 1, -0.25, 893, 1, -0.25, 894, 1, -0.25, 846, 1, -0.25
*EQUATION
5
3628, 2, 1.0, 845, 2, -0.25, 893, 2, -0.25, 894, 2, -0.25, 846, 2, -0.25
*EQUATION
5
3628, 3, 1.0, 845, 3, -0.25, 893, 3, -0.25, 894, 3, -0.25, 846, 3, -0.25
*EQUATION
3
3629, 1, 1.0, 846, 1, -0.5, 894, 1, -0.5
*EQUATION
3
3629, 2, 1.0, 846, 2, -0.5, 894, 2, -0.5
*EQUATION
3
3629, 3, 1.0, 846, 3, -0.5, 894, 3, -0.5
*EQUATION
3
3632, 1, 1.0, 893, 1, -0.5, 894, 1, -0.5
*EQUATION
3
3632, 2, 1.0, 893, 2, -0.5, 894, 2, -0.5
*EQUATION
3
3632, 3, 1.0, 893, 3, -0.5, 894, 3, -0.5
*EQUATION
5
3635, 1, 1.0, 851, 1, -0.25, 854, 1, -0.25, 855, 1, -0.25, 852, 1, -0.25
*EQUATION
5
3635, 2, 1.0, 851, 2, -0.25, 854, 2, -0.25, 855, 2, -0.25, 852, 2, -0.25
*EQUATION
5
3635, 3, 1.0, 851, 3, -0.25, 854, 3, -0.25, 855, 3, -0.25, 852, 3, -0.25
*EQUATION
3
3636, 1, 1.0, 852, 1, -0.5, 855, 1, -0.5
*EQUATION
3
3636, 2, 1.0, 852, 2, -0.5, 855, 2, -0.5
*EQUATION
3
3636, 3, 1.0, 852, 3, -0.5, 855, 3, -0.5
*EQUATION
3
3637, 1, 1.0, 854, 1, -0.5, 855, 1, -0.5
*EQUATION
3
3637, 2, 1.0, 854, 2, -0.5, 855, 2, -0.5
*EQUATION
3
3637, 3, 1.0, 854, 3, -0.5, 855, 3, -0.5
*EQUATION
5
3640, 1, 1.0, 854, 1, -0.25, 902, 1, -0.25, 903, 1, -0.25, 855, 1, -0.25
*EQUATION
5
3640, 2, 1.0, 854, 2, -0.25, 902, 2, -0.25, 903, 2, -0.25, 855, 2, -0.25
*EQUATION
5
3640, 3, 1.0, 854, 3, -0.25, 902, 3, -0.25, 903, 3, -0.25, 855, 3, -0.25
*EQUATION
3
3641, 1, 1.0, 855, 1, -0.5, 903, 1, -0.5
*EQUATION
3
3641, 2, 1.0, 855, 2, -0.5, 903, 2, -0.5
*EQUATION
3
3641, 3, 1.0, 855, 3, -0.5, 903, 3, -0.5
*EQUATION
3
3644, 1, 1.0, 902, 1, -0.5, 903, 1, -0.5
*EQUATION
3
3644, 2, 1.0, 902, 2, -0.5, 903, 2, -0.5
*EQUATION
3
3644, 3, 1.0, 902, 3, -0.5, 903, 3, -0.5
*EQUATION
3
3650, 1, 1.0, 2088, 1, -0.5, 2092, 1, -0.5
*EQUATION
3
3650, 2, 1.0, 2088, 2, -0.5, 2092, 2, -0.5
*EQUATION
3
3650, 3, 1.0, 2088, 3, -0.5, 2092, 3, -0.5
*EQUATION
3
3652, 1, 1.0, 21, 1, -0.5, 2093, 1, -0.5
*EQUATION
3
3652, 2, 1.0, 21, 2, -0.5, 2093, 2, -0.5
*EQUATION
3
3652, 3, 1.0, 21, 3, -0.5, 2093, 3, -0.5
*EQUATION
5
3653, 1, 1.0, 2088, 1, -0.25, 2092, 1, -0.25, 2094, 1, -0.25, 2089, 1, -0.25
*EQUATION
5
3653, 2, 1.0, 2088, 2, -0.25, 2092, 2, -0.25, 2094, 2, -0.25, 2089, 2, -0.25
*EQUATION
5
3653, 3, 1.0, 2088, 3, -0.25, 2092, 3, -0.25, 2094, 3, -0.25, 2089, 3, -0.25
*EQUATION
5
3655, 1, 1.0, 21, 1, -0.25, 2093, 1, -0.25, 2095, 1, -0.25, 2090, 1, -0.25
*EQUATION
5
3655, 2, 1.0, 21, 2, -0.25, 2093, 2, -0.25, 2095, 2, -0.25, 2090, 2, -0.25
*EQUATION
5
3655, 3, 1.0, 21, 3, -0.25, 2093, 3, -0.25, 2095, 3, -0.25, 2090, 3, -0.25
*EQUATION
3
3656, 1, 1.0, 2089, 1, -0.5, 2094, 1, -0.5
*EQUATION
3
3656, 2, 1.0, 2089, 2, -0.5, 2094, 2, -0.5
*EQUATION
3
3656, 3, 1.0, 2089, 3, -0.5, 2094, 3, -0.5
*EQUATION
5
3657, 1, 1.0, 2089, 1, -0.25, 2094, 1, -0.25, 2095, 1, -0.25, 2090, 1, -0.25
*EQUATION
5
3657, 2, 1.0, 2089, 2, -0.25, 2094, 2, -0.25, 2095, 2, -0.25, 2090, 2, -0.25
*EQUATION
5
3657, 3, 1.0, 2089, 3, -0.25, 2094, 3, -0.25, 2095, 3, -0.25, 2090, 3, -0.25
*EQUATION
3
3658, 1, 1.0, 2090, 1, -0.5, 2095, 1, -0.5
*EQUATION
3
3658, 2, 1.0, 2090, 2, -0.5, 2095, 2, -0.5
*EQUATION
3
3658, 3, 1.0, 2090, 3, -0.5, 2095, 3, -0.5
*EQUATION
3
3660, 1, 1.0, 2092, 1, -0.5, 2094, 1, -0.5
*EQUATION
3
3660, 2, 1.0, 2092, 2, -0.5, 2094, 2, -0.5
*EQUATION
3
3660, 3, 1.0, 2092, 3, -0.5, 2094, 3, -0.5
*EQUATION
3
3662, 1, 1.0, 2093, 1, -0.5, 2095, 1, -0.5
*EQUATION
3
3662, 2, 1.0, 2093, 2, -0.5, 2095, 2, -0.5
*EQUATION
3
3662, 3, 1.0, 2093, 3, -0.5, 2095, 3, -0.5
*EQUATION
3
3663, 1, 1.0, 2094, 1, -0.5, 2095, 1, -0.5
*EQUATION
3
3663, 2, 1.0, 2094, 2, -0.5, 2095, 2, -0.5
*EQUATION
3
3663, 3, 1.0, 2094, 3, -0.5, 2095, 3, -0.5
*EQUATION
5
3672, 1, 1.0, 2094, 1, -0.25, 2096, 1, -0.25, 2097, 1, -0.25, 2095, 1, -0.25
*EQUATION
5
3672, 2, 1.0, 2094, 2, -0.25, 2096, 2, -0.25, 2097, 2, -0.25, 2095, 2, -0.25
*EQUATION
5
3672, 3, 1.0, 2094, 3, -0.25, 2096, 3, -0.25, 2097, 3, -0.25, 2095, 3, -0.25
*EQUATION
3
3673, 1, 1.0, 2095, 1, -0.5, 2097, 1, -0.5
*EQUATION
3
3673, 2, 1.0, 2095, 2, -0.5, 2097, 2, -0.5
*EQUATION
3
3673, 3, 1.0, 2095, 3, -0.5, 2097, 3, -0.5
*EQUATION
3
3674, 1, 1.0, 2096, 1, -0.5, 2097, 1, -0.5
*EQUATION
3
3674, 2, 1.0, 2096, 2, -0.5, 2097, 2, -0.5
*EQUATION
3
3674, 3, 1.0, 2096, 3, -0.5, 2097, 3, -0.5
*EQUATION
3
3684, 1, 1.0, 2147, 1, -0.5, 2150, 1, -0.5
*EQUATION
3
3684, 2, 1.0, 2147, 2, -0.5, 2150, 2, -0.5
*EQUATION
3
3684, 3, 1.0, 2147, 3, -0.5, 2150, 3, -0.5
*EQUATION
5
3685, 1, 1.0, 2147, 1, -0.25, 2150, 1, -0.25, 2151, 1, -0.25, 2148, 1, -0.25
*EQUATION
5
3685, 2, 1.0, 2147, 2, -0.25, 2150, 2, -0.25, 2151, 2, -0.25, 2148, 2, -0.25
*EQUATION
5
3685, 3, 1.0, 2147, 3, -0.25, 2150, 3, -0.25, 2151, 3, -0.25, 2148, 3, -0.25
*EQUATION
3
3686, 1, 1.0, 2148, 1, -0.5, 2151, 1, -0.5
*EQUATION
3
3686, 2, 1.0, 2148, 2, -0.5, 2151, 2, -0.5
*EQUATION
3
3686, 3, 1.0, 2148, 3, -0.5, 2151, 3, -0.5
*EQUATION
5
3687, 1, 1.0, 2147, 1, -0.25, 2150, 1, -0.25, 2152, 1, -0.25, 2149, 1, -0.25
*EQUATION
5
3687, 2, 1.0, 2147, 2, -0.25, 2150, 2, -0.25, 2152, 2, -0.25, 2149, 2, -0.25
*EQUATION
5
3687, 3, 1.0, 2147, 3, -0.25, 2150, 3, -0.25, 2152, 3, -0.25, 2149, 3, -0.25
*EQUATION
5
3689, 1, 1.0, 2148, 1, -0.25, 2151, 1, -0.25, 2153, 1, -0.25, 36, 1, -0.25
*EQUATION
5
3689, 2, 1.0, 2148, 2, -0.25, 2151, 2, -0.25, 2153, 2, -0.25, 36, 2, -0.25
*EQUATION
5
3689, 3, 1.0, 2148, 3, -0.25, 2151, 3, -0.25, 2153, 3, -0.25, 36, 3, -0.25
*EQUATION
3
3690, 1, 1.0, 2149, 1, -0.5, 2152, 1, -0.5
*EQUATION
3
3690, 2, 1.0, 2149, 2, -0.5, 2152, 2, -0.5
*EQUATION
3
3690, 3, 1.0, 2149, 3, -0.5, 2152, 3, -0.5
*EQUATION
3
3692, 1, 1.0, 36, 1, -0.5, 2153, 1, -0.5
*EQUATION
3
3692, 2, 1.0, 36, 2, -0.5, 2153, 2, -0.5
*EQUATION
3
3692, 3, 1.0, 36, 3, -0.5, 2153, 3, -0.5
*EQUATION
3
3693, 1, 1.0, 2150, 1, -0.5, 2151, 1, -0.5
*EQUATION
3
3693, 2, 1.0, 2150, 2, -0.5, 2151, 2, -0.5
*EQUATION
3
3693, 3, 1.0, 2150, 3, -0.5, 2151, 3, -0.5
*EQUATION
3
3695, 1, 1.0, 2151, 1, -0.5, 2153, 1, -0.5
*EQUATION
3
3695, 2, 1.0, 2151, 2, -0.5, 2153, 2, -0.5
*EQUATION
3
3695, 3, 1.0, 2151, 3, -0.5, 2153, 3, -0.5
*EQUATION
5
3697, 1, 1.0, 2096, 1, -0.25, 2150, 1, -0.25, 2151, 1, -0.25, 2097, 1, -0.25
*EQUATION
5
3697, 2, 1.0, 2096, 2, -0.25, 2150, 2, -0.25, 2151, 2, -0.25, 2097, 2, -0.25
*EQUATION
5
3697, 3, 1.0, 2096, 3, -0.25, 2150, 3, -0.25, 2151, 3, -0.25, 2097, 3, -0.25
*EQUATION
3
3698, 1, 1.0, 2097, 1, -0.5, 2151, 1, -0.5
*EQUATION
3
3698, 2, 1.0, 2097, 2, -0.5, 2151, 2, -0.5
*EQUATION
3
3698, 3, 1.0, 2097, 3, -0.5, 2151, 3, -0.5
*EQUATION
3
3713, 1, 1.0, 57, 1, -0.5, 58, 1, -0.5
*EQUATION
3
3713, 2, 1.0, 57, 2, -0.5, 58, 2, -0.5
*EQUATION
3
3713, 3, 1.0, 57, 3, -0.5, 58, 3, -0.5
*EQUATION
3
3717, 1, 1.0, 2095, 1, -0.5, 2770, 1, -0.5
*EQUATION
3
3717, 2, 1.0, 2095, 2, -0.5, 2770, 2, -0.5
*EQUATION
3
3717, 3, 1.0, 2095, 3, -0.5, 2770, 3, -0.5
*EQUATION
5
3718, 1, 1.0, 2095, 1, -0.25, 2097, 1, -0.25, 2772, 1, -0.25, 2770, 1, -0.25
*EQUATION
5
3718, 2, 1.0, 2095, 2, -0.25, 2097, 2, -0.25, 2772, 2, -0.25, 2770, 2, -0.25
*EQUATION
5
3718, 3, 1.0, 2095, 3, -0.25, 2097, 3, -0.25, 2772, 3, -0.25, 2770, 3, -0.25
*EQUATION
3
3719, 1, 1.0, 2770, 1, -0.5, 2772, 1, -0.5
*EQUATION
3
3719, 2, 1.0, 2770, 2, -0.5, 2772, 2, -0.5
*EQUATION
3
3719, 3, 1.0, 2770, 3, -0.5, 2772, 3, -0.5
*EQUATION
3
3720, 1, 1.0, 2097, 1, -0.5, 2772, 1, -0.5
*EQUATION
3
3720, 2, 1.0, 2097, 2, -0.5, 2772, 2, -0.5
*EQUATION
3
3720, 3, 1.0, 2097, 3, -0.5, 2772, 3, -0.5
*EQUATION
3
3727, 1, 1.0, 1011, 1, -0.5, 1667, 1, -0.5
*EQUATION
3
3727, 2, 1.0, 1011, 2, -0.5, 1667, 2, -0.5
*EQUATION
3
3727, 3, 1.0, 1011, 3, -0.5, 1667, 3, -0.5
*EQUATION
5
3728, 1, 1.0, 1011, 1, -0.25, 23, 1, -0.25, 1669, 1, -0.25, 1667, 1, -0.25
*EQUATION
5
3728, 2, 1.0, 1011, 2, -0.25, 23, 2, -0.25, 1669, 2, -0.25, 1667, 2, -0.25
*EQUATION
5
3728, 3, 1.0, 1011, 3, -0.25, 23, 3, -0.25, 1669, 3, -0.25, 1667, 3, -0.25
*EQUATION
3
3729, 1, 1.0, 1667, 1, -0.5, 1669, 1, -0.5
*EQUATION
3
3729, 2, 1.0, 1667, 2, -0.5, 1669, 2, -0.5
*EQUATION
3
3729, 3, 1.0, 1667, 3, -0.5, 1669, 3, -0.5
*EQUATION
3
3730, 1, 1.0, 23, 1, -0.5, 1669, 1, -0.5
*EQUATION
3
3730, 2, 1.0, 23, 2, -0.5, 1669, 2, -0.5
*EQUATION
3
3730, 3, 1.0, 23, 3, -0.5, 1669, 3, -0.5
*EQUATION
5
3741, 1, 1.0, 2097, 1, -0.25, 2151, 1, -0.25, 2777, 1, -0.25, 2772, 1, -0.25
*EQUATION
5
3741, 2, 1.0, 2097, 2, -0.25, 2151, 2, -0.25, 2777, 2, -0.25, 2772, 2, -0.25
*EQUATION
5
3741, 3, 1.0, 2097, 3, -0.25, 2151, 3, -0.25, 2777, 3, -0.25, 2772, 3, -0.25
*EQUATION
3
3742, 1, 1.0, 2772, 1, -0.5, 2777, 1, -0.5
*EQUATION
3
3742, 2, 1.0, 2772, 2, -0.5, 2777, 2, -0.5
*EQUATION
3
3742, 3, 1.0, 2772, 3, -0.5, 2777, 3, -0.5
*EQUATION
3
3743, 1, 1.0, 2151, 1, -0.5, 2777, 1, -0.5
*EQUATION
3
3743, 2, 1.0, 2151, 2, -0.5, 2777, 2, -0.5
*EQUATION
3
3743, 3, 1.0, 2151, 3, -0.5, 2777, 3, -0.5
*EQUATION
5
3748, 1, 1.0, 23, 1, -0.25, 1579, 1, -0.25, 2412, 1, -0.25, 1669, 1, -0.25
*EQUATION
5
3748, 2, 1.0, 23, 2, -0.25, 1579, 2, -0.25, 2412, 2, -0.25, 1669, 2, -0.25
*EQUATION
5
3748, 3, 1.0, 23, 3, -0.25, 1579, 3, -0.25, 2412, 3, -0.25, 1669, 3, -0.25
*EQUATION
3
3749, 1, 1.0, 1669, 1, -0.5, 2412, 1, -0.5
*EQUATION
3
3749, 2, 1.0, 1669, 2, -0.5, 2412, 2, -0.5
*EQUATION
3
3749, 3, 1.0, 1669, 3, -0.5, 2412, 3, -0.5
*EQUATION
3
3750, 1, 1.0, 1579, 1, -0.5, 2412, 1, -0.5
*EQUATION
3
3750, 2, 1.0, 1579, 2, -0.5, 2412, 2, -0.5
*EQUATION
3
3750, 3, 1.0, 1579, 3, -0.5, 2412, 3, -0.5
*EQUATION
3
3767, 1, 1.0, 75, 1, -0.5, 76, 1, -0.5
*EQUATION
3
3767, 2, 1.0, 75, 2, -0.5, 76, 2, -0.5
*EQUATION
3
3767, 3, 1.0, 75, 3, -0.5, 76, 3, -0.5
*EQUATION
3
3768, 1, 1.0, 1106, 1, -0.5, 1107, 1, -0.5
*EQUATION
3
3768, 2, 1.0, 1106, 2, -0.5, 1107, 2, -0.5
*EQUATION
3
3768, 3, 1.0, 1106, 3, -0.5, 1107, 3, -0.5
*EQUATION
3
3769, 1, 1.0, 1106, 1, -0.5, 1109, 1, -0.5
*EQUATION
3
3769, 2, 1.0, 1106, 2, -0.5, 1109, 2, -0.5
*EQUATION
3
3769, 3, 1.0, 1106, 3, -0.5, 1109, 3, -0.5
*EQUATION
5
3770, 1, 1.0, 1106, 1, -0.25, 1109, 1, -0.25, 1110, 1, -0.25, 1107, 1, -0.25
*EQUATION
5
3770, 2, 1.0, 1106, 2, -0.25, 1109, 2, -0.25, 1110, 2, -0.25, 1107, 2, -0.25
*EQUATION
5
3770, 3, 1.0, 1106, 3, -0.25, 1109, 3, -0.25, 1110, 3, -0.25, 1107, 3, -0.25
*EQUATION
3
3771, 1, 1.0, 1107, 1, -0.5, 1110, 1, -0.5
*EQUATION
3
3771, 2, 1.0, 1107, 2, -0.5, 1110, 2, -0.5
*EQUATION
3
3771, 3, 1.0, 1107, 3, -0.5, 1110, 3, -0.5
*EQUATION
3
3772, 1, 1.0, 1109, 1, -0.5, 1110, 1, -0.5
*EQUATION
3
3772, 2, 1.0, 1109, 2, -0.5, 1110, 2, -0.5
*EQUATION
3
3772, 3, 1.0, 1109, 3, -0.5, 1110, 3, -0.5
*EQUATION
3
3773, 1, 1.0, 1106, 1, -0.5, 1112, 1, -0.5
*EQUATION
3
3773, 2, 1.0, 1106, 2, -0.5, 1112, 2, -0.5
*EQUATION
3
3773, 3, 1.0, 1106, 3, -0.5, 1112, 3, -0.5
*EQUATION
5
3774, 1, 1.0, 1106, 1, -0.25, 1112, 1, -0.25, 1113, 1, -0.25, 1107, 1, -0.25
*EQUATION
5
3774, 2, 1.0, 1106, 2, -0.25, 1112, 2, -0.25, 1113, 2, -0.25, 1107, 2, -0.25
*EQUATION
5
3774, 3, 1.0, 1106, 3, -0.25, 1112, 3, -0.25, 1113, 3, -0.25, 1107, 3, -0.25
*EQUATION
3
3775, 1, 1.0, 1107, 1, -0.5, 1113, 1, -0.5
*EQUATION
3
3775, 2, 1.0, 1107, 2, -0.5, 1113, 2, -0.5
*EQUATION
3
3775, 3, 1.0, 1107, 3, -0.5, 1113, 3, -0.5
*EQUATION
5
3776, 1, 1.0, 1106, 1, -0.25, 1112, 1, -0.25, 1114, 1, -0.25, 1109, 1, -0.25
*EQUATION
5
3776, 2, 1.0, 1106, 2, -0.25, 1112, 2, -0.25, 1114, 2, -0.25, 1109, 2, -0.25
*EQUATION
5
3776, 3, 1.0, 1106, 3, -0.25, 1112, 3, -0.25, 1114, 3, -0.25, 1109, 3, -0.25
*EQUATION
3
3779, 1, 1.0, 1109, 1, -0.5, 1114, 1, -0.5
*EQUATION
3
3779, 2, 1.0, 1109, 2, -0.5, 1114, 2, -0.5
*EQUATION
3
3779, 3, 1.0, 1109, 3, -0.5, 1114, 3, -0.5
*EQUATION
5
3780, 1, 1.0, 1109, 1, -0.25, 1114, 1, -0.25, 128, 1, -0.25, 1110, 1, -0.25
*EQUATION
5
3780, 2, 1.0, 1109, 2, -0.25, 1114, 2, -0.25, 128, 2, -0.25, 1110, 2, -0.25
*EQUATION
5
3780, 3, 1.0, 1109, 3, -0.25, 1114, 3, -0.25, 128, 3, -0.25, 1110, 3, -0.25
*EQUATION
3
3781, 1, 1.0, 128, 1, -0.5, 1110, 1, -0.5
*EQUATION
3
3781, 2, 1.0, 128, 2, -0.5, 1110, 2, -0.5
*EQUATION
3
3781, 3, 1.0, 128, 3, -0.5, 1110, 3, -0.5
*EQUATION
3
3782, 1, 1.0, 1112, 1, -0.5, 1113, 1, -0.5
*EQUATION
3
3782, 2, 1.0, 1112, 2, -0.5, 1113, 2, -0.5
*EQUATION
3
3782, 3, 1.0, 1112, 3, -0.5, 1113, 3, -0.5
*EQUATION
3
3783, 1, 1.0, 1112, 1, -0.5, 1114, 1, -0.5
*EQUATION
3
3783, 2, 1.0, 1112, 2, -0.5, 1114, 2, -0.5
*EQUATION
3
3783, 3, 1.0, 1112, 3, -0.5, 1114, 3, -0.5
*EQUATION
5
3784, 1, 1.0, 1112, 1, -0.25, 1114, 1, -0.25, 128, 1, -0.25, 1113, 1, -0.25
*EQUATION
5
3784, 2, 1.0, 1112, 2, -0.25, 1114, 2, -0.25, 128, 2, -0.25, 1113, 2, -0.25
*EQUATION
5
3784, 3, 1.0, 1112, 3, -0.25, 1114, 3, -0.25, 128, 3, -0.25, 1113, 3, -0.25
*EQUATION
3
3785, 1, 1.0, 128, 1, -0.5, 1113, 1, -0.5
*EQUATION
3
3785, 2, 1.0, 128, 2, -0.5, 1113, 2, -0.5
*EQUATION
3
3785, 3, 1.0, 128, 3, -0.5, 1113, 3, -0.5
*EQUATION
3
3786, 1, 1.0, 128, 1, -0.5, 1114, 1, -0.5
*EQUATION
3
3786, 2, 1.0, 128, 2, -0.5, 1114, 2, -0.5
*EQUATION
3
3786, 3, 1.0, 128, 3, -0.5, 1114, 3, -0.5
*EQUATION
3
3787, 1, 1.0, 1124, 1, -0.5, 1127, 1, -0.5
*EQUATION
3
3787, 2, 1.0, 1124, 2, -0.5, 1127, 2, -0.5
*EQUATION
3
3787, 3, 1.0, 1124, 3, -0.5, 1127, 3, -0.5
*EQUATION
3
3790, 1, 1.0, 1127, 1, -0.5, 1128, 1, -0.5
*EQUATION
3
3790, 2, 1.0, 1127, 2, -0.5, 1128, 2, -0.5
*EQUATION
3
3790, 3, 1.0, 1127, 3, -0.5, 1128, 3, -0.5
*EQUATION
5
3791, 1, 1.0, 1124, 1, -0.25, 1131, 1, -0.25, 1133, 1, -0.25, 1127, 1, -0.25
*EQUATION
5
3791, 2, 1.0, 1124, 2, -0.25, 1131, 2, -0.25, 1133, 2, -0.25, 1127, 2, -0.25
*EQUATION
5
3791, 3, 1.0, 1124, 3, -0.25, 1131, 3, -0.25, 1133, 3, -0.25, 1127, 3, -0.25
*EQUATION
3
3794, 1, 1.0, 1127, 1, -0.5, 1133, 1, -0.5
*EQUATION
3
3794, 2, 1.0, 1127, 2, -0.5, 1133, 2, -0.5
*EQUATION
3
3794, 3, 1.0, 1127, 3, -0.5, 1133, 3, -0.5
*EQUATION
5
3795, 1, 1.0, 1127, 1, -0.25, 1133, 1, -0.25, 135, 1, -0.25, 1128, 1, -0.25
*EQUATION
5
3795, 2, 1.0, 1127, 2, -0.25, 1133, 2, -0.25, 135, 2, -0.25, 1128, 2, -0.25
*EQUATION
5
3795, 3, 1.0, 1127, 3, -0.25, 1133, 3, -0.25, 135, 3, -0.25, 1128, 3, -0.25
*EQUATION
3
3796, 1, 1.0, 135, 1, -0.5, 1128, 1, -0.5
*EQUATION
3
3796, 2, 1.0, 135, 2, -0.5, 1128, 2, -0.5
*EQUATION
3
3796, 3, 1.0, 135, 3, -0.5, 1128, 3, -0.5
*EQUATION
3
3797, 1, 1.0, 1131, 1, -0.5, 1133, 1, -0.5
*EQUATION
3
3797, 2, 1.0, 1131, 2, -0.5, 1133, 2, -0.5
*EQUATION
3
3797, 3, 1.0, 1131, 3, -0.5, 1133, 3, -0.5
*EQUATION
3
3800, 1, 1.0, 135, 1, -0.5, 1133, 1, -0.5
*EQUATION
3
3800, 2, 1.0, 135, 2, -0.5, 1133, 2, -0.5
*EQUATION
3
3800, 3, 1.0, 135, 3, -0.5, 1133, 3, -0.5
*EQUATION
3
3801, 1, 1.0, 107, 1, -0.5, 1022, 1, -0.5
*EQUATION
3
3801, 2, 1.0, 107, 2, -0.5, 1022, 2, -0.5
*EQUATION
3
3801, 3, 1.0, 107, 3, -0.5, 1022, 3, -0.5
*EQUATION
5
3802, 1, 1.0, 1022, 1, -0.25, 1024, 1, -0.25, 1025, 1, -0.25, 107, 1, -0.25
*EQUATION
5
3802, 2, 1.0, 1022, 2, -0.25, 1024, 2, -0.25, 1025, 2, -0.25, 107, 2, -0.25
*EQUATION
5
3802, 3, 1.0, 1022, 3, -0.25, 1024, 3, -0.25, 1025, 3, -0.25, 107, 3, -0.25
*EQUATION
3
3803, 1, 1.0, 107, 1, -0.5, 1025, 1, -0.5
*EQUATION
3
3803, 2, 1.0, 107, 2, -0.5, 1025, 2, -0.5
*EQUATION
3
3803, 3, 1.0, 107, 3, -0.5, 1025, 3, -0.5
*EQUATION
3
3804, 1, 1.0, 1022, 1, -0.5, 2502, 1, -0.5
*EQUATION
3
3804, 2, 1.0, 1022, 2, -0.5, 2502, 2, -0.5
*EQUATION
3
3804, 3, 1.0, 1022, 3, -0.5, 2502, 3, -0.5
*EQUATION
3
3806, 1, 1.0, 107, 1, -0.5, 2503, 1, -0.5
*EQUATION
3
3806, 2, 1.0, 107, 2, -0.5, 2503, 2, -0.5
*EQUATION
3
3806, 3, 1.0, 107, 3, -0.5, 2503, 3, -0.5
*EQUATION
5
3807, 1, 1.0, 1022, 1, -0.25, 2502, 1, -0.25, 2505, 1, -0.25, 1024, 1, -0.25
*EQUATION
5
3807, 2, 1.0, 1022, 2, -0.25, 2502, 2, -0.25, 2505, 2, -0.25, 1024, 2, -0.25
*EQUATION
5
3807, 3, 1.0, 1022, 3, -0.25, 2502, 3, -0.25, 2505, 3, -0.25, 1024, 3, -0.25
*EQUATION
5
3809, 1, 1.0, 107, 1, -0.25, 2503, 1, -0.25, 2506, 1, -0.25, 1025, 1, -0.25
*EQUATION
5
3809, 2, 1.0, 107, 2, -0.25, 2503, 2, -0.25, 2506, 2, -0.25, 1025, 2, -0.25
*EQUATION
5
3809, 3, 1.0, 107, 3, -0.25, 2503, 3, -0.25, 2506, 3, -0.25, 1025, 3, -0.25
*EQUATION
3
3810, 1, 1.0, 1024, 1, -0.5, 2505, 1, -0.5
*EQUATION
3
3810, 2, 1.0, 1024, 2, -0.5, 2505, 2, -0.5
*EQUATION
3
3810, 3, 1.0, 1024, 3, -0.5, 2505, 3, -0.5
*EQUATION
3
3812, 1, 1.0, 1025, 1, -0.5, 2506, 1, -0.5
*EQUATION
3
3812, 2, 1.0, 1025, 2, -0.5, 2506, 2, -0.5
*EQUATION
3
3812, 3, 1.0, 1025, 3, -0.5, 2506, 3, -0.5
*EQUATION
3
3814, 1, 1.0, 2502, 1, -0.5, 2505, 1, -0.5
*EQUATION
3
3814, 2, 1.0, 2502, 2, -0.5, 2505, 2, -0.5
*EQUATION
3
3814, 3, 1.0, 2502, 3, -0.5, 2505, 3, -0.5
*EQUATION
3
3816, 1, 1.0, 2503, 1, -0.5, 2506, 1, -0.5
*EQUATION
3
3816, 2, 1.0, 2503, 2, -0.5, 2506, 2, -0.5
*EQUATION
3
3816, 3, 1.0, 2503, 3, -0.5, 2506, 3, -0.5
*EQUATION
5
3818, 1, 1.0, 1024, 1, -0.25, 2505, 1, -0.25, 2508, 1, -0.25, 1026, 1, -0.25
*EQUATION
5
3818, 2, 1.0, 1024, 2, -0.25, 2505, 2, -0.25, 2508, 2, -0.25, 1026, 2, -0.25
*EQUATION
5
3818, 3, 1.0, 1024, 3, -0.25, 2505, 3, -0.25, 2508, 3, -0.25, 1026, 3, -0.25
*EQUATION
5
3820, 1, 1.0, 1025, 1, -0.25, 2506, 1, -0.25, 2509, 1, -0.25, 108, 1, -0.25
*EQUATION
5
3820, 2, 1.0, 1025, 2, -0.25, 2506, 2, -0.25, 2509, 2, -0.25, 108, 2, -0.25
*EQUATION
5
3820, 3, 1.0, 1025, 3, -0.25, 2506, 3, -0.25, 2509, 3, -0.25, 108, 3, -0.25
*EQUATION
3
3821, 1, 1.0, 1026, 1, -0.5, 2508, 1, -0.5
*EQUATION
3
3821, 2, 1.0, 1026, 2, -0.5, 2508, 2, -0.5
*EQUATION
3
3821, 3, 1.0, 1026, 3, -0.5, 2508, 3, -0.5
*EQUATION
3
3823, 1, 1.0, 108, 1, -0.5, 2509, 1, -0.5
*EQUATION
3
3823, 2, 1.0, 108, 2, -0.5, 2509, 2, -0.5
*EQUATION
3
3823, 3, 1.0, 108, 3, -0.5, 2509, 3, -0.5
*EQUATION
3
3824, 1, 1.0, 2505, 1, -0.5, 2508, 1, -0.5
*EQUATION
3
3824, 2, 1.0, 2505, 2, -0.5, 2508, 2, -0.5
*EQUATION
3
3824, 3, 1.0, 2505, 3, -0.5, 2508, 3, -0.5
*EQUATION
3
3826, 1, 1.0, 2506, 1, -0.5, 2509, 1, -0.5
*EQUATION
3
3826, 2, 1.0, 2506, 2, -0.5, 2509, 2, -0.5
*EQUATION
3
3826, 3, 1.0, 2506, 3, -0.5, 2509, 3, -0.5
*EQUATION
3
3828, 1, 1.0, 2501, 1, -0.5, 2502, 1, -0.5
*EQUATION
3
3828, 2, 1.0, 2501, 2, -0.5, 2502, 2, -0.5
*EQUATION
3
3828, 3, 1.0, 2501, 3, -0.5, 2502, 3, -0.5
*EQUATION
3
3829, 1, 1.0, 2501, 1, -0.5, 2504, 1, -0.5
*EQUATION
3
3829, 2, 1.0, 2501, 2, -0.5, 2504, 2, -0.5
*EQUATION
3
3829, 3, 1.0, 2501, 3, -0.5, 2504, 3, -0.5
*EQUATION
5
3830, 1, 1.0, 2501, 1, -0.25, 2504, 1, -0.25, 2505, 1, -0.25, 2502, 1, -0.25
*EQUATION
5
3830, 2, 1.0, 2501, 2, -0.25, 2504, 2, -0.25, 2505, 2, -0.25, 2502, 2, -0.25
*EQUATION
5
3830, 3, 1.0, 2501, 3, -0.25, 2504, 3, -0.25, 2505, 3, -0.25, 2502, 3, -0.25
*EQUATION
3
3831, 1, 1.0, 2504, 1, -0.5, 2505, 1, -0.5
*EQUATION
3
3831, 2, 1.0, 2504, 2, -0.5, 2505, 2, -0.5
*EQUATION
3
3831, 3, 1.0, 2504, 3, -0.5, 2505, 3, -0.5
*EQUATION
3
3832, 1, 1.0, 153, 1, -0.5, 2501, 1, -0.5
*EQUATION
3
3832, 2, 1.0, 153, 2, -0.5, 2501, 2, -0.5
*EQUATION
3
3832, 3, 1.0, 153, 3, -0.5, 2501, 3, -0.5
*EQUATION
5
3835, 1, 1.0, 2501, 1, -0.25, 153, 1, -0.25, 2511, 1, -0.25, 2504, 1, -0.25
*EQUATION
5
3835, 2, 1.0, 2501, 2, -0.25, 153, 2, -0.25, 2511, 2, -0.25, 2504, 2, -0.25
*EQUATION
5
3835, 3, 1.0, 2501, 3, -0.25, 153, 3, -0.25, 2511, 3, -0.25, 2504, 3, -0.25
*EQUATION
3
3838, 1, 1.0, 2504, 1, -0.5, 2511, 1, -0.5
*EQUATION
3
3838, 2, 1.0, 2504, 2, -0.5, 2511, 2, -0.5
*EQUATION
3
3838, 3, 1.0, 2504, 3, -0.5, 2511, 3, -0.5
*EQUATION
3
3842, 1, 1.0, 153, 1, -0.5, 2511, 1, -0.5
*EQUATION
3
3842, 2, 1.0, 153, 2, -0.5, 2511, 2, -0.5
*EQUATION
3
3842, 3, 1.0, 153, 3, -0.5, 2511, 3, -0.5
*EQUATION
3
3844, 1, 1.0, 2510, 1, -0.5, 2512, 1, -0.5
*EQUATION
3
3844, 2, 1.0, 2510, 2, -0.5, 2512, 2, -0.5
*EQUATION
3
3844, 3, 1.0, 2510, 3, -0.5, 2512, 3, -0.5
*EQUATION
3
3847, 1, 1.0, 155, 1, -0.5, 2503, 1, -0.5
*EQUATION
3
3847, 2, 1.0, 155, 2, -0.5, 2503, 2, -0.5
*EQUATION
3
3847, 3, 1.0, 155, 3, -0.5, 2503, 3, -0.5
*EQUATION
5
3849, 1, 1.0, 2503, 1, -0.25, 155, 1, -0.25, 2513, 1, -0.25, 2506, 1, -0.25
*EQUATION
5
3849, 2, 1.0, 2503, 2, -0.25, 155, 2, -0.25, 2513, 2, -0.25, 2506, 2, -0.25
*EQUATION
5
3849, 3, 1.0, 2503, 3, -0.25, 155, 3, -0.25, 2513, 3, -0.25, 2506, 3, -0.25
*EQUATION
3
3851, 1, 1.0, 2506, 1, -0.5, 2513, 1, -0.5
*EQUATION
3
3851, 2, 1.0, 2506, 2, -0.5, 2513, 2, -0.5
*EQUATION
3
3851, 3, 1.0, 2506, 3, -0.5, 2513, 3, -0.5
*EQUATION
3
3852, 1, 1.0, 155, 1, -0.5, 2510, 1, -0.5
*EQUATION
3
3852, 2, 1.0, 155, 2, -0.5, 2510, 2, -0.5
*EQUATION
3
3852, 3, 1.0, 155, 3, -0.5, 2510, 3, -0.5
*EQUATION
5
3853, 1, 1.0, 2510, 1, -0.25, 2512, 1, -0.25, 2513, 1, -0.25, 155, 1, -0.25
*EQUATION
5
3853, 2, 1.0, 2510, 2, -0.25, 2512, 2, -0.25, 2513, 2, -0.25, 155, 2, -0.25
*EQUATION
5
3853, 3, 1.0, 2510, 3, -0.25, 2512, 3, -0.25, 2513, 3, -0.25, 155, 3, -0.25
*EQUATION
3
3854, 1, 1.0, 155, 1, -0.5, 2513, 1, -0.5
*EQUATION
3
3854, 2, 1.0, 155, 2, -0.5, 2513, 2, -0.5
*EQUATION
3
3854, 3, 1.0, 155, 3, -0.5, 2513, 3, -0.5
*EQUATION
3
3855, 1, 1.0, 2512, 1, -0.5, 2513, 1, -0.5
*EQUATION
3
3855, 2, 1.0, 2512, 2, -0.5, 2513, 2, -0.5
*EQUATION
3
3855, 3, 1.0, 2512, 3, -0.5, 2513, 3, -0.5
*EQUATION
3
3856, 1, 1.0, 2504, 1, -0.5, 2507, 1, -0.5
*EQUATION
3
3856, 2, 1.0, 2504, 2, -0.5, 2507, 2, -0.5
*EQUATION
3
3856, 3, 1.0, 2504, 3, -0.5, 2507, 3, -0.5
*EQUATION
5
3857, 1, 1.0, 2504, 1, -0.25, 2507, 1, -0.25, 2508, 1, -0.25, 2505, 1, -0.25
*EQUATION
5
3857, 2, 1.0, 2504, 2, -0.25, 2507, 2, -0.25, 2508, 2, -0.25, 2505, 2, -0.25
*EQUATION
5
3857, 3, 1.0, 2504, 3, -0.25, 2507, 3, -0.25, 2508, 3, -0.25, 2505, 3, -0.25
*EQUATION
3
3858, 1, 1.0, 2507, 1, -0.5, 2508, 1, -0.5
*EQUATION
3
3858, 2, 1.0, 2507, 2, -0.5, 2508, 2, -0.5
*EQUATION
3
3858, 3, 1.0, 2507, 3, -0.5, 2508, 3, -0.5
*EQUATION
5
3859, 1, 1.0, 2504, 1, -0.25, 2511, 1, -0.25, 154, 1, -0.25, 2507, 1, -0.25
*EQUATION
5
3859, 2, 1.0, 2504, 2, -0.25, 2511, 2, -0.25, 154, 2, -0.25, 2507, 2, -0.25
*EQUATION
5
3859, 3, 1.0, 2504, 3, -0.25, 2511, 3, -0.25, 154, 3, -0.25, 2507, 3, -0.25
*EQUATION
3
3862, 1, 1.0, 154, 1, -0.5, 2507, 1, -0.5
*EQUATION
3
3862, 2, 1.0, 154, 2, -0.5, 2507, 2, -0.5
*EQUATION
3
3862, 3, 1.0, 154, 3, -0.5, 2507, 3, -0.5
*EQUATION
3
3865, 1, 1.0, 154, 1, -0.5, 2511, 1, -0.5
*EQUATION
3
3865, 2, 1.0, 154, 2, -0.5, 2511, 2, -0.5
*EQUATION
3
3865, 3, 1.0, 154, 3, -0.5, 2511, 3, -0.5
*EQUATION
3
3867, 1, 1.0, 2512, 1, -0.5, 2514, 1, -0.5
*EQUATION
3
3867, 2, 1.0, 2512, 2, -0.5, 2514, 2, -0.5
*EQUATION
3
3867, 3, 1.0, 2512, 3, -0.5, 2514, 3, -0.5
*EQUATION
5
3873, 1, 1.0, 2512, 1, -0.25, 2514, 1, -0.25, 156, 1, -0.25, 2513, 1, -0.25
*EQUATION
5
3873, 2, 1.0, 2512, 2, -0.25, 2514, 2, -0.25, 156, 2, -0.25, 2513, 2, -0.25
*EQUATION
5
3873, 3, 1.0, 2512, 3, -0.25, 2514, 3, -0.25, 156, 3, -0.25, 2513, 3, -0.25
*EQUATION
3
3874, 1, 1.0, 156, 1, -0.5, 2513, 1, -0.5
*EQUATION
3
3874, 2, 1.0, 156, 2, -0.5, 2513, 2, -0.5
*EQUATION
3
3874, 3, 1.0, 156, 3, -0.5, 2513, 3, -0.5
*EQUATION
3
3875, 1, 1.0, 156, 1, -0.5, 2514, 1, -0.5
*EQUATION
3
3875, 2, 1.0, 156, 2, -0.5, 2514, 2, -0.5
*EQUATION
3
3875, 3, 1.0, 156, 3, -0.5, 2514, 3, -0.5
*EQUATION
3
3876, 1, 1.0, 106, 1, -0.5, 1587, 1, -0.5
*EQUATION
3
3876, 2, 1.0, 106, 2, -0.5, 1587, 2, -0.5
*EQUATION
3
3876, 3, 1.0, 106, 3, -0.5, 1587, 3, -0.5
*EQUATION
5
3877, 1, 1.0, 106, 1, -0.25, 1587, 1, -0.25, 1588, 1, -0.25, 1026, 1, -0.25
*EQUATION
5
3877, 2, 1.0, 106, 2, -0.25, 1587, 2, -0.25, 1588, 2, -0.25, 1026, 2, -0.25
*EQUATION
5
3877, 3, 1.0, 106, 3, -0.25, 1587, 3, -0.25, 1588, 3, -0.25, 1026, 3, -0.25
*EQUATION
3
3878, 1, 1.0, 1026, 1, -0.5, 1588, 1, -0.5
*EQUATION
3
3878, 2, 1.0, 1026, 2, -0.5, 1588, 2, -0.5
*EQUATION
3
3878, 3, 1.0, 1026, 3, -0.5, 1588, 3, -0.5
*EQUATION
3
3879, 1, 1.0, 1587, 1, -0.5, 1588, 1, -0.5
*EQUATION
3
3879, 2, 1.0, 1587, 2, -0.5, 1588, 2, -0.5
*EQUATION
3
3879, 3, 1.0, 1587, 3, -0.5, 1588, 3, -0.5
*EQUATION
3
3880, 1, 1.0, 106, 1, -0.5, 2507, 1, -0.5
*EQUATION
3
3880, 2, 1.0, 106, 2, -0.5, 2507, 2, -0.5
*EQUATION
3
3880, 3, 1.0, 106, 3, -0.5, 2507, 3, -0.5
*EQUATION
5
3881, 1, 1.0, 106, 1, -0.25, 2507, 1, -0.25, 2508, 1, -0.25, 1026, 1, -0.25
*EQUATION
5
3881, 2, 1.0, 106, 2, -0.25, 2507, 2, -0.25, 2508, 2, -0.25, 1026, 2, -0.25
*EQUATION
5
3881, 3, 1.0, 106, 3, -0.25, 2507, 3, -0.25, 2508, 3, -0.25, 1026, 3, -0.25
*EQUATION
5
3882, 1, 1.0, 106, 1, -0.25, 2507, 1, -0.25, 2555, 1, -0.25, 1587, 1, -0.25
*EQUATION
5
3882, 2, 1.0, 106, 2, -0.25, 2507, 2, -0.25, 2555, 2, -0.25, 1587, 2, -0.25
*EQUATION
5
3882, 3, 1.0, 106, 3, -0.25, 2507, 3, -0.25, 2555, 3, -0.25, 1587, 3, -0.25
*EQUATION
3
3885, 1, 1.0, 1587, 1, -0.5, 2555, 1, -0.5
*EQUATION
3
3885, 2, 1.0, 1587, 2, -0.5, 2555, 2, -0.5
*EQUATION
3
3885, 3, 1.0, 1587, 3, -0.5, 2555, 3, -0.5
*EQUATION
3
3888, 1, 1.0, 2507, 1, -0.5, 2555, 1, -0.5
*EQUATION
3
3888, 2, 1.0, 2507, 2, -0.5, 2555, 2, -0.5
*EQUATION
3
3888, 3, 1.0, 2507, 3, -0.5, 2555, 3, -0.5
*EQUATION
5
3892, 1, 1.0, 1026, 1, -0.25, 1588, 1, -0.25, 1589, 1, -0.25, 108, 1, -0.25
*EQUATION
5
3892, 2, 1.0, 1026, 2, -0.25, 1588, 2, -0.25, 1589, 2, -0.25, 108, 2, -0.25
*EQUATION
5
3892, 3, 1.0, 1026, 3, -0.25, 1588, 3, -0.25, 1589, 3, -0.25, 108, 3, -0.25
*EQUATION
3
3893, 1, 1.0, 108, 1, -0.5, 1589, 1, -0.5
*EQUATION
3
3893, 2, 1.0, 108, 2, -0.5, 1589, 2, -0.5
*EQUATION
3
3893, 3, 1.0, 108, 3, -0.5, 1589, 3, -0.5
*EQUATION
3
3894, 1, 1.0, 1588, 1, -0.5, 1589, 1, -0.5
*EQUATION
3
3894, 2, 1.0, 1588, 2, -0.5, 1589, 2, -0.5
*EQUATION
3
3894, 3, 1.0, 1588, 3, -0.5, 1589, 3, -0.5
*EQUATION
5
3896, 1, 1.0, 108, 1, -0.25, 2509, 1, -0.25, 2557, 1, -0.25, 1589, 1, -0.25
*EQUATION
5
3896, 2, 1.0, 108, 2, -0.25, 2509, 2, -0.25, 2557, 2, -0.25, 1589, 2, -0.25
*EQUATION
5
3896, 3, 1.0, 108, 3, -0.25, 2509, 3, -0.25, 2557, 3, -0.25, 1589, 3, -0.25
*EQUATION
3
3898, 1, 1.0, 1589, 1, -0.5, 2557, 1, -0.5
*EQUATION
3
3898, 2, 1.0, 1589, 2, -0.5, 2557, 2, -0.5
*EQUATION
3
3898, 3, 1.0, 1589, 3, -0.5, 2557, 3, -0.5
*EQUATION
3
3900, 1, 1.0, 2509, 1, -0.5, 2557, 1, -0.5
*EQUATION
3
3900, 2, 1.0, 2509, 2, -0.5, 2557, 2, -0.5
*EQUATION
3
3900, 3, 1.0, 2509, 3, -0.5, 2557, 3, -0.5
*EQUATION
3
3902, 1, 1.0, 113, 1, -0.5, 1587, 1, -0.5
*EQUATION
3
3902, 2, 1.0, 113, 2, -0.5, 1587, 2, -0.5
*EQUATION
3
3902, 3, 1.0, 113, 3, -0.5, 1587, 3, -0.5
*EQUATION
5
3903, 1, 1.0, 1587, 1, -0.25, 113, 1, -0.25, 1590, 1, -0.25, 1588, 1, -0.25
*EQUATION
5
3903, 2, 1.0, 1587, 2, -0.25, 113, 2, -0.25, 1590, 2, -0.25, 1588, 2, -0.25
*EQUATION
5
3903, 3, 1.0, 1587, 3, -0.25, 113, 3, -0.25, 1590, 3, -0.25, 1588, 3, -0.25
*EQUATION
3
3904, 1, 1.0, 1588, 1, -0.5, 1590, 1, -0.5
*EQUATION
3
3904, 2, 1.0, 1588, 2, -0.5, 1590, 2, -0.5
*EQUATION
3
3904, 3, 1.0, 1588, 3, -0.5, 1590, 3, -0.5
*EQUATION
3
3905, 1, 1.0, 113, 1, -0.5, 1590, 1, -0.5
*EQUATION
3
3905, 2, 1.0, 113, 2, -0.5, 1590, 2, -0.5
*EQUATION
3
3905, 3, 1.0, 113, 3, -0.5, 1590, 3, -0.5
*EQUATION
5
3906, 1, 1.0, 1587, 1, -0.25, 2555, 1, -0.25, 2558, 1, -0.25, 113, 1, -0.25
*EQUATION
5
3906, 2, 1.0, 1587, 2, -0.25, 2555, 2, -0.25, 2558, 2, -0.25, 113, 2, -0.25
*EQUATION
5
3906, 3, 1.0, 1587, 3, -0.25, 2555, 3, -0.25, 2558, 3, -0.25, 113, 3, -0.25
*EQUATION
3
3909, 1, 1.0, 113, 1, -0.5, 2558, 1, -0.5
*EQUATION
3
3909, 2, 1.0, 113, 2, -0.5, 2558, 2, -0.5
*EQUATION
3
3909, 3, 1.0, 113, 3, -0.5, 2558, 3, -0.5
*EQUATION
3
3912, 1, 1.0, 2555, 1, -0.5, 2558, 1, -0.5
*EQUATION
3
3912, 2, 1.0, 2555, 2, -0.5, 2558, 2, -0.5
*EQUATION
3
3912, 3, 1.0, 2555, 3, -0.5, 2558, 3, -0.5
*EQUATION
5
3916, 1, 1.0, 1588, 1, -0.25, 1590, 1, -0.25, 114, 1, -0.25, 1589, 1, -0.25
*EQUATION
5
3916, 2, 1.0, 1588, 2, -0.25, 1590, 2, -0.25, 114, 2, -0.25, 1589, 2, -0.25
*EQUATION
5
3916, 3, 1.0, 1588, 3, -0.25, 1590, 3, -0.25, 114, 3, -0.25, 1589, 3, -0.25
*EQUATION
3
3917, 1, 1.0, 114, 1, -0.5, 1589, 1, -0.5
*EQUATION
3
3917, 2, 1.0, 114, 2, -0.5, 1589, 2, -0.5
*EQUATION
3
3917, 3, 1.0, 114, 3, -0.5, 1589, 3, -0.5
*EQUATION
3
3918, 1, 1.0, 114, 1, -0.5, 1590, 1, -0.5
*EQUATION
3
3918, 2, 1.0, 114, 2, -0.5, 1590, 2, -0.5
*EQUATION
3
3918, 3, 1.0, 114, 3, -0.5, 1590, 3, -0.5
*EQUATION
5
3920, 1, 1.0, 1589, 1, -0.25, 2557, 1, -0.25, 2560, 1, -0.25, 114, 1, -0.25
*EQUATION
5
3920, 2, 1.0, 1589, 2, -0.25, 2557, 2, -0.25, 2560, 2, -0.25, 114, 2, -0.25
*EQUATION
5
3920, 3, 1.0, 1589, 3, -0.25, 2557, 3, -0.25, 2560, 3, -0.25, 114, 3, -0.25
*EQUATION
3
3922, 1, 1.0, 114, 1, -0.5, 2560, 1, -0.5
*EQUATION
3
3922, 2, 1.0, 114, 2, -0.5, 2560, 2, -0.5
*EQUATION
3
3922, 3, 1.0, 114, 3, -0.5, 2560, 3, -0.5
*EQUATION
3
3924, 1, 1.0, 2557, 1, -0.5, 2560, 1, -0.5
*EQUATION
3
3924, 2, 1.0, 2557, 2, -0.5, 2560, 2, -0.5
*EQUATION
3
3924, 3, 1.0, 2557, 3, -0.5, 2560, 3, -0.5
*EQUATION
5
3926, 1, 1.0, 2507, 1, -0.25, 154, 1, -0.25, 2561, 1, -0.25, 2555, 1, -0.25
*EQUATION
5
3926, 2, 1.0, 2507, 2, -0.25, 154, 2, -0.25, 2561, 2, -0.25, 2555, 2, -0.25
*EQUATION
5
3926, 3, 1.0, 2507, 3, -0.25, 154, 3, -0.25, 2561, 3, -0.25, 2555, 3, -0.25
*EQUATION
3
3929, 1, 1.0, 2555, 1, -0.5, 2561, 1, -0.5
*EQUATION
3
3929, 2, 1.0, 2555, 2, -0.5, 2561, 2, -0.5
*EQUATION
3
3929, 3, 1.0, 2555, 3, -0.5, 2561, 3, -0.5
*EQUATION
3
3932, 1, 1.0, 154, 1, -0.5, 2561, 1, -0.5
*EQUATION
3
3932, 2, 1.0, 154, 2, -0.5, 2561, 2, -0.5
*EQUATION
3
3932, 3, 1.0, 154, 3, -0.5, 2561, 3, -0.5
*EQUATION
3
3934, 1, 1.0, 2514, 1, -0.5, 2562, 1, -0.5
*EQUATION
3
3934, 2, 1.0, 2514, 2, -0.5, 2562, 2, -0.5
*EQUATION
3
3934, 3, 1.0, 2514, 3, -0.5, 2562, 3, -0.5
*EQUATION
3
3939, 1, 1.0, 2557, 1, -0.5, 2563, 1, -0.5
*EQUATION
3
3939, 2, 1.0, 2557, 2, -0.5, 2563, 2, -0.5
*EQUATION
3
3939, 3, 1.0, 2557, 3, -0.5, 2563, 3, -0.5
*EQUATION
5
3940, 1, 1.0, 2514, 1, -0.25, 2562, 1, -0.25, 2563, 1, -0.25, 156, 1, -0.25
*EQUATION
5
3940, 2, 1.0, 2514, 2, -0.25, 2562, 2, -0.25, 2563, 2, -0.25, 156, 2, -0.25
*EQUATION
5
3940, 3, 1.0, 2514, 3, -0.25, 2562, 3, -0.25, 2563, 3, -0.25, 156, 3, -0.25
*EQUATION
3
3941, 1, 1.0, 156, 1, -0.5, 2563, 1, -0.5
*EQUATION
3
3941, 2, 1.0, 156, 2, -0.5, 2563, 2, -0.5
*EQUATION
3
3941, 3, 1.0, 156, 3, -0.5, 2563, 3, -0.5
*EQUATION
3
3942, 1, 1.0, 2562, 1, -0.5, 2563, 1, -0.5
*EQUATION
3
3942, 2, 1.0, 2562, 2, -0.5, 2563, 2, -0.5
*EQUATION
3
3942, 3, 1.0, 2562, 3, -0.5, 2563, 3, -0.5
*EQUATION
5
3943, 1, 1.0, 2555, 1, -0.25, 2561, 1, -0.25, 161, 1, -0.25, 2558, 1, -0.25
*EQUATION
5
3943, 2, 1.0, 2555, 2, -0.25, 2561, 2, -0.25, 161, 2, -0.25, 2558, 2, -0.25
*EQUATION
5
3943, 3, 1.0, 2555, 3, -0.25, 2561, 3, -0.25, 161, 3, -0.25, 2558, 3, -0.25
*EQUATION
3
3946, 1, 1.0, 161, 1, -0.5, 2558, 1, -0.5
*EQUATION
3
3946, 2, 1.0, 161, 2, -0.5, 2558, 2, -0.5
*EQUATION
3
3946, 3, 1.0, 161, 3, -0.5, 2558, 3, -0.5
*EQUATION
3
3949, 1, 1.0, 161, 1, -0.5, 2561, 1, -0.5
*EQUATION
3
3949, 2, 1.0, 161, 2, -0.5, 2561, 2, -0.5
*EQUATION
3
3949, 3, 1.0, 161, 3, -0.5, 2561, 3, -0.5
*EQUATION
3
3951, 1, 1.0, 2562, 1, -0.5, 2564, 1, -0.5
*EQUATION
3
3951, 2, 1.0, 2562, 2, -0.5, 2564, 2, -0.5
*EQUATION
3
3951, 3, 1.0, 2562, 3, -0.5, 2564, 3, -0.5
*EQUATION
5
3954, 1, 1.0, 2557, 1, -0.25, 2563, 1, -0.25, 162, 1, -0.25, 2560, 1, -0.25
*EQUATION
5
3954, 2, 1.0, 2557, 2, -0.25, 2563, 2, -0.25, 162, 2, -0.25, 2560, 2, -0.25
*EQUATION
5
3954, 3, 1.0, 2557, 3, -0.25, 2563, 3, -0.25, 162, 3, -0.25, 2560, 3, -0.25
*EQUATION
3
3956, 1, 1.0, 162, 1, -0.5, 2560, 1, -0.5
*EQUATION
3
3956, 2, 1.0, 162, 2, -0.5, 2560, 2, -0.5
*EQUATION
3
3956, 3, 1.0, 162, 3, -0.5, 2560, 3, -0.5
*EQUATION
5
3957, 1, 1.0, 2562, 1, -0.25, 2564, 1, -0.25, 162, 1, -0.25, 2563, 1, -0.25
*EQUATION
5
3957, 2, 1.0, 2562, 2, -0.25, 2564, 2, -0.25, 162, 2, -0.25, 2563, 2, -0.25
*EQUATION
5
3957, 3, 1.0, 2562, 3, -0.25, 2564, 3, -0.25, 162, 3, -0.25, 2563, 3, -0.25
*EQUATION
3
3958, 1, 1.0, 162, 1, -0.5, 2563, 1, -0.5
*EQUATION
3
3958, 2, 1.0, 162, 2, -0.5, 2563, 2, -0.5
*EQUATION
3
3958, 3, 1.0, 162, 3, -0.5, 2563, 3, -0.5
*EQUATION
3
3959, 1, 1.0, 162, 1, -0.5, 2564, 1, -0.5
*EQUATION
3
3959, 2, 1.0, 162, 2, -0.5, 2564, 2, -0.5
*EQUATION
3
3959, 3, 1.0, 162, 3, -0.5, 2564, 3, -0.5
*EQUATION
3
3960, 1, 1.0, 118, 1, -0.5, 166, 1, -0.5
*EQUATION
3
3960, 2, 1.0, 118, 2, -0.5, 166, 2, -0.5
*EQUATION
3
3960, 3, 1.0, 118, 3, -0.5, 166, 3, -0.5
*EQUATION
3
3974, 1, 1.0, 1098, 1, -0.5, 1099, 1, -0.5
*EQUATION
3
3974, 2, 1.0, 1098, 2, -0.5, 1099, 2, -0.5
*EQUATION
3
3974, 3, 1.0, 1098, 3, -0.5, 1099, 3, -0.5
*EQUATION
3
3975, 1, 1.0, 1098, 1, -0.5, 1100, 1, -0.5
*EQUATION
3
3975, 2, 1.0, 1098, 2, -0.5, 1100, 2, -0.5
*EQUATION
3
3975, 3, 1.0, 1098, 3, -0.5, 1100, 3, -0.5
*EQUATION
5
3976, 1, 1.0, 1098, 1, -0.25, 1100, 1, -0.25, 126, 1, -0.25, 1099, 1, -0.25
*EQUATION
5
3976, 2, 1.0, 1098, 2, -0.25, 1100, 2, -0.25, 126, 2, -0.25, 1099, 2, -0.25
*EQUATION
5
3976, 3, 1.0, 1098, 3, -0.25, 1100, 3, -0.25, 126, 3, -0.25, 1099, 3, -0.25
*EQUATION
3
3977, 1, 1.0, 126, 1, -0.5, 1099, 1, -0.5
*EQUATION
3
3977, 2, 1.0, 126, 2, -0.5, 1099, 2, -0.5
*EQUATION
3
3977, 3, 1.0, 126, 3, -0.5, 1099, 3, -0.5
*EQUATION
3
3978, 1, 1.0, 126, 1, -0.5, 1100, 1, -0.5
*EQUATION
3
3978, 2, 1.0, 126, 2, -0.5, 1100, 2, -0.5
*EQUATION
3
3978, 3, 1.0, 126, 3, -0.5, 1100, 3, -0.5
*EQUATION
3
3979, 1, 1.0, 1098, 1, -0.5, 2931, 1, -0.5
*EQUATION
3
3979, 2, 1.0, 1098, 2, -0.5, 2931, 2, -0.5
*EQUATION
3
3979, 3, 1.0, 1098, 3, -0.5, 2931, 3, -0.5
*EQUATION
5
3982, 1, 1.0, 1098, 1, -0.25, 2931, 1, -0.25, 2934, 1, -0.25, 1100, 1, -0.25
*EQUATION
5
3982, 2, 1.0, 1098, 2, -0.25, 2931, 2, -0.25, 2934, 2, -0.25, 1100, 2, -0.25
*EQUATION
5
3982, 3, 1.0, 1098, 3, -0.25, 2931, 3, -0.25, 2934, 3, -0.25, 1100, 3, -0.25
*EQUATION
3
3985, 1, 1.0, 1100, 1, -0.5, 2934, 1, -0.5
*EQUATION
3
3985, 2, 1.0, 1100, 2, -0.5, 2934, 2, -0.5
*EQUATION
3
3985, 3, 1.0, 1100, 3, -0.5, 2934, 3, -0.5
*EQUATION
3
3989, 1, 1.0, 2931, 1, -0.5, 2934, 1, -0.5
*EQUATION
3
3989, 2, 1.0, 2931, 2, -0.5, 2934, 2, -0.5
*EQUATION
3
3989, 3, 1.0, 2931, 3, -0.5, 2934, 3, -0.5
*EQUATION
3
3993, 1, 1.0, 2931, 1, -0.5, 2938, 1, -0.5
*EQUATION
3
3993, 2, 1.0, 2931, 2, -0.5, 2938, 2, -0.5
*EQUATION
3
3993, 3, 1.0, 2931, 3, -0.5, 2938, 3, -0.5
*EQUATION
5
3996, 1, 1.0, 2931, 1, -0.25, 2938, 1, -0.25, 2940, 1, -0.25, 2934, 1, -0.25
*EQUATION
5
3996, 2, 1.0, 2931, 2, -0.25, 2938, 2, -0.25, 2940, 2, -0.25, 2934, 2, -0.25
*EQUATION
5
3996, 3, 1.0, 2931, 3, -0.25, 2938, 3, -0.25, 2940, 3, -0.25, 2934, 3, -0.25
*EQUATION
3
3999, 1, 1.0, 2934, 1, -0.5, 2940, 1, -0.5
*EQUATION
3
3999, 2, 1.0, 2934, 2, -0.5, 2940, 2, -0.5
*EQUATION
3
3999, 3, 1.0, 2934, 3, -0.5, 2940, 3, -0.5
*EQUATION
3
4002, 1, 1.0, 2938, 1, -0.5, 2939, 1, -0.5
*EQUATION
3
4002, 2, 1.0, 2938, 2, -0.5, 2939, 2, -0.5
*EQUATION
3
4002, 3, 1.0, 2938, 3, -0.5, 2939, 3, -0.5
*EQUATION
3
4003, 1, 1.0, 2938, 1, -0.5, 2940, 1, -0.5
*EQUATION
3
4003, 2, 1.0, 2938, 2, -0.5, 2940, 2, -0.5
*EQUATION
3
4003, 3, 1.0, 2938, 3, -0.5, 2940, 3, -0.5
*EQUATION
5
4004, 1, 1.0, 2938, 1, -0.25, 2940, 1, -0.25, 174, 1, -0.25, 2939, 1, -0.25
*EQUATION
5
4004, 2, 1.0, 2938, 2, -0.25, 2940, 2, -0.25, 174, 2, -0.25, 2939, 2, -0.25
*EQUATION
5
4004, 3, 1.0, 2938, 3, -0.25, 2940, 3, -0.25, 174, 3, -0.25, 2939, 3, -0.25
*EQUATION
3
4005, 1, 1.0, 174, 1, -0.5, 2939, 1, -0.5
*EQUATION
3
4005, 2, 1.0, 174, 2, -0.5, 2939, 2, -0.5
*EQUATION
3
4005, 3, 1.0, 174, 3, -0.5, 2939, 3, -0.5
*EQUATION
3
4006, 1, 1.0, 174, 1, -0.5, 2940, 1, -0.5
*EQUATION
3
4006, 2, 1.0, 174, 2, -0.5, 2940, 2, -0.5
*EQUATION
3
4006, 3, 1.0, 174, 3, -0.5, 2940, 3, -0.5
*EQUATION
3
4007, 1, 1.0, 1664, 1, -0.5, 2943, 1, -0.5
*EQUATION
3
4007, 2, 1.0, 1664, 2, -0.5, 2943, 2, -0.5
*EQUATION
3
4007, 3, 1.0, 1664, 3, -0.5, 2943, 3, -0.5
*EQUATION
5
4008, 1, 1.0, 1664, 1, -0.25, 2943, 1, -0.25, 2944, 1, -0.25, 1665, 1, -0.25
*EQUATION
5
4008, 2, 1.0, 1664, 2, -0.25, 2943, 2, -0.25, 2944, 2, -0.25, 1665, 2, -0.25
*EQUATION
5
4008, 3, 1.0, 1664, 3, -0.25, 2943, 3, -0.25, 2944, 3, -0.25, 1665, 3, -0.25
*EQUATION
3
4009, 1, 1.0, 1665, 1, -0.5, 2944, 1, -0.5
*EQUATION
3
4009, 2, 1.0, 1665, 2, -0.5, 2944, 2, -0.5
*EQUATION
3
4009, 3, 1.0, 1665, 3, -0.5, 2944, 3, -0.5
*EQUATION
5
4013, 1, 1.0, 107, 1, -0.25, 2503, 1, -0.25, 2946, 1, -0.25, 1666, 1, -0.25
*EQUATION
5
4013, 2, 1.0, 107, 2, -0.25, 2503, 2, -0.25, 2946, 2, -0.25, 1666, 2, -0.25
*EQUATION
5
4013, 3, 1.0, 107, 3, -0.25, 2503, 3, -0.25, 2946, 3, -0.25, 1666, 3, -0.25
*EQUATION
3
4014, 1, 1.0, 1666, 1, -0.5, 2946, 1, -0.5
*EQUATION
3
4014, 2, 1.0, 1666, 2, -0.5, 2946, 2, -0.5
*EQUATION
3
4014, 3, 1.0, 1666, 3, -0.5, 2946, 3, -0.5
*EQUATION
3
4015, 1, 1.0, 2943, 1, -0.5, 2944, 1, -0.5
*EQUATION
3
4015, 2, 1.0, 2943, 2, -0.5, 2944, 2, -0.5
*EQUATION
3
4015, 3, 1.0, 2943, 3, -0.5, 2944, 3, -0.5
*EQUATION
3
4019, 1, 1.0, 2503, 1, -0.5, 2946, 1, -0.5
*EQUATION
3
4019, 2, 1.0, 2503, 2, -0.5, 2946, 2, -0.5
*EQUATION
3
4019, 3, 1.0, 2503, 3, -0.5, 2946, 3, -0.5
*EQUATION
3
4020, 1, 1.0, 1111, 1, -0.5, 1665, 1, -0.5
*EQUATION
3
4020, 2, 1.0, 1111, 2, -0.5, 1665, 2, -0.5
*EQUATION
3
4020, 3, 1.0, 1111, 3, -0.5, 1665, 3, -0.5
*EQUATION
5
4021, 1, 1.0, 1665, 1, -0.25, 1666, 1, -0.25, 127, 1, -0.25, 1111, 1, -0.25
*EQUATION
5
4021, 2, 1.0, 1665, 2, -0.25, 1666, 2, -0.25, 127, 2, -0.25, 1111, 2, -0.25
*EQUATION
5
4021, 3, 1.0, 1665, 3, -0.25, 1666, 3, -0.25, 127, 3, -0.25, 1111, 3, -0.25
*EQUATION
3
4022, 1, 1.0, 127, 1, -0.5, 1111, 1, -0.5
*EQUATION
3
4022, 2, 1.0, 127, 2, -0.5, 1111, 2, -0.5
*EQUATION
3
4022, 3, 1.0, 127, 3, -0.5, 1111, 3, -0.5
*EQUATION
3
4023, 1, 1.0, 127, 1, -0.5, 1666, 1, -0.5
*EQUATION
3
4023, 2, 1.0, 127, 2, -0.5, 1666, 2, -0.5
*EQUATION
3
4023, 3, 1.0, 127, 3, -0.5, 1666, 3, -0.5
*EQUATION
5
4024, 1, 1.0, 1665, 1, -0.25, 2944, 1, -0.25, 2945, 1, -0.25, 1111, 1, -0.25
*EQUATION
5
4024, 2, 1.0, 1665, 2, -0.25, 2944, 2, -0.25, 2945, 2, -0.25, 1111, 2, -0.25
*EQUATION
5
4024, 3, 1.0, 1665, 3, -0.25, 2944, 3, -0.25, 2945, 3, -0.25, 1111, 3, -0.25
*EQUATION
3
4025, 1, 1.0, 1111, 1, -0.5, 2945, 1, -0.5
*EQUATION
3
4025, 2, 1.0, 1111, 2, -0.5, 2945, 2, -0.5
*EQUATION
3
4025, 3, 1.0, 1111, 3, -0.5, 2945, 3, -0.5
*EQUATION
5
4027, 1, 1.0, 1111, 1, -0.25, 2945, 1, -0.25, 2947, 1, -0.25, 127, 1, -0.25
*EQUATION
5
4027, 2, 1.0, 1111, 2, -0.25, 2945, 2, -0.25, 2947, 2, -0.25, 127, 2, -0.25
*EQUATION
5
4027, 3, 1.0, 1111, 3, -0.25, 2945, 3, -0.25, 2947, 3, -0.25, 127, 3, -0.25
*EQUATION
5
4028, 1, 1.0, 1666, 1, -0.25, 2946, 1, -0.25, 2947, 1, -0.25, 127, 1, -0.25
*EQUATION
5
4028, 2, 1.0, 1666, 2, -0.25, 2946, 2, -0.25, 2947, 2, -0.25, 127, 2, -0.25
*EQUATION
5
4028, 3, 1.0, 1666, 3, -0.25, 2946, 3, -0.25, 2947, 3, -0.25, 127, 3, -0.25
*EQUATION
3
4029, 1, 1.0, 127, 1, -0.5, 2947, 1, -0.5
*EQUATION
3
4029, 2, 1.0, 127, 2, -0.5, 2947, 2, -0.5
*EQUATION
3
4029, 3, 1.0, 127, 3, -0.5, 2947, 3, -0.5
*EQUATION
3
4030, 1, 1.0, 2944, 1, -0.5, 2945, 1, -0.5
*EQUATION
3
4030, 2, 1.0, 2944, 2, -0.5, 2945, 2, -0.5
*EQUATION
3
4030, 3, 1.0, 2944, 3, -0.5, 2945, 3, -0.5
*EQUATION
3
4032, 1, 1.0, 2945, 1, -0.5, 2947, 1, -0.5
*EQUATION
3
4032, 2, 1.0, 2945, 2, -0.5, 2947, 2, -0.5
*EQUATION
3
4032, 3, 1.0, 2945, 3, -0.5, 2947, 3, -0.5
*EQUATION
3
4033, 1, 1.0, 2946, 1, -0.5, 2947, 1, -0.5
*EQUATION
3
4033, 2, 1.0, 2946, 2, -0.5, 2947, 2, -0.5
*EQUATION
3
4033, 3, 1.0, 2946, 3, -0.5, 2947, 3, -0.5
*EQUATION
3
4034, 1, 1.0, 2943, 1, -0.5, 2949, 1, -0.5
*EQUATION
3
4034, 2, 1.0, 2943, 2, -0.5, 2949, 2, -0.5
*EQUATION
3
4034, 3, 1.0, 2943, 3, -0.5, 2949, 3, -0.5
*EQUATION
5
4035, 1, 1.0, 2943, 1, -0.25, 2949, 1, -0.25, 2950, 1, -0.25, 2944, 1, -0.25
*EQUATION
5
4035, 2, 1.0, 2943, 2, -0.25, 2949, 2, -0.25, 2950, 2, -0.25, 2944, 2, -0.25
*EQUATION
5
4035, 3, 1.0, 2943, 3, -0.25, 2949, 3, -0.25, 2950, 3, -0.25, 2944, 3, -0.25
*EQUATION
3
4036, 1, 1.0, 2944, 1, -0.5, 2950, 1, -0.5
*EQUATION
3
4036, 2, 1.0, 2944, 2, -0.5, 2950, 2, -0.5
*EQUATION
3
4036, 3, 1.0, 2944, 3, -0.5, 2950, 3, -0.5
*EQUATION
5
4040, 1, 1.0, 2503, 1, -0.25, 155, 1, -0.25, 2952, 1, -0.25, 2946, 1, -0.25
*EQUATION
5
4040, 2, 1.0, 2503, 2, -0.25, 155, 2, -0.25, 2952, 2, -0.25, 2946, 2, -0.25
*EQUATION
5
4040, 3, 1.0, 2503, 3, -0.25, 155, 3, -0.25, 2952, 3, -0.25, 2946, 3, -0.25
*EQUATION
3
4041, 1, 1.0, 2946, 1, -0.5, 2952, 1, -0.5
*EQUATION
3
4041, 2, 1.0, 2946, 2, -0.5, 2952, 2, -0.5
*EQUATION
3
4041, 3, 1.0, 2946, 3, -0.5, 2952, 3, -0.5
*EQUATION
3
4042, 1, 1.0, 2949, 1, -0.5, 2950, 1, -0.5
*EQUATION
3
4042, 2, 1.0, 2949, 2, -0.5, 2950, 2, -0.5
*EQUATION
3
4042, 3, 1.0, 2949, 3, -0.5, 2950, 3, -0.5
*EQUATION
3
4043, 1, 1.0, 155, 1, -0.5, 2949, 1, -0.5
*EQUATION
3
4043, 2, 1.0, 155, 2, -0.5, 2949, 2, -0.5
*EQUATION
3
4043, 3, 1.0, 155, 3, -0.5, 2949, 3, -0.5
*EQUATION
5
4044, 1, 1.0, 2949, 1, -0.25, 155, 1, -0.25, 2952, 1, -0.25, 2950, 1, -0.25
*EQUATION
5
4044, 2, 1.0, 2949, 2, -0.25, 155, 2, -0.25, 2952, 2, -0.25, 2950, 2, -0.25
*EQUATION
5
4044, 3, 1.0, 2949, 3, -0.25, 155, 3, -0.25, 2952, 3, -0.25, 2950, 3, -0.25
*EQUATION
3
4045, 1, 1.0, 2950, 1, -0.5, 2952, 1, -0.5
*EQUATION
3
4045, 2, 1.0, 2950, 2, -0.5, 2952, 2, -0.5
*EQUATION
3
4045, 3, 1.0, 2950, 3, -0.5, 2952, 3, -0.5
*EQUATION
3
4046, 1, 1.0, 155, 1, -0.5, 2952, 1, -0.5
*EQUATION
3
4046, 2, 1.0, 155, 2, -0.5, 2952, 2, -0.5
*EQUATION
3
4046, 3, 1.0, 155, 3, -0.5, 2952, 3, -0.5
*EQUATION
5
4047, 1, 1.0, 2944, 1, -0.25, 2950, 1, -0.25, 2951, 1, -0.25, 2945, 1, -0.25
*EQUATION
5
4047, 2, 1.0, 2944, 2, -0.25, 2950, 2, -0.25, 2951, 2, -0.25, 2945, 2, -0.25
*EQUATION
5
4047, 3, 1.0, 2944, 3, -0.25, 2950, 3, -0.25, 2951, 3, -0.25, 2945, 3, -0.25
*EQUATION
3
4048, 1, 1.0, 2945, 1, -0.5, 2951, 1, -0.5
*EQUATION
3
4048, 2, 1.0, 2945, 2, -0.5, 2951, 2, -0.5
*EQUATION
3
4048, 3, 1.0, 2945, 3, -0.5, 2951, 3, -0.5
*EQUATION
5
4050, 1, 1.0, 2945, 1, -0.25, 2951, 1, -0.25, 175, 1, -0.25, 2947, 1, -0.25
*EQUATION
5
4050, 2, 1.0, 2945, 2, -0.25, 2951, 2, -0.25, 175, 2, -0.25, 2947, 2, -0.25
*EQUATION
5
4050, 3, 1.0, 2945, 3, -0.25, 2951, 3, -0.25, 175, 3, -0.25, 2947, 3, -0.25
*EQUATION
5
4051, 1, 1.0, 2946, 1, -0.25, 2952, 1, -0.25, 175, 1, -0.25, 2947, 1, -0.25
*EQUATION
5
4051, 2, 1.0, 2946, 2, -0.25, 2952, 2, -0.25, 175, 2, -0.25, 2947, 2, -0.25
*EQUATION
5
4051, 3, 1.0, 2946, 3, -0.25, 2952, 3, -0.25, 175, 3, -0.25, 2947, 3, -0.25
*EQUATION
3
4052, 1, 1.0, 175, 1, -0.5, 2947, 1, -0.5
*EQUATION
3
4052, 2, 1.0, 175, 2, -0.5, 2947, 2, -0.5
*EQUATION
3
4052, 3, 1.0, 175, 3, -0.5, 2947, 3, -0.5
*EQUATION
3
4053, 1, 1.0, 2950, 1, -0.5, 2951, 1, -0.5
*EQUATION
3
4053, 2, 1.0, 2950, 2, -0.5, 2951, 2, -0.5
*EQUATION
3
4053, 3, 1.0, 2950, 3, -0.5, 2951, 3, -0.5
*EQUATION
5
4054, 1, 1.0, 2950, 1, -0.25, 2952, 1, -0.25, 175, 1, -0.25, 2951, 1, -0.25
*EQUATION
5
4054, 2, 1.0, 2950, 2, -0.25, 2952, 2, -0.25, 175, 2, -0.25, 2951, 2, -0.25
*EQUATION
5
4054, 3, 1.0, 2950, 3, -0.25, 2952, 3, -0.25, 175, 3, -0.25, 2951, 3, -0.25
*EQUATION
3
4055, 1, 1.0, 175, 1, -0.5, 2951, 1, -0.5
*EQUATION
3
4055, 2, 1.0, 175, 2, -0.5, 2951, 2, -0.5
*EQUATION
3
4055, 3, 1.0, 175, 3, -0.5, 2951, 3, -0.5
*EQUATION
3
4056, 1, 1.0, 175, 1, -0.5, 2952, 1, -0.5
*EQUATION
3
4056, 2, 1.0, 175, 2, -0.5, 2952, 2, -0.5
*EQUATION
3
4056, 3, 1.0, 175, 3, -0.5, 2952, 3, -0.5
*EQUATION
3
4057, 1, 1.0, 125, 1, -0.5, 1100, 1, -0.5
*EQUATION
3
4057, 2, 1.0, 125, 2, -0.5, 1100, 2, -0.5
*EQUATION
3
4057, 3, 1.0, 125, 3, -0.5, 1100, 3, -0.5
*EQUATION
3
4058, 1, 1.0, 125, 1, -0.5, 1111, 1, -0.5
*EQUATION
3
4058, 2, 1.0, 125, 2, -0.5, 1111, 2, -0.5
*EQUATION
3
4058, 3, 1.0, 125, 3, -0.5, 1111, 3, -0.5
*EQUATION
5
4059, 1, 1.0, 125, 1, -0.25, 1111, 1, -0.25, 1112, 1, -0.25, 1100, 1, -0.25
*EQUATION
5
4059, 2, 1.0, 125, 2, -0.25, 1111, 2, -0.25, 1112, 2, -0.25, 1100, 2, -0.25
*EQUATION
5
4059, 3, 1.0, 125, 3, -0.25, 1111, 3, -0.25, 1112, 3, -0.25, 1100, 3, -0.25
*EQUATION
3
4060, 1, 1.0, 1100, 1, -0.5, 1112, 1, -0.5
*EQUATION
3
4060, 2, 1.0, 1100, 2, -0.5, 1112, 2, -0.5
*EQUATION
3
4060, 3, 1.0, 1100, 3, -0.5, 1112, 3, -0.5
*EQUATION
3
4061, 1, 1.0, 1111, 1, -0.5, 1112, 1, -0.5
*EQUATION
3
4061, 2, 1.0, 1111, 2, -0.5, 1112, 2, -0.5
*EQUATION
3
4061, 3, 1.0, 1111, 3, -0.5, 1112, 3, -0.5
*EQUATION
3
4062, 1, 1.0, 125, 1, -0.5, 2933, 1, -0.5
*EQUATION
3
4062, 2, 1.0, 125, 2, -0.5, 2933, 2, -0.5
*EQUATION
3
4062, 3, 1.0, 125, 3, -0.5, 2933, 3, -0.5
*EQUATION
5
4063, 1, 1.0, 125, 1, -0.25, 2933, 1, -0.25, 2934, 1, -0.25, 1100, 1, -0.25
*EQUATION
5
4063, 2, 1.0, 125, 2, -0.25, 2933, 2, -0.25, 2934, 2, -0.25, 1100, 2, -0.25
*EQUATION
5
4063, 3, 1.0, 125, 3, -0.25, 2933, 3, -0.25, 2934, 3, -0.25, 1100, 3, -0.25
*EQUATION
5
4064, 1, 1.0, 125, 1, -0.25, 2933, 1, -0.25, 2945, 1, -0.25, 1111, 1, -0.25
*EQUATION
5
4064, 2, 1.0, 125, 2, -0.25, 2933, 2, -0.25, 2945, 2, -0.25, 1111, 2, -0.25
*EQUATION
5
4064, 3, 1.0, 125, 3, -0.25, 2933, 3, -0.25, 2945, 3, -0.25, 1111, 3, -0.25
*EQUATION
5
4067, 1, 1.0, 1111, 1, -0.25, 2945, 1, -0.25, 2953, 1, -0.25, 1112, 1, -0.25
*EQUATION
5
4067, 2, 1.0, 1111, 2, -0.25, 2945, 2, -0.25, 2953, 2, -0.25, 1112, 2, -0.25
*EQUATION
5
4067, 3, 1.0, 1111, 3, -0.25, 2945, 3, -0.25, 2953, 3, -0.25, 1112, 3, -0.25
*EQUATION
3
4068, 1, 1.0, 1112, 1, -0.5, 2953, 1, -0.5
*EQUATION
3
4068, 2, 1.0, 1112, 2, -0.5, 2953, 2, -0.5
*EQUATION
3
4068, 3, 1.0, 1112, 3, -0.5, 2953, 3, -0.5
*EQUATION
3
4069, 1, 1.0, 2933, 1, -0.5, 2934, 1, -0.5
*EQUATION
3
4069, 2, 1.0, 2933, 2, -0.5, 2934, 2, -0.5
*EQUATION
3
4069, 3, 1.0, 2933, 3, -0.5, 2934, 3, -0.5
*EQUATION
3
4070, 1, 1.0, 2933, 1, -0.5, 2945, 1, -0.5
*EQUATION
3
4070, 2, 1.0, 2933, 2, -0.5, 2945, 2, -0.5
*EQUATION
3
4070, 3, 1.0, 2933, 3, -0.5, 2945, 3, -0.5
*EQUATION
3
4073, 1, 1.0, 2945, 1, -0.5, 2953, 1, -0.5
*EQUATION
3
4073, 2, 1.0, 2945, 2, -0.5, 2953, 2, -0.5
*EQUATION
3
4073, 3, 1.0, 2945, 3, -0.5, 2953, 3, -0.5
*EQUATION
5
4074, 1, 1.0, 1100, 1, -0.25, 1112, 1, -0.25, 1113, 1, -0.25, 126, 1, -0.25
*EQUATION
5
4074, 2, 1.0, 1100, 2, -0.25, 1112, 2, -0.25, 1113, 2, -0.25, 126, 2, -0.25
*EQUATION
5
4074, 3, 1.0, 1100, 3, -0.25, 1112, 3, -0.25, 1113, 3, -0.25, 126, 3, -0.25
*EQUATION
3
4075, 1, 1.0, 126, 1, -0.5, 1113, 1, -0.5
*EQUATION
3
4075, 2, 1.0, 126, 2, -0.5, 1113, 2, -0.5
*EQUATION
3
4075, 3, 1.0, 126, 3, -0.5, 1113, 3, -0.5
*EQUATION
5
4078, 1, 1.0, 1112, 1, -0.25, 2953, 1, -0.25, 2954, 1, -0.25, 1113, 1, -0.25
*EQUATION
5
4078, 2, 1.0, 1112, 2, -0.25, 2953, 2, -0.25, 2954, 2, -0.25, 1113, 2, -0.25
*EQUATION
5
4078, 3, 1.0, 1112, 3, -0.25, 2953, 3, -0.25, 2954, 3, -0.25, 1113, 3, -0.25
*EQUATION
3
4079, 1, 1.0, 1113, 1, -0.5, 2954, 1, -0.5
*EQUATION
3
4079, 2, 1.0, 1113, 2, -0.5, 2954, 2, -0.5
*EQUATION
3
4079, 3, 1.0, 1113, 3, -0.5, 2954, 3, -0.5
*EQUATION
3
4082, 1, 1.0, 2953, 1, -0.5, 2954, 1, -0.5
*EQUATION
3
4082, 2, 1.0, 2953, 2, -0.5, 2954, 2, -0.5
*EQUATION
3
4082, 3, 1.0, 2953, 3, -0.5, 2954, 3, -0.5
*EQUATION
3
4083, 1, 1.0, 173, 1, -0.5, 2933, 1, -0.5
*EQUATION
3
4083, 2, 1.0, 173, 2, -0.5, 2933, 2, -0.5
*EQUATION
3
4083, 3, 1.0, 173, 3, -0.5, 2933, 3, -0.5
*EQUATION
5
4084, 1, 1.0, 2933, 1, -0.25, 173, 1, -0.25, 2940, 1, -0.25, 2934, 1, -0.25
*EQUATION
5
4084, 2, 1.0, 2933, 2, -0.25, 173, 2, -0.25, 2940, 2, -0.25, 2934, 2, -0.25
*EQUATION
5
4084, 3, 1.0, 2933, 3, -0.25, 173, 3, -0.25, 2940, 3, -0.25, 2934, 3, -0.25
*EQUATION
5
4085, 1, 1.0, 2933, 1, -0.25, 173, 1, -0.25, 2951, 1, -0.25, 2945, 1, -0.25
*EQUATION
5
4085, 2, 1.0, 2933, 2, -0.25, 173, 2, -0.25, 2951, 2, -0.25, 2945, 2, -0.25
*EQUATION
5
4085, 3, 1.0, 2933, 3, -0.25, 173, 3, -0.25, 2951, 3, -0.25, 2945, 3, -0.25
*EQUATION
5
4088, 1, 1.0, 2945, 1, -0.25, 2951, 1, -0.25, 2957, 1, -0.25, 2953, 1, -0.25
*EQUATION
5
4088, 2, 1.0, 2945, 2, -0.25, 2951, 2, -0.25, 2957, 2, -0.25, 2953, 2, -0.25
*EQUATION
5
4088, 3, 1.0, 2945, 3, -0.25, 2951, 3, -0.25, 2957, 3, -0.25, 2953, 3, -0.25
*EQUATION
3
4089, 1, 1.0, 2953, 1, -0.5, 2957, 1, -0.5
*EQUATION
3
4089, 2, 1.0, 2953, 2, -0.5, 2957, 2, -0.5
*EQUATION
3
4089, 3, 1.0, 2953, 3, -0.5, 2957, 3, -0.5
*EQUATION
3
4090, 1, 1.0, 173, 1, -0.5, 2940, 1, -0.5
*EQUATION
3
4090, 2, 1.0, 173, 2, -0.5, 2940, 2, -0.5
*EQUATION
3
4090, 3, 1.0, 173, 3, -0.5, 2940, 3, -0.5
*EQUATION
3
4091, 1, 1.0, 173, 1, -0.5, 2951, 1, -0.5
*EQUATION
3
4091, 2, 1.0, 173, 2, -0.5, 2951, 2, -0.5
*EQUATION
3
4091, 3, 1.0, 173, 3, -0.5, 2951, 3, -0.5
*EQUATION
5
4092, 1, 1.0, 173, 1, -0.25, 2951, 1, -0.25, 2957, 1, -0.25, 2940, 1, -0.25
*EQUATION
5
4092, 2, 1.0, 173, 2, -0.25, 2951, 2, -0.25, 2957, 2, -0.25, 2940, 2, -0.25
*EQUATION
5
4092, 3, 1.0, 173, 3, -0.25, 2951, 3, -0.25, 2957, 3, -0.25, 2940, 3, -0.25
*EQUATION
3
4093, 1, 1.0, 2940, 1, -0.5, 2957, 1, -0.5
*EQUATION
3
4093, 2, 1.0, 2940, 2, -0.5, 2957, 2, -0.5
*EQUATION
3
4093, 3, 1.0, 2940, 3, -0.5, 2957, 3, -0.5
*EQUATION
3
4094, 1, 1.0, 2951, 1, -0.5, 2957, 1, -0.5
*EQUATION
3
4094, 2, 1.0, 2951, 2, -0.5, 2957, 2, -0.5
*EQUATION
3
4094, 3, 1.0, 2951, 3, -0.5, 2957, 3, -0.5
*EQUATION
5
4097, 1, 1.0, 2953, 1, -0.25, 2957, 1, -0.25, 2958, 1, -0.25, 2954, 1, -0.25
*EQUATION
5
4097, 2, 1.0, 2953, 2, -0.25, 2957, 2, -0.25, 2958, 2, -0.25, 2954, 2, -0.25
*EQUATION
5
4097, 3, 1.0, 2953, 3, -0.25, 2957, 3, -0.25, 2958, 3, -0.25, 2954, 3, -0.25
*EQUATION
3
4098, 1, 1.0, 2954, 1, -0.5, 2958, 1, -0.5
*EQUATION
3
4098, 2, 1.0, 2954, 2, -0.5, 2958, 2, -0.5
*EQUATION
3
4098, 3, 1.0, 2954, 3, -0.5, 2958, 3, -0.5
*EQUATION
5
4099, 1, 1.0, 2940, 1, -0.25, 2957, 1, -0.25, 2958, 1, -0.25, 174, 1, -0.25
*EQUATION
5
4099, 2, 1.0, 2940, 2, -0.25, 2957, 2, -0.25, 2958, 2, -0.25, 174, 2, -0.25
*EQUATION
5
4099, 3, 1.0, 2940, 3, -0.25, 2957, 3, -0.25, 2958, 3, -0.25, 174, 3, -0.25
*EQUATION
3
4100, 1, 1.0, 174, 1, -0.5, 2958, 1, -0.5
*EQUATION
3
4100, 2, 1.0, 174, 2, -0.5, 2958, 2, -0.5
*EQUATION
3
4100, 3, 1.0, 174, 3, -0.5, 2958, 3, -0.5
*EQUATION
3
4101, 1, 1.0, 2957, 1, -0.5, 2958, 1, -0.5
*EQUATION
3
4101, 2, 1.0, 2957, 2, -0.5, 2958, 2, -0.5
*EQUATION
3
4101, 3, 1.0, 2957, 3, -0.5, 2958, 3, -0.5
*EQUATION
3
4102, 1, 1.0, 2506, 1, -0.5, 2960, 1, -0.5
*EQUATION
3
4102, 2, 1.0, 2506, 2, -0.5, 2960, 2, -0.5
*EQUATION
3
4102, 3, 1.0, 2506, 3, -0.5, 2960, 3, -0.5
*EQUATION
5
4103, 1, 1.0, 2506, 1, -0.25, 2509, 1, -0.25, 2962, 1, -0.25, 2960, 1, -0.25
*EQUATION
5
4103, 2, 1.0, 2506, 2, -0.25, 2509, 2, -0.25, 2962, 2, -0.25, 2960, 2, -0.25
*EQUATION
5
4103, 3, 1.0, 2506, 3, -0.25, 2509, 3, -0.25, 2962, 3, -0.25, 2960, 3, -0.25
*EQUATION
3
4104, 1, 1.0, 2960, 1, -0.5, 2962, 1, -0.5
*EQUATION
3
4104, 2, 1.0, 2960, 2, -0.5, 2962, 2, -0.5
*EQUATION
3
4104, 3, 1.0, 2960, 3, -0.5, 2962, 3, -0.5
*EQUATION
3
4105, 1, 1.0, 2509, 1, -0.5, 2962, 1, -0.5
*EQUATION
3
4105, 2, 1.0, 2509, 2, -0.5, 2962, 2, -0.5
*EQUATION
3
4105, 3, 1.0, 2509, 3, -0.5, 2962, 3, -0.5
*EQUATION
5
4106, 1, 1.0, 2506, 1, -0.25, 2513, 1, -0.25, 2964, 1, -0.25, 2960, 1, -0.25
*EQUATION
5
4106, 2, 1.0, 2506, 2, -0.25, 2513, 2, -0.25, 2964, 2, -0.25, 2960, 2, -0.25
*EQUATION
5
4106, 3, 1.0, 2506, 3, -0.25, 2513, 3, -0.25, 2964, 3, -0.25, 2960, 3, -0.25
*EQUATION
3
4107, 1, 1.0, 2960, 1, -0.5, 2964, 1, -0.5
*EQUATION
3
4107, 2, 1.0, 2960, 2, -0.5, 2964, 2, -0.5
*EQUATION
3
4107, 3, 1.0, 2960, 3, -0.5, 2964, 3, -0.5
*EQUATION
5
4109, 1, 1.0, 2960, 1, -0.25, 2964, 1, -0.25, 2966, 1, -0.25, 2962, 1, -0.25
*EQUATION
5
4109, 2, 1.0, 2960, 2, -0.25, 2964, 2, -0.25, 2966, 2, -0.25, 2962, 2, -0.25
*EQUATION
5
4109, 3, 1.0, 2960, 3, -0.25, 2964, 3, -0.25, 2966, 3, -0.25, 2962, 3, -0.25
*EQUATION
3
4111, 1, 1.0, 2962, 1, -0.5, 2966, 1, -0.5
*EQUATION
3
4111, 2, 1.0, 2962, 2, -0.5, 2966, 2, -0.5
*EQUATION
3
4111, 3, 1.0, 2962, 3, -0.5, 2966, 3, -0.5
*EQUATION
3
4112, 1, 1.0, 2513, 1, -0.5, 2964, 1, -0.5
*EQUATION
3
4112, 2, 1.0, 2513, 2, -0.5, 2964, 2, -0.5
*EQUATION
3
4112, 3, 1.0, 2513, 3, -0.5, 2964, 3, -0.5
*EQUATION
5
4113, 1, 1.0, 2513, 1, -0.25, 156, 1, -0.25, 2966, 1, -0.25, 2964, 1, -0.25
*EQUATION
5
4113, 2, 1.0, 2513, 2, -0.25, 156, 2, -0.25, 2966, 2, -0.25, 2964, 2, -0.25
*EQUATION
5
4113, 3, 1.0, 2513, 3, -0.25, 156, 3, -0.25, 2966, 3, -0.25, 2964, 3, -0.25
*EQUATION
3
4114, 1, 1.0, 2964, 1, -0.5, 2966, 1, -0.5
*EQUATION
3
4114, 2, 1.0, 2964, 2, -0.5, 2966, 2, -0.5
*EQUATION
3
4114, 3, 1.0, 2964, 3, -0.5, 2966, 3, -0.5
*EQUATION
3
4115, 1, 1.0, 156, 1, -0.5, 2966, 1, -0.5
*EQUATION
3
4115, 2, 1.0, 156, 2, -0.5, 2966, 2, -0.5
*EQUATION
3
4115, 3, 1.0, 156, 3, -0.5, 2966, 3, -0.5
*EQUATION
5
4123, 1, 1.0, 2509, 1, -0.25, 2557, 1, -0.25, 2967, 1, -0.25, 2962, 1, -0.25
*EQUATION
5
4123, 2, 1.0, 2509, 2, -0.25, 2557, 2, -0.25, 2967, 2, -0.25, 2962, 2, -0.25
*EQUATION
5
4123, 3, 1.0, 2509, 3, -0.25, 2557, 3, -0.25, 2967, 3, -0.25, 2962, 3, -0.25
*EQUATION
3
4124, 1, 1.0, 2962, 1, -0.5, 2967, 1, -0.5
*EQUATION
3
4124, 2, 1.0, 2962, 2, -0.5, 2967, 2, -0.5
*EQUATION
3
4124, 3, 1.0, 2962, 3, -0.5, 2967, 3, -0.5
*EQUATION
3
4125, 1, 1.0, 2557, 1, -0.5, 2967, 1, -0.5
*EQUATION
3
4125, 2, 1.0, 2557, 2, -0.5, 2967, 2, -0.5
*EQUATION
3
4125, 3, 1.0, 2557, 3, -0.5, 2967, 3, -0.5
*EQUATION
5
4127, 1, 1.0, 2962, 1, -0.25, 2966, 1, -0.25, 2971, 1, -0.25, 2967, 1, -0.25
*EQUATION
5
4127, 2, 1.0, 2962, 2, -0.25, 2966, 2, -0.25, 2971, 2, -0.25, 2967, 2, -0.25
*EQUATION
5
4127, 3, 1.0, 2962, 3, -0.25, 2966, 3, -0.25, 2971, 3, -0.25, 2967, 3, -0.25
*EQUATION
5
4128, 1, 1.0, 2557, 1, -0.25, 2563, 1, -0.25, 2971, 1, -0.25, 2967, 1, -0.25
*EQUATION
5
4128, 2, 1.0, 2557, 2, -0.25, 2563, 2, -0.25, 2971, 2, -0.25, 2967, 2, -0.25
*EQUATION
5
4128, 3, 1.0, 2557, 3, -0.25, 2563, 3, -0.25, 2971, 3, -0.25, 2967, 3, -0.25
*EQUATION
3
4129, 1, 1.0, 2967, 1, -0.5, 2971, 1, -0.5
*EQUATION
3
4129, 2, 1.0, 2967, 2, -0.5, 2971, 2, -0.5
*EQUATION
3
4129, 3, 1.0, 2967, 3, -0.5, 2971, 3, -0.5
*EQUATION
5
4130, 1, 1.0, 156, 1, -0.25, 2563, 1, -0.25, 2971, 1, -0.25, 2966, 1, -0.25
*EQUATION
5
4130, 2, 1.0, 156, 2, -0.25, 2563, 2, -0.25, 2971, 2, -0.25, 2966, 2, -0.25
*EQUATION
5
4130, 3, 1.0, 156, 3, -0.25, 2563, 3, -0.25, 2971, 3, -0.25, 2966, 3, -0.25
*EQUATION
3
4131, 1, 1.0, 2966, 1, -0.5, 2971, 1, -0.5
*EQUATION
3
4131, 2, 1.0, 2966, 2, -0.5, 2971, 2, -0.5
*EQUATION
3
4131, 3, 1.0, 2966, 3, -0.5, 2971, 3, -0.5
*EQUATION
3
4132, 1, 1.0, 2563, 1, -0.5, 2971, 1, -0.5
*EQUATION
3
4132, 2, 1.0, 2563, 2, -0.5, 2971, 2, -0.5
*EQUATION
3
4132, 3, 1.0, 2563, 3, -0.5, 2971, 3, -0.5
*EQUATION
3
4143, 1, 1.0, 1131, 1, -0.5, 2977, 1, -0.5
*EQUATION
3
4143, 2, 1.0, 1131, 2, -0.5, 2977, 2, -0.5
*EQUATION
3
4143, 3, 1.0, 1131, 3, -0.5, 2977, 3, -0.5
*EQUATION
5
4144, 1, 1.0, 1131, 1, -0.25, 2977, 1, -0.25, 2978, 1, -0.25, 1132, 1, -0.25
*EQUATION
5
4144, 2, 1.0, 1131, 2, -0.25, 2977, 2, -0.25, 2978, 2, -0.25, 1132, 2, -0.25
*EQUATION
5
4144, 3, 1.0, 1131, 3, -0.25, 2977, 3, -0.25, 2978, 3, -0.25, 1132, 3, -0.25
*EQUATION
3
4145, 1, 1.0, 1132, 1, -0.5, 2978, 1, -0.5
*EQUATION
3
4145, 2, 1.0, 1132, 2, -0.5, 2978, 2, -0.5
*EQUATION
3
4145, 3, 1.0, 1132, 3, -0.5, 2978, 3, -0.5
*EQUATION
5
4146, 1, 1.0, 1131, 1, -0.25, 2977, 1, -0.25, 2980, 1, -0.25, 1133, 1, -0.25
*EQUATION
5
4146, 2, 1.0, 1131, 2, -0.25, 2977, 2, -0.25, 2980, 2, -0.25, 1133, 2, -0.25
*EQUATION
5
4146, 3, 1.0, 1131, 3, -0.25, 2977, 3, -0.25, 2980, 3, -0.25, 1133, 3, -0.25
*EQUATION
3
4149, 1, 1.0, 1133, 1, -0.5, 2980, 1, -0.5
*EQUATION
3
4149, 2, 1.0, 1133, 2, -0.5, 2980, 2, -0.5
*EQUATION
3
4149, 3, 1.0, 1133, 3, -0.5, 2980, 3, -0.5
*EQUATION
3
4152, 1, 1.0, 2977, 1, -0.5, 2978, 1, -0.5
*EQUATION
3
4152, 2, 1.0, 2977, 2, -0.5, 2978, 2, -0.5
*EQUATION
3
4152, 3, 1.0, 2977, 3, -0.5, 2978, 3, -0.5
*EQUATION
3
4153, 1, 1.0, 2977, 1, -0.5, 2980, 1, -0.5
*EQUATION
3
4153, 2, 1.0, 2977, 2, -0.5, 2980, 2, -0.5
*EQUATION
3
4153, 3, 1.0, 2977, 3, -0.5, 2980, 3, -0.5
*EQUATION
3
4157, 1, 1.0, 2977, 1, -0.5, 2984, 1, -0.5
*EQUATION
3
4157, 2, 1.0, 2977, 2, -0.5, 2984, 2, -0.5
*EQUATION
3
4157, 3, 1.0, 2977, 3, -0.5, 2984, 3, -0.5
*EQUATION
5
4158, 1, 1.0, 2977, 1, -0.25, 2984, 1, -0.25, 2985, 1, -0.25, 2978, 1, -0.25
*EQUATION
5
4158, 2, 1.0, 2977, 2, -0.25, 2984, 2, -0.25, 2985, 2, -0.25, 2978, 2, -0.25
*EQUATION
5
4158, 3, 1.0, 2977, 3, -0.25, 2984, 3, -0.25, 2985, 3, -0.25, 2978, 3, -0.25
*EQUATION
3
4159, 1, 1.0, 2978, 1, -0.5, 2985, 1, -0.5
*EQUATION
3
4159, 2, 1.0, 2978, 2, -0.5, 2985, 2, -0.5
*EQUATION
3
4159, 3, 1.0, 2978, 3, -0.5, 2985, 3, -0.5
*EQUATION
5
4160, 1, 1.0, 2977, 1, -0.25, 2984, 1, -0.25, 2986, 1, -0.25, 2980, 1, -0.25
*EQUATION
5
4160, 2, 1.0, 2977, 2, -0.25, 2984, 2, -0.25, 2986, 2, -0.25, 2980, 2, -0.25
*EQUATION
5
4160, 3, 1.0, 2977, 3, -0.25, 2984, 3, -0.25, 2986, 3, -0.25, 2980, 3, -0.25
*EQUATION
3
4163, 1, 1.0, 2980, 1, -0.5, 2986, 1, -0.5
*EQUATION
3
4163, 2, 1.0, 2980, 2, -0.5, 2986, 2, -0.5
*EQUATION
3
4163, 3, 1.0, 2980, 3, -0.5, 2986, 3, -0.5
*EQUATION
3
4166, 1, 1.0, 2984, 1, -0.5, 2985, 1, -0.5
*EQUATION
3
4166, 2, 1.0, 2984, 2, -0.5, 2985, 2, -0.5
*EQUATION
3
4166, 3, 1.0, 2984, 3, -0.5, 2985, 3, -0.5
*EQUATION
3
4167, 1, 1.0, 2984, 1, -0.5, 2986, 1, -0.5
*EQUATION
3
4167, 2, 1.0, 2984, 2, -0.5, 2986, 2, -0.5
*EQUATION
3
4167, 3, 1.0, 2984, 3, -0.5, 2986, 3, -0.5
*EQUATION
5
4168, 1, 1.0, 2984, 1, -0.25, 2986, 1, -0.25, 183, 1, -0.25, 2985, 1, -0.25
*EQUATION
5
4168, 2, 1.0, 2984, 2, -0.25, 2986, 2, -0.25, 183, 2, -0.25, 2985, 2, -0.25
*EQUATION
5
4168, 3, 1.0, 2984, 3, -0.25, 2986, 3, -0.25, 183, 3, -0.25, 2985, 3, -0.25
*EQUATION
3
4169, 1, 1.0, 183, 1, -0.5, 2985, 1, -0.5
*EQUATION
3
4169, 2, 1.0, 183, 2, -0.5, 2985, 2, -0.5
*EQUATION
3
4169, 3, 1.0, 183, 3, -0.5, 2985, 3, -0.5
*EQUATION
3
4170, 1, 1.0, 183, 1, -0.5, 2986, 1, -0.5
*EQUATION
3
4170, 2, 1.0, 183, 2, -0.5, 2986, 2, -0.5
*EQUATION
3
4170, 3, 1.0, 183, 3, -0.5, 2986, 3, -0.5
*EQUATION
3
4175, 1, 1.0, 1133, 1, -0.5, 1145, 1, -0.5
*EQUATION
3
4175, 2, 1.0, 1133, 2, -0.5, 1145, 2, -0.5
*EQUATION
3
4175, 3, 1.0, 1133, 3, -0.5, 1145, 3, -0.5
*EQUATION
5
4176, 1, 1.0, 1133, 1, -0.25, 1145, 1, -0.25, 1146, 1, -0.25, 135, 1, -0.25
*EQUATION
5
4176, 2, 1.0, 1133, 2, -0.25, 1145, 2, -0.25, 1146, 2, -0.25, 135, 2, -0.25
*EQUATION
5
4176, 3, 1.0, 1133, 3, -0.25, 1145, 3, -0.25, 1146, 3, -0.25, 135, 3, -0.25
*EQUATION
3
4177, 1, 1.0, 135, 1, -0.5, 1146, 1, -0.5
*EQUATION
3
4177, 2, 1.0, 135, 2, -0.5, 1146, 2, -0.5
*EQUATION
3
4177, 3, 1.0, 135, 3, -0.5, 1146, 3, -0.5
*EQUATION
3
4178, 1, 1.0, 1145, 1, -0.5, 1146, 1, -0.5
*EQUATION
3
4178, 2, 1.0, 1145, 2, -0.5, 1146, 2, -0.5
*EQUATION
3
4178, 3, 1.0, 1145, 3, -0.5, 1146, 3, -0.5
*EQUATION
5
4179, 1, 1.0, 1133, 1, -0.25, 2980, 1, -0.25, 2988, 1, -0.25, 1145, 1, -0.25
*EQUATION
5
4179, 2, 1.0, 1133, 2, -0.25, 2980, 2, -0.25, 2988, 2, -0.25, 1145, 2, -0.25
*EQUATION
5
4179, 3, 1.0, 1133, 3, -0.25, 2980, 3, -0.25, 2988, 3, -0.25, 1145, 3, -0.25
*EQUATION
3
4182, 1, 1.0, 1145, 1, -0.5, 2988, 1, -0.5
*EQUATION
3
4182, 2, 1.0, 1145, 2, -0.5, 2988, 2, -0.5
*EQUATION
3
4182, 3, 1.0, 1145, 3, -0.5, 2988, 3, -0.5
*EQUATION
3
4185, 1, 1.0, 2980, 1, -0.5, 2988, 1, -0.5
*EQUATION
3
4185, 2, 1.0, 2980, 2, -0.5, 2988, 2, -0.5
*EQUATION
3
4185, 3, 1.0, 2980, 3, -0.5, 2988, 3, -0.5
*EQUATION
5
4189, 1, 1.0, 2980, 1, -0.25, 2986, 1, -0.25, 2994, 1, -0.25, 2988, 1, -0.25
*EQUATION
5
4189, 2, 1.0, 2980, 2, -0.25, 2986, 2, -0.25, 2994, 2, -0.25, 2988, 2, -0.25
*EQUATION
5
4189, 3, 1.0, 2980, 3, -0.25, 2986, 3, -0.25, 2994, 3, -0.25, 2988, 3, -0.25
*EQUATION
3
4192, 1, 1.0, 2988, 1, -0.5, 2994, 1, -0.5
*EQUATION
3
4192, 2, 1.0, 2988, 2, -0.5, 2994, 2, -0.5
*EQUATION
3
4192, 3, 1.0, 2988, 3, -0.5, 2994, 3, -0.5
*EQUATION
3
4195, 1, 1.0, 2986, 1, -0.5, 2994, 1, -0.5
*EQUATION
3
4195, 2, 1.0, 2986, 2, -0.5, 2994, 2, -0.5
*EQUATION
3
4195, 3, 1.0, 2986, 3, -0.5, 2994, 3, -0.5
*EQUATION
5
4196, 1, 1.0, 2986, 1, -0.25, 2994, 1, -0.25, 2995, 1, -0.25, 183, 1, -0.25
*EQUATION
5
4196, 2, 1.0, 2986, 2, -0.25, 2994, 2, -0.25, 2995, 2, -0.25, 183, 2, -0.25
*EQUATION
5
4196, 3, 1.0, 2986, 3, -0.25, 2994, 3, -0.25, 2995, 3, -0.25, 183, 3, -0.25
*EQUATION
3
4197, 1, 1.0, 183, 1, -0.5, 2995, 1, -0.5
*EQUATION
3
4197, 2, 1.0, 183, 2, -0.5, 2995, 2, -0.5
*EQUATION
3
4197, 3, 1.0, 183, 3, -0.5, 2995, 3, -0.5
*EQUATION
3
4198, 1, 1.0, 2994, 1, -0.5, 2995, 1, -0.5
*EQUATION
3
4198, 2, 1.0, 2994, 2, -0.5, 2995, 2, -0.5
*EQUATION
3
4198, 3, 1.0, 2994, 3, -0.5, 2995, 3, -0.5
*EQUATION
3
4202, 1, 1.0, 140, 1, -0.5, 188, 1, -0.5
*EQUATION
3
4202, 2, 1.0, 140, 2, -0.5, 188, 2, -0.5
*EQUATION
3
4202, 3, 1.0, 140, 3, -0.5, 188, 3, -0.5
*EQUATION
3
4209, 1, 1.0, 153, 1, -0.5, 3046, 1, -0.5
*EQUATION
3
4209, 2, 1.0, 153, 2, -0.5, 3046, 2, -0.5
*EQUATION
3
4209, 3, 1.0, 153, 3, -0.5, 3046, 3, -0.5
*EQUATION
3
4211, 1, 1.0, 2510, 1, -0.5, 3055, 1, -0.5
*EQUATION
3
4211, 2, 1.0, 2510, 2, -0.5, 3055, 2, -0.5
*EQUATION
3
4211, 3, 1.0, 2510, 3, -0.5, 3055, 3, -0.5
*EQUATION
5
4212, 1, 1.0, 153, 1, -0.25, 3046, 1, -0.25, 3048, 1, -0.25, 2511, 1, -0.25
*EQUATION
5
4212, 2, 1.0, 153, 2, -0.25, 3046, 2, -0.25, 3048, 2, -0.25, 2511, 2, -0.25
*EQUATION
5
4212, 3, 1.0, 153, 3, -0.25, 3046, 3, -0.25, 3048, 3, -0.25, 2511, 3, -0.25
*EQUATION
5
4214, 1, 1.0, 2510, 1, -0.25, 3055, 1, -0.25, 3057, 1, -0.25, 2512, 1, -0.25
*EQUATION
5
4214, 2, 1.0, 2510, 2, -0.25, 3055, 2, -0.25, 3057, 2, -0.25, 2512, 2, -0.25
*EQUATION
5
4214, 3, 1.0, 2510, 3, -0.25, 3055, 3, -0.25, 3057, 3, -0.25, 2512, 3, -0.25
*EQUATION
3
4215, 1, 1.0, 2511, 1, -0.5, 3048, 1, -0.5
*EQUATION
3
4215, 2, 1.0, 2511, 2, -0.5, 3048, 2, -0.5
*EQUATION
3
4215, 3, 1.0, 2511, 3, -0.5, 3048, 3, -0.5
*EQUATION
3
4217, 1, 1.0, 2512, 1, -0.5, 3057, 1, -0.5
*EQUATION
3
4217, 2, 1.0, 2512, 2, -0.5, 3057, 2, -0.5
*EQUATION
3
4217, 3, 1.0, 2512, 3, -0.5, 3057, 3, -0.5
*EQUATION
3
4219, 1, 1.0, 3046, 1, -0.5, 3048, 1, -0.5
*EQUATION
3
4219, 2, 1.0, 3046, 2, -0.5, 3048, 2, -0.5
*EQUATION
3
4219, 3, 1.0, 3046, 3, -0.5, 3048, 3, -0.5
*EQUATION
3
4221, 1, 1.0, 3055, 1, -0.5, 3057, 1, -0.5
*EQUATION
3
4221, 2, 1.0, 3055, 2, -0.5, 3057, 2, -0.5
*EQUATION
3
4221, 3, 1.0, 3055, 3, -0.5, 3057, 3, -0.5
*EQUATION
5
4223, 1, 1.0, 2511, 1, -0.25, 3048, 1, -0.25, 3050, 1, -0.25, 154, 1, -0.25
*EQUATION
5
4223, 2, 1.0, 2511, 2, -0.25, 3048, 2, -0.25, 3050, 2, -0.25, 154, 2, -0.25
*EQUATION
5
4223, 3, 1.0, 2511, 3, -0.25, 3048, 3, -0.25, 3050, 3, -0.25, 154, 3, -0.25
*EQUATION
5
4225, 1, 1.0, 2512, 1, -0.25, 3057, 1, -0.25, 3059, 1, -0.25, 2514, 1, -0.25
*EQUATION
5
4225, 2, 1.0, 2512, 2, -0.25, 3057, 2, -0.25, 3059, 2, -0.25, 2514, 2, -0.25
*EQUATION
5
4225, 3, 1.0, 2512, 3, -0.25, 3057, 3, -0.25, 3059, 3, -0.25, 2514, 3, -0.25
*EQUATION
3
4226, 1, 1.0, 154, 1, -0.5, 3050, 1, -0.5
*EQUATION
3
4226, 2, 1.0, 154, 2, -0.5, 3050, 2, -0.5
*EQUATION
3
4226, 3, 1.0, 154, 3, -0.5, 3050, 3, -0.5
*EQUATION
3
4228, 1, 1.0, 2514, 1, -0.5, 3059, 1, -0.5
*EQUATION
3
4228, 2, 1.0, 2514, 2, -0.5, 3059, 2, -0.5
*EQUATION
3
4228, 3, 1.0, 2514, 3, -0.5, 3059, 3, -0.5
*EQUATION
3
4229, 1, 1.0, 3048, 1, -0.5, 3050, 1, -0.5
*EQUATION
3
4229, 2, 1.0, 3048, 2, -0.5, 3050, 2, -0.5
*EQUATION
3
4229, 3, 1.0, 3048, 3, -0.5, 3050, 3, -0.5
*EQUATION
3
4231, 1, 1.0, 3057, 1, -0.5, 3059, 1, -0.5
*EQUATION
3
4231, 2, 1.0, 3057, 2, -0.5, 3059, 2, -0.5
*EQUATION
3
4231, 3, 1.0, 3057, 3, -0.5, 3059, 3, -0.5
*EQUATION
3
4233, 1, 1.0, 201, 1, -0.5, 3046, 1, -0.5
*EQUATION
3
4233, 2, 1.0, 201, 2, -0.5, 3046, 2, -0.5
*EQUATION
3
4233, 3, 1.0, 201, 3, -0.5, 3046, 3, -0.5
*EQUATION
3
4235, 1, 1.0, 3055, 1, -0.5, 3061, 1, -0.5
*EQUATION
3
4235, 2, 1.0, 3055, 2, -0.5, 3061, 2, -0.5
*EQUATION
3
4235, 3, 1.0, 3055, 3, -0.5, 3061, 3, -0.5
*EQUATION
5
4236, 1, 1.0, 3046, 1, -0.25, 201, 1, -0.25, 3053, 1, -0.25, 3048, 1, -0.25
*EQUATION
5
4236, 2, 1.0, 3046, 2, -0.25, 201, 2, -0.25, 3053, 2, -0.25, 3048, 2, -0.25
*EQUATION
5
4236, 3, 1.0, 3046, 3, -0.25, 201, 3, -0.25, 3053, 3, -0.25, 3048, 3, -0.25
*EQUATION
5
4238, 1, 1.0, 3055, 1, -0.25, 3061, 1, -0.25, 3062, 1, -0.25, 3057, 1, -0.25
*EQUATION
5
4238, 2, 1.0, 3055, 2, -0.25, 3061, 2, -0.25, 3062, 2, -0.25, 3057, 2, -0.25
*EQUATION
5
4238, 3, 1.0, 3055, 3, -0.25, 3061, 3, -0.25, 3062, 3, -0.25, 3057, 3, -0.25
*EQUATION
3
4239, 1, 1.0, 3048, 1, -0.5, 3053, 1, -0.5
*EQUATION
3
4239, 2, 1.0, 3048, 2, -0.5, 3053, 2, -0.5
*EQUATION
3
4239, 3, 1.0, 3048, 3, -0.5, 3053, 3, -0.5
*EQUATION
3
4241, 1, 1.0, 3057, 1, -0.5, 3062, 1, -0.5
*EQUATION
3
4241, 2, 1.0, 3057, 2, -0.5, 3062, 2, -0.5
*EQUATION
3
4241, 3, 1.0, 3057, 3, -0.5, 3062, 3, -0.5
*EQUATION
3
4243, 1, 1.0, 201, 1, -0.5, 3053, 1, -0.5
*EQUATION
3
4243, 2, 1.0, 201, 2, -0.5, 3053, 2, -0.5
*EQUATION
3
4243, 3, 1.0, 201, 3, -0.5, 3053, 3, -0.5
*EQUATION
3
4245, 1, 1.0, 3061, 1, -0.5, 3062, 1, -0.5
*EQUATION
3
4245, 2, 1.0, 3061, 2, -0.5, 3062, 2, -0.5
*EQUATION
3
4245, 3, 1.0, 3061, 3, -0.5, 3062, 3, -0.5
*EQUATION
5
4247, 1, 1.0, 3048, 1, -0.25, 3053, 1, -0.25, 202, 1, -0.25, 3050, 1, -0.25
*EQUATION
5
4247, 2, 1.0, 3048, 2, -0.25, 3053, 2, -0.25, 202, 2, -0.25, 3050, 2, -0.25
*EQUATION
5
4247, 3, 1.0, 3048, 3, -0.25, 3053, 3, -0.25, 202, 3, -0.25, 3050, 3, -0.25
*EQUATION
5
4249, 1, 1.0, 3057, 1, -0.25, 3062, 1, -0.25, 3064, 1, -0.25, 3059, 1, -0.25
*EQUATION
5
4249, 2, 1.0, 3057, 2, -0.25, 3062, 2, -0.25, 3064, 2, -0.25, 3059, 2, -0.25
*EQUATION
5
4249, 3, 1.0, 3057, 3, -0.25, 3062, 3, -0.25, 3064, 3, -0.25, 3059, 3, -0.25
*EQUATION
3
4250, 1, 1.0, 202, 1, -0.5, 3050, 1, -0.5
*EQUATION
3
4250, 2, 1.0, 202, 2, -0.5, 3050, 2, -0.5
*EQUATION
3
4250, 3, 1.0, 202, 3, -0.5, 3050, 3, -0.5
*EQUATION
3
4252, 1, 1.0, 3059, 1, -0.5, 3064, 1, -0.5
*EQUATION
3
4252, 2, 1.0, 3059, 2, -0.5, 3064, 2, -0.5
*EQUATION
3
4252, 3, 1.0, 3059, 3, -0.5, 3064, 3, -0.5
*EQUATION
3
4253, 1, 1.0, 202, 1, -0.5, 3053, 1, -0.5
*EQUATION
3
4253, 2, 1.0, 202, 2, -0.5, 3053, 2, -0.5
*EQUATION
3
4253, 3, 1.0, 202, 3, -0.5, 3053, 3, -0.5
*EQUATION
3
4255, 1, 1.0, 3062, 1, -0.5, 3064, 1, -0.5
*EQUATION
3
4255, 2, 1.0, 3062, 2, -0.5, 3064, 2, -0.5
*EQUATION
3
4255, 3, 1.0, 3062, 3, -0.5, 3064, 3, -0.5
*EQUATION
5
4257, 1, 1.0, 154, 1, -0.25, 3050, 1, -0.25, 3106, 1, -0.25, 2561, 1, -0.25
*EQUATION
5
4257, 2, 1.0, 154, 2, -0.25, 3050, 2, -0.25, 3106, 2, -0.25, 2561, 2, -0.25
*EQUATION
5
4257, 3, 1.0, 154, 3, -0.25, 3050, 3, -0.25, 3106, 3, -0.25, 2561, 3, -0.25
*EQUATION
5
4259, 1, 1.0, 2514, 1, -0.25, 3059, 1, -0.25, 3112, 1, -0.25, 2562, 1, -0.25
*EQUATION
5
4259, 2, 1.0, 2514, 2, -0.25, 3059, 2, -0.25, 3112, 2, -0.25, 2562, 2, -0.25
*EQUATION
5
4259, 3, 1.0, 2514, 3, -0.25, 3059, 3, -0.25, 3112, 3, -0.25, 2562, 3, -0.25
*EQUATION
3
4260, 1, 1.0, 2561, 1, -0.5, 3106, 1, -0.5
*EQUATION
3
4260, 2, 1.0, 2561, 2, -0.5, 3106, 2, -0.5
*EQUATION
3
4260, 3, 1.0, 2561, 3, -0.5, 3106, 3, -0.5
*EQUATION
3
4262, 1, 1.0, 2562, 1, -0.5, 3112, 1, -0.5
*EQUATION
3
4262, 2, 1.0, 2562, 2, -0.5, 3112, 2, -0.5
*EQUATION
3
4262, 3, 1.0, 2562, 3, -0.5, 3112, 3, -0.5
*EQUATION
3
4263, 1, 1.0, 3050, 1, -0.5, 3106, 1, -0.5
*EQUATION
3
4263, 2, 1.0, 3050, 2, -0.5, 3106, 2, -0.5
*EQUATION
3
4263, 3, 1.0, 3050, 3, -0.5, 3106, 3, -0.5
*EQUATION
3
4265, 1, 1.0, 3059, 1, -0.5, 3112, 1, -0.5
*EQUATION
3
4265, 2, 1.0, 3059, 2, -0.5, 3112, 2, -0.5
*EQUATION
3
4265, 3, 1.0, 3059, 3, -0.5, 3112, 3, -0.5
*EQUATION
5
4267, 1, 1.0, 2561, 1, -0.25, 3106, 1, -0.25, 3108, 1, -0.25, 161, 1, -0.25
*EQUATION
5
4267, 2, 1.0, 2561, 2, -0.25, 3106, 2, -0.25, 3108, 2, -0.25, 161, 2, -0.25
*EQUATION
5
4267, 3, 1.0, 2561, 3, -0.25, 3106, 3, -0.25, 3108, 3, -0.25, 161, 3, -0.25
*EQUATION
5
4269, 1, 1.0, 2562, 1, -0.25, 3112, 1, -0.25, 3114, 1, -0.25, 2564, 1, -0.25
*EQUATION
5
4269, 2, 1.0, 2562, 2, -0.25, 3112, 2, -0.25, 3114, 2, -0.25, 2564, 2, -0.25
*EQUATION
5
4269, 3, 1.0, 2562, 3, -0.25, 3112, 3, -0.25, 3114, 3, -0.25, 2564, 3, -0.25
*EQUATION
3
4270, 1, 1.0, 161, 1, -0.5, 3108, 1, -0.5
*EQUATION
3
4270, 2, 1.0, 161, 2, -0.5, 3108, 2, -0.5
*EQUATION
3
4270, 3, 1.0, 161, 3, -0.5, 3108, 3, -0.5
*EQUATION
3
4272, 1, 1.0, 2564, 1, -0.5, 3114, 1, -0.5
*EQUATION
3
4272, 2, 1.0, 2564, 2, -0.5, 3114, 2, -0.5
*EQUATION
3
4272, 3, 1.0, 2564, 3, -0.5, 3114, 3, -0.5
*EQUATION
3
4273, 1, 1.0, 3106, 1, -0.5, 3108, 1, -0.5
*EQUATION
3
4273, 2, 1.0, 3106, 2, -0.5, 3108, 2, -0.5
*EQUATION
3
4273, 3, 1.0, 3106, 3, -0.5, 3108, 3, -0.5
*EQUATION
3
4275, 1, 1.0, 3112, 1, -0.5, 3114, 1, -0.5
*EQUATION
3
4275, 2, 1.0, 3112, 2, -0.5, 3114, 2, -0.5
*EQUATION
3
4275, 3, 1.0, 3112, 3, -0.5, 3114, 3, -0.5
*EQUATION
5
4277, 1, 1.0, 3050, 1, -0.25, 202, 1, -0.25, 3110, 1, -0.25, 3106, 1, -0.25
*EQUATION
5
4277, 2, 1.0, 3050, 2, -0.25, 202, 2, -0.25, 3110, 2, -0.25, 3106, 2, -0.25
*EQUATION
5
4277, 3, 1.0, 3050, 3, -0.25, 202, 3, -0.25, 3110, 3, -0.25, 3106, 3, -0.25
*EQUATION
5
4279, 1, 1.0, 3059, 1, -0.25, 3064, 1, -0.25, 3116, 1, -0.25, 3112, 1, -0.25
*EQUATION
5
4279, 2, 1.0, 3059, 2, -0.25, 3064, 2, -0.25, 3116, 2, -0.25, 3112, 2, -0.25
*EQUATION
5
4279, 3, 1.0, 3059, 3, -0.25, 3064, 3, -0.25, 3116, 3, -0.25, 3112, 3, -0.25
*EQUATION
3
4280, 1, 1.0, 3106, 1, -0.5, 3110, 1, -0.5
*EQUATION
3
4280, 2, 1.0, 3106, 2, -0.5, 3110, 2, -0.5
*EQUATION
3
4280, 3, 1.0, 3106, 3, -0.5, 3110, 3, -0.5
*EQUATION
3
4282, 1, 1.0, 3112, 1, -0.5, 3116, 1, -0.5
*EQUATION
3
4282, 2, 1.0, 3112, 2, -0.5, 3116, 2, -0.5
*EQUATION
3
4282, 3, 1.0, 3112, 3, -0.5, 3116, 3, -0.5
*EQUATION
3
4283, 1, 1.0, 202, 1, -0.5, 3110, 1, -0.5
*EQUATION
3
4283, 2, 1.0, 202, 2, -0.5, 3110, 2, -0.5
*EQUATION
3
4283, 3, 1.0, 202, 3, -0.5, 3110, 3, -0.5
*EQUATION
3
4285, 1, 1.0, 3064, 1, -0.5, 3116, 1, -0.5
*EQUATION
3
4285, 2, 1.0, 3064, 2, -0.5, 3116, 2, -0.5
*EQUATION
3
4285, 3, 1.0, 3064, 3, -0.5, 3116, 3, -0.5
*EQUATION
5
4287, 1, 1.0, 3106, 1, -0.25, 3110, 1, -0.25, 209, 1, -0.25, 3108, 1, -0.25
*EQUATION
5
4287, 2, 1.0, 3106, 2, -0.25, 3110, 2, -0.25, 209, 2, -0.25, 3108, 2, -0.25
*EQUATION
5
4287, 3, 1.0, 3106, 3, -0.25, 3110, 3, -0.25, 209, 3, -0.25, 3108, 3, -0.25
*EQUATION
5
4289, 1, 1.0, 3112, 1, -0.25, 3116, 1, -0.25, 3118, 1, -0.25, 3114, 1, -0.25
*EQUATION
5
4289, 2, 1.0, 3112, 2, -0.25, 3116, 2, -0.25, 3118, 2, -0.25, 3114, 2, -0.25
*EQUATION
5
4289, 3, 1.0, 3112, 3, -0.25, 3116, 3, -0.25, 3118, 3, -0.25, 3114, 3, -0.25
*EQUATION
3
4290, 1, 1.0, 209, 1, -0.5, 3108, 1, -0.5
*EQUATION
3
4290, 2, 1.0, 209, 2, -0.5, 3108, 2, -0.5
*EQUATION
3
4290, 3, 1.0, 209, 3, -0.5, 3108, 3, -0.5
*EQUATION
3
4292, 1, 1.0, 3114, 1, -0.5, 3118, 1, -0.5
*EQUATION
3
4292, 2, 1.0, 3114, 2, -0.5, 3118, 2, -0.5
*EQUATION
3
4292, 3, 1.0, 3114, 3, -0.5, 3118, 3, -0.5
*EQUATION
3
4293, 1, 1.0, 209, 1, -0.5, 3110, 1, -0.5
*EQUATION
3
4293, 2, 1.0, 209, 2, -0.5, 3110, 2, -0.5
*EQUATION
3
4293, 3, 1.0, 209, 3, -0.5, 3110, 3, -0.5
*EQUATION
3
4295, 1, 1.0, 3116, 1, -0.5, 3118, 1, -0.5
*EQUATION
3
4295, 2, 1.0, 3116, 2, -0.5, 3118, 2, -0.5
*EQUATION
3
4295, 3, 1.0, 3116, 3, -0.5, 3118, 3, -0.5
*EQUATION
3
4297, 1, 1.0, 164, 1, -0.5, 166, 1, -0.5
*EQUATION
3
4297, 2, 1.0, 164, 2, -0.5, 166, 2, -0.5
*EQUATION
3
4297, 3, 1.0, 164, 3, -0.5, 166, 3, -0.5
*EQUATION
3
4360, 1, 1.0, 187, 1, -0.5, 188, 1, -0.5
*EQUATION
3
4360, 2, 1.0, 187, 2, -0.5, 188, 2, -0.5
*EQUATION
3
4360, 3, 1.0, 187, 3, -0.5, 188, 3, -0.5
*EQUATION
3
4371, 1, 1.0, 201, 1, -0.5, 3229, 1, -0.5
*EQUATION
3
4371, 2, 1.0, 201, 2, -0.5, 3229, 2, -0.5
*EQUATION
3
4371, 3, 1.0, 201, 3, -0.5, 3229, 3, -0.5
*EQUATION
5
4374, 1, 1.0, 201, 1, -0.25, 3229, 1, -0.25, 3231, 1, -0.25, 3053, 1, -0.25
*EQUATION
5
4374, 2, 1.0, 201, 2, -0.25, 3229, 2, -0.25, 3231, 2, -0.25, 3053, 2, -0.25
*EQUATION
5
4374, 3, 1.0, 201, 3, -0.25, 3229, 3, -0.25, 3231, 3, -0.25, 3053, 3, -0.25
*EQUATION
3
4377, 1, 1.0, 3053, 1, -0.5, 3231, 1, -0.5
*EQUATION
3
4377, 2, 1.0, 3053, 2, -0.5, 3231, 2, -0.5
*EQUATION
3
4377, 3, 1.0, 3053, 3, -0.5, 3231, 3, -0.5
*EQUATION
3
4381, 1, 1.0, 3229, 1, -0.5, 3231, 1, -0.5
*EQUATION
3
4381, 2, 1.0, 3229, 2, -0.5, 3231, 2, -0.5
*EQUATION
3
4381, 3, 1.0, 3229, 3, -0.5, 3231, 3, -0.5
*EQUATION
5
4385, 1, 1.0, 3053, 1, -0.25, 3231, 1, -0.25, 3233, 1, -0.25, 202, 1, -0.25
*EQUATION
5
4385, 2, 1.0, 3053, 2, -0.25, 3231, 2, -0.25, 3233, 2, -0.25, 202, 2, -0.25
*EQUATION
5
4385, 3, 1.0, 3053, 3, -0.25, 3231, 3, -0.25, 3233, 3, -0.25, 202, 3, -0.25
*EQUATION
3
4388, 1, 1.0, 202, 1, -0.5, 3233, 1, -0.5
*EQUATION
3
4388, 2, 1.0, 202, 2, -0.5, 3233, 2, -0.5
*EQUATION
3
4388, 3, 1.0, 202, 3, -0.5, 3233, 3, -0.5
*EQUATION
3
4391, 1, 1.0, 3231, 1, -0.5, 3233, 1, -0.5
*EQUATION
3
4391, 2, 1.0, 3231, 2, -0.5, 3233, 2, -0.5
*EQUATION
3
4391, 3, 1.0, 3231, 3, -0.5, 3233, 3, -0.5
*EQUATION
3
4395, 1, 1.0, 249, 1, -0.5, 3229, 1, -0.5
*EQUATION
3
4395, 2, 1.0, 249, 2, -0.5, 3229, 2, -0.5
*EQUATION
3
4395, 3, 1.0, 249, 3, -0.5, 3229, 3, -0.5
*EQUATION
5
4398, 1, 1.0, 3229, 1, -0.25, 249, 1, -0.25, 3236, 1, -0.25, 3231, 1, -0.25
*EQUATION
5
4398, 2, 1.0, 3229, 2, -0.25, 249, 2, -0.25, 3236, 2, -0.25, 3231, 2, -0.25
*EQUATION
5
4398, 3, 1.0, 3229, 3, -0.25, 249, 3, -0.25, 3236, 3, -0.25, 3231, 3, -0.25
*EQUATION
3
4401, 1, 1.0, 3231, 1, -0.5, 3236, 1, -0.5
*EQUATION
3
4401, 2, 1.0, 3231, 2, -0.5, 3236, 2, -0.5
*EQUATION
3
4401, 3, 1.0, 3231, 3, -0.5, 3236, 3, -0.5
*EQUATION
3
4405, 1, 1.0, 249, 1, -0.5, 3236, 1, -0.5
*EQUATION
3
4405, 2, 1.0, 249, 2, -0.5, 3236, 2, -0.5
*EQUATION
3
4405, 3, 1.0, 249, 3, -0.5, 3236, 3, -0.5
*EQUATION
5
4409, 1, 1.0, 3231, 1, -0.25, 3236, 1, -0.25, 250, 1, -0.25, 3233, 1, -0.25
*EQUATION
5
4409, 2, 1.0, 3231, 2, -0.25, 3236, 2, -0.25, 250, 2, -0.25, 3233, 2, -0.25
*EQUATION
5
4409, 3, 1.0, 3231, 3, -0.25, 3236, 3, -0.25, 250, 3, -0.25, 3233, 3, -0.25
*EQUATION
3
4412, 1, 1.0, 250, 1, -0.5, 3233, 1, -0.5
*EQUATION
3
4412, 2, 1.0, 250, 2, -0.5, 3233, 2, -0.5
*EQUATION
3
4412, 3, 1.0, 250, 3, -0.5, 3233, 3, -0.5
*EQUATION
3
4415, 1, 1.0, 250, 1, -0.5, 3236, 1, -0.5
*EQUATION
3
4415, 2, 1.0, 250, 2, -0.5, 3236, 2, -0.5
*EQUATION
3
4415, 3, 1.0, 250, 3, -0.5, 3236, 3, -0.5
*EQUATION
5
4419, 1, 1.0, 202, 1, -0.25, 3233, 1, -0.25, 3289, 1, -0.25, 3110, 1, -0.25
*EQUATION
5
4419, 2, 1.0, 202, 2, -0.25, 3233, 2, -0.25, 3289, 2, -0.25, 3110, 2, -0.25
*EQUATION
5
4419, 3, 1.0, 202, 3, -0.25, 3233, 3, -0.25, 3289, 3, -0.25, 3110, 3, -0.25
*EQUATION
3
4422, 1, 1.0, 3110, 1, -0.5, 3289, 1, -0.5
*EQUATION
3
4422, 2, 1.0, 3110, 2, -0.5, 3289, 2, -0.5
*EQUATION
3
4422, 3, 1.0, 3110, 3, -0.5, 3289, 3, -0.5
*EQUATION
3
4425, 1, 1.0, 3233, 1, -0.5, 3289, 1, -0.5
*EQUATION
3
4425, 2, 1.0, 3233, 2, -0.5, 3289, 2, -0.5
*EQUATION
3
4425, 3, 1.0, 3233, 3, -0.5, 3289, 3, -0.5
*EQUATION
5
4429, 1, 1.0, 3110, 1, -0.25, 3289, 1, -0.25, 3291, 1, -0.25, 209, 1, -0.25
*EQUATION
5
4429, 2, 1.0, 3110, 2, -0.25, 3289, 2, -0.25, 3291, 2, -0.25, 209, 2, -0.25
*EQUATION
5
4429, 3, 1.0, 3110, 3, -0.25, 3289, 3, -0.25, 3291, 3, -0.25, 209, 3, -0.25
*EQUATION
3
4432, 1, 1.0, 209, 1, -0.5, 3291, 1, -0.5
*EQUATION
3
4432, 2, 1.0, 209, 2, -0.5, 3291, 2, -0.5
*EQUATION
3
4432, 3, 1.0, 209, 3, -0.5, 3291, 3, -0.5
*EQUATION
3
4435, 1, 1.0, 3289, 1, -0.5, 3291, 1, -0.5
*EQUATION
3
4435, 2, 1.0, 3289, 2, -0.5, 3291, 2, -0.5
*EQUATION
3
4435, 3, 1.0, 3289, 3, -0.5, 3291, 3, -0.5
*EQUATION
5
4439, 1, 1.0, 3233, 1, -0.25, 250, 1, -0.25, 3293, 1, -0.25, 3289, 1, -0.25
*EQUATION
5
4439, 2, 1.0, 3233, 2, -0.25, 250, 2, -0.25, 3293, 2, -0.25, 3289, 2, -0.25
*EQUATION
5
4439, 3, 1.0, 3233, 3, -0.25, 250, 3, -0.25, 3293, 3, -0.25, 3289, 3, -0.25
*EQUATION
3
4442, 1, 1.0, 3289, 1, -0.5, 3293, 1, -0.5
*EQUATION
3
4442, 2, 1.0, 3289, 2, -0.5, 3293, 2, -0.5
*EQUATION
3
4442, 3, 1.0, 3289, 3, -0.5, 3293, 3, -0.5
*EQUATION
3
4445, 1, 1.0, 250, 1, -0.5, 3293, 1, -0.5
*EQUATION
3
4445, 2, 1.0, 250, 2, -0.5, 3293, 2, -0.5
*EQUATION
3
4445, 3, 1.0, 250, 3, -0.5, 3293, 3, -0.5
*EQUATION
5
4449, 1, 1.0, 3289, 1, -0.25, 3293, 1, -0.25, 257, 1, -0.25, 3291, 1, -0.25
*EQUATION
5
4449, 2, 1.0, 3289, 2, -0.25, 3293, 2, -0.25, 257, 2, -0.25, 3291, 2, -0.25
*EQUATION
5
4449, 3, 1.0, 3289, 3, -0.25, 3293, 3, -0.25, 257, 3, -0.25, 3291, 3, -0.25
*EQUATION
3
4452, 1, 1.0, 257, 1, -0.5, 3291, 1, -0.5
*EQUATION
3
4452, 2, 1.0, 257, 2, -0.5, 3291, 2, -0.5
*EQUATION
3
4452, 3, 1.0, 257, 3, -0.5, 3291, 3, -0.5
*EQUATION
3
4455, 1, 1.0, 257, 1, -0.5, 3293, 1, -0.5
*EQUATION
3
4455, 2, 1.0, 257, 2, -0.5, 3293, 2, -0.5
*EQUATION
3
4455, 3, 1.0, 257, 3, -0.5, 3293, 3, -0.5
*EQUATION
3
4459, 1, 1.0, 221, 1, -0.5, 269, 1, -0.5
*EQUATION
3
4459, 2, 1.0, 221, 2, -0.5, 269, 2, -0.5
*EQUATION
3
4459, 3, 1.0, 221, 3, -0.5, 269, 3, -0.5
*EQUATION
3
4494, 1, 1.0, 230, 1, -0.5, 278, 1, -0.5
*EQUATION
3
4494, 2, 1.0, 230, 2, -0.5, 278, 2, -0.5
*EQUATION
3
4494, 3, 1.0, 230, 3, -0.5, 278, 3, -0.5
*EQUATION
3
4502, 1, 1.0, 249, 1, -0.5, 3351, 1, -0.5
*EQUATION
3
4502, 2, 1.0, 249, 2, -0.5, 3351, 2, -0.5
*EQUATION
3
4502, 3, 1.0, 249, 3, -0.5, 3351, 3, -0.5
*EQUATION
5
4505, 1, 1.0, 249, 1, -0.25, 3351, 1, -0.25, 3353, 1, -0.25, 3236, 1, -0.25
*EQUATION
5
4505, 2, 1.0, 249, 2, -0.25, 3351, 2, -0.25, 3353, 2, -0.25, 3236, 2, -0.25
*EQUATION
5
4505, 3, 1.0, 249, 3, -0.25, 3351, 3, -0.25, 3353, 3, -0.25, 3236, 3, -0.25
*EQUATION
3
4508, 1, 1.0, 3236, 1, -0.5, 3353, 1, -0.5
*EQUATION
3
4508, 2, 1.0, 3236, 2, -0.5, 3353, 2, -0.5
*EQUATION
3
4508, 3, 1.0, 3236, 3, -0.5, 3353, 3, -0.5
*EQUATION
3
4512, 1, 1.0, 3351, 1, -0.5, 3353, 1, -0.5
*EQUATION
3
4512, 2, 1.0, 3351, 2, -0.5, 3353, 2, -0.5
*EQUATION
3
4512, 3, 1.0, 3351, 3, -0.5, 3353, 3, -0.5
*EQUATION
5
4516, 1, 1.0, 3236, 1, -0.25, 3353, 1, -0.25, 3355, 1, -0.25, 250, 1, -0.25
*EQUATION
5
4516, 2, 1.0, 3236, 2, -0.25, 3353, 2, -0.25, 3355, 2, -0.25, 250, 2, -0.25
*EQUATION
5
4516, 3, 1.0, 3236, 3, -0.25, 3353, 3, -0.25, 3355, 3, -0.25, 250, 3, -0.25
*EQUATION
3
4519, 1, 1.0, 250, 1, -0.5, 3355, 1, -0.5
*EQUATION
3
4519, 2, 1.0, 250, 2, -0.5, 3355, 2, -0.5
*EQUATION
3
4519, 3, 1.0, 250, 3, -0.5, 3355, 3, -0.5
*EQUATION
3
4522, 1, 1.0, 3353, 1, -0.5, 3355, 1, -0.5
*EQUATION
3
4522, 2, 1.0, 3353, 2, -0.5, 3355, 2, -0.5
*EQUATION
3
4522, 3, 1.0, 3353, 3, -0.5, 3355, 3, -0.5
*EQUATION
3
4526, 1, 1.0, 297, 1, -0.5, 3351, 1, -0.5
*EQUATION
3
4526, 2, 1.0, 297, 2, -0.5, 3351, 2, -0.5
*EQUATION
3
4526, 3, 1.0, 297, 3, -0.5, 3351, 3, -0.5
*EQUATION
5
4529, 1, 1.0, 3351, 1, -0.25, 297, 1, -0.25, 3358, 1, -0.25, 3353, 1, -0.25
*EQUATION
5
4529, 2, 1.0, 3351, 2, -0.25, 297, 2, -0.25, 3358, 2, -0.25, 3353, 2, -0.25
*EQUATION
5
4529, 3, 1.0, 3351, 3, -0.25, 297, 3, -0.25, 3358, 3, -0.25, 3353, 3, -0.25
*EQUATION
3
4532, 1, 1.0, 3353, 1, -0.5, 3358, 1, -0.5
*EQUATION
3
4532, 2, 1.0, 3353, 2, -0.5, 3358, 2, -0.5
*EQUATION
3
4532, 3, 1.0, 3353, 3, -0.5, 3358, 3, -0.5
*EQUATION
3
4536, 1, 1.0, 297, 1, -0.5, 3358, 1, -0.5
*EQUATION
3
4536, 2, 1.0, 297, 2, -0.5, 3358, 2, -0.5
*EQUATION
3
4536, 3, 1.0, 297, 3, -0.5, 3358, 3, -0.5
*EQUATION
5
4540, 1, 1.0, 3353, 1, -0.25, 3358, 1, -0.25, 298, 1, -0.25, 3355, 1, -0.25
*EQUATION
5
4540, 2, 1.0, 3353, 2, -0.25, 3358, 2, -0.25, 298, 2, -0.25, 3355, 2, -0.25
*EQUATION
5
4540, 3, 1.0, 3353, 3, -0.25, 3358, 3, -0.25, 298, 3, -0.25, 3355, 3, -0.25
*EQUATION
3
4543, 1, 1.0, 298, 1, -0.5, 3355, 1, -0.5
*EQUATION
3
4543, 2, 1.0, 298, 2, -0.5, 3355, 2, -0.5
*EQUATION
3
4543, 3, 1.0, 298, 3, -0.5, 3355, 3, -0.5
*EQUATION
3
4546, 1, 1.0, 298, 1, -0.5, 3358, 1, -0.5
*EQUATION
3
4546, 2, 1.0, 298, 2, -0.5, 3358, 2, -0.5
*EQUATION
3
4546, 3, 1.0, 298, 3, -0.5, 3358, 3, -0.5
*EQUATION
5
4550, 1, 1.0, 250, 1, -0.25, 3355, 1, -0.25, 3411, 1, -0.25, 3293, 1, -0.25
*EQUATION
5
4550, 2, 1.0, 250, 2, -0.25, 3355, 2, -0.25, 3411, 2, -0.25, 3293, 2, -0.25
*EQUATION
5
4550, 3, 1.0, 250, 3, -0.25, 3355, 3, -0.25, 3411, 3, -0.25, 3293, 3, -0.25
*EQUATION
3
4553, 1, 1.0, 3293, 1, -0.5, 3411, 1, -0.5
*EQUATION
3
4553, 2, 1.0, 3293, 2, -0.5, 3411, 2, -0.5
*EQUATION
3
4553, 3, 1.0, 3293, 3, -0.5, 3411, 3, -0.5
*EQUATION
3
4556, 1, 1.0, 3355, 1, -0.5, 3411, 1, -0.5
*EQUATION
3
4556, 2, 1.0, 3355, 2, -0.5, 3411, 2, -0.5
*EQUATION
3
4556, 3, 1.0, 3355, 3, -0.5, 3411, 3, -0.5
*EQUATION
5
4560, 1, 1.0, 3293, 1, -0.25, 3411, 1, -0.25, 3413, 1, -0.25, 257, 1, -0.25
*EQUATION
5
4560, 2, 1.0, 3293, 2, -0.25, 3411, 2, -0.25, 3413, 2, -0.25, 257, 2, -0.25
*EQUATION
5
4560, 3, 1.0, 3293, 3, -0.25, 3411, 3, -0.25, 3413, 3, -0.25, 257, 3, -0.25
*EQUATION
3
4563, 1, 1.0, 257, 1, -0.5, 3413, 1, -0.5
*EQUATION
3
4563, 2, 1.0, 257, 2, -0.5, 3413, 2, -0.5
*EQUATION
3
4563, 3, 1.0, 257, 3, -0.5, 3413, 3, -0.5
*EQUATION
3
4566, 1, 1.0, 3411, 1, -0.5, 3413, 1, -0.5
*EQUATION
3
4566, 2, 1.0, 3411, 2, -0.5, 3413, 2, -0.5
*EQUATION
3
4566, 3, 1.0, 3411, 3, -0.5, 3413, 3, -0.5
*EQUATION
5
4570, 1, 1.0, 3355, 1, -0.25, 298, 1, -0.25, 3415, 1, -0.25, 3411, 1, -0.25
*EQUATION
5
4570, 2, 1.0, 3355, 2, -0.25, 298, 2, -0.25, 3415, 2, -0.25, 3411, 2, -0.25
*EQUATION
5
4570, 3, 1.0, 3355, 3, -0.25, 298, 3, -0.25, 3415, 3, -0.25, 3411, 3, -0.25
*EQUATION
3
4573, 1, 1.0, 3411, 1, -0.5, 3415, 1, -0.5
*EQUATION
3
4573, 2, 1.0, 3411, 2, -0.5, 3415, 2, -0.5
*EQUATION
3
4573, 3, 1.0, 3411, 3, -0.5, 3415, 3, -0.5
*EQUATION
3
4576, 1, 1.0, 298, 1, -0.5, 3415, 1, -0.5
*EQUATION
3
4576, 2, 1.0, 298, 2, -0.5, 3415, 2, -0.5
*EQUATION
3
4576, 3, 1.0, 298, 3, -0.5, 3415, 3, -0.5
*EQUATION
5
4580, 1, 1.0, 3411, 1, -0.25, 3415, 1, -0.25, 305, 1, -0.25, 3413, 1, -0.25
*EQUATION
5
4580, 2, 1.0, 3411, 2, -0.25, 3415, 2, -0.25, 305, 2, -0.25, 3413, 2, -0.25
*EQUATION
5
4580, 3, 1.0, 3411, 3, -0.25, 3415, 3, -0.25, 305, 3, -0.25, 3413, 3, -0.25
*EQUATION
3
4583, 1, 1.0, 305, 1, -0.5, 3413, 1, -0.5
*EQUATION
3
4583, 2, 1.0, 305, 2, -0.5, 3413, 2, -0.5
*EQUATION
3
4583, 3, 1.0, 305, 3, -0.5, 3413, 3, -0.5
*EQUATION
3
4586, 1, 1.0, 305, 1, -0.5, 3415, 1, -0.5
*EQUATION
3
4586, 2, 1.0, 305, 2, -0.5, 3415, 2, -0.5
*EQUATION
3
4586, 3, 1.0, 305, 3, -0.5, 3415, 3, -0.5
*EQUATION
3
4607, 1, 1.0, 297, 1, -0.5, 3449, 1, -0.5
*EQUATION
3
4607, 2, 1.0, 297, 2, -0.5, 3449, 2, -0.5
*EQUATION
3
4607, 3, 1.0, 297, 3, -0.5, 3449, 3, -0.5
*EQUATION
5
4610, 1, 1.0, 297, 1, -0.25, 3449, 1, -0.25, 3451, 1, -0.25, 3358, 1, -0.25
*EQUATION
5
4610, 2, 1.0, 297, 2, -0.25, 3449, 2, -0.25, 3451, 2, -0.25, 3358, 2, -0.25
*EQUATION
5
4610, 3, 1.0, 297, 3, -0.25, 3449, 3, -0.25, 3451, 3, -0.25, 3358, 3, -0.25
*EQUATION
3
4613, 1, 1.0, 3358, 1, -0.5, 3451, 1, -0.5
*EQUATION
3
4613, 2, 1.0, 3358, 2, -0.5, 3451, 2, -0.5
*EQUATION
3
4613, 3, 1.0, 3358, 3, -0.5, 3451, 3, -0.5
*EQUATION
3
4616, 1, 1.0, 3449, 1, -0.5, 3458, 1, -0.5
*EQUATION
3
4616, 2, 1.0, 3449, 2, -0.5, 3458, 2, -0.5
*EQUATION
3
4616, 3, 1.0, 3449, 3, -0.5, 3458, 3, -0.5
*EQUATION
3
4617, 1, 1.0, 3449, 1, -0.5, 3451, 1, -0.5
*EQUATION
3
4617, 2, 1.0, 3449, 2, -0.5, 3451, 2, -0.5
*EQUATION
3
4617, 3, 1.0, 3449, 3, -0.5, 3451, 3, -0.5
*EQUATION
5
4618, 1, 1.0, 3449, 1, -0.25, 3451, 1, -0.25, 3460, 1, -0.25, 3458, 1, -0.25
*EQUATION
5
4618, 2, 1.0, 3449, 2, -0.25, 3451, 2, -0.25, 3460, 2, -0.25, 3458, 2, -0.25
*EQUATION
5
4618, 3, 1.0, 3449, 3, -0.25, 3451, 3, -0.25, 3460, 3, -0.25, 3458, 3, -0.25
*EQUATION
3
4619, 1, 1.0, 3458, 1, -0.5, 3460, 1, -0.5
*EQUATION
3
4619, 2, 1.0, 3458, 2, -0.5, 3460, 2, -0.5
*EQUATION
3
4619, 3, 1.0, 3458, 3, -0.5, 3460, 3, -0.5
*EQUATION
3
4620, 1, 1.0, 3451, 1, -0.5, 3460, 1, -0.5
*EQUATION
3
4620, 2, 1.0, 3451, 2, -0.5, 3460, 2, -0.5
*EQUATION
3
4620, 3, 1.0, 3451, 3, -0.5, 3460, 3, -0.5
*EQUATION
5
4621, 1, 1.0, 3358, 1, -0.25, 3451, 1, -0.25, 3453, 1, -0.25, 298, 1, -0.25
*EQUATION
5
4621, 2, 1.0, 3358, 2, -0.25, 3451, 2, -0.25, 3453, 2, -0.25, 298, 2, -0.25
*EQUATION
5
4621, 3, 1.0, 3358, 3, -0.25, 3451, 3, -0.25, 3453, 3, -0.25, 298, 3, -0.25
*EQUATION
3
4624, 1, 1.0, 298, 1, -0.5, 3453, 1, -0.5
*EQUATION
3
4624, 2, 1.0, 298, 2, -0.5, 3453, 2, -0.5
*EQUATION
3
4624, 3, 1.0, 298, 3, -0.5, 3453, 3, -0.5
*EQUATION
3
4627, 1, 1.0, 3451, 1, -0.5, 3453, 1, -0.5
*EQUATION
3
4627, 2, 1.0, 3451, 2, -0.5, 3453, 2, -0.5
*EQUATION
3
4627, 3, 1.0, 3451, 3, -0.5, 3453, 3, -0.5
*EQUATION
5
4628, 1, 1.0, 3451, 1, -0.25, 3453, 1, -0.25, 3462, 1, -0.25, 3460, 1, -0.25
*EQUATION
5
4628, 2, 1.0, 3451, 2, -0.25, 3453, 2, -0.25, 3462, 2, -0.25, 3460, 2, -0.25
*EQUATION
5
4628, 3, 1.0, 3451, 3, -0.25, 3453, 3, -0.25, 3462, 3, -0.25, 3460, 3, -0.25
*EQUATION
3
4629, 1, 1.0, 3460, 1, -0.5, 3462, 1, -0.5
*EQUATION
3
4629, 2, 1.0, 3460, 2, -0.5, 3462, 2, -0.5
*EQUATION
3
4629, 3, 1.0, 3460, 3, -0.5, 3462, 3, -0.5
*EQUATION
3
4630, 1, 1.0, 3453, 1, -0.5, 3462, 1, -0.5
*EQUATION
3
4630, 2, 1.0, 3453, 2, -0.5, 3462, 2, -0.5
*EQUATION
3
4630, 3, 1.0, 3453, 3, -0.5, 3462, 3, -0.5
*EQUATION
5
4631, 1, 1.0, 298, 1, -0.25, 3453, 1, -0.25, 3489, 1, -0.25, 3415, 1, -0.25
*EQUATION
5
4631, 2, 1.0, 298, 2, -0.25, 3453, 2, -0.25, 3489, 2, -0.25, 3415, 2, -0.25
*EQUATION
5
4631, 3, 1.0, 298, 3, -0.25, 3453, 3, -0.25, 3489, 3, -0.25, 3415, 3, -0.25
*EQUATION
3
4634, 1, 1.0, 3415, 1, -0.5, 3489, 1, -0.5
*EQUATION
3
4634, 2, 1.0, 3415, 2, -0.5, 3489, 2, -0.5
*EQUATION
3
4634, 3, 1.0, 3415, 3, -0.5, 3489, 3, -0.5
*EQUATION
3
4637, 1, 1.0, 3453, 1, -0.5, 3489, 1, -0.5
*EQUATION
3
4637, 2, 1.0, 3453, 2, -0.5, 3489, 2, -0.5
*EQUATION
3
4637, 3, 1.0, 3453, 3, -0.5, 3489, 3, -0.5
*EQUATION
5
4638, 1, 1.0, 3453, 1, -0.25, 3489, 1, -0.25, 3495, 1, -0.25, 3462, 1, -0.25
*EQUATION
5
4638, 2, 1.0, 3453, 2, -0.25, 3489, 2, -0.25, 3495, 2, -0.25, 3462, 2, -0.25
*EQUATION
5
4638, 3, 1.0, 3453, 3, -0.25, 3489, 3, -0.25, 3495, 3, -0.25, 3462, 3, -0.25
*EQUATION
3
4639, 1, 1.0, 3462, 1, -0.5, 3495, 1, -0.5
*EQUATION
3
4639, 2, 1.0, 3462, 2, -0.5, 3495, 2, -0.5
*EQUATION
3
4639, 3, 1.0, 3462, 3, -0.5, 3495, 3, -0.5
*EQUATION
3
4640, 1, 1.0, 3489, 1, -0.5, 3495, 1, -0.5
*EQUATION
3
4640, 2, 1.0, 3489, 2, -0.5, 3495, 2, -0.5
*EQUATION
3
4640, 3, 1.0, 3489, 3, -0.5, 3495, 3, -0.5
*EQUATION
5
4641, 1, 1.0, 3415, 1, -0.25, 3489, 1, -0.25, 3491, 1, -0.25, 305, 1, -0.25
*EQUATION
5
4641, 2, 1.0, 3415, 2, -0.25, 3489, 2, -0.25, 3491, 2, -0.25, 305, 2, -0.25
*EQUATION
5
4641, 3, 1.0, 3415, 3, -0.25, 3489, 3, -0.25, 3491, 3, -0.25, 305, 3, -0.25
*EQUATION
3
4644, 1, 1.0, 305, 1, -0.5, 3491, 1, -0.5
*EQUATION
3
4644, 2, 1.0, 305, 2, -0.5, 3491, 2, -0.5
*EQUATION
3
4644, 3, 1.0, 305, 3, -0.5, 3491, 3, -0.5
*EQUATION
3
4647, 1, 1.0, 3489, 1, -0.5, 3491, 1, -0.5
*EQUATION
3
4647, 2, 1.0, 3489, 2, -0.5, 3491, 2, -0.5
*EQUATION
3
4647, 3, 1.0, 3489, 3, -0.5, 3491, 3, -0.5
*EQUATION
5
4648, 1, 1.0, 3489, 1, -0.25, 3491, 1, -0.25, 3497, 1, -0.25, 3495, 1, -0.25
*EQUATION
5
4648, 2, 1.0, 3489, 2, -0.25, 3491, 2, -0.25, 3497, 2, -0.25, 3495, 2, -0.25
*EQUATION
5
4648, 3, 1.0, 3489, 3, -0.25, 3491, 3, -0.25, 3497, 3, -0.25, 3495, 3, -0.25
*EQUATION
3
4649, 1, 1.0, 3495, 1, -0.5, 3497, 1, -0.5
*EQUATION
3
4649, 2, 1.0, 3495, 2, -0.5, 3497, 2, -0.5
*EQUATION
3
4649, 3, 1.0, 3495, 3, -0.5, 3497, 3, -0.5
*EQUATION
3
4650, 1, 1.0, 3491, 1, -0.5, 3497, 1, -0.5
*EQUATION
3
4650, 2, 1.0, 3491, 2, -0.5, 3497, 2, -0.5
*EQUATION
3
4650, 3, 1.0, 3491, 3, -0.5, 3497, 3, -0.5
*EQUATION
3
4652, 1, 1.0, 319, 1, -0.5, 367, 1, -0.5
*EQUATION
3
4652, 2, 1.0, 319, 2, -0.5, 367, 2, -0.5
*EQUATION
3
4652, 3, 1.0, 319, 3, -0.5, 367, 3, -0.5
*EQUATION
3
4657, 1, 1.0, 347, 1, -0.5, 367, 1, -0.5
*EQUATION
3
4657, 2, 1.0, 347, 2, -0.5, 367, 2, -0.5
*EQUATION
3
4657, 3, 1.0, 347, 3, -0.5, 367, 3, -0.5
*EQUATION
3
4659, 1, 1.0, 367, 1, -0.5, 369, 1, -0.5
*EQUATION
3
4659, 2, 1.0, 367, 2, -0.5, 369, 2, -0.5
*EQUATION
3
4659, 3, 1.0, 367, 3, -0.5, 369, 3, -0.5
*EQUATION
3
4664, 1, 1.0, 323, 1, -0.5, 371, 1, -0.5
*EQUATION
3
4664, 2, 1.0, 323, 2, -0.5, 371, 2, -0.5
*EQUATION
3
4664, 3, 1.0, 323, 3, -0.5, 371, 3, -0.5
*EQUATION
3
4666, 1, 1.0, 369, 1, -0.5, 371, 1, -0.5
*EQUATION
3
4666, 2, 1.0, 369, 2, -0.5, 371, 2, -0.5
*EQUATION
3
4666, 3, 1.0, 369, 3, -0.5, 371, 3, -0.5
*EQUATION
3
4667, 1, 1.0, 354, 1, -0.5, 371, 1, -0.5
*EQUATION
3
4667, 2, 1.0, 354, 2, -0.5, 371, 2, -0.5
*EQUATION
3
4667, 3, 1.0, 354, 3, -0.5, 371, 3, -0.5
*EQUATION
3
4679, 1, 1.0, 347, 1, -0.5, 395, 1, -0.5
*EQUATION
3
4679, 2, 1.0, 347, 2, -0.5, 395, 2, -0.5
*EQUATION
3
4679, 3, 1.0, 347, 3, -0.5, 395, 3, -0.5
*EQUATION
3
4698, 1, 1.0, 354, 1, -0.5, 402, 1, -0.5
*EQUATION
3
4698, 2, 1.0, 354, 2, -0.5, 402, 2, -0.5
*EQUATION
3
4698, 3, 1.0, 354, 3, -0.5, 402, 3, -0.5
*EQUATION
3
4713, 1, 1.0, 395, 1, -0.5, 443, 1, -0.5
*EQUATION
3
4713, 2, 1.0, 395, 2, -0.5, 443, 2, -0.5
*EQUATION
3
4713, 3, 1.0, 395, 3, -0.5, 443, 3, -0.5
*EQUATION
3
4720, 1, 1.0, 443, 1, -0.5, 444, 1, -0.5
*EQUATION
3
4720, 2, 1.0, 443, 2, -0.5, 444, 2, -0.5
*EQUATION
3
4720, 3, 1.0, 443, 3, -0.5, 444, 3, -0.5
*EQUATION
3
4732, 1, 1.0, 402, 1, -0.5, 450, 1, -0.5
*EQUATION
3
4732, 2, 1.0, 402, 2, -0.5, 450, 2, -0.5
*EQUATION
3
4732, 3, 1.0, 402, 3, -0.5, 450, 3, -0.5
*EQUATION
3
4734, 1, 1.0, 444, 1, -0.5, 450, 1, -0.5
*EQUATION
3
4734, 2, 1.0, 444, 2, -0.5, 450, 2, -0.5
*EQUATION
3
4734, 3, 1.0, 444, 3, -0.5, 450, 3, -0.5
*EQUATION
3
4744, 1, 1.0, 487, 1, -0.5, 488, 1, -0.5
*EQUATION
3
4744, 2, 1.0, 487, 2, -0.5, 488, 2, -0.5
*EQUATION
3
4744, 3, 1.0, 487, 3, -0.5, 488, 3, -0.5
*EQUATION
3
4751, 1, 1.0, 488, 1, -0.5, 496, 1, -0.5
*EQUATION
3
4751, 2, 1.0, 488, 2, -0.5, 496, 2, -0.5
*EQUATION
3
4751, 3, 1.0, 488, 3, -0.5, 496, 3, -0.5
*EQUATION
3
4778, 1, 1.0, 581, 1, -0.5, 582, 1, -0.5
*EQUATION
3
4778, 2, 1.0, 581, 2, -0.5, 582, 2, -0.5
*EQUATION
3
4778, 3, 1.0, 581, 3, -0.5, 582, 3, -0.5
*EQUATION
3
4785, 1, 1.0, 582, 1, -0.5, 591, 1, -0.5
*EQUATION
3
4785, 2, 1.0, 582, 2, -0.5, 591, 2, -0.5
*EQUATION
3
4785, 3, 1.0, 582, 3, -0.5, 591, 3, -0.5
*EQUATION
3
4789, 1, 1.0, 627, 1, -0.5, 675, 1, -0.5
*EQUATION
3
4789, 2, 1.0, 627, 2, -0.5, 675, 2, -0.5
*EQUATION
3
4789, 3, 1.0, 627, 3, -0.5, 675, 3, -0.5
*EQUATION
5
4792, 1, 1.0, 627, 1, -0.25, 675, 1, -0.25, 676, 1, -0.25, 628, 1, -0.25
*EQUATION
5
4792, 2, 1.0, 627, 2, -0.25, 675, 2, -0.25, 676, 2, -0.25, 628, 2, -0.25
*EQUATION
5
4792, 3, 1.0, 627, 3, -0.25, 675, 3, -0.25, 676, 3, -0.25, 628, 3, -0.25
*EQUATION
3
4795, 1, 1.0, 628, 1, -0.5, 676, 1, -0.5
*EQUATION
3
4795, 2, 1.0, 628, 2, -0.5, 676, 2, -0.5
*EQUATION
3
4795, 3, 1.0, 628, 3, -0.5, 676, 3, -0.5
*EQUATION
3
4799, 1, 1.0, 675, 1, -0.5, 676, 1, -0.5
*EQUATION
3
4799, 2, 1.0, 675, 2, -0.5, 676, 2, -0.5
*EQUATION
3
4799, 3, 1.0, 675, 3, -0.5, 676, 3, -0.5
*EQUATION
5
4803, 1, 1.0, 628, 1, -0.25, 676, 1, -0.25, 686, 1, -0.25, 638, 1, -0.25
*EQUATION
5
4803, 2, 1.0, 628, 2, -0.25, 676, 2, -0.25, 686, 2, -0.25, 638, 2, -0.25
*EQUATION
5
4803, 3, 1.0, 628, 3, -0.25, 676, 3, -0.25, 686, 3, -0.25, 638, 3, -0.25
*EQUATION
3
4806, 1, 1.0, 638, 1, -0.5, 686, 1, -0.5
*EQUATION
3
4806, 2, 1.0, 638, 2, -0.5, 686, 2, -0.5
*EQUATION
3
4806, 3, 1.0, 638, 3, -0.5, 686, 3, -0.5
*EQUATION
3
4809, 1, 1.0, 676, 1, -0.5, 686, 1, -0.5
*EQUATION
3
4809, 2, 1.0, 676, 2, -0.5, 686, 2, -0.5
*EQUATION
3
4809, 3, 1.0, 676, 3, -0.5, 686, 3, -0.5
*EQUATION
3
4811, 1, 1.0, 1363, 1, -0.5, 1364, 1, -0.5
*EQUATION
3
4811, 2, 1.0, 1363, 2, -0.5, 1364, 2, -0.5
*EQUATION
3
4811, 3, 1.0, 1363, 3, -0.5, 1364, 3, -0.5
*EQUATION
3
4812, 1, 1.0, 1363, 1, -0.5, 1366, 1, -0.5
*EQUATION
3
4812, 2, 1.0, 1363, 2, -0.5, 1366, 2, -0.5
*EQUATION
3
4812, 3, 1.0, 1363, 3, -0.5, 1366, 3, -0.5
*EQUATION
5
4813, 1, 1.0, 1363, 1, -0.25, 1366, 1, -0.25, 1367, 1, -0.25, 1364, 1, -0.25
*EQUATION
5
4813, 2, 1.0, 1363, 2, -0.25, 1366, 2, -0.25, 1367, 2, -0.25, 1364, 2, -0.25
*EQUATION
5
4813, 3, 1.0, 1363, 3, -0.25, 1366, 3, -0.25, 1367, 3, -0.25, 1364, 3, -0.25
*EQUATION
3
4814, 1, 1.0, 1364, 1, -0.5, 1367, 1, -0.5
*EQUATION
3
4814, 2, 1.0, 1364, 2, -0.5, 1367, 2, -0.5
*EQUATION
3
4814, 3, 1.0, 1364, 3, -0.5, 1367, 3, -0.5
*EQUATION
3
4815, 1, 1.0, 1366, 1, -0.5, 1367, 1, -0.5
*EQUATION
3
4815, 2, 1.0, 1366, 2, -0.5, 1367, 2, -0.5
*EQUATION
3
4815, 3, 1.0, 1366, 3, -0.5, 1367, 3, -0.5
*EQUATION
3
4818, 1, 1.0, 1364, 1, -0.5, 1372, 1, -0.5
*EQUATION
3
4818, 2, 1.0, 1364, 2, -0.5, 1372, 2, -0.5
*EQUATION
3
4818, 3, 1.0, 1364, 3, -0.5, 1372, 3, -0.5
*EQUATION
5
4821, 1, 1.0, 1364, 1, -0.25, 1372, 1, -0.25, 1374, 1, -0.25, 1367, 1, -0.25
*EQUATION
5
4821, 2, 1.0, 1364, 2, -0.25, 1372, 2, -0.25, 1374, 2, -0.25, 1367, 2, -0.25
*EQUATION
5
4821, 3, 1.0, 1364, 3, -0.25, 1372, 3, -0.25, 1374, 3, -0.25, 1367, 3, -0.25
*EQUATION
3
4824, 1, 1.0, 1367, 1, -0.5, 1374, 1, -0.5
*EQUATION
3
4824, 2, 1.0, 1367, 2, -0.5, 1374, 2, -0.5
*EQUATION
3
4824, 3, 1.0, 1367, 3, -0.5, 1374, 3, -0.5
*EQUATION
3
4825, 1, 1.0, 918, 1, -0.5, 1372, 1, -0.5
*EQUATION
3
4825, 2, 1.0, 918, 2, -0.5, 1372, 2, -0.5
*EQUATION
3
4825, 3, 1.0, 918, 3, -0.5, 1372, 3, -0.5
*EQUATION
3
4826, 1, 1.0, 918, 1, -0.5, 1373, 1, -0.5
*EQUATION
3
4826, 2, 1.0, 918, 2, -0.5, 1373, 2, -0.5
*EQUATION
3
4826, 3, 1.0, 918, 3, -0.5, 1373, 3, -0.5
*EQUATION
5
4827, 1, 1.0, 918, 1, -0.25, 1373, 1, -0.25, 1374, 1, -0.25, 1372, 1, -0.25
*EQUATION
5
4827, 2, 1.0, 918, 2, -0.25, 1373, 2, -0.25, 1374, 2, -0.25, 1372, 2, -0.25
*EQUATION
5
4827, 3, 1.0, 918, 3, -0.25, 1373, 3, -0.25, 1374, 3, -0.25, 1372, 3, -0.25
*EQUATION
3
4828, 1, 1.0, 1372, 1, -0.5, 1374, 1, -0.5
*EQUATION
3
4828, 2, 1.0, 1372, 2, -0.5, 1374, 2, -0.5
*EQUATION
3
4828, 3, 1.0, 1372, 3, -0.5, 1374, 3, -0.5
*EQUATION
3
4829, 1, 1.0, 1373, 1, -0.5, 1374, 1, -0.5
*EQUATION
3
4829, 2, 1.0, 1373, 2, -0.5, 1374, 2, -0.5
*EQUATION
3
4829, 3, 1.0, 1373, 3, -0.5, 1374, 3, -0.5
*EQUATION
3
4830, 1, 1.0, 1366, 1, -0.5, 1369, 1, -0.5
*EQUATION
3
4830, 2, 1.0, 1366, 2, -0.5, 1369, 2, -0.5
*EQUATION
3
4830, 3, 1.0, 1366, 3, -0.5, 1369, 3, -0.5
*EQUATION
5
4831, 1, 1.0, 1366, 1, -0.25, 1369, 1, -0.25, 1370, 1, -0.25, 1367, 1, -0.25
*EQUATION
5
4831, 2, 1.0, 1366, 2, -0.25, 1369, 2, -0.25, 1370, 2, -0.25, 1367, 2, -0.25
*EQUATION
5
4831, 3, 1.0, 1366, 3, -0.25, 1369, 3, -0.25, 1370, 3, -0.25, 1367, 3, -0.25
*EQUATION
3
4832, 1, 1.0, 1367, 1, -0.5, 1370, 1, -0.5
*EQUATION
3
4832, 2, 1.0, 1367, 2, -0.5, 1370, 2, -0.5
*EQUATION
3
4832, 3, 1.0, 1367, 3, -0.5, 1370, 3, -0.5
*EQUATION
3
4833, 1, 1.0, 1369, 1, -0.5, 1370, 1, -0.5
*EQUATION
3
4833, 2, 1.0, 1369, 2, -0.5, 1370, 2, -0.5
*EQUATION
3
4833, 3, 1.0, 1369, 3, -0.5, 1370, 3, -0.5
*EQUATION
5
4836, 1, 1.0, 1367, 1, -0.25, 1374, 1, -0.25, 1376, 1, -0.25, 1370, 1, -0.25
*EQUATION
5
4836, 2, 1.0, 1367, 2, -0.25, 1374, 2, -0.25, 1376, 2, -0.25, 1370, 2, -0.25
*EQUATION
5
4836, 3, 1.0, 1367, 3, -0.25, 1374, 3, -0.25, 1376, 3, -0.25, 1370, 3, -0.25
*EQUATION
3
4839, 1, 1.0, 1370, 1, -0.5, 1376, 1, -0.5
*EQUATION
3
4839, 2, 1.0, 1370, 2, -0.5, 1376, 2, -0.5
*EQUATION
3
4839, 3, 1.0, 1370, 3, -0.5, 1376, 3, -0.5
*EQUATION
3
4840, 1, 1.0, 921, 1, -0.5, 1373, 1, -0.5
*EQUATION
3
4840, 2, 1.0, 921, 2, -0.5, 1373, 2, -0.5
*EQUATION
3
4840, 3, 1.0, 921, 3, -0.5, 1373, 3, -0.5
*EQUATION
5
4841, 1, 1.0, 1373, 1, -0.25, 921, 1, -0.25, 1376, 1, -0.25, 1374, 1, -0.25
*EQUATION
5
4841, 2, 1.0, 1373, 2, -0.25, 921, 2, -0.25, 1376, 2, -0.25, 1374, 2, -0.25
*EQUATION
5
4841, 3, 1.0, 1373, 3, -0.25, 921, 3, -0.25, 1376, 3, -0.25, 1374, 3, -0.25
*EQUATION
3
4842, 1, 1.0, 1374, 1, -0.5, 1376, 1, -0.5
*EQUATION
3
4842, 2, 1.0, 1374, 2, -0.5, 1376, 2, -0.5
*EQUATION
3
4842, 3, 1.0, 1374, 3, -0.5, 1376, 3, -0.5
*EQUATION
3
4843, 1, 1.0, 921, 1, -0.5, 1376, 1, -0.5
*EQUATION
3
4843, 2, 1.0, 921, 2, -0.5, 1376, 2, -0.5
*EQUATION
3
4843, 3, 1.0, 921, 3, -0.5, 1376, 3, -0.5
*EQUATION
3
4844, 1, 1.0, 1369, 1, -0.5, 1381, 1, -0.5
*EQUATION
3
4844, 2, 1.0, 1369, 2, -0.5, 1381, 2, -0.5
*EQUATION
3
4844, 3, 1.0, 1369, 3, -0.5, 1381, 3, -0.5
*EQUATION
5
4845, 1, 1.0, 1369, 1, -0.25, 1381, 1, -0.25, 1382, 1, -0.25, 1370, 1, -0.25
*EQUATION
5
4845, 2, 1.0, 1369, 2, -0.25, 1381, 2, -0.25, 1382, 2, -0.25, 1370, 2, -0.25
*EQUATION
5
4845, 3, 1.0, 1369, 3, -0.25, 1381, 3, -0.25, 1382, 3, -0.25, 1370, 3, -0.25
*EQUATION
3
4846, 1, 1.0, 1370, 1, -0.5, 1382, 1, -0.5
*EQUATION
3
4846, 2, 1.0, 1370, 2, -0.5, 1382, 2, -0.5
*EQUATION
3
4846, 3, 1.0, 1370, 3, -0.5, 1382, 3, -0.5
*EQUATION
3
4847, 1, 1.0, 1381, 1, -0.5, 1382, 1, -0.5
*EQUATION
3
4847, 2, 1.0, 1381, 2, -0.5, 1382, 2, -0.5
*EQUATION
3
4847, 3, 1.0, 1381, 3, -0.5, 1382, 3, -0.5
*EQUATION
5
4850, 1, 1.0, 1370, 1, -0.25, 1376, 1, -0.25, 1388, 1, -0.25, 1382, 1, -0.25
*EQUATION
5
4850, 2, 1.0, 1370, 2, -0.25, 1376, 2, -0.25, 1388, 2, -0.25, 1382, 2, -0.25
*EQUATION
5
4850, 3, 1.0, 1370, 3, -0.25, 1376, 3, -0.25, 1388, 3, -0.25, 1382, 3, -0.25
*EQUATION
3
4853, 1, 1.0, 1382, 1, -0.5, 1388, 1, -0.5
*EQUATION
3
4853, 2, 1.0, 1382, 2, -0.5, 1388, 2, -0.5
*EQUATION
3
4853, 3, 1.0, 1382, 3, -0.5, 1388, 3, -0.5
*EQUATION
3
4854, 1, 1.0, 921, 1, -0.5, 1387, 1, -0.5
*EQUATION
3
4854, 2, 1.0, 921, 2, -0.5, 1387, 2, -0.5
*EQUATION
3
4854, 3, 1.0, 921, 3, -0.5, 1387, 3, -0.5
*EQUATION
5
4855, 1, 1.0, 921, 1, -0.25, 1387, 1, -0.25, 1388, 1, -0.25, 1376, 1, -0.25
*EQUATION
5
4855, 2, 1.0, 921, 2, -0.25, 1387, 2, -0.25, 1388, 2, -0.25, 1376, 2, -0.25
*EQUATION
5
4855, 3, 1.0, 921, 3, -0.25, 1387, 3, -0.25, 1388, 3, -0.25, 1376, 3, -0.25
*EQUATION
3
4856, 1, 1.0, 1376, 1, -0.5, 1388, 1, -0.5
*EQUATION
3
4856, 2, 1.0, 1376, 2, -0.5, 1388, 2, -0.5
*EQUATION
3
4856, 3, 1.0, 1376, 3, -0.5, 1388, 3, -0.5
*EQUATION
3
4857, 1, 1.0, 1387, 1, -0.5, 1388, 1, -0.5
*EQUATION
3
4857, 2, 1.0, 1387, 2, -0.5, 1388, 2, -0.5
*EQUATION
3
4857, 3, 1.0, 1387, 3, -0.5, 1388, 3, -0.5
*EQUATION
3
4858, 1, 1.0, 1381, 1, -0.5, 1384, 1, -0.5
*EQUATION
3
4858, 2, 1.0, 1381, 2, -0.5, 1384, 2, -0.5
*EQUATION
3
4858, 3, 1.0, 1381, 3, -0.5, 1384, 3, -0.5
*EQUATION
5
4859, 1, 1.0, 1381, 1, -0.25, 1384, 1, -0.25, 1385, 1, -0.25, 1382, 1, -0.25
*EQUATION
5
4859, 2, 1.0, 1381, 2, -0.25, 1384, 2, -0.25, 1385, 2, -0.25, 1382, 2, -0.25
*EQUATION
5
4859, 3, 1.0, 1381, 3, -0.25, 1384, 3, -0.25, 1385, 3, -0.25, 1382, 3, -0.25
*EQUATION
3
4860, 1, 1.0, 1382, 1, -0.5, 1385, 1, -0.5
*EQUATION
3
4860, 2, 1.0, 1382, 2, -0.5, 1385, 2, -0.5
*EQUATION
3
4860, 3, 1.0, 1382, 3, -0.5, 1385, 3, -0.5
*EQUATION
3
4861, 1, 1.0, 1384, 1, -0.5, 1385, 1, -0.5
*EQUATION
3
4861, 2, 1.0, 1384, 2, -0.5, 1385, 2, -0.5
*EQUATION
3
4861, 3, 1.0, 1384, 3, -0.5, 1385, 3, -0.5
*EQUATION
5
4864, 1, 1.0, 1382, 1, -0.25, 1388, 1, -0.25, 1390, 1, -0.25, 1385, 1, -0.25
*EQUATION
5
4864, 2, 1.0, 1382, 2, -0.25, 1388, 2, -0.25, 1390, 2, -0.25, 1385, 2, -0.25
*EQUATION
5
4864, 3, 1.0, 1382, 3, -0.25, 1388, 3, -0.25, 1390, 3, -0.25, 1385, 3, -0.25
*EQUATION
3
4867, 1, 1.0, 1385, 1, -0.5, 1390, 1, -0.5
*EQUATION
3
4867, 2, 1.0, 1385, 2, -0.5, 1390, 2, -0.5
*EQUATION
3
4867, 3, 1.0, 1385, 3, -0.5, 1390, 3, -0.5
*EQUATION
3
4868, 1, 1.0, 924, 1, -0.5, 1387, 1, -0.5
*EQUATION
3
4868, 2, 1.0, 924, 2, -0.5, 1387, 2, -0.5
*EQUATION
3
4868, 3, 1.0, 924, 3, -0.5, 1387, 3, -0.5
*EQUATION
5
4869, 1, 1.0, 1387, 1, -0.25, 924, 1, -0.25, 1390, 1, -0.25, 1388, 1, -0.25
*EQUATION
5
4869, 2, 1.0, 1387, 2, -0.25, 924, 2, -0.25, 1390, 2, -0.25, 1388, 2, -0.25
*EQUATION
5
4869, 3, 1.0, 1387, 3, -0.25, 924, 3, -0.25, 1390, 3, -0.25, 1388, 3, -0.25
*EQUATION
3
4870, 1, 1.0, 1388, 1, -0.5, 1390, 1, -0.5
*EQUATION
3
4870, 2, 1.0, 1388, 2, -0.5, 1390, 2, -0.5
*EQUATION
3
4870, 3, 1.0, 1388, 3, -0.5, 1390, 3, -0.5
*EQUATION
3
4871, 1, 1.0, 924, 1, -0.5, 1390, 1, -0.5
*EQUATION
3
4871, 2, 1.0, 924, 2, -0.5, 1390, 2, -0.5
*EQUATION
3
4871, 3, 1.0, 924, 3, -0.5, 1390, 3, -0.5
*EQUATION
3
4872, 1, 1.0, 2083, 1, -0.5, 2092, 1, -0.5
*EQUATION
3
4872, 2, 1.0, 2083, 2, -0.5, 2092, 2, -0.5
*EQUATION
3
4872, 3, 1.0, 2083, 3, -0.5, 2092, 3, -0.5
*EQUATION
3
4873, 1, 1.0, 2083, 1, -0.5, 2085, 1, -0.5
*EQUATION
3
4873, 2, 1.0, 2083, 2, -0.5, 2085, 2, -0.5
*EQUATION
3
4873, 3, 1.0, 2083, 3, -0.5, 2085, 3, -0.5
*EQUATION
5
4874, 1, 1.0, 2083, 1, -0.25, 2085, 1, -0.25, 2094, 1, -0.25, 2092, 1, -0.25
*EQUATION
5
4874, 2, 1.0, 2083, 2, -0.25, 2085, 2, -0.25, 2094, 2, -0.25, 2092, 2, -0.25
*EQUATION
5
4874, 3, 1.0, 2083, 3, -0.25, 2085, 3, -0.25, 2094, 3, -0.25, 2092, 3, -0.25
*EQUATION
3
4875, 1, 1.0, 18, 1, -0.5, 2083, 1, -0.5
*EQUATION
3
4875, 2, 1.0, 18, 2, -0.5, 2083, 2, -0.5
*EQUATION
3
4875, 3, 1.0, 18, 3, -0.5, 2083, 3, -0.5
*EQUATION
5
4877, 1, 1.0, 2083, 1, -0.25, 18, 1, -0.25, 1009, 1, -0.25, 2085, 1, -0.25
*EQUATION
5
4877, 2, 1.0, 2083, 2, -0.25, 18, 2, -0.25, 1009, 2, -0.25, 2085, 2, -0.25
*EQUATION
5
4877, 3, 1.0, 2083, 3, -0.25, 18, 3, -0.25, 1009, 3, -0.25, 2085, 3, -0.25
*EQUATION
3
4879, 1, 1.0, 1384, 1, -0.5, 1477, 1, -0.5
*EQUATION
3
4879, 2, 1.0, 1384, 2, -0.5, 1477, 2, -0.5
*EQUATION
3
4879, 3, 1.0, 1384, 3, -0.5, 1477, 3, -0.5
*EQUATION
5
4880, 1, 1.0, 1384, 1, -0.25, 1477, 1, -0.25, 1478, 1, -0.25, 1385, 1, -0.25
*EQUATION
5
4880, 2, 1.0, 1384, 2, -0.25, 1477, 2, -0.25, 1478, 2, -0.25, 1385, 2, -0.25
*EQUATION
5
4880, 3, 1.0, 1384, 3, -0.25, 1477, 3, -0.25, 1478, 3, -0.25, 1385, 3, -0.25
*EQUATION
3
4881, 1, 1.0, 1385, 1, -0.5, 1478, 1, -0.5
*EQUATION
3
4881, 2, 1.0, 1385, 2, -0.5, 1478, 2, -0.5
*EQUATION
3
4881, 3, 1.0, 1385, 3, -0.5, 1478, 3, -0.5
*EQUATION
3
4882, 1, 1.0, 1477, 1, -0.5, 1478, 1, -0.5
*EQUATION
3
4882, 2, 1.0, 1477, 2, -0.5, 1478, 2, -0.5
*EQUATION
3
4882, 3, 1.0, 1477, 3, -0.5, 1478, 3, -0.5
*EQUATION
5
4885, 1, 1.0, 1385, 1, -0.25, 1390, 1, -0.25, 1484, 1, -0.25, 1478, 1, -0.25
*EQUATION
5
4885, 2, 1.0, 1385, 2, -0.25, 1390, 2, -0.25, 1484, 2, -0.25, 1478, 2, -0.25
*EQUATION
5
4885, 3, 1.0, 1385, 3, -0.25, 1390, 3, -0.25, 1484, 3, -0.25, 1478, 3, -0.25
*EQUATION
3
4888, 1, 1.0, 1478, 1, -0.5, 1484, 1, -0.5
*EQUATION
3
4888, 2, 1.0, 1478, 2, -0.5, 1484, 2, -0.5
*EQUATION
3
4888, 3, 1.0, 1478, 3, -0.5, 1484, 3, -0.5
*EQUATION
3
4889, 1, 1.0, 924, 1, -0.5, 1483, 1, -0.5
*EQUATION
3
4889, 2, 1.0, 924, 2, -0.5, 1483, 2, -0.5
*EQUATION
3
4889, 3, 1.0, 924, 3, -0.5, 1483, 3, -0.5
*EQUATION
5
4890, 1, 1.0, 924, 1, -0.25, 1483, 1, -0.25, 1484, 1, -0.25, 1390, 1, -0.25
*EQUATION
5
4890, 2, 1.0, 924, 2, -0.25, 1483, 2, -0.25, 1484, 2, -0.25, 1390, 2, -0.25
*EQUATION
5
4890, 3, 1.0, 924, 3, -0.25, 1483, 3, -0.25, 1484, 3, -0.25, 1390, 3, -0.25
*EQUATION
3
4891, 1, 1.0, 1390, 1, -0.5, 1484, 1, -0.5
*EQUATION
3
4891, 2, 1.0, 1390, 2, -0.5, 1484, 2, -0.5
*EQUATION
3
4891, 3, 1.0, 1390, 3, -0.5, 1484, 3, -0.5
*EQUATION
3
4892, 1, 1.0, 1483, 1, -0.5, 1484, 1, -0.5
*EQUATION
3
4892, 2, 1.0, 1483, 2, -0.5, 1484, 2, -0.5
*EQUATION
3
4892, 3, 1.0, 1483, 3, -0.5, 1484, 3, -0.5
*EQUATION
3
4893, 1, 1.0, 1477, 1, -0.5, 1480, 1, -0.5
*EQUATION
3
4893, 2, 1.0, 1477, 2, -0.5, 1480, 2, -0.5
*EQUATION
3
4893, 3, 1.0, 1477, 3, -0.5, 1480, 3, -0.5
*EQUATION
5
4894, 1, 1.0, 1477, 1, -0.25, 1480, 1, -0.25, 1481, 1, -0.25, 1478, 1, -0.25
*EQUATION
5
4894, 2, 1.0, 1477, 2, -0.25, 1480, 2, -0.25, 1481, 2, -0.25, 1478, 2, -0.25
*EQUATION
5
4894, 3, 1.0, 1477, 3, -0.25, 1480, 3, -0.25, 1481, 3, -0.25, 1478, 3, -0.25
*EQUATION
3
4895, 1, 1.0, 1478, 1, -0.5, 1481, 1, -0.5
*EQUATION
3
4895, 2, 1.0, 1478, 2, -0.5, 1481, 2, -0.5
*EQUATION
3
4895, 3, 1.0, 1478, 3, -0.5, 1481, 3, -0.5
*EQUATION
3
4896, 1, 1.0, 1480, 1, -0.5, 1481, 1, -0.5
*EQUATION
3
4896, 2, 1.0, 1480, 2, -0.5, 1481, 2, -0.5
*EQUATION
3
4896, 3, 1.0, 1480, 3, -0.5, 1481, 3, -0.5
*EQUATION
5
4899, 1, 1.0, 1478, 1, -0.25, 1484, 1, -0.25, 1486, 1, -0.25, 1481, 1, -0.25
*EQUATION
5
4899, 2, 1.0, 1478, 2, -0.25, 1484, 2, -0.25, 1486, 2, -0.25, 1481, 2, -0.25
*EQUATION
5
4899, 3, 1.0, 1478, 3, -0.25, 1484, 3, -0.25, 1486, 3, -0.25, 1481, 3, -0.25
*EQUATION
3
4902, 1, 1.0, 1481, 1, -0.5, 1486, 1, -0.5
*EQUATION
3
4902, 2, 1.0, 1481, 2, -0.5, 1486, 2, -0.5
*EQUATION
3
4902, 3, 1.0, 1481, 3, -0.5, 1486, 3, -0.5
*EQUATION
3
4903, 1, 1.0, 950, 1, -0.5, 1483, 1, -0.5
*EQUATION
3
4903, 2, 1.0, 950, 2, -0.5, 1483, 2, -0.5
*EQUATION
3
4903, 3, 1.0, 950, 3, -0.5, 1483, 3, -0.5
*EQUATION
5
4904, 1, 1.0, 1483, 1, -0.25, 950, 1, -0.25, 1486, 1, -0.25, 1484, 1, -0.25
*EQUATION
5
4904, 2, 1.0, 1483, 2, -0.25, 950, 2, -0.25, 1486, 2, -0.25, 1484, 2, -0.25
*EQUATION
5
4904, 3, 1.0, 1483, 3, -0.25, 950, 3, -0.25, 1486, 3, -0.25, 1484, 3, -0.25
*EQUATION
3
4905, 1, 1.0, 1484, 1, -0.5, 1486, 1, -0.5
*EQUATION
3
4905, 2, 1.0, 1484, 2, -0.5, 1486, 2, -0.5
*EQUATION
3
4905, 3, 1.0, 1484, 3, -0.5, 1486, 3, -0.5
*EQUATION
3
4906, 1, 1.0, 950, 1, -0.5, 1486, 1, -0.5
*EQUATION
3
4906, 2, 1.0, 950, 2, -0.5, 1486, 2, -0.5
*EQUATION
3
4906, 3, 1.0, 950, 3, -0.5, 1486, 3, -0.5
*EQUATION
3
4907, 1, 1.0, 1480, 1, -0.5, 1491, 1, -0.5
*EQUATION
3
4907, 2, 1.0, 1480, 2, -0.5, 1491, 2, -0.5
*EQUATION
3
4907, 3, 1.0, 1480, 3, -0.5, 1491, 3, -0.5
*EQUATION
5
4908, 1, 1.0, 1480, 1, -0.25, 1491, 1, -0.25, 1492, 1, -0.25, 1481, 1, -0.25
*EQUATION
5
4908, 2, 1.0, 1480, 2, -0.25, 1491, 2, -0.25, 1492, 2, -0.25, 1481, 2, -0.25
*EQUATION
5
4908, 3, 1.0, 1480, 3, -0.25, 1491, 3, -0.25, 1492, 3, -0.25, 1481, 3, -0.25
*EQUATION
3
4909, 1, 1.0, 1481, 1, -0.5, 1492, 1, -0.5
*EQUATION
3
4909, 2, 1.0, 1481, 2, -0.5, 1492, 2, -0.5
*EQUATION
3
4909, 3, 1.0, 1481, 3, -0.5, 1492, 3, -0.5
*EQUATION
3
4910, 1, 1.0, 1491, 1, -0.5, 1492, 1, -0.5
*EQUATION
3
4910, 2, 1.0, 1491, 2, -0.5, 1492, 2, -0.5
*EQUATION
3
4910, 3, 1.0, 1491, 3, -0.5, 1492, 3, -0.5
*EQUATION
5
4913, 1, 1.0, 1481, 1, -0.25, 1486, 1, -0.25, 1498, 1, -0.25, 1492, 1, -0.25
*EQUATION
5
4913, 2, 1.0, 1481, 2, -0.25, 1486, 2, -0.25, 1498, 2, -0.25, 1492, 2, -0.25
*EQUATION
5
4913, 3, 1.0, 1481, 3, -0.25, 1486, 3, -0.25, 1498, 3, -0.25, 1492, 3, -0.25
*EQUATION
3
4916, 1, 1.0, 1492, 1, -0.5, 1498, 1, -0.5
*EQUATION
3
4916, 2, 1.0, 1492, 2, -0.5, 1498, 2, -0.5
*EQUATION
3
4916, 3, 1.0, 1492, 3, -0.5, 1498, 3, -0.5
*EQUATION
3
4917, 1, 1.0, 950, 1, -0.5, 1497, 1, -0.5
*EQUATION
3
4917, 2, 1.0, 950, 2, -0.5, 1497, 2, -0.5
*EQUATION
3
4917, 3, 1.0, 950, 3, -0.5, 1497, 3, -0.5
*EQUATION
5
4918, 1, 1.0, 950, 1, -0.25, 1497, 1, -0.25, 1498, 1, -0.25, 1486, 1, -0.25
*EQUATION
5
4918, 2, 1.0, 950, 2, -0.25, 1497, 2, -0.25, 1498, 2, -0.25, 1486, 2, -0.25
*EQUATION
5
4918, 3, 1.0, 950, 3, -0.25, 1497, 3, -0.25, 1498, 3, -0.25, 1486, 3, -0.25
*EQUATION
3
4919, 1, 1.0, 1486, 1, -0.5, 1498, 1, -0.5
*EQUATION
3
4919, 2, 1.0, 1486, 2, -0.5, 1498, 2, -0.5
*EQUATION
3
4919, 3, 1.0, 1486, 3, -0.5, 1498, 3, -0.5
*EQUATION
3
4920, 1, 1.0, 1497, 1, -0.5, 1498, 1, -0.5
*EQUATION
3
4920, 2, 1.0, 1497, 2, -0.5, 1498, 2, -0.5
*EQUATION
3
4920, 3, 1.0, 1497, 3, -0.5, 1498, 3, -0.5
*EQUATION
3
4921, 1, 1.0, 1491, 1, -0.5, 1494, 1, -0.5
*EQUATION
3
4921, 2, 1.0, 1491, 2, -0.5, 1494, 2, -0.5
*EQUATION
3
4921, 3, 1.0, 1491, 3, -0.5, 1494, 3, -0.5
*EQUATION
5
4922, 1, 1.0, 1491, 1, -0.25, 1494, 1, -0.25, 1495, 1, -0.25, 1492, 1, -0.25
*EQUATION
5
4922, 2, 1.0, 1491, 2, -0.25, 1494, 2, -0.25, 1495, 2, -0.25, 1492, 2, -0.25
*EQUATION
5
4922, 3, 1.0, 1491, 3, -0.25, 1494, 3, -0.25, 1495, 3, -0.25, 1492, 3, -0.25
*EQUATION
3
4923, 1, 1.0, 1492, 1, -0.5, 1495, 1, -0.5
*EQUATION
3
4923, 2, 1.0, 1492, 2, -0.5, 1495, 2, -0.5
*EQUATION
3
4923, 3, 1.0, 1492, 3, -0.5, 1495, 3, -0.5
*EQUATION
3
4924, 1, 1.0, 1494, 1, -0.5, 1495, 1, -0.5
*EQUATION
3
4924, 2, 1.0, 1494, 2, -0.5, 1495, 2, -0.5
*EQUATION
3
4924, 3, 1.0, 1494, 3, -0.5, 1495, 3, -0.5
*EQUATION
5
4927, 1, 1.0, 1492, 1, -0.25, 1498, 1, -0.25, 1500, 1, -0.25, 1495, 1, -0.25
*EQUATION
5
4927, 2, 1.0, 1492, 2, -0.25, 1498, 2, -0.25, 1500, 2, -0.25, 1495, 2, -0.25
*EQUATION
5
4927, 3, 1.0, 1492, 3, -0.25, 1498, 3, -0.25, 1500, 3, -0.25, 1495, 3, -0.25
*EQUATION
3
4930, 1, 1.0, 1495, 1, -0.5, 1500, 1, -0.5
*EQUATION
3
4930, 2, 1.0, 1495, 2, -0.5, 1500, 2, -0.5
*EQUATION
3
4930, 3, 1.0, 1495, 3, -0.5, 1500, 3, -0.5
*EQUATION
3
4931, 1, 1.0, 953, 1, -0.5, 1497, 1, -0.5
*EQUATION
3
4931, 2, 1.0, 953, 2, -0.5, 1497, 2, -0.5
*EQUATION
3
4931, 3, 1.0, 953, 3, -0.5, 1497, 3, -0.5
*EQUATION
5
4932, 1, 1.0, 1497, 1, -0.25, 953, 1, -0.25, 1500, 1, -0.25, 1498, 1, -0.25
*EQUATION
5
4932, 2, 1.0, 1497, 2, -0.25, 953, 2, -0.25, 1500, 2, -0.25, 1498, 2, -0.25
*EQUATION
5
4932, 3, 1.0, 1497, 3, -0.25, 953, 3, -0.25, 1500, 3, -0.25, 1498, 3, -0.25
*EQUATION
3
4933, 1, 1.0, 1498, 1, -0.5, 1500, 1, -0.5
*EQUATION
3
4933, 2, 1.0, 1498, 2, -0.5, 1500, 2, -0.5
*EQUATION
3
4933, 3, 1.0, 1498, 3, -0.5, 1500, 3, -0.5
*EQUATION
3
4934, 1, 1.0, 953, 1, -0.5, 1500, 1, -0.5
*EQUATION
3
4934, 2, 1.0, 953, 2, -0.5, 1500, 2, -0.5
*EQUATION
3
4934, 3, 1.0, 953, 3, -0.5, 1500, 3, -0.5
*EQUATION
3
4940, 1, 1.0, 39, 1, -0.5, 40, 1, -0.5
*EQUATION
3
4940, 2, 1.0, 39, 2, -0.5, 40, 2, -0.5
*EQUATION
3
4940, 3, 1.0, 39, 3, -0.5, 40, 3, -0.5
*EQUATION
5
4941, 1, 1.0, 40, 1, -0.25, 39, 1, -0.25, 43, 1, -0.25, 44, 1, -0.25
*EQUATION
5
4941, 2, 1.0, 40, 2, -0.25, 39, 2, -0.25, 43, 2, -0.25, 44, 2, -0.25
*EQUATION
5
4941, 3, 1.0, 40, 3, -0.25, 39, 3, -0.25, 43, 3, -0.25, 44, 3, -0.25
*EQUATION
3
4942, 1, 1.0, 43, 1, -0.5, 44, 1, -0.5
*EQUATION
3
4942, 2, 1.0, 43, 2, -0.5, 44, 2, -0.5
*EQUATION
3
4942, 3, 1.0, 43, 3, -0.5, 44, 3, -0.5
*EQUATION
5
4945, 1, 1.0, 44, 1, -0.25, 43, 1, -0.25, 51, 1, -0.25, 52, 1, -0.25
*EQUATION
5
4945, 2, 1.0, 44, 2, -0.25, 43, 2, -0.25, 51, 2, -0.25, 52, 2, -0.25
*EQUATION
5
4945, 3, 1.0, 44, 3, -0.25, 43, 3, -0.25, 51, 3, -0.25, 52, 3, -0.25
*EQUATION
3
4948, 1, 1.0, 51, 1, -0.5, 52, 1, -0.5
*EQUATION
3
4948, 2, 1.0, 51, 2, -0.5, 52, 2, -0.5
*EQUATION
3
4948, 3, 1.0, 51, 3, -0.5, 52, 3, -0.5
*EQUATION
5
4954, 1, 1.0, 52, 1, -0.25, 51, 1, -0.25, 57, 1, -0.25, 58, 1, -0.25
*EQUATION
5
4954, 2, 1.0, 52, 2, -0.25, 51, 2, -0.25, 57, 2, -0.25, 58, 2, -0.25
*EQUATION
5
4954, 3, 1.0, 52, 3, -0.25, 51, 3, -0.25, 57, 3, -0.25, 58, 3, -0.25
*EQUATION
3
4960, 1, 1.0, 3708, 1, -0.5, 3714, 1, -0.5
*EQUATION
3
4960, 2, 1.0, 3708, 2, -0.5, 3714, 2, -0.5
*EQUATION
3
4960, 3, 1.0, 3708, 3, -0.5, 3714, 3, -0.5
*EQUATION
5
4961, 1, 1.0, 3708, 1, -0.25, 3714, 1, -0.25, 3715, 1, -0.25, 3709, 1, -0.25
*EQUATION
5
4961, 2, 1.0, 3708, 2, -0.25, 3714, 2, -0.25, 3715, 2, -0.25, 3709, 2, -0.25
*EQUATION
5
4961, 3, 1.0, 3708, 3, -0.25, 3714, 3, -0.25, 3715, 3, -0.25, 3709, 3, -0.25
*EQUATION
3
4962, 1, 1.0, 3709, 1, -0.5, 3715, 1, -0.5
*EQUATION
3
4962, 2, 1.0, 3709, 2, -0.5, 3715, 2, -0.5
*EQUATION
3
4962, 3, 1.0, 3709, 3, -0.5, 3715, 3, -0.5
*EQUATION
5
4965, 1, 1.0, 3709, 1, -0.25, 3715, 1, -0.25, 2768, 1, -0.25, 2764, 1, -0.25
*EQUATION
5
4965, 2, 1.0, 3709, 2, -0.25, 3715, 2, -0.25, 2768, 2, -0.25, 2764, 2, -0.25
*EQUATION
5
4965, 3, 1.0, 3709, 3, -0.25, 3715, 3, -0.25, 2768, 3, -0.25, 2764, 3, -0.25
*EQUATION
5
4966, 1, 1.0, 21, 1, -0.25, 2093, 1, -0.25, 2768, 1, -0.25, 2764, 1, -0.25
*EQUATION
5
4966, 2, 1.0, 21, 2, -0.25, 2093, 2, -0.25, 2768, 2, -0.25, 2764, 2, -0.25
*EQUATION
5
4966, 3, 1.0, 21, 3, -0.25, 2093, 3, -0.25, 2768, 3, -0.25, 2764, 3, -0.25
*EQUATION
3
4967, 1, 1.0, 2764, 1, -0.5, 2768, 1, -0.5
*EQUATION
3
4967, 2, 1.0, 2764, 2, -0.5, 2768, 2, -0.5
*EQUATION
3
4967, 3, 1.0, 2764, 3, -0.5, 2768, 3, -0.5
*EQUATION
3
4968, 1, 1.0, 3714, 1, -0.5, 3715, 1, -0.5
*EQUATION
3
4968, 2, 1.0, 3714, 2, -0.5, 3715, 2, -0.5
*EQUATION
3
4968, 3, 1.0, 3714, 3, -0.5, 3715, 3, -0.5
*EQUATION
3
4971, 1, 1.0, 2768, 1, -0.5, 3715, 1, -0.5
*EQUATION
3
4971, 2, 1.0, 2768, 2, -0.5, 3715, 2, -0.5
*EQUATION
3
4971, 3, 1.0, 2768, 3, -0.5, 3715, 3, -0.5
*EQUATION
3
4972, 1, 1.0, 2093, 1, -0.5, 2768, 1, -0.5
*EQUATION
3
4972, 2, 1.0, 2093, 2, -0.5, 2768, 2, -0.5
*EQUATION
3
4972, 3, 1.0, 2093, 3, -0.5, 2768, 3, -0.5
*EQUATION
3
4973, 1, 1.0, 1658, 1, -0.5, 3714, 1, -0.5
*EQUATION
3
4973, 2, 1.0, 1658, 2, -0.5, 3714, 2, -0.5
*EQUATION
3
4973, 3, 1.0, 1658, 3, -0.5, 3714, 3, -0.5
*EQUATION
5
4974, 1, 1.0, 3714, 1, -0.25, 1658, 1, -0.25, 1659, 1, -0.25, 3715, 1, -0.25
*EQUATION
5
4974, 2, 1.0, 3714, 2, -0.25, 1658, 2, -0.25, 1659, 2, -0.25, 3715, 2, -0.25
*EQUATION
5
4974, 3, 1.0, 3714, 3, -0.25, 1658, 3, -0.25, 1659, 3, -0.25, 3715, 3, -0.25
*EQUATION
3
4975, 1, 1.0, 1659, 1, -0.5, 3715, 1, -0.5
*EQUATION
3
4975, 2, 1.0, 1659, 2, -0.5, 3715, 2, -0.5
*EQUATION
3
4975, 3, 1.0, 1659, 3, -0.5, 3715, 3, -0.5
*EQUATION
5
4978, 1, 1.0, 3715, 1, -0.25, 1659, 1, -0.25, 1660, 1, -0.25, 2768, 1, -0.25
*EQUATION
5
4978, 2, 1.0, 3715, 2, -0.25, 1659, 2, -0.25, 1660, 2, -0.25, 2768, 2, -0.25
*EQUATION
5
4978, 3, 1.0, 3715, 3, -0.25, 1659, 3, -0.25, 1660, 3, -0.25, 2768, 3, -0.25
*EQUATION
3
4980, 1, 1.0, 1660, 1, -0.5, 2768, 1, -0.5
*EQUATION
3
4980, 2, 1.0, 1660, 2, -0.5, 2768, 2, -0.5
*EQUATION
3
4980, 3, 1.0, 1660, 3, -0.5, 2768, 3, -0.5
*EQUATION
5
4984, 1, 1.0, 58, 1, -0.25, 57, 1, -0.25, 59, 1, -0.25, 60, 1, -0.25
*EQUATION
5
4984, 2, 1.0, 58, 2, -0.25, 57, 2, -0.25, 59, 2, -0.25, 60, 2, -0.25
*EQUATION
5
4984, 3, 1.0, 58, 3, -0.25, 57, 3, -0.25, 59, 3, -0.25, 60, 3, -0.25
*EQUATION
3
4985, 1, 1.0, 59, 1, -0.5, 60, 1, -0.5
*EQUATION
3
4985, 2, 1.0, 59, 2, -0.5, 60, 2, -0.5
*EQUATION
3
4985, 3, 1.0, 59, 3, -0.5, 60, 3, -0.5
*EQUATION
5
4993, 1, 1.0, 2764, 1, -0.25, 2768, 1, -0.25, 2769, 1, -0.25, 62, 1, -0.25
*EQUATION
5
4993, 2, 1.0, 2764, 2, -0.25, 2768, 2, -0.25, 2769, 2, -0.25, 62, 2, -0.25
*EQUATION
5
4993, 3, 1.0, 2764, 3, -0.25, 2768, 3, -0.25, 2769, 3, -0.25, 62, 3, -0.25
*EQUATION
3
4994, 1, 1.0, 62, 1, -0.5, 2769, 1, -0.5
*EQUATION
3
4994, 2, 1.0, 62, 2, -0.5, 2769, 2, -0.5
*EQUATION
3
4994, 3, 1.0, 62, 3, -0.5, 2769, 3, -0.5
*EQUATION
5
4995, 1, 1.0, 2764, 1, -0.25, 2768, 1, -0.25, 2770, 1, -0.25, 2765, 1, -0.25
*EQUATION
5
4995, 2, 1.0, 2764, 2, -0.25, 2768, 2, -0.25, 2770, 2, -0.25, 2765, 2, -0.25
*EQUATION
5
4995, 3, 1.0, 2764, 3, -0.25, 2768, 3, -0.25, 2770, 3, -0.25, 2765, 3, -0.25
*EQUATION
5
4997, 1, 1.0, 62, 1, -0.25, 2769, 1, -0.25, 2771, 1, -0.25, 2766, 1, -0.25
*EQUATION
5
4997, 2, 1.0, 62, 2, -0.25, 2769, 2, -0.25, 2771, 2, -0.25, 2766, 2, -0.25
*EQUATION
5
4997, 3, 1.0, 62, 3, -0.25, 2769, 3, -0.25, 2771, 3, -0.25, 2766, 3, -0.25
*EQUATION
3
4998, 1, 1.0, 2765, 1, -0.5, 2770, 1, -0.5
*EQUATION
3
4998, 2, 1.0, 2765, 2, -0.5, 2770, 2, -0.5
*EQUATION
3
4998, 3, 1.0, 2765, 3, -0.5, 2770, 3, -0.5
*EQUATION
5
4999, 1, 1.0, 2765, 1, -0.25, 2770, 1, -0.25, 2771, 1, -0.25, 2766, 1, -0.25
*EQUATION
5
4999, 2, 1.0, 2765, 2, -0.25, 2770, 2, -0.25, 2771, 2, -0.25, 2766, 2, -0.25
*EQUATION
5
4999, 3, 1.0, 2765, 3, -0.25, 2770, 3, -0.25, 2771, 3, -0.25, 2766, 3, -0.25
*EQUATION
3
5000, 1, 1.0, 2766, 1, -0.5, 2771, 1, -0.5
*EQUATION
3
5000, 2, 1.0, 2766, 2, -0.5, 2771, 2, -0.5
*EQUATION
3
5000, 3, 1.0, 2766, 3, -0.5, 2771, 3, -0.5
*EQUATION
3
5001, 1, 1.0, 2768, 1, -0.5, 2769, 1, -0.5
*EQUATION
3
5001, 2, 1.0, 2768, 2, -0.5, 2769, 2, -0.5
*EQUATION
3
5001, 3, 1.0, 2768, 3, -0.5, 2769, 3, -0.5
*EQUATION
3
5002, 1, 1.0, 2768, 1, -0.5, 2770, 1, -0.5
*EQUATION
3
5002, 2, 1.0, 2768, 2, -0.5, 2770, 2, -0.5
*EQUATION
3
5002, 3, 1.0, 2768, 3, -0.5, 2770, 3, -0.5
*EQUATION
3
5004, 1, 1.0, 2769, 1, -0.5, 2771, 1, -0.5
*EQUATION
3
5004, 2, 1.0, 2769, 2, -0.5, 2771, 2, -0.5
*EQUATION
3
5004, 3, 1.0, 2769, 3, -0.5, 2771, 3, -0.5
*EQUATION
3
5005, 1, 1.0, 2770, 1, -0.5, 2771, 1, -0.5
*EQUATION
3
5005, 2, 1.0, 2770, 2, -0.5, 2771, 2, -0.5
*EQUATION
3
5005, 3, 1.0, 2770, 3, -0.5, 2771, 3, -0.5
*EQUATION
5
5006, 1, 1.0, 2093, 1, -0.25, 2095, 1, -0.25, 2770, 1, -0.25, 2768, 1, -0.25
*EQUATION
5
5006, 2, 1.0, 2093, 2, -0.25, 2095, 2, -0.25, 2770, 2, -0.25, 2768, 2, -0.25
*EQUATION
5
5006, 3, 1.0, 2093, 3, -0.25, 2095, 3, -0.25, 2770, 3, -0.25, 2768, 3, -0.25
*EQUATION
5
5009, 1, 1.0, 22, 1, -0.25, 1011, 1, -0.25, 1667, 1, -0.25, 1660, 1, -0.25
*EQUATION
5
5009, 2, 1.0, 22, 2, -0.25, 1011, 2, -0.25, 1667, 2, -0.25, 1660, 2, -0.25
*EQUATION
5
5009, 3, 1.0, 22, 3, -0.25, 1011, 3, -0.25, 1667, 3, -0.25, 1660, 3, -0.25
*EQUATION
3
5010, 1, 1.0, 1660, 1, -0.5, 1667, 1, -0.5
*EQUATION
3
5010, 2, 1.0, 1660, 2, -0.5, 1667, 2, -0.5
*EQUATION
3
5010, 3, 1.0, 1660, 3, -0.5, 1667, 3, -0.5
*EQUATION
5
5011, 1, 1.0, 2768, 1, -0.25, 1660, 1, -0.25, 61, 1, -0.25, 2769, 1, -0.25
*EQUATION
5
5011, 2, 1.0, 2768, 2, -0.25, 1660, 2, -0.25, 61, 2, -0.25, 2769, 2, -0.25
*EQUATION
5
5011, 3, 1.0, 2768, 3, -0.25, 1660, 3, -0.25, 61, 3, -0.25, 2769, 3, -0.25
*EQUATION
3
5012, 1, 1.0, 61, 1, -0.5, 2769, 1, -0.5
*EQUATION
3
5012, 2, 1.0, 61, 2, -0.5, 2769, 2, -0.5
*EQUATION
3
5012, 3, 1.0, 61, 3, -0.5, 2769, 3, -0.5
*EQUATION
5
5014, 1, 1.0, 2769, 1, -0.25, 61, 1, -0.25, 1668, 1, -0.25, 2771, 1, -0.25
*EQUATION
5
5014, 2, 1.0, 2769, 2, -0.25, 61, 2, -0.25, 1668, 2, -0.25, 2771, 2, -0.25
*EQUATION
5
5014, 3, 1.0, 2769, 3, -0.25, 61, 3, -0.25, 1668, 3, -0.25, 2771, 3, -0.25
*EQUATION
3
5016, 1, 1.0, 1668, 1, -0.5, 2771, 1, -0.5
*EQUATION
3
5016, 2, 1.0, 1668, 2, -0.5, 2771, 2, -0.5
*EQUATION
3
5016, 3, 1.0, 1668, 3, -0.5, 2771, 3, -0.5
*EQUATION
3
5017, 1, 1.0, 61, 1, -0.5, 1660, 1, -0.5
*EQUATION
3
5017, 2, 1.0, 61, 2, -0.5, 1660, 2, -0.5
*EQUATION
3
5017, 3, 1.0, 61, 3, -0.5, 1660, 3, -0.5
*EQUATION
5
5018, 1, 1.0, 1660, 1, -0.25, 1667, 1, -0.25, 1668, 1, -0.25, 61, 1, -0.25
*EQUATION
5
5018, 2, 1.0, 1660, 2, -0.25, 1667, 2, -0.25, 1668, 2, -0.25, 61, 2, -0.25
*EQUATION
5
5018, 3, 1.0, 1660, 3, -0.25, 1667, 3, -0.25, 1668, 3, -0.25, 61, 3, -0.25
*EQUATION
3
5019, 1, 1.0, 61, 1, -0.5, 1668, 1, -0.5
*EQUATION
3
5019, 2, 1.0, 61, 2, -0.5, 1668, 2, -0.5
*EQUATION
3
5019, 3, 1.0, 61, 3, -0.5, 1668, 3, -0.5
*EQUATION
3
5020, 1, 1.0, 1667, 1, -0.5, 1668, 1, -0.5
*EQUATION
3
5020, 2, 1.0, 1667, 2, -0.5, 1668, 2, -0.5
*EQUATION
3
5020, 3, 1.0, 1667, 3, -0.5, 1668, 3, -0.5
*EQUATION
5
5021, 1, 1.0, 2770, 1, -0.25, 2772, 1, -0.25, 2773, 1, -0.25, 2771, 1, -0.25
*EQUATION
5
5021, 2, 1.0, 2770, 2, -0.25, 2772, 2, -0.25, 2773, 2, -0.25, 2771, 2, -0.25
*EQUATION
5
5021, 3, 1.0, 2770, 3, -0.25, 2772, 3, -0.25, 2773, 3, -0.25, 2771, 3, -0.25
*EQUATION
3
5022, 1, 1.0, 2771, 1, -0.5, 2773, 1, -0.5
*EQUATION
3
5022, 2, 1.0, 2771, 2, -0.5, 2773, 2, -0.5
*EQUATION
3
5022, 3, 1.0, 2771, 3, -0.5, 2773, 3, -0.5
*EQUATION
3
5023, 1, 1.0, 2772, 1, -0.5, 2773, 1, -0.5
*EQUATION
3
5023, 2, 1.0, 2772, 2, -0.5, 2773, 2, -0.5
*EQUATION
3
5023, 3, 1.0, 2772, 3, -0.5, 2773, 3, -0.5
*EQUATION
5
5028, 1, 1.0, 1667, 1, -0.25, 1669, 1, -0.25, 65, 1, -0.25, 1668, 1, -0.25
*EQUATION
5
5028, 2, 1.0, 1667, 2, -0.25, 1669, 2, -0.25, 65, 2, -0.25, 1668, 2, -0.25
*EQUATION
5
5028, 3, 1.0, 1667, 3, -0.25, 1669, 3, -0.25, 65, 3, -0.25, 1668, 3, -0.25
*EQUATION
3
5029, 1, 1.0, 65, 1, -0.5, 1668, 1, -0.5
*EQUATION
3
5029, 2, 1.0, 65, 2, -0.5, 1668, 2, -0.5
*EQUATION
3
5029, 3, 1.0, 65, 3, -0.5, 1668, 3, -0.5
*EQUATION
3
5030, 1, 1.0, 65, 1, -0.5, 1669, 1, -0.5
*EQUATION
3
5030, 2, 1.0, 65, 2, -0.5, 1669, 2, -0.5
*EQUATION
3
5030, 3, 1.0, 65, 3, -0.5, 1669, 3, -0.5
*EQUATION
3
5031, 1, 1.0, 2771, 1, -0.5, 3737, 1, -0.5
*EQUATION
3
5031, 2, 1.0, 2771, 2, -0.5, 3737, 2, -0.5
*EQUATION
3
5031, 3, 1.0, 2771, 3, -0.5, 3737, 3, -0.5
*EQUATION
5
5032, 1, 1.0, 2771, 1, -0.25, 2773, 1, -0.25, 3739, 1, -0.25, 3737, 1, -0.25
*EQUATION
5
5032, 2, 1.0, 2771, 2, -0.25, 2773, 2, -0.25, 3739, 2, -0.25, 3737, 2, -0.25
*EQUATION
5
5032, 3, 1.0, 2771, 3, -0.25, 2773, 3, -0.25, 3739, 3, -0.25, 3737, 3, -0.25
*EQUATION
3
5033, 1, 1.0, 3737, 1, -0.5, 3739, 1, -0.5
*EQUATION
3
5033, 2, 1.0, 3737, 2, -0.5, 3739, 2, -0.5
*EQUATION
3
5033, 3, 1.0, 3737, 3, -0.5, 3739, 3, -0.5
*EQUATION
3
5034, 1, 1.0, 2773, 1, -0.5, 3739, 1, -0.5
*EQUATION
3
5034, 2, 1.0, 2773, 2, -0.5, 3739, 2, -0.5
*EQUATION
3
5034, 3, 1.0, 2773, 3, -0.5, 3739, 3, -0.5
*EQUATION
5
5035, 1, 1.0, 2771, 1, -0.25, 1668, 1, -0.25, 1677, 1, -0.25, 3737, 1, -0.25
*EQUATION
5
5035, 2, 1.0, 2771, 2, -0.25, 1668, 2, -0.25, 1677, 2, -0.25, 3737, 2, -0.25
*EQUATION
5
5035, 3, 1.0, 2771, 3, -0.25, 1668, 3, -0.25, 1677, 3, -0.25, 3737, 3, -0.25
*EQUATION
3
5036, 1, 1.0, 1677, 1, -0.5, 3737, 1, -0.5
*EQUATION
3
5036, 2, 1.0, 1677, 2, -0.5, 3737, 2, -0.5
*EQUATION
3
5036, 3, 1.0, 1677, 3, -0.5, 3737, 3, -0.5
*EQUATION
3
5041, 1, 1.0, 1668, 1, -0.5, 1677, 1, -0.5
*EQUATION
3
5041, 2, 1.0, 1668, 2, -0.5, 1677, 2, -0.5
*EQUATION
3
5041, 3, 1.0, 1668, 3, -0.5, 1677, 3, -0.5
*EQUATION
5
5042, 1, 1.0, 1668, 1, -0.25, 65, 1, -0.25, 1679, 1, -0.25, 1677, 1, -0.25
*EQUATION
5
5042, 2, 1.0, 1668, 2, -0.25, 65, 2, -0.25, 1679, 2, -0.25, 1677, 2, -0.25
*EQUATION
5
5042, 3, 1.0, 1668, 3, -0.25, 65, 3, -0.25, 1679, 3, -0.25, 1677, 3, -0.25
*EQUATION
3
5043, 1, 1.0, 1677, 1, -0.5, 1679, 1, -0.5
*EQUATION
3
5043, 2, 1.0, 1677, 2, -0.5, 1679, 2, -0.5
*EQUATION
3
5043, 3, 1.0, 1677, 3, -0.5, 1679, 3, -0.5
*EQUATION
3
5044, 1, 1.0, 65, 1, -0.5, 1679, 1, -0.5
*EQUATION
3
5044, 2, 1.0, 65, 2, -0.5, 1679, 2, -0.5
*EQUATION
3
5044, 3, 1.0, 65, 3, -0.5, 1679, 3, -0.5
*EQUATION
3
5045, 1, 1.0, 3737, 1, -0.5, 3738, 1, -0.5
*EQUATION
3
5045, 2, 1.0, 3737, 2, -0.5, 3738, 2, -0.5
*EQUATION
3
5045, 3, 1.0, 3737, 3, -0.5, 3738, 3, -0.5
*EQUATION
5
5046, 1, 1.0, 3737, 1, -0.25, 3739, 1, -0.25, 3740, 1, -0.25, 3738, 1, -0.25
*EQUATION
5
5046, 2, 1.0, 3737, 2, -0.25, 3739, 2, -0.25, 3740, 2, -0.25, 3738, 2, -0.25
*EQUATION
5
5046, 3, 1.0, 3737, 3, -0.25, 3739, 3, -0.25, 3740, 3, -0.25, 3738, 3, -0.25
*EQUATION
3
5047, 1, 1.0, 3738, 1, -0.5, 3740, 1, -0.5
*EQUATION
3
5047, 2, 1.0, 3738, 2, -0.5, 3740, 2, -0.5
*EQUATION
3
5047, 3, 1.0, 3738, 3, -0.5, 3740, 3, -0.5
*EQUATION
3
5048, 1, 1.0, 3739, 1, -0.5, 3740, 1, -0.5
*EQUATION
3
5048, 2, 1.0, 3739, 2, -0.5, 3740, 2, -0.5
*EQUATION
3
5048, 3, 1.0, 3739, 3, -0.5, 3740, 3, -0.5
*EQUATION
5
5049, 1, 1.0, 3737, 1, -0.25, 1677, 1, -0.25, 1678, 1, -0.25, 3738, 1, -0.25
*EQUATION
5
5049, 2, 1.0, 3737, 2, -0.25, 1677, 2, -0.25, 1678, 2, -0.25, 3738, 2, -0.25
*EQUATION
5
5049, 3, 1.0, 3737, 3, -0.25, 1677, 3, -0.25, 1678, 3, -0.25, 3738, 3, -0.25
*EQUATION
3
5050, 1, 1.0, 1678, 1, -0.5, 3738, 1, -0.5
*EQUATION
3
5050, 2, 1.0, 1678, 2, -0.5, 3738, 2, -0.5
*EQUATION
3
5050, 3, 1.0, 1678, 3, -0.5, 3738, 3, -0.5
*EQUATION
3
5055, 1, 1.0, 1677, 1, -0.5, 1678, 1, -0.5
*EQUATION
3
5055, 2, 1.0, 1677, 2, -0.5, 1678, 2, -0.5
*EQUATION
3
5055, 3, 1.0, 1677, 3, -0.5, 1678, 3, -0.5
*EQUATION
5
5056, 1, 1.0, 1677, 1, -0.25, 1679, 1, -0.25, 67, 1, -0.25, 1678, 1, -0.25
*EQUATION
5
5056, 2, 1.0, 1677, 2, -0.25, 1679, 2, -0.25, 67, 2, -0.25, 1678, 2, -0.25
*EQUATION
5
5056, 3, 1.0, 1677, 3, -0.25, 1679, 3, -0.25, 67, 3, -0.25, 1678, 3, -0.25
*EQUATION
3
5057, 1, 1.0, 67, 1, -0.5, 1678, 1, -0.5
*EQUATION
3
5057, 2, 1.0, 67, 2, -0.5, 1678, 2, -0.5
*EQUATION
3
5057, 3, 1.0, 67, 3, -0.5, 1678, 3, -0.5
*EQUATION
3
5058, 1, 1.0, 67, 1, -0.5, 1679, 1, -0.5
*EQUATION
3
5058, 2, 1.0, 67, 2, -0.5, 1679, 2, -0.5
*EQUATION
3
5058, 3, 1.0, 67, 3, -0.5, 1679, 3, -0.5
*EQUATION
3
5064, 1, 1.0, 2774, 1, -0.5, 2777, 1, -0.5
*EQUATION
3
5064, 2, 1.0, 2774, 2, -0.5, 2777, 2, -0.5
*EQUATION
3
5064, 3, 1.0, 2774, 3, -0.5, 2777, 3, -0.5
*EQUATION
5
5065, 1, 1.0, 2774, 1, -0.25, 2777, 1, -0.25, 2778, 1, -0.25, 2775, 1, -0.25
*EQUATION
5
5065, 2, 1.0, 2774, 2, -0.25, 2777, 2, -0.25, 2778, 2, -0.25, 2775, 2, -0.25
*EQUATION
5
5065, 3, 1.0, 2774, 3, -0.25, 2777, 3, -0.25, 2778, 3, -0.25, 2775, 3, -0.25
*EQUATION
3
5066, 1, 1.0, 2775, 1, -0.5, 2778, 1, -0.5
*EQUATION
3
5066, 2, 1.0, 2775, 2, -0.5, 2778, 2, -0.5
*EQUATION
3
5066, 3, 1.0, 2775, 3, -0.5, 2778, 3, -0.5
*EQUATION
5
5067, 1, 1.0, 2774, 1, -0.25, 2777, 1, -0.25, 2779, 1, -0.25, 2776, 1, -0.25
*EQUATION
5
5067, 2, 1.0, 2774, 2, -0.25, 2777, 2, -0.25, 2779, 2, -0.25, 2776, 2, -0.25
*EQUATION
5
5067, 3, 1.0, 2774, 3, -0.25, 2777, 3, -0.25, 2779, 3, -0.25, 2776, 3, -0.25
*EQUATION
5
5069, 1, 1.0, 2775, 1, -0.25, 2778, 1, -0.25, 2780, 1, -0.25, 70, 1, -0.25
*EQUATION
5
5069, 2, 1.0, 2775, 2, -0.25, 2778, 2, -0.25, 2780, 2, -0.25, 70, 2, -0.25
*EQUATION
5
5069, 3, 1.0, 2775, 3, -0.25, 2778, 3, -0.25, 2780, 3, -0.25, 70, 3, -0.25
*EQUATION
3
5070, 1, 1.0, 2776, 1, -0.5, 2779, 1, -0.5
*EQUATION
3
5070, 2, 1.0, 2776, 2, -0.5, 2779, 2, -0.5
*EQUATION
3
5070, 3, 1.0, 2776, 3, -0.5, 2779, 3, -0.5
*EQUATION
5
5071, 1, 1.0, 2776, 1, -0.25, 2779, 1, -0.25, 2780, 1, -0.25, 70, 1, -0.25
*EQUATION
5
5071, 2, 1.0, 2776, 2, -0.25, 2779, 2, -0.25, 2780, 2, -0.25, 70, 2, -0.25
*EQUATION
5
5071, 3, 1.0, 2776, 3, -0.25, 2779, 3, -0.25, 2780, 3, -0.25, 70, 3, -0.25
*EQUATION
3
5072, 1, 1.0, 70, 1, -0.5, 2780, 1, -0.5
*EQUATION
3
5072, 2, 1.0, 70, 2, -0.5, 2780, 2, -0.5
*EQUATION
3
5072, 3, 1.0, 70, 3, -0.5, 2780, 3, -0.5
*EQUATION
3
5073, 1, 1.0, 2777, 1, -0.5, 2778, 1, -0.5
*EQUATION
3
5073, 2, 1.0, 2777, 2, -0.5, 2778, 2, -0.5
*EQUATION
3
5073, 3, 1.0, 2777, 3, -0.5, 2778, 3, -0.5
*EQUATION
3
5074, 1, 1.0, 2777, 1, -0.5, 2779, 1, -0.5
*EQUATION
3
5074, 2, 1.0, 2777, 2, -0.5, 2779, 2, -0.5
*EQUATION
3
5074, 3, 1.0, 2777, 3, -0.5, 2779, 3, -0.5
*EQUATION
3
5076, 1, 1.0, 2778, 1, -0.5, 2780, 1, -0.5
*EQUATION
3
5076, 2, 1.0, 2778, 2, -0.5, 2780, 2, -0.5
*EQUATION
3
5076, 3, 1.0, 2778, 3, -0.5, 2780, 3, -0.5
*EQUATION
3
5077, 1, 1.0, 2779, 1, -0.5, 2780, 1, -0.5
*EQUATION
3
5077, 2, 1.0, 2779, 2, -0.5, 2780, 2, -0.5
*EQUATION
3
5077, 3, 1.0, 2779, 3, -0.5, 2780, 3, -0.5
*EQUATION
5
5078, 1, 1.0, 2772, 1, -0.25, 2777, 1, -0.25, 2778, 1, -0.25, 2773, 1, -0.25
*EQUATION
5
5078, 2, 1.0, 2772, 2, -0.25, 2777, 2, -0.25, 2778, 2, -0.25, 2773, 2, -0.25
*EQUATION
5
5078, 3, 1.0, 2772, 3, -0.25, 2777, 3, -0.25, 2778, 3, -0.25, 2773, 3, -0.25
*EQUATION
3
5079, 1, 1.0, 2773, 1, -0.5, 2778, 1, -0.5
*EQUATION
3
5079, 2, 1.0, 2773, 2, -0.5, 2778, 2, -0.5
*EQUATION
3
5079, 3, 1.0, 2773, 3, -0.5, 2778, 3, -0.5
*EQUATION
3
5083, 1, 1.0, 1687, 1, -0.5, 2778, 1, -0.5
*EQUATION
3
5083, 2, 1.0, 1687, 2, -0.5, 2778, 2, -0.5
*EQUATION
3
5083, 3, 1.0, 1687, 3, -0.5, 2778, 3, -0.5
*EQUATION
5
5084, 1, 1.0, 1669, 1, -0.25, 2412, 1, -0.25, 1687, 1, -0.25, 65, 1, -0.25
*EQUATION
5
5084, 2, 1.0, 1669, 2, -0.25, 2412, 2, -0.25, 1687, 2, -0.25, 65, 2, -0.25
*EQUATION
5
5084, 3, 1.0, 1669, 3, -0.25, 2412, 3, -0.25, 1687, 3, -0.25, 65, 3, -0.25
*EQUATION
3
5085, 1, 1.0, 65, 1, -0.5, 1687, 1, -0.5
*EQUATION
3
5085, 2, 1.0, 65, 2, -0.5, 1687, 2, -0.5
*EQUATION
3
5085, 3, 1.0, 65, 3, -0.5, 1687, 3, -0.5
*EQUATION
3
5086, 1, 1.0, 1687, 1, -0.5, 2412, 1, -0.5
*EQUATION
3
5086, 2, 1.0, 1687, 2, -0.5, 2412, 2, -0.5
*EQUATION
3
5086, 3, 1.0, 1687, 3, -0.5, 2412, 3, -0.5
*EQUATION
5
5087, 1, 1.0, 2151, 1, -0.25, 2153, 1, -0.25, 2779, 1, -0.25, 2777, 1, -0.25
*EQUATION
5
5087, 2, 1.0, 2151, 2, -0.25, 2153, 2, -0.25, 2779, 2, -0.25, 2777, 2, -0.25
*EQUATION
5
5087, 3, 1.0, 2151, 3, -0.25, 2153, 3, -0.25, 2779, 3, -0.25, 2777, 3, -0.25
*EQUATION
3
5088, 1, 1.0, 2153, 1, -0.5, 2779, 1, -0.5
*EQUATION
3
5088, 2, 1.0, 2153, 2, -0.5, 2779, 2, -0.5
*EQUATION
3
5088, 3, 1.0, 2153, 3, -0.5, 2779, 3, -0.5
*EQUATION
3
5092, 1, 1.0, 1696, 1, -0.5, 2779, 1, -0.5
*EQUATION
3
5092, 2, 1.0, 1696, 2, -0.5, 2779, 2, -0.5
*EQUATION
3
5092, 3, 1.0, 1696, 3, -0.5, 2779, 3, -0.5
*EQUATION
5
5093, 1, 1.0, 1579, 1, -0.25, 35, 1, -0.25, 1696, 1, -0.25, 2412, 1, -0.25
*EQUATION
5
5093, 2, 1.0, 1579, 2, -0.25, 35, 2, -0.25, 1696, 2, -0.25, 2412, 2, -0.25
*EQUATION
5
5093, 3, 1.0, 1579, 3, -0.25, 35, 3, -0.25, 1696, 3, -0.25, 2412, 3, -0.25
*EQUATION
3
5094, 1, 1.0, 1696, 1, -0.5, 2412, 1, -0.5
*EQUATION
3
5094, 2, 1.0, 1696, 2, -0.5, 2412, 2, -0.5
*EQUATION
3
5094, 3, 1.0, 1696, 3, -0.5, 2412, 3, -0.5
*EQUATION
3
5095, 1, 1.0, 35, 1, -0.5, 1696, 1, -0.5
*EQUATION
3
5095, 2, 1.0, 35, 2, -0.5, 1696, 2, -0.5
*EQUATION
3
5095, 3, 1.0, 35, 3, -0.5, 1696, 3, -0.5
*EQUATION
5
5097, 1, 1.0, 2778, 1, -0.25, 1687, 1, -0.25, 69, 1, -0.25, 2780, 1, -0.25
*EQUATION
5
5097, 2, 1.0, 2778, 2, -0.25, 1687, 2, -0.25, 69, 2, -0.25, 2780, 2, -0.25
*EQUATION
5
5097, 3, 1.0, 2778, 3, -0.25, 1687, 3, -0.25, 69, 3, -0.25, 2780, 3, -0.25
*EQUATION
5
5098, 1, 1.0, 2779, 1, -0.25, 1696, 1, -0.25, 69, 1, -0.25, 2780, 1, -0.25
*EQUATION
5
5098, 2, 1.0, 2779, 2, -0.25, 1696, 2, -0.25, 69, 2, -0.25, 2780, 2, -0.25
*EQUATION
5
5098, 3, 1.0, 2779, 3, -0.25, 1696, 3, -0.25, 69, 3, -0.25, 2780, 3, -0.25
*EQUATION
3
5099, 1, 1.0, 69, 1, -0.5, 2780, 1, -0.5
*EQUATION
3
5099, 2, 1.0, 69, 2, -0.5, 2780, 2, -0.5
*EQUATION
3
5099, 3, 1.0, 69, 3, -0.5, 2780, 3, -0.5
*EQUATION
5
5100, 1, 1.0, 2412, 1, -0.25, 1696, 1, -0.25, 69, 1, -0.25, 1687, 1, -0.25
*EQUATION
5
5100, 2, 1.0, 2412, 2, -0.25, 1696, 2, -0.25, 69, 2, -0.25, 1687, 2, -0.25
*EQUATION
5
5100, 3, 1.0, 2412, 3, -0.25, 1696, 3, -0.25, 69, 3, -0.25, 1687, 3, -0.25
*EQUATION
3
5101, 1, 1.0, 69, 1, -0.5, 1687, 1, -0.5
*EQUATION
3
5101, 2, 1.0, 69, 2, -0.5, 1687, 2, -0.5
*EQUATION
3
5101, 3, 1.0, 69, 3, -0.5, 1687, 3, -0.5
*EQUATION
3
5102, 1, 1.0, 69, 1, -0.5, 1696, 1, -0.5
*EQUATION
3
5102, 2, 1.0, 69, 2, -0.5, 1696, 2, -0.5
*EQUATION
3
5102, 3, 1.0, 69, 3, -0.5, 1696, 3, -0.5
*EQUATION
5
5103, 1, 1.0, 2773, 1, -0.25, 2778, 1, -0.25, 3754, 1, -0.25, 3739, 1, -0.25
*EQUATION
5
5103, 2, 1.0, 2773, 2, -0.25, 2778, 2, -0.25, 3754, 2, -0.25, 3739, 2, -0.25
*EQUATION
5
5103, 3, 1.0, 2773, 3, -0.25, 2778, 3, -0.25, 3754, 3, -0.25, 3739, 3, -0.25
*EQUATION
3
5104, 1, 1.0, 3739, 1, -0.5, 3754, 1, -0.5
*EQUATION
3
5104, 2, 1.0, 3739, 2, -0.5, 3754, 2, -0.5
*EQUATION
3
5104, 3, 1.0, 3739, 3, -0.5, 3754, 3, -0.5
*EQUATION
3
5105, 1, 1.0, 2778, 1, -0.5, 3754, 1, -0.5
*EQUATION
3
5105, 2, 1.0, 2778, 2, -0.5, 3754, 2, -0.5
*EQUATION
3
5105, 3, 1.0, 2778, 3, -0.5, 3754, 3, -0.5
*EQUATION
5
5108, 1, 1.0, 2778, 1, -0.25, 1687, 1, -0.25, 1688, 1, -0.25, 3754, 1, -0.25
*EQUATION
5
5108, 2, 1.0, 2778, 2, -0.25, 1687, 2, -0.25, 1688, 2, -0.25, 3754, 2, -0.25
*EQUATION
5
5108, 3, 1.0, 2778, 3, -0.25, 1687, 3, -0.25, 1688, 3, -0.25, 3754, 3, -0.25
*EQUATION
3
5109, 1, 1.0, 1688, 1, -0.5, 3754, 1, -0.5
*EQUATION
3
5109, 2, 1.0, 1688, 2, -0.5, 3754, 2, -0.5
*EQUATION
3
5109, 3, 1.0, 1688, 3, -0.5, 3754, 3, -0.5
*EQUATION
5
5110, 1, 1.0, 65, 1, -0.25, 1687, 1, -0.25, 1688, 1, -0.25, 1679, 1, -0.25
*EQUATION
5
5110, 2, 1.0, 65, 2, -0.25, 1687, 2, -0.25, 1688, 2, -0.25, 1679, 2, -0.25
*EQUATION
5
5110, 3, 1.0, 65, 3, -0.25, 1687, 3, -0.25, 1688, 3, -0.25, 1679, 3, -0.25
*EQUATION
3
5111, 1, 1.0, 1679, 1, -0.5, 1688, 1, -0.5
*EQUATION
3
5111, 2, 1.0, 1679, 2, -0.5, 1688, 2, -0.5
*EQUATION
3
5111, 3, 1.0, 1679, 3, -0.5, 1688, 3, -0.5
*EQUATION
3
5112, 1, 1.0, 1687, 1, -0.5, 1688, 1, -0.5
*EQUATION
3
5112, 2, 1.0, 1687, 2, -0.5, 1688, 2, -0.5
*EQUATION
3
5112, 3, 1.0, 1687, 3, -0.5, 1688, 3, -0.5
*EQUATION
5
5113, 1, 1.0, 3739, 1, -0.25, 3754, 1, -0.25, 3755, 1, -0.25, 3740, 1, -0.25
*EQUATION
5
5113, 2, 1.0, 3739, 2, -0.25, 3754, 2, -0.25, 3755, 2, -0.25, 3740, 2, -0.25
*EQUATION
5
5113, 3, 1.0, 3739, 3, -0.25, 3754, 3, -0.25, 3755, 3, -0.25, 3740, 3, -0.25
*EQUATION
3
5114, 1, 1.0, 3740, 1, -0.5, 3755, 1, -0.5
*EQUATION
3
5114, 2, 1.0, 3740, 2, -0.5, 3755, 2, -0.5
*EQUATION
3
5114, 3, 1.0, 3740, 3, -0.5, 3755, 3, -0.5
*EQUATION
3
5115, 1, 1.0, 3754, 1, -0.5, 3755, 1, -0.5
*EQUATION
3
5115, 2, 1.0, 3754, 2, -0.5, 3755, 2, -0.5
*EQUATION
3
5115, 3, 1.0, 3754, 3, -0.5, 3755, 3, -0.5
*EQUATION
5
5118, 1, 1.0, 3754, 1, -0.25, 1688, 1, -0.25, 1689, 1, -0.25, 3755, 1, -0.25
*EQUATION
5
5118, 2, 1.0, 3754, 2, -0.25, 1688, 2, -0.25, 1689, 2, -0.25, 3755, 2, -0.25
*EQUATION
5
5118, 3, 1.0, 3754, 3, -0.25, 1688, 3, -0.25, 1689, 3, -0.25, 3755, 3, -0.25
*EQUATION
3
5119, 1, 1.0, 1689, 1, -0.5, 3755, 1, -0.5
*EQUATION
3
5119, 2, 1.0, 1689, 2, -0.5, 3755, 2, -0.5
*EQUATION
3
5119, 3, 1.0, 1689, 3, -0.5, 3755, 3, -0.5
*EQUATION
5
5120, 1, 1.0, 1679, 1, -0.25, 1688, 1, -0.25, 1689, 1, -0.25, 67, 1, -0.25
*EQUATION
5
5120, 2, 1.0, 1679, 2, -0.25, 1688, 2, -0.25, 1689, 2, -0.25, 67, 2, -0.25
*EQUATION
5
5120, 3, 1.0, 1679, 3, -0.25, 1688, 3, -0.25, 1689, 3, -0.25, 67, 3, -0.25
*EQUATION
3
5121, 1, 1.0, 67, 1, -0.5, 1689, 1, -0.5
*EQUATION
3
5121, 2, 1.0, 67, 2, -0.5, 1689, 2, -0.5
*EQUATION
3
5121, 3, 1.0, 67, 3, -0.5, 1689, 3, -0.5
*EQUATION
3
5122, 1, 1.0, 1688, 1, -0.5, 1689, 1, -0.5
*EQUATION
3
5122, 2, 1.0, 1688, 2, -0.5, 1689, 2, -0.5
*EQUATION
3
5122, 3, 1.0, 1688, 3, -0.5, 1689, 3, -0.5
*EQUATION
5
5128, 1, 1.0, 36, 1, -0.25, 2153, 1, -0.25, 2779, 1, -0.25, 2776, 1, -0.25
*EQUATION
5
5128, 2, 1.0, 36, 2, -0.25, 2153, 2, -0.25, 2779, 2, -0.25, 2776, 2, -0.25
*EQUATION
5
5128, 3, 1.0, 36, 3, -0.25, 2153, 3, -0.25, 2779, 3, -0.25, 2776, 3, -0.25
*EQUATION
5
5131, 1, 1.0, 2776, 1, -0.25, 2779, 1, -0.25, 3763, 1, -0.25, 3759, 1, -0.25
*EQUATION
5
5131, 2, 1.0, 2776, 2, -0.25, 2779, 2, -0.25, 3763, 2, -0.25, 3759, 2, -0.25
*EQUATION
5
5131, 3, 1.0, 2776, 3, -0.25, 2779, 3, -0.25, 3763, 3, -0.25, 3759, 3, -0.25
*EQUATION
3
5132, 1, 1.0, 3758, 1, -0.5, 3762, 1, -0.5
*EQUATION
3
5132, 2, 1.0, 3758, 2, -0.5, 3762, 2, -0.5
*EQUATION
3
5132, 3, 1.0, 3758, 3, -0.5, 3762, 3, -0.5
*EQUATION
5
5133, 1, 1.0, 3758, 1, -0.25, 3762, 1, -0.25, 3763, 1, -0.25, 3759, 1, -0.25
*EQUATION
5
5133, 2, 1.0, 3758, 2, -0.25, 3762, 2, -0.25, 3763, 2, -0.25, 3759, 2, -0.25
*EQUATION
5
5133, 3, 1.0, 3758, 3, -0.25, 3762, 3, -0.25, 3763, 3, -0.25, 3759, 3, -0.25
*EQUATION
3
5134, 1, 1.0, 3759, 1, -0.5, 3763, 1, -0.5
*EQUATION
3
5134, 2, 1.0, 3759, 2, -0.5, 3763, 2, -0.5
*EQUATION
3
5134, 3, 1.0, 3759, 3, -0.5, 3763, 3, -0.5
*EQUATION
3
5137, 1, 1.0, 2779, 1, -0.5, 3763, 1, -0.5
*EQUATION
3
5137, 2, 1.0, 2779, 2, -0.5, 3763, 2, -0.5
*EQUATION
3
5137, 3, 1.0, 2779, 3, -0.5, 3763, 3, -0.5
*EQUATION
3
5138, 1, 1.0, 3762, 1, -0.5, 3763, 1, -0.5
*EQUATION
3
5138, 2, 1.0, 3762, 2, -0.5, 3763, 2, -0.5
*EQUATION
3
5138, 3, 1.0, 3762, 3, -0.5, 3763, 3, -0.5
*EQUATION
5
5141, 1, 1.0, 2779, 1, -0.25, 1696, 1, -0.25, 1698, 1, -0.25, 3763, 1, -0.25
*EQUATION
5
5141, 2, 1.0, 2779, 2, -0.25, 1696, 2, -0.25, 1698, 2, -0.25, 3763, 2, -0.25
*EQUATION
5
5141, 3, 1.0, 2779, 3, -0.25, 1696, 3, -0.25, 1698, 3, -0.25, 3763, 3, -0.25
*EQUATION
3
5142, 1, 1.0, 1697, 1, -0.5, 3762, 1, -0.5
*EQUATION
3
5142, 2, 1.0, 1697, 2, -0.5, 3762, 2, -0.5
*EQUATION
3
5142, 3, 1.0, 1697, 3, -0.5, 3762, 3, -0.5
*EQUATION
5
5143, 1, 1.0, 3762, 1, -0.25, 1697, 1, -0.25, 1698, 1, -0.25, 3763, 1, -0.25
*EQUATION
5
5143, 2, 1.0, 3762, 2, -0.25, 1697, 2, -0.25, 1698, 2, -0.25, 3763, 2, -0.25
*EQUATION
5
5143, 3, 1.0, 3762, 3, -0.25, 1697, 3, -0.25, 1698, 3, -0.25, 3763, 3, -0.25
*EQUATION
3
5144, 1, 1.0, 1698, 1, -0.5, 3763, 1, -0.5
*EQUATION
3
5144, 2, 1.0, 1698, 2, -0.5, 3763, 2, -0.5
*EQUATION
3
5144, 3, 1.0, 1698, 3, -0.5, 3763, 3, -0.5
*EQUATION
3
5147, 1, 1.0, 1696, 1, -0.5, 1698, 1, -0.5
*EQUATION
3
5147, 2, 1.0, 1696, 2, -0.5, 1698, 2, -0.5
*EQUATION
3
5147, 3, 1.0, 1696, 3, -0.5, 1698, 3, -0.5
*EQUATION
3
5148, 1, 1.0, 1697, 1, -0.5, 1698, 1, -0.5
*EQUATION
3
5148, 2, 1.0, 1697, 2, -0.5, 1698, 2, -0.5
*EQUATION
3
5148, 3, 1.0, 1697, 3, -0.5, 1698, 3, -0.5
*EQUATION
5
5154, 1, 1.0, 76, 1, -0.25, 75, 1, -0.25, 77, 1, -0.25, 78, 1, -0.25
*EQUATION
5
5154, 2, 1.0, 76, 2, -0.25, 75, 2, -0.25, 77, 2, -0.25, 78, 2, -0.25
*EQUATION
5
5154, 3, 1.0, 76, 3, -0.25, 75, 3, -0.25, 77, 3, -0.25, 78, 3, -0.25
*EQUATION
3
5155, 1, 1.0, 77, 1, -0.5, 78, 1, -0.5
*EQUATION
3
5155, 2, 1.0, 77, 2, -0.5, 78, 2, -0.5
*EQUATION
3
5155, 3, 1.0, 77, 3, -0.5, 78, 3, -0.5
*EQUATION
5
5162, 1, 1.0, 76, 1, -0.25, 75, 1, -0.25, 81, 1, -0.25, 82, 1, -0.25
*EQUATION
5
5162, 2, 1.0, 76, 2, -0.25, 75, 2, -0.25, 81, 2, -0.25, 82, 2, -0.25
*EQUATION
5
5162, 3, 1.0, 76, 3, -0.25, 75, 3, -0.25, 81, 3, -0.25, 82, 3, -0.25
*EQUATION
3
5165, 1, 1.0, 81, 1, -0.5, 82, 1, -0.5
*EQUATION
3
5165, 2, 1.0, 81, 2, -0.5, 82, 2, -0.5
*EQUATION
3
5165, 3, 1.0, 81, 3, -0.5, 82, 3, -0.5
*EQUATION
5
5172, 1, 1.0, 82, 1, -0.25, 81, 1, -0.25, 87, 1, -0.25, 88, 1, -0.25
*EQUATION
5
5172, 2, 1.0, 82, 2, -0.25, 81, 2, -0.25, 87, 2, -0.25, 88, 2, -0.25
*EQUATION
5
5172, 3, 1.0, 82, 3, -0.25, 81, 3, -0.25, 87, 3, -0.25, 88, 3, -0.25
*EQUATION
3
5173, 1, 1.0, 85, 1, -0.5, 86, 1, -0.5
*EQUATION
3
5173, 2, 1.0, 85, 2, -0.5, 86, 2, -0.5
*EQUATION
3
5173, 3, 1.0, 85, 3, -0.5, 86, 3, -0.5
*EQUATION
5
5174, 1, 1.0, 86, 1, -0.25, 85, 1, -0.25, 87, 1, -0.25, 88, 1, -0.25
*EQUATION
5
5174, 2, 1.0, 86, 2, -0.25, 85, 2, -0.25, 87, 2, -0.25, 88, 2, -0.25
*EQUATION
5
5174, 3, 1.0, 86, 3, -0.25, 85, 3, -0.25, 87, 3, -0.25, 88, 3, -0.25
*EQUATION
3
5175, 1, 1.0, 87, 1, -0.5, 88, 1, -0.5
*EQUATION
3
5175, 2, 1.0, 87, 2, -0.5, 88, 2, -0.5
*EQUATION
3
5175, 3, 1.0, 87, 3, -0.5, 88, 3, -0.5
*EQUATION
3
5179, 1, 1.0, 1591, 1, -0.5, 1593, 1, -0.5
*EQUATION
3
5179, 2, 1.0, 1591, 2, -0.5, 1593, 2, -0.5
*EQUATION
3
5179, 3, 1.0, 1591, 3, -0.5, 1593, 3, -0.5
*EQUATION
3
5180, 1, 1.0, 1592, 1, -0.5, 1593, 1, -0.5
*EQUATION
3
5180, 2, 1.0, 1592, 2, -0.5, 1593, 2, -0.5
*EQUATION
3
5180, 3, 1.0, 1592, 3, -0.5, 1593, 3, -0.5
*EQUATION
3
5183, 1, 1.0, 1591, 1, -0.5, 1596, 1, -0.5
*EQUATION
3
5183, 2, 1.0, 1591, 2, -0.5, 1596, 2, -0.5
*EQUATION
3
5183, 3, 1.0, 1591, 3, -0.5, 1596, 3, -0.5
*EQUATION
5
5186, 1, 1.0, 1591, 1, -0.25, 1596, 1, -0.25, 1598, 1, -0.25, 1593, 1, -0.25
*EQUATION
5
5186, 2, 1.0, 1591, 2, -0.25, 1596, 2, -0.25, 1598, 2, -0.25, 1593, 2, -0.25
*EQUATION
5
5186, 3, 1.0, 1591, 3, -0.25, 1596, 3, -0.25, 1598, 3, -0.25, 1593, 3, -0.25
*EQUATION
3
5187, 1, 1.0, 1592, 1, -0.5, 1597, 1, -0.5
*EQUATION
3
5187, 2, 1.0, 1592, 2, -0.5, 1597, 2, -0.5
*EQUATION
3
5187, 3, 1.0, 1592, 3, -0.5, 1597, 3, -0.5
*EQUATION
5
5188, 1, 1.0, 1592, 1, -0.25, 1597, 1, -0.25, 1598, 1, -0.25, 1593, 1, -0.25
*EQUATION
5
5188, 2, 1.0, 1592, 2, -0.25, 1597, 2, -0.25, 1598, 2, -0.25, 1593, 2, -0.25
*EQUATION
5
5188, 3, 1.0, 1592, 3, -0.25, 1597, 3, -0.25, 1598, 3, -0.25, 1593, 3, -0.25
*EQUATION
3
5189, 1, 1.0, 1593, 1, -0.5, 1598, 1, -0.5
*EQUATION
3
5189, 2, 1.0, 1593, 2, -0.5, 1598, 2, -0.5
*EQUATION
3
5189, 3, 1.0, 1593, 3, -0.5, 1598, 3, -0.5
*EQUATION
3
5190, 1, 1.0, 1595, 1, -0.5, 1596, 1, -0.5
*EQUATION
3
5190, 2, 1.0, 1595, 2, -0.5, 1596, 2, -0.5
*EQUATION
3
5190, 3, 1.0, 1595, 3, -0.5, 1596, 3, -0.5
*EQUATION
3
5191, 1, 1.0, 1595, 1, -0.5, 1597, 1, -0.5
*EQUATION
3
5191, 2, 1.0, 1595, 2, -0.5, 1597, 2, -0.5
*EQUATION
3
5191, 3, 1.0, 1595, 3, -0.5, 1597, 3, -0.5
*EQUATION
5
5192, 1, 1.0, 1595, 1, -0.25, 1597, 1, -0.25, 1598, 1, -0.25, 1596, 1, -0.25
*EQUATION
5
5192, 2, 1.0, 1595, 2, -0.25, 1597, 2, -0.25, 1598, 2, -0.25, 1596, 2, -0.25
*EQUATION
5
5192, 3, 1.0, 1595, 3, -0.25, 1597, 3, -0.25, 1598, 3, -0.25, 1596, 3, -0.25
*EQUATION
3
5193, 1, 1.0, 1596, 1, -0.5, 1598, 1, -0.5
*EQUATION
3
5193, 2, 1.0, 1596, 2, -0.5, 1598, 2, -0.5
*EQUATION
3
5193, 3, 1.0, 1596, 3, -0.5, 1598, 3, -0.5
*EQUATION
3
5194, 1, 1.0, 1597, 1, -0.5, 1598, 1, -0.5
*EQUATION
3
5194, 2, 1.0, 1597, 2, -0.5, 1598, 2, -0.5
*EQUATION
3
5194, 3, 1.0, 1597, 3, -0.5, 1598, 3, -0.5
*EQUATION
3
5195, 1, 1.0, 1066, 1, -0.5, 1078, 1, -0.5
*EQUATION
3
5195, 2, 1.0, 1066, 2, -0.5, 1078, 2, -0.5
*EQUATION
3
5195, 3, 1.0, 1066, 3, -0.5, 1078, 3, -0.5
*EQUATION
5
5196, 1, 1.0, 1066, 1, -0.25, 1078, 1, -0.25, 1079, 1, -0.25, 1067, 1, -0.25
*EQUATION
5
5196, 2, 1.0, 1066, 2, -0.25, 1078, 2, -0.25, 1079, 2, -0.25, 1067, 2, -0.25
*EQUATION
5
5196, 3, 1.0, 1066, 3, -0.25, 1078, 3, -0.25, 1079, 3, -0.25, 1067, 3, -0.25
*EQUATION
3
5197, 1, 1.0, 1067, 1, -0.5, 1079, 1, -0.5
*EQUATION
3
5197, 2, 1.0, 1067, 2, -0.5, 1079, 2, -0.5
*EQUATION
3
5197, 3, 1.0, 1067, 3, -0.5, 1079, 3, -0.5
*EQUATION
3
5198, 1, 1.0, 1078, 1, -0.5, 1079, 1, -0.5
*EQUATION
3
5198, 2, 1.0, 1078, 2, -0.5, 1079, 2, -0.5
*EQUATION
3
5198, 3, 1.0, 1078, 3, -0.5, 1079, 3, -0.5
*EQUATION
3
5199, 1, 1.0, 1066, 1, -0.5, 1072, 1, -0.5
*EQUATION
3
5199, 2, 1.0, 1066, 2, -0.5, 1072, 2, -0.5
*EQUATION
3
5199, 3, 1.0, 1066, 3, -0.5, 1072, 3, -0.5
*EQUATION
5
5200, 1, 1.0, 1066, 1, -0.25, 1072, 1, -0.25, 120, 1, -0.25, 1067, 1, -0.25
*EQUATION
5
5200, 2, 1.0, 1066, 2, -0.25, 1072, 2, -0.25, 120, 2, -0.25, 1067, 2, -0.25
*EQUATION
5
5200, 3, 1.0, 1066, 3, -0.25, 1072, 3, -0.25, 120, 3, -0.25, 1067, 3, -0.25
*EQUATION
3
5201, 1, 1.0, 120, 1, -0.5, 1067, 1, -0.5
*EQUATION
3
5201, 2, 1.0, 120, 2, -0.5, 1067, 2, -0.5
*EQUATION
3
5201, 3, 1.0, 120, 3, -0.5, 1067, 3, -0.5
*EQUATION
5
5202, 1, 1.0, 1066, 1, -0.25, 1072, 1, -0.25, 1084, 1, -0.25, 1078, 1, -0.25
*EQUATION
5
5202, 2, 1.0, 1066, 2, -0.25, 1072, 2, -0.25, 1084, 2, -0.25, 1078, 2, -0.25
*EQUATION
5
5202, 3, 1.0, 1066, 3, -0.25, 1072, 3, -0.25, 1084, 3, -0.25, 1078, 3, -0.25
*EQUATION
3
5205, 1, 1.0, 1078, 1, -0.5, 1084, 1, -0.5
*EQUATION
3
5205, 2, 1.0, 1078, 2, -0.5, 1084, 2, -0.5
*EQUATION
3
5205, 3, 1.0, 1078, 3, -0.5, 1084, 3, -0.5
*EQUATION
3
5208, 1, 1.0, 120, 1, -0.5, 1072, 1, -0.5
*EQUATION
3
5208, 2, 1.0, 120, 2, -0.5, 1072, 2, -0.5
*EQUATION
3
5208, 3, 1.0, 120, 3, -0.5, 1072, 3, -0.5
*EQUATION
3
5209, 1, 1.0, 1072, 1, -0.5, 1084, 1, -0.5
*EQUATION
3
5209, 2, 1.0, 1072, 2, -0.5, 1084, 2, -0.5
*EQUATION
3
5209, 3, 1.0, 1072, 3, -0.5, 1084, 3, -0.5
*EQUATION
5
5210, 1, 1.0, 1072, 1, -0.25, 1084, 1, -0.25, 1085, 1, -0.25, 120, 1, -0.25
*EQUATION
5
5210, 2, 1.0, 1072, 2, -0.25, 1084, 2, -0.25, 1085, 2, -0.25, 120, 2, -0.25
*EQUATION
5
5210, 3, 1.0, 1072, 3, -0.25, 1084, 3, -0.25, 1085, 3, -0.25, 120, 3, -0.25
*EQUATION
3
5211, 1, 1.0, 120, 1, -0.5, 1085, 1, -0.5
*EQUATION
3
5211, 2, 1.0, 120, 2, -0.5, 1085, 2, -0.5
*EQUATION
3
5211, 3, 1.0, 120, 3, -0.5, 1085, 3, -0.5
*EQUATION
3
5212, 1, 1.0, 1084, 1, -0.5, 1085, 1, -0.5
*EQUATION
3
5212, 2, 1.0, 1084, 2, -0.5, 1085, 2, -0.5
*EQUATION
3
5212, 3, 1.0, 1084, 3, -0.5, 1085, 3, -0.5
*EQUATION
3
5213, 1, 1.0, 1078, 1, -0.5, 1081, 1, -0.5
*EQUATION
3
5213, 2, 1.0, 1078, 2, -0.5, 1081, 2, -0.5
*EQUATION
3
5213, 3, 1.0, 1078, 3, -0.5, 1081, 3, -0.5
*EQUATION
5
5214, 1, 1.0, 1078, 1, -0.25, 1081, 1, -0.25, 1082, 1, -0.25, 1079, 1, -0.25
*EQUATION
5
5214, 2, 1.0, 1078, 2, -0.25, 1081, 2, -0.25, 1082, 2, -0.25, 1079, 2, -0.25
*EQUATION
5
5214, 3, 1.0, 1078, 3, -0.25, 1081, 3, -0.25, 1082, 3, -0.25, 1079, 3, -0.25
*EQUATION
3
5215, 1, 1.0, 1079, 1, -0.5, 1082, 1, -0.5
*EQUATION
3
5215, 2, 1.0, 1079, 2, -0.5, 1082, 2, -0.5
*EQUATION
3
5215, 3, 1.0, 1079, 3, -0.5, 1082, 3, -0.5
*EQUATION
3
5216, 1, 1.0, 1081, 1, -0.5, 1082, 1, -0.5
*EQUATION
3
5216, 2, 1.0, 1081, 2, -0.5, 1082, 2, -0.5
*EQUATION
3
5216, 3, 1.0, 1081, 3, -0.5, 1082, 3, -0.5
*EQUATION
5
5217, 1, 1.0, 1078, 1, -0.25, 1084, 1, -0.25, 1086, 1, -0.25, 1081, 1, -0.25
*EQUATION
5
5217, 2, 1.0, 1078, 2, -0.25, 1084, 2, -0.25, 1086, 2, -0.25, 1081, 2, -0.25
*EQUATION
5
5217, 3, 1.0, 1078, 3, -0.25, 1084, 3, -0.25, 1086, 3, -0.25, 1081, 3, -0.25
*EQUATION
3
5220, 1, 1.0, 1081, 1, -0.5, 1086, 1, -0.5
*EQUATION
3
5220, 2, 1.0, 1081, 2, -0.5, 1086, 2, -0.5
*EQUATION
3
5220, 3, 1.0, 1081, 3, -0.5, 1086, 3, -0.5
*EQUATION
5
5221, 1, 1.0, 1081, 1, -0.25, 1086, 1, -0.25, 123, 1, -0.25, 1082, 1, -0.25
*EQUATION
5
5221, 2, 1.0, 1081, 2, -0.25, 1086, 2, -0.25, 123, 2, -0.25, 1082, 2, -0.25
*EQUATION
5
5221, 3, 1.0, 1081, 3, -0.25, 1086, 3, -0.25, 123, 3, -0.25, 1082, 3, -0.25
*EQUATION
3
5222, 1, 1.0, 123, 1, -0.5, 1082, 1, -0.5
*EQUATION
3
5222, 2, 1.0, 123, 2, -0.5, 1082, 2, -0.5
*EQUATION
3
5222, 3, 1.0, 123, 3, -0.5, 1082, 3, -0.5
*EQUATION
3
5223, 1, 1.0, 1084, 1, -0.5, 1086, 1, -0.5
*EQUATION
3
5223, 2, 1.0, 1084, 2, -0.5, 1086, 2, -0.5
*EQUATION
3
5223, 3, 1.0, 1084, 3, -0.5, 1086, 3, -0.5
*EQUATION
3
5226, 1, 1.0, 123, 1, -0.5, 1086, 1, -0.5
*EQUATION
3
5226, 2, 1.0, 123, 2, -0.5, 1086, 2, -0.5
*EQUATION
3
5226, 3, 1.0, 123, 3, -0.5, 1086, 3, -0.5
*EQUATION
3
5227, 1, 1.0, 55, 1, -0.5, 1650, 1, -0.5
*EQUATION
3
5227, 2, 1.0, 55, 2, -0.5, 1650, 2, -0.5
*EQUATION
3
5227, 3, 1.0, 55, 3, -0.5, 1650, 3, -0.5
*EQUATION
3
5228, 1, 1.0, 55, 1, -0.5, 1658, 1, -0.5
*EQUATION
3
5228, 2, 1.0, 55, 2, -0.5, 1658, 2, -0.5
*EQUATION
3
5228, 3, 1.0, 55, 3, -0.5, 1658, 3, -0.5
*EQUATION
5
5229, 1, 1.0, 55, 1, -0.25, 1658, 1, -0.25, 1659, 1, -0.25, 1650, 1, -0.25
*EQUATION
5
5229, 2, 1.0, 55, 2, -0.25, 1658, 2, -0.25, 1659, 2, -0.25, 1650, 2, -0.25
*EQUATION
5
5229, 3, 1.0, 55, 3, -0.25, 1658, 3, -0.25, 1659, 3, -0.25, 1650, 3, -0.25
*EQUATION
3
5230, 1, 1.0, 1650, 1, -0.5, 1659, 1, -0.5
*EQUATION
3
5230, 2, 1.0, 1650, 2, -0.5, 1659, 2, -0.5
*EQUATION
3
5230, 3, 1.0, 1650, 3, -0.5, 1659, 3, -0.5
*EQUATION
3
5231, 1, 1.0, 55, 1, -0.5, 1653, 1, -0.5
*EQUATION
3
5231, 2, 1.0, 55, 2, -0.5, 1653, 2, -0.5
*EQUATION
3
5231, 3, 1.0, 55, 3, -0.5, 1653, 3, -0.5
*EQUATION
5
5232, 1, 1.0, 55, 1, -0.25, 1653, 1, -0.25, 1654, 1, -0.25, 1650, 1, -0.25
*EQUATION
5
5232, 2, 1.0, 55, 2, -0.25, 1653, 2, -0.25, 1654, 2, -0.25, 1650, 2, -0.25
*EQUATION
5
5232, 3, 1.0, 55, 3, -0.25, 1653, 3, -0.25, 1654, 3, -0.25, 1650, 3, -0.25
*EQUATION
3
5233, 1, 1.0, 1650, 1, -0.5, 1654, 1, -0.5
*EQUATION
3
5233, 2, 1.0, 1650, 2, -0.5, 1654, 2, -0.5
*EQUATION
3
5233, 3, 1.0, 1650, 3, -0.5, 1654, 3, -0.5
*EQUATION
5
5236, 1, 1.0, 1650, 1, -0.25, 1654, 1, -0.25, 1662, 1, -0.25, 1659, 1, -0.25
*EQUATION
5
5236, 2, 1.0, 1650, 2, -0.25, 1654, 2, -0.25, 1662, 2, -0.25, 1659, 2, -0.25
*EQUATION
5
5236, 3, 1.0, 1650, 3, -0.25, 1654, 3, -0.25, 1662, 3, -0.25, 1659, 3, -0.25
*EQUATION
3
5237, 1, 1.0, 1653, 1, -0.5, 1654, 1, -0.5
*EQUATION
3
5237, 2, 1.0, 1653, 2, -0.5, 1654, 2, -0.5
*EQUATION
3
5237, 3, 1.0, 1653, 3, -0.5, 1654, 3, -0.5
*EQUATION
3
5238, 1, 1.0, 1653, 1, -0.5, 1661, 1, -0.5
*EQUATION
3
5238, 2, 1.0, 1653, 2, -0.5, 1661, 2, -0.5
*EQUATION
3
5238, 3, 1.0, 1653, 3, -0.5, 1661, 3, -0.5
*EQUATION
5
5239, 1, 1.0, 1653, 1, -0.25, 1661, 1, -0.25, 1662, 1, -0.25, 1654, 1, -0.25
*EQUATION
5
5239, 2, 1.0, 1653, 2, -0.25, 1661, 2, -0.25, 1662, 2, -0.25, 1654, 2, -0.25
*EQUATION
5
5239, 3, 1.0, 1653, 3, -0.25, 1661, 3, -0.25, 1662, 3, -0.25, 1654, 3, -0.25
*EQUATION
3
5240, 1, 1.0, 1654, 1, -0.5, 1662, 1, -0.5
*EQUATION
3
5240, 2, 1.0, 1654, 2, -0.5, 1662, 2, -0.5
*EQUATION
3
5240, 3, 1.0, 1654, 3, -0.5, 1662, 3, -0.5
*EQUATION
3
5241, 1, 1.0, 1101, 1, -0.5, 1659, 1, -0.5
*EQUATION
3
5241, 2, 1.0, 1101, 2, -0.5, 1659, 2, -0.5
*EQUATION
3
5241, 3, 1.0, 1101, 3, -0.5, 1659, 3, -0.5
*EQUATION
5
5242, 1, 1.0, 1659, 1, -0.25, 1660, 1, -0.25, 61, 1, -0.25, 1101, 1, -0.25
*EQUATION
5
5242, 2, 1.0, 1659, 2, -0.25, 1660, 2, -0.25, 61, 2, -0.25, 1101, 2, -0.25
*EQUATION
5
5242, 3, 1.0, 1659, 3, -0.25, 1660, 3, -0.25, 61, 3, -0.25, 1101, 3, -0.25
*EQUATION
3
5243, 1, 1.0, 61, 1, -0.5, 1101, 1, -0.5
*EQUATION
3
5243, 2, 1.0, 61, 2, -0.5, 1101, 2, -0.5
*EQUATION
3
5243, 3, 1.0, 61, 3, -0.5, 1101, 3, -0.5
*EQUATION
5
5244, 1, 1.0, 1659, 1, -0.25, 1662, 1, -0.25, 1105, 1, -0.25, 1101, 1, -0.25
*EQUATION
5
5244, 2, 1.0, 1659, 2, -0.25, 1662, 2, -0.25, 1105, 2, -0.25, 1101, 2, -0.25
*EQUATION
5
5244, 3, 1.0, 1659, 3, -0.25, 1662, 3, -0.25, 1105, 3, -0.25, 1101, 3, -0.25
*EQUATION
3
5245, 1, 1.0, 1101, 1, -0.5, 1105, 1, -0.5
*EQUATION
3
5245, 2, 1.0, 1101, 2, -0.5, 1105, 2, -0.5
*EQUATION
3
5245, 3, 1.0, 1101, 3, -0.5, 1105, 3, -0.5
*EQUATION
5
5247, 1, 1.0, 1101, 1, -0.25, 1105, 1, -0.25, 1108, 1, -0.25, 61, 1, -0.25
*EQUATION
5
5247, 2, 1.0, 1101, 2, -0.25, 1105, 2, -0.25, 1108, 2, -0.25, 61, 2, -0.25
*EQUATION
5
5247, 3, 1.0, 1101, 3, -0.25, 1105, 3, -0.25, 1108, 3, -0.25, 61, 3, -0.25
*EQUATION
5
5248, 1, 1.0, 1660, 1, -0.25, 1663, 1, -0.25, 1108, 1, -0.25, 61, 1, -0.25
*EQUATION
5
5248, 2, 1.0, 1660, 2, -0.25, 1663, 2, -0.25, 1108, 2, -0.25, 61, 2, -0.25
*EQUATION
5
5248, 3, 1.0, 1660, 3, -0.25, 1663, 3, -0.25, 1108, 3, -0.25, 61, 3, -0.25
*EQUATION
3
5249, 1, 1.0, 61, 1, -0.5, 1108, 1, -0.5
*EQUATION
3
5249, 2, 1.0, 61, 2, -0.5, 1108, 2, -0.5
*EQUATION
3
5249, 3, 1.0, 61, 3, -0.5, 1108, 3, -0.5
*EQUATION
3
5250, 1, 1.0, 1105, 1, -0.5, 1662, 1, -0.5
*EQUATION
3
5250, 2, 1.0, 1105, 2, -0.5, 1662, 2, -0.5
*EQUATION
3
5250, 3, 1.0, 1105, 3, -0.5, 1662, 3, -0.5
*EQUATION
5
5251, 1, 1.0, 1662, 1, -0.25, 1663, 1, -0.25, 1108, 1, -0.25, 1105, 1, -0.25
*EQUATION
5
5251, 2, 1.0, 1662, 2, -0.25, 1663, 2, -0.25, 1108, 2, -0.25, 1105, 2, -0.25
*EQUATION
5
5251, 3, 1.0, 1662, 3, -0.25, 1663, 3, -0.25, 1108, 3, -0.25, 1105, 3, -0.25
*EQUATION
3
5252, 1, 1.0, 1105, 1, -0.5, 1108, 1, -0.5
*EQUATION
3
5252, 2, 1.0, 1105, 2, -0.5, 1108, 2, -0.5
*EQUATION
3
5252, 3, 1.0, 1105, 3, -0.5, 1108, 3, -0.5
*EQUATION
3
5253, 1, 1.0, 1108, 1, -0.5, 1663, 1, -0.5
*EQUATION
3
5253, 2, 1.0, 1108, 2, -0.5, 1663, 2, -0.5
*EQUATION
3
5253, 3, 1.0, 1108, 3, -0.5, 1663, 3, -0.5
*EQUATION
3
5254, 1, 1.0, 1115, 1, -0.5, 1688, 1, -0.5
*EQUATION
3
5254, 2, 1.0, 1115, 2, -0.5, 1688, 2, -0.5
*EQUATION
3
5254, 3, 1.0, 1115, 3, -0.5, 1688, 3, -0.5
*EQUATION
5
5255, 1, 1.0, 1688, 1, -0.25, 1115, 1, -0.25, 71, 1, -0.25, 1689, 1, -0.25
*EQUATION
5
5255, 2, 1.0, 1688, 2, -0.25, 1115, 2, -0.25, 71, 2, -0.25, 1689, 2, -0.25
*EQUATION
5
5255, 3, 1.0, 1688, 3, -0.25, 1115, 3, -0.25, 71, 3, -0.25, 1689, 3, -0.25
*EQUATION
3
5256, 1, 1.0, 71, 1, -0.5, 1689, 1, -0.5
*EQUATION
3
5256, 2, 1.0, 71, 2, -0.5, 1689, 2, -0.5
*EQUATION
3
5256, 3, 1.0, 71, 3, -0.5, 1689, 3, -0.5
*EQUATION
3
5257, 1, 1.0, 1688, 1, -0.5, 1691, 1, -0.5
*EQUATION
3
5257, 2, 1.0, 1688, 2, -0.5, 1691, 2, -0.5
*EQUATION
3
5257, 3, 1.0, 1688, 3, -0.5, 1691, 3, -0.5
*EQUATION
5
5258, 1, 1.0, 1688, 1, -0.25, 1691, 1, -0.25, 1692, 1, -0.25, 1689, 1, -0.25
*EQUATION
5
5258, 2, 1.0, 1688, 2, -0.25, 1691, 2, -0.25, 1692, 2, -0.25, 1689, 2, -0.25
*EQUATION
5
5258, 3, 1.0, 1688, 3, -0.25, 1691, 3, -0.25, 1692, 3, -0.25, 1689, 3, -0.25
*EQUATION
3
5259, 1, 1.0, 1689, 1, -0.5, 1692, 1, -0.5
*EQUATION
3
5259, 2, 1.0, 1689, 2, -0.5, 1692, 2, -0.5
*EQUATION
3
5259, 3, 1.0, 1689, 3, -0.5, 1692, 3, -0.5
*EQUATION
5
5260, 1, 1.0, 1688, 1, -0.25, 1691, 1, -0.25, 1121, 1, -0.25, 1115, 1, -0.25
*EQUATION
5
5260, 2, 1.0, 1688, 2, -0.25, 1691, 2, -0.25, 1121, 2, -0.25, 1115, 2, -0.25
*EQUATION
5
5260, 3, 1.0, 1688, 3, -0.25, 1691, 3, -0.25, 1121, 3, -0.25, 1115, 3, -0.25
*EQUATION
3
5263, 1, 1.0, 1691, 1, -0.5, 1692, 1, -0.5
*EQUATION
3
5263, 2, 1.0, 1691, 2, -0.5, 1692, 2, -0.5
*EQUATION
3
5263, 3, 1.0, 1691, 3, -0.5, 1692, 3, -0.5
*EQUATION
3
5264, 1, 1.0, 1121, 1, -0.5, 1691, 1, -0.5
*EQUATION
3
5264, 2, 1.0, 1121, 2, -0.5, 1691, 2, -0.5
*EQUATION
3
5264, 3, 1.0, 1121, 3, -0.5, 1691, 3, -0.5
*EQUATION
5
5265, 1, 1.0, 1691, 1, -0.25, 1121, 1, -0.25, 1122, 1, -0.25, 1692, 1, -0.25
*EQUATION
5
5265, 2, 1.0, 1691, 2, -0.25, 1121, 2, -0.25, 1122, 2, -0.25, 1692, 2, -0.25
*EQUATION
5
5265, 3, 1.0, 1691, 3, -0.25, 1121, 3, -0.25, 1122, 3, -0.25, 1692, 3, -0.25
*EQUATION
3
5266, 1, 1.0, 1122, 1, -0.5, 1692, 1, -0.5
*EQUATION
3
5266, 2, 1.0, 1122, 2, -0.5, 1692, 2, -0.5
*EQUATION
3
5266, 3, 1.0, 1122, 3, -0.5, 1692, 3, -0.5
*EQUATION
5
5267, 1, 1.0, 35, 1, -0.25, 1586, 1, -0.25, 1700, 1, -0.25, 1696, 1, -0.25
*EQUATION
5
5267, 2, 1.0, 35, 2, -0.25, 1586, 2, -0.25, 1700, 2, -0.25, 1696, 2, -0.25
*EQUATION
5
5267, 3, 1.0, 35, 3, -0.25, 1586, 3, -0.25, 1700, 3, -0.25, 1696, 3, -0.25
*EQUATION
3
5268, 1, 1.0, 1696, 1, -0.5, 1700, 1, -0.5
*EQUATION
3
5268, 2, 1.0, 1696, 2, -0.5, 1700, 2, -0.5
*EQUATION
3
5268, 3, 1.0, 1696, 3, -0.5, 1700, 3, -0.5
*EQUATION
3
5274, 1, 1.0, 1698, 1, -0.5, 1702, 1, -0.5
*EQUATION
3
5274, 2, 1.0, 1698, 2, -0.5, 1702, 2, -0.5
*EQUATION
3
5274, 3, 1.0, 1698, 3, -0.5, 1702, 3, -0.5
*EQUATION
3
5275, 1, 1.0, 1586, 1, -0.5, 1700, 1, -0.5
*EQUATION
3
5275, 2, 1.0, 1586, 2, -0.5, 1700, 2, -0.5
*EQUATION
3
5275, 3, 1.0, 1586, 3, -0.5, 1700, 3, -0.5
*EQUATION
3
5276, 1, 1.0, 1586, 1, -0.5, 1701, 1, -0.5
*EQUATION
3
5276, 2, 1.0, 1586, 2, -0.5, 1701, 2, -0.5
*EQUATION
3
5276, 3, 1.0, 1586, 3, -0.5, 1701, 3, -0.5
*EQUATION
5
5277, 1, 1.0, 1586, 1, -0.25, 1701, 1, -0.25, 1702, 1, -0.25, 1700, 1, -0.25
*EQUATION
5
5277, 2, 1.0, 1586, 2, -0.25, 1701, 2, -0.25, 1702, 2, -0.25, 1700, 2, -0.25
*EQUATION
5
5277, 3, 1.0, 1586, 3, -0.25, 1701, 3, -0.25, 1702, 3, -0.25, 1700, 3, -0.25
*EQUATION
3
5278, 1, 1.0, 1700, 1, -0.5, 1702, 1, -0.5
*EQUATION
3
5278, 2, 1.0, 1700, 2, -0.5, 1702, 2, -0.5
*EQUATION
3
5278, 3, 1.0, 1700, 3, -0.5, 1702, 3, -0.5
*EQUATION
3
5279, 1, 1.0, 1701, 1, -0.5, 1702, 1, -0.5
*EQUATION
3
5279, 2, 1.0, 1701, 2, -0.5, 1702, 2, -0.5
*EQUATION
3
5279, 3, 1.0, 1701, 3, -0.5, 1702, 3, -0.5
*EQUATION
5
5280, 1, 1.0, 1696, 1, -0.25, 1698, 1, -0.25, 1116, 1, -0.25, 69, 1, -0.25
*EQUATION
5
5280, 2, 1.0, 1696, 2, -0.25, 1698, 2, -0.25, 1116, 2, -0.25, 69, 2, -0.25
*EQUATION
5
5280, 3, 1.0, 1696, 3, -0.25, 1698, 3, -0.25, 1116, 3, -0.25, 69, 3, -0.25
*EQUATION
3
5281, 1, 1.0, 1116, 1, -0.5, 1698, 1, -0.5
*EQUATION
3
5281, 2, 1.0, 1116, 2, -0.5, 1698, 2, -0.5
*EQUATION
3
5281, 3, 1.0, 1116, 3, -0.5, 1698, 3, -0.5
*EQUATION
5
5282, 1, 1.0, 1696, 1, -0.25, 1700, 1, -0.25, 1120, 1, -0.25, 69, 1, -0.25
*EQUATION
5
5282, 2, 1.0, 1696, 2, -0.25, 1700, 2, -0.25, 1120, 2, -0.25, 69, 2, -0.25
*EQUATION
5
5282, 3, 1.0, 1696, 3, -0.25, 1700, 3, -0.25, 1120, 3, -0.25, 69, 3, -0.25
*EQUATION
5
5284, 1, 1.0, 1698, 1, -0.25, 1702, 1, -0.25, 1123, 1, -0.25, 1116, 1, -0.25
*EQUATION
5
5284, 2, 1.0, 1698, 2, -0.25, 1702, 2, -0.25, 1123, 2, -0.25, 1116, 2, -0.25
*EQUATION
5
5284, 3, 1.0, 1698, 3, -0.25, 1702, 3, -0.25, 1123, 3, -0.25, 1116, 3, -0.25
*EQUATION
3
5285, 1, 1.0, 1120, 1, -0.5, 1700, 1, -0.5
*EQUATION
3
5285, 2, 1.0, 1120, 2, -0.5, 1700, 2, -0.5
*EQUATION
3
5285, 3, 1.0, 1120, 3, -0.5, 1700, 3, -0.5
*EQUATION
5
5286, 1, 1.0, 1700, 1, -0.25, 1702, 1, -0.25, 1123, 1, -0.25, 1120, 1, -0.25
*EQUATION
5
5286, 2, 1.0, 1700, 2, -0.25, 1702, 2, -0.25, 1123, 2, -0.25, 1120, 2, -0.25
*EQUATION
5
5286, 3, 1.0, 1700, 3, -0.25, 1702, 3, -0.25, 1123, 3, -0.25, 1120, 3, -0.25
*EQUATION
3
5287, 1, 1.0, 1123, 1, -0.5, 1702, 1, -0.5
*EQUATION
3
5287, 2, 1.0, 1123, 2, -0.5, 1702, 2, -0.5
*EQUATION
3
5287, 3, 1.0, 1123, 3, -0.5, 1702, 3, -0.5
*EQUATION
3
5288, 1, 1.0, 73, 1, -0.5, 1697, 1, -0.5
*EQUATION
3
5288, 2, 1.0, 73, 2, -0.5, 1697, 2, -0.5
*EQUATION
3
5288, 3, 1.0, 73, 3, -0.5, 1697, 3, -0.5
*EQUATION
5
5289, 1, 1.0, 1697, 1, -0.25, 73, 1, -0.25, 1699, 1, -0.25, 1698, 1, -0.25
*EQUATION
5
5289, 2, 1.0, 1697, 2, -0.25, 73, 2, -0.25, 1699, 2, -0.25, 1698, 2, -0.25
*EQUATION
5
5289, 3, 1.0, 1697, 3, -0.25, 73, 3, -0.25, 1699, 3, -0.25, 1698, 3, -0.25
*EQUATION
3
5290, 1, 1.0, 1698, 1, -0.5, 1699, 1, -0.5
*EQUATION
3
5290, 2, 1.0, 1698, 2, -0.5, 1699, 2, -0.5
*EQUATION
3
5290, 3, 1.0, 1698, 3, -0.5, 1699, 3, -0.5
*EQUATION
3
5291, 1, 1.0, 73, 1, -0.5, 1699, 1, -0.5
*EQUATION
3
5291, 2, 1.0, 73, 2, -0.5, 1699, 2, -0.5
*EQUATION
3
5291, 3, 1.0, 73, 3, -0.5, 1699, 3, -0.5
*EQUATION
5
5294, 1, 1.0, 1698, 1, -0.25, 1702, 1, -0.25, 1704, 1, -0.25, 1699, 1, -0.25
*EQUATION
5
5294, 2, 1.0, 1698, 2, -0.25, 1702, 2, -0.25, 1704, 2, -0.25, 1699, 2, -0.25
*EQUATION
5
5294, 3, 1.0, 1698, 3, -0.25, 1702, 3, -0.25, 1704, 3, -0.25, 1699, 3, -0.25
*EQUATION
3
5295, 1, 1.0, 73, 1, -0.5, 1703, 1, -0.5
*EQUATION
3
5295, 2, 1.0, 73, 2, -0.5, 1703, 2, -0.5
*EQUATION
3
5295, 3, 1.0, 73, 3, -0.5, 1703, 3, -0.5
*EQUATION
5
5296, 1, 1.0, 73, 1, -0.25, 1703, 1, -0.25, 1704, 1, -0.25, 1699, 1, -0.25
*EQUATION
5
5296, 2, 1.0, 73, 2, -0.25, 1703, 2, -0.25, 1704, 2, -0.25, 1699, 2, -0.25
*EQUATION
5
5296, 3, 1.0, 73, 3, -0.25, 1703, 3, -0.25, 1704, 3, -0.25, 1699, 3, -0.25
*EQUATION
3
5297, 1, 1.0, 1699, 1, -0.5, 1704, 1, -0.5
*EQUATION
3
5297, 2, 1.0, 1699, 2, -0.5, 1704, 2, -0.5
*EQUATION
3
5297, 3, 1.0, 1699, 3, -0.5, 1704, 3, -0.5
*EQUATION
3
5298, 1, 1.0, 1701, 1, -0.5, 1703, 1, -0.5
*EQUATION
3
5298, 2, 1.0, 1701, 2, -0.5, 1703, 2, -0.5
*EQUATION
3
5298, 3, 1.0, 1701, 3, -0.5, 1703, 3, -0.5
*EQUATION
5
5299, 1, 1.0, 1701, 1, -0.25, 1703, 1, -0.25, 1704, 1, -0.25, 1702, 1, -0.25
*EQUATION
5
5299, 2, 1.0, 1701, 2, -0.25, 1703, 2, -0.25, 1704, 2, -0.25, 1702, 2, -0.25
*EQUATION
5
5299, 3, 1.0, 1701, 3, -0.25, 1703, 3, -0.25, 1704, 3, -0.25, 1702, 3, -0.25
*EQUATION
3
5300, 1, 1.0, 1702, 1, -0.5, 1704, 1, -0.5
*EQUATION
3
5300, 2, 1.0, 1702, 2, -0.5, 1704, 2, -0.5
*EQUATION
3
5300, 3, 1.0, 1702, 3, -0.5, 1704, 3, -0.5
*EQUATION
3
5301, 1, 1.0, 1703, 1, -0.5, 1704, 1, -0.5
*EQUATION
3
5301, 2, 1.0, 1703, 2, -0.5, 1704, 2, -0.5
*EQUATION
3
5301, 3, 1.0, 1703, 3, -0.5, 1704, 3, -0.5
*EQUATION
3
5302, 1, 1.0, 1117, 1, -0.5, 1119, 1, -0.5
*EQUATION
3
5302, 2, 1.0, 1117, 2, -0.5, 1119, 2, -0.5
*EQUATION
3
5302, 3, 1.0, 1117, 3, -0.5, 1119, 3, -0.5
*EQUATION
5
5303, 1, 1.0, 1117, 1, -0.25, 1119, 1, -0.25, 77, 1, -0.25, 1118, 1, -0.25
*EQUATION
5
5303, 2, 1.0, 1117, 2, -0.25, 1119, 2, -0.25, 77, 2, -0.25, 1118, 2, -0.25
*EQUATION
5
5303, 3, 1.0, 1117, 3, -0.25, 1119, 3, -0.25, 77, 3, -0.25, 1118, 3, -0.25
*EQUATION
3
5304, 1, 1.0, 77, 1, -0.5, 1118, 1, -0.5
*EQUATION
3
5304, 2, 1.0, 77, 2, -0.5, 1118, 2, -0.5
*EQUATION
3
5304, 3, 1.0, 77, 3, -0.5, 1118, 3, -0.5
*EQUATION
3
5305, 1, 1.0, 77, 1, -0.5, 1119, 1, -0.5
*EQUATION
3
5305, 2, 1.0, 77, 2, -0.5, 1119, 2, -0.5
*EQUATION
3
5305, 3, 1.0, 77, 3, -0.5, 1119, 3, -0.5
*EQUATION
5
5306, 1, 1.0, 1117, 1, -0.25, 1124, 1, -0.25, 1127, 1, -0.25, 1119, 1, -0.25
*EQUATION
5
5306, 2, 1.0, 1117, 2, -0.25, 1124, 2, -0.25, 1127, 2, -0.25, 1119, 2, -0.25
*EQUATION
5
5306, 3, 1.0, 1117, 3, -0.25, 1124, 3, -0.25, 1127, 3, -0.25, 1119, 3, -0.25
*EQUATION
3
5309, 1, 1.0, 1119, 1, -0.5, 1127, 1, -0.5
*EQUATION
3
5309, 2, 1.0, 1119, 2, -0.5, 1127, 2, -0.5
*EQUATION
3
5309, 3, 1.0, 1119, 3, -0.5, 1127, 3, -0.5
*EQUATION
5
5310, 1, 1.0, 1119, 1, -0.25, 1127, 1, -0.25, 1128, 1, -0.25, 77, 1, -0.25
*EQUATION
5
5310, 2, 1.0, 1119, 2, -0.25, 1127, 2, -0.25, 1128, 2, -0.25, 77, 2, -0.25
*EQUATION
5
5310, 3, 1.0, 1119, 3, -0.25, 1127, 3, -0.25, 1128, 3, -0.25, 77, 3, -0.25
*EQUATION
3
5311, 1, 1.0, 77, 1, -0.5, 1128, 1, -0.5
*EQUATION
3
5311, 2, 1.0, 77, 2, -0.5, 1128, 2, -0.5
*EQUATION
3
5311, 3, 1.0, 77, 3, -0.5, 1128, 3, -0.5
*EQUATION
3
5312, 1, 1.0, 1142, 1, -0.5, 1143, 1, -0.5
*EQUATION
3
5312, 2, 1.0, 1142, 2, -0.5, 1143, 2, -0.5
*EQUATION
3
5312, 3, 1.0, 1142, 3, -0.5, 1143, 3, -0.5
*EQUATION
3
5313, 1, 1.0, 1142, 1, -0.5, 1153, 1, -0.5
*EQUATION
3
5313, 2, 1.0, 1142, 2, -0.5, 1153, 2, -0.5
*EQUATION
3
5313, 3, 1.0, 1142, 3, -0.5, 1153, 3, -0.5
*EQUATION
5
5314, 1, 1.0, 1142, 1, -0.25, 1153, 1, -0.25, 1154, 1, -0.25, 1143, 1, -0.25
*EQUATION
5
5314, 2, 1.0, 1142, 2, -0.25, 1153, 2, -0.25, 1154, 2, -0.25, 1143, 2, -0.25
*EQUATION
5
5314, 3, 1.0, 1142, 3, -0.25, 1153, 3, -0.25, 1154, 3, -0.25, 1143, 3, -0.25
*EQUATION
3
5315, 1, 1.0, 1143, 1, -0.5, 1154, 1, -0.5
*EQUATION
3
5315, 2, 1.0, 1143, 2, -0.5, 1154, 2, -0.5
*EQUATION
3
5315, 3, 1.0, 1143, 3, -0.5, 1154, 3, -0.5
*EQUATION
3
5316, 1, 1.0, 1153, 1, -0.5, 1154, 1, -0.5
*EQUATION
3
5316, 2, 1.0, 1153, 2, -0.5, 1154, 2, -0.5
*EQUATION
3
5316, 3, 1.0, 1153, 3, -0.5, 1154, 3, -0.5
*EQUATION
3
5317, 1, 1.0, 1142, 1, -0.5, 1147, 1, -0.5
*EQUATION
3
5317, 2, 1.0, 1142, 2, -0.5, 1147, 2, -0.5
*EQUATION
3
5317, 3, 1.0, 1142, 3, -0.5, 1147, 3, -0.5
*EQUATION
5
5318, 1, 1.0, 1142, 1, -0.25, 1147, 1, -0.25, 138, 1, -0.25, 1143, 1, -0.25
*EQUATION
5
5318, 2, 1.0, 1142, 2, -0.25, 1147, 2, -0.25, 138, 2, -0.25, 1143, 2, -0.25
*EQUATION
5
5318, 3, 1.0, 1142, 3, -0.25, 1147, 3, -0.25, 138, 3, -0.25, 1143, 3, -0.25
*EQUATION
3
5319, 1, 1.0, 138, 1, -0.5, 1143, 1, -0.5
*EQUATION
3
5319, 2, 1.0, 138, 2, -0.5, 1143, 2, -0.5
*EQUATION
3
5319, 3, 1.0, 138, 3, -0.5, 1143, 3, -0.5
*EQUATION
5
5320, 1, 1.0, 1142, 1, -0.25, 1147, 1, -0.25, 1159, 1, -0.25, 1153, 1, -0.25
*EQUATION
5
5320, 2, 1.0, 1142, 2, -0.25, 1147, 2, -0.25, 1159, 2, -0.25, 1153, 2, -0.25
*EQUATION
5
5320, 3, 1.0, 1142, 3, -0.25, 1147, 3, -0.25, 1159, 3, -0.25, 1153, 3, -0.25
*EQUATION
3
5323, 1, 1.0, 1153, 1, -0.5, 1159, 1, -0.5
*EQUATION
3
5323, 2, 1.0, 1153, 2, -0.5, 1159, 2, -0.5
*EQUATION
3
5323, 3, 1.0, 1153, 3, -0.5, 1159, 3, -0.5
*EQUATION
3
5326, 1, 1.0, 138, 1, -0.5, 1147, 1, -0.5
*EQUATION
3
5326, 2, 1.0, 138, 2, -0.5, 1147, 2, -0.5
*EQUATION
3
5326, 3, 1.0, 138, 3, -0.5, 1147, 3, -0.5
*EQUATION
3
5327, 1, 1.0, 1147, 1, -0.5, 1159, 1, -0.5
*EQUATION
3
5327, 2, 1.0, 1147, 2, -0.5, 1159, 2, -0.5
*EQUATION
3
5327, 3, 1.0, 1147, 3, -0.5, 1159, 3, -0.5
*EQUATION
3
5330, 1, 1.0, 1159, 1, -0.5, 1160, 1, -0.5
*EQUATION
3
5330, 2, 1.0, 1159, 2, -0.5, 1160, 2, -0.5
*EQUATION
3
5330, 3, 1.0, 1159, 3, -0.5, 1160, 3, -0.5
*EQUATION
3
5331, 1, 1.0, 1153, 1, -0.5, 1156, 1, -0.5
*EQUATION
3
5331, 2, 1.0, 1153, 2, -0.5, 1156, 2, -0.5
*EQUATION
3
5331, 3, 1.0, 1153, 3, -0.5, 1156, 3, -0.5
*EQUATION
5
5332, 1, 1.0, 1153, 1, -0.25, 1156, 1, -0.25, 1157, 1, -0.25, 1154, 1, -0.25
*EQUATION
5
5332, 2, 1.0, 1153, 2, -0.25, 1156, 2, -0.25, 1157, 2, -0.25, 1154, 2, -0.25
*EQUATION
5
5332, 3, 1.0, 1153, 3, -0.25, 1156, 3, -0.25, 1157, 3, -0.25, 1154, 3, -0.25
*EQUATION
3
5333, 1, 1.0, 1154, 1, -0.5, 1157, 1, -0.5
*EQUATION
3
5333, 2, 1.0, 1154, 2, -0.5, 1157, 2, -0.5
*EQUATION
3
5333, 3, 1.0, 1154, 3, -0.5, 1157, 3, -0.5
*EQUATION
5
5334, 1, 1.0, 1153, 1, -0.25, 1159, 1, -0.25, 1161, 1, -0.25, 1156, 1, -0.25
*EQUATION
5
5334, 2, 1.0, 1153, 2, -0.25, 1159, 2, -0.25, 1161, 2, -0.25, 1156, 2, -0.25
*EQUATION
5
5334, 3, 1.0, 1153, 3, -0.25, 1159, 3, -0.25, 1161, 3, -0.25, 1156, 3, -0.25
*EQUATION
3
5337, 1, 1.0, 1156, 1, -0.5, 1161, 1, -0.5
*EQUATION
3
5337, 2, 1.0, 1156, 2, -0.5, 1161, 2, -0.5
*EQUATION
3
5337, 3, 1.0, 1156, 3, -0.5, 1161, 3, -0.5
*EQUATION
5
5338, 1, 1.0, 1156, 1, -0.25, 1161, 1, -0.25, 141, 1, -0.25, 1157, 1, -0.25
*EQUATION
5
5338, 2, 1.0, 1156, 2, -0.25, 1161, 2, -0.25, 141, 2, -0.25, 1157, 2, -0.25
*EQUATION
5
5338, 3, 1.0, 1156, 3, -0.25, 1161, 3, -0.25, 141, 3, -0.25, 1157, 3, -0.25
*EQUATION
3
5339, 1, 1.0, 141, 1, -0.5, 1157, 1, -0.5
*EQUATION
3
5339, 2, 1.0, 141, 2, -0.5, 1157, 2, -0.5
*EQUATION
3
5339, 3, 1.0, 141, 3, -0.5, 1157, 3, -0.5
*EQUATION
3
5340, 1, 1.0, 1159, 1, -0.5, 1161, 1, -0.5
*EQUATION
3
5340, 2, 1.0, 1159, 2, -0.5, 1161, 2, -0.5
*EQUATION
3
5340, 3, 1.0, 1159, 3, -0.5, 1161, 3, -0.5
*EQUATION
5
5341, 1, 1.0, 1159, 1, -0.25, 1161, 1, -0.25, 141, 1, -0.25, 1160, 1, -0.25
*EQUATION
5
5341, 2, 1.0, 1159, 2, -0.25, 1161, 2, -0.25, 141, 2, -0.25, 1160, 2, -0.25
*EQUATION
5
5341, 3, 1.0, 1159, 3, -0.25, 1161, 3, -0.25, 141, 3, -0.25, 1160, 3, -0.25
*EQUATION
3
5342, 1, 1.0, 141, 1, -0.5, 1160, 1, -0.5
*EQUATION
3
5342, 2, 1.0, 141, 2, -0.5, 1160, 2, -0.5
*EQUATION
3
5342, 3, 1.0, 141, 3, -0.5, 1160, 3, -0.5
*EQUATION
3
5343, 1, 1.0, 141, 1, -0.5, 1161, 1, -0.5
*EQUATION
3
5343, 2, 1.0, 141, 2, -0.5, 1161, 2, -0.5
*EQUATION
3
5343, 3, 1.0, 141, 3, -0.5, 1161, 3, -0.5
*EQUATION
3
5344, 1, 1.0, 1729, 1, -0.5, 1730, 1, -0.5
*EQUATION
3
5344, 2, 1.0, 1729, 2, -0.5, 1730, 2, -0.5
*EQUATION
3
5344, 3, 1.0, 1729, 3, -0.5, 1730, 3, -0.5
*EQUATION
3
5347, 1, 1.0, 1730, 1, -0.5, 1731, 1, -0.5
*EQUATION
3
5347, 2, 1.0, 1730, 2, -0.5, 1731, 2, -0.5
*EQUATION
3
5347, 3, 1.0, 1730, 3, -0.5, 1731, 3, -0.5
*EQUATION
3
5349, 1, 1.0, 1729, 1, -0.5, 1732, 1, -0.5
*EQUATION
3
5349, 2, 1.0, 1729, 2, -0.5, 1732, 2, -0.5
*EQUATION
3
5349, 3, 1.0, 1729, 3, -0.5, 1732, 3, -0.5
*EQUATION
5
5350, 1, 1.0, 1729, 1, -0.25, 1732, 1, -0.25, 1733, 1, -0.25, 1730, 1, -0.25
*EQUATION
5
5350, 2, 1.0, 1729, 2, -0.25, 1732, 2, -0.25, 1733, 2, -0.25, 1730, 2, -0.25
*EQUATION
5
5350, 3, 1.0, 1729, 3, -0.25, 1732, 3, -0.25, 1733, 3, -0.25, 1730, 3, -0.25
*EQUATION
3
5351, 1, 1.0, 1730, 1, -0.5, 1733, 1, -0.5
*EQUATION
3
5351, 2, 1.0, 1730, 2, -0.5, 1733, 2, -0.5
*EQUATION
3
5351, 3, 1.0, 1730, 3, -0.5, 1733, 3, -0.5
*EQUATION
5
5354, 1, 1.0, 1730, 1, -0.25, 1733, 1, -0.25, 1735, 1, -0.25, 1731, 1, -0.25
*EQUATION
5
5354, 2, 1.0, 1730, 2, -0.25, 1733, 2, -0.25, 1735, 2, -0.25, 1731, 2, -0.25
*EQUATION
5
5354, 3, 1.0, 1730, 3, -0.25, 1733, 3, -0.25, 1735, 3, -0.25, 1731, 3, -0.25
*EQUATION
3
5357, 1, 1.0, 1731, 1, -0.5, 1735, 1, -0.5
*EQUATION
3
5357, 2, 1.0, 1731, 2, -0.5, 1735, 2, -0.5
*EQUATION
3
5357, 3, 1.0, 1731, 3, -0.5, 1735, 3, -0.5
*EQUATION
3
5358, 1, 1.0, 1732, 1, -0.5, 1733, 1, -0.5
*EQUATION
3
5358, 2, 1.0, 1732, 2, -0.5, 1733, 2, -0.5
*EQUATION
3
5358, 3, 1.0, 1732, 3, -0.5, 1733, 3, -0.5
*EQUATION
3
5359, 1, 1.0, 1732, 1, -0.5, 1734, 1, -0.5
*EQUATION
3
5359, 2, 1.0, 1732, 2, -0.5, 1734, 2, -0.5
*EQUATION
3
5359, 3, 1.0, 1732, 3, -0.5, 1734, 3, -0.5
*EQUATION
5
5360, 1, 1.0, 1732, 1, -0.25, 1734, 1, -0.25, 1735, 1, -0.25, 1733, 1, -0.25
*EQUATION
5
5360, 2, 1.0, 1732, 2, -0.25, 1734, 2, -0.25, 1735, 2, -0.25, 1733, 2, -0.25
*EQUATION
5
5360, 3, 1.0, 1732, 3, -0.25, 1734, 3, -0.25, 1735, 3, -0.25, 1733, 3, -0.25
*EQUATION
3
5361, 1, 1.0, 1733, 1, -0.5, 1735, 1, -0.5
*EQUATION
3
5361, 2, 1.0, 1733, 2, -0.5, 1735, 2, -0.5
*EQUATION
3
5361, 3, 1.0, 1733, 3, -0.5, 1735, 3, -0.5
*EQUATION
3
5362, 1, 1.0, 1734, 1, -0.5, 1735, 1, -0.5
*EQUATION
3
5362, 2, 1.0, 1734, 2, -0.5, 1735, 2, -0.5
*EQUATION
3
5362, 3, 1.0, 1734, 3, -0.5, 1735, 3, -0.5
*EQUATION
3
5363, 1, 1.0, 117, 1, -0.5, 165, 1, -0.5
*EQUATION
3
5363, 2, 1.0, 117, 2, -0.5, 165, 2, -0.5
*EQUATION
3
5363, 3, 1.0, 117, 3, -0.5, 165, 3, -0.5
*EQUATION
5
5366, 1, 1.0, 117, 1, -0.25, 165, 1, -0.25, 166, 1, -0.25, 118, 1, -0.25
*EQUATION
5
5366, 2, 1.0, 117, 2, -0.25, 165, 2, -0.25, 166, 2, -0.25, 118, 2, -0.25
*EQUATION
5
5366, 3, 1.0, 117, 3, -0.25, 165, 3, -0.25, 166, 3, -0.25, 118, 3, -0.25
*EQUATION
3
5370, 1, 1.0, 165, 1, -0.5, 166, 1, -0.5
*EQUATION
3
5370, 2, 1.0, 165, 2, -0.5, 166, 2, -0.5
*EQUATION
3
5370, 3, 1.0, 165, 3, -0.5, 166, 3, -0.5
*EQUATION
3
5373, 1, 1.0, 116, 1, -0.5, 164, 1, -0.5
*EQUATION
3
5373, 2, 1.0, 116, 2, -0.5, 164, 2, -0.5
*EQUATION
3
5373, 3, 1.0, 116, 3, -0.5, 164, 3, -0.5
*EQUATION
5
5374, 1, 1.0, 116, 1, -0.25, 164, 1, -0.25, 166, 1, -0.25, 118, 1, -0.25
*EQUATION
5
5374, 2, 1.0, 116, 2, -0.25, 164, 2, -0.25, 166, 2, -0.25, 118, 2, -0.25
*EQUATION
5
5374, 3, 1.0, 116, 3, -0.25, 164, 3, -0.25, 166, 3, -0.25, 118, 3, -0.25
*EQUATION
3
5377, 1, 1.0, 1084, 1, -0.5, 3964, 1, -0.5
*EQUATION
3
5377, 2, 1.0, 1084, 2, -0.5, 3964, 2, -0.5
*EQUATION
3
5377, 3, 1.0, 1084, 3, -0.5, 3964, 3, -0.5
*EQUATION
5
5378, 1, 1.0, 1084, 1, -0.25, 3964, 1, -0.25, 3965, 1, -0.25, 1085, 1, -0.25
*EQUATION
5
5378, 2, 1.0, 1084, 2, -0.25, 3964, 2, -0.25, 3965, 2, -0.25, 1085, 2, -0.25
*EQUATION
5
5378, 3, 1.0, 1084, 3, -0.25, 3964, 3, -0.25, 3965, 3, -0.25, 1085, 3, -0.25
*EQUATION
3
5379, 1, 1.0, 1085, 1, -0.5, 3965, 1, -0.5
*EQUATION
3
5379, 2, 1.0, 1085, 2, -0.5, 3965, 2, -0.5
*EQUATION
3
5379, 3, 1.0, 1085, 3, -0.5, 3965, 3, -0.5
*EQUATION
5
5380, 1, 1.0, 1084, 1, -0.25, 3964, 1, -0.25, 2928, 1, -0.25, 1086, 1, -0.25
*EQUATION
5
5380, 2, 1.0, 1084, 2, -0.25, 3964, 2, -0.25, 2928, 2, -0.25, 1086, 2, -0.25
*EQUATION
5
5380, 3, 1.0, 1084, 3, -0.25, 3964, 3, -0.25, 2928, 3, -0.25, 1086, 3, -0.25
*EQUATION
3
5383, 1, 1.0, 1086, 1, -0.5, 2928, 1, -0.5
*EQUATION
3
5383, 2, 1.0, 1086, 2, -0.5, 2928, 2, -0.5
*EQUATION
3
5383, 3, 1.0, 1086, 3, -0.5, 2928, 3, -0.5
*EQUATION
3
5386, 1, 1.0, 3964, 1, -0.5, 3965, 1, -0.5
*EQUATION
3
5386, 2, 1.0, 3964, 2, -0.5, 3965, 2, -0.5
*EQUATION
3
5386, 3, 1.0, 3964, 3, -0.5, 3965, 3, -0.5
*EQUATION
3
5387, 1, 1.0, 2928, 1, -0.5, 3964, 1, -0.5
*EQUATION
3
5387, 2, 1.0, 2928, 2, -0.5, 3964, 2, -0.5
*EQUATION
3
5387, 3, 1.0, 2928, 3, -0.5, 3964, 3, -0.5
*EQUATION
3
5391, 1, 1.0, 3964, 1, -0.5, 3968, 1, -0.5
*EQUATION
3
5391, 2, 1.0, 3964, 2, -0.5, 3968, 2, -0.5
*EQUATION
3
5391, 3, 1.0, 3964, 3, -0.5, 3968, 3, -0.5
*EQUATION
5
5392, 1, 1.0, 3964, 1, -0.25, 3968, 1, -0.25, 3969, 1, -0.25, 3965, 1, -0.25
*EQUATION
5
5392, 2, 1.0, 3964, 2, -0.25, 3968, 2, -0.25, 3969, 2, -0.25, 3965, 2, -0.25
*EQUATION
5
5392, 3, 1.0, 3964, 3, -0.25, 3968, 3, -0.25, 3969, 3, -0.25, 3965, 3, -0.25
*EQUATION
3
5393, 1, 1.0, 3965, 1, -0.5, 3969, 1, -0.5
*EQUATION
3
5393, 2, 1.0, 3965, 2, -0.5, 3969, 2, -0.5
*EQUATION
3
5393, 3, 1.0, 3965, 3, -0.5, 3969, 3, -0.5
*EQUATION
5
5394, 1, 1.0, 3964, 1, -0.25, 3968, 1, -0.25, 2936, 1, -0.25, 2928, 1, -0.25
*EQUATION
5
5394, 2, 1.0, 3964, 2, -0.25, 3968, 2, -0.25, 2936, 2, -0.25, 2928, 2, -0.25
*EQUATION
5
5394, 3, 1.0, 3964, 3, -0.25, 3968, 3, -0.25, 2936, 3, -0.25, 2928, 3, -0.25
*EQUATION
3
5397, 1, 1.0, 2928, 1, -0.5, 2936, 1, -0.5
*EQUATION
3
5397, 2, 1.0, 2928, 2, -0.5, 2936, 2, -0.5
*EQUATION
3
5397, 3, 1.0, 2928, 3, -0.5, 2936, 3, -0.5
*EQUATION
3
5400, 1, 1.0, 3968, 1, -0.5, 3969, 1, -0.5
*EQUATION
3
5400, 2, 1.0, 3968, 2, -0.5, 3969, 2, -0.5
*EQUATION
3
5400, 3, 1.0, 3968, 3, -0.5, 3969, 3, -0.5
*EQUATION
3
5401, 1, 1.0, 2936, 1, -0.5, 3968, 1, -0.5
*EQUATION
3
5401, 2, 1.0, 2936, 2, -0.5, 3968, 2, -0.5
*EQUATION
3
5401, 3, 1.0, 2936, 3, -0.5, 3968, 3, -0.5
*EQUATION
5
5402, 1, 1.0, 3968, 1, -0.25, 2936, 1, -0.25, 171, 1, -0.25, 3969, 1, -0.25
*EQUATION
5
5402, 2, 1.0, 3968, 2, -0.25, 2936, 2, -0.25, 171, 2, -0.25, 3969, 2, -0.25
*EQUATION
5
5402, 3, 1.0, 3968, 3, -0.25, 2936, 3, -0.25, 171, 3, -0.25, 3969, 3, -0.25
*EQUATION
3
5403, 1, 1.0, 171, 1, -0.5, 3969, 1, -0.5
*EQUATION
3
5403, 2, 1.0, 171, 2, -0.5, 3969, 2, -0.5
*EQUATION
3
5403, 3, 1.0, 171, 3, -0.5, 3969, 3, -0.5
*EQUATION
3
5404, 1, 1.0, 171, 1, -0.5, 2936, 1, -0.5
*EQUATION
3
5404, 2, 1.0, 171, 2, -0.5, 2936, 2, -0.5
*EQUATION
3
5404, 3, 1.0, 171, 3, -0.5, 2936, 3, -0.5
*EQUATION
3
5405, 1, 1.0, 122, 1, -0.5, 1086, 1, -0.5
*EQUATION
3
5405, 2, 1.0, 122, 2, -0.5, 1086, 2, -0.5
*EQUATION
3
5405, 3, 1.0, 122, 3, -0.5, 1086, 3, -0.5
*EQUATION
3
5406, 1, 1.0, 122, 1, -0.5, 1097, 1, -0.5
*EQUATION
3
5406, 2, 1.0, 122, 2, -0.5, 1097, 2, -0.5
*EQUATION
3
5406, 3, 1.0, 122, 3, -0.5, 1097, 3, -0.5
*EQUATION
5
5407, 1, 1.0, 122, 1, -0.25, 1097, 1, -0.25, 1098, 1, -0.25, 1086, 1, -0.25
*EQUATION
5
5407, 2, 1.0, 122, 2, -0.25, 1097, 2, -0.25, 1098, 2, -0.25, 1086, 2, -0.25
*EQUATION
5
5407, 3, 1.0, 122, 3, -0.25, 1097, 3, -0.25, 1098, 3, -0.25, 1086, 3, -0.25
*EQUATION
3
5408, 1, 1.0, 1086, 1, -0.5, 1098, 1, -0.5
*EQUATION
3
5408, 2, 1.0, 1086, 2, -0.5, 1098, 2, -0.5
*EQUATION
3
5408, 3, 1.0, 1086, 3, -0.5, 1098, 3, -0.5
*EQUATION
3
5409, 1, 1.0, 1097, 1, -0.5, 1098, 1, -0.5
*EQUATION
3
5409, 2, 1.0, 1097, 2, -0.5, 1098, 2, -0.5
*EQUATION
3
5409, 3, 1.0, 1097, 3, -0.5, 1098, 3, -0.5
*EQUATION
3
5410, 1, 1.0, 122, 1, -0.5, 2927, 1, -0.5
*EQUATION
3
5410, 2, 1.0, 122, 2, -0.5, 2927, 2, -0.5
*EQUATION
3
5410, 3, 1.0, 122, 3, -0.5, 2927, 3, -0.5
*EQUATION
5
5411, 1, 1.0, 122, 1, -0.25, 2927, 1, -0.25, 2928, 1, -0.25, 1086, 1, -0.25
*EQUATION
5
5411, 2, 1.0, 122, 2, -0.25, 2927, 2, -0.25, 2928, 2, -0.25, 1086, 2, -0.25
*EQUATION
5
5411, 3, 1.0, 122, 3, -0.25, 2927, 3, -0.25, 2928, 3, -0.25, 1086, 3, -0.25
*EQUATION
5
5412, 1, 1.0, 122, 1, -0.25, 2927, 1, -0.25, 2930, 1, -0.25, 1097, 1, -0.25
*EQUATION
5
5412, 2, 1.0, 122, 2, -0.25, 2927, 2, -0.25, 2930, 2, -0.25, 1097, 2, -0.25
*EQUATION
5
5412, 3, 1.0, 122, 3, -0.25, 2927, 3, -0.25, 2930, 3, -0.25, 1097, 3, -0.25
*EQUATION
3
5415, 1, 1.0, 1097, 1, -0.5, 2930, 1, -0.5
*EQUATION
3
5415, 2, 1.0, 1097, 2, -0.5, 2930, 2, -0.5
*EQUATION
3
5415, 3, 1.0, 1097, 3, -0.5, 2930, 3, -0.5
*EQUATION
5
5416, 1, 1.0, 1097, 1, -0.25, 2930, 1, -0.25, 2931, 1, -0.25, 1098, 1, -0.25
*EQUATION
5
5416, 2, 1.0, 1097, 2, -0.25, 2930, 2, -0.25, 2931, 2, -0.25, 1098, 2, -0.25
*EQUATION
5
5416, 3, 1.0, 1097, 3, -0.25, 2930, 3, -0.25, 2931, 3, -0.25, 1098, 3, -0.25
*EQUATION
3
5417, 1, 1.0, 2927, 1, -0.5, 2928, 1, -0.5
*EQUATION
3
5417, 2, 1.0, 2927, 2, -0.5, 2928, 2, -0.5
*EQUATION
3
5417, 3, 1.0, 2927, 3, -0.5, 2928, 3, -0.5
*EQUATION
3
5418, 1, 1.0, 2927, 1, -0.5, 2930, 1, -0.5
*EQUATION
3
5418, 2, 1.0, 2927, 2, -0.5, 2930, 2, -0.5
*EQUATION
3
5418, 3, 1.0, 2927, 3, -0.5, 2930, 3, -0.5
*EQUATION
3
5421, 1, 1.0, 2930, 1, -0.5, 2931, 1, -0.5
*EQUATION
3
5421, 2, 1.0, 2930, 2, -0.5, 2931, 2, -0.5
*EQUATION
3
5421, 3, 1.0, 2930, 3, -0.5, 2931, 3, -0.5
*EQUATION
5
5422, 1, 1.0, 1086, 1, -0.25, 1098, 1, -0.25, 1099, 1, -0.25, 123, 1, -0.25
*EQUATION
5
5422, 2, 1.0, 1086, 2, -0.25, 1098, 2, -0.25, 1099, 2, -0.25, 123, 2, -0.25
*EQUATION
5
5422, 3, 1.0, 1086, 3, -0.25, 1098, 3, -0.25, 1099, 3, -0.25, 123, 3, -0.25
*EQUATION
3
5423, 1, 1.0, 123, 1, -0.5, 1099, 1, -0.5
*EQUATION
3
5423, 2, 1.0, 123, 2, -0.5, 1099, 2, -0.5
*EQUATION
3
5423, 3, 1.0, 123, 3, -0.5, 1099, 3, -0.5
*EQUATION
3
5428, 1, 1.0, 170, 1, -0.5, 2927, 1, -0.5
*EQUATION
3
5428, 2, 1.0, 170, 2, -0.5, 2927, 2, -0.5
*EQUATION
3
5428, 3, 1.0, 170, 3, -0.5, 2927, 3, -0.5
*EQUATION
5
5429, 1, 1.0, 2927, 1, -0.25, 170, 1, -0.25, 2936, 1, -0.25, 2928, 1, -0.25
*EQUATION
5
5429, 2, 1.0, 2927, 2, -0.25, 170, 2, -0.25, 2936, 2, -0.25, 2928, 2, -0.25
*EQUATION
5
5429, 3, 1.0, 2927, 3, -0.25, 170, 3, -0.25, 2936, 3, -0.25, 2928, 3, -0.25
*EQUATION
5
5430, 1, 1.0, 2927, 1, -0.25, 170, 1, -0.25, 2937, 1, -0.25, 2930, 1, -0.25
*EQUATION
5
5430, 2, 1.0, 2927, 2, -0.25, 170, 2, -0.25, 2937, 2, -0.25, 2930, 2, -0.25
*EQUATION
5
5430, 3, 1.0, 2927, 3, -0.25, 170, 3, -0.25, 2937, 3, -0.25, 2930, 3, -0.25
*EQUATION
3
5433, 1, 1.0, 2930, 1, -0.5, 2937, 1, -0.5
*EQUATION
3
5433, 2, 1.0, 2930, 2, -0.5, 2937, 2, -0.5
*EQUATION
3
5433, 3, 1.0, 2930, 3, -0.5, 2937, 3, -0.5
*EQUATION
5
5434, 1, 1.0, 2930, 1, -0.25, 2937, 1, -0.25, 2938, 1, -0.25, 2931, 1, -0.25
*EQUATION
5
5434, 2, 1.0, 2930, 2, -0.25, 2937, 2, -0.25, 2938, 2, -0.25, 2931, 2, -0.25
*EQUATION
5
5434, 3, 1.0, 2930, 3, -0.25, 2937, 3, -0.25, 2938, 3, -0.25, 2931, 3, -0.25
*EQUATION
3
5435, 1, 1.0, 170, 1, -0.5, 2936, 1, -0.5
*EQUATION
3
5435, 2, 1.0, 170, 2, -0.5, 2936, 2, -0.5
*EQUATION
3
5435, 3, 1.0, 170, 3, -0.5, 2936, 3, -0.5
*EQUATION
3
5436, 1, 1.0, 170, 1, -0.5, 2937, 1, -0.5
*EQUATION
3
5436, 2, 1.0, 170, 2, -0.5, 2937, 2, -0.5
*EQUATION
3
5436, 3, 1.0, 170, 3, -0.5, 2937, 3, -0.5
*EQUATION
5
5437, 1, 1.0, 170, 1, -0.25, 2937, 1, -0.25, 2938, 1, -0.25, 2936, 1, -0.25
*EQUATION
5
5437, 2, 1.0, 170, 2, -0.25, 2937, 2, -0.25, 2938, 2, -0.25, 2936, 2, -0.25
*EQUATION
5
5437, 3, 1.0, 170, 3, -0.25, 2937, 3, -0.25, 2938, 3, -0.25, 2936, 3, -0.25
*EQUATION
3
5438, 1, 1.0, 2936, 1, -0.5, 2938, 1, -0.5
*EQUATION
3
5438, 2, 1.0, 2936, 2, -0.5, 2938, 2, -0.5
*EQUATION
3
5438, 3, 1.0, 2936, 3, -0.5, 2938, 3, -0.5
*EQUATION
3
5439, 1, 1.0, 2937, 1, -0.5, 2938, 1, -0.5
*EQUATION
3
5439, 2, 1.0, 2937, 2, -0.5, 2938, 2, -0.5
*EQUATION
3
5439, 3, 1.0, 2937, 3, -0.5, 2938, 3, -0.5
*EQUATION
5
5442, 1, 1.0, 2936, 1, -0.25, 2938, 1, -0.25, 2939, 1, -0.25, 171, 1, -0.25
*EQUATION
5
5442, 2, 1.0, 2936, 2, -0.25, 2938, 2, -0.25, 2939, 2, -0.25, 171, 2, -0.25
*EQUATION
5
5442, 3, 1.0, 2936, 3, -0.25, 2938, 3, -0.25, 2939, 3, -0.25, 171, 3, -0.25
*EQUATION
3
5443, 1, 1.0, 171, 1, -0.5, 2939, 1, -0.5
*EQUATION
3
5443, 2, 1.0, 171, 2, -0.5, 2939, 2, -0.5
*EQUATION
3
5443, 3, 1.0, 171, 3, -0.5, 2939, 3, -0.5
*EQUATION
3
5444, 1, 1.0, 1144, 1, -0.5, 1145, 1, -0.5
*EQUATION
3
5444, 2, 1.0, 1144, 2, -0.5, 1145, 2, -0.5
*EQUATION
3
5444, 3, 1.0, 1144, 3, -0.5, 1145, 3, -0.5
*EQUATION
3
5445, 1, 1.0, 137, 1, -0.5, 1144, 1, -0.5
*EQUATION
3
5445, 2, 1.0, 137, 2, -0.5, 1144, 2, -0.5
*EQUATION
3
5445, 3, 1.0, 137, 3, -0.5, 1144, 3, -0.5
*EQUATION
5
5446, 1, 1.0, 1144, 1, -0.25, 137, 1, -0.25, 1147, 1, -0.25, 1145, 1, -0.25
*EQUATION
5
5446, 2, 1.0, 1144, 2, -0.25, 137, 2, -0.25, 1147, 2, -0.25, 1145, 2, -0.25
*EQUATION
5
5446, 3, 1.0, 1144, 3, -0.25, 137, 3, -0.25, 1147, 3, -0.25, 1145, 3, -0.25
*EQUATION
3
5447, 1, 1.0, 1145, 1, -0.5, 1147, 1, -0.5
*EQUATION
3
5447, 2, 1.0, 1145, 2, -0.5, 1147, 2, -0.5
*EQUATION
3
5447, 3, 1.0, 1145, 3, -0.5, 1147, 3, -0.5
*EQUATION
3
5448, 1, 1.0, 137, 1, -0.5, 1147, 1, -0.5
*EQUATION
3
5448, 2, 1.0, 137, 2, -0.5, 1147, 2, -0.5
*EQUATION
3
5448, 3, 1.0, 137, 3, -0.5, 1147, 3, -0.5
*EQUATION
3
5449, 1, 1.0, 1144, 1, -0.5, 2987, 1, -0.5
*EQUATION
3
5449, 2, 1.0, 1144, 2, -0.5, 2987, 2, -0.5
*EQUATION
3
5449, 3, 1.0, 1144, 3, -0.5, 2987, 3, -0.5
*EQUATION
5
5450, 1, 1.0, 1144, 1, -0.25, 2987, 1, -0.25, 2988, 1, -0.25, 1145, 1, -0.25
*EQUATION
5
5450, 2, 1.0, 1144, 2, -0.25, 2987, 2, -0.25, 2988, 2, -0.25, 1145, 2, -0.25
*EQUATION
5
5450, 3, 1.0, 1144, 3, -0.25, 2987, 3, -0.25, 2988, 3, -0.25, 1145, 3, -0.25
*EQUATION
5
5451, 1, 1.0, 1144, 1, -0.25, 2987, 1, -0.25, 2990, 1, -0.25, 137, 1, -0.25
*EQUATION
5
5451, 2, 1.0, 1144, 2, -0.25, 2987, 2, -0.25, 2990, 2, -0.25, 137, 2, -0.25
*EQUATION
5
5451, 3, 1.0, 1144, 3, -0.25, 2987, 3, -0.25, 2990, 3, -0.25, 137, 3, -0.25
*EQUATION
3
5454, 1, 1.0, 137, 1, -0.5, 2990, 1, -0.5
*EQUATION
3
5454, 2, 1.0, 137, 2, -0.5, 2990, 2, -0.5
*EQUATION
3
5454, 3, 1.0, 137, 3, -0.5, 2990, 3, -0.5
*EQUATION
5
5455, 1, 1.0, 137, 1, -0.25, 2990, 1, -0.25, 2991, 1, -0.25, 1147, 1, -0.25
*EQUATION
5
5455, 2, 1.0, 137, 2, -0.25, 2990, 2, -0.25, 2991, 2, -0.25, 1147, 2, -0.25
*EQUATION
5
5455, 3, 1.0, 137, 3, -0.25, 2990, 3, -0.25, 2991, 3, -0.25, 1147, 3, -0.25
*EQUATION
3
5456, 1, 1.0, 1147, 1, -0.5, 2991, 1, -0.5
*EQUATION
3
5456, 2, 1.0, 1147, 2, -0.5, 2991, 2, -0.5
*EQUATION
3
5456, 3, 1.0, 1147, 3, -0.5, 2991, 3, -0.5
*EQUATION
3
5457, 1, 1.0, 2987, 1, -0.5, 2988, 1, -0.5
*EQUATION
3
5457, 2, 1.0, 2987, 2, -0.5, 2988, 2, -0.5
*EQUATION
3
5457, 3, 1.0, 2987, 3, -0.5, 2988, 3, -0.5
*EQUATION
3
5458, 1, 1.0, 2987, 1, -0.5, 2990, 1, -0.5
*EQUATION
3
5458, 2, 1.0, 2987, 2, -0.5, 2990, 2, -0.5
*EQUATION
3
5458, 3, 1.0, 2987, 3, -0.5, 2990, 3, -0.5
*EQUATION
3
5461, 1, 1.0, 2990, 1, -0.5, 2991, 1, -0.5
*EQUATION
3
5461, 2, 1.0, 2990, 2, -0.5, 2991, 2, -0.5
*EQUATION
3
5461, 3, 1.0, 2990, 3, -0.5, 2991, 3, -0.5
*EQUATION
5
5462, 1, 1.0, 1145, 1, -0.25, 1147, 1, -0.25, 138, 1, -0.25, 1146, 1, -0.25
*EQUATION
5
5462, 2, 1.0, 1145, 2, -0.25, 1147, 2, -0.25, 138, 2, -0.25, 1146, 2, -0.25
*EQUATION
5
5462, 3, 1.0, 1145, 3, -0.25, 1147, 3, -0.25, 138, 3, -0.25, 1146, 3, -0.25
*EQUATION
3
5463, 1, 1.0, 138, 1, -0.5, 1146, 1, -0.5
*EQUATION
3
5463, 2, 1.0, 138, 2, -0.5, 1146, 2, -0.5
*EQUATION
3
5463, 3, 1.0, 138, 3, -0.5, 1146, 3, -0.5
*EQUATION
3
5471, 1, 1.0, 2987, 1, -0.5, 2993, 1, -0.5
*EQUATION
3
5471, 2, 1.0, 2987, 2, -0.5, 2993, 2, -0.5
*EQUATION
3
5471, 3, 1.0, 2987, 3, -0.5, 2993, 3, -0.5
*EQUATION
5
5472, 1, 1.0, 2987, 1, -0.25, 2993, 1, -0.25, 2994, 1, -0.25, 2988, 1, -0.25
*EQUATION
5
5472, 2, 1.0, 2987, 2, -0.25, 2993, 2, -0.25, 2994, 2, -0.25, 2988, 2, -0.25
*EQUATION
5
5472, 3, 1.0, 2987, 3, -0.25, 2993, 3, -0.25, 2994, 3, -0.25, 2988, 3, -0.25
*EQUATION
5
5473, 1, 1.0, 2987, 1, -0.25, 2993, 1, -0.25, 185, 1, -0.25, 2990, 1, -0.25
*EQUATION
5
5473, 2, 1.0, 2987, 2, -0.25, 2993, 2, -0.25, 185, 2, -0.25, 2990, 2, -0.25
*EQUATION
5
5473, 3, 1.0, 2987, 3, -0.25, 2993, 3, -0.25, 185, 3, -0.25, 2990, 3, -0.25
*EQUATION
3
5476, 1, 1.0, 185, 1, -0.5, 2990, 1, -0.5
*EQUATION
3
5476, 2, 1.0, 185, 2, -0.5, 2990, 2, -0.5
*EQUATION
3
5476, 3, 1.0, 185, 3, -0.5, 2990, 3, -0.5
*EQUATION
5
5477, 1, 1.0, 2990, 1, -0.25, 185, 1, -0.25, 2996, 1, -0.25, 2991, 1, -0.25
*EQUATION
5
5477, 2, 1.0, 2990, 2, -0.25, 185, 2, -0.25, 2996, 2, -0.25, 2991, 2, -0.25
*EQUATION
5
5477, 3, 1.0, 2990, 3, -0.25, 185, 3, -0.25, 2996, 3, -0.25, 2991, 3, -0.25
*EQUATION
3
5478, 1, 1.0, 2991, 1, -0.5, 2996, 1, -0.5
*EQUATION
3
5478, 2, 1.0, 2991, 2, -0.5, 2996, 2, -0.5
*EQUATION
3
5478, 3, 1.0, 2991, 3, -0.5, 2996, 3, -0.5
*EQUATION
3
5479, 1, 1.0, 2993, 1, -0.5, 2994, 1, -0.5
*EQUATION
3
5479, 2, 1.0, 2993, 2, -0.5, 2994, 2, -0.5
*EQUATION
3
5479, 3, 1.0, 2993, 3, -0.5, 2994, 3, -0.5
*EQUATION
3
5480, 1, 1.0, 185, 1, -0.5, 2993, 1, -0.5
*EQUATION
3
5480, 2, 1.0, 185, 2, -0.5, 2993, 2, -0.5
*EQUATION
3
5480, 3, 1.0, 185, 3, -0.5, 2993, 3, -0.5
*EQUATION
5
5481, 1, 1.0, 2993, 1, -0.25, 185, 1, -0.25, 2996, 1, -0.25, 2994, 1, -0.25
*EQUATION
5
5481, 2, 1.0, 2993, 2, -0.25, 185, 2, -0.25, 2996, 2, -0.25, 2994, 2, -0.25
*EQUATION
5
5481, 3, 1.0, 2993, 3, -0.25, 185, 3, -0.25, 2996, 3, -0.25, 2994, 3, -0.25
*EQUATION
3
5482, 1, 1.0, 2994, 1, -0.5, 2996, 1, -0.5
*EQUATION
3
5482, 2, 1.0, 2994, 2, -0.5, 2996, 2, -0.5
*EQUATION
3
5482, 3, 1.0, 2994, 3, -0.5, 2996, 3, -0.5
*EQUATION
3
5483, 1, 1.0, 185, 1, -0.5, 2996, 1, -0.5
*EQUATION
3
5483, 2, 1.0, 185, 2, -0.5, 2996, 2, -0.5
*EQUATION
3
5483, 3, 1.0, 185, 3, -0.5, 2996, 3, -0.5
*EQUATION
5
5488, 1, 1.0, 2994, 1, -0.25, 2996, 1, -0.25, 186, 1, -0.25, 2995, 1, -0.25
*EQUATION
5
5488, 2, 1.0, 2994, 2, -0.25, 2996, 2, -0.25, 186, 2, -0.25, 2995, 2, -0.25
*EQUATION
5
5488, 3, 1.0, 2994, 3, -0.25, 2996, 3, -0.25, 186, 3, -0.25, 2995, 3, -0.25
*EQUATION
3
5489, 1, 1.0, 186, 1, -0.5, 2995, 1, -0.5
*EQUATION
3
5489, 2, 1.0, 186, 2, -0.5, 2995, 2, -0.5
*EQUATION
3
5489, 3, 1.0, 186, 3, -0.5, 2995, 3, -0.5
*EQUATION
3
5490, 1, 1.0, 186, 1, -0.5, 2996, 1, -0.5
*EQUATION
3
5490, 2, 1.0, 186, 2, -0.5, 2996, 2, -0.5
*EQUATION
3
5490, 3, 1.0, 186, 3, -0.5, 2996, 3, -0.5
*EQUATION
3
5493, 1, 1.0, 139, 1, -0.5, 187, 1, -0.5
*EQUATION
3
5493, 2, 1.0, 139, 2, -0.5, 187, 2, -0.5
*EQUATION
3
5493, 3, 1.0, 139, 3, -0.5, 187, 3, -0.5
*EQUATION
5
5494, 1, 1.0, 139, 1, -0.25, 187, 1, -0.25, 188, 1, -0.25, 140, 1, -0.25
*EQUATION
5
5494, 2, 1.0, 139, 2, -0.25, 187, 2, -0.25, 188, 2, -0.25, 140, 2, -0.25
*EQUATION
5
5494, 3, 1.0, 139, 3, -0.25, 187, 3, -0.25, 188, 3, -0.25, 140, 3, -0.25
*EQUATION
5
5495, 1, 1.0, 1147, 1, -0.25, 2991, 1, -0.25, 4200, 1, -0.25, 1159, 1, -0.25
*EQUATION
5
5495, 2, 1.0, 1147, 2, -0.25, 2991, 2, -0.25, 4200, 2, -0.25, 1159, 2, -0.25
*EQUATION
5
5495, 3, 1.0, 1147, 3, -0.25, 2991, 3, -0.25, 4200, 3, -0.25, 1159, 3, -0.25
*EQUATION
3
5498, 1, 1.0, 1159, 1, -0.5, 4200, 1, -0.5
*EQUATION
3
5498, 2, 1.0, 1159, 2, -0.5, 4200, 2, -0.5
*EQUATION
3
5498, 3, 1.0, 1159, 3, -0.5, 4200, 3, -0.5
*EQUATION
5
5499, 1, 1.0, 1159, 1, -0.25, 4200, 1, -0.25, 4201, 1, -0.25, 1160, 1, -0.25
*EQUATION
5
5499, 2, 1.0, 1159, 2, -0.25, 4200, 2, -0.25, 4201, 2, -0.25, 1160, 2, -0.25
*EQUATION
5
5499, 3, 1.0, 1159, 3, -0.25, 4200, 3, -0.25, 4201, 3, -0.25, 1160, 3, -0.25
*EQUATION
3
5500, 1, 1.0, 1160, 1, -0.5, 4201, 1, -0.5
*EQUATION
3
5500, 2, 1.0, 1160, 2, -0.5, 4201, 2, -0.5
*EQUATION
3
5500, 3, 1.0, 1160, 3, -0.5, 4201, 3, -0.5
*EQUATION
3
5501, 1, 1.0, 2991, 1, -0.5, 4200, 1, -0.5
*EQUATION
3
5501, 2, 1.0, 2991, 2, -0.5, 4200, 2, -0.5
*EQUATION
3
5501, 3, 1.0, 2991, 3, -0.5, 4200, 3, -0.5
*EQUATION
3
5504, 1, 1.0, 4200, 1, -0.5, 4201, 1, -0.5
*EQUATION
3
5504, 2, 1.0, 4200, 2, -0.5, 4201, 2, -0.5
*EQUATION
3
5504, 3, 1.0, 4200, 3, -0.5, 4201, 3, -0.5
*EQUATION
5
5505, 1, 1.0, 2991, 1, -0.25, 2996, 1, -0.25, 4206, 1, -0.25, 4200, 1, -0.25
*EQUATION
5
5505, 2, 1.0, 2991, 2, -0.25, 2996, 2, -0.25, 4206, 2, -0.25, 4200, 2, -0.25
*EQUATION
5
5505, 3, 1.0, 2991, 3, -0.25, 2996, 3, -0.25, 4206, 3, -0.25, 4200, 3, -0.25
*EQUATION
3
5508, 1, 1.0, 4200, 1, -0.5, 4206, 1, -0.5
*EQUATION
3
5508, 2, 1.0, 4200, 2, -0.5, 4206, 2, -0.5
*EQUATION
3
5508, 3, 1.0, 4200, 3, -0.5, 4206, 3, -0.5
*EQUATION
5
5509, 1, 1.0, 4200, 1, -0.25, 4206, 1, -0.25, 4207, 1, -0.25, 4201, 1, -0.25
*EQUATION
5
5509, 2, 1.0, 4200, 2, -0.25, 4206, 2, -0.25, 4207, 2, -0.25, 4201, 2, -0.25
*EQUATION
5
5509, 3, 1.0, 4200, 3, -0.25, 4206, 3, -0.25, 4207, 3, -0.25, 4201, 3, -0.25
*EQUATION
3
5510, 1, 1.0, 4201, 1, -0.5, 4207, 1, -0.5
*EQUATION
3
5510, 2, 1.0, 4201, 2, -0.5, 4207, 2, -0.5
*EQUATION
3
5510, 3, 1.0, 4201, 3, -0.5, 4207, 3, -0.5
*EQUATION
3
5511, 1, 1.0, 2996, 1, -0.5, 4206, 1, -0.5
*EQUATION
3
5511, 2, 1.0, 2996, 2, -0.5, 4206, 2, -0.5
*EQUATION
3
5511, 3, 1.0, 2996, 3, -0.5, 4206, 3, -0.5
*EQUATION
5
5512, 1, 1.0, 2996, 1, -0.25, 4206, 1, -0.25, 4207, 1, -0.25, 186, 1, -0.25
*EQUATION
5
5512, 2, 1.0, 2996, 2, -0.25, 4206, 2, -0.25, 4207, 2, -0.25, 186, 2, -0.25
*EQUATION
5
5512, 3, 1.0, 2996, 3, -0.25, 4206, 3, -0.25, 4207, 3, -0.25, 186, 3, -0.25
*EQUATION
3
5513, 1, 1.0, 186, 1, -0.5, 4207, 1, -0.5
*EQUATION
3
5513, 2, 1.0, 186, 2, -0.5, 4207, 2, -0.5
*EQUATION
3
5513, 3, 1.0, 186, 3, -0.5, 4207, 3, -0.5
*EQUATION
3
5514, 1, 1.0, 4206, 1, -0.5, 4207, 1, -0.5
*EQUATION
3
5514, 2, 1.0, 4206, 2, -0.5, 4207, 2, -0.5
*EQUATION
3
5514, 3, 1.0, 4206, 3, -0.5, 4207, 3, -0.5
*EQUATION
5
5515, 1, 1.0, 140, 1, -0.25, 188, 1, -0.25, 191, 1, -0.25, 143, 1, -0.25
*EQUATION
5
5515, 2, 1.0, 140, 2, -0.25, 188, 2, -0.25, 191, 2, -0.25, 143, 2, -0.25
*EQUATION
5
5515, 3, 1.0, 140, 3, -0.25, 188, 3, -0.25, 191, 3, -0.25, 143, 3, -0.25
*EQUATION
3
5518, 1, 1.0, 143, 1, -0.5, 191, 1, -0.5
*EQUATION
3
5518, 2, 1.0, 143, 2, -0.5, 191, 2, -0.5
*EQUATION
3
5518, 3, 1.0, 143, 3, -0.5, 191, 3, -0.5
*EQUATION
3
5521, 1, 1.0, 188, 1, -0.5, 191, 1, -0.5
*EQUATION
3
5521, 2, 1.0, 188, 2, -0.5, 191, 2, -0.5
*EQUATION
3
5521, 3, 1.0, 188, 3, -0.5, 191, 3, -0.5
*EQUATION
3
5525, 1, 1.0, 163, 1, -0.5, 165, 1, -0.5
*EQUATION
3
5525, 2, 1.0, 163, 2, -0.5, 165, 2, -0.5
*EQUATION
3
5525, 3, 1.0, 163, 3, -0.5, 165, 3, -0.5
*EQUATION
3
5526, 1, 1.0, 163, 1, -0.5, 164, 1, -0.5
*EQUATION
3
5526, 2, 1.0, 163, 2, -0.5, 164, 2, -0.5
*EQUATION
3
5526, 3, 1.0, 163, 3, -0.5, 164, 3, -0.5
*EQUATION
5
5527, 1, 1.0, 163, 1, -0.25, 164, 1, -0.25, 166, 1, -0.25, 165, 1, -0.25
*EQUATION
5
5527, 2, 1.0, 163, 2, -0.25, 164, 2, -0.25, 166, 2, -0.25, 165, 2, -0.25
*EQUATION
5
5527, 3, 1.0, 163, 3, -0.25, 164, 3, -0.25, 166, 3, -0.25, 165, 3, -0.25
*EQUATION
3
5548, 1, 1.0, 4298, 1, -0.5, 4299, 1, -0.5
*EQUATION
3
5548, 2, 1.0, 4298, 2, -0.5, 4299, 2, -0.5
*EQUATION
3
5548, 3, 1.0, 4298, 3, -0.5, 4299, 3, -0.5
*EQUATION
3
5549, 1, 1.0, 169, 1, -0.5, 4298, 1, -0.5
*EQUATION
3
5549, 2, 1.0, 169, 2, -0.5, 4298, 2, -0.5
*EQUATION
3
5549, 3, 1.0, 169, 3, -0.5, 4298, 3, -0.5
*EQUATION
5
5550, 1, 1.0, 4298, 1, -0.25, 169, 1, -0.25, 3119, 1, -0.25, 4299, 1, -0.25
*EQUATION
5
5550, 2, 1.0, 4298, 2, -0.25, 169, 2, -0.25, 3119, 2, -0.25, 4299, 2, -0.25
*EQUATION
5
5550, 3, 1.0, 4298, 3, -0.25, 169, 3, -0.25, 3119, 3, -0.25, 4299, 3, -0.25
*EQUATION
3
5551, 1, 1.0, 3119, 1, -0.5, 4299, 1, -0.5
*EQUATION
3
5551, 2, 1.0, 3119, 2, -0.5, 4299, 2, -0.5
*EQUATION
3
5551, 3, 1.0, 3119, 3, -0.5, 4299, 3, -0.5
*EQUATION
3
5552, 1, 1.0, 169, 1, -0.5, 3119, 1, -0.5
*EQUATION
3
5552, 2, 1.0, 169, 2, -0.5, 3119, 2, -0.5
*EQUATION
3
5552, 3, 1.0, 169, 3, -0.5, 3119, 3, -0.5
*EQUATION
3
5553, 1, 1.0, 4298, 1, -0.5, 4303, 1, -0.5
*EQUATION
3
5553, 2, 1.0, 4298, 2, -0.5, 4303, 2, -0.5
*EQUATION
3
5553, 3, 1.0, 4298, 3, -0.5, 4303, 3, -0.5
*EQUATION
5
5554, 1, 1.0, 4298, 1, -0.25, 4303, 1, -0.25, 4304, 1, -0.25, 4299, 1, -0.25
*EQUATION
5
5554, 2, 1.0, 4298, 2, -0.25, 4303, 2, -0.25, 4304, 2, -0.25, 4299, 2, -0.25
*EQUATION
5
5554, 3, 1.0, 4298, 3, -0.25, 4303, 3, -0.25, 4304, 3, -0.25, 4299, 3, -0.25
*EQUATION
3
5555, 1, 1.0, 4299, 1, -0.5, 4304, 1, -0.5
*EQUATION
3
5555, 2, 1.0, 4299, 2, -0.5, 4304, 2, -0.5
*EQUATION
3
5555, 3, 1.0, 4299, 3, -0.5, 4304, 3, -0.5
*EQUATION
5
5558, 1, 1.0, 4299, 1, -0.25, 4304, 1, -0.25, 3123, 1, -0.25, 3119, 1, -0.25
*EQUATION
5
5558, 2, 1.0, 4299, 2, -0.25, 4304, 2, -0.25, 3123, 2, -0.25, 3119, 2, -0.25
*EQUATION
5
5558, 3, 1.0, 4299, 3, -0.25, 4304, 3, -0.25, 3123, 3, -0.25, 3119, 3, -0.25
*EQUATION
3
5561, 1, 1.0, 3119, 1, -0.5, 3123, 1, -0.5
*EQUATION
3
5561, 2, 1.0, 3119, 2, -0.5, 3123, 2, -0.5
*EQUATION
3
5561, 3, 1.0, 3119, 3, -0.5, 3123, 3, -0.5
*EQUATION
3
5562, 1, 1.0, 4303, 1, -0.5, 4304, 1, -0.5
*EQUATION
3
5562, 2, 1.0, 4303, 2, -0.5, 4304, 2, -0.5
*EQUATION
3
5562, 3, 1.0, 4303, 3, -0.5, 4304, 3, -0.5
*EQUATION
3
5565, 1, 1.0, 3123, 1, -0.5, 4304, 1, -0.5
*EQUATION
3
5565, 2, 1.0, 3123, 2, -0.5, 4304, 2, -0.5
*EQUATION
3
5565, 3, 1.0, 3123, 3, -0.5, 4304, 3, -0.5
*EQUATION
3
5567, 1, 1.0, 4303, 1, -0.5, 4307, 1, -0.5
*EQUATION
3
5567, 2, 1.0, 4303, 2, -0.5, 4307, 2, -0.5
*EQUATION
3
5567, 3, 1.0, 4303, 3, -0.5, 4307, 3, -0.5
*EQUATION
5
5568, 1, 1.0, 4303, 1, -0.25, 4307, 1, -0.25, 4308, 1, -0.25, 4304, 1, -0.25
*EQUATION
5
5568, 2, 1.0, 4303, 2, -0.25, 4307, 2, -0.25, 4308, 2, -0.25, 4304, 2, -0.25
*EQUATION
5
5568, 3, 1.0, 4303, 3, -0.25, 4307, 3, -0.25, 4308, 3, -0.25, 4304, 3, -0.25
*EQUATION
3
5569, 1, 1.0, 4304, 1, -0.5, 4308, 1, -0.5
*EQUATION
3
5569, 2, 1.0, 4304, 2, -0.5, 4308, 2, -0.5
*EQUATION
3
5569, 3, 1.0, 4304, 3, -0.5, 4308, 3, -0.5
*EQUATION
5
5572, 1, 1.0, 4304, 1, -0.25, 4308, 1, -0.25, 3131, 1, -0.25, 3123, 1, -0.25
*EQUATION
5
5572, 2, 1.0, 4304, 2, -0.25, 4308, 2, -0.25, 3131, 2, -0.25, 3123, 2, -0.25
*EQUATION
5
5572, 3, 1.0, 4304, 3, -0.25, 4308, 3, -0.25, 3131, 3, -0.25, 3123, 3, -0.25
*EQUATION
3
5575, 1, 1.0, 3123, 1, -0.5, 3131, 1, -0.5
*EQUATION
3
5575, 2, 1.0, 3123, 2, -0.5, 3131, 2, -0.5
*EQUATION
3
5575, 3, 1.0, 3123, 3, -0.5, 3131, 3, -0.5
*EQUATION
3
5576, 1, 1.0, 4307, 1, -0.5, 4308, 1, -0.5
*EQUATION
3
5576, 2, 1.0, 4307, 2, -0.5, 4308, 2, -0.5
*EQUATION
3
5576, 3, 1.0, 4307, 3, -0.5, 4308, 3, -0.5
*EQUATION
3
5577, 1, 1.0, 217, 1, -0.5, 4307, 1, -0.5
*EQUATION
3
5577, 2, 1.0, 217, 2, -0.5, 4307, 2, -0.5
*EQUATION
3
5577, 3, 1.0, 217, 3, -0.5, 4307, 3, -0.5
*EQUATION
5
5578, 1, 1.0, 4307, 1, -0.25, 217, 1, -0.25, 3131, 1, -0.25, 4308, 1, -0.25
*EQUATION
5
5578, 2, 1.0, 4307, 2, -0.25, 217, 2, -0.25, 3131, 2, -0.25, 4308, 2, -0.25
*EQUATION
5
5578, 3, 1.0, 4307, 3, -0.25, 217, 3, -0.25, 3131, 3, -0.25, 4308, 3, -0.25
*EQUATION
3
5579, 1, 1.0, 3131, 1, -0.5, 4308, 1, -0.5
*EQUATION
3
5579, 2, 1.0, 3131, 2, -0.5, 4308, 2, -0.5
*EQUATION
3
5579, 3, 1.0, 3131, 3, -0.5, 4308, 3, -0.5
*EQUATION
3
5580, 1, 1.0, 217, 1, -0.5, 3131, 1, -0.5
*EQUATION
3
5580, 2, 1.0, 217, 2, -0.5, 3131, 2, -0.5
*EQUATION
3
5580, 3, 1.0, 217, 3, -0.5, 3131, 3, -0.5
*EQUATION
3
5585, 1, 1.0, 169, 1, -0.5, 3120, 1, -0.5
*EQUATION
3
5585, 2, 1.0, 169, 2, -0.5, 3120, 2, -0.5
*EQUATION
3
5585, 3, 1.0, 169, 3, -0.5, 3120, 3, -0.5
*EQUATION
5
5586, 1, 1.0, 169, 1, -0.25, 3120, 1, -0.25, 3121, 1, -0.25, 3119, 1, -0.25
*EQUATION
5
5586, 2, 1.0, 169, 2, -0.25, 3120, 2, -0.25, 3121, 2, -0.25, 3119, 2, -0.25
*EQUATION
5
5586, 3, 1.0, 169, 3, -0.25, 3120, 3, -0.25, 3121, 3, -0.25, 3119, 3, -0.25
*EQUATION
3
5587, 1, 1.0, 3119, 1, -0.5, 3121, 1, -0.5
*EQUATION
3
5587, 2, 1.0, 3119, 2, -0.5, 3121, 2, -0.5
*EQUATION
3
5587, 3, 1.0, 3119, 3, -0.5, 3121, 3, -0.5
*EQUATION
3
5588, 1, 1.0, 3120, 1, -0.5, 3121, 1, -0.5
*EQUATION
3
5588, 2, 1.0, 3120, 2, -0.5, 3121, 2, -0.5
*EQUATION
3
5588, 3, 1.0, 3120, 3, -0.5, 3121, 3, -0.5
*EQUATION
3
5594, 1, 1.0, 3121, 1, -0.5, 3126, 1, -0.5
*EQUATION
3
5594, 2, 1.0, 3121, 2, -0.5, 3126, 2, -0.5
*EQUATION
3
5594, 3, 1.0, 3121, 3, -0.5, 3126, 3, -0.5
*EQUATION
3
5598, 1, 1.0, 3125, 1, -0.5, 3126, 1, -0.5
*EQUATION
3
5598, 2, 1.0, 3125, 2, -0.5, 3126, 2, -0.5
*EQUATION
3
5598, 3, 1.0, 3125, 3, -0.5, 3126, 3, -0.5
*EQUATION
3
5599, 1, 1.0, 170, 1, -0.5, 3119, 1, -0.5
*EQUATION
3
5599, 2, 1.0, 170, 2, -0.5, 3119, 2, -0.5
*EQUATION
3
5599, 3, 1.0, 170, 3, -0.5, 3119, 3, -0.5
*EQUATION
5
5600, 1, 1.0, 3119, 1, -0.25, 3121, 1, -0.25, 2937, 1, -0.25, 170, 1, -0.25
*EQUATION
5
5600, 2, 1.0, 3119, 2, -0.25, 3121, 2, -0.25, 2937, 2, -0.25, 170, 2, -0.25
*EQUATION
5
5600, 3, 1.0, 3119, 3, -0.25, 3121, 3, -0.25, 2937, 3, -0.25, 170, 3, -0.25
*EQUATION
3
5601, 1, 1.0, 2937, 1, -0.5, 3121, 1, -0.5
*EQUATION
3
5601, 2, 1.0, 2937, 2, -0.5, 3121, 2, -0.5
*EQUATION
3
5601, 3, 1.0, 2937, 3, -0.5, 3121, 3, -0.5
*EQUATION
5
5602, 1, 1.0, 3119, 1, -0.25, 3123, 1, -0.25, 3124, 1, -0.25, 170, 1, -0.25
*EQUATION
5
5602, 2, 1.0, 3119, 2, -0.25, 3123, 2, -0.25, 3124, 2, -0.25, 170, 2, -0.25
*EQUATION
5
5602, 3, 1.0, 3119, 3, -0.25, 3123, 3, -0.25, 3124, 3, -0.25, 170, 3, -0.25
*EQUATION
3
5603, 1, 1.0, 170, 1, -0.5, 3124, 1, -0.5
*EQUATION
3
5603, 2, 1.0, 170, 2, -0.5, 3124, 2, -0.5
*EQUATION
3
5603, 3, 1.0, 170, 3, -0.5, 3124, 3, -0.5
*EQUATION
5
5605, 1, 1.0, 170, 1, -0.25, 3124, 1, -0.25, 3127, 1, -0.25, 2937, 1, -0.25
*EQUATION
5
5605, 2, 1.0, 170, 2, -0.25, 3124, 2, -0.25, 3127, 2, -0.25, 2937, 2, -0.25
*EQUATION
5
5605, 3, 1.0, 170, 3, -0.25, 3124, 3, -0.25, 3127, 3, -0.25, 2937, 3, -0.25
*EQUATION
5
5606, 1, 1.0, 3121, 1, -0.25, 3126, 1, -0.25, 3127, 1, -0.25, 2937, 1, -0.25
*EQUATION
5
5606, 2, 1.0, 3121, 2, -0.25, 3126, 2, -0.25, 3127, 2, -0.25, 2937, 2, -0.25
*EQUATION
5
5606, 3, 1.0, 3121, 3, -0.25, 3126, 3, -0.25, 3127, 3, -0.25, 2937, 3, -0.25
*EQUATION
3
5607, 1, 1.0, 2937, 1, -0.5, 3127, 1, -0.5
*EQUATION
3
5607, 2, 1.0, 2937, 2, -0.5, 3127, 2, -0.5
*EQUATION
3
5607, 3, 1.0, 2937, 3, -0.5, 3127, 3, -0.5
*EQUATION
3
5608, 1, 1.0, 3123, 1, -0.5, 3124, 1, -0.5
*EQUATION
3
5608, 2, 1.0, 3123, 2, -0.5, 3124, 2, -0.5
*EQUATION
3
5608, 3, 1.0, 3123, 3, -0.5, 3124, 3, -0.5
*EQUATION
3
5610, 1, 1.0, 3124, 1, -0.5, 3127, 1, -0.5
*EQUATION
3
5610, 2, 1.0, 3124, 2, -0.5, 3127, 2, -0.5
*EQUATION
3
5610, 3, 1.0, 3124, 3, -0.5, 3127, 3, -0.5
*EQUATION
3
5611, 1, 1.0, 3126, 1, -0.5, 3127, 1, -0.5
*EQUATION
3
5611, 2, 1.0, 3126, 2, -0.5, 3127, 2, -0.5
*EQUATION
3
5611, 3, 1.0, 3126, 3, -0.5, 3127, 3, -0.5
*EQUATION
3
5612, 1, 1.0, 172, 1, -0.5, 3120, 1, -0.5
*EQUATION
3
5612, 2, 1.0, 172, 2, -0.5, 3120, 2, -0.5
*EQUATION
3
5612, 3, 1.0, 172, 3, -0.5, 3120, 3, -0.5
*EQUATION
5
5613, 1, 1.0, 3120, 1, -0.25, 172, 1, -0.25, 2948, 1, -0.25, 3121, 1, -0.25
*EQUATION
5
5613, 2, 1.0, 3120, 2, -0.25, 172, 2, -0.25, 2948, 2, -0.25, 3121, 2, -0.25
*EQUATION
5
5613, 3, 1.0, 3120, 3, -0.25, 172, 3, -0.25, 2948, 3, -0.25, 3121, 3, -0.25
*EQUATION
3
5614, 1, 1.0, 2948, 1, -0.5, 3121, 1, -0.5
*EQUATION
3
5614, 2, 1.0, 2948, 2, -0.5, 3121, 2, -0.5
*EQUATION
3
5614, 3, 1.0, 2948, 3, -0.5, 3121, 3, -0.5
*EQUATION
3
5615, 1, 1.0, 172, 1, -0.5, 2948, 1, -0.5
*EQUATION
3
5615, 2, 1.0, 172, 2, -0.5, 2948, 2, -0.5
*EQUATION
3
5615, 3, 1.0, 172, 3, -0.5, 2948, 3, -0.5
*EQUATION
5
5618, 1, 1.0, 3121, 1, -0.25, 3126, 1, -0.25, 3129, 1, -0.25, 2948, 1, -0.25
*EQUATION
5
5618, 2, 1.0, 3121, 2, -0.25, 3126, 2, -0.25, 3129, 2, -0.25, 2948, 2, -0.25
*EQUATION
5
5618, 3, 1.0, 3121, 3, -0.25, 3126, 3, -0.25, 3129, 3, -0.25, 2948, 3, -0.25
*EQUATION
3
5619, 1, 1.0, 172, 1, -0.5, 3128, 1, -0.5
*EQUATION
3
5619, 2, 1.0, 172, 2, -0.5, 3128, 2, -0.5
*EQUATION
3
5619, 3, 1.0, 172, 3, -0.5, 3128, 3, -0.5
*EQUATION
5
5620, 1, 1.0, 172, 1, -0.25, 3128, 1, -0.25, 3129, 1, -0.25, 2948, 1, -0.25
*EQUATION
5
5620, 2, 1.0, 172, 2, -0.25, 3128, 2, -0.25, 3129, 2, -0.25, 2948, 2, -0.25
*EQUATION
5
5620, 3, 1.0, 172, 3, -0.25, 3128, 3, -0.25, 3129, 3, -0.25, 2948, 3, -0.25
*EQUATION
3
5621, 1, 1.0, 2948, 1, -0.5, 3129, 1, -0.5
*EQUATION
3
5621, 2, 1.0, 2948, 2, -0.5, 3129, 2, -0.5
*EQUATION
3
5621, 3, 1.0, 2948, 3, -0.5, 3129, 3, -0.5
*EQUATION
3
5622, 1, 1.0, 3125, 1, -0.5, 3128, 1, -0.5
*EQUATION
3
5622, 2, 1.0, 3125, 2, -0.5, 3128, 2, -0.5
*EQUATION
3
5622, 3, 1.0, 3125, 3, -0.5, 3128, 3, -0.5
*EQUATION
5
5623, 1, 1.0, 3125, 1, -0.25, 3128, 1, -0.25, 3129, 1, -0.25, 3126, 1, -0.25
*EQUATION
5
5623, 2, 1.0, 3125, 2, -0.25, 3128, 2, -0.25, 3129, 2, -0.25, 3126, 2, -0.25
*EQUATION
5
5623, 3, 1.0, 3125, 3, -0.25, 3128, 3, -0.25, 3129, 3, -0.25, 3126, 3, -0.25
*EQUATION
3
5624, 1, 1.0, 3126, 1, -0.5, 3129, 1, -0.5
*EQUATION
3
5624, 2, 1.0, 3126, 2, -0.5, 3129, 2, -0.5
*EQUATION
3
5624, 3, 1.0, 3126, 3, -0.5, 3129, 3, -0.5
*EQUATION
3
5625, 1, 1.0, 3128, 1, -0.5, 3129, 1, -0.5
*EQUATION
3
5625, 2, 1.0, 3128, 2, -0.5, 3129, 2, -0.5
*EQUATION
3
5625, 3, 1.0, 3128, 3, -0.5, 3129, 3, -0.5
*EQUATION
3
5629, 1, 1.0, 3125, 1, -0.5, 3132, 1, -0.5
*EQUATION
3
5629, 2, 1.0, 3125, 2, -0.5, 3132, 2, -0.5
*EQUATION
3
5629, 3, 1.0, 3125, 3, -0.5, 3132, 3, -0.5
*EQUATION
5
5630, 1, 1.0, 3125, 1, -0.25, 3132, 1, -0.25, 3133, 1, -0.25, 3126, 1, -0.25
*EQUATION
5
5630, 2, 1.0, 3125, 2, -0.25, 3132, 2, -0.25, 3133, 2, -0.25, 3126, 2, -0.25
*EQUATION
5
5630, 3, 1.0, 3125, 3, -0.25, 3132, 3, -0.25, 3133, 3, -0.25, 3126, 3, -0.25
*EQUATION
3
5631, 1, 1.0, 3126, 1, -0.5, 3133, 1, -0.5
*EQUATION
3
5631, 2, 1.0, 3126, 2, -0.5, 3133, 2, -0.5
*EQUATION
3
5631, 3, 1.0, 3126, 3, -0.5, 3133, 3, -0.5
*EQUATION
3
5635, 1, 1.0, 3132, 1, -0.5, 3133, 1, -0.5
*EQUATION
3
5635, 2, 1.0, 3132, 2, -0.5, 3133, 2, -0.5
*EQUATION
3
5635, 3, 1.0, 3132, 3, -0.5, 3133, 3, -0.5
*EQUATION
5
5636, 1, 1.0, 3123, 1, -0.25, 3131, 1, -0.25, 218, 1, -0.25, 3124, 1, -0.25
*EQUATION
5
5636, 2, 1.0, 3123, 2, -0.25, 3131, 2, -0.25, 218, 2, -0.25, 3124, 2, -0.25
*EQUATION
5
5636, 3, 1.0, 3123, 3, -0.25, 3131, 3, -0.25, 218, 3, -0.25, 3124, 3, -0.25
*EQUATION
3
5637, 1, 1.0, 218, 1, -0.5, 3124, 1, -0.5
*EQUATION
3
5637, 2, 1.0, 218, 2, -0.5, 3124, 2, -0.5
*EQUATION
3
5637, 3, 1.0, 218, 3, -0.5, 3124, 3, -0.5
*EQUATION
5
5639, 1, 1.0, 3124, 1, -0.25, 218, 1, -0.25, 3134, 1, -0.25, 3127, 1, -0.25
*EQUATION
5
5639, 2, 1.0, 3124, 2, -0.25, 218, 2, -0.25, 3134, 2, -0.25, 3127, 2, -0.25
*EQUATION
5
5639, 3, 1.0, 3124, 3, -0.25, 218, 3, -0.25, 3134, 3, -0.25, 3127, 3, -0.25
*EQUATION
5
5640, 1, 1.0, 3126, 1, -0.25, 3133, 1, -0.25, 3134, 1, -0.25, 3127, 1, -0.25
*EQUATION
5
5640, 2, 1.0, 3126, 2, -0.25, 3133, 2, -0.25, 3134, 2, -0.25, 3127, 2, -0.25
*EQUATION
5
5640, 3, 1.0, 3126, 3, -0.25, 3133, 3, -0.25, 3134, 3, -0.25, 3127, 3, -0.25
*EQUATION
3
5641, 1, 1.0, 3127, 1, -0.5, 3134, 1, -0.5
*EQUATION
3
5641, 2, 1.0, 3127, 2, -0.5, 3134, 2, -0.5
*EQUATION
3
5641, 3, 1.0, 3127, 3, -0.5, 3134, 3, -0.5
*EQUATION
3
5642, 1, 1.0, 218, 1, -0.5, 3131, 1, -0.5
*EQUATION
3
5642, 2, 1.0, 218, 2, -0.5, 3131, 2, -0.5
*EQUATION
3
5642, 3, 1.0, 218, 3, -0.5, 3131, 3, -0.5
*EQUATION
3
5644, 1, 1.0, 218, 1, -0.5, 3134, 1, -0.5
*EQUATION
3
5644, 2, 1.0, 218, 2, -0.5, 3134, 2, -0.5
*EQUATION
3
5644, 3, 1.0, 218, 3, -0.5, 3134, 3, -0.5
*EQUATION
3
5645, 1, 1.0, 3133, 1, -0.5, 3134, 1, -0.5
*EQUATION
3
5645, 2, 1.0, 3133, 2, -0.5, 3134, 2, -0.5
*EQUATION
3
5645, 3, 1.0, 3133, 3, -0.5, 3134, 3, -0.5
*EQUATION
3
5646, 1, 1.0, 4312, 1, -0.5, 4313, 1, -0.5
*EQUATION
3
5646, 2, 1.0, 4312, 2, -0.5, 4313, 2, -0.5
*EQUATION
3
5646, 3, 1.0, 4312, 3, -0.5, 4313, 3, -0.5
*EQUATION
3
5647, 1, 1.0, 3136, 1, -0.5, 4312, 1, -0.5
*EQUATION
3
5647, 2, 1.0, 3136, 2, -0.5, 4312, 2, -0.5
*EQUATION
3
5647, 3, 1.0, 3136, 3, -0.5, 4312, 3, -0.5
*EQUATION
5
5648, 1, 1.0, 4312, 1, -0.25, 3136, 1, -0.25, 3137, 1, -0.25, 4313, 1, -0.25
*EQUATION
5
5648, 2, 1.0, 4312, 2, -0.25, 3136, 2, -0.25, 3137, 2, -0.25, 4313, 2, -0.25
*EQUATION
5
5648, 3, 1.0, 4312, 3, -0.25, 3136, 3, -0.25, 3137, 3, -0.25, 4313, 3, -0.25
*EQUATION
3
5649, 1, 1.0, 3137, 1, -0.5, 4313, 1, -0.5
*EQUATION
3
5649, 2, 1.0, 3137, 2, -0.5, 4313, 2, -0.5
*EQUATION
3
5649, 3, 1.0, 3137, 3, -0.5, 4313, 3, -0.5
*EQUATION
3
5650, 1, 1.0, 3136, 1, -0.5, 3137, 1, -0.5
*EQUATION
3
5650, 2, 1.0, 3136, 2, -0.5, 3137, 2, -0.5
*EQUATION
3
5650, 3, 1.0, 3136, 3, -0.5, 3137, 3, -0.5
*EQUATION
3
5651, 1, 1.0, 4312, 1, -0.5, 4315, 1, -0.5
*EQUATION
3
5651, 2, 1.0, 4312, 2, -0.5, 4315, 2, -0.5
*EQUATION
3
5651, 3, 1.0, 4312, 3, -0.5, 4315, 3, -0.5
*EQUATION
5
5652, 1, 1.0, 4312, 1, -0.25, 4315, 1, -0.25, 4316, 1, -0.25, 4313, 1, -0.25
*EQUATION
5
5652, 2, 1.0, 4312, 2, -0.25, 4315, 2, -0.25, 4316, 2, -0.25, 4313, 2, -0.25
*EQUATION
5
5652, 3, 1.0, 4312, 3, -0.25, 4315, 3, -0.25, 4316, 3, -0.25, 4313, 3, -0.25
*EQUATION
3
5653, 1, 1.0, 4313, 1, -0.5, 4316, 1, -0.5
*EQUATION
3
5653, 2, 1.0, 4313, 2, -0.5, 4316, 2, -0.5
*EQUATION
3
5653, 3, 1.0, 4313, 3, -0.5, 4316, 3, -0.5
*EQUATION
5
5654, 1, 1.0, 4312, 1, -0.25, 4315, 1, -0.25, 3144, 1, -0.25, 3136, 1, -0.25
*EQUATION
5
5654, 2, 1.0, 4312, 2, -0.25, 4315, 2, -0.25, 3144, 2, -0.25, 3136, 2, -0.25
*EQUATION
5
5654, 3, 1.0, 4312, 3, -0.25, 4315, 3, -0.25, 3144, 3, -0.25, 3136, 3, -0.25
*EQUATION
3
5657, 1, 1.0, 3136, 1, -0.5, 3144, 1, -0.5
*EQUATION
3
5657, 2, 1.0, 3136, 2, -0.5, 3144, 2, -0.5
*EQUATION
3
5657, 3, 1.0, 3136, 3, -0.5, 3144, 3, -0.5
*EQUATION
3
5660, 1, 1.0, 4315, 1, -0.5, 4316, 1, -0.5
*EQUATION
3
5660, 2, 1.0, 4315, 2, -0.5, 4316, 2, -0.5
*EQUATION
3
5660, 3, 1.0, 4315, 3, -0.5, 4316, 3, -0.5
*EQUATION
3
5661, 1, 1.0, 3144, 1, -0.5, 4315, 1, -0.5
*EQUATION
3
5661, 2, 1.0, 3144, 2, -0.5, 4315, 2, -0.5
*EQUATION
3
5661, 3, 1.0, 3144, 3, -0.5, 4315, 3, -0.5
*EQUATION
5
5662, 1, 1.0, 4315, 1, -0.25, 3144, 1, -0.25, 222, 1, -0.25, 4316, 1, -0.25
*EQUATION
5
5662, 2, 1.0, 4315, 2, -0.25, 3144, 2, -0.25, 222, 2, -0.25, 4316, 2, -0.25
*EQUATION
5
5662, 3, 1.0, 4315, 3, -0.25, 3144, 3, -0.25, 222, 3, -0.25, 4316, 3, -0.25
*EQUATION
3
5663, 1, 1.0, 222, 1, -0.5, 4316, 1, -0.5
*EQUATION
3
5663, 2, 1.0, 222, 2, -0.5, 4316, 2, -0.5
*EQUATION
3
5663, 3, 1.0, 222, 3, -0.5, 4316, 3, -0.5
*EQUATION
3
5664, 1, 1.0, 222, 1, -0.5, 3144, 1, -0.5
*EQUATION
3
5664, 2, 1.0, 222, 2, -0.5, 3144, 2, -0.5
*EQUATION
3
5664, 3, 1.0, 222, 3, -0.5, 3144, 3, -0.5
*EQUATION
3
5665, 1, 1.0, 3136, 1, -0.5, 3139, 1, -0.5
*EQUATION
3
5665, 2, 1.0, 3136, 2, -0.5, 3139, 2, -0.5
*EQUATION
3
5665, 3, 1.0, 3136, 3, -0.5, 3139, 3, -0.5
*EQUATION
5
5666, 1, 1.0, 3136, 1, -0.25, 3139, 1, -0.25, 3140, 1, -0.25, 3137, 1, -0.25
*EQUATION
5
5666, 2, 1.0, 3136, 2, -0.25, 3139, 2, -0.25, 3140, 2, -0.25, 3137, 2, -0.25
*EQUATION
5
5666, 3, 1.0, 3136, 3, -0.25, 3139, 3, -0.25, 3140, 3, -0.25, 3137, 3, -0.25
*EQUATION
3
5667, 1, 1.0, 3137, 1, -0.5, 3140, 1, -0.5
*EQUATION
3
5667, 2, 1.0, 3137, 2, -0.5, 3140, 2, -0.5
*EQUATION
3
5667, 3, 1.0, 3137, 3, -0.5, 3140, 3, -0.5
*EQUATION
3
5668, 1, 1.0, 3139, 1, -0.5, 3140, 1, -0.5
*EQUATION
3
5668, 2, 1.0, 3139, 2, -0.5, 3140, 2, -0.5
*EQUATION
3
5668, 3, 1.0, 3139, 3, -0.5, 3140, 3, -0.5
*EQUATION
5
5669, 1, 1.0, 3136, 1, -0.25, 3144, 1, -0.25, 3146, 1, -0.25, 3139, 1, -0.25
*EQUATION
5
5669, 2, 1.0, 3136, 2, -0.25, 3144, 2, -0.25, 3146, 2, -0.25, 3139, 2, -0.25
*EQUATION
5
5669, 3, 1.0, 3136, 3, -0.25, 3144, 3, -0.25, 3146, 3, -0.25, 3139, 3, -0.25
*EQUATION
3
5672, 1, 1.0, 3139, 1, -0.5, 3146, 1, -0.5
*EQUATION
3
5672, 2, 1.0, 3139, 2, -0.5, 3146, 2, -0.5
*EQUATION
3
5672, 3, 1.0, 3139, 3, -0.5, 3146, 3, -0.5
*EQUATION
3
5675, 1, 1.0, 3144, 1, -0.5, 3146, 1, -0.5
*EQUATION
3
5675, 2, 1.0, 3144, 2, -0.5, 3146, 2, -0.5
*EQUATION
3
5675, 3, 1.0, 3144, 3, -0.5, 3146, 3, -0.5
*EQUATION
5
5676, 1, 1.0, 3144, 1, -0.25, 3146, 1, -0.25, 3147, 1, -0.25, 222, 1, -0.25
*EQUATION
5
5676, 2, 1.0, 3144, 2, -0.25, 3146, 2, -0.25, 3147, 2, -0.25, 222, 2, -0.25
*EQUATION
5
5676, 3, 1.0, 3144, 3, -0.25, 3146, 3, -0.25, 3147, 3, -0.25, 222, 3, -0.25
*EQUATION
3
5677, 1, 1.0, 222, 1, -0.5, 3147, 1, -0.5
*EQUATION
3
5677, 2, 1.0, 222, 2, -0.5, 3147, 2, -0.5
*EQUATION
3
5677, 3, 1.0, 222, 3, -0.5, 3147, 3, -0.5
*EQUATION
3
5678, 1, 1.0, 3146, 1, -0.5, 3147, 1, -0.5
*EQUATION
3
5678, 2, 1.0, 3146, 2, -0.5, 3147, 2, -0.5
*EQUATION
3
5678, 3, 1.0, 3146, 3, -0.5, 3147, 3, -0.5
*EQUATION
3
5679, 1, 1.0, 3139, 1, -0.5, 3142, 1, -0.5
*EQUATION
3
5679, 2, 1.0, 3139, 2, -0.5, 3142, 2, -0.5
*EQUATION
3
5679, 3, 1.0, 3139, 3, -0.5, 3142, 3, -0.5
*EQUATION
5
5680, 1, 1.0, 3139, 1, -0.25, 3142, 1, -0.25, 3143, 1, -0.25, 3140, 1, -0.25
*EQUATION
5
5680, 2, 1.0, 3139, 2, -0.25, 3142, 2, -0.25, 3143, 2, -0.25, 3140, 2, -0.25
*EQUATION
5
5680, 3, 1.0, 3139, 3, -0.25, 3142, 3, -0.25, 3143, 3, -0.25, 3140, 3, -0.25
*EQUATION
3
5681, 1, 1.0, 3140, 1, -0.5, 3143, 1, -0.5
*EQUATION
3
5681, 2, 1.0, 3140, 2, -0.5, 3143, 2, -0.5
*EQUATION
3
5681, 3, 1.0, 3140, 3, -0.5, 3143, 3, -0.5
*EQUATION
3
5682, 1, 1.0, 3142, 1, -0.5, 3143, 1, -0.5
*EQUATION
3
5682, 2, 1.0, 3142, 2, -0.5, 3143, 2, -0.5
*EQUATION
3
5682, 3, 1.0, 3142, 3, -0.5, 3143, 3, -0.5
*EQUATION
5
5683, 1, 1.0, 3139, 1, -0.25, 3146, 1, -0.25, 3148, 1, -0.25, 3142, 1, -0.25
*EQUATION
5
5683, 2, 1.0, 3139, 2, -0.25, 3146, 2, -0.25, 3148, 2, -0.25, 3142, 2, -0.25
*EQUATION
5
5683, 3, 1.0, 3139, 3, -0.25, 3146, 3, -0.25, 3148, 3, -0.25, 3142, 3, -0.25
*EQUATION
3
5686, 1, 1.0, 3142, 1, -0.5, 3148, 1, -0.5
*EQUATION
3
5686, 2, 1.0, 3142, 2, -0.5, 3148, 2, -0.5
*EQUATION
3
5686, 3, 1.0, 3142, 3, -0.5, 3148, 3, -0.5
*EQUATION
5
5687, 1, 1.0, 3142, 1, -0.25, 3148, 1, -0.25, 224, 1, -0.25, 3143, 1, -0.25
*EQUATION
5
5687, 2, 1.0, 3142, 2, -0.25, 3148, 2, -0.25, 224, 2, -0.25, 3143, 2, -0.25
*EQUATION
5
5687, 3, 1.0, 3142, 3, -0.25, 3148, 3, -0.25, 224, 3, -0.25, 3143, 3, -0.25
*EQUATION
3
5688, 1, 1.0, 224, 1, -0.5, 3143, 1, -0.5
*EQUATION
3
5688, 2, 1.0, 224, 2, -0.5, 3143, 2, -0.5
*EQUATION
3
5688, 3, 1.0, 224, 3, -0.5, 3143, 3, -0.5
*EQUATION
3
5689, 1, 1.0, 3146, 1, -0.5, 3148, 1, -0.5
*EQUATION
3
5689, 2, 1.0, 3146, 2, -0.5, 3148, 2, -0.5
*EQUATION
3
5689, 3, 1.0, 3146, 3, -0.5, 3148, 3, -0.5
*EQUATION
5
5690, 1, 1.0, 3146, 1, -0.25, 3148, 1, -0.25, 224, 1, -0.25, 3147, 1, -0.25
*EQUATION
5
5690, 2, 1.0, 3146, 2, -0.25, 3148, 2, -0.25, 224, 2, -0.25, 3147, 2, -0.25
*EQUATION
5
5690, 3, 1.0, 3146, 3, -0.25, 3148, 3, -0.25, 224, 3, -0.25, 3147, 3, -0.25
*EQUATION
3
5691, 1, 1.0, 224, 1, -0.5, 3147, 1, -0.5
*EQUATION
3
5691, 2, 1.0, 224, 2, -0.5, 3147, 2, -0.5
*EQUATION
3
5691, 3, 1.0, 224, 3, -0.5, 3147, 3, -0.5
*EQUATION
3
5692, 1, 1.0, 224, 1, -0.5, 3148, 1, -0.5
*EQUATION
3
5692, 2, 1.0, 224, 2, -0.5, 3148, 2, -0.5
*EQUATION
3
5692, 3, 1.0, 224, 3, -0.5, 3148, 3, -0.5
*EQUATION
3
5693, 1, 1.0, 3150, 1, -0.5, 3151, 1, -0.5
*EQUATION
3
5693, 2, 1.0, 3150, 2, -0.5, 3151, 2, -0.5
*EQUATION
3
5693, 3, 1.0, 3150, 3, -0.5, 3151, 3, -0.5
*EQUATION
3
5694, 1, 1.0, 3150, 1, -0.5, 3153, 1, -0.5
*EQUATION
3
5694, 2, 1.0, 3150, 2, -0.5, 3153, 2, -0.5
*EQUATION
3
5694, 3, 1.0, 3150, 3, -0.5, 3153, 3, -0.5
*EQUATION
5
5695, 1, 1.0, 3150, 1, -0.25, 3153, 1, -0.25, 3154, 1, -0.25, 3151, 1, -0.25
*EQUATION
5
5695, 2, 1.0, 3150, 2, -0.25, 3153, 2, -0.25, 3154, 2, -0.25, 3151, 2, -0.25
*EQUATION
5
5695, 3, 1.0, 3150, 3, -0.25, 3153, 3, -0.25, 3154, 3, -0.25, 3151, 3, -0.25
*EQUATION
3
5696, 1, 1.0, 3151, 1, -0.5, 3154, 1, -0.5
*EQUATION
3
5696, 2, 1.0, 3151, 2, -0.5, 3154, 2, -0.5
*EQUATION
3
5696, 3, 1.0, 3151, 3, -0.5, 3154, 3, -0.5
*EQUATION
3
5697, 1, 1.0, 3153, 1, -0.5, 3154, 1, -0.5
*EQUATION
3
5697, 2, 1.0, 3153, 2, -0.5, 3154, 2, -0.5
*EQUATION
3
5697, 3, 1.0, 3153, 3, -0.5, 3154, 3, -0.5
*EQUATION
3
5698, 1, 1.0, 3150, 1, -0.5, 3158, 1, -0.5
*EQUATION
3
5698, 2, 1.0, 3150, 2, -0.5, 3158, 2, -0.5
*EQUATION
3
5698, 3, 1.0, 3150, 3, -0.5, 3158, 3, -0.5
*EQUATION
5
5699, 1, 1.0, 3150, 1, -0.25, 3158, 1, -0.25, 228, 1, -0.25, 3151, 1, -0.25
*EQUATION
5
5699, 2, 1.0, 3150, 2, -0.25, 3158, 2, -0.25, 228, 2, -0.25, 3151, 2, -0.25
*EQUATION
5
5699, 3, 1.0, 3150, 3, -0.25, 3158, 3, -0.25, 228, 3, -0.25, 3151, 3, -0.25
*EQUATION
3
5700, 1, 1.0, 228, 1, -0.5, 3151, 1, -0.5
*EQUATION
3
5700, 2, 1.0, 228, 2, -0.5, 3151, 2, -0.5
*EQUATION
3
5700, 3, 1.0, 228, 3, -0.5, 3151, 3, -0.5
*EQUATION
5
5701, 1, 1.0, 3150, 1, -0.25, 3158, 1, -0.25, 3160, 1, -0.25, 3153, 1, -0.25
*EQUATION
5
5701, 2, 1.0, 3150, 2, -0.25, 3158, 2, -0.25, 3160, 2, -0.25, 3153, 2, -0.25
*EQUATION
5
5701, 3, 1.0, 3150, 3, -0.25, 3158, 3, -0.25, 3160, 3, -0.25, 3153, 3, -0.25
*EQUATION
3
5704, 1, 1.0, 3153, 1, -0.5, 3160, 1, -0.5
*EQUATION
3
5704, 2, 1.0, 3153, 2, -0.5, 3160, 2, -0.5
*EQUATION
3
5704, 3, 1.0, 3153, 3, -0.5, 3160, 3, -0.5
*EQUATION
3
5707, 1, 1.0, 228, 1, -0.5, 3158, 1, -0.5
*EQUATION
3
5707, 2, 1.0, 228, 2, -0.5, 3158, 2, -0.5
*EQUATION
3
5707, 3, 1.0, 228, 3, -0.5, 3158, 3, -0.5
*EQUATION
3
5708, 1, 1.0, 3158, 1, -0.5, 3160, 1, -0.5
*EQUATION
3
5708, 2, 1.0, 3158, 2, -0.5, 3160, 2, -0.5
*EQUATION
3
5708, 3, 1.0, 3158, 3, -0.5, 3160, 3, -0.5
*EQUATION
5
5709, 1, 1.0, 3158, 1, -0.25, 3160, 1, -0.25, 3161, 1, -0.25, 228, 1, -0.25
*EQUATION
5
5709, 2, 1.0, 3158, 2, -0.25, 3160, 2, -0.25, 3161, 2, -0.25, 228, 2, -0.25
*EQUATION
5
5709, 3, 1.0, 3158, 3, -0.25, 3160, 3, -0.25, 3161, 3, -0.25, 228, 3, -0.25
*EQUATION
3
5710, 1, 1.0, 228, 1, -0.5, 3161, 1, -0.5
*EQUATION
3
5710, 2, 1.0, 228, 2, -0.5, 3161, 2, -0.5
*EQUATION
3
5710, 3, 1.0, 228, 3, -0.5, 3161, 3, -0.5
*EQUATION
3
5711, 1, 1.0, 3160, 1, -0.5, 3161, 1, -0.5
*EQUATION
3
5711, 2, 1.0, 3160, 2, -0.5, 3161, 2, -0.5
*EQUATION
3
5711, 3, 1.0, 3160, 3, -0.5, 3161, 3, -0.5
*EQUATION
3
5712, 1, 1.0, 3153, 1, -0.5, 3156, 1, -0.5
*EQUATION
3
5712, 2, 1.0, 3153, 2, -0.5, 3156, 2, -0.5
*EQUATION
3
5712, 3, 1.0, 3153, 3, -0.5, 3156, 3, -0.5
*EQUATION
5
5713, 1, 1.0, 3153, 1, -0.25, 3156, 1, -0.25, 3157, 1, -0.25, 3154, 1, -0.25
*EQUATION
5
5713, 2, 1.0, 3153, 2, -0.25, 3156, 2, -0.25, 3157, 2, -0.25, 3154, 2, -0.25
*EQUATION
5
5713, 3, 1.0, 3153, 3, -0.25, 3156, 3, -0.25, 3157, 3, -0.25, 3154, 3, -0.25
*EQUATION
3
5714, 1, 1.0, 3154, 1, -0.5, 3157, 1, -0.5
*EQUATION
3
5714, 2, 1.0, 3154, 2, -0.5, 3157, 2, -0.5
*EQUATION
3
5714, 3, 1.0, 3154, 3, -0.5, 3157, 3, -0.5
*EQUATION
3
5715, 1, 1.0, 3156, 1, -0.5, 3157, 1, -0.5
*EQUATION
3
5715, 2, 1.0, 3156, 2, -0.5, 3157, 2, -0.5
*EQUATION
3
5715, 3, 1.0, 3156, 3, -0.5, 3157, 3, -0.5
*EQUATION
5
5716, 1, 1.0, 3153, 1, -0.25, 3160, 1, -0.25, 3162, 1, -0.25, 3156, 1, -0.25
*EQUATION
5
5716, 2, 1.0, 3153, 2, -0.25, 3160, 2, -0.25, 3162, 2, -0.25, 3156, 2, -0.25
*EQUATION
5
5716, 3, 1.0, 3153, 3, -0.25, 3160, 3, -0.25, 3162, 3, -0.25, 3156, 3, -0.25
*EQUATION
3
5719, 1, 1.0, 3156, 1, -0.5, 3162, 1, -0.5
*EQUATION
3
5719, 2, 1.0, 3156, 2, -0.5, 3162, 2, -0.5
*EQUATION
3
5719, 3, 1.0, 3156, 3, -0.5, 3162, 3, -0.5
*EQUATION
3
5722, 1, 1.0, 3160, 1, -0.5, 3162, 1, -0.5
*EQUATION
3
5722, 2, 1.0, 3160, 2, -0.5, 3162, 2, -0.5
*EQUATION
3
5722, 3, 1.0, 3160, 3, -0.5, 3162, 3, -0.5
*EQUATION
5
5723, 1, 1.0, 3160, 1, -0.25, 3162, 1, -0.25, 231, 1, -0.25, 3161, 1, -0.25
*EQUATION
5
5723, 2, 1.0, 3160, 2, -0.25, 3162, 2, -0.25, 231, 2, -0.25, 3161, 2, -0.25
*EQUATION
5
5723, 3, 1.0, 3160, 3, -0.25, 3162, 3, -0.25, 231, 3, -0.25, 3161, 3, -0.25
*EQUATION
3
5724, 1, 1.0, 231, 1, -0.5, 3161, 1, -0.5
*EQUATION
3
5724, 2, 1.0, 231, 2, -0.5, 3161, 2, -0.5
*EQUATION
3
5724, 3, 1.0, 231, 3, -0.5, 3161, 3, -0.5
*EQUATION
3
5725, 1, 1.0, 231, 1, -0.5, 3162, 1, -0.5
*EQUATION
3
5725, 2, 1.0, 231, 2, -0.5, 3162, 2, -0.5
*EQUATION
3
5725, 3, 1.0, 231, 3, -0.5, 3162, 3, -0.5
*EQUATION
3
5726, 1, 1.0, 181, 1, -0.5, 3163, 1, -0.5
*EQUATION
3
5726, 2, 1.0, 181, 2, -0.5, 3163, 2, -0.5
*EQUATION
3
5726, 3, 1.0, 181, 3, -0.5, 3163, 3, -0.5
*EQUATION
3
5727, 1, 1.0, 181, 1, -0.5, 3164, 1, -0.5
*EQUATION
3
5727, 2, 1.0, 181, 2, -0.5, 3164, 2, -0.5
*EQUATION
3
5727, 3, 1.0, 181, 3, -0.5, 3164, 3, -0.5
*EQUATION
5
5728, 1, 1.0, 181, 1, -0.25, 3164, 1, -0.25, 3165, 1, -0.25, 3163, 1, -0.25
*EQUATION
5
5728, 2, 1.0, 181, 2, -0.25, 3164, 2, -0.25, 3165, 2, -0.25, 3163, 2, -0.25
*EQUATION
5
5728, 3, 1.0, 181, 3, -0.25, 3164, 3, -0.25, 3165, 3, -0.25, 3163, 3, -0.25
*EQUATION
3
5729, 1, 1.0, 3163, 1, -0.5, 3165, 1, -0.5
*EQUATION
3
5729, 2, 1.0, 3163, 2, -0.5, 3165, 2, -0.5
*EQUATION
3
5729, 3, 1.0, 3163, 3, -0.5, 3165, 3, -0.5
*EQUATION
3
5730, 1, 1.0, 3164, 1, -0.5, 3165, 1, -0.5
*EQUATION
3
5730, 2, 1.0, 3164, 2, -0.5, 3165, 2, -0.5
*EQUATION
3
5730, 3, 1.0, 3164, 3, -0.5, 3165, 3, -0.5
*EQUATION
3
5731, 1, 1.0, 181, 1, -0.5, 3167, 1, -0.5
*EQUATION
3
5731, 2, 1.0, 181, 2, -0.5, 3167, 2, -0.5
*EQUATION
3
5731, 3, 1.0, 181, 3, -0.5, 3167, 3, -0.5
*EQUATION
5
5732, 1, 1.0, 181, 1, -0.25, 3167, 1, -0.25, 3168, 1, -0.25, 3163, 1, -0.25
*EQUATION
5
5732, 2, 1.0, 181, 2, -0.25, 3167, 2, -0.25, 3168, 2, -0.25, 3163, 2, -0.25
*EQUATION
5
5732, 3, 1.0, 181, 3, -0.25, 3167, 3, -0.25, 3168, 3, -0.25, 3163, 3, -0.25
*EQUATION
3
5733, 1, 1.0, 3163, 1, -0.5, 3168, 1, -0.5
*EQUATION
3
5733, 2, 1.0, 3163, 2, -0.5, 3168, 2, -0.5
*EQUATION
3
5733, 3, 1.0, 3163, 3, -0.5, 3168, 3, -0.5
*EQUATION
5
5736, 1, 1.0, 3163, 1, -0.25, 3168, 1, -0.25, 3170, 1, -0.25, 3165, 1, -0.25
*EQUATION
5
5736, 2, 1.0, 3163, 2, -0.25, 3168, 2, -0.25, 3170, 2, -0.25, 3165, 2, -0.25
*EQUATION
5
5736, 3, 1.0, 3163, 3, -0.25, 3168, 3, -0.25, 3170, 3, -0.25, 3165, 3, -0.25
*EQUATION
3
5739, 1, 1.0, 3165, 1, -0.5, 3170, 1, -0.5
*EQUATION
3
5739, 2, 1.0, 3165, 2, -0.5, 3170, 2, -0.5
*EQUATION
3
5739, 3, 1.0, 3165, 3, -0.5, 3170, 3, -0.5
*EQUATION
3
5740, 1, 1.0, 3167, 1, -0.5, 3168, 1, -0.5
*EQUATION
3
5740, 2, 1.0, 3167, 2, -0.5, 3168, 2, -0.5
*EQUATION
3
5740, 3, 1.0, 3167, 3, -0.5, 3168, 3, -0.5
*EQUATION
3
5741, 1, 1.0, 3167, 1, -0.5, 3169, 1, -0.5
*EQUATION
3
5741, 2, 1.0, 3167, 2, -0.5, 3169, 2, -0.5
*EQUATION
3
5741, 3, 1.0, 3167, 3, -0.5, 3169, 3, -0.5
*EQUATION
5
5742, 1, 1.0, 3167, 1, -0.25, 3169, 1, -0.25, 3170, 1, -0.25, 3168, 1, -0.25
*EQUATION
5
5742, 2, 1.0, 3167, 2, -0.25, 3169, 2, -0.25, 3170, 2, -0.25, 3168, 2, -0.25
*EQUATION
5
5742, 3, 1.0, 3167, 3, -0.25, 3169, 3, -0.25, 3170, 3, -0.25, 3168, 3, -0.25
*EQUATION
3
5743, 1, 1.0, 3168, 1, -0.5, 3170, 1, -0.5
*EQUATION
3
5743, 2, 1.0, 3168, 2, -0.5, 3170, 2, -0.5
*EQUATION
3
5743, 3, 1.0, 3168, 3, -0.5, 3170, 3, -0.5
*EQUATION
3
5744, 1, 1.0, 3169, 1, -0.5, 3170, 1, -0.5
*EQUATION
3
5744, 2, 1.0, 3169, 2, -0.5, 3170, 2, -0.5
*EQUATION
3
5744, 3, 1.0, 3169, 3, -0.5, 3170, 3, -0.5
*EQUATION
3
5745, 1, 1.0, 184, 1, -0.5, 3164, 1, -0.5
*EQUATION
3
5745, 2, 1.0, 184, 2, -0.5, 3164, 2, -0.5
*EQUATION
3
5745, 3, 1.0, 184, 3, -0.5, 3164, 3, -0.5
*EQUATION
5
5746, 1, 1.0, 3164, 1, -0.25, 184, 1, -0.25, 3166, 1, -0.25, 3165, 1, -0.25
*EQUATION
5
5746, 2, 1.0, 3164, 2, -0.25, 184, 2, -0.25, 3166, 2, -0.25, 3165, 2, -0.25
*EQUATION
5
5746, 3, 1.0, 3164, 3, -0.25, 184, 3, -0.25, 3166, 3, -0.25, 3165, 3, -0.25
*EQUATION
3
5747, 1, 1.0, 3165, 1, -0.5, 3166, 1, -0.5
*EQUATION
3
5747, 2, 1.0, 3165, 2, -0.5, 3166, 2, -0.5
*EQUATION
3
5747, 3, 1.0, 3165, 3, -0.5, 3166, 3, -0.5
*EQUATION
3
5748, 1, 1.0, 184, 1, -0.5, 3166, 1, -0.5
*EQUATION
3
5748, 2, 1.0, 184, 2, -0.5, 3166, 2, -0.5
*EQUATION
3
5748, 3, 1.0, 184, 3, -0.5, 3166, 3, -0.5
*EQUATION
3
5754, 1, 1.0, 3166, 1, -0.5, 3173, 1, -0.5
*EQUATION
3
5754, 2, 1.0, 3166, 2, -0.5, 3173, 2, -0.5
*EQUATION
3
5754, 3, 1.0, 3166, 3, -0.5, 3173, 3, -0.5
*EQUATION
3
5759, 1, 1.0, 2993, 1, -0.5, 3165, 1, -0.5
*EQUATION
3
5759, 2, 1.0, 2993, 2, -0.5, 3165, 2, -0.5
*EQUATION
3
5759, 3, 1.0, 2993, 3, -0.5, 3165, 3, -0.5
*EQUATION
5
5760, 1, 1.0, 3165, 1, -0.25, 3166, 1, -0.25, 185, 1, -0.25, 2993, 1, -0.25
*EQUATION
5
5760, 2, 1.0, 3165, 2, -0.25, 3166, 2, -0.25, 185, 2, -0.25, 2993, 2, -0.25
*EQUATION
5
5760, 3, 1.0, 3165, 3, -0.25, 3166, 3, -0.25, 185, 3, -0.25, 2993, 3, -0.25
*EQUATION
3
5761, 1, 1.0, 185, 1, -0.5, 3166, 1, -0.5
*EQUATION
3
5761, 2, 1.0, 185, 2, -0.5, 3166, 2, -0.5
*EQUATION
3
5761, 3, 1.0, 185, 3, -0.5, 3166, 3, -0.5
*EQUATION
5
5762, 1, 1.0, 3165, 1, -0.25, 3170, 1, -0.25, 3171, 1, -0.25, 2993, 1, -0.25
*EQUATION
5
5762, 2, 1.0, 3165, 2, -0.25, 3170, 2, -0.25, 3171, 2, -0.25, 2993, 2, -0.25
*EQUATION
5
5762, 3, 1.0, 3165, 3, -0.25, 3170, 3, -0.25, 3171, 3, -0.25, 2993, 3, -0.25
*EQUATION
3
5763, 1, 1.0, 2993, 1, -0.5, 3171, 1, -0.5
*EQUATION
3
5763, 2, 1.0, 2993, 2, -0.5, 3171, 2, -0.5
*EQUATION
3
5763, 3, 1.0, 2993, 3, -0.5, 3171, 3, -0.5
*EQUATION
5
5765, 1, 1.0, 2993, 1, -0.25, 3171, 1, -0.25, 3174, 1, -0.25, 185, 1, -0.25
*EQUATION
5
5765, 2, 1.0, 2993, 2, -0.25, 3171, 2, -0.25, 3174, 2, -0.25, 185, 2, -0.25
*EQUATION
5
5765, 3, 1.0, 2993, 3, -0.25, 3171, 3, -0.25, 3174, 3, -0.25, 185, 3, -0.25
*EQUATION
5
5766, 1, 1.0, 3166, 1, -0.25, 3173, 1, -0.25, 3174, 1, -0.25, 185, 1, -0.25
*EQUATION
5
5766, 2, 1.0, 3166, 2, -0.25, 3173, 2, -0.25, 3174, 2, -0.25, 185, 2, -0.25
*EQUATION
5
5766, 3, 1.0, 3166, 3, -0.25, 3173, 3, -0.25, 3174, 3, -0.25, 185, 3, -0.25
*EQUATION
3
5767, 1, 1.0, 185, 1, -0.5, 3174, 1, -0.5
*EQUATION
3
5767, 2, 1.0, 185, 2, -0.5, 3174, 2, -0.5
*EQUATION
3
5767, 3, 1.0, 185, 3, -0.5, 3174, 3, -0.5
*EQUATION
3
5768, 1, 1.0, 3170, 1, -0.5, 3171, 1, -0.5
*EQUATION
3
5768, 2, 1.0, 3170, 2, -0.5, 3171, 2, -0.5
*EQUATION
3
5768, 3, 1.0, 3170, 3, -0.5, 3171, 3, -0.5
*EQUATION
3
5770, 1, 1.0, 3171, 1, -0.5, 3174, 1, -0.5
*EQUATION
3
5770, 2, 1.0, 3171, 2, -0.5, 3174, 2, -0.5
*EQUATION
3
5770, 3, 1.0, 3171, 3, -0.5, 3174, 3, -0.5
*EQUATION
3
5771, 1, 1.0, 3173, 1, -0.5, 3174, 1, -0.5
*EQUATION
3
5771, 2, 1.0, 3173, 2, -0.5, 3174, 2, -0.5
*EQUATION
3
5771, 3, 1.0, 3173, 3, -0.5, 3174, 3, -0.5
*EQUATION
3
5772, 1, 1.0, 3169, 1, -0.5, 3176, 1, -0.5
*EQUATION
3
5772, 2, 1.0, 3169, 2, -0.5, 3176, 2, -0.5
*EQUATION
3
5772, 3, 1.0, 3169, 3, -0.5, 3176, 3, -0.5
*EQUATION
5
5773, 1, 1.0, 3169, 1, -0.25, 3176, 1, -0.25, 3177, 1, -0.25, 3170, 1, -0.25
*EQUATION
5
5773, 2, 1.0, 3169, 2, -0.25, 3176, 2, -0.25, 3177, 2, -0.25, 3170, 2, -0.25
*EQUATION
5
5773, 3, 1.0, 3169, 3, -0.25, 3176, 3, -0.25, 3177, 3, -0.25, 3170, 3, -0.25
*EQUATION
3
5774, 1, 1.0, 3170, 1, -0.5, 3177, 1, -0.5
*EQUATION
3
5774, 2, 1.0, 3170, 2, -0.5, 3177, 2, -0.5
*EQUATION
3
5774, 3, 1.0, 3170, 3, -0.5, 3177, 3, -0.5
*EQUATION
3
5780, 1, 1.0, 3173, 1, -0.5, 3179, 1, -0.5
*EQUATION
3
5780, 2, 1.0, 3173, 2, -0.5, 3179, 2, -0.5
*EQUATION
3
5780, 3, 1.0, 3173, 3, -0.5, 3179, 3, -0.5
*EQUATION
3
5781, 1, 1.0, 3176, 1, -0.5, 3177, 1, -0.5
*EQUATION
3
5781, 2, 1.0, 3176, 2, -0.5, 3177, 2, -0.5
*EQUATION
3
5781, 3, 1.0, 3176, 3, -0.5, 3177, 3, -0.5
*EQUATION
3
5785, 1, 1.0, 232, 1, -0.5, 3179, 1, -0.5
*EQUATION
3
5785, 2, 1.0, 232, 2, -0.5, 3179, 2, -0.5
*EQUATION
3
5785, 3, 1.0, 232, 3, -0.5, 3179, 3, -0.5
*EQUATION
5
5786, 1, 1.0, 3170, 1, -0.25, 3177, 1, -0.25, 3178, 1, -0.25, 3171, 1, -0.25
*EQUATION
5
5786, 2, 1.0, 3170, 2, -0.25, 3177, 2, -0.25, 3178, 2, -0.25, 3171, 2, -0.25
*EQUATION
5
5786, 3, 1.0, 3170, 3, -0.25, 3177, 3, -0.25, 3178, 3, -0.25, 3171, 3, -0.25
*EQUATION
3
5787, 1, 1.0, 3171, 1, -0.5, 3178, 1, -0.5
*EQUATION
3
5787, 2, 1.0, 3171, 2, -0.5, 3178, 2, -0.5
*EQUATION
3
5787, 3, 1.0, 3171, 3, -0.5, 3178, 3, -0.5
*EQUATION
5
5789, 1, 1.0, 3171, 1, -0.25, 3178, 1, -0.25, 233, 1, -0.25, 3174, 1, -0.25
*EQUATION
5
5789, 2, 1.0, 3171, 2, -0.25, 3178, 2, -0.25, 233, 2, -0.25, 3174, 2, -0.25
*EQUATION
5
5789, 3, 1.0, 3171, 3, -0.25, 3178, 3, -0.25, 233, 3, -0.25, 3174, 3, -0.25
*EQUATION
5
5790, 1, 1.0, 3173, 1, -0.25, 3179, 1, -0.25, 233, 1, -0.25, 3174, 1, -0.25
*EQUATION
5
5790, 2, 1.0, 3173, 2, -0.25, 3179, 2, -0.25, 233, 2, -0.25, 3174, 2, -0.25
*EQUATION
5
5790, 3, 1.0, 3173, 3, -0.25, 3179, 3, -0.25, 233, 3, -0.25, 3174, 3, -0.25
*EQUATION
3
5791, 1, 1.0, 233, 1, -0.5, 3174, 1, -0.5
*EQUATION
3
5791, 2, 1.0, 233, 2, -0.5, 3174, 2, -0.5
*EQUATION
3
5791, 3, 1.0, 233, 3, -0.5, 3174, 3, -0.5
*EQUATION
3
5792, 1, 1.0, 3177, 1, -0.5, 3178, 1, -0.5
*EQUATION
3
5792, 2, 1.0, 3177, 2, -0.5, 3178, 2, -0.5
*EQUATION
3
5792, 3, 1.0, 3177, 3, -0.5, 3178, 3, -0.5
*EQUATION
3
5794, 1, 1.0, 233, 1, -0.5, 3178, 1, -0.5
*EQUATION
3
5794, 2, 1.0, 233, 2, -0.5, 3178, 2, -0.5
*EQUATION
3
5794, 3, 1.0, 233, 3, -0.5, 3178, 3, -0.5
*EQUATION
3
5795, 1, 1.0, 233, 1, -0.5, 3179, 1, -0.5
*EQUATION
3
5795, 2, 1.0, 233, 2, -0.5, 3179, 2, -0.5
*EQUATION
3
5795, 3, 1.0, 233, 3, -0.5, 3179, 3, -0.5
*EQUATION
3
5796, 1, 1.0, 3156, 1, -0.5, 4351, 1, -0.5
*EQUATION
3
5796, 2, 1.0, 3156, 2, -0.5, 4351, 2, -0.5
*EQUATION
3
5796, 3, 1.0, 3156, 3, -0.5, 4351, 3, -0.5
*EQUATION
5
5797, 1, 1.0, 3156, 1, -0.25, 4351, 1, -0.25, 4352, 1, -0.25, 3157, 1, -0.25
*EQUATION
5
5797, 2, 1.0, 3156, 2, -0.25, 4351, 2, -0.25, 4352, 2, -0.25, 3157, 2, -0.25
*EQUATION
5
5797, 3, 1.0, 3156, 3, -0.25, 4351, 3, -0.25, 4352, 3, -0.25, 3157, 3, -0.25
*EQUATION
3
5798, 1, 1.0, 3157, 1, -0.5, 4352, 1, -0.5
*EQUATION
3
5798, 2, 1.0, 3157, 2, -0.5, 4352, 2, -0.5
*EQUATION
3
5798, 3, 1.0, 3157, 3, -0.5, 4352, 3, -0.5
*EQUATION
3
5799, 1, 1.0, 4351, 1, -0.5, 4352, 1, -0.5
*EQUATION
3
5799, 2, 1.0, 4351, 2, -0.5, 4352, 2, -0.5
*EQUATION
3
5799, 3, 1.0, 4351, 3, -0.5, 4352, 3, -0.5
*EQUATION
5
5800, 1, 1.0, 3156, 1, -0.25, 3162, 1, -0.25, 4355, 1, -0.25, 4351, 1, -0.25
*EQUATION
5
5800, 2, 1.0, 3156, 2, -0.25, 3162, 2, -0.25, 4355, 2, -0.25, 4351, 2, -0.25
*EQUATION
5
5800, 3, 1.0, 3156, 3, -0.25, 3162, 3, -0.25, 4355, 3, -0.25, 4351, 3, -0.25
*EQUATION
3
5803, 1, 1.0, 4351, 1, -0.5, 4355, 1, -0.5
*EQUATION
3
5803, 2, 1.0, 4351, 2, -0.5, 4355, 2, -0.5
*EQUATION
3
5803, 3, 1.0, 4351, 3, -0.5, 4355, 3, -0.5
*EQUATION
5
5804, 1, 1.0, 4351, 1, -0.25, 4355, 1, -0.25, 4356, 1, -0.25, 4352, 1, -0.25
*EQUATION
5
5804, 2, 1.0, 4351, 2, -0.25, 4355, 2, -0.25, 4356, 2, -0.25, 4352, 2, -0.25
*EQUATION
5
5804, 3, 1.0, 4351, 3, -0.25, 4355, 3, -0.25, 4356, 3, -0.25, 4352, 3, -0.25
*EQUATION
3
5805, 1, 1.0, 4352, 1, -0.5, 4356, 1, -0.5
*EQUATION
3
5805, 2, 1.0, 4352, 2, -0.5, 4356, 2, -0.5
*EQUATION
3
5805, 3, 1.0, 4352, 3, -0.5, 4356, 3, -0.5
*EQUATION
3
5806, 1, 1.0, 3162, 1, -0.5, 4355, 1, -0.5
*EQUATION
3
5806, 2, 1.0, 3162, 2, -0.5, 4355, 2, -0.5
*EQUATION
3
5806, 3, 1.0, 3162, 3, -0.5, 4355, 3, -0.5
*EQUATION
5
5807, 1, 1.0, 3162, 1, -0.25, 4355, 1, -0.25, 4356, 1, -0.25, 231, 1, -0.25
*EQUATION
5
5807, 2, 1.0, 3162, 2, -0.25, 4355, 2, -0.25, 4356, 2, -0.25, 231, 2, -0.25
*EQUATION
5
5807, 3, 1.0, 3162, 3, -0.25, 4355, 3, -0.25, 4356, 3, -0.25, 231, 3, -0.25
*EQUATION
3
5808, 1, 1.0, 231, 1, -0.5, 4356, 1, -0.5
*EQUATION
3
5808, 2, 1.0, 231, 2, -0.5, 4356, 2, -0.5
*EQUATION
3
5808, 3, 1.0, 231, 3, -0.5, 4356, 3, -0.5
*EQUATION
3
5809, 1, 1.0, 4355, 1, -0.5, 4356, 1, -0.5
*EQUATION
3
5809, 2, 1.0, 4355, 2, -0.5, 4356, 2, -0.5
*EQUATION
3
5809, 3, 1.0, 4355, 3, -0.5, 4356, 3, -0.5
*EQUATION
3
5810, 1, 1.0, 184, 1, -0.5, 4358, 1, -0.5
*EQUATION
3
5810, 2, 1.0, 184, 2, -0.5, 4358, 2, -0.5
*EQUATION
3
5810, 3, 1.0, 184, 3, -0.5, 4358, 3, -0.5
*EQUATION
5
5811, 1, 1.0, 184, 1, -0.25, 4358, 1, -0.25, 4359, 1, -0.25, 3166, 1, -0.25
*EQUATION
5
5811, 2, 1.0, 184, 2, -0.25, 4358, 2, -0.25, 4359, 2, -0.25, 3166, 2, -0.25
*EQUATION
5
5811, 3, 1.0, 184, 3, -0.25, 4358, 3, -0.25, 4359, 3, -0.25, 3166, 3, -0.25
*EQUATION
3
5812, 1, 1.0, 3166, 1, -0.5, 4359, 1, -0.5
*EQUATION
3
5812, 2, 1.0, 3166, 2, -0.5, 4359, 2, -0.5
*EQUATION
3
5812, 3, 1.0, 3166, 3, -0.5, 4359, 3, -0.5
*EQUATION
3
5813, 1, 1.0, 4358, 1, -0.5, 4359, 1, -0.5
*EQUATION
3
5813, 2, 1.0, 4358, 2, -0.5, 4359, 2, -0.5
*EQUATION
3
5813, 3, 1.0, 4358, 3, -0.5, 4359, 3, -0.5
*EQUATION
5
5816, 1, 1.0, 3166, 1, -0.25, 3173, 1, -0.25, 4362, 1, -0.25, 4359, 1, -0.25
*EQUATION
5
5816, 2, 1.0, 3166, 2, -0.25, 3173, 2, -0.25, 4362, 2, -0.25, 4359, 2, -0.25
*EQUATION
5
5816, 3, 1.0, 3166, 3, -0.25, 3173, 3, -0.25, 4362, 3, -0.25, 4359, 3, -0.25
*EQUATION
3
5817, 1, 1.0, 4358, 1, -0.5, 4361, 1, -0.5
*EQUATION
3
5817, 2, 1.0, 4358, 2, -0.5, 4361, 2, -0.5
*EQUATION
3
5817, 3, 1.0, 4358, 3, -0.5, 4361, 3, -0.5
*EQUATION
5
5818, 1, 1.0, 4358, 1, -0.25, 4361, 1, -0.25, 4362, 1, -0.25, 4359, 1, -0.25
*EQUATION
5
5818, 2, 1.0, 4358, 2, -0.25, 4361, 2, -0.25, 4362, 2, -0.25, 4359, 2, -0.25
*EQUATION
5
5818, 3, 1.0, 4358, 3, -0.25, 4361, 3, -0.25, 4362, 3, -0.25, 4359, 3, -0.25
*EQUATION
3
5819, 1, 1.0, 4359, 1, -0.5, 4362, 1, -0.5
*EQUATION
3
5819, 2, 1.0, 4359, 2, -0.5, 4362, 2, -0.5
*EQUATION
3
5819, 3, 1.0, 4359, 3, -0.5, 4362, 3, -0.5
*EQUATION
3
5822, 1, 1.0, 3173, 1, -0.5, 4362, 1, -0.5
*EQUATION
3
5822, 2, 1.0, 3173, 2, -0.5, 4362, 2, -0.5
*EQUATION
3
5822, 3, 1.0, 3173, 3, -0.5, 4362, 3, -0.5
*EQUATION
3
5823, 1, 1.0, 4361, 1, -0.5, 4362, 1, -0.5
*EQUATION
3
5823, 2, 1.0, 4361, 2, -0.5, 4362, 2, -0.5
*EQUATION
3
5823, 3, 1.0, 4361, 3, -0.5, 4362, 3, -0.5
*EQUATION
5
5826, 1, 1.0, 3173, 1, -0.25, 3179, 1, -0.25, 4368, 1, -0.25, 4362, 1, -0.25
*EQUATION
5
5826, 2, 1.0, 3173, 2, -0.25, 3179, 2, -0.25, 4368, 2, -0.25, 4362, 2, -0.25
*EQUATION
5
5826, 3, 1.0, 3173, 3, -0.25, 3179, 3, -0.25, 4368, 3, -0.25, 4362, 3, -0.25
*EQUATION
3
5827, 1, 1.0, 4361, 1, -0.5, 4367, 1, -0.5
*EQUATION
3
5827, 2, 1.0, 4361, 2, -0.5, 4367, 2, -0.5
*EQUATION
3
5827, 3, 1.0, 4361, 3, -0.5, 4367, 3, -0.5
*EQUATION
5
5828, 1, 1.0, 4361, 1, -0.25, 4367, 1, -0.25, 4368, 1, -0.25, 4362, 1, -0.25
*EQUATION
5
5828, 2, 1.0, 4361, 2, -0.25, 4367, 2, -0.25, 4368, 2, -0.25, 4362, 2, -0.25
*EQUATION
5
5828, 3, 1.0, 4361, 3, -0.25, 4367, 3, -0.25, 4368, 3, -0.25, 4362, 3, -0.25
*EQUATION
3
5829, 1, 1.0, 4362, 1, -0.5, 4368, 1, -0.5
*EQUATION
3
5829, 2, 1.0, 4362, 2, -0.5, 4368, 2, -0.5
*EQUATION
3
5829, 3, 1.0, 4362, 3, -0.5, 4368, 3, -0.5
*EQUATION
3
5830, 1, 1.0, 232, 1, -0.5, 4367, 1, -0.5
*EQUATION
3
5830, 2, 1.0, 232, 2, -0.5, 4367, 2, -0.5
*EQUATION
3
5830, 3, 1.0, 232, 3, -0.5, 4367, 3, -0.5
*EQUATION
5
5831, 1, 1.0, 232, 1, -0.25, 4367, 1, -0.25, 4368, 1, -0.25, 3179, 1, -0.25
*EQUATION
5
5831, 2, 1.0, 232, 2, -0.25, 4367, 2, -0.25, 4368, 2, -0.25, 3179, 2, -0.25
*EQUATION
5
5831, 3, 1.0, 232, 3, -0.25, 4367, 3, -0.25, 4368, 3, -0.25, 3179, 3, -0.25
*EQUATION
3
5832, 1, 1.0, 3179, 1, -0.5, 4368, 1, -0.5
*EQUATION
3
5832, 2, 1.0, 3179, 2, -0.5, 4368, 2, -0.5
*EQUATION
3
5832, 3, 1.0, 3179, 3, -0.5, 4368, 3, -0.5
*EQUATION
3
5833, 1, 1.0, 4367, 1, -0.5, 4368, 1, -0.5
*EQUATION
3
5833, 2, 1.0, 4367, 2, -0.5, 4368, 2, -0.5
*EQUATION
3
5833, 3, 1.0, 4367, 3, -0.5, 4368, 3, -0.5
*EQUATION
3
5841, 1, 1.0, 187, 1, -0.5, 190, 1, -0.5
*EQUATION
3
5841, 2, 1.0, 187, 2, -0.5, 190, 2, -0.5
*EQUATION
3
5841, 3, 1.0, 187, 3, -0.5, 190, 3, -0.5
*EQUATION
5
5842, 1, 1.0, 187, 1, -0.25, 190, 1, -0.25, 191, 1, -0.25, 188, 1, -0.25
*EQUATION
5
5842, 2, 1.0, 187, 2, -0.25, 190, 2, -0.25, 191, 2, -0.25, 188, 2, -0.25
*EQUATION
5
5842, 3, 1.0, 187, 3, -0.25, 190, 3, -0.25, 191, 3, -0.25, 188, 3, -0.25
*EQUATION
3
5843, 1, 1.0, 190, 1, -0.5, 191, 1, -0.5
*EQUATION
3
5843, 2, 1.0, 190, 2, -0.5, 191, 2, -0.5
*EQUATION
3
5843, 3, 1.0, 190, 3, -0.5, 191, 3, -0.5
*EQUATION
3
5861, 1, 1.0, 203, 1, -0.5, 3061, 1, -0.5
*EQUATION
3
5861, 2, 1.0, 203, 2, -0.5, 3061, 2, -0.5
*EQUATION
3
5861, 3, 1.0, 203, 3, -0.5, 3061, 3, -0.5
*EQUATION
5
5862, 1, 1.0, 3061, 1, -0.25, 3062, 1, -0.25, 3063, 1, -0.25, 203, 1, -0.25
*EQUATION
5
5862, 2, 1.0, 3061, 2, -0.25, 3062, 2, -0.25, 3063, 2, -0.25, 203, 2, -0.25
*EQUATION
5
5862, 3, 1.0, 3061, 3, -0.25, 3062, 3, -0.25, 3063, 3, -0.25, 203, 3, -0.25
*EQUATION
3
5863, 1, 1.0, 203, 1, -0.5, 3063, 1, -0.5
*EQUATION
3
5863, 2, 1.0, 203, 2, -0.5, 3063, 2, -0.5
*EQUATION
3
5863, 3, 1.0, 203, 3, -0.5, 3063, 3, -0.5
*EQUATION
3
5864, 1, 1.0, 3062, 1, -0.5, 3063, 1, -0.5
*EQUATION
3
5864, 2, 1.0, 3062, 2, -0.5, 3063, 2, -0.5
*EQUATION
3
5864, 3, 1.0, 3062, 3, -0.5, 3063, 3, -0.5
*EQUATION
3
5866, 1, 1.0, 203, 1, -0.5, 3239, 1, -0.5
*EQUATION
3
5866, 2, 1.0, 203, 2, -0.5, 3239, 2, -0.5
*EQUATION
3
5866, 3, 1.0, 203, 3, -0.5, 3239, 3, -0.5
*EQUATION
5
5868, 1, 1.0, 203, 1, -0.25, 3239, 1, -0.25, 3241, 1, -0.25, 3063, 1, -0.25
*EQUATION
5
5868, 2, 1.0, 203, 2, -0.25, 3239, 2, -0.25, 3241, 2, -0.25, 3063, 2, -0.25
*EQUATION
5
5868, 3, 1.0, 203, 3, -0.25, 3239, 3, -0.25, 3241, 3, -0.25, 3063, 3, -0.25
*EQUATION
3
5870, 1, 1.0, 3063, 1, -0.5, 3241, 1, -0.5
*EQUATION
3
5870, 2, 1.0, 3063, 2, -0.5, 3241, 2, -0.5
*EQUATION
3
5870, 3, 1.0, 3063, 3, -0.5, 3241, 3, -0.5
*EQUATION
3
5873, 1, 1.0, 3239, 1, -0.5, 3241, 1, -0.5
*EQUATION
3
5873, 2, 1.0, 3239, 2, -0.5, 3241, 2, -0.5
*EQUATION
3
5873, 3, 1.0, 3239, 3, -0.5, 3241, 3, -0.5
*EQUATION
5
5875, 1, 1.0, 3062, 1, -0.25, 3064, 1, -0.25, 204, 1, -0.25, 3063, 1, -0.25
*EQUATION
5
5875, 2, 1.0, 3062, 2, -0.25, 3064, 2, -0.25, 204, 2, -0.25, 3063, 2, -0.25
*EQUATION
5
5875, 3, 1.0, 3062, 3, -0.25, 3064, 3, -0.25, 204, 3, -0.25, 3063, 3, -0.25
*EQUATION
3
5876, 1, 1.0, 204, 1, -0.5, 3063, 1, -0.5
*EQUATION
3
5876, 2, 1.0, 204, 2, -0.5, 3063, 2, -0.5
*EQUATION
3
5876, 3, 1.0, 204, 3, -0.5, 3063, 3, -0.5
*EQUATION
3
5877, 1, 1.0, 204, 1, -0.5, 3064, 1, -0.5
*EQUATION
3
5877, 2, 1.0, 204, 2, -0.5, 3064, 2, -0.5
*EQUATION
3
5877, 3, 1.0, 204, 3, -0.5, 3064, 3, -0.5
*EQUATION
5
5879, 1, 1.0, 3063, 1, -0.25, 3241, 1, -0.25, 3243, 1, -0.25, 204, 1, -0.25
*EQUATION
5
5879, 2, 1.0, 3063, 2, -0.25, 3241, 2, -0.25, 3243, 2, -0.25, 204, 2, -0.25
*EQUATION
5
5879, 3, 1.0, 3063, 3, -0.25, 3241, 3, -0.25, 3243, 3, -0.25, 204, 3, -0.25
*EQUATION
3
5881, 1, 1.0, 204, 1, -0.5, 3243, 1, -0.5
*EQUATION
3
5881, 2, 1.0, 204, 2, -0.5, 3243, 2, -0.5
*EQUATION
3
5881, 3, 1.0, 204, 3, -0.5, 3243, 3, -0.5
*EQUATION
3
5883, 1, 1.0, 3241, 1, -0.5, 3243, 1, -0.5
*EQUATION
3
5883, 2, 1.0, 3241, 2, -0.5, 3243, 2, -0.5
*EQUATION
3
5883, 3, 1.0, 3241, 3, -0.5, 3243, 3, -0.5
*EQUATION
3
5886, 1, 1.0, 251, 1, -0.5, 3239, 1, -0.5
*EQUATION
3
5886, 2, 1.0, 251, 2, -0.5, 3239, 2, -0.5
*EQUATION
3
5886, 3, 1.0, 251, 3, -0.5, 3239, 3, -0.5
*EQUATION
5
5888, 1, 1.0, 3239, 1, -0.25, 251, 1, -0.25, 3246, 1, -0.25, 3241, 1, -0.25
*EQUATION
5
5888, 2, 1.0, 3239, 2, -0.25, 251, 2, -0.25, 3246, 2, -0.25, 3241, 2, -0.25
*EQUATION
5
5888, 3, 1.0, 3239, 3, -0.25, 251, 3, -0.25, 3246, 3, -0.25, 3241, 3, -0.25
*EQUATION
3
5890, 1, 1.0, 3241, 1, -0.5, 3246, 1, -0.5
*EQUATION
3
5890, 2, 1.0, 3241, 2, -0.5, 3246, 2, -0.5
*EQUATION
3
5890, 3, 1.0, 3241, 3, -0.5, 3246, 3, -0.5
*EQUATION
3
5893, 1, 1.0, 251, 1, -0.5, 3246, 1, -0.5
*EQUATION
3
5893, 2, 1.0, 251, 2, -0.5, 3246, 2, -0.5
*EQUATION
3
5893, 3, 1.0, 251, 3, -0.5, 3246, 3, -0.5
*EQUATION
5
5902, 1, 1.0, 3064, 1, -0.25, 3116, 1, -0.25, 3117, 1, -0.25, 204, 1, -0.25
*EQUATION
5
5902, 2, 1.0, 3064, 2, -0.25, 3116, 2, -0.25, 3117, 2, -0.25, 204, 2, -0.25
*EQUATION
5
5902, 3, 1.0, 3064, 3, -0.25, 3116, 3, -0.25, 3117, 3, -0.25, 204, 3, -0.25
*EQUATION
3
5903, 1, 1.0, 204, 1, -0.5, 3117, 1, -0.5
*EQUATION
3
5903, 2, 1.0, 204, 2, -0.5, 3117, 2, -0.5
*EQUATION
3
5903, 3, 1.0, 204, 3, -0.5, 3117, 3, -0.5
*EQUATION
3
5904, 1, 1.0, 3116, 1, -0.5, 3117, 1, -0.5
*EQUATION
3
5904, 2, 1.0, 3116, 2, -0.5, 3117, 2, -0.5
*EQUATION
3
5904, 3, 1.0, 3116, 3, -0.5, 3117, 3, -0.5
*EQUATION
5
5906, 1, 1.0, 204, 1, -0.25, 3243, 1, -0.25, 3296, 1, -0.25, 3117, 1, -0.25
*EQUATION
5
5906, 2, 1.0, 204, 2, -0.25, 3243, 2, -0.25, 3296, 2, -0.25, 3117, 2, -0.25
*EQUATION
5
5906, 3, 1.0, 204, 3, -0.25, 3243, 3, -0.25, 3296, 3, -0.25, 3117, 3, -0.25
*EQUATION
3
5908, 1, 1.0, 3117, 1, -0.5, 3296, 1, -0.5
*EQUATION
3
5908, 2, 1.0, 3117, 2, -0.5, 3296, 2, -0.5
*EQUATION
3
5908, 3, 1.0, 3117, 3, -0.5, 3296, 3, -0.5
*EQUATION
3
5910, 1, 1.0, 3243, 1, -0.5, 3296, 1, -0.5
*EQUATION
3
5910, 2, 1.0, 3243, 2, -0.5, 3296, 2, -0.5
*EQUATION
3
5910, 3, 1.0, 3243, 3, -0.5, 3296, 3, -0.5
*EQUATION
5
5912, 1, 1.0, 3116, 1, -0.25, 3118, 1, -0.25, 210, 1, -0.25, 3117, 1, -0.25
*EQUATION
5
5912, 2, 1.0, 3116, 2, -0.25, 3118, 2, -0.25, 210, 2, -0.25, 3117, 2, -0.25
*EQUATION
5
5912, 3, 1.0, 3116, 3, -0.25, 3118, 3, -0.25, 210, 3, -0.25, 3117, 3, -0.25
*EQUATION
3
5913, 1, 1.0, 210, 1, -0.5, 3117, 1, -0.5
*EQUATION
3
5913, 2, 1.0, 210, 2, -0.5, 3117, 2, -0.5
*EQUATION
3
5913, 3, 1.0, 210, 3, -0.5, 3117, 3, -0.5
*EQUATION
3
5914, 1, 1.0, 210, 1, -0.5, 3118, 1, -0.5
*EQUATION
3
5914, 2, 1.0, 210, 2, -0.5, 3118, 2, -0.5
*EQUATION
3
5914, 3, 1.0, 210, 3, -0.5, 3118, 3, -0.5
*EQUATION
5
5916, 1, 1.0, 3117, 1, -0.25, 3296, 1, -0.25, 3298, 1, -0.25, 210, 1, -0.25
*EQUATION
5
5916, 2, 1.0, 3117, 2, -0.25, 3296, 2, -0.25, 3298, 2, -0.25, 210, 2, -0.25
*EQUATION
5
5916, 3, 1.0, 3117, 3, -0.25, 3296, 3, -0.25, 3298, 3, -0.25, 210, 3, -0.25
*EQUATION
3
5918, 1, 1.0, 210, 1, -0.5, 3298, 1, -0.5
*EQUATION
3
5918, 2, 1.0, 210, 2, -0.5, 3298, 2, -0.5
*EQUATION
3
5918, 3, 1.0, 210, 3, -0.5, 3298, 3, -0.5
*EQUATION
3
5920, 1, 1.0, 3296, 1, -0.5, 3298, 1, -0.5
*EQUATION
3
5920, 2, 1.0, 3296, 2, -0.5, 3298, 2, -0.5
*EQUATION
3
5920, 3, 1.0, 3296, 3, -0.5, 3298, 3, -0.5
*EQUATION
3
5925, 1, 1.0, 3296, 1, -0.5, 3300, 1, -0.5
*EQUATION
3
5925, 2, 1.0, 3296, 2, -0.5, 3300, 2, -0.5
*EQUATION
3
5925, 3, 1.0, 3296, 3, -0.5, 3300, 3, -0.5
*EQUATION
5
5930, 1, 1.0, 3296, 1, -0.25, 3300, 1, -0.25, 258, 1, -0.25, 3298, 1, -0.25
*EQUATION
5
5930, 2, 1.0, 3296, 2, -0.25, 3300, 2, -0.25, 258, 2, -0.25, 3298, 2, -0.25
*EQUATION
5
5930, 3, 1.0, 3296, 3, -0.25, 3300, 3, -0.25, 258, 3, -0.25, 3298, 3, -0.25
*EQUATION
3
5932, 1, 1.0, 258, 1, -0.5, 3298, 1, -0.5
*EQUATION
3
5932, 2, 1.0, 258, 2, -0.5, 3298, 2, -0.5
*EQUATION
3
5932, 3, 1.0, 258, 3, -0.5, 3298, 3, -0.5
*EQUATION
3
5934, 1, 1.0, 258, 1, -0.5, 3300, 1, -0.5
*EQUATION
3
5934, 2, 1.0, 258, 2, -0.5, 3300, 2, -0.5
*EQUATION
3
5934, 3, 1.0, 258, 3, -0.5, 3300, 3, -0.5
*EQUATION
3
5948, 1, 1.0, 261, 1, -0.5, 262, 1, -0.5
*EQUATION
3
5948, 2, 1.0, 261, 2, -0.5, 262, 2, -0.5
*EQUATION
3
5948, 3, 1.0, 261, 3, -0.5, 262, 3, -0.5
*EQUATION
3
5956, 1, 1.0, 261, 1, -0.5, 263, 1, -0.5
*EQUATION
3
5956, 2, 1.0, 261, 2, -0.5, 263, 2, -0.5
*EQUATION
3
5956, 3, 1.0, 261, 3, -0.5, 263, 3, -0.5
*EQUATION
5
5957, 1, 1.0, 261, 1, -0.25, 262, 1, -0.25, 264, 1, -0.25, 263, 1, -0.25
*EQUATION
5
5957, 2, 1.0, 261, 2, -0.25, 262, 2, -0.25, 264, 2, -0.25, 263, 2, -0.25
*EQUATION
5
5957, 3, 1.0, 261, 3, -0.25, 262, 3, -0.25, 264, 3, -0.25, 263, 3, -0.25
*EQUATION
3
5958, 1, 1.0, 263, 1, -0.5, 264, 1, -0.5
*EQUATION
3
5958, 2, 1.0, 263, 2, -0.5, 264, 2, -0.5
*EQUATION
3
5958, 3, 1.0, 263, 3, -0.5, 264, 3, -0.5
*EQUATION
3
5959, 1, 1.0, 262, 1, -0.5, 264, 1, -0.5
*EQUATION
3
5959, 2, 1.0, 262, 2, -0.5, 264, 2, -0.5
*EQUATION
3
5959, 3, 1.0, 262, 3, -0.5, 264, 3, -0.5
*EQUATION
3
5963, 1, 1.0, 217, 1, -0.5, 265, 1, -0.5
*EQUATION
3
5963, 2, 1.0, 217, 2, -0.5, 265, 2, -0.5
*EQUATION
3
5963, 3, 1.0, 217, 3, -0.5, 265, 3, -0.5
*EQUATION
5
5964, 1, 1.0, 217, 1, -0.25, 265, 1, -0.25, 266, 1, -0.25, 218, 1, -0.25
*EQUATION
5
5964, 2, 1.0, 217, 2, -0.25, 265, 2, -0.25, 266, 2, -0.25, 218, 2, -0.25
*EQUATION
5
5964, 3, 1.0, 217, 3, -0.25, 265, 3, -0.25, 266, 3, -0.25, 218, 3, -0.25
*EQUATION
3
5965, 1, 1.0, 218, 1, -0.5, 266, 1, -0.5
*EQUATION
3
5965, 2, 1.0, 218, 2, -0.5, 266, 2, -0.5
*EQUATION
3
5965, 3, 1.0, 218, 3, -0.5, 266, 3, -0.5
*EQUATION
3
5968, 1, 1.0, 262, 1, -0.5, 266, 1, -0.5
*EQUATION
3
5968, 2, 1.0, 262, 2, -0.5, 266, 2, -0.5
*EQUATION
3
5968, 3, 1.0, 262, 3, -0.5, 266, 3, -0.5
*EQUATION
3
5969, 1, 1.0, 265, 1, -0.5, 266, 1, -0.5
*EQUATION
3
5969, 2, 1.0, 265, 2, -0.5, 266, 2, -0.5
*EQUATION
3
5969, 3, 1.0, 265, 3, -0.5, 266, 3, -0.5
*EQUATION
5
5974, 1, 1.0, 262, 1, -0.25, 266, 1, -0.25, 267, 1, -0.25, 264, 1, -0.25
*EQUATION
5
5974, 2, 1.0, 262, 2, -0.25, 266, 2, -0.25, 267, 2, -0.25, 264, 2, -0.25
*EQUATION
5
5974, 3, 1.0, 262, 3, -0.25, 266, 3, -0.25, 267, 3, -0.25, 264, 3, -0.25
*EQUATION
3
5975, 1, 1.0, 264, 1, -0.5, 267, 1, -0.5
*EQUATION
3
5975, 2, 1.0, 264, 2, -0.5, 267, 2, -0.5
*EQUATION
3
5975, 3, 1.0, 264, 3, -0.5, 267, 3, -0.5
*EQUATION
3
5976, 1, 1.0, 266, 1, -0.5, 267, 1, -0.5
*EQUATION
3
5976, 2, 1.0, 266, 2, -0.5, 267, 2, -0.5
*EQUATION
3
5976, 3, 1.0, 266, 3, -0.5, 267, 3, -0.5
*EQUATION
5
5977, 1, 1.0, 218, 1, -0.25, 266, 1, -0.25, 269, 1, -0.25, 221, 1, -0.25
*EQUATION
5
5977, 2, 1.0, 218, 2, -0.25, 266, 2, -0.25, 269, 2, -0.25, 221, 2, -0.25
*EQUATION
5
5977, 3, 1.0, 218, 3, -0.25, 266, 3, -0.25, 269, 3, -0.25, 221, 3, -0.25
*EQUATION
3
5980, 1, 1.0, 266, 1, -0.5, 269, 1, -0.5
*EQUATION
3
5980, 2, 1.0, 266, 2, -0.5, 269, 2, -0.5
*EQUATION
3
5980, 3, 1.0, 266, 3, -0.5, 269, 3, -0.5
*EQUATION
3
5983, 1, 1.0, 220, 1, -0.5, 268, 1, -0.5
*EQUATION
3
5983, 2, 1.0, 220, 2, -0.5, 268, 2, -0.5
*EQUATION
3
5983, 3, 1.0, 220, 3, -0.5, 268, 3, -0.5
*EQUATION
5
5984, 1, 1.0, 220, 1, -0.25, 268, 1, -0.25, 269, 1, -0.25, 221, 1, -0.25
*EQUATION
5
5984, 2, 1.0, 220, 2, -0.25, 268, 2, -0.25, 269, 2, -0.25, 221, 2, -0.25
*EQUATION
5
5984, 3, 1.0, 220, 3, -0.25, 268, 3, -0.25, 269, 3, -0.25, 221, 3, -0.25
*EQUATION
3
5987, 1, 1.0, 268, 1, -0.5, 269, 1, -0.5
*EQUATION
3
5987, 2, 1.0, 268, 2, -0.5, 269, 2, -0.5
*EQUATION
3
5987, 3, 1.0, 268, 3, -0.5, 269, 3, -0.5
*EQUATION
3
5990, 1, 1.0, 3241, 1, -0.5, 4474, 1, -0.5
*EQUATION
3
5990, 2, 1.0, 3241, 2, -0.5, 4474, 2, -0.5
*EQUATION
3
5990, 3, 1.0, 3241, 3, -0.5, 4474, 3, -0.5
*EQUATION
5
5991, 1, 1.0, 3241, 1, -0.25, 3243, 1, -0.25, 4476, 1, -0.25, 4474, 1, -0.25
*EQUATION
5
5991, 2, 1.0, 3241, 2, -0.25, 3243, 2, -0.25, 4476, 2, -0.25, 4474, 2, -0.25
*EQUATION
5
5991, 3, 1.0, 3241, 3, -0.25, 3243, 3, -0.25, 4476, 3, -0.25, 4474, 3, -0.25
*EQUATION
3
5992, 1, 1.0, 4474, 1, -0.5, 4476, 1, -0.5
*EQUATION
3
5992, 2, 1.0, 4474, 2, -0.5, 4476, 2, -0.5
*EQUATION
3
5992, 3, 1.0, 4474, 3, -0.5, 4476, 3, -0.5
*EQUATION
3
5993, 1, 1.0, 3243, 1, -0.5, 4476, 1, -0.5
*EQUATION
3
5993, 2, 1.0, 3243, 2, -0.5, 4476, 2, -0.5
*EQUATION
3
5993, 3, 1.0, 3243, 3, -0.5, 4476, 3, -0.5
*EQUATION
5
5994, 1, 1.0, 3241, 1, -0.25, 3246, 1, -0.25, 4479, 1, -0.25, 4474, 1, -0.25
*EQUATION
5
5994, 2, 1.0, 3241, 2, -0.25, 3246, 2, -0.25, 4479, 2, -0.25, 4474, 2, -0.25
*EQUATION
5
5994, 3, 1.0, 3241, 3, -0.25, 3246, 3, -0.25, 4479, 3, -0.25, 4474, 3, -0.25
*EQUATION
3
5995, 1, 1.0, 4474, 1, -0.5, 4479, 1, -0.5
*EQUATION
3
5995, 2, 1.0, 4474, 2, -0.5, 4479, 2, -0.5
*EQUATION
3
5995, 3, 1.0, 4474, 3, -0.5, 4479, 3, -0.5
*EQUATION
5
5997, 1, 1.0, 4474, 1, -0.25, 4479, 1, -0.25, 4481, 1, -0.25, 4476, 1, -0.25
*EQUATION
5
5997, 2, 1.0, 4474, 2, -0.25, 4479, 2, -0.25, 4481, 2, -0.25, 4476, 2, -0.25
*EQUATION
5
5997, 3, 1.0, 4474, 3, -0.25, 4479, 3, -0.25, 4481, 3, -0.25, 4476, 3, -0.25
*EQUATION
3
5999, 1, 1.0, 4476, 1, -0.5, 4481, 1, -0.5
*EQUATION
3
5999, 2, 1.0, 4476, 2, -0.5, 4481, 2, -0.5
*EQUATION
3
5999, 3, 1.0, 4476, 3, -0.5, 4481, 3, -0.5
*EQUATION
3
6000, 1, 1.0, 3246, 1, -0.5, 4479, 1, -0.5
*EQUATION
3
6000, 2, 1.0, 3246, 2, -0.5, 4479, 2, -0.5
*EQUATION
3
6000, 3, 1.0, 3246, 3, -0.5, 4479, 3, -0.5
*EQUATION
3
6002, 1, 1.0, 4479, 1, -0.5, 4481, 1, -0.5
*EQUATION
3
6002, 2, 1.0, 4479, 2, -0.5, 4481, 2, -0.5
*EQUATION
3
6002, 3, 1.0, 4479, 3, -0.5, 4481, 3, -0.5
*EQUATION
5
6011, 1, 1.0, 3243, 1, -0.25, 3296, 1, -0.25, 4482, 1, -0.25, 4476, 1, -0.25
*EQUATION
5
6011, 2, 1.0, 3243, 2, -0.25, 3296, 2, -0.25, 4482, 2, -0.25, 4476, 2, -0.25
*EQUATION
5
6011, 3, 1.0, 3243, 3, -0.25, 3296, 3, -0.25, 4482, 3, -0.25, 4476, 3, -0.25
*EQUATION
3
6012, 1, 1.0, 4476, 1, -0.5, 4482, 1, -0.5
*EQUATION
3
6012, 2, 1.0, 4476, 2, -0.5, 4482, 2, -0.5
*EQUATION
3
6012, 3, 1.0, 4476, 3, -0.5, 4482, 3, -0.5
*EQUATION
3
6013, 1, 1.0, 3296, 1, -0.5, 4482, 1, -0.5
*EQUATION
3
6013, 2, 1.0, 3296, 2, -0.5, 4482, 2, -0.5
*EQUATION
3
6013, 3, 1.0, 3296, 3, -0.5, 4482, 3, -0.5
*EQUATION
5
6015, 1, 1.0, 4476, 1, -0.25, 4481, 1, -0.25, 4486, 1, -0.25, 4482, 1, -0.25
*EQUATION
5
6015, 2, 1.0, 4476, 2, -0.25, 4481, 2, -0.25, 4486, 2, -0.25, 4482, 2, -0.25
*EQUATION
5
6015, 3, 1.0, 4476, 3, -0.25, 4481, 3, -0.25, 4486, 3, -0.25, 4482, 3, -0.25
*EQUATION
5
6016, 1, 1.0, 3296, 1, -0.25, 3300, 1, -0.25, 4486, 1, -0.25, 4482, 1, -0.25
*EQUATION
5
6016, 2, 1.0, 3296, 2, -0.25, 3300, 2, -0.25, 4486, 2, -0.25, 4482, 2, -0.25
*EQUATION
5
6016, 3, 1.0, 3296, 3, -0.25, 3300, 3, -0.25, 4486, 3, -0.25, 4482, 3, -0.25
*EQUATION
3
6017, 1, 1.0, 4482, 1, -0.5, 4486, 1, -0.5
*EQUATION
3
6017, 2, 1.0, 4482, 2, -0.5, 4486, 2, -0.5
*EQUATION
3
6017, 3, 1.0, 4482, 3, -0.5, 4486, 3, -0.5
*EQUATION
3
6019, 1, 1.0, 4481, 1, -0.5, 4486, 1, -0.5
*EQUATION
3
6019, 2, 1.0, 4481, 2, -0.5, 4486, 2, -0.5
*EQUATION
3
6019, 3, 1.0, 4481, 3, -0.5, 4486, 3, -0.5
*EQUATION
3
6020, 1, 1.0, 3300, 1, -0.5, 4486, 1, -0.5
*EQUATION
3
6020, 2, 1.0, 3300, 2, -0.5, 4486, 2, -0.5
*EQUATION
3
6020, 3, 1.0, 3300, 3, -0.5, 4486, 3, -0.5
*EQUATION
3
6027, 1, 1.0, 229, 1, -0.5, 277, 1, -0.5
*EQUATION
3
6027, 2, 1.0, 229, 2, -0.5, 277, 2, -0.5
*EQUATION
3
6027, 3, 1.0, 229, 3, -0.5, 277, 3, -0.5
*EQUATION
5
6028, 1, 1.0, 229, 1, -0.25, 277, 1, -0.25, 278, 1, -0.25, 230, 1, -0.25
*EQUATION
5
6028, 2, 1.0, 229, 2, -0.25, 277, 2, -0.25, 278, 2, -0.25, 230, 2, -0.25
*EQUATION
5
6028, 3, 1.0, 229, 3, -0.25, 277, 3, -0.25, 278, 3, -0.25, 230, 3, -0.25
*EQUATION
3
6031, 1, 1.0, 277, 1, -0.5, 278, 1, -0.5
*EQUATION
3
6031, 2, 1.0, 277, 2, -0.5, 278, 2, -0.5
*EQUATION
3
6031, 3, 1.0, 277, 3, -0.5, 278, 3, -0.5
*EQUATION
5
6032, 1, 1.0, 230, 1, -0.25, 278, 1, -0.25, 281, 1, -0.25, 233, 1, -0.25
*EQUATION
5
6032, 2, 1.0, 230, 2, -0.25, 278, 2, -0.25, 281, 2, -0.25, 233, 2, -0.25
*EQUATION
5
6032, 3, 1.0, 230, 3, -0.25, 278, 3, -0.25, 281, 3, -0.25, 233, 3, -0.25
*EQUATION
3
6035, 1, 1.0, 233, 1, -0.5, 281, 1, -0.5
*EQUATION
3
6035, 2, 1.0, 233, 2, -0.5, 281, 2, -0.5
*EQUATION
3
6035, 3, 1.0, 233, 3, -0.5, 281, 3, -0.5
*EQUATION
3
6038, 1, 1.0, 278, 1, -0.5, 281, 1, -0.5
*EQUATION
3
6038, 2, 1.0, 278, 2, -0.5, 281, 2, -0.5
*EQUATION
3
6038, 3, 1.0, 278, 3, -0.5, 281, 3, -0.5
*EQUATION
3
6041, 1, 1.0, 281, 1, -0.5, 282, 1, -0.5
*EQUATION
3
6041, 2, 1.0, 281, 2, -0.5, 282, 2, -0.5
*EQUATION
3
6041, 3, 1.0, 281, 3, -0.5, 282, 3, -0.5
*EQUATION
3
6042, 1, 1.0, 232, 1, -0.5, 280, 1, -0.5
*EQUATION
3
6042, 2, 1.0, 232, 2, -0.5, 280, 2, -0.5
*EQUATION
3
6042, 3, 1.0, 232, 3, -0.5, 280, 3, -0.5
*EQUATION
5
6043, 1, 1.0, 232, 1, -0.25, 280, 1, -0.25, 281, 1, -0.25, 233, 1, -0.25
*EQUATION
5
6043, 2, 1.0, 232, 2, -0.25, 280, 2, -0.25, 281, 2, -0.25, 233, 2, -0.25
*EQUATION
5
6043, 3, 1.0, 232, 3, -0.25, 280, 3, -0.25, 281, 3, -0.25, 233, 3, -0.25
*EQUATION
3
6050, 1, 1.0, 280, 1, -0.5, 281, 1, -0.5
*EQUATION
3
6050, 2, 1.0, 280, 2, -0.5, 281, 2, -0.5
*EQUATION
3
6050, 3, 1.0, 280, 3, -0.5, 281, 3, -0.5
*EQUATION
3
6053, 1, 1.0, 281, 1, -0.5, 284, 1, -0.5
*EQUATION
3
6053, 2, 1.0, 281, 2, -0.5, 284, 2, -0.5
*EQUATION
3
6053, 3, 1.0, 281, 3, -0.5, 284, 3, -0.5
*EQUATION
5
6059, 1, 1.0, 281, 1, -0.25, 284, 1, -0.25, 285, 1, -0.25, 282, 1, -0.25
*EQUATION
5
6059, 2, 1.0, 281, 2, -0.25, 284, 2, -0.25, 285, 2, -0.25, 282, 2, -0.25
*EQUATION
5
6059, 3, 1.0, 281, 3, -0.25, 284, 3, -0.25, 285, 3, -0.25, 282, 3, -0.25
*EQUATION
3
6060, 1, 1.0, 282, 1, -0.5, 285, 1, -0.5
*EQUATION
3
6060, 2, 1.0, 282, 2, -0.5, 285, 2, -0.5
*EQUATION
3
6060, 3, 1.0, 282, 3, -0.5, 285, 3, -0.5
*EQUATION
3
6061, 1, 1.0, 284, 1, -0.5, 285, 1, -0.5
*EQUATION
3
6061, 2, 1.0, 284, 2, -0.5, 285, 2, -0.5
*EQUATION
3
6061, 3, 1.0, 284, 3, -0.5, 285, 3, -0.5
*EQUATION
3
6070, 1, 1.0, 284, 1, -0.5, 287, 1, -0.5
*EQUATION
3
6070, 2, 1.0, 284, 2, -0.5, 287, 2, -0.5
*EQUATION
3
6070, 3, 1.0, 284, 3, -0.5, 287, 3, -0.5
*EQUATION
5
6076, 1, 1.0, 284, 1, -0.25, 287, 1, -0.25, 288, 1, -0.25, 285, 1, -0.25
*EQUATION
5
6076, 2, 1.0, 284, 2, -0.25, 287, 2, -0.25, 288, 2, -0.25, 285, 2, -0.25
*EQUATION
5
6076, 3, 1.0, 284, 3, -0.25, 287, 3, -0.25, 288, 3, -0.25, 285, 3, -0.25
*EQUATION
3
6077, 1, 1.0, 285, 1, -0.5, 288, 1, -0.5
*EQUATION
3
6077, 2, 1.0, 285, 2, -0.5, 288, 2, -0.5
*EQUATION
3
6077, 3, 1.0, 285, 3, -0.5, 288, 3, -0.5
*EQUATION
3
6078, 1, 1.0, 287, 1, -0.5, 288, 1, -0.5
*EQUATION
3
6078, 2, 1.0, 287, 2, -0.5, 288, 2, -0.5
*EQUATION
3
6078, 3, 1.0, 287, 3, -0.5, 288, 3, -0.5
*EQUATION
3
6080, 1, 1.0, 251, 1, -0.5, 3361, 1, -0.5
*EQUATION
3
6080, 2, 1.0, 251, 2, -0.5, 3361, 2, -0.5
*EQUATION
3
6080, 3, 1.0, 251, 3, -0.5, 3361, 3, -0.5
*EQUATION
5
6082, 1, 1.0, 251, 1, -0.25, 3361, 1, -0.25, 3363, 1, -0.25, 3246, 1, -0.25
*EQUATION
5
6082, 2, 1.0, 251, 2, -0.25, 3361, 2, -0.25, 3363, 2, -0.25, 3246, 2, -0.25
*EQUATION
5
6082, 3, 1.0, 251, 3, -0.25, 3361, 3, -0.25, 3363, 3, -0.25, 3246, 3, -0.25
*EQUATION
3
6084, 1, 1.0, 3246, 1, -0.5, 3363, 1, -0.5
*EQUATION
3
6084, 2, 1.0, 3246, 2, -0.5, 3363, 2, -0.5
*EQUATION
3
6084, 3, 1.0, 3246, 3, -0.5, 3363, 3, -0.5
*EQUATION
3
6087, 1, 1.0, 3361, 1, -0.5, 3363, 1, -0.5
*EQUATION
3
6087, 2, 1.0, 3361, 2, -0.5, 3363, 2, -0.5
*EQUATION
3
6087, 3, 1.0, 3361, 3, -0.5, 3363, 3, -0.5
*EQUATION
3
6097, 1, 1.0, 299, 1, -0.5, 3361, 1, -0.5
*EQUATION
3
6097, 2, 1.0, 299, 2, -0.5, 3361, 2, -0.5
*EQUATION
3
6097, 3, 1.0, 299, 3, -0.5, 3361, 3, -0.5
*EQUATION
5
6099, 1, 1.0, 3361, 1, -0.25, 299, 1, -0.25, 3368, 1, -0.25, 3363, 1, -0.25
*EQUATION
5
6099, 2, 1.0, 3361, 2, -0.25, 299, 2, -0.25, 3368, 2, -0.25, 3363, 2, -0.25
*EQUATION
5
6099, 3, 1.0, 3361, 3, -0.25, 299, 3, -0.25, 3368, 3, -0.25, 3363, 3, -0.25
*EQUATION
3
6101, 1, 1.0, 3363, 1, -0.5, 3368, 1, -0.5
*EQUATION
3
6101, 2, 1.0, 3363, 2, -0.5, 3368, 2, -0.5
*EQUATION
3
6101, 3, 1.0, 3363, 3, -0.5, 3368, 3, -0.5
*EQUATION
3
6104, 1, 1.0, 299, 1, -0.5, 3368, 1, -0.5
*EQUATION
3
6104, 2, 1.0, 299, 2, -0.5, 3368, 2, -0.5
*EQUATION
3
6104, 3, 1.0, 299, 3, -0.5, 3368, 3, -0.5
*EQUATION
3
6116, 1, 1.0, 3300, 1, -0.5, 3418, 1, -0.5
*EQUATION
3
6116, 2, 1.0, 3300, 2, -0.5, 3418, 2, -0.5
*EQUATION
3
6116, 3, 1.0, 3300, 3, -0.5, 3418, 3, -0.5
*EQUATION
5
6121, 1, 1.0, 3300, 1, -0.25, 3418, 1, -0.25, 3420, 1, -0.25, 258, 1, -0.25
*EQUATION
5
6121, 2, 1.0, 3300, 2, -0.25, 3418, 2, -0.25, 3420, 2, -0.25, 258, 2, -0.25
*EQUATION
5
6121, 3, 1.0, 3300, 3, -0.25, 3418, 3, -0.25, 3420, 3, -0.25, 258, 3, -0.25
*EQUATION
3
6123, 1, 1.0, 258, 1, -0.5, 3420, 1, -0.5
*EQUATION
3
6123, 2, 1.0, 258, 2, -0.5, 3420, 2, -0.5
*EQUATION
3
6123, 3, 1.0, 258, 3, -0.5, 3420, 3, -0.5
*EQUATION
3
6125, 1, 1.0, 3418, 1, -0.5, 3420, 1, -0.5
*EQUATION
3
6125, 2, 1.0, 3418, 2, -0.5, 3420, 2, -0.5
*EQUATION
3
6125, 3, 1.0, 3418, 3, -0.5, 3420, 3, -0.5
*EQUATION
3
6130, 1, 1.0, 3418, 1, -0.5, 3422, 1, -0.5
*EQUATION
3
6130, 2, 1.0, 3418, 2, -0.5, 3422, 2, -0.5
*EQUATION
3
6130, 3, 1.0, 3418, 3, -0.5, 3422, 3, -0.5
*EQUATION
5
6135, 1, 1.0, 3418, 1, -0.25, 3422, 1, -0.25, 306, 1, -0.25, 3420, 1, -0.25
*EQUATION
5
6135, 2, 1.0, 3418, 2, -0.25, 3422, 2, -0.25, 306, 2, -0.25, 3420, 2, -0.25
*EQUATION
5
6135, 3, 1.0, 3418, 3, -0.25, 3422, 3, -0.25, 306, 3, -0.25, 3420, 3, -0.25
*EQUATION
3
6137, 1, 1.0, 306, 1, -0.5, 3420, 1, -0.5
*EQUATION
3
6137, 2, 1.0, 306, 2, -0.5, 3420, 2, -0.5
*EQUATION
3
6137, 3, 1.0, 306, 3, -0.5, 3420, 3, -0.5
*EQUATION
3
6139, 1, 1.0, 306, 1, -0.5, 3422, 1, -0.5
*EQUATION
3
6139, 2, 1.0, 306, 2, -0.5, 3422, 2, -0.5
*EQUATION
3
6139, 3, 1.0, 306, 3, -0.5, 3422, 3, -0.5
*EQUATION
3
6143, 1, 1.0, 261, 1, -0.5, 309, 1, -0.5
*EQUATION
3
6143, 2, 1.0, 261, 2, -0.5, 309, 2, -0.5
*EQUATION
3
6143, 3, 1.0, 261, 3, -0.5, 309, 3, -0.5
*EQUATION
5
6146, 1, 1.0, 261, 1, -0.25, 309, 1, -0.25, 310, 1, -0.25, 262, 1, -0.25
*EQUATION
5
6146, 2, 1.0, 261, 2, -0.25, 309, 2, -0.25, 310, 2, -0.25, 262, 2, -0.25
*EQUATION
5
6146, 3, 1.0, 261, 3, -0.25, 309, 3, -0.25, 310, 3, -0.25, 262, 3, -0.25
*EQUATION
3
6149, 1, 1.0, 262, 1, -0.5, 310, 1, -0.5
*EQUATION
3
6149, 2, 1.0, 262, 2, -0.5, 310, 2, -0.5
*EQUATION
3
6149, 3, 1.0, 262, 3, -0.5, 310, 3, -0.5
*EQUATION
3
6150, 1, 1.0, 307, 1, -0.5, 309, 1, -0.5
*EQUATION
3
6150, 2, 1.0, 307, 2, -0.5, 309, 2, -0.5
*EQUATION
3
6150, 3, 1.0, 307, 3, -0.5, 309, 3, -0.5
*EQUATION
3
6151, 1, 1.0, 307, 1, -0.5, 308, 1, -0.5
*EQUATION
3
6151, 2, 1.0, 307, 2, -0.5, 308, 2, -0.5
*EQUATION
3
6151, 3, 1.0, 307, 3, -0.5, 308, 3, -0.5
*EQUATION
5
6152, 1, 1.0, 307, 1, -0.25, 308, 1, -0.25, 310, 1, -0.25, 309, 1, -0.25
*EQUATION
5
6152, 2, 1.0, 307, 2, -0.25, 308, 2, -0.25, 310, 2, -0.25, 309, 2, -0.25
*EQUATION
5
6152, 3, 1.0, 307, 3, -0.25, 308, 3, -0.25, 310, 3, -0.25, 309, 3, -0.25
*EQUATION
3
6153, 1, 1.0, 309, 1, -0.5, 310, 1, -0.5
*EQUATION
3
6153, 2, 1.0, 309, 2, -0.5, 310, 2, -0.5
*EQUATION
3
6153, 3, 1.0, 309, 3, -0.5, 310, 3, -0.5
*EQUATION
3
6154, 1, 1.0, 308, 1, -0.5, 310, 1, -0.5
*EQUATION
3
6154, 2, 1.0, 308, 2, -0.5, 310, 2, -0.5
*EQUATION
3
6154, 3, 1.0, 308, 3, -0.5, 310, 3, -0.5
*EQUATION
5
6157, 1, 1.0, 262, 1, -0.25, 310, 1, -0.25, 314, 1, -0.25, 266, 1, -0.25
*EQUATION
5
6157, 2, 1.0, 262, 2, -0.25, 310, 2, -0.25, 314, 2, -0.25, 266, 2, -0.25
*EQUATION
5
6157, 3, 1.0, 262, 3, -0.25, 310, 3, -0.25, 314, 3, -0.25, 266, 3, -0.25
*EQUATION
3
6160, 1, 1.0, 266, 1, -0.5, 314, 1, -0.5
*EQUATION
3
6160, 2, 1.0, 266, 2, -0.5, 314, 2, -0.5
*EQUATION
3
6160, 3, 1.0, 266, 3, -0.5, 314, 3, -0.5
*EQUATION
3
6161, 1, 1.0, 308, 1, -0.5, 313, 1, -0.5
*EQUATION
3
6161, 2, 1.0, 308, 2, -0.5, 313, 2, -0.5
*EQUATION
3
6161, 3, 1.0, 308, 3, -0.5, 313, 3, -0.5
*EQUATION
5
6162, 1, 1.0, 308, 1, -0.25, 313, 1, -0.25, 314, 1, -0.25, 310, 1, -0.25
*EQUATION
5
6162, 2, 1.0, 308, 2, -0.25, 313, 2, -0.25, 314, 2, -0.25, 310, 2, -0.25
*EQUATION
5
6162, 3, 1.0, 308, 3, -0.25, 313, 3, -0.25, 314, 3, -0.25, 310, 3, -0.25
*EQUATION
3
6163, 1, 1.0, 310, 1, -0.5, 314, 1, -0.5
*EQUATION
3
6163, 2, 1.0, 310, 2, -0.5, 314, 2, -0.5
*EQUATION
3
6163, 3, 1.0, 310, 3, -0.5, 314, 3, -0.5
*EQUATION
3
6164, 1, 1.0, 313, 1, -0.5, 314, 1, -0.5
*EQUATION
3
6164, 2, 1.0, 313, 2, -0.5, 314, 2, -0.5
*EQUATION
3
6164, 3, 1.0, 313, 3, -0.5, 314, 3, -0.5
*EQUATION
3
6165, 1, 1.0, 265, 1, -0.5, 268, 1, -0.5
*EQUATION
3
6165, 2, 1.0, 265, 2, -0.5, 268, 2, -0.5
*EQUATION
3
6165, 3, 1.0, 265, 3, -0.5, 268, 3, -0.5
*EQUATION
5
6166, 1, 1.0, 265, 1, -0.25, 268, 1, -0.25, 269, 1, -0.25, 266, 1, -0.25
*EQUATION
5
6166, 2, 1.0, 265, 2, -0.25, 268, 2, -0.25, 269, 2, -0.25, 266, 2, -0.25
*EQUATION
5
6166, 3, 1.0, 265, 3, -0.25, 268, 3, -0.25, 269, 3, -0.25, 266, 3, -0.25
*EQUATION
3
6173, 1, 1.0, 313, 1, -0.5, 316, 1, -0.5
*EQUATION
3
6173, 2, 1.0, 313, 2, -0.5, 316, 2, -0.5
*EQUATION
3
6173, 3, 1.0, 313, 3, -0.5, 316, 3, -0.5
*EQUATION
5
6174, 1, 1.0, 313, 1, -0.25, 316, 1, -0.25, 317, 1, -0.25, 314, 1, -0.25
*EQUATION
5
6174, 2, 1.0, 313, 2, -0.25, 316, 2, -0.25, 317, 2, -0.25, 314, 2, -0.25
*EQUATION
5
6174, 3, 1.0, 313, 3, -0.25, 316, 3, -0.25, 317, 3, -0.25, 314, 3, -0.25
*EQUATION
3
6175, 1, 1.0, 314, 1, -0.5, 317, 1, -0.5
*EQUATION
3
6175, 2, 1.0, 314, 2, -0.5, 317, 2, -0.5
*EQUATION
3
6175, 3, 1.0, 314, 3, -0.5, 317, 3, -0.5
*EQUATION
3
6176, 1, 1.0, 316, 1, -0.5, 317, 1, -0.5
*EQUATION
3
6176, 2, 1.0, 316, 2, -0.5, 317, 2, -0.5
*EQUATION
3
6176, 3, 1.0, 316, 3, -0.5, 317, 3, -0.5
*EQUATION
5
6177, 1, 1.0, 266, 1, -0.25, 314, 1, -0.25, 315, 1, -0.25, 267, 1, -0.25
*EQUATION
5
6177, 2, 1.0, 266, 2, -0.25, 314, 2, -0.25, 315, 2, -0.25, 267, 2, -0.25
*EQUATION
5
6177, 3, 1.0, 266, 3, -0.25, 314, 3, -0.25, 315, 3, -0.25, 267, 3, -0.25
*EQUATION
3
6178, 1, 1.0, 267, 1, -0.5, 315, 1, -0.5
*EQUATION
3
6178, 2, 1.0, 267, 2, -0.5, 315, 2, -0.5
*EQUATION
3
6178, 3, 1.0, 267, 3, -0.5, 315, 3, -0.5
*EQUATION
3
6183, 1, 1.0, 314, 1, -0.5, 315, 1, -0.5
*EQUATION
3
6183, 2, 1.0, 314, 2, -0.5, 315, 2, -0.5
*EQUATION
3
6183, 3, 1.0, 314, 3, -0.5, 315, 3, -0.5
*EQUATION
5
6184, 1, 1.0, 314, 1, -0.25, 317, 1, -0.25, 318, 1, -0.25, 315, 1, -0.25
*EQUATION
5
6184, 2, 1.0, 314, 2, -0.25, 317, 2, -0.25, 318, 2, -0.25, 315, 2, -0.25
*EQUATION
5
6184, 3, 1.0, 314, 3, -0.25, 317, 3, -0.25, 318, 3, -0.25, 315, 3, -0.25
*EQUATION
3
6185, 1, 1.0, 315, 1, -0.5, 318, 1, -0.5
*EQUATION
3
6185, 2, 1.0, 315, 2, -0.5, 318, 2, -0.5
*EQUATION
3
6185, 3, 1.0, 315, 3, -0.5, 318, 3, -0.5
*EQUATION
3
6186, 1, 1.0, 317, 1, -0.5, 318, 1, -0.5
*EQUATION
3
6186, 2, 1.0, 317, 2, -0.5, 318, 2, -0.5
*EQUATION
3
6186, 3, 1.0, 317, 3, -0.5, 318, 3, -0.5
*EQUATION
3
6192, 1, 1.0, 317, 1, -0.5, 319, 1, -0.5
*EQUATION
3
6192, 2, 1.0, 317, 2, -0.5, 319, 2, -0.5
*EQUATION
3
6192, 3, 1.0, 317, 3, -0.5, 319, 3, -0.5
*EQUATION
5
6197, 1, 1.0, 317, 1, -0.25, 319, 1, -0.25, 320, 1, -0.25, 318, 1, -0.25
*EQUATION
5
6197, 2, 1.0, 317, 2, -0.25, 319, 2, -0.25, 320, 2, -0.25, 318, 2, -0.25
*EQUATION
5
6197, 3, 1.0, 317, 3, -0.25, 319, 3, -0.25, 320, 3, -0.25, 318, 3, -0.25
*EQUATION
3
6198, 1, 1.0, 318, 1, -0.5, 320, 1, -0.5
*EQUATION
3
6198, 2, 1.0, 318, 2, -0.5, 320, 2, -0.5
*EQUATION
3
6198, 3, 1.0, 318, 3, -0.5, 320, 3, -0.5
*EQUATION
3
6199, 1, 1.0, 319, 1, -0.5, 320, 1, -0.5
*EQUATION
3
6199, 2, 1.0, 319, 2, -0.5, 320, 2, -0.5
*EQUATION
3
6199, 3, 1.0, 319, 3, -0.5, 320, 3, -0.5
*EQUATION
5
6200, 1, 1.0, 3246, 1, -0.25, 3363, 1, -0.25, 4592, 1, -0.25, 4479, 1, -0.25
*EQUATION
5
6200, 2, 1.0, 3246, 2, -0.25, 3363, 2, -0.25, 4592, 2, -0.25, 4479, 2, -0.25
*EQUATION
5
6200, 3, 1.0, 3246, 3, -0.25, 3363, 3, -0.25, 4592, 3, -0.25, 4479, 3, -0.25
*EQUATION
3
6201, 1, 1.0, 4479, 1, -0.5, 4592, 1, -0.5
*EQUATION
3
6201, 2, 1.0, 4479, 2, -0.5, 4592, 2, -0.5
*EQUATION
3
6201, 3, 1.0, 4479, 3, -0.5, 4592, 3, -0.5
*EQUATION
5
6203, 1, 1.0, 4479, 1, -0.25, 4592, 1, -0.25, 4594, 1, -0.25, 4481, 1, -0.25
*EQUATION
5
6203, 2, 1.0, 4479, 2, -0.25, 4592, 2, -0.25, 4594, 2, -0.25, 4481, 2, -0.25
*EQUATION
5
6203, 3, 1.0, 4479, 3, -0.25, 4592, 3, -0.25, 4594, 3, -0.25, 4481, 3, -0.25
*EQUATION
3
6205, 1, 1.0, 4481, 1, -0.5, 4594, 1, -0.5
*EQUATION
3
6205, 2, 1.0, 4481, 2, -0.5, 4594, 2, -0.5
*EQUATION
3
6205, 3, 1.0, 4481, 3, -0.5, 4594, 3, -0.5
*EQUATION
3
6206, 1, 1.0, 3363, 1, -0.5, 4592, 1, -0.5
*EQUATION
3
6206, 2, 1.0, 3363, 2, -0.5, 4592, 2, -0.5
*EQUATION
3
6206, 3, 1.0, 3363, 3, -0.5, 4592, 3, -0.5
*EQUATION
3
6208, 1, 1.0, 4592, 1, -0.5, 4594, 1, -0.5
*EQUATION
3
6208, 2, 1.0, 4592, 2, -0.5, 4594, 2, -0.5
*EQUATION
3
6208, 3, 1.0, 4592, 3, -0.5, 4594, 3, -0.5
*EQUATION
5
6210, 1, 1.0, 3363, 1, -0.25, 3368, 1, -0.25, 4597, 1, -0.25, 4592, 1, -0.25
*EQUATION
5
6210, 2, 1.0, 3363, 2, -0.25, 3368, 2, -0.25, 4597, 2, -0.25, 4592, 2, -0.25
*EQUATION
5
6210, 3, 1.0, 3363, 3, -0.25, 3368, 3, -0.25, 4597, 3, -0.25, 4592, 3, -0.25
*EQUATION
3
6211, 1, 1.0, 4592, 1, -0.5, 4597, 1, -0.5
*EQUATION
3
6211, 2, 1.0, 4592, 2, -0.5, 4597, 2, -0.5
*EQUATION
3
6211, 3, 1.0, 4592, 3, -0.5, 4597, 3, -0.5
*EQUATION
5
6213, 1, 1.0, 4592, 1, -0.25, 4597, 1, -0.25, 4599, 1, -0.25, 4594, 1, -0.25
*EQUATION
5
6213, 2, 1.0, 4592, 2, -0.25, 4597, 2, -0.25, 4599, 2, -0.25, 4594, 2, -0.25
*EQUATION
5
6213, 3, 1.0, 4592, 3, -0.25, 4597, 3, -0.25, 4599, 3, -0.25, 4594, 3, -0.25
*EQUATION
3
6215, 1, 1.0, 4594, 1, -0.5, 4599, 1, -0.5
*EQUATION
3
6215, 2, 1.0, 4594, 2, -0.5, 4599, 2, -0.5
*EQUATION
3
6215, 3, 1.0, 4594, 3, -0.5, 4599, 3, -0.5
*EQUATION
3
6216, 1, 1.0, 3368, 1, -0.5, 4597, 1, -0.5
*EQUATION
3
6216, 2, 1.0, 3368, 2, -0.5, 4597, 2, -0.5
*EQUATION
3
6216, 3, 1.0, 3368, 3, -0.5, 4597, 3, -0.5
*EQUATION
3
6218, 1, 1.0, 4597, 1, -0.5, 4599, 1, -0.5
*EQUATION
3
6218, 2, 1.0, 4597, 2, -0.5, 4599, 2, -0.5
*EQUATION
3
6218, 3, 1.0, 4597, 3, -0.5, 4599, 3, -0.5
*EQUATION
5
6228, 1, 1.0, 4481, 1, -0.25, 4594, 1, -0.25, 4600, 1, -0.25, 4486, 1, -0.25
*EQUATION
5
6228, 2, 1.0, 4481, 2, -0.25, 4594, 2, -0.25, 4600, 2, -0.25, 4486, 2, -0.25
*EQUATION
5
6228, 3, 1.0, 4481, 3, -0.25, 4594, 3, -0.25, 4600, 3, -0.25, 4486, 3, -0.25
*EQUATION
5
6229, 1, 1.0, 3300, 1, -0.25, 3418, 1, -0.25, 4600, 1, -0.25, 4486, 1, -0.25
*EQUATION
5
6229, 2, 1.0, 3300, 2, -0.25, 3418, 2, -0.25, 4600, 2, -0.25, 4486, 2, -0.25
*EQUATION
5
6229, 3, 1.0, 3300, 3, -0.25, 3418, 3, -0.25, 4600, 3, -0.25, 4486, 3, -0.25
*EQUATION
3
6230, 1, 1.0, 4486, 1, -0.5, 4600, 1, -0.5
*EQUATION
3
6230, 2, 1.0, 4486, 2, -0.5, 4600, 2, -0.5
*EQUATION
3
6230, 3, 1.0, 4486, 3, -0.5, 4600, 3, -0.5
*EQUATION
3
6232, 1, 1.0, 4594, 1, -0.5, 4600, 1, -0.5
*EQUATION
3
6232, 2, 1.0, 4594, 2, -0.5, 4600, 2, -0.5
*EQUATION
3
6232, 3, 1.0, 4594, 3, -0.5, 4600, 3, -0.5
*EQUATION
3
6233, 1, 1.0, 3418, 1, -0.5, 4600, 1, -0.5
*EQUATION
3
6233, 2, 1.0, 3418, 2, -0.5, 4600, 2, -0.5
*EQUATION
3
6233, 3, 1.0, 3418, 3, -0.5, 4600, 3, -0.5
*EQUATION
5
6235, 1, 1.0, 4594, 1, -0.25, 4599, 1, -0.25, 4604, 1, -0.25, 4600, 1, -0.25
*EQUATION
5
6235, 2, 1.0, 4594, 2, -0.25, 4599, 2, -0.25, 4604, 2, -0.25, 4600, 2, -0.25
*EQUATION
5
6235, 3, 1.0, 4594, 3, -0.25, 4599, 3, -0.25, 4604, 3, -0.25, 4600, 3, -0.25
*EQUATION
5
6236, 1, 1.0, 3418, 1, -0.25, 3422, 1, -0.25, 4604, 1, -0.25, 4600, 1, -0.25
*EQUATION
5
6236, 2, 1.0, 3418, 2, -0.25, 3422, 2, -0.25, 4604, 2, -0.25, 4600, 2, -0.25
*EQUATION
5
6236, 3, 1.0, 3418, 3, -0.25, 3422, 3, -0.25, 4604, 3, -0.25, 4600, 3, -0.25
*EQUATION
3
6237, 1, 1.0, 4600, 1, -0.5, 4604, 1, -0.5
*EQUATION
3
6237, 2, 1.0, 4600, 2, -0.5, 4604, 2, -0.5
*EQUATION
3
6237, 3, 1.0, 4600, 3, -0.5, 4604, 3, -0.5
*EQUATION
3
6239, 1, 1.0, 4599, 1, -0.5, 4604, 1, -0.5
*EQUATION
3
6239, 2, 1.0, 4599, 2, -0.5, 4604, 2, -0.5
*EQUATION
3
6239, 3, 1.0, 4599, 3, -0.5, 4604, 3, -0.5
*EQUATION
3
6240, 1, 1.0, 3422, 1, -0.5, 4604, 1, -0.5
*EQUATION
3
6240, 2, 1.0, 3422, 2, -0.5, 4604, 2, -0.5
*EQUATION
3
6240, 3, 1.0, 3422, 3, -0.5, 4604, 3, -0.5
*EQUATION
3
6247, 1, 1.0, 323, 1, -0.5, 324, 1, -0.5
*EQUATION
3
6247, 2, 1.0, 323, 2, -0.5, 324, 2, -0.5
*EQUATION
3
6247, 3, 1.0, 323, 3, -0.5, 324, 3, -0.5
*EQUATION
3
6256, 1, 1.0, 323, 1, -0.5, 326, 1, -0.5
*EQUATION
3
6256, 2, 1.0, 323, 2, -0.5, 326, 2, -0.5
*EQUATION
3
6256, 3, 1.0, 323, 3, -0.5, 326, 3, -0.5
*EQUATION
3
6257, 1, 1.0, 325, 1, -0.5, 326, 1, -0.5
*EQUATION
3
6257, 2, 1.0, 325, 2, -0.5, 326, 2, -0.5
*EQUATION
3
6257, 3, 1.0, 325, 3, -0.5, 326, 3, -0.5
*EQUATION
5
6262, 1, 1.0, 323, 1, -0.25, 326, 1, -0.25, 327, 1, -0.25, 324, 1, -0.25
*EQUATION
5
6262, 2, 1.0, 323, 2, -0.25, 326, 2, -0.25, 327, 2, -0.25, 324, 2, -0.25
*EQUATION
5
6262, 3, 1.0, 323, 3, -0.25, 326, 3, -0.25, 327, 3, -0.25, 324, 3, -0.25
*EQUATION
3
6263, 1, 1.0, 324, 1, -0.5, 327, 1, -0.5
*EQUATION
3
6263, 2, 1.0, 324, 2, -0.5, 327, 2, -0.5
*EQUATION
3
6263, 3, 1.0, 324, 3, -0.5, 327, 3, -0.5
*EQUATION
3
6264, 1, 1.0, 326, 1, -0.5, 327, 1, -0.5
*EQUATION
3
6264, 2, 1.0, 326, 2, -0.5, 327, 2, -0.5
*EQUATION
3
6264, 3, 1.0, 326, 3, -0.5, 327, 3, -0.5
*EQUATION
3
6265, 1, 1.0, 277, 1, -0.5, 280, 1, -0.5
*EQUATION
3
6265, 2, 1.0, 277, 2, -0.5, 280, 2, -0.5
*EQUATION
3
6265, 3, 1.0, 277, 3, -0.5, 280, 3, -0.5
*EQUATION
5
6266, 1, 1.0, 277, 1, -0.25, 280, 1, -0.25, 281, 1, -0.25, 278, 1, -0.25
*EQUATION
5
6266, 2, 1.0, 277, 2, -0.25, 280, 2, -0.25, 281, 2, -0.25, 278, 2, -0.25
*EQUATION
5
6266, 3, 1.0, 277, 3, -0.25, 280, 3, -0.25, 281, 3, -0.25, 278, 3, -0.25
*EQUATION
3
6272, 1, 1.0, 281, 1, -0.5, 329, 1, -0.5
*EQUATION
3
6272, 2, 1.0, 281, 2, -0.5, 329, 2, -0.5
*EQUATION
3
6272, 3, 1.0, 281, 3, -0.5, 329, 3, -0.5
*EQUATION
3
6273, 1, 1.0, 325, 1, -0.5, 328, 1, -0.5
*EQUATION
3
6273, 2, 1.0, 325, 2, -0.5, 328, 2, -0.5
*EQUATION
3
6273, 3, 1.0, 325, 3, -0.5, 328, 3, -0.5
*EQUATION
5
6274, 1, 1.0, 325, 1, -0.25, 328, 1, -0.25, 329, 1, -0.25, 326, 1, -0.25
*EQUATION
5
6274, 2, 1.0, 325, 2, -0.25, 328, 2, -0.25, 329, 2, -0.25, 326, 2, -0.25
*EQUATION
5
6274, 3, 1.0, 325, 3, -0.25, 328, 3, -0.25, 329, 3, -0.25, 326, 3, -0.25
*EQUATION
3
6275, 1, 1.0, 326, 1, -0.5, 329, 1, -0.5
*EQUATION
3
6275, 2, 1.0, 326, 2, -0.5, 329, 2, -0.5
*EQUATION
3
6275, 3, 1.0, 326, 3, -0.5, 329, 3, -0.5
*EQUATION
3
6276, 1, 1.0, 328, 1, -0.5, 329, 1, -0.5
*EQUATION
3
6276, 2, 1.0, 328, 2, -0.5, 329, 2, -0.5
*EQUATION
3
6276, 3, 1.0, 328, 3, -0.5, 329, 3, -0.5
*EQUATION
5
6279, 1, 1.0, 281, 1, -0.25, 329, 1, -0.25, 330, 1, -0.25, 282, 1, -0.25
*EQUATION
5
6279, 2, 1.0, 281, 2, -0.25, 329, 2, -0.25, 330, 2, -0.25, 282, 2, -0.25
*EQUATION
5
6279, 3, 1.0, 281, 3, -0.25, 329, 3, -0.25, 330, 3, -0.25, 282, 3, -0.25
*EQUATION
3
6280, 1, 1.0, 282, 1, -0.5, 330, 1, -0.5
*EQUATION
3
6280, 2, 1.0, 282, 2, -0.5, 330, 2, -0.5
*EQUATION
3
6280, 3, 1.0, 282, 3, -0.5, 330, 3, -0.5
*EQUATION
5
6281, 1, 1.0, 326, 1, -0.25, 329, 1, -0.25, 330, 1, -0.25, 327, 1, -0.25
*EQUATION
5
6281, 2, 1.0, 326, 2, -0.25, 329, 2, -0.25, 330, 2, -0.25, 327, 2, -0.25
*EQUATION
5
6281, 3, 1.0, 326, 3, -0.25, 329, 3, -0.25, 330, 3, -0.25, 327, 3, -0.25
*EQUATION
3
6282, 1, 1.0, 327, 1, -0.5, 330, 1, -0.5
*EQUATION
3
6282, 2, 1.0, 327, 2, -0.5, 330, 2, -0.5
*EQUATION
3
6282, 3, 1.0, 327, 3, -0.5, 330, 3, -0.5
*EQUATION
3
6283, 1, 1.0, 329, 1, -0.5, 330, 1, -0.5
*EQUATION
3
6283, 2, 1.0, 329, 2, -0.5, 330, 2, -0.5
*EQUATION
3
6283, 3, 1.0, 329, 3, -0.5, 330, 3, -0.5
*EQUATION
5
6286, 1, 1.0, 281, 1, -0.25, 329, 1, -0.25, 332, 1, -0.25, 284, 1, -0.25
*EQUATION
5
6286, 2, 1.0, 281, 2, -0.25, 329, 2, -0.25, 332, 2, -0.25, 284, 2, -0.25
*EQUATION
5
6286, 3, 1.0, 281, 3, -0.25, 329, 3, -0.25, 332, 3, -0.25, 284, 3, -0.25
*EQUATION
3
6289, 1, 1.0, 284, 1, -0.5, 332, 1, -0.5
*EQUATION
3
6289, 2, 1.0, 284, 2, -0.5, 332, 2, -0.5
*EQUATION
3
6289, 3, 1.0, 284, 3, -0.5, 332, 3, -0.5
*EQUATION
3
6290, 1, 1.0, 328, 1, -0.5, 331, 1, -0.5
*EQUATION
3
6290, 2, 1.0, 328, 2, -0.5, 331, 2, -0.5
*EQUATION
3
6290, 3, 1.0, 328, 3, -0.5, 331, 3, -0.5
*EQUATION
5
6291, 1, 1.0, 328, 1, -0.25, 331, 1, -0.25, 332, 1, -0.25, 329, 1, -0.25
*EQUATION
5
6291, 2, 1.0, 328, 2, -0.25, 331, 2, -0.25, 332, 2, -0.25, 329, 2, -0.25
*EQUATION
5
6291, 3, 1.0, 328, 3, -0.25, 331, 3, -0.25, 332, 3, -0.25, 329, 3, -0.25
*EQUATION
3
6292, 1, 1.0, 329, 1, -0.5, 332, 1, -0.5
*EQUATION
3
6292, 2, 1.0, 329, 2, -0.5, 332, 2, -0.5
*EQUATION
3
6292, 3, 1.0, 329, 3, -0.5, 332, 3, -0.5
*EQUATION
3
6293, 1, 1.0, 331, 1, -0.5, 332, 1, -0.5
*EQUATION
3
6293, 2, 1.0, 331, 2, -0.5, 332, 2, -0.5
*EQUATION
3
6293, 3, 1.0, 331, 3, -0.5, 332, 3, -0.5
*EQUATION
5
6296, 1, 1.0, 284, 1, -0.25, 332, 1, -0.25, 335, 1, -0.25, 287, 1, -0.25
*EQUATION
5
6296, 2, 1.0, 284, 2, -0.25, 332, 2, -0.25, 335, 2, -0.25, 287, 2, -0.25
*EQUATION
5
6296, 3, 1.0, 284, 3, -0.25, 332, 3, -0.25, 335, 3, -0.25, 287, 3, -0.25
*EQUATION
3
6299, 1, 1.0, 287, 1, -0.5, 335, 1, -0.5
*EQUATION
3
6299, 2, 1.0, 287, 2, -0.5, 335, 2, -0.5
*EQUATION
3
6299, 3, 1.0, 287, 3, -0.5, 335, 3, -0.5
*EQUATION
3
6300, 1, 1.0, 331, 1, -0.5, 334, 1, -0.5
*EQUATION
3
6300, 2, 1.0, 331, 2, -0.5, 334, 2, -0.5
*EQUATION
3
6300, 3, 1.0, 331, 3, -0.5, 334, 3, -0.5
*EQUATION
5
6301, 1, 1.0, 331, 1, -0.25, 334, 1, -0.25, 335, 1, -0.25, 332, 1, -0.25
*EQUATION
5
6301, 2, 1.0, 331, 2, -0.25, 334, 2, -0.25, 335, 2, -0.25, 332, 2, -0.25
*EQUATION
5
6301, 3, 1.0, 331, 3, -0.25, 334, 3, -0.25, 335, 3, -0.25, 332, 3, -0.25
*EQUATION
3
6302, 1, 1.0, 332, 1, -0.5, 335, 1, -0.5
*EQUATION
3
6302, 2, 1.0, 332, 2, -0.5, 335, 2, -0.5
*EQUATION
3
6302, 3, 1.0, 332, 3, -0.5, 335, 3, -0.5
*EQUATION
3
6303, 1, 1.0, 334, 1, -0.5, 335, 1, -0.5
*EQUATION
3
6303, 2, 1.0, 334, 2, -0.5, 335, 2, -0.5
*EQUATION
3
6303, 3, 1.0, 334, 3, -0.5, 335, 3, -0.5
*EQUATION
3
6305, 1, 1.0, 299, 1, -0.5, 3459, 1, -0.5
*EQUATION
3
6305, 2, 1.0, 299, 2, -0.5, 3459, 2, -0.5
*EQUATION
3
6305, 3, 1.0, 299, 3, -0.5, 3459, 3, -0.5
*EQUATION
5
6307, 1, 1.0, 299, 1, -0.25, 3459, 1, -0.25, 3461, 1, -0.25, 3368, 1, -0.25
*EQUATION
5
6307, 2, 1.0, 299, 2, -0.25, 3459, 2, -0.25, 3461, 2, -0.25, 3368, 2, -0.25
*EQUATION
5
6307, 3, 1.0, 299, 3, -0.25, 3459, 3, -0.25, 3461, 3, -0.25, 3368, 3, -0.25
*EQUATION
3
6309, 1, 1.0, 3368, 1, -0.5, 3461, 1, -0.5
*EQUATION
3
6309, 2, 1.0, 3368, 2, -0.5, 3461, 2, -0.5
*EQUATION
3
6309, 3, 1.0, 3368, 3, -0.5, 3461, 3, -0.5
*EQUATION
3
6312, 1, 1.0, 3459, 1, -0.5, 3461, 1, -0.5
*EQUATION
3
6312, 2, 1.0, 3459, 2, -0.5, 3461, 2, -0.5
*EQUATION
3
6312, 3, 1.0, 3459, 3, -0.5, 3461, 3, -0.5
*EQUATION
3
6319, 1, 1.0, 3461, 1, -0.5, 3463, 1, -0.5
*EQUATION
3
6319, 2, 1.0, 3461, 2, -0.5, 3463, 2, -0.5
*EQUATION
3
6319, 3, 1.0, 3461, 3, -0.5, 3463, 3, -0.5
*EQUATION
3
6321, 1, 1.0, 3458, 1, -0.5, 3464, 1, -0.5
*EQUATION
3
6321, 2, 1.0, 3458, 2, -0.5, 3464, 2, -0.5
*EQUATION
3
6321, 3, 1.0, 3458, 3, -0.5, 3464, 3, -0.5
*EQUATION
3
6323, 1, 1.0, 347, 1, -0.5, 3459, 1, -0.5
*EQUATION
3
6323, 2, 1.0, 347, 2, -0.5, 3459, 2, -0.5
*EQUATION
3
6323, 3, 1.0, 347, 3, -0.5, 3459, 3, -0.5
*EQUATION
5
6324, 1, 1.0, 3458, 1, -0.25, 3464, 1, -0.25, 3465, 1, -0.25, 3460, 1, -0.25
*EQUATION
5
6324, 2, 1.0, 3458, 2, -0.25, 3464, 2, -0.25, 3465, 2, -0.25, 3460, 2, -0.25
*EQUATION
5
6324, 3, 1.0, 3458, 3, -0.25, 3464, 3, -0.25, 3465, 3, -0.25, 3460, 3, -0.25
*EQUATION
5
6326, 1, 1.0, 3459, 1, -0.25, 347, 1, -0.25, 3466, 1, -0.25, 3461, 1, -0.25
*EQUATION
5
6326, 2, 1.0, 3459, 2, -0.25, 347, 2, -0.25, 3466, 2, -0.25, 3461, 2, -0.25
*EQUATION
5
6326, 3, 1.0, 3459, 3, -0.25, 347, 3, -0.25, 3466, 3, -0.25, 3461, 3, -0.25
*EQUATION
3
6327, 1, 1.0, 3460, 1, -0.5, 3465, 1, -0.5
*EQUATION
3
6327, 2, 1.0, 3460, 2, -0.5, 3465, 2, -0.5
*EQUATION
3
6327, 3, 1.0, 3460, 3, -0.5, 3465, 3, -0.5
*EQUATION
3
6329, 1, 1.0, 3461, 1, -0.5, 3466, 1, -0.5
*EQUATION
3
6329, 2, 1.0, 3461, 2, -0.5, 3466, 2, -0.5
*EQUATION
3
6329, 3, 1.0, 3461, 3, -0.5, 3466, 3, -0.5
*EQUATION
3
6330, 1, 1.0, 347, 1, -0.5, 3464, 1, -0.5
*EQUATION
3
6330, 2, 1.0, 347, 2, -0.5, 3464, 2, -0.5
*EQUATION
3
6330, 3, 1.0, 347, 3, -0.5, 3464, 3, -0.5
*EQUATION
3
6331, 1, 1.0, 3464, 1, -0.5, 3465, 1, -0.5
*EQUATION
3
6331, 2, 1.0, 3464, 2, -0.5, 3465, 2, -0.5
*EQUATION
3
6331, 3, 1.0, 3464, 3, -0.5, 3465, 3, -0.5
*EQUATION
5
6332, 1, 1.0, 3464, 1, -0.25, 3465, 1, -0.25, 3466, 1, -0.25, 347, 1, -0.25
*EQUATION
5
6332, 2, 1.0, 3464, 2, -0.25, 3465, 2, -0.25, 3466, 2, -0.25, 347, 2, -0.25
*EQUATION
5
6332, 3, 1.0, 3464, 3, -0.25, 3465, 3, -0.25, 3466, 3, -0.25, 347, 3, -0.25
*EQUATION
3
6333, 1, 1.0, 347, 1, -0.5, 3466, 1, -0.5
*EQUATION
3
6333, 2, 1.0, 347, 2, -0.5, 3466, 2, -0.5
*EQUATION
3
6333, 3, 1.0, 347, 3, -0.5, 3466, 3, -0.5
*EQUATION
3
6334, 1, 1.0, 3465, 1, -0.5, 3466, 1, -0.5
*EQUATION
3
6334, 2, 1.0, 3465, 2, -0.5, 3466, 2, -0.5
*EQUATION
3
6334, 3, 1.0, 3465, 3, -0.5, 3466, 3, -0.5
*EQUATION
5
6335, 1, 1.0, 3460, 1, -0.25, 3465, 1, -0.25, 3467, 1, -0.25, 3462, 1, -0.25
*EQUATION
5
6335, 2, 1.0, 3460, 2, -0.25, 3465, 2, -0.25, 3467, 2, -0.25, 3462, 2, -0.25
*EQUATION
5
6335, 3, 1.0, 3460, 3, -0.25, 3465, 3, -0.25, 3467, 3, -0.25, 3462, 3, -0.25
*EQUATION
5
6337, 1, 1.0, 3461, 1, -0.25, 3466, 1, -0.25, 348, 1, -0.25, 3463, 1, -0.25
*EQUATION
5
6337, 2, 1.0, 3461, 2, -0.25, 3466, 2, -0.25, 348, 2, -0.25, 3463, 2, -0.25
*EQUATION
5
6337, 3, 1.0, 3461, 3, -0.25, 3466, 3, -0.25, 348, 3, -0.25, 3463, 3, -0.25
*EQUATION
3
6338, 1, 1.0, 3462, 1, -0.5, 3467, 1, -0.5
*EQUATION
3
6338, 2, 1.0, 3462, 2, -0.5, 3467, 2, -0.5
*EQUATION
3
6338, 3, 1.0, 3462, 3, -0.5, 3467, 3, -0.5
*EQUATION
3
6340, 1, 1.0, 348, 1, -0.5, 3463, 1, -0.5
*EQUATION
3
6340, 2, 1.0, 348, 2, -0.5, 3463, 2, -0.5
*EQUATION
3
6340, 3, 1.0, 348, 3, -0.5, 3463, 3, -0.5
*EQUATION
3
6341, 1, 1.0, 3465, 1, -0.5, 3467, 1, -0.5
*EQUATION
3
6341, 2, 1.0, 3465, 2, -0.5, 3467, 2, -0.5
*EQUATION
3
6341, 3, 1.0, 3465, 3, -0.5, 3467, 3, -0.5
*EQUATION
5
6342, 1, 1.0, 3465, 1, -0.25, 3467, 1, -0.25, 348, 1, -0.25, 3466, 1, -0.25
*EQUATION
5
6342, 2, 1.0, 3465, 2, -0.25, 3467, 2, -0.25, 348, 2, -0.25, 3466, 2, -0.25
*EQUATION
5
6342, 3, 1.0, 3465, 3, -0.25, 3467, 3, -0.25, 348, 3, -0.25, 3466, 3, -0.25
*EQUATION
3
6343, 1, 1.0, 348, 1, -0.5, 3466, 1, -0.5
*EQUATION
3
6343, 2, 1.0, 348, 2, -0.5, 3466, 2, -0.5
*EQUATION
3
6343, 3, 1.0, 348, 3, -0.5, 3466, 3, -0.5
*EQUATION
3
6344, 1, 1.0, 348, 1, -0.5, 3467, 1, -0.5
*EQUATION
3
6344, 2, 1.0, 348, 2, -0.5, 3467, 2, -0.5
*EQUATION
3
6344, 3, 1.0, 348, 3, -0.5, 3467, 3, -0.5
*EQUATION
3
6348, 1, 1.0, 3422, 1, -0.5, 3496, 1, -0.5
*EQUATION
3
6348, 2, 1.0, 3422, 2, -0.5, 3496, 2, -0.5
*EQUATION
3
6348, 3, 1.0, 3422, 3, -0.5, 3496, 3, -0.5
*EQUATION
3
6350, 1, 1.0, 3463, 1, -0.5, 3496, 1, -0.5
*EQUATION
3
6350, 2, 1.0, 3463, 2, -0.5, 3496, 2, -0.5
*EQUATION
3
6350, 3, 1.0, 3463, 3, -0.5, 3496, 3, -0.5
*EQUATION
5
6353, 1, 1.0, 3422, 1, -0.25, 3496, 1, -0.25, 3498, 1, -0.25, 306, 1, -0.25
*EQUATION
5
6353, 2, 1.0, 3422, 2, -0.25, 3496, 2, -0.25, 3498, 2, -0.25, 306, 2, -0.25
*EQUATION
5
6353, 3, 1.0, 3422, 3, -0.25, 3496, 3, -0.25, 3498, 3, -0.25, 306, 3, -0.25
*EQUATION
3
6355, 1, 1.0, 306, 1, -0.5, 3498, 1, -0.5
*EQUATION
3
6355, 2, 1.0, 306, 2, -0.5, 3498, 2, -0.5
*EQUATION
3
6355, 3, 1.0, 306, 3, -0.5, 3498, 3, -0.5
*EQUATION
3
6357, 1, 1.0, 3496, 1, -0.5, 3498, 1, -0.5
*EQUATION
3
6357, 2, 1.0, 3496, 2, -0.5, 3498, 2, -0.5
*EQUATION
3
6357, 3, 1.0, 3496, 3, -0.5, 3498, 3, -0.5
*EQUATION
5
6359, 1, 1.0, 3462, 1, -0.25, 3467, 1, -0.25, 3499, 1, -0.25, 3495, 1, -0.25
*EQUATION
5
6359, 2, 1.0, 3462, 2, -0.25, 3467, 2, -0.25, 3499, 2, -0.25, 3495, 2, -0.25
*EQUATION
5
6359, 3, 1.0, 3462, 3, -0.25, 3467, 3, -0.25, 3499, 3, -0.25, 3495, 3, -0.25
*EQUATION
5
6361, 1, 1.0, 3463, 1, -0.25, 348, 1, -0.25, 3500, 1, -0.25, 3496, 1, -0.25
*EQUATION
5
6361, 2, 1.0, 3463, 2, -0.25, 348, 2, -0.25, 3500, 2, -0.25, 3496, 2, -0.25
*EQUATION
5
6361, 3, 1.0, 3463, 3, -0.25, 348, 3, -0.25, 3500, 3, -0.25, 3496, 3, -0.25
*EQUATION
3
6362, 1, 1.0, 3495, 1, -0.5, 3499, 1, -0.5
*EQUATION
3
6362, 2, 1.0, 3495, 2, -0.5, 3499, 2, -0.5
*EQUATION
3
6362, 3, 1.0, 3495, 3, -0.5, 3499, 3, -0.5
*EQUATION
3
6364, 1, 1.0, 3496, 1, -0.5, 3500, 1, -0.5
*EQUATION
3
6364, 2, 1.0, 3496, 2, -0.5, 3500, 2, -0.5
*EQUATION
3
6364, 3, 1.0, 3496, 3, -0.5, 3500, 3, -0.5
*EQUATION
3
6365, 1, 1.0, 3467, 1, -0.5, 3499, 1, -0.5
*EQUATION
3
6365, 2, 1.0, 3467, 2, -0.5, 3499, 2, -0.5
*EQUATION
3
6365, 3, 1.0, 3467, 3, -0.5, 3499, 3, -0.5
*EQUATION
5
6366, 1, 1.0, 3467, 1, -0.25, 3499, 1, -0.25, 3500, 1, -0.25, 348, 1, -0.25
*EQUATION
5
6366, 2, 1.0, 3467, 2, -0.25, 3499, 2, -0.25, 3500, 2, -0.25, 348, 2, -0.25
*EQUATION
5
6366, 3, 1.0, 3467, 3, -0.25, 3499, 3, -0.25, 3500, 3, -0.25, 348, 3, -0.25
*EQUATION
3
6367, 1, 1.0, 348, 1, -0.5, 3500, 1, -0.5
*EQUATION
3
6367, 2, 1.0, 348, 2, -0.5, 3500, 2, -0.5
*EQUATION
3
6367, 3, 1.0, 348, 3, -0.5, 3500, 3, -0.5
*EQUATION
3
6368, 1, 1.0, 3499, 1, -0.5, 3500, 1, -0.5
*EQUATION
3
6368, 2, 1.0, 3499, 2, -0.5, 3500, 2, -0.5
*EQUATION
3
6368, 3, 1.0, 3499, 3, -0.5, 3500, 3, -0.5
*EQUATION
5
6369, 1, 1.0, 3495, 1, -0.25, 3499, 1, -0.25, 3501, 1, -0.25, 3497, 1, -0.25
*EQUATION
5
6369, 2, 1.0, 3495, 2, -0.25, 3499, 2, -0.25, 3501, 2, -0.25, 3497, 2, -0.25
*EQUATION
5
6369, 3, 1.0, 3495, 3, -0.25, 3499, 3, -0.25, 3501, 3, -0.25, 3497, 3, -0.25
*EQUATION
5
6371, 1, 1.0, 3496, 1, -0.25, 3500, 1, -0.25, 354, 1, -0.25, 3498, 1, -0.25
*EQUATION
5
6371, 2, 1.0, 3496, 2, -0.25, 3500, 2, -0.25, 354, 2, -0.25, 3498, 2, -0.25
*EQUATION
5
6371, 3, 1.0, 3496, 3, -0.25, 3500, 3, -0.25, 354, 3, -0.25, 3498, 3, -0.25
*EQUATION
3
6372, 1, 1.0, 3497, 1, -0.5, 3501, 1, -0.5
*EQUATION
3
6372, 2, 1.0, 3497, 2, -0.5, 3501, 2, -0.5
*EQUATION
3
6372, 3, 1.0, 3497, 3, -0.5, 3501, 3, -0.5
*EQUATION
3
6374, 1, 1.0, 354, 1, -0.5, 3498, 1, -0.5
*EQUATION
3
6374, 2, 1.0, 354, 2, -0.5, 3498, 2, -0.5
*EQUATION
3
6374, 3, 1.0, 354, 3, -0.5, 3498, 3, -0.5
*EQUATION
3
6375, 1, 1.0, 3499, 1, -0.5, 3501, 1, -0.5
*EQUATION
3
6375, 2, 1.0, 3499, 2, -0.5, 3501, 2, -0.5
*EQUATION
3
6375, 3, 1.0, 3499, 3, -0.5, 3501, 3, -0.5
*EQUATION
5
6376, 1, 1.0, 3499, 1, -0.25, 3501, 1, -0.25, 354, 1, -0.25, 3500, 1, -0.25
*EQUATION
5
6376, 2, 1.0, 3499, 2, -0.25, 3501, 2, -0.25, 354, 2, -0.25, 3500, 2, -0.25
*EQUATION
5
6376, 3, 1.0, 3499, 3, -0.25, 3501, 3, -0.25, 354, 3, -0.25, 3500, 3, -0.25
*EQUATION
3
6377, 1, 1.0, 354, 1, -0.5, 3500, 1, -0.5
*EQUATION
3
6377, 2, 1.0, 354, 2, -0.5, 3500, 2, -0.5
*EQUATION
3
6377, 3, 1.0, 354, 3, -0.5, 3500, 3, -0.5
*EQUATION
3
6378, 1, 1.0, 354, 1, -0.5, 3501, 1, -0.5
*EQUATION
3
6378, 2, 1.0, 354, 2, -0.5, 3501, 2, -0.5
*EQUATION
3
6378, 3, 1.0, 354, 3, -0.5, 3501, 3, -0.5
*EQUATION
3
6379, 1, 1.0, 316, 1, -0.5, 364, 1, -0.5
*EQUATION
3
6379, 2, 1.0, 316, 2, -0.5, 364, 2, -0.5
*EQUATION
3
6379, 3, 1.0, 316, 3, -0.5, 364, 3, -0.5
*EQUATION
5
6380, 1, 1.0, 316, 1, -0.25, 364, 1, -0.25, 365, 1, -0.25, 317, 1, -0.25
*EQUATION
5
6380, 2, 1.0, 316, 2, -0.25, 364, 2, -0.25, 365, 2, -0.25, 317, 2, -0.25
*EQUATION
5
6380, 3, 1.0, 316, 3, -0.25, 364, 3, -0.25, 365, 3, -0.25, 317, 3, -0.25
*EQUATION
3
6381, 1, 1.0, 317, 1, -0.5, 365, 1, -0.5
*EQUATION
3
6381, 2, 1.0, 317, 2, -0.5, 365, 2, -0.5
*EQUATION
3
6381, 3, 1.0, 317, 3, -0.5, 365, 3, -0.5
*EQUATION
5
6384, 1, 1.0, 317, 1, -0.25, 365, 1, -0.25, 367, 1, -0.25, 319, 1, -0.25
*EQUATION
5
6384, 2, 1.0, 317, 2, -0.25, 365, 2, -0.25, 367, 2, -0.25, 319, 2, -0.25
*EQUATION
5
6384, 3, 1.0, 317, 3, -0.25, 365, 3, -0.25, 367, 3, -0.25, 319, 3, -0.25
*EQUATION
3
6385, 1, 1.0, 364, 1, -0.5, 365, 1, -0.5
*EQUATION
3
6385, 2, 1.0, 364, 2, -0.5, 365, 2, -0.5
*EQUATION
3
6385, 3, 1.0, 364, 3, -0.5, 365, 3, -0.5
*EQUATION
3
6386, 1, 1.0, 347, 1, -0.5, 364, 1, -0.5
*EQUATION
3
6386, 2, 1.0, 347, 2, -0.5, 364, 2, -0.5
*EQUATION
3
6386, 3, 1.0, 347, 3, -0.5, 364, 3, -0.5
*EQUATION
5
6387, 1, 1.0, 364, 1, -0.25, 347, 1, -0.25, 367, 1, -0.25, 365, 1, -0.25
*EQUATION
5
6387, 2, 1.0, 364, 2, -0.25, 347, 2, -0.25, 367, 2, -0.25, 365, 2, -0.25
*EQUATION
5
6387, 3, 1.0, 364, 3, -0.25, 347, 3, -0.25, 367, 3, -0.25, 365, 3, -0.25
*EQUATION
3
6388, 1, 1.0, 365, 1, -0.5, 367, 1, -0.5
*EQUATION
3
6388, 2, 1.0, 365, 2, -0.5, 367, 2, -0.5
*EQUATION
3
6388, 3, 1.0, 365, 3, -0.5, 367, 3, -0.5
*EQUATION
5
6389, 1, 1.0, 3368, 1, -0.25, 3461, 1, -0.25, 4653, 1, -0.25, 4597, 1, -0.25
*EQUATION
5
6389, 2, 1.0, 3368, 2, -0.25, 3461, 2, -0.25, 4653, 2, -0.25, 4597, 2, -0.25
*EQUATION
5
6389, 3, 1.0, 3368, 3, -0.25, 3461, 3, -0.25, 4653, 3, -0.25, 4597, 3, -0.25
*EQUATION
3
6390, 1, 1.0, 4597, 1, -0.5, 4653, 1, -0.5
*EQUATION
3
6390, 2, 1.0, 4597, 2, -0.5, 4653, 2, -0.5
*EQUATION
3
6390, 3, 1.0, 4597, 3, -0.5, 4653, 3, -0.5
*EQUATION
5
6392, 1, 1.0, 4597, 1, -0.25, 4653, 1, -0.25, 4655, 1, -0.25, 4599, 1, -0.25
*EQUATION
5
6392, 2, 1.0, 4597, 2, -0.25, 4653, 2, -0.25, 4655, 2, -0.25, 4599, 2, -0.25
*EQUATION
5
6392, 3, 1.0, 4597, 3, -0.25, 4653, 3, -0.25, 4655, 3, -0.25, 4599, 3, -0.25
*EQUATION
3
6394, 1, 1.0, 4599, 1, -0.5, 4655, 1, -0.5
*EQUATION
3
6394, 2, 1.0, 4599, 2, -0.5, 4655, 2, -0.5
*EQUATION
3
6394, 3, 1.0, 4599, 3, -0.5, 4655, 3, -0.5
*EQUATION
3
6395, 1, 1.0, 3461, 1, -0.5, 4653, 1, -0.5
*EQUATION
3
6395, 2, 1.0, 3461, 2, -0.5, 4653, 2, -0.5
*EQUATION
3
6395, 3, 1.0, 3461, 3, -0.5, 4653, 3, -0.5
*EQUATION
5
6396, 1, 1.0, 3461, 1, -0.25, 3463, 1, -0.25, 4655, 1, -0.25, 4653, 1, -0.25
*EQUATION
5
6396, 2, 1.0, 3461, 2, -0.25, 3463, 2, -0.25, 4655, 2, -0.25, 4653, 2, -0.25
*EQUATION
5
6396, 3, 1.0, 3461, 3, -0.25, 3463, 3, -0.25, 4655, 3, -0.25, 4653, 3, -0.25
*EQUATION
3
6397, 1, 1.0, 4653, 1, -0.5, 4655, 1, -0.5
*EQUATION
3
6397, 2, 1.0, 4653, 2, -0.5, 4655, 2, -0.5
*EQUATION
3
6397, 3, 1.0, 4653, 3, -0.5, 4655, 3, -0.5
*EQUATION
3
6398, 1, 1.0, 3463, 1, -0.5, 4655, 1, -0.5
*EQUATION
3
6398, 2, 1.0, 3463, 2, -0.5, 4655, 2, -0.5
*EQUATION
3
6398, 3, 1.0, 3463, 3, -0.5, 4655, 3, -0.5
*EQUATION
5
6399, 1, 1.0, 319, 1, -0.25, 367, 1, -0.25, 368, 1, -0.25, 320, 1, -0.25
*EQUATION
5
6399, 2, 1.0, 319, 2, -0.25, 367, 2, -0.25, 368, 2, -0.25, 320, 2, -0.25
*EQUATION
5
6399, 3, 1.0, 319, 3, -0.25, 367, 3, -0.25, 368, 3, -0.25, 320, 3, -0.25
*EQUATION
3
6400, 1, 1.0, 320, 1, -0.5, 368, 1, -0.5
*EQUATION
3
6400, 2, 1.0, 320, 2, -0.5, 368, 2, -0.5
*EQUATION
3
6400, 3, 1.0, 320, 3, -0.5, 368, 3, -0.5
*EQUATION
3
6405, 1, 1.0, 367, 1, -0.5, 368, 1, -0.5
*EQUATION
3
6405, 2, 1.0, 367, 2, -0.5, 368, 2, -0.5
*EQUATION
3
6405, 3, 1.0, 367, 3, -0.5, 368, 3, -0.5
*EQUATION
5
6406, 1, 1.0, 367, 1, -0.25, 369, 1, -0.25, 370, 1, -0.25, 368, 1, -0.25
*EQUATION
5
6406, 2, 1.0, 367, 2, -0.25, 369, 2, -0.25, 370, 2, -0.25, 368, 2, -0.25
*EQUATION
5
6406, 3, 1.0, 367, 3, -0.25, 369, 3, -0.25, 370, 3, -0.25, 368, 3, -0.25
*EQUATION
3
6407, 1, 1.0, 368, 1, -0.5, 370, 1, -0.5
*EQUATION
3
6407, 2, 1.0, 368, 2, -0.5, 370, 2, -0.5
*EQUATION
3
6407, 3, 1.0, 368, 3, -0.5, 370, 3, -0.5
*EQUATION
3
6408, 1, 1.0, 369, 1, -0.5, 370, 1, -0.5
*EQUATION
3
6408, 2, 1.0, 369, 2, -0.5, 370, 2, -0.5
*EQUATION
3
6408, 3, 1.0, 369, 3, -0.5, 370, 3, -0.5
*EQUATION
5
6410, 1, 1.0, 4599, 1, -0.25, 4655, 1, -0.25, 4661, 1, -0.25, 4604, 1, -0.25
*EQUATION
5
6410, 2, 1.0, 4599, 2, -0.25, 4655, 2, -0.25, 4661, 2, -0.25, 4604, 2, -0.25
*EQUATION
5
6410, 3, 1.0, 4599, 3, -0.25, 4655, 3, -0.25, 4661, 3, -0.25, 4604, 3, -0.25
*EQUATION
5
6411, 1, 1.0, 3422, 1, -0.25, 3496, 1, -0.25, 4661, 1, -0.25, 4604, 1, -0.25
*EQUATION
5
6411, 2, 1.0, 3422, 2, -0.25, 3496, 2, -0.25, 4661, 2, -0.25, 4604, 2, -0.25
*EQUATION
5
6411, 3, 1.0, 3422, 3, -0.25, 3496, 3, -0.25, 4661, 3, -0.25, 4604, 3, -0.25
*EQUATION
3
6412, 1, 1.0, 4604, 1, -0.5, 4661, 1, -0.5
*EQUATION
3
6412, 2, 1.0, 4604, 2, -0.5, 4661, 2, -0.5
*EQUATION
3
6412, 3, 1.0, 4604, 3, -0.5, 4661, 3, -0.5
*EQUATION
5
6413, 1, 1.0, 3463, 1, -0.25, 3496, 1, -0.25, 4661, 1, -0.25, 4655, 1, -0.25
*EQUATION
5
6413, 2, 1.0, 3463, 2, -0.25, 3496, 2, -0.25, 4661, 2, -0.25, 4655, 2, -0.25
*EQUATION
5
6413, 3, 1.0, 3463, 3, -0.25, 3496, 3, -0.25, 4661, 3, -0.25, 4655, 3, -0.25
*EQUATION
3
6414, 1, 1.0, 4655, 1, -0.5, 4661, 1, -0.5
*EQUATION
3
6414, 2, 1.0, 4655, 2, -0.5, 4661, 2, -0.5
*EQUATION
3
6414, 3, 1.0, 4655, 3, -0.5, 4661, 3, -0.5
*EQUATION
3
6415, 1, 1.0, 3496, 1, -0.5, 4661, 1, -0.5
*EQUATION
3
6415, 2, 1.0, 3496, 2, -0.5, 4661, 2, -0.5
*EQUATION
3
6415, 3, 1.0, 3496, 3, -0.5, 4661, 3, -0.5
*EQUATION
5
6418, 1, 1.0, 323, 1, -0.25, 371, 1, -0.25, 372, 1, -0.25, 324, 1, -0.25
*EQUATION
5
6418, 2, 1.0, 323, 2, -0.25, 371, 2, -0.25, 372, 2, -0.25, 324, 2, -0.25
*EQUATION
5
6418, 3, 1.0, 323, 3, -0.25, 371, 3, -0.25, 372, 3, -0.25, 324, 3, -0.25
*EQUATION
3
6419, 1, 1.0, 324, 1, -0.5, 372, 1, -0.5
*EQUATION
3
6419, 2, 1.0, 324, 2, -0.5, 372, 2, -0.5
*EQUATION
3
6419, 3, 1.0, 324, 3, -0.5, 372, 3, -0.5
*EQUATION
5
6420, 1, 1.0, 369, 1, -0.25, 371, 1, -0.25, 372, 1, -0.25, 370, 1, -0.25
*EQUATION
5
6420, 2, 1.0, 369, 2, -0.25, 371, 2, -0.25, 372, 2, -0.25, 370, 2, -0.25
*EQUATION
5
6420, 3, 1.0, 369, 3, -0.25, 371, 3, -0.25, 372, 3, -0.25, 370, 3, -0.25
*EQUATION
3
6421, 1, 1.0, 370, 1, -0.5, 372, 1, -0.5
*EQUATION
3
6421, 2, 1.0, 370, 2, -0.5, 372, 2, -0.5
*EQUATION
3
6421, 3, 1.0, 370, 3, -0.5, 372, 3, -0.5
*EQUATION
3
6422, 1, 1.0, 371, 1, -0.5, 372, 1, -0.5
*EQUATION
3
6422, 2, 1.0, 371, 2, -0.5, 372, 2, -0.5
*EQUATION
3
6422, 3, 1.0, 371, 3, -0.5, 372, 3, -0.5
*EQUATION
5
6425, 1, 1.0, 323, 1, -0.25, 371, 1, -0.25, 374, 1, -0.25, 326, 1, -0.25
*EQUATION
5
6425, 2, 1.0, 323, 2, -0.25, 371, 2, -0.25, 374, 2, -0.25, 326, 2, -0.25
*EQUATION
5
6425, 3, 1.0, 323, 3, -0.25, 371, 3, -0.25, 374, 3, -0.25, 326, 3, -0.25
*EQUATION
3
6426, 1, 1.0, 325, 1, -0.5, 373, 1, -0.5
*EQUATION
3
6426, 2, 1.0, 325, 2, -0.5, 373, 2, -0.5
*EQUATION
3
6426, 3, 1.0, 325, 3, -0.5, 373, 3, -0.5
*EQUATION
5
6427, 1, 1.0, 325, 1, -0.25, 373, 1, -0.25, 374, 1, -0.25, 326, 1, -0.25
*EQUATION
5
6427, 2, 1.0, 325, 2, -0.25, 373, 2, -0.25, 374, 2, -0.25, 326, 2, -0.25
*EQUATION
5
6427, 3, 1.0, 325, 3, -0.25, 373, 3, -0.25, 374, 3, -0.25, 326, 3, -0.25
*EQUATION
3
6428, 1, 1.0, 326, 1, -0.5, 374, 1, -0.5
*EQUATION
3
6428, 2, 1.0, 326, 2, -0.5, 374, 2, -0.5
*EQUATION
3
6428, 3, 1.0, 326, 3, -0.5, 374, 3, -0.5
*EQUATION
3
6429, 1, 1.0, 354, 1, -0.5, 373, 1, -0.5
*EQUATION
3
6429, 2, 1.0, 354, 2, -0.5, 373, 2, -0.5
*EQUATION
3
6429, 3, 1.0, 354, 3, -0.5, 373, 3, -0.5
*EQUATION
5
6430, 1, 1.0, 354, 1, -0.25, 373, 1, -0.25, 374, 1, -0.25, 371, 1, -0.25
*EQUATION
5
6430, 2, 1.0, 354, 2, -0.25, 373, 2, -0.25, 374, 2, -0.25, 371, 2, -0.25
*EQUATION
5
6430, 3, 1.0, 354, 3, -0.25, 373, 3, -0.25, 374, 3, -0.25, 371, 3, -0.25
*EQUATION
3
6431, 1, 1.0, 371, 1, -0.5, 374, 1, -0.5
*EQUATION
3
6431, 2, 1.0, 371, 2, -0.5, 374, 2, -0.5
*EQUATION
3
6431, 3, 1.0, 371, 3, -0.5, 374, 3, -0.5
*EQUATION
3
6432, 1, 1.0, 373, 1, -0.5, 374, 1, -0.5
*EQUATION
3
6432, 2, 1.0, 373, 2, -0.5, 374, 2, -0.5
*EQUATION
3
6432, 3, 1.0, 373, 3, -0.5, 374, 3, -0.5
*EQUATION
3
6433, 1, 1.0, 345, 1, -0.5, 3464, 1, -0.5
*EQUATION
3
6433, 2, 1.0, 345, 2, -0.5, 3464, 2, -0.5
*EQUATION
3
6433, 3, 1.0, 345, 3, -0.5, 3464, 3, -0.5
*EQUATION
3
6434, 1, 1.0, 345, 1, -0.5, 3456, 1, -0.5
*EQUATION
3
6434, 2, 1.0, 345, 2, -0.5, 3456, 2, -0.5
*EQUATION
3
6434, 3, 1.0, 345, 3, -0.5, 3456, 3, -0.5
*EQUATION
5
6435, 1, 1.0, 345, 1, -0.25, 3456, 1, -0.25, 3465, 1, -0.25, 3464, 1, -0.25
*EQUATION
5
6435, 2, 1.0, 345, 2, -0.25, 3456, 2, -0.25, 3465, 2, -0.25, 3464, 2, -0.25
*EQUATION
5
6435, 3, 1.0, 345, 3, -0.25, 3456, 3, -0.25, 3465, 3, -0.25, 3464, 3, -0.25
*EQUATION
3
6436, 1, 1.0, 3456, 1, -0.5, 3465, 1, -0.5
*EQUATION
3
6436, 2, 1.0, 3456, 2, -0.5, 3465, 2, -0.5
*EQUATION
3
6436, 3, 1.0, 3456, 3, -0.5, 3465, 3, -0.5
*EQUATION
3
6437, 1, 1.0, 345, 1, -0.5, 4669, 1, -0.5
*EQUATION
3
6437, 2, 1.0, 345, 2, -0.5, 4669, 2, -0.5
*EQUATION
3
6437, 3, 1.0, 345, 3, -0.5, 4669, 3, -0.5
*EQUATION
3
6439, 1, 1.0, 3464, 1, -0.5, 4678, 1, -0.5
*EQUATION
3
6439, 2, 1.0, 3464, 2, -0.5, 4678, 2, -0.5
*EQUATION
3
6439, 3, 1.0, 3464, 3, -0.5, 4678, 3, -0.5
*EQUATION
5
6440, 1, 1.0, 345, 1, -0.25, 4669, 1, -0.25, 4671, 1, -0.25, 3456, 1, -0.25
*EQUATION
5
6440, 2, 1.0, 345, 2, -0.25, 4669, 2, -0.25, 4671, 2, -0.25, 3456, 2, -0.25
*EQUATION
5
6440, 3, 1.0, 345, 3, -0.25, 4669, 3, -0.25, 4671, 3, -0.25, 3456, 3, -0.25
*EQUATION
5
6442, 1, 1.0, 3464, 1, -0.25, 4678, 1, -0.25, 4680, 1, -0.25, 3465, 1, -0.25
*EQUATION
5
6442, 2, 1.0, 3464, 2, -0.25, 4678, 2, -0.25, 4680, 2, -0.25, 3465, 2, -0.25
*EQUATION
5
6442, 3, 1.0, 3464, 3, -0.25, 4678, 3, -0.25, 4680, 3, -0.25, 3465, 3, -0.25
*EQUATION
3
6443, 1, 1.0, 3456, 1, -0.5, 4671, 1, -0.5
*EQUATION
3
6443, 2, 1.0, 3456, 2, -0.5, 4671, 2, -0.5
*EQUATION
3
6443, 3, 1.0, 3456, 3, -0.5, 4671, 3, -0.5
*EQUATION
3
6445, 1, 1.0, 3465, 1, -0.5, 4680, 1, -0.5
*EQUATION
3
6445, 2, 1.0, 3465, 2, -0.5, 4680, 2, -0.5
*EQUATION
3
6445, 3, 1.0, 3465, 3, -0.5, 4680, 3, -0.5
*EQUATION
3
6447, 1, 1.0, 4669, 1, -0.5, 4671, 1, -0.5
*EQUATION
3
6447, 2, 1.0, 4669, 2, -0.5, 4671, 2, -0.5
*EQUATION
3
6447, 3, 1.0, 4669, 3, -0.5, 4671, 3, -0.5
*EQUATION
3
6449, 1, 1.0, 4678, 1, -0.5, 4680, 1, -0.5
*EQUATION
3
6449, 2, 1.0, 4678, 2, -0.5, 4680, 2, -0.5
*EQUATION
3
6449, 3, 1.0, 4678, 3, -0.5, 4680, 3, -0.5
*EQUATION
3
6450, 1, 1.0, 4671, 1, -0.5, 4680, 1, -0.5
*EQUATION
3
6450, 2, 1.0, 4671, 2, -0.5, 4680, 2, -0.5
*EQUATION
3
6450, 3, 1.0, 4671, 3, -0.5, 4680, 3, -0.5
*EQUATION
3
6451, 1, 1.0, 346, 1, -0.5, 3456, 1, -0.5
*EQUATION
3
6451, 2, 1.0, 346, 2, -0.5, 3456, 2, -0.5
*EQUATION
3
6451, 3, 1.0, 346, 3, -0.5, 3456, 3, -0.5
*EQUATION
5
6452, 1, 1.0, 3456, 1, -0.25, 346, 1, -0.25, 3467, 1, -0.25, 3465, 1, -0.25
*EQUATION
5
6452, 2, 1.0, 3456, 2, -0.25, 346, 2, -0.25, 3467, 2, -0.25, 3465, 2, -0.25
*EQUATION
5
6452, 3, 1.0, 3456, 3, -0.25, 346, 3, -0.25, 3467, 3, -0.25, 3465, 3, -0.25
*EQUATION
3
6453, 1, 1.0, 346, 1, -0.5, 3467, 1, -0.5
*EQUATION
3
6453, 2, 1.0, 346, 2, -0.5, 3467, 2, -0.5
*EQUATION
3
6453, 3, 1.0, 346, 3, -0.5, 3467, 3, -0.5
*EQUATION
5
6454, 1, 1.0, 3456, 1, -0.25, 4671, 1, -0.25, 4673, 1, -0.25, 346, 1, -0.25
*EQUATION
5
6454, 2, 1.0, 3456, 2, -0.25, 4671, 2, -0.25, 4673, 2, -0.25, 346, 2, -0.25
*EQUATION
5
6454, 3, 1.0, 3456, 3, -0.25, 4671, 3, -0.25, 4673, 3, -0.25, 346, 3, -0.25
*EQUATION
5
6456, 1, 1.0, 3465, 1, -0.25, 4680, 1, -0.25, 4682, 1, -0.25, 3467, 1, -0.25
*EQUATION
5
6456, 2, 1.0, 3465, 2, -0.25, 4680, 2, -0.25, 4682, 2, -0.25, 3467, 2, -0.25
*EQUATION
5
6456, 3, 1.0, 3465, 3, -0.25, 4680, 3, -0.25, 4682, 3, -0.25, 3467, 3, -0.25
*EQUATION
3
6457, 1, 1.0, 346, 1, -0.5, 4673, 1, -0.5
*EQUATION
3
6457, 2, 1.0, 346, 2, -0.5, 4673, 2, -0.5
*EQUATION
3
6457, 3, 1.0, 346, 3, -0.5, 4673, 3, -0.5
*EQUATION
3
6459, 1, 1.0, 3467, 1, -0.5, 4682, 1, -0.5
*EQUATION
3
6459, 2, 1.0, 3467, 2, -0.5, 4682, 2, -0.5
*EQUATION
3
6459, 3, 1.0, 3467, 3, -0.5, 4682, 3, -0.5
*EQUATION
3
6460, 1, 1.0, 4671, 1, -0.5, 4673, 1, -0.5
*EQUATION
3
6460, 2, 1.0, 4671, 2, -0.5, 4673, 2, -0.5
*EQUATION
3
6460, 3, 1.0, 4671, 3, -0.5, 4673, 3, -0.5
*EQUATION
5
6461, 1, 1.0, 4671, 1, -0.25, 4673, 1, -0.25, 4682, 1, -0.25, 4680, 1, -0.25
*EQUATION
5
6461, 2, 1.0, 4671, 2, -0.25, 4673, 2, -0.25, 4682, 2, -0.25, 4680, 2, -0.25
*EQUATION
5
6461, 3, 1.0, 4671, 3, -0.25, 4673, 3, -0.25, 4682, 3, -0.25, 4680, 3, -0.25
*EQUATION
3
6462, 1, 1.0, 4680, 1, -0.5, 4682, 1, -0.5
*EQUATION
3
6462, 2, 1.0, 4680, 2, -0.5, 4682, 2, -0.5
*EQUATION
3
6462, 3, 1.0, 4680, 3, -0.5, 4682, 3, -0.5
*EQUATION
3
6463, 1, 1.0, 4673, 1, -0.5, 4682, 1, -0.5
*EQUATION
3
6463, 2, 1.0, 4673, 2, -0.5, 4682, 2, -0.5
*EQUATION
3
6463, 3, 1.0, 4673, 3, -0.5, 4682, 3, -0.5
*EQUATION
3
6464, 1, 1.0, 393, 1, -0.5, 4669, 1, -0.5
*EQUATION
3
6464, 2, 1.0, 393, 2, -0.5, 4669, 2, -0.5
*EQUATION
3
6464, 3, 1.0, 393, 3, -0.5, 4669, 3, -0.5
*EQUATION
3
6466, 1, 1.0, 4678, 1, -0.5, 4684, 1, -0.5
*EQUATION
3
6466, 2, 1.0, 4678, 2, -0.5, 4684, 2, -0.5
*EQUATION
3
6466, 3, 1.0, 4678, 3, -0.5, 4684, 3, -0.5
*EQUATION
5
6467, 1, 1.0, 4669, 1, -0.25, 393, 1, -0.25, 4676, 1, -0.25, 4671, 1, -0.25
*EQUATION
5
6467, 2, 1.0, 4669, 2, -0.25, 393, 2, -0.25, 4676, 2, -0.25, 4671, 2, -0.25
*EQUATION
5
6467, 3, 1.0, 4669, 3, -0.25, 393, 3, -0.25, 4676, 3, -0.25, 4671, 3, -0.25
*EQUATION
5
6469, 1, 1.0, 4678, 1, -0.25, 4684, 1, -0.25, 4685, 1, -0.25, 4680, 1, -0.25
*EQUATION
5
6469, 2, 1.0, 4678, 2, -0.25, 4684, 2, -0.25, 4685, 2, -0.25, 4680, 2, -0.25
*EQUATION
5
6469, 3, 1.0, 4678, 3, -0.25, 4684, 3, -0.25, 4685, 3, -0.25, 4680, 3, -0.25
*EQUATION
3
6470, 1, 1.0, 4671, 1, -0.5, 4676, 1, -0.5
*EQUATION
3
6470, 2, 1.0, 4671, 2, -0.5, 4676, 2, -0.5
*EQUATION
3
6470, 3, 1.0, 4671, 3, -0.5, 4676, 3, -0.5
*EQUATION
5
6471, 1, 1.0, 4671, 1, -0.25, 4676, 1, -0.25, 4685, 1, -0.25, 4680, 1, -0.25
*EQUATION
5
6471, 2, 1.0, 4671, 2, -0.25, 4676, 2, -0.25, 4685, 2, -0.25, 4680, 2, -0.25
*EQUATION
5
6471, 3, 1.0, 4671, 3, -0.25, 4676, 3, -0.25, 4685, 3, -0.25, 4680, 3, -0.25
*EQUATION
3
6472, 1, 1.0, 4680, 1, -0.5, 4685, 1, -0.5
*EQUATION
3
6472, 2, 1.0, 4680, 2, -0.5, 4685, 2, -0.5
*EQUATION
3
6472, 3, 1.0, 4680, 3, -0.5, 4685, 3, -0.5
*EQUATION
3
6474, 1, 1.0, 393, 1, -0.5, 4676, 1, -0.5
*EQUATION
3
6474, 2, 1.0, 393, 2, -0.5, 4676, 2, -0.5
*EQUATION
3
6474, 3, 1.0, 393, 3, -0.5, 4676, 3, -0.5
*EQUATION
3
6476, 1, 1.0, 4684, 1, -0.5, 4685, 1, -0.5
*EQUATION
3
6476, 2, 1.0, 4684, 2, -0.5, 4685, 2, -0.5
*EQUATION
3
6476, 3, 1.0, 4684, 3, -0.5, 4685, 3, -0.5
*EQUATION
3
6477, 1, 1.0, 4676, 1, -0.5, 4685, 1, -0.5
*EQUATION
3
6477, 2, 1.0, 4676, 2, -0.5, 4685, 2, -0.5
*EQUATION
3
6477, 3, 1.0, 4676, 3, -0.5, 4685, 3, -0.5
*EQUATION
3
6478, 1, 1.0, 346, 1, -0.5, 3493, 1, -0.5
*EQUATION
3
6478, 2, 1.0, 346, 2, -0.5, 3493, 2, -0.5
*EQUATION
3
6478, 3, 1.0, 346, 3, -0.5, 3493, 3, -0.5
*EQUATION
5
6479, 1, 1.0, 346, 1, -0.25, 3493, 1, -0.25, 3499, 1, -0.25, 3467, 1, -0.25
*EQUATION
5
6479, 2, 1.0, 346, 2, -0.25, 3493, 2, -0.25, 3499, 2, -0.25, 3467, 2, -0.25
*EQUATION
5
6479, 3, 1.0, 346, 3, -0.25, 3493, 3, -0.25, 3499, 3, -0.25, 3467, 3, -0.25
*EQUATION
3
6480, 1, 1.0, 3493, 1, -0.5, 3499, 1, -0.5
*EQUATION
3
6480, 2, 1.0, 3493, 2, -0.5, 3499, 2, -0.5
*EQUATION
3
6480, 3, 1.0, 3493, 3, -0.5, 3499, 3, -0.5
*EQUATION
5
6481, 1, 1.0, 346, 1, -0.25, 4673, 1, -0.25, 4689, 1, -0.25, 3493, 1, -0.25
*EQUATION
5
6481, 2, 1.0, 346, 2, -0.25, 4673, 2, -0.25, 4689, 2, -0.25, 3493, 2, -0.25
*EQUATION
5
6481, 3, 1.0, 346, 3, -0.25, 4673, 3, -0.25, 4689, 3, -0.25, 3493, 3, -0.25
*EQUATION
5
6483, 1, 1.0, 3467, 1, -0.25, 4682, 1, -0.25, 4695, 1, -0.25, 3499, 1, -0.25
*EQUATION
5
6483, 2, 1.0, 3467, 2, -0.25, 4682, 2, -0.25, 4695, 2, -0.25, 3499, 2, -0.25
*EQUATION
5
6483, 3, 1.0, 3467, 3, -0.25, 4682, 3, -0.25, 4695, 3, -0.25, 3499, 3, -0.25
*EQUATION
3
6484, 1, 1.0, 3493, 1, -0.5, 4689, 1, -0.5
*EQUATION
3
6484, 2, 1.0, 3493, 2, -0.5, 4689, 2, -0.5
*EQUATION
3
6484, 3, 1.0, 3493, 3, -0.5, 4689, 3, -0.5
*EQUATION
3
6486, 1, 1.0, 3499, 1, -0.5, 4695, 1, -0.5
*EQUATION
3
6486, 2, 1.0, 3499, 2, -0.5, 4695, 2, -0.5
*EQUATION
3
6486, 3, 1.0, 3499, 3, -0.5, 4695, 3, -0.5
*EQUATION
3
6487, 1, 1.0, 4673, 1, -0.5, 4689, 1, -0.5
*EQUATION
3
6487, 2, 1.0, 4673, 2, -0.5, 4689, 2, -0.5
*EQUATION
3
6487, 3, 1.0, 4673, 3, -0.5, 4689, 3, -0.5
*EQUATION
5
6488, 1, 1.0, 4673, 1, -0.25, 4689, 1, -0.25, 4695, 1, -0.25, 4682, 1, -0.25
*EQUATION
5
6488, 2, 1.0, 4673, 2, -0.25, 4689, 2, -0.25, 4695, 2, -0.25, 4682, 2, -0.25
*EQUATION
5
6488, 3, 1.0, 4673, 3, -0.25, 4689, 3, -0.25, 4695, 3, -0.25, 4682, 3, -0.25
*EQUATION
3
6489, 1, 1.0, 4682, 1, -0.5, 4695, 1, -0.5
*EQUATION
3
6489, 2, 1.0, 4682, 2, -0.5, 4695, 2, -0.5
*EQUATION
3
6489, 3, 1.0, 4682, 3, -0.5, 4695, 3, -0.5
*EQUATION
3
6490, 1, 1.0, 4689, 1, -0.5, 4695, 1, -0.5
*EQUATION
3
6490, 2, 1.0, 4689, 2, -0.5, 4695, 2, -0.5
*EQUATION
3
6490, 3, 1.0, 4689, 3, -0.5, 4695, 3, -0.5
*EQUATION
3
6491, 1, 1.0, 353, 1, -0.5, 3493, 1, -0.5
*EQUATION
3
6491, 2, 1.0, 353, 2, -0.5, 3493, 2, -0.5
*EQUATION
3
6491, 3, 1.0, 353, 3, -0.5, 3493, 3, -0.5
*EQUATION
5
6492, 1, 1.0, 3493, 1, -0.25, 353, 1, -0.25, 3501, 1, -0.25, 3499, 1, -0.25
*EQUATION
5
6492, 2, 1.0, 3493, 2, -0.25, 353, 2, -0.25, 3501, 2, -0.25, 3499, 2, -0.25
*EQUATION
5
6492, 3, 1.0, 3493, 3, -0.25, 353, 3, -0.25, 3501, 3, -0.25, 3499, 3, -0.25
*EQUATION
3
6493, 1, 1.0, 353, 1, -0.5, 3501, 1, -0.5
*EQUATION
3
6493, 2, 1.0, 353, 2, -0.5, 3501, 2, -0.5
*EQUATION
3
6493, 3, 1.0, 353, 3, -0.5, 3501, 3, -0.5
*EQUATION
5
6494, 1, 1.0, 3493, 1, -0.25, 4689, 1, -0.25, 4691, 1, -0.25, 353, 1, -0.25
*EQUATION
5
6494, 2, 1.0, 3493, 2, -0.25, 4689, 2, -0.25, 4691, 2, -0.25, 353, 2, -0.25
*EQUATION
5
6494, 3, 1.0, 3493, 3, -0.25, 4689, 3, -0.25, 4691, 3, -0.25, 353, 3, -0.25
*EQUATION
5
6496, 1, 1.0, 3499, 1, -0.25, 4695, 1, -0.25, 4697, 1, -0.25, 3501, 1, -0.25
*EQUATION
5
6496, 2, 1.0, 3499, 2, -0.25, 4695, 2, -0.25, 4697, 2, -0.25, 3501, 2, -0.25
*EQUATION
5
6496, 3, 1.0, 3499, 3, -0.25, 4695, 3, -0.25, 4697, 3, -0.25, 3501, 3, -0.25
*EQUATION
3
6497, 1, 1.0, 353, 1, -0.5, 4691, 1, -0.5
*EQUATION
3
6497, 2, 1.0, 353, 2, -0.5, 4691, 2, -0.5
*EQUATION
3
6497, 3, 1.0, 353, 3, -0.5, 4691, 3, -0.5
*EQUATION
3
6499, 1, 1.0, 3501, 1, -0.5, 4697, 1, -0.5
*EQUATION
3
6499, 2, 1.0, 3501, 2, -0.5, 4697, 2, -0.5
*EQUATION
3
6499, 3, 1.0, 3501, 3, -0.5, 4697, 3, -0.5
*EQUATION
3
6500, 1, 1.0, 4689, 1, -0.5, 4691, 1, -0.5
*EQUATION
3
6500, 2, 1.0, 4689, 2, -0.5, 4691, 2, -0.5
*EQUATION
3
6500, 3, 1.0, 4689, 3, -0.5, 4691, 3, -0.5
*EQUATION
3
6502, 1, 1.0, 4695, 1, -0.5, 4697, 1, -0.5
*EQUATION
3
6502, 2, 1.0, 4695, 2, -0.5, 4697, 2, -0.5
*EQUATION
3
6502, 3, 1.0, 4695, 3, -0.5, 4697, 3, -0.5
*EQUATION
3
6504, 1, 1.0, 4689, 1, -0.5, 4693, 1, -0.5
*EQUATION
3
6504, 2, 1.0, 4689, 2, -0.5, 4693, 2, -0.5
*EQUATION
3
6504, 3, 1.0, 4689, 3, -0.5, 4693, 3, -0.5
*EQUATION
5
6505, 1, 1.0, 4689, 1, -0.25, 4693, 1, -0.25, 4699, 1, -0.25, 4695, 1, -0.25
*EQUATION
5
6505, 2, 1.0, 4689, 2, -0.25, 4693, 2, -0.25, 4699, 2, -0.25, 4695, 2, -0.25
*EQUATION
5
6505, 3, 1.0, 4689, 3, -0.25, 4693, 3, -0.25, 4699, 3, -0.25, 4695, 3, -0.25
*EQUATION
3
6506, 1, 1.0, 4695, 1, -0.5, 4699, 1, -0.5
*EQUATION
3
6506, 2, 1.0, 4695, 2, -0.5, 4699, 2, -0.5
*EQUATION
3
6506, 3, 1.0, 4695, 3, -0.5, 4699, 3, -0.5
*EQUATION
5
6507, 1, 1.0, 4689, 1, -0.25, 4693, 1, -0.25, 401, 1, -0.25, 4691, 1, -0.25
*EQUATION
5
6507, 2, 1.0, 4689, 2, -0.25, 4693, 2, -0.25, 401, 2, -0.25, 4691, 2, -0.25
*EQUATION
5
6507, 3, 1.0, 4689, 3, -0.25, 4693, 3, -0.25, 401, 3, -0.25, 4691, 3, -0.25
*EQUATION
5
6509, 1, 1.0, 4695, 1, -0.25, 4699, 1, -0.25, 4701, 1, -0.25, 4697, 1, -0.25
*EQUATION
5
6509, 2, 1.0, 4695, 2, -0.25, 4699, 2, -0.25, 4701, 2, -0.25, 4697, 2, -0.25
*EQUATION
5
6509, 3, 1.0, 4695, 3, -0.25, 4699, 3, -0.25, 4701, 3, -0.25, 4697, 3, -0.25
*EQUATION
3
6510, 1, 1.0, 401, 1, -0.5, 4691, 1, -0.5
*EQUATION
3
6510, 2, 1.0, 401, 2, -0.5, 4691, 2, -0.5
*EQUATION
3
6510, 3, 1.0, 401, 3, -0.5, 4691, 3, -0.5
*EQUATION
3
6512, 1, 1.0, 4697, 1, -0.5, 4701, 1, -0.5
*EQUATION
3
6512, 2, 1.0, 4697, 2, -0.5, 4701, 2, -0.5
*EQUATION
3
6512, 3, 1.0, 4697, 3, -0.5, 4701, 3, -0.5
*EQUATION
3
6513, 1, 1.0, 4693, 1, -0.5, 4699, 1, -0.5
*EQUATION
3
6513, 2, 1.0, 4693, 2, -0.5, 4699, 2, -0.5
*EQUATION
3
6513, 3, 1.0, 4693, 3, -0.5, 4699, 3, -0.5
*EQUATION
3
6514, 1, 1.0, 401, 1, -0.5, 4693, 1, -0.5
*EQUATION
3
6514, 2, 1.0, 401, 2, -0.5, 4693, 2, -0.5
*EQUATION
3
6514, 3, 1.0, 401, 3, -0.5, 4693, 3, -0.5
*EQUATION
3
6516, 1, 1.0, 4699, 1, -0.5, 4701, 1, -0.5
*EQUATION
3
6516, 2, 1.0, 4699, 2, -0.5, 4701, 2, -0.5
*EQUATION
3
6516, 3, 1.0, 4699, 3, -0.5, 4701, 3, -0.5
*EQUATION
5
6518, 1, 1.0, 347, 1, -0.25, 395, 1, -0.25, 415, 1, -0.25, 367, 1, -0.25
*EQUATION
5
6518, 2, 1.0, 347, 2, -0.25, 395, 2, -0.25, 415, 2, -0.25, 367, 2, -0.25
*EQUATION
5
6518, 3, 1.0, 347, 3, -0.25, 395, 3, -0.25, 415, 3, -0.25, 367, 3, -0.25
*EQUATION
3
6519, 1, 1.0, 367, 1, -0.5, 415, 1, -0.5
*EQUATION
3
6519, 2, 1.0, 367, 2, -0.5, 415, 2, -0.5
*EQUATION
3
6519, 3, 1.0, 367, 3, -0.5, 415, 3, -0.5
*EQUATION
5
6521, 1, 1.0, 367, 1, -0.25, 415, 1, -0.25, 417, 1, -0.25, 369, 1, -0.25
*EQUATION
5
6521, 2, 1.0, 367, 2, -0.25, 415, 2, -0.25, 417, 2, -0.25, 369, 2, -0.25
*EQUATION
5
6521, 3, 1.0, 367, 3, -0.25, 415, 3, -0.25, 417, 3, -0.25, 369, 3, -0.25
*EQUATION
3
6523, 1, 1.0, 369, 1, -0.5, 417, 1, -0.5
*EQUATION
3
6523, 2, 1.0, 369, 2, -0.5, 417, 2, -0.5
*EQUATION
3
6523, 3, 1.0, 369, 3, -0.5, 417, 3, -0.5
*EQUATION
3
6524, 1, 1.0, 395, 1, -0.5, 415, 1, -0.5
*EQUATION
3
6524, 2, 1.0, 395, 2, -0.5, 415, 2, -0.5
*EQUATION
3
6524, 3, 1.0, 395, 3, -0.5, 415, 3, -0.5
*EQUATION
3
6526, 1, 1.0, 415, 1, -0.5, 417, 1, -0.5
*EQUATION
3
6526, 2, 1.0, 415, 2, -0.5, 417, 2, -0.5
*EQUATION
3
6526, 3, 1.0, 415, 3, -0.5, 417, 3, -0.5
*EQUATION
5
6529, 1, 1.0, 369, 1, -0.25, 417, 1, -0.25, 419, 1, -0.25, 371, 1, -0.25
*EQUATION
5
6529, 2, 1.0, 369, 2, -0.25, 417, 2, -0.25, 419, 2, -0.25, 371, 2, -0.25
*EQUATION
5
6529, 3, 1.0, 369, 3, -0.25, 417, 3, -0.25, 419, 3, -0.25, 371, 3, -0.25
*EQUATION
5
6530, 1, 1.0, 354, 1, -0.25, 402, 1, -0.25, 419, 1, -0.25, 371, 1, -0.25
*EQUATION
5
6530, 2, 1.0, 354, 2, -0.25, 402, 2, -0.25, 419, 2, -0.25, 371, 2, -0.25
*EQUATION
5
6530, 3, 1.0, 354, 3, -0.25, 402, 3, -0.25, 419, 3, -0.25, 371, 3, -0.25
*EQUATION
3
6531, 1, 1.0, 371, 1, -0.5, 419, 1, -0.5
*EQUATION
3
6531, 2, 1.0, 371, 2, -0.5, 419, 2, -0.5
*EQUATION
3
6531, 3, 1.0, 371, 3, -0.5, 419, 3, -0.5
*EQUATION
3
6533, 1, 1.0, 417, 1, -0.5, 419, 1, -0.5
*EQUATION
3
6533, 2, 1.0, 417, 2, -0.5, 419, 2, -0.5
*EQUATION
3
6533, 3, 1.0, 417, 3, -0.5, 419, 3, -0.5
*EQUATION
3
6534, 1, 1.0, 402, 1, -0.5, 419, 1, -0.5
*EQUATION
3
6534, 2, 1.0, 402, 2, -0.5, 419, 2, -0.5
*EQUATION
3
6534, 3, 1.0, 402, 3, -0.5, 419, 3, -0.5
*EQUATION
3
6535, 1, 1.0, 393, 1, -0.5, 4703, 1, -0.5
*EQUATION
3
6535, 2, 1.0, 393, 2, -0.5, 4703, 2, -0.5
*EQUATION
3
6535, 3, 1.0, 393, 3, -0.5, 4703, 3, -0.5
*EQUATION
3
6537, 1, 1.0, 4684, 1, -0.5, 4712, 1, -0.5
*EQUATION
3
6537, 2, 1.0, 4684, 2, -0.5, 4712, 2, -0.5
*EQUATION
3
6537, 3, 1.0, 4684, 3, -0.5, 4712, 3, -0.5
*EQUATION
5
6538, 1, 1.0, 393, 1, -0.25, 4703, 1, -0.25, 4705, 1, -0.25, 4676, 1, -0.25
*EQUATION
5
6538, 2, 1.0, 393, 2, -0.25, 4703, 2, -0.25, 4705, 2, -0.25, 4676, 2, -0.25
*EQUATION
5
6538, 3, 1.0, 393, 3, -0.25, 4703, 3, -0.25, 4705, 3, -0.25, 4676, 3, -0.25
*EQUATION
5
6540, 1, 1.0, 4684, 1, -0.25, 4712, 1, -0.25, 4714, 1, -0.25, 4685, 1, -0.25
*EQUATION
5
6540, 2, 1.0, 4684, 2, -0.25, 4712, 2, -0.25, 4714, 2, -0.25, 4685, 2, -0.25
*EQUATION
5
6540, 3, 1.0, 4684, 3, -0.25, 4712, 3, -0.25, 4714, 3, -0.25, 4685, 3, -0.25
*EQUATION
3
6541, 1, 1.0, 4676, 1, -0.5, 4705, 1, -0.5
*EQUATION
3
6541, 2, 1.0, 4676, 2, -0.5, 4705, 2, -0.5
*EQUATION
3
6541, 3, 1.0, 4676, 3, -0.5, 4705, 3, -0.5
*EQUATION
3
6543, 1, 1.0, 4685, 1, -0.5, 4714, 1, -0.5
*EQUATION
3
6543, 2, 1.0, 4685, 2, -0.5, 4714, 2, -0.5
*EQUATION
3
6543, 3, 1.0, 4685, 3, -0.5, 4714, 3, -0.5
*EQUATION
3
6544, 1, 1.0, 4703, 1, -0.5, 4712, 1, -0.5
*EQUATION
3
6544, 2, 1.0, 4703, 2, -0.5, 4712, 2, -0.5
*EQUATION
3
6544, 3, 1.0, 4703, 3, -0.5, 4712, 3, -0.5
*EQUATION
3
6545, 1, 1.0, 4703, 1, -0.5, 4705, 1, -0.5
*EQUATION
3
6545, 2, 1.0, 4703, 2, -0.5, 4705, 2, -0.5
*EQUATION
3
6545, 3, 1.0, 4703, 3, -0.5, 4705, 3, -0.5
*EQUATION
5
6546, 1, 1.0, 4703, 1, -0.25, 4705, 1, -0.25, 4714, 1, -0.25, 4712, 1, -0.25
*EQUATION
5
6546, 2, 1.0, 4703, 2, -0.25, 4705, 2, -0.25, 4714, 2, -0.25, 4712, 2, -0.25
*EQUATION
5
6546, 3, 1.0, 4703, 3, -0.25, 4705, 3, -0.25, 4714, 3, -0.25, 4712, 3, -0.25
*EQUATION
3
6547, 1, 1.0, 4712, 1, -0.5, 4714, 1, -0.5
*EQUATION
3
6547, 2, 1.0, 4712, 2, -0.5, 4714, 2, -0.5
*EQUATION
3
6547, 3, 1.0, 4712, 3, -0.5, 4714, 3, -0.5
*EQUATION
3
6548, 1, 1.0, 4705, 1, -0.5, 4714, 1, -0.5
*EQUATION
3
6548, 2, 1.0, 4705, 2, -0.5, 4714, 2, -0.5
*EQUATION
3
6548, 3, 1.0, 4705, 3, -0.5, 4714, 3, -0.5
*EQUATION
3
6549, 1, 1.0, 394, 1, -0.5, 4676, 1, -0.5
*EQUATION
3
6549, 2, 1.0, 394, 2, -0.5, 4676, 2, -0.5
*EQUATION
3
6549, 3, 1.0, 394, 3, -0.5, 4676, 3, -0.5
*EQUATION
5
6550, 1, 1.0, 4676, 1, -0.25, 394, 1, -0.25, 4687, 1, -0.25, 4685, 1, -0.25
*EQUATION
5
6550, 2, 1.0, 4676, 2, -0.25, 394, 2, -0.25, 4687, 2, -0.25, 4685, 2, -0.25
*EQUATION
5
6550, 3, 1.0, 4676, 3, -0.25, 394, 3, -0.25, 4687, 3, -0.25, 4685, 3, -0.25
*EQUATION
3
6551, 1, 1.0, 4685, 1, -0.5, 4687, 1, -0.5
*EQUATION
3
6551, 2, 1.0, 4685, 2, -0.5, 4687, 2, -0.5
*EQUATION
3
6551, 3, 1.0, 4685, 3, -0.5, 4687, 3, -0.5
*EQUATION
3
6552, 1, 1.0, 394, 1, -0.5, 4687, 1, -0.5
*EQUATION
3
6552, 2, 1.0, 394, 2, -0.5, 4687, 2, -0.5
*EQUATION
3
6552, 3, 1.0, 394, 3, -0.5, 4687, 3, -0.5
*EQUATION
5
6553, 1, 1.0, 4676, 1, -0.25, 4705, 1, -0.25, 4707, 1, -0.25, 394, 1, -0.25
*EQUATION
5
6553, 2, 1.0, 4676, 2, -0.25, 4705, 2, -0.25, 4707, 2, -0.25, 394, 2, -0.25
*EQUATION
5
6553, 3, 1.0, 4676, 3, -0.25, 4705, 3, -0.25, 4707, 3, -0.25, 394, 3, -0.25
*EQUATION
5
6555, 1, 1.0, 4685, 1, -0.25, 4714, 1, -0.25, 4716, 1, -0.25, 4687, 1, -0.25
*EQUATION
5
6555, 2, 1.0, 4685, 2, -0.25, 4714, 2, -0.25, 4716, 2, -0.25, 4687, 2, -0.25
*EQUATION
5
6555, 3, 1.0, 4685, 3, -0.25, 4714, 3, -0.25, 4716, 3, -0.25, 4687, 3, -0.25
*EQUATION
3
6556, 1, 1.0, 394, 1, -0.5, 4707, 1, -0.5
*EQUATION
3
6556, 2, 1.0, 394, 2, -0.5, 4707, 2, -0.5
*EQUATION
3
6556, 3, 1.0, 394, 3, -0.5, 4707, 3, -0.5
*EQUATION
3
6558, 1, 1.0, 4687, 1, -0.5, 4716, 1, -0.5
*EQUATION
3
6558, 2, 1.0, 4687, 2, -0.5, 4716, 2, -0.5
*EQUATION
3
6558, 3, 1.0, 4687, 3, -0.5, 4716, 3, -0.5
*EQUATION
3
6559, 1, 1.0, 4705, 1, -0.5, 4707, 1, -0.5
*EQUATION
3
6559, 2, 1.0, 4705, 2, -0.5, 4707, 2, -0.5
*EQUATION
3
6559, 3, 1.0, 4705, 3, -0.5, 4707, 3, -0.5
*EQUATION
5
6560, 1, 1.0, 4705, 1, -0.25, 4707, 1, -0.25, 4716, 1, -0.25, 4714, 1, -0.25
*EQUATION
5
6560, 2, 1.0, 4705, 2, -0.25, 4707, 2, -0.25, 4716, 2, -0.25, 4714, 2, -0.25
*EQUATION
5
6560, 3, 1.0, 4705, 3, -0.25, 4707, 3, -0.25, 4716, 3, -0.25, 4714, 3, -0.25
*EQUATION
3
6561, 1, 1.0, 4714, 1, -0.5, 4716, 1, -0.5
*EQUATION
3
6561, 2, 1.0, 4714, 2, -0.5, 4716, 2, -0.5
*EQUATION
3
6561, 3, 1.0, 4714, 3, -0.5, 4716, 3, -0.5
*EQUATION
3
6562, 1, 1.0, 4707, 1, -0.5, 4716, 1, -0.5
*EQUATION
3
6562, 2, 1.0, 4707, 2, -0.5, 4716, 2, -0.5
*EQUATION
3
6562, 3, 1.0, 4707, 3, -0.5, 4716, 3, -0.5
*EQUATION
3
6563, 1, 1.0, 394, 1, -0.5, 4693, 1, -0.5
*EQUATION
3
6563, 2, 1.0, 394, 2, -0.5, 4693, 2, -0.5
*EQUATION
3
6563, 3, 1.0, 394, 3, -0.5, 4693, 3, -0.5
*EQUATION
5
6564, 1, 1.0, 394, 1, -0.25, 4693, 1, -0.25, 4699, 1, -0.25, 4687, 1, -0.25
*EQUATION
5
6564, 2, 1.0, 394, 2, -0.25, 4693, 2, -0.25, 4699, 2, -0.25, 4687, 2, -0.25
*EQUATION
5
6564, 3, 1.0, 394, 3, -0.25, 4693, 3, -0.25, 4699, 3, -0.25, 4687, 3, -0.25
*EQUATION
3
6565, 1, 1.0, 4687, 1, -0.5, 4699, 1, -0.5
*EQUATION
3
6565, 2, 1.0, 4687, 2, -0.5, 4699, 2, -0.5
*EQUATION
3
6565, 3, 1.0, 4687, 3, -0.5, 4699, 3, -0.5
*EQUATION
5
6566, 1, 1.0, 394, 1, -0.25, 4707, 1, -0.25, 4723, 1, -0.25, 4693, 1, -0.25
*EQUATION
5
6566, 2, 1.0, 394, 2, -0.25, 4707, 2, -0.25, 4723, 2, -0.25, 4693, 2, -0.25
*EQUATION
5
6566, 3, 1.0, 394, 3, -0.25, 4707, 3, -0.25, 4723, 3, -0.25, 4693, 3, -0.25
*EQUATION
5
6568, 1, 1.0, 4687, 1, -0.25, 4716, 1, -0.25, 4729, 1, -0.25, 4699, 1, -0.25
*EQUATION
5
6568, 2, 1.0, 4687, 2, -0.25, 4716, 2, -0.25, 4729, 2, -0.25, 4699, 2, -0.25
*EQUATION
5
6568, 3, 1.0, 4687, 3, -0.25, 4716, 3, -0.25, 4729, 3, -0.25, 4699, 3, -0.25
*EQUATION
3
6569, 1, 1.0, 4693, 1, -0.5, 4723, 1, -0.5
*EQUATION
3
6569, 2, 1.0, 4693, 2, -0.5, 4723, 2, -0.5
*EQUATION
3
6569, 3, 1.0, 4693, 3, -0.5, 4723, 3, -0.5
*EQUATION
3
6571, 1, 1.0, 4699, 1, -0.5, 4729, 1, -0.5
*EQUATION
3
6571, 2, 1.0, 4699, 2, -0.5, 4729, 2, -0.5
*EQUATION
3
6571, 3, 1.0, 4699, 3, -0.5, 4729, 3, -0.5
*EQUATION
3
6572, 1, 1.0, 4707, 1, -0.5, 4723, 1, -0.5
*EQUATION
3
6572, 2, 1.0, 4707, 2, -0.5, 4723, 2, -0.5
*EQUATION
3
6572, 3, 1.0, 4707, 3, -0.5, 4723, 3, -0.5
*EQUATION
5
6573, 1, 1.0, 4707, 1, -0.25, 4723, 1, -0.25, 4729, 1, -0.25, 4716, 1, -0.25
*EQUATION
5
6573, 2, 1.0, 4707, 2, -0.25, 4723, 2, -0.25, 4729, 2, -0.25, 4716, 2, -0.25
*EQUATION
5
6573, 3, 1.0, 4707, 3, -0.25, 4723, 3, -0.25, 4729, 3, -0.25, 4716, 3, -0.25
*EQUATION
3
6574, 1, 1.0, 4716, 1, -0.5, 4729, 1, -0.5
*EQUATION
3
6574, 2, 1.0, 4716, 2, -0.5, 4729, 2, -0.5
*EQUATION
3
6574, 3, 1.0, 4716, 3, -0.5, 4729, 3, -0.5
*EQUATION
3
6575, 1, 1.0, 4723, 1, -0.5, 4729, 1, -0.5
*EQUATION
3
6575, 2, 1.0, 4723, 2, -0.5, 4729, 2, -0.5
*EQUATION
3
6575, 3, 1.0, 4723, 3, -0.5, 4729, 3, -0.5
*EQUATION
5
6576, 1, 1.0, 4693, 1, -0.25, 4723, 1, -0.25, 4725, 1, -0.25, 401, 1, -0.25
*EQUATION
5
6576, 2, 1.0, 4693, 2, -0.25, 4723, 2, -0.25, 4725, 2, -0.25, 401, 2, -0.25
*EQUATION
5
6576, 3, 1.0, 4693, 3, -0.25, 4723, 3, -0.25, 4725, 3, -0.25, 401, 3, -0.25
*EQUATION
5
6578, 1, 1.0, 4699, 1, -0.25, 4729, 1, -0.25, 4731, 1, -0.25, 4701, 1, -0.25
*EQUATION
5
6578, 2, 1.0, 4699, 2, -0.25, 4729, 2, -0.25, 4731, 2, -0.25, 4701, 2, -0.25
*EQUATION
5
6578, 3, 1.0, 4699, 3, -0.25, 4729, 3, -0.25, 4731, 3, -0.25, 4701, 3, -0.25
*EQUATION
3
6579, 1, 1.0, 401, 1, -0.5, 4725, 1, -0.5
*EQUATION
3
6579, 2, 1.0, 401, 2, -0.5, 4725, 2, -0.5
*EQUATION
3
6579, 3, 1.0, 401, 3, -0.5, 4725, 3, -0.5
*EQUATION
3
6581, 1, 1.0, 4701, 1, -0.5, 4731, 1, -0.5
*EQUATION
3
6581, 2, 1.0, 4701, 2, -0.5, 4731, 2, -0.5
*EQUATION
3
6581, 3, 1.0, 4701, 3, -0.5, 4731, 3, -0.5
*EQUATION
3
6582, 1, 1.0, 4723, 1, -0.5, 4725, 1, -0.5
*EQUATION
3
6582, 2, 1.0, 4723, 2, -0.5, 4725, 2, -0.5
*EQUATION
3
6582, 3, 1.0, 4723, 3, -0.5, 4725, 3, -0.5
*EQUATION
5
6583, 1, 1.0, 4723, 1, -0.25, 4725, 1, -0.25, 4731, 1, -0.25, 4729, 1, -0.25
*EQUATION
5
6583, 2, 1.0, 4723, 2, -0.25, 4725, 2, -0.25, 4731, 2, -0.25, 4729, 2, -0.25
*EQUATION
5
6583, 3, 1.0, 4723, 3, -0.25, 4725, 3, -0.25, 4731, 3, -0.25, 4729, 3, -0.25
*EQUATION
3
6584, 1, 1.0, 4729, 1, -0.5, 4731, 1, -0.5
*EQUATION
3
6584, 2, 1.0, 4729, 2, -0.5, 4731, 2, -0.5
*EQUATION
3
6584, 3, 1.0, 4729, 3, -0.5, 4731, 3, -0.5
*EQUATION
3
6585, 1, 1.0, 4725, 1, -0.5, 4731, 1, -0.5
*EQUATION
3
6585, 2, 1.0, 4725, 2, -0.5, 4731, 2, -0.5
*EQUATION
3
6585, 3, 1.0, 4725, 3, -0.5, 4731, 3, -0.5
*EQUATION
5
6586, 1, 1.0, 395, 1, -0.25, 443, 1, -0.25, 463, 1, -0.25, 415, 1, -0.25
*EQUATION
5
6586, 2, 1.0, 395, 2, -0.25, 443, 2, -0.25, 463, 2, -0.25, 415, 2, -0.25
*EQUATION
5
6586, 3, 1.0, 395, 3, -0.25, 443, 3, -0.25, 463, 3, -0.25, 415, 3, -0.25
*EQUATION
3
6587, 1, 1.0, 415, 1, -0.5, 463, 1, -0.5
*EQUATION
3
6587, 2, 1.0, 415, 2, -0.5, 463, 2, -0.5
*EQUATION
3
6587, 3, 1.0, 415, 3, -0.5, 463, 3, -0.5
*EQUATION
5
6589, 1, 1.0, 415, 1, -0.25, 463, 1, -0.25, 465, 1, -0.25, 417, 1, -0.25
*EQUATION
5
6589, 2, 1.0, 415, 2, -0.25, 463, 2, -0.25, 465, 2, -0.25, 417, 2, -0.25
*EQUATION
5
6589, 3, 1.0, 415, 3, -0.25, 463, 3, -0.25, 465, 3, -0.25, 417, 3, -0.25
*EQUATION
3
6591, 1, 1.0, 417, 1, -0.5, 465, 1, -0.5
*EQUATION
3
6591, 2, 1.0, 417, 2, -0.5, 465, 2, -0.5
*EQUATION
3
6591, 3, 1.0, 417, 3, -0.5, 465, 3, -0.5
*EQUATION
3
6592, 1, 1.0, 443, 1, -0.5, 463, 1, -0.5
*EQUATION
3
6592, 2, 1.0, 443, 2, -0.5, 463, 2, -0.5
*EQUATION
3
6592, 3, 1.0, 443, 3, -0.5, 463, 3, -0.5
*EQUATION
5
6593, 1, 1.0, 443, 1, -0.25, 444, 1, -0.25, 465, 1, -0.25, 463, 1, -0.25
*EQUATION
5
6593, 2, 1.0, 443, 2, -0.25, 444, 2, -0.25, 465, 2, -0.25, 463, 2, -0.25
*EQUATION
5
6593, 3, 1.0, 443, 3, -0.25, 444, 3, -0.25, 465, 3, -0.25, 463, 3, -0.25
*EQUATION
3
6594, 1, 1.0, 463, 1, -0.5, 465, 1, -0.5
*EQUATION
3
6594, 2, 1.0, 463, 2, -0.5, 465, 2, -0.5
*EQUATION
3
6594, 3, 1.0, 463, 3, -0.5, 465, 3, -0.5
*EQUATION
3
6595, 1, 1.0, 444, 1, -0.5, 465, 1, -0.5
*EQUATION
3
6595, 2, 1.0, 444, 2, -0.5, 465, 2, -0.5
*EQUATION
3
6595, 3, 1.0, 444, 3, -0.5, 465, 3, -0.5
*EQUATION
5
6597, 1, 1.0, 417, 1, -0.25, 465, 1, -0.25, 467, 1, -0.25, 419, 1, -0.25
*EQUATION
5
6597, 2, 1.0, 417, 2, -0.25, 465, 2, -0.25, 467, 2, -0.25, 419, 2, -0.25
*EQUATION
5
6597, 3, 1.0, 417, 3, -0.25, 465, 3, -0.25, 467, 3, -0.25, 419, 3, -0.25
*EQUATION
5
6598, 1, 1.0, 402, 1, -0.25, 450, 1, -0.25, 467, 1, -0.25, 419, 1, -0.25
*EQUATION
5
6598, 2, 1.0, 402, 2, -0.25, 450, 2, -0.25, 467, 2, -0.25, 419, 2, -0.25
*EQUATION
5
6598, 3, 1.0, 402, 3, -0.25, 450, 3, -0.25, 467, 3, -0.25, 419, 3, -0.25
*EQUATION
3
6599, 1, 1.0, 419, 1, -0.5, 467, 1, -0.5
*EQUATION
3
6599, 2, 1.0, 419, 2, -0.5, 467, 2, -0.5
*EQUATION
3
6599, 3, 1.0, 419, 3, -0.5, 467, 3, -0.5
*EQUATION
5
6600, 1, 1.0, 444, 1, -0.25, 450, 1, -0.25, 467, 1, -0.25, 465, 1, -0.25
*EQUATION
5
6600, 2, 1.0, 444, 2, -0.25, 450, 2, -0.25, 467, 2, -0.25, 465, 2, -0.25
*EQUATION
5
6600, 3, 1.0, 444, 3, -0.25, 450, 3, -0.25, 467, 3, -0.25, 465, 3, -0.25
*EQUATION
3
6601, 1, 1.0, 465, 1, -0.5, 467, 1, -0.5
*EQUATION
3
6601, 2, 1.0, 465, 2, -0.5, 467, 2, -0.5
*EQUATION
3
6601, 3, 1.0, 465, 3, -0.5, 467, 3, -0.5
*EQUATION
3
6602, 1, 1.0, 450, 1, -0.5, 467, 1, -0.5
*EQUATION
3
6602, 2, 1.0, 450, 2, -0.5, 467, 2, -0.5
*EQUATION
3
6602, 3, 1.0, 450, 3, -0.5, 467, 3, -0.5
*EQUATION
3
6609, 1, 1.0, 487, 1, -0.5, 489, 1, -0.5
*EQUATION
3
6609, 2, 1.0, 487, 2, -0.5, 489, 2, -0.5
*EQUATION
3
6609, 3, 1.0, 487, 3, -0.5, 489, 3, -0.5
*EQUATION
5
6610, 1, 1.0, 487, 1, -0.25, 488, 1, -0.25, 490, 1, -0.25, 489, 1, -0.25
*EQUATION
5
6610, 2, 1.0, 487, 2, -0.25, 488, 2, -0.25, 490, 2, -0.25, 489, 2, -0.25
*EQUATION
5
6610, 3, 1.0, 487, 3, -0.25, 488, 3, -0.25, 490, 3, -0.25, 489, 3, -0.25
*EQUATION
3
6611, 1, 1.0, 489, 1, -0.5, 490, 1, -0.5
*EQUATION
3
6611, 2, 1.0, 489, 2, -0.5, 490, 2, -0.5
*EQUATION
3
6611, 3, 1.0, 489, 3, -0.5, 490, 3, -0.5
*EQUATION
3
6612, 1, 1.0, 488, 1, -0.5, 490, 1, -0.5
*EQUATION
3
6612, 2, 1.0, 488, 2, -0.5, 490, 2, -0.5
*EQUATION
3
6612, 3, 1.0, 488, 3, -0.5, 490, 3, -0.5
*EQUATION
3
6614, 1, 1.0, 443, 1, -0.5, 491, 1, -0.5
*EQUATION
3
6614, 2, 1.0, 443, 2, -0.5, 491, 2, -0.5
*EQUATION
3
6614, 3, 1.0, 443, 3, -0.5, 491, 3, -0.5
*EQUATION
5
6616, 1, 1.0, 443, 1, -0.25, 491, 1, -0.25, 492, 1, -0.25, 444, 1, -0.25
*EQUATION
5
6616, 2, 1.0, 443, 2, -0.25, 491, 2, -0.25, 492, 2, -0.25, 444, 2, -0.25
*EQUATION
5
6616, 3, 1.0, 443, 3, -0.25, 491, 3, -0.25, 492, 3, -0.25, 444, 3, -0.25
*EQUATION
3
6618, 1, 1.0, 444, 1, -0.5, 492, 1, -0.5
*EQUATION
3
6618, 2, 1.0, 444, 2, -0.5, 492, 2, -0.5
*EQUATION
3
6618, 3, 1.0, 444, 3, -0.5, 492, 3, -0.5
*EQUATION
3
6619, 1, 1.0, 489, 1, -0.5, 491, 1, -0.5
*EQUATION
3
6619, 2, 1.0, 489, 2, -0.5, 491, 2, -0.5
*EQUATION
3
6619, 3, 1.0, 489, 3, -0.5, 491, 3, -0.5
*EQUATION
5
6620, 1, 1.0, 489, 1, -0.25, 490, 1, -0.25, 492, 1, -0.25, 491, 1, -0.25
*EQUATION
5
6620, 2, 1.0, 489, 2, -0.25, 490, 2, -0.25, 492, 2, -0.25, 491, 2, -0.25
*EQUATION
5
6620, 3, 1.0, 489, 3, -0.25, 490, 3, -0.25, 492, 3, -0.25, 491, 3, -0.25
*EQUATION
3
6621, 1, 1.0, 491, 1, -0.5, 492, 1, -0.5
*EQUATION
3
6621, 2, 1.0, 491, 2, -0.5, 492, 2, -0.5
*EQUATION
3
6621, 3, 1.0, 491, 3, -0.5, 492, 3, -0.5
*EQUATION
3
6622, 1, 1.0, 490, 1, -0.5, 492, 1, -0.5
*EQUATION
3
6622, 2, 1.0, 490, 2, -0.5, 492, 2, -0.5
*EQUATION
3
6622, 3, 1.0, 490, 3, -0.5, 492, 3, -0.5
*EQUATION
5
6627, 1, 1.0, 488, 1, -0.25, 496, 1, -0.25, 497, 1, -0.25, 490, 1, -0.25
*EQUATION
5
6627, 2, 1.0, 488, 2, -0.25, 496, 2, -0.25, 497, 2, -0.25, 490, 2, -0.25
*EQUATION
5
6627, 3, 1.0, 488, 3, -0.25, 496, 3, -0.25, 497, 3, -0.25, 490, 3, -0.25
*EQUATION
3
6628, 1, 1.0, 490, 1, -0.5, 497, 1, -0.5
*EQUATION
3
6628, 2, 1.0, 490, 2, -0.5, 497, 2, -0.5
*EQUATION
3
6628, 3, 1.0, 490, 3, -0.5, 497, 3, -0.5
*EQUATION
3
6629, 1, 1.0, 496, 1, -0.5, 497, 1, -0.5
*EQUATION
3
6629, 2, 1.0, 496, 2, -0.5, 497, 2, -0.5
*EQUATION
3
6629, 3, 1.0, 496, 3, -0.5, 497, 3, -0.5
*EQUATION
5
6631, 1, 1.0, 444, 1, -0.25, 492, 1, -0.25, 498, 1, -0.25, 450, 1, -0.25
*EQUATION
5
6631, 2, 1.0, 444, 2, -0.25, 492, 2, -0.25, 498, 2, -0.25, 450, 2, -0.25
*EQUATION
5
6631, 3, 1.0, 444, 3, -0.25, 492, 3, -0.25, 498, 3, -0.25, 450, 3, -0.25
*EQUATION
3
6633, 1, 1.0, 450, 1, -0.5, 498, 1, -0.5
*EQUATION
3
6633, 2, 1.0, 450, 2, -0.5, 498, 2, -0.5
*EQUATION
3
6633, 3, 1.0, 450, 3, -0.5, 498, 3, -0.5
*EQUATION
5
6634, 1, 1.0, 490, 1, -0.25, 497, 1, -0.25, 498, 1, -0.25, 492, 1, -0.25
*EQUATION
5
6634, 2, 1.0, 490, 2, -0.25, 497, 2, -0.25, 498, 2, -0.25, 492, 2, -0.25
*EQUATION
5
6634, 3, 1.0, 490, 3, -0.25, 497, 3, -0.25, 498, 3, -0.25, 492, 3, -0.25
*EQUATION
3
6635, 1, 1.0, 492, 1, -0.5, 498, 1, -0.5
*EQUATION
3
6635, 2, 1.0, 492, 2, -0.5, 498, 2, -0.5
*EQUATION
3
6635, 3, 1.0, 492, 3, -0.5, 498, 3, -0.5
*EQUATION
3
6636, 1, 1.0, 497, 1, -0.5, 498, 1, -0.5
*EQUATION
3
6636, 2, 1.0, 497, 2, -0.5, 498, 2, -0.5
*EQUATION
3
6636, 3, 1.0, 497, 3, -0.5, 498, 3, -0.5
*EQUATION
3
6638, 1, 1.0, 487, 1, -0.5, 535, 1, -0.5
*EQUATION
3
6638, 2, 1.0, 487, 2, -0.5, 535, 2, -0.5
*EQUATION
3
6638, 3, 1.0, 487, 3, -0.5, 535, 3, -0.5
*EQUATION
5
6640, 1, 1.0, 487, 1, -0.25, 535, 1, -0.25, 536, 1, -0.25, 488, 1, -0.25
*EQUATION
5
6640, 2, 1.0, 487, 2, -0.25, 535, 2, -0.25, 536, 2, -0.25, 488, 2, -0.25
*EQUATION
5
6640, 3, 1.0, 487, 3, -0.25, 535, 3, -0.25, 536, 3, -0.25, 488, 3, -0.25
*EQUATION
3
6642, 1, 1.0, 488, 1, -0.5, 536, 1, -0.5
*EQUATION
3
6642, 2, 1.0, 488, 2, -0.5, 536, 2, -0.5
*EQUATION
3
6642, 3, 1.0, 488, 3, -0.5, 536, 3, -0.5
*EQUATION
3
6645, 1, 1.0, 535, 1, -0.5, 536, 1, -0.5
*EQUATION
3
6645, 2, 1.0, 535, 2, -0.5, 536, 2, -0.5
*EQUATION
3
6645, 3, 1.0, 535, 3, -0.5, 536, 3, -0.5
*EQUATION
5
6648, 1, 1.0, 488, 1, -0.25, 536, 1, -0.25, 544, 1, -0.25, 496, 1, -0.25
*EQUATION
5
6648, 2, 1.0, 488, 2, -0.25, 536, 2, -0.25, 544, 2, -0.25, 496, 2, -0.25
*EQUATION
5
6648, 3, 1.0, 488, 3, -0.25, 536, 3, -0.25, 544, 3, -0.25, 496, 3, -0.25
*EQUATION
3
6650, 1, 1.0, 496, 1, -0.5, 544, 1, -0.5
*EQUATION
3
6650, 2, 1.0, 496, 2, -0.5, 544, 2, -0.5
*EQUATION
3
6650, 3, 1.0, 496, 3, -0.5, 544, 3, -0.5
*EQUATION
3
6652, 1, 1.0, 536, 1, -0.5, 544, 1, -0.5
*EQUATION
3
6652, 2, 1.0, 536, 2, -0.5, 544, 2, -0.5
*EQUATION
3
6652, 3, 1.0, 536, 3, -0.5, 544, 3, -0.5
*EQUATION
3
6655, 1, 1.0, 535, 1, -0.5, 583, 1, -0.5
*EQUATION
3
6655, 2, 1.0, 535, 2, -0.5, 583, 2, -0.5
*EQUATION
3
6655, 3, 1.0, 535, 3, -0.5, 583, 3, -0.5
*EQUATION
5
6657, 1, 1.0, 535, 1, -0.25, 583, 1, -0.25, 584, 1, -0.25, 536, 1, -0.25
*EQUATION
5
6657, 2, 1.0, 535, 2, -0.25, 583, 2, -0.25, 584, 2, -0.25, 536, 2, -0.25
*EQUATION
5
6657, 3, 1.0, 535, 3, -0.25, 583, 3, -0.25, 584, 3, -0.25, 536, 3, -0.25
*EQUATION
3
6659, 1, 1.0, 536, 1, -0.5, 584, 1, -0.5
*EQUATION
3
6659, 2, 1.0, 536, 2, -0.5, 584, 2, -0.5
*EQUATION
3
6659, 3, 1.0, 536, 3, -0.5, 584, 3, -0.5
*EQUATION
3
6660, 1, 1.0, 581, 1, -0.5, 583, 1, -0.5
*EQUATION
3
6660, 2, 1.0, 581, 2, -0.5, 583, 2, -0.5
*EQUATION
3
6660, 3, 1.0, 581, 3, -0.5, 583, 3, -0.5
*EQUATION
5
6661, 1, 1.0, 581, 1, -0.25, 582, 1, -0.25, 584, 1, -0.25, 583, 1, -0.25
*EQUATION
5
6661, 2, 1.0, 581, 2, -0.25, 582, 2, -0.25, 584, 2, -0.25, 583, 2, -0.25
*EQUATION
5
6661, 3, 1.0, 581, 3, -0.25, 582, 3, -0.25, 584, 3, -0.25, 583, 3, -0.25
*EQUATION
3
6662, 1, 1.0, 583, 1, -0.5, 584, 1, -0.5
*EQUATION
3
6662, 2, 1.0, 583, 2, -0.5, 584, 2, -0.5
*EQUATION
3
6662, 3, 1.0, 583, 3, -0.5, 584, 3, -0.5
*EQUATION
3
6663, 1, 1.0, 582, 1, -0.5, 584, 1, -0.5
*EQUATION
3
6663, 2, 1.0, 582, 2, -0.5, 584, 2, -0.5
*EQUATION
3
6663, 3, 1.0, 582, 3, -0.5, 584, 3, -0.5
*EQUATION
5
6665, 1, 1.0, 536, 1, -0.25, 584, 1, -0.25, 592, 1, -0.25, 544, 1, -0.25
*EQUATION
5
6665, 2, 1.0, 536, 2, -0.25, 584, 2, -0.25, 592, 2, -0.25, 544, 2, -0.25
*EQUATION
5
6665, 3, 1.0, 536, 3, -0.25, 584, 3, -0.25, 592, 3, -0.25, 544, 3, -0.25
*EQUATION
3
6667, 1, 1.0, 544, 1, -0.5, 592, 1, -0.5
*EQUATION
3
6667, 2, 1.0, 544, 2, -0.5, 592, 2, -0.5
*EQUATION
3
6667, 3, 1.0, 544, 3, -0.5, 592, 3, -0.5
*EQUATION
5
6668, 1, 1.0, 582, 1, -0.25, 591, 1, -0.25, 592, 1, -0.25, 584, 1, -0.25
*EQUATION
5
6668, 2, 1.0, 582, 2, -0.25, 591, 2, -0.25, 592, 2, -0.25, 584, 2, -0.25
*EQUATION
5
6668, 3, 1.0, 582, 3, -0.25, 591, 3, -0.25, 592, 3, -0.25, 584, 3, -0.25
*EQUATION
3
6669, 1, 1.0, 584, 1, -0.5, 592, 1, -0.5
*EQUATION
3
6669, 2, 1.0, 584, 2, -0.5, 592, 2, -0.5
*EQUATION
3
6669, 3, 1.0, 584, 3, -0.5, 592, 3, -0.5
*EQUATION
3
6670, 1, 1.0, 591, 1, -0.5, 592, 1, -0.5
*EQUATION
3
6670, 2, 1.0, 591, 2, -0.5, 592, 2, -0.5
*EQUATION
3
6670, 3, 1.0, 591, 3, -0.5, 592, 3, -0.5
*EQUATION
3
6672, 1, 1.0, 581, 1, -0.5, 629, 1, -0.5
*EQUATION
3
6672, 2, 1.0, 581, 2, -0.5, 629, 2, -0.5
*EQUATION
3
6672, 3, 1.0, 581, 3, -0.5, 629, 3, -0.5
*EQUATION
5
6674, 1, 1.0, 581, 1, -0.25, 629, 1, -0.25, 630, 1, -0.25, 582, 1, -0.25
*EQUATION
5
6674, 2, 1.0, 581, 2, -0.25, 629, 2, -0.25, 630, 2, -0.25, 582, 2, -0.25
*EQUATION
5
6674, 3, 1.0, 581, 3, -0.25, 629, 3, -0.25, 630, 3, -0.25, 582, 3, -0.25
*EQUATION
3
6676, 1, 1.0, 582, 1, -0.5, 630, 1, -0.5
*EQUATION
3
6676, 2, 1.0, 582, 2, -0.5, 630, 2, -0.5
*EQUATION
3
6676, 3, 1.0, 582, 3, -0.5, 630, 3, -0.5
*EQUATION
3
6677, 1, 1.0, 627, 1, -0.5, 629, 1, -0.5
*EQUATION
3
6677, 2, 1.0, 627, 2, -0.5, 629, 2, -0.5
*EQUATION
3
6677, 3, 1.0, 627, 3, -0.5, 629, 3, -0.5
*EQUATION
5
6678, 1, 1.0, 627, 1, -0.25, 628, 1, -0.25, 630, 1, -0.25, 629, 1, -0.25
*EQUATION
5
6678, 2, 1.0, 627, 2, -0.25, 628, 2, -0.25, 630, 2, -0.25, 629, 2, -0.25
*EQUATION
5
6678, 3, 1.0, 627, 3, -0.25, 628, 3, -0.25, 630, 3, -0.25, 629, 3, -0.25
*EQUATION
3
6679, 1, 1.0, 629, 1, -0.5, 630, 1, -0.5
*EQUATION
3
6679, 2, 1.0, 629, 2, -0.5, 630, 2, -0.5
*EQUATION
3
6679, 3, 1.0, 629, 3, -0.5, 630, 3, -0.5
*EQUATION
3
6680, 1, 1.0, 628, 1, -0.5, 630, 1, -0.5
*EQUATION
3
6680, 2, 1.0, 628, 2, -0.5, 630, 2, -0.5
*EQUATION
3
6680, 3, 1.0, 628, 3, -0.5, 630, 3, -0.5
*EQUATION
5
6682, 1, 1.0, 582, 1, -0.25, 630, 1, -0.25, 639, 1, -0.25, 591, 1, -0.25
*EQUATION
5
6682, 2, 1.0, 582, 2, -0.25, 630, 2, -0.25, 639, 2, -0.25, 591, 2, -0.25
*EQUATION
5
6682, 3, 1.0, 582, 3, -0.25, 630, 3, -0.25, 639, 3, -0.25, 591, 3, -0.25
*EQUATION
3
6684, 1, 1.0, 591, 1, -0.5, 639, 1, -0.5
*EQUATION
3
6684, 2, 1.0, 591, 2, -0.5, 639, 2, -0.5
*EQUATION
3
6684, 3, 1.0, 591, 3, -0.5, 639, 3, -0.5
*EQUATION
5
6685, 1, 1.0, 628, 1, -0.25, 638, 1, -0.25, 639, 1, -0.25, 630, 1, -0.25
*EQUATION
5
6685, 2, 1.0, 628, 2, -0.25, 638, 2, -0.25, 639, 2, -0.25, 630, 2, -0.25
*EQUATION
5
6685, 3, 1.0, 628, 3, -0.25, 638, 3, -0.25, 639, 3, -0.25, 630, 3, -0.25
*EQUATION
3
6686, 1, 1.0, 630, 1, -0.5, 639, 1, -0.5
*EQUATION
3
6686, 2, 1.0, 630, 2, -0.5, 639, 2, -0.5
*EQUATION
3
6686, 3, 1.0, 630, 3, -0.5, 639, 3, -0.5
*EQUATION
3
6687, 1, 1.0, 638, 1, -0.5, 639, 1, -0.5
*EQUATION
3
6687, 2, 1.0, 638, 2, -0.5, 639, 2, -0.5
*EQUATION
3
6687, 3, 1.0, 638, 3, -0.5, 639, 3, -0.5
*EQUATION
3
6690, 1, 1.0, 675, 1, -0.5, 723, 1, -0.5
*EQUATION
3
6690, 2, 1.0, 675, 2, -0.5, 723, 2, -0.5
*EQUATION
3
6690, 3, 1.0, 675, 3, -0.5, 723, 3, -0.5
*EQUATION
5
6693, 1, 1.0, 675, 1, -0.25, 723, 1, -0.25, 724, 1, -0.25, 676, 1, -0.25
*EQUATION
5
6693, 2, 1.0, 675, 2, -0.25, 723, 2, -0.25, 724, 2, -0.25, 676, 2, -0.25
*EQUATION
5
6693, 3, 1.0, 675, 3, -0.25, 723, 3, -0.25, 724, 3, -0.25, 676, 3, -0.25
*EQUATION
3
6696, 1, 1.0, 676, 1, -0.5, 724, 1, -0.5
*EQUATION
3
6696, 2, 1.0, 676, 2, -0.5, 724, 2, -0.5
*EQUATION
3
6696, 3, 1.0, 676, 3, -0.5, 724, 3, -0.5
*EQUATION
3
6697, 1, 1.0, 721, 1, -0.5, 723, 1, -0.5
*EQUATION
3
6697, 2, 1.0, 721, 2, -0.5, 723, 2, -0.5
*EQUATION
3
6697, 3, 1.0, 721, 3, -0.5, 723, 3, -0.5
*EQUATION
3
6698, 1, 1.0, 721, 1, -0.5, 722, 1, -0.5
*EQUATION
3
6698, 2, 1.0, 721, 2, -0.5, 722, 2, -0.5
*EQUATION
3
6698, 3, 1.0, 721, 3, -0.5, 722, 3, -0.5
*EQUATION
5
6699, 1, 1.0, 721, 1, -0.25, 722, 1, -0.25, 724, 1, -0.25, 723, 1, -0.25
*EQUATION
5
6699, 2, 1.0, 721, 2, -0.25, 722, 2, -0.25, 724, 2, -0.25, 723, 2, -0.25
*EQUATION
5
6699, 3, 1.0, 721, 3, -0.25, 722, 3, -0.25, 724, 3, -0.25, 723, 3, -0.25
*EQUATION
3
6700, 1, 1.0, 723, 1, -0.5, 724, 1, -0.5
*EQUATION
3
6700, 2, 1.0, 723, 2, -0.5, 724, 2, -0.5
*EQUATION
3
6700, 3, 1.0, 723, 3, -0.5, 724, 3, -0.5
*EQUATION
3
6701, 1, 1.0, 722, 1, -0.5, 724, 1, -0.5
*EQUATION
3
6701, 2, 1.0, 722, 2, -0.5, 724, 2, -0.5
*EQUATION
3
6701, 3, 1.0, 722, 3, -0.5, 724, 3, -0.5
*EQUATION
5
6704, 1, 1.0, 676, 1, -0.25, 724, 1, -0.25, 734, 1, -0.25, 686, 1, -0.25
*EQUATION
5
6704, 2, 1.0, 676, 2, -0.25, 724, 2, -0.25, 734, 2, -0.25, 686, 2, -0.25
*EQUATION
5
6704, 3, 1.0, 676, 3, -0.25, 724, 3, -0.25, 734, 3, -0.25, 686, 3, -0.25
*EQUATION
3
6707, 1, 1.0, 686, 1, -0.5, 734, 1, -0.5
*EQUATION
3
6707, 2, 1.0, 686, 2, -0.5, 734, 2, -0.5
*EQUATION
3
6707, 3, 1.0, 686, 3, -0.5, 734, 3, -0.5
*EQUATION
3
6708, 1, 1.0, 722, 1, -0.5, 733, 1, -0.5
*EQUATION
3
6708, 2, 1.0, 722, 2, -0.5, 733, 2, -0.5
*EQUATION
3
6708, 3, 1.0, 722, 3, -0.5, 733, 3, -0.5
*EQUATION
5
6709, 1, 1.0, 722, 1, -0.25, 733, 1, -0.25, 734, 1, -0.25, 724, 1, -0.25
*EQUATION
5
6709, 2, 1.0, 722, 2, -0.25, 733, 2, -0.25, 734, 2, -0.25, 724, 2, -0.25
*EQUATION
5
6709, 3, 1.0, 722, 3, -0.25, 733, 3, -0.25, 734, 3, -0.25, 724, 3, -0.25
*EQUATION
3
6710, 1, 1.0, 724, 1, -0.5, 734, 1, -0.5
*EQUATION
3
6710, 2, 1.0, 724, 2, -0.5, 734, 2, -0.5
*EQUATION
3
6710, 3, 1.0, 724, 3, -0.5, 734, 3, -0.5
*EQUATION
3
6711, 1, 1.0, 733, 1, -0.5, 734, 1, -0.5
*EQUATION
3
6711, 2, 1.0, 733, 2, -0.5, 734, 2, -0.5
*EQUATION
3
6711, 3, 1.0, 733, 3, -0.5, 734, 3, -0.5
*BOUNDARY
CLAMP, 1, 3, 0.0
*STEP
*STATIC
*CLOAD
887, 3, -333.333333333
888, 3, -333.333333333
891, 3, -333.333333333
894, 3, -333.333333333
896, 3, -333.333333333
898, 3, -333.333333333
900, 3, -333.333333333
903, 3, -333.333333333
906, 3, -333.333333333
909, 3, -333.333333333
912, 3, -333.333333333
2707, 3, -333.333333333
2720, 3, -333.333333333
3634, 3, -333.333333333
3643, 3, -333.333333333
*NODE FILE
U
*EL FILE
S, ENER
*NODE PRINT, NSET=TIP_TOP
U
*NODE PRINT, NSET=CLAMP
RF
*EL PRINT, ELSET=EALL
ELSE
*ENERGY PRINT
*END STEP
